<?xml version="1.0"?>
<VTKFile type="UnstructuredGrid" version="0.1" byte_order="LittleEndian">
<UnstructuredGrid>
<Piece NumberOfPoints="30972" NumberOfCells="10842">
<Points>
<DataArray type="Float64" NumberOfComponents="3" format="ascii">
-0.5 -0.5 0 -0.4656923782564602 -0.46714357305114512 0 -0.43179662995678308 -0.49219264151174769 0 -0.5 -0.5 0 -0.39077372265239102 -0.5 0 -0.43179662995678308 -0.49219264151174769 0 -0.5 -0.5 0 -0.4656923782564602 -0.46714357305114512 0 -0.47488359933155072 -0.46306371676810659 0 -0.5 -0.5 0 -0.47488359933155072 -0.46306371676810659 0 -0.49999999999999911 -0.46029921021984682 0 -0.43865985116486889 -0.47519983126815218 0 -0.4656923782564602 -0.46714357305114512 0 -0.43179662995678308 -0.49219264151174769 0 -0.43865985116486889 -0.47519983126815218 0 -0.44976719866310222 -0.46582822331636642 0 -0.4656923782564602 -0.46714357305114512 0 -0.44935010497525713 -0.45144061304350308 0 -0.45053224158810362 -0.42642549264287632 0 -0.42402515746288849 -0.44788725249385519 0 -0.44935010497525713 -0.45144061304350308 0 -0.44976719866310222 -0.46582822331636642 0 -0.43645930401940181 -0.45964568633721181 0 -0.44976719866310222 -0.46582822331636642 0 -0.42850439407505569 -0.46407200925224301 0 -0.44976719866310222 -0.46582822331636642 0 -0.42850439407505569 -0.46407200925224301 0 -0.43645930401940181 -0.45964568633721181 0 -0.44935010497525713 -0.45144061304350308 0 -0.46205389600505731 -0.45898406408225118 0 -0.47467505248762559 -0.45499397359315119 0 -0.44976719866310222 -0.46582822331636642 0 -0.46205389600505731 -0.45898406408225118 0 -0.47488359933155072 -0.46306371676810659 0 -0.44976719866310222 -0.46582822331636642 0 -0.4656923782564602 -0.46714357305114512 0 -0.47488359933155072 -0.46306371676810659 0 -0.44976719866310222 -0.46582822331636642 0 -0.47488359933155072 -0.46306371676810659 0 -0.44976719866310222 -0.46582822331636642 0 -0.4656923782564602 -0.46714357305114512 0 -0.44935010497525713 -0.45144061304350308 0 -0.47467505248762559 -0.45499397359315119 0 -0.44935010497525713 -0.45144061304350308 0 -0.44976719866310222 -0.46582822331636642 0 -0.46205389600505731 -0.45898406408225118 0 -0.44935010497525713 -0.45144061304350308 0 -0.47467505248762559 -0.45499397359315119 0 -0.47509574517783992 -0.42810502851887372 0 -0.47467505248762559 -0.45499397359315119 0 -0.5 -0.43825246372684862 0 -0.47509574517783992 -0.42810502851887372 0 -0.47488359933155072 -0.46306371676810659 0 -0.47467505248762559 -0.45499397359315119 0 -0.49999999999999439 -0.45854733414279841 0 -0.46205389600505731 -0.45898406408225118 0 -0.47488359933155072 -0.46306371676810659 0 -0.47467505248762559 -0.45499397359315119 0 -0.47488359933155072 -0.46306371676810659 0 -0.49999999999999911 -0.46029921021984682 0 -0.47488359933155072 -0.46306371676810659 0 -0.49999999999999439 -0.45854733414279841 0 -0.49999999999999911 -0.46029921021984682 0 -0.47467505248762559 -0.45499397359315119 0 -0.49999999999999439 -0.45854733414279841 0 -0.47467505248762559 -0.45499397359315119 0 -0.49999999999999439 -0.45854733414279841 0 -0.5 -0.43825246372684862 0 -0.48643549634406819 -0.40943322291718082 0 -0.47509574517783992 -0.42810502851887372 0 -0.47199362695718039 -0.39660445064681288 0 -0.5 -0.43825246372684862 0 -0.5 -0.41795759331089888 0 -0.47509574517783992 -0.42810502851887372 0 -0.5 -0.41795759331089888 0 -0.48643549634406819 -0.40943322291718082 0 -0.47509574517783992 -0.42810502851887372 0 -0.5 -0.41795759331089888 0 -0.48643549634406819 -0.40943322291718082 0 -0.49999999999999822 -0.39766272289494919 0 -0.49999999999999878 -0.38412199820164061 0 -0.48296735088199949 -0.38227215457928648 0 -0.48986959253786022 -0.36321827667384149 0 -0.49999999999999878 -0.38412199820164061 0 -0.49999999999999822 -0.39766272289494919 0 -0.48296735088199949 -0.38227215457928648 0 -0.48643549634406819 -0.40943322291718082 0 -0.49999999999999822 -0.39766272289494919 0 -0.47199362695718039 -0.39660445064681288 0 -0.49999999999999822 -0.39766272289494919 0 -0.47199362695718039 -0.39660445064681288 0 -0.49999999999999822 -0.39766272289494919 0 -0.47199362695718039 -0.39660445064681288 0 -0.48296735088199949 -0.38227215457928648 0 -0.47199362695718039 -0.39660445064681288 0 -0.48296735088199949 -0.38227215457928648 0 -0.46321688699365088 -0.38112005446674863 0 -0.48296735088199949 -0.38227215457928648 0 -0.46321688699365088 -0.38112005446674863 0 -0.47352554036796501 -0.36993574898521719 0 -0.47199362695718039 -0.39660445064681288 0 -0.46321688699365088 -0.38112005446674863 0 -0.44398725391436261 -0.39554617839867662 0 -0.47199362695718039 -0.39660445064681288 0 -0.44398725391436261 -0.39554617839867662 0 -0.47199362695718039 -0.39660445064681288 0 -0.44398725391436261 -0.39554617839867662 0 -0.45053224158810362 -0.42642549264287632 0 -0.46321688699365088 -0.38112005446674863 0 -0.44398725391436261 -0.39554617839867662 0 -0.44356625432934749 -0.37774813027686421 0 -0.47509574517783992 -0.42810502851887372 0 -0.47199362695718039 -0.39660445064681288 0 -0.45053224158810362 -0.42642549264287632 0 -0.44935010497525713 -0.45144061304350308 0 -0.47509574517783992 -0.42810502851887372 0 -0.45053224158810362 -0.42642549264287632 0 -0.44398725391436261 -0.39554617839867662 0 -0.45053224158810362 -0.42642549264287632 0 -0.4284178561414913 -0.41991993691217783 0 -0.45053224158810362 -0.42642549264287632 0 -0.4284178561414913 -0.41991993691217783 0 -0.42402515746288849 -0.44788725249385519 0 -0.4284178561414913 -0.41991993691217783 0 -0.41598088087154472 -0.3944879061505403 0 -0.40139991859235491 -0.41102035711232282 0 -0.4284178561414913 -0.41991993691217783 0 -0.41015707937411339 -0.42907007189623869 0 -0.40139991859235491 -0.41102035711232282 0 -0.4284178561414913 -0.41991993691217783 0 -0.41015707937411339 -0.42907007189623869 0 -0.42402515746288849 -0.44788725249385519 0 -0.44398725391436261 -0.39554617839867662 0 -0.44356625432934749 -0.37774813027686421 0 -0.42317389780165121 -0.3800376726098959 0 -0.44398725391436261 -0.39554617839867662 0 -0.42317389780165121 -0.3800376726098959 0 -0.41598088087154472 -0.3944879061505403 0 -0.44398725391436261 -0.39554617839867662 0 -0.41598088087154472 -0.3944879061505403 0 -0.44398725391436261 -0.39554617839867662 0 -0.4284178561414913 -0.41991993691217783 0 -0.41598088087154472 -0.3944879061505403 0 -0.42317389780165121 -0.3800376726098959 0 -0.40761490702247438 -0.38390181607978657 0 -0.40649974809747741 -0.36772259419188569 0 -0.42317389780165121 -0.3800376726098959 0 -0.41598088087154472 -0.3944879061505403 0 -0.40761490702247438 -0.38390181607978657 0 -0.42317389780165121 -0.3800376726098959 0 -0.40761490702247438 -0.38390181607978657 0 -0.41598088087154472 -0.3944879061505403 0 -0.40761490702247438 -0.38390181607978657 0 -0.39205591624329778 -0.3877659595496783 0 -0.39205591624329778 -0.3877659595496783 0 -0.40649974809747741 -0.36772259419188569 0 -0.39102284214959621 -0.37422759502820119 0 -0.39205591624329778 -0.3877659595496783 0 -0.40649974809747741 -0.36772259419188569 0 -0.40761490702247438 -0.38390181607978657 0 -0.39205591624329778 -0.3877659595496783 0 -0.40649974809747741 -0.36772259419188569 0 -0.40761490702247438 -0.38390181607978657 0 -0.39205591624329778 -0.3877659595496783 0 -0.41598088087154472 -0.3944879061505403 0 -0.39205591624329778 -0.3877659595496783 0 -0.38797450782872689 -0.39342963390240532 0 -0.41598088087154472 -0.3944879061505403 0 -0.38797450782872689 -0.39342963390240532 0 -0.40139991859235491 -0.41102035711232282 0 -0.41598088087154472 -0.3944879061505403 0 -0.38797450782872689 -0.39342963390240532 0 -0.37968344780272312 -0.40493494267242691 0 -0.38797450782872689 -0.39342963390240532 0 -0.40139991859235491 -0.41102035711232282 0 -0.37968344780272312 -0.40493494267242691 0 -0.38797450782872689 -0.39342963390240532 0 -0.37058365568509732 -0.39309868945467707 0 -0.39205591624329778 -0.3877659595496783 0 -0.38797450782872689 -0.39342963390240532 0 -0.37058365568509732 -0.39309868945467707 0 -0.38797450782872689 -0.39342963390240532 0 -0.37058365568509732 -0.39309868945467707 0 -0.37968344780272312 -0.40493494267242691 0 -0.38797450782872689 -0.39342963390240532 0 -0.38077490902030608 -0.38580170660475638 0 -0.38014804237086358 -0.37436813971595567 0 -0.37058365568509732 -0.39309868945467707 0 -0.38014804237086358 -0.37436813971595567 0 -0.37058365568509732 -0.39309868945467707 0 -0.39205591624329778 -0.3877659595496783 0 -0.37058365568509732 -0.39309868945467707 0 -0.39205591624329778 -0.3877659595496783 0 -0.38077490902030608 -0.38580170660475638 0 -0.37058365568509732 -0.39309868945467707 0 -0.39205591624329778 -0.3877659595496783 0 -0.38797450782872689 -0.39342963390240532 0 -0.39205591624329778 -0.3877659595496783 0 -0.38077490902030608 -0.38580170660475638 0 -0.39102284214959621 -0.37422759502820119 0 -0.38077490902030608 -0.38580170660475638 0 -0.39102284214959621 -0.37422759502820119 0 -0.38014804237086358 -0.37436813971595567 0 -0.41015707937411339 -0.42907007189623869 0 -0.38723460888519051 -0.42419360495579672 0 -0.39870020995051991 -0.44433389194420719 0 -0.41015707937411339 -0.42907007189623869 0 -0.40139991859235491 -0.41102035711232282 0 -0.38723460888519051 -0.42419360495579672 0 -0.37968344780272312 -0.40493494267242691 0 -0.38723460888519051 -0.42419360495579672 0 -0.35931698530543932 -0.41516293014979228 0 -0.37968344780272312 -0.40493494267242691 0 -0.40139991859235491 -0.41102035711232282 0 -0.38723460888519051 -0.42419360495579672 0 -0.38723460888519051 -0.42419360495579672 0 -0.39870020995051991 -0.44433389194420719 0 -0.37337526243815139 -0.44078053139455919 0 -0.37971676225351608 -0.4529634334142939 0 -0.39870020995051991 -0.44433389194420719 0 -0.37337526243815139 -0.44078053139455919 0 -0.39870020995051991 -0.44433389194420719 0 -0.37337526243815139 -0.44078053139455919 0 -0.37971676225351608 -0.4529634334142939 0 -0.39870020995051991 -0.44433389194420719 0 -0.38804485053532151 -0.46073022905112931 0 -0.39870020995051991 -0.44433389194420719 0 -0.38804485053532151 -0.46073022905112931 0 -0.40724158948700928 -0.46231579518811949 0 -0.38127074830315849 -0.46468918318305058 0 -0.40724158948700928 -0.46231579518811949 0 -0.38804485053532151 -0.46073022905112931 0 -0.38127074830315849 -0.46468918318305058 0 -0.40724158948700928 -0.46231579518811949 0 -0.38804485053532151 -0.46073022905112931 0 -0.40724158948700928 -0.46231579518811949 0 -0.38127074830315849 -0.46468918318305058 0 -0.39569981458329417 -0.47177930043561672 0 -0.40724158948700928 -0.46231579518811949 0 -0.37971676225351608 -0.4529634334142939 0 -0.38804485053532151 -0.46073022905112931 0 -0.38127074830315849 -0.46468918318305058 0 -0.37971676225351608 -0.4529634334142939 0 -0.38127074830315849 -0.46468918318305058 0 -0.36861387050571071 -0.45547274231786522 0 -0.38306306282912889 -0.48319951780185633 0 -0.39569981458329417 -0.47177930043561672 0 -0.36866612254339032 -0.47475483899524168 0 -0.38127074830315849 -0.46468918318305058 0 -0.39569981458329417 -0.47177930043561672 0 -0.36866612254339032 -0.47475483899524168 0 -0.39569981458329417 -0.47177930043561672 0 -0.36866612254339032 -0.47475483899524168 0 -0.38306306282912889 -0.48319951780185633 0 -0.37357405279752098 -0.48673035917827789 0 -0.36866612254339032 -0.47475483899524168 0 -0.38534619110644569 -0.49625766097799889 0 -0.39077372265239102 -0.5 0 -0.3741348568845082 -0.49723879900344709 0 -0.38534619110644569 -0.49625766097799889 0 -0.3741348568845082 -0.49723879900344709 0 -0.38306306282912889 -0.48319951780185633 0 -0.38534619110644569 -0.49625766097799889 0 -0.37357405279752098 -0.48673035917827789 0 -0.38306306282912889 -0.48319951780185633 0 -0.38534619110644569 -0.49625766097799889 0 -0.39371049363698007 -0.48650749406981092 0 -0.38534619110644569 -0.49625766097799889 0 -0.40296574342064567 -0.49471572025759752 0 -0.38534619110644569 -0.49625766097799889 0 -0.39371049363698007 -0.48650749406981092 0 -0.40296574342064567 -0.49471572025759752 0 -0.38534619110644569 -0.49625766097799889 0 -0.39077372265239102 -0.5 0 -0.40296574342064567 -0.49471572025759752 0 -0.40296574342064567 -0.49471572025759752 0 -0.40108272621159208 -0.48411221909830648 0 -0.40901553769031951 -0.48131311522945819 0 -0.39371049363698007 -0.48650749406981092 0 -0.40296574342064567 -0.49471572025759752 0 -0.40108272621159208 -0.48411221909830648 0 -0.39569981458329417 -0.47177930043561672 0 -0.41218378539668571 -0.4758534754353046 0 -0.40901553769031951 -0.48131311522945819 0 -0.39371049363698007 -0.48650749406981092 0 -0.39569981458329417 -0.47177930043561672 0 -0.40108272621159208 -0.48411221909830648 0 -0.38306306282912889 -0.48319951780185633 0 -0.39371049363698007 -0.48650749406981092 0 -0.39569981458329417 -0.47177930043561672 0 -0.39569981458329417 -0.47177930043561672 0 -0.40108272621159208 -0.48411221909830648 0 -0.40901553769031951 -0.48131311522945819 0 -0.39077372265239102 -0.5 0 -0.40296574342064567 -0.49471572025759752 0 -0.43179662995678308 -0.49219264151174769 0 -0.39569981458329417 -0.47177930043561672 0 -0.41218378539668571 -0.4758534754353046 0 -0.4227335066231982 -0.46880376187599171 0 -0.39569981458329417 -0.47177930043561672 0 -0.4227335066231982 -0.46880376187599171 0 -0.41218378539668571 -0.4758534754353046 0 -0.40901553769031951 -0.48131311522945819 0 -0.4212862826899309 -0.48151772420015182 0 -0.41218378539668571 -0.4758534754353046 0 -0.4212862826899309 -0.48151772420015182 0 -0.4227335066231982 -0.46880376187599171 0 -0.40296574342064567 -0.49471572025759752 0 -0.4212862826899309 -0.48151772420015182 0 -0.43179662995678308 -0.49219264151174769 0 -0.40296574342064567 -0.49471572025759752 0 -0.40901553769031951 -0.48131311522945819 0 -0.4212862826899309 -0.48151772420015182 0 -0.40296574342064567 -0.49471572025759752 0 -0.43179662995678308 -0.49219264151174769 0 -0.43865985116486889 -0.47519983126815218 0 -0.44976719866310222 -0.46582822331636642 0 -0.4227335066231982 -0.46880376187599171 0 -0.43865985116486889 -0.47519983126815218 0 -0.4212862826899309 -0.48151772420015182 0 -0.4227335066231982 -0.46880376187599171 0 -0.43865985116486889 -0.47519983126815218 0 -0.4212862826899309 -0.48151772420015182 0 -0.43179662995678308 -0.49219264151174769 0 -0.42850439407505569 -0.46407200925224301 0 -0.43645930401940181 -0.45964568633721181 0 -0.40724158948700928 -0.46231579518811949 0 -0.43645930401940181 -0.45964568633721181 0 -0.42402515746288849 -0.44788725249385519 0 -0.40724158948700928 -0.46231579518811949 0 -0.44976719866310222 -0.46582822331636642 0 -0.4227335066231982 -0.46880376187599171 0 -0.44976719866310222 -0.46582822331636642 0 -0.4227335066231982 -0.46880376187599171 0 -0.42850439407505569 -0.46407200925224301 0 -0.44935010497525713 -0.45144061304350308 0 -0.42402515746288849 -0.44788725249385519 0 -0.44935010497525713 -0.45144061304350308 0 -0.43645930401940181 -0.45964568633721181 0 -0.42402515746288849 -0.44788725249385519 0 -0.39870020995051991 -0.44433389194420719 0 -0.42402515746288849 -0.44788725249385519 0 -0.40724158948700928 -0.46231579518811949 0 -0.41015707937411339 -0.42907007189623869 0 -0.39870020995051991 -0.44433389194420719 0 -0.42402515746288849 -0.44788725249385519 0 -0.39870020995051991 -0.44433389194420719 0 -0.42402515746288849 -0.44788725249385519 0 -0.42850439407505569 -0.46407200925224301 0 -0.40724158948700928 -0.46231579518811949 0 -0.43645930401940181 -0.45964568633721181 0 -0.40724158948700928 -0.46231579518811949 0 -0.39569981458329417 -0.47177930043561672 0 -0.4227335066231982 -0.46880376187599171 0 -0.40724158948700928 -0.46231579518811949 0 -0.4227335066231982 -0.46880376187599171 0 -0.42850439407505569 -0.46407200925224301 0 -0.40724158948700928 -0.46231579518811949 0 -0.44931651271345041 -0.26336383704182709 0 -0.42397476907017401 -0.25353629667850253 0 -0.44974283407700649 -0.24306414261632861 0 -0.44931651271345041 -0.26336383704182709 0 -0.45679229400594179 -0.28286644411207712 0 -0.4326681241482403 -0.27421566583274593 0 -0.44931651271345041 -0.26336383704182709 0 -0.47465825635672682 -0.27319137740515148 0 -0.44931651271345041 -0.26336383704182709 0 -0.47465825635672682 -0.27319137740515148 0 -0.45679229400594179 -0.28286644411207712 0 -0.44931651271345041 -0.26336383704182709 0 -0.4732173901985986 -0.2449964777997132 0 -0.44974283407700649 -0.24306414261632861 0 -0.44931651271345041 -0.26336383704182709 0 -0.47465825635672682 -0.27319137740515148 0 -0.4732173901985986 -0.2449964777997132 0 -0.5 -0.25392509870510832 0 -0.47465825635672682 -0.27319137740515148 0 -0.4732173901985986 -0.2449964777997132 0 -0.47465825635672682 -0.27319137740515148 0 -0.50000000000000289 -0.2830189177684771 0 -0.5 -0.25392509870510832 0 -0.47465825635672682 -0.27319137740515148 0 -0.50000000000000289 -0.2830189177684771 0 -0.46934538538681908 -0.28788056515810673 0 -0.48595418912033589 -0.29282819239720881 0 -0.45997680206427222 -0.30263624671798928 0 -0.47465825635672682 -0.27319137740515148 0 -0.46934538538681908 -0.28788056515810673 0 -0.48595418912033589 -0.29282819239720881 0 -0.48595418912033589 -0.29282819239720881 0 -0.50000000000000289 -0.2830189177684771 0 -0.5 -0.30829468787676811 0 -0.47465825635672682 -0.27319137740515148 0 -0.48595418912033589 -0.29282819239720881 0 -0.50000000000000289 -0.2830189177684771 0 -0.48595418912033589 -0.29282819239720881 0 -0.5 -0.30829468787676811 0 -0.47916391783233148 -0.31156265172044773 0 -0.48595418912033589 -0.29282819239720881 0 -0.47916391783233148 -0.31156265172044773 0 -0.45997680206427222 -0.30263624671798928 0 -0.48595418912033589 -0.29282819239720881 0 -0.45997680206427222 -0.30263624671798928 0 -0.46934538538681908 -0.28788056515810673 0 -0.45997680206427222 -0.30263624671798928 0 -0.45679229400594179 -0.28286644411207712 0 -0.47465825635672682 -0.27319137740515148 0 -0.46934538538681908 -0.28788056515810673 0 -0.45679229400594179 -0.28286644411207712 0 -0.45679229400594179 -0.28286644411207712 0 -0.44040997839427848 -0.29300408824306279 0 -0.4326681241482403 -0.27421566583274593 0 -0.45997680206427222 -0.30263624671798928 0 -0.45679229400594179 -0.28286644411207712 0 -0.44040997839427848 -0.29300408824306279 0 -0.45997680206427222 -0.30263624671798928 0 -0.44832267714006868 -0.32022440938382202 0 -0.43399941500820838 -0.31244430103876991 0 -0.45997680206427222 -0.30263624671798928 0 -0.43399941500820838 -0.31244430103876991 0 -0.45997680206427222 -0.30263624671798928 0 -0.44040997839427848 -0.29300408824306279 0 -0.43399941500820838 -0.31244430103876991 0 -0.44832267714006868 -0.32022440938382202 0 -0.4353874118058354 -0.32763586347629992 0 -0.43399941500820838 -0.31244430103876991 0 -0.44832267714006868 -0.32022440938382202 0 -0.45077069004196368 -0.3332948711469913 0 -0.4353874118058354 -0.32763586347629992 0 -0.45077069004196368 -0.3332948711469913 0 -0.4436866212687603 -0.34704509491193358 0 -0.4353874118058354 -0.32763586347629992 0 -0.45077069004196368 -0.3332948711469913 0 -0.4619998298153119 -0.34517436114606048 0 -0.4436866212687603 -0.34704509491193358 0 -0.45077069004196368 -0.3332948711469913 0 -0.46445691017984259 -0.32639462681684028 0 -0.4619998298153119 -0.34517436114606048 0 -0.46445691017984259 -0.32639462681684028 0 -0.47973918507572272 -0.34231455514604198 0 -0.4619998298153119 -0.34517436114606048 0 -0.44832267714006868 -0.32022440938382202 0 -0.45077069004196368 -0.3332948711469913 0 -0.46445691017984259 -0.32639462681684028 0 -0.45997680206427222 -0.30263624671798928 0 -0.44832267714006868 -0.32022440938382202 0 -0.46445691017984259 -0.32639462681684028 0 -0.47916391783233148 -0.31156265172044773 0 -0.45997680206427222 -0.30263624671798928 0 -0.46445691017984259 -0.32639462681684028 0 -0.47916391783233148 -0.31156265172044773 0 -0.46445691017984259 -0.32639462681684028 0 -0.48504409331780501 -0.32601046964832969 0 -0.5 -0.30829468787676811 0 -0.48504409331780501 -0.32601046964832969 0 -0.5 -0.33357045798505902 0 -0.5 -0.30829468787676811 0 -0.47916391783233148 -0.31156265172044773 0 -0.48504409331780501 -0.32601046964832969 0 -0.48504409331780501 -0.32601046964832969 0 -0.5 -0.33357045798505902 0 -0.47973918507572272 -0.34231455514604198 0 -0.46445691017984259 -0.32639462681684028 0 -0.48504409331780501 -0.32601046964832969 0 -0.47973918507572272 -0.34231455514604198 0 -0.47973918507572272 -0.34231455514604198 0 -0.474074884019836 -0.35706903966680298 0 -0.48986959253786022 -0.36321827667384149 0 -0.47973918507572272 -0.34231455514604198 0 -0.474074884019836 -0.35706903966680298 0 -0.4619998298153119 -0.34517436114606048 0 -0.5 -0.33357045798505902 0 -0.47973918507572272 -0.34231455514604198 0 -0.5 -0.35884622809334987 0 -0.47973918507572272 -0.34231455514604198 0 -0.5 -0.35884622809334987 0 -0.48986959253786022 -0.36321827667384149 0 -0.47973918507572272 -0.34231455514604198 0 -0.48986959253786022 -0.36321827667384149 0 -0.49999999999999878 -0.38412199820164061 0 -0.48986959253786022 -0.36321827667384149 0 -0.49999999999999878 -0.38412199820164061 0 -0.5 -0.35884622809334987 0 -0.48986959253786022 -0.36321827667384149 0 -0.474074884019836 -0.35706903966680298 0 -0.48986959253786022 -0.36321827667384149 0 -0.47352554036796501 -0.36993574898521719 0 -0.48296735088199949 -0.38227215457928648 0 -0.48986959253786022 -0.36321827667384149 0 -0.47352554036796501 -0.36993574898521719 0 -0.46321688699365088 -0.38112005446674863 0 -0.47352554036796501 -0.36993574898521719 0 -0.45749898740647832 -0.36599921953940628 0 -0.46321688699365088 -0.38112005446674863 0 -0.44356625432934749 -0.37774813027686421 0 -0.45749898740647832 -0.36599921953940628 0 -0.474074884019836 -0.35706903966680298 0 -0.47352554036796501 -0.36993574898521719 0 -0.45749898740647832 -0.36599921953940628 0 -0.474074884019836 -0.35706903966680298 0 -0.45749898740647832 -0.36599921953940628 0 -0.4619998298153119 -0.34517436114606048 0 -0.45749898740647832 -0.36599921953940628 0 -0.4619998298153119 -0.34517436114606048 0 -0.4436866212687603 -0.34704509491193358 0 -0.45749898740647832 -0.36599921953940628 0 -0.4436866212687603 -0.34704509491193358 0 -0.43651809519982598 -0.36368229513731182 0 -0.44356625432934749 -0.37774813027686421 0 -0.45749898740647832 -0.36599921953940628 0 -0.43651809519982598 -0.36368229513731182 0 -0.42317389780165121 -0.3800376726098959 0 -0.43651809519982598 -0.36368229513731182 0 -0.4217838302626527 -0.36478044769329648 0 -0.44356625432934749 -0.37774813027686421 0 -0.42317389780165121 -0.3800376726098959 0 -0.43651809519982598 -0.36368229513731182 0 -0.43651809519982598 -0.36368229513731182 0 -0.42094357995165638 -0.34767922883409291 0 -0.4217838302626527 -0.36478044769329648 0 -0.4436866212687603 -0.34704509491193358 0 -0.43651809519982598 -0.36368229513731182 0 -0.42094357995165638 -0.34767922883409291 0 -0.42094357995165638 -0.34767922883409291 0 -0.40649974809747741 -0.36772259419188569 0 -0.42094357995165638 -0.34767922883409291 0 -0.4039855820110434 -0.35222663274364208 0 -0.39894998587307212 -0.33754709206040778 0 -0.42094357995165638 -0.34767922883409291 0 -0.40649974809747741 -0.36772259419188569 0 -0.4039855820110434 -0.35222663274364208 0 -0.42094357995165638 -0.34767922883409291 0 -0.40649974809747741 -0.36772259419188569 0 -0.4217838302626527 -0.36478044769329648 0 -0.42317389780165121 -0.3800376726098959 0 -0.40649974809747741 -0.36772259419188569 0 -0.4217838302626527 -0.36478044769329648 0 -0.40649974809747741 -0.36772259419188569 0 -0.39102284214959621 -0.37422759502820119 0 -0.38954901412196791 -0.35595761588818181 0 -0.38014804237086358 -0.37436813971595567 0 -0.38954901412196791 -0.35595761588818181 0 -0.39102284214959621 -0.37422759502820119 0 -0.38014804237086358 -0.37436813971595567 0 -0.38954901412196791 -0.35595761588818181 0 -0.38014804237086358 -0.37436813971595567 0 -0.38954901412196791 -0.35595761588818181 0 -0.37164753038444098 -0.35797121495657769 0 -0.38954901412196791 -0.35595761588818181 0 -0.39894998587307212 -0.33754709206040778 0 -0.38067162737967358 -0.33937454717217602 0 -0.38954901412196791 -0.35595761588818181 0 -0.38067162737967358 -0.33937454717217602 0 -0.37164753038444098 -0.35797121495657769 0 -0.40649974809747741 -0.36772259419188569 0 -0.38954901412196791 -0.35595761588818181 0 -0.4039855820110434 -0.35222663274364208 0 -0.38954901412196791 -0.35595761588818181 0 -0.4039855820110434 -0.35222663274364208 0 -0.39894998587307212 -0.33754709206040778 0 -0.38954901412196791 -0.35595761588818181 0 -0.39894998587307212 -0.33754709206040778 0 -0.38067162737967358 -0.33937454717217602 0 -0.39019949945474802 -0.32211521915647212 0 -0.37206967738156171 -0.323004225057405 0 -0.39894998587307212 -0.33754709206040778 0 -0.38067162737967358 -0.33937454717217602 0 -0.39019949945474802 -0.32211521915647212 0 -0.39019949945474802 -0.32211521915647212 0 -0.37786419201092292 -0.30432161963799192 0 -0.37206967738156171 -0.323004225057405 0 -0.39019949945474802 -0.32211521915647212 0 -0.40802202795214482 -0.32225235535955038 0 -0.40424065602874598 -0.30878878761144901 0 -0.39894998587307212 -0.33754709206040778 0 -0.39019949945474802 -0.32211521915647212 0 -0.40802202795214482 -0.32225235535955038 0 -0.40802202795214482 -0.32225235535955038 0 -0.43399941500820838 -0.31244430103876991 0 -0.41646881856614532 -0.31141430338547382 0 -0.40802202795214482 -0.32225235535955038 0 -0.42031638982050601 -0.33200125211040638 0 -0.43399941500820838 -0.31244430103876991 0 -0.40802202795214482 -0.32225235535955038 0 -0.41646881856614532 -0.31141430338547382 0 -0.40424065602874598 -0.30878878761144901 0 -0.40802202795214482 -0.32225235535955038 0 -0.43399941500820838 -0.31244430103876991 0 -0.39894998587307212 -0.33754709206040778 0 -0.40802202795214482 -0.32225235535955038 0 -0.42031638982050601 -0.33200125211040638 0 -0.42094357995165638 -0.34767922883409291 0 -0.39894998587307212 -0.33754709206040778 0 -0.42031638982050601 -0.33200125211040638 0 -0.42094357995165638 -0.34767922883409291 0 -0.42031638982050601 -0.33200125211040638 0 -0.4353874118058354 -0.32763586347629992 0 -0.4436866212687603 -0.34704509491193358 0 -0.42094357995165638 -0.34767922883409291 0 -0.4353874118058354 -0.32763586347629992 0 -0.42094357995165638 -0.34767922883409291 0 -0.4353874118058354 -0.32763586347629992 0 -0.42031638982050601 -0.33200125211040638 0 -0.4353874118058354 -0.32763586347629992 0 -0.43399941500820838 -0.31244430103876991 0 -0.44040997839427848 -0.29300408824306279 0 -0.43399941500820838 -0.31244430103876991 0 -0.41961317527548192 -0.30217176953212621 0 -0.43399941500820838 -0.31244430103876991 0 -0.41961317527548192 -0.30217176953212621 0 -0.41646881856614532 -0.31141430338547382 0 -0.44040997839427848 -0.29300408824306279 0 -0.41748350215914792 -0.28715654297321952 0 -0.4326681241482403 -0.27421566583274593 0 -0.44040997839427848 -0.29300408824306279 0 -0.41748350215914792 -0.28715654297321952 0 -0.41961317527548192 -0.30217176953212621 0 -0.44040997839427848 -0.29300408824306279 0 -0.41748350215914792 -0.28715654297321952 0 -0.41748350215914792 -0.28715654297321952 0 -0.41961317527548192 -0.30217176953212621 0 -0.40567921003298868 -0.29503644461832601 0 -0.41961317527548192 -0.30217176953212621 0 -0.40424065602874598 -0.30878878761144901 0 -0.40567921003298868 -0.29503644461832601 0 -0.41961317527548192 -0.30217176953212621 0 -0.41646881856614532 -0.31141430338547382 0 -0.40424065602874598 -0.30878878761144901 0 -0.40424065602874598 -0.30878878761144901 0 -0.37786419201092292 -0.30432161963799192 0 -0.40424065602874598 -0.30878878761144901 0 -0.37786419201092292 -0.30432161963799192 0 -0.39250169077755009 -0.29575612527145911 0 -0.39019949945474802 -0.32211521915647212 0 -0.40424065602874598 -0.30878878761144901 0 -0.37786419201092292 -0.30432161963799192 0 -0.40424065602874598 -0.30878878761144901 0 -0.39250169077755009 -0.29575612527145911 0 -0.40567921003298868 -0.29503644461832601 0 -0.37964120054615819 -0.28923929854994118 0 -0.39455702592401709 -0.28130899770337608 0 -0.3716305496888862 -0.2754614524335337 0 -0.37786419201092292 -0.30432161963799192 0 -0.37964120054615819 -0.28923929854994118 0 -0.39250169077755009 -0.29575612527145911 0 -0.37964120054615819 -0.28923929854994118 0 -0.39455702592401709 -0.28130899770337608 0 -0.39250169077755009 -0.29575612527145911 0 -0.41748350215914792 -0.28715654297321952 0 -0.39455702592401709 -0.28130899770337608 0 -0.40567921003298868 -0.29503644461832601 0 -0.41748350215914792 -0.28715654297321952 0 -0.39455702592401709 -0.28130899770337608 0 -0.39455702592401709 -0.28130899770337608 0 -0.39250169077755009 -0.29575612527145911 0 -0.40567921003298868 -0.29503644461832601 0 -0.39455702592401709 -0.28130899770337608 0 -0.38597450920953752 -0.25809088743320169 0 -0.40803168854644961 -0.26536678594778679 0 -0.39455702592401709 -0.28130899770337608 0 -0.38597450920953752 -0.25809088743320169 0 -0.3716305496888862 -0.2754614524335337 0 -0.38597450920953752 -0.25809088743320169 0 -0.3716305496888862 -0.2754614524335337 0 -0.39455702592401709 -0.28130899770337608 0 -0.3716305496888862 -0.2754614524335337 0 -0.38597450920953752 -0.25809088743320169 0 -0.36764123883450761 -0.25737832796895799 0 -0.37443718435660461 -0.2389812387045101 0 -0.38597450920953752 -0.25809088743320169 0 -0.36764123883450761 -0.25737832796895799 0 -0.3716305496888862 -0.2754614524335337 0 -0.38597450920953752 -0.25809088743320169 0 -0.40803168854644961 -0.26536678594778679 0 -0.39863302542689749 -0.24370875631517799 0 -0.40803168854644961 -0.26536678594778679 0 -0.42397476907017401 -0.25353629667850253 0 -0.39863302542689749 -0.24370875631517799 0 -0.40803168854644961 -0.26536678594778679 0 -0.4326681241482403 -0.27421566583274593 0 -0.42397476907017401 -0.25353629667850253 0 -0.41748350215914792 -0.28715654297321952 0 -0.39455702592401709 -0.28130899770337608 0 -0.40803168854644961 -0.26536678594778679 0 -0.41748350215914792 -0.28715654297321952 0 -0.40803168854644961 -0.26536678594778679 0 -0.4326681241482403 -0.27421566583274593 0 -0.44931651271345041 -0.26336383704182709 0 -0.42397476907017401 -0.25353629667850253 0 -0.44931651271345041 -0.26336383704182709 0 -0.4326681241482403 -0.27421566583274593 0 -0.42397476907017401 -0.25353629667850253 0 -0.32847411645108021 -0.25369701977162651 0 -0.311618892084079 -0.26015509305394652 0 -0.3165201609574339 -0.24265484446821489 0 -0.33950543886857149 -0.26726773622987998 0 -0.311618892084079 -0.26015509305394652 0 -0.33950543886857149 -0.26726773622987998 0 -0.32847411645108021 -0.25369701977162651 0 -0.311618892084079 -0.26015509305394652 0 -0.3203277945232596 -0.27118039855026049 0 -0.30980952195535921 -0.26976827165469142 0 -0.311618892084079 -0.26015509305394652 0 -0.31525366649823222 -0.27686320032085382 0 -0.3203277945232596 -0.27118039855026049 0 -0.30980952195535921 -0.26976827165469142 0 -0.3203277945232596 -0.27118039855026049 0 -0.33950543886857149 -0.26726773622987998 0 -0.311618892084079 -0.26015509305394652 0 -0.31602084973301181 -0.28039531344597518 0 -0.31525366649823222 -0.27686320032085382 0 -0.31163682371991142 -0.28233559815212123 0 -0.31525366649823222 -0.27686320032085382 0 -0.32000134762486721 -0.27884501277309609 0 -0.3203277945232596 -0.27118039855026049 0 -0.31602084973301181 -0.28039531344597518 0 -0.32000134762486721 -0.27884501277309609 0 -0.31719156108903651 -0.28353744253782998 0 -0.31602084973301181 -0.28039531344597518 0 -0.31525366649823222 -0.27686320032085382 0 -0.32000134762486721 -0.27884501277309609 0 -0.32000134762486721 -0.27884501277309609 0 -0.32726778685223479 -0.2776712262571045 0 -0.32314001737946701 -0.28382525242087309 0 -0.32000134762486721 -0.27884501277309609 0 -0.32726778685223479 -0.2776712262571045 0 -0.3203277945232596 -0.27118039855026049 0 -0.33950543886857149 -0.26726773622987998 0 -0.32741520504563448 -0.29373012488063588 0 -0.32726778685223479 -0.2776712262571045 0 -0.33950543886857149 -0.26726773622987998 0 -0.32741520504563448 -0.29373012488063588 0 -0.32726778685223479 -0.2776712262571045 0 -0.3203277945232596 -0.27118039855026049 0 -0.33950543886857149 -0.26726773622987998 0 -0.33950543886857149 -0.26726773622987998 0 -0.3418284310783295 -0.27883761619266778 0 -0.32741520504563448 -0.29373012488063588 0 -0.33950543886857149 -0.26726773622987998 0 -0.32847411645108021 -0.25369701977162651 0 -0.35059595663878029 -0.2429934669418396 0 -0.33950543886857149 -0.26726773622987998 0 -0.35556799427872943 -0.27136459433170479 0 -0.35059595663878029 -0.2429934669418396 0 -0.33950543886857149 -0.26726773622987998 0 -0.35059595663878029 -0.2429934669418396 0 -0.36764123883450761 -0.25737832796895799 0 -0.35556799427872943 -0.27136459433170479 0 -0.35059595663878029 -0.2429934669418396 0 -0.3716305496888862 -0.2754614524335337 0 -0.35556799427872943 -0.27136459433170479 0 -0.3716305496888862 -0.2754614524335337 0 -0.35556799427872943 -0.27136459433170479 0 -0.36155913884099322 -0.28765795204903499 0 -0.36764123883450761 -0.25737832796895799 0 -0.3716305496888862 -0.2754614524335337 0 -0.35556799427872943 -0.27136459433170479 0 -0.33950543886857149 -0.26726773622987998 0 -0.35556799427872943 -0.27136459433170479 0 -0.35556799427872943 -0.27136459433170479 0 -0.35002116330003402 -0.28213990510755849 0 -0.36155913884099322 -0.28765795204903499 0 -0.33950543886857149 -0.26726773622987998 0 -0.3418284310783295 -0.27883761619266778 0 -0.35556799427872943 -0.27136459433170479 0 -0.3418284310783295 -0.27883761619266778 0 -0.35556799427872943 -0.27136459433170479 0 -0.35002116330003402 -0.28213990510755849 0 -0.3418284310783295 -0.27883761619266778 0 -0.35002116330003402 -0.28213990510755849 0 -0.34018106902909628 -0.28705791682195109 0 -0.35002116330003402 -0.28213990510755849 0 -0.34861913178579529 -0.28823843621843431 0 -0.34018106902909628 -0.28705791682195109 0 -0.34861913178579529 -0.28823843621843431 0 -0.34378287066291641 -0.2922093747005281 0 -0.34018106902909628 -0.28705791682195109 0 -0.34378287066291641 -0.2922093747005281 0 -0.35033955223799218 -0.29425490757171913 0 -0.34554467053578503 -0.29884792418155459 0 -0.34861913178579529 -0.28823843621843431 0 -0.34378287066291641 -0.2922093747005281 0 -0.35033955223799218 -0.29425490757171913 0 -0.35033955223799218 -0.29425490757171913 0 -0.34554467053578503 -0.29884792418155459 0 -0.35033955223799218 -0.29425490757171913 0 -0.36155913884099322 -0.28765795204903499 0 -0.35148772799309957 -0.29985445166453578 0 -0.34861913178579529 -0.28823843621843431 0 -0.35033955223799218 -0.29425490757171913 0 -0.36155913884099322 -0.28765795204903499 0 -0.36155913884099322 -0.28765795204903499 0 -0.35148772799309957 -0.29985445166453578 0 -0.35002116330003402 -0.28213990510755849 0 -0.34861913178579529 -0.28823843621843431 0 -0.36155913884099322 -0.28765795204903499 0 -0.37786419201092292 -0.30432161963799192 0 -0.37964120054615819 -0.28923929854994118 0 -0.36155913884099322 -0.28765795204903499 0 -0.37964120054615819 -0.28923929854994118 0 -0.3716305496888862 -0.2754614524335337 0 -0.36155913884099322 -0.28765795204903499 0 -0.3716305496888862 -0.2754614524335337 0 -0.36155913884099322 -0.28765795204903499 0 -0.37786419201092292 -0.30432161963799192 0 -0.36449476787506851 -0.31161214756111377 0 -0.35148772799309957 -0.29985445166453578 0 -0.37786419201092292 -0.30432161963799192 0 -0.35148772799309957 -0.29985445166453578 0 -0.37786419201092292 -0.30432161963799192 0 -0.36155913884099322 -0.28765795204903499 0 -0.35148772799309957 -0.29985445166453578 0 -0.36449476787506851 -0.31161214756111377 0 -0.35507073957858898 -0.31241725375512758 0 -0.35148772799309957 -0.29985445166453578 0 -0.35507073957858898 -0.31241725375512758 0 -0.35148772799309957 -0.29985445166453578 0 -0.34624807352299569 -0.31707897070170732 0 -0.35148772799309957 -0.29985445166453578 0 -0.34554467053578503 -0.29884792418155459 0 -0.3352639181585656 -0.31950151932936588 0 -0.35148772799309957 -0.29985445166453578 0 -0.3352639181585656 -0.31950151932936588 0 -0.34624807352299569 -0.31707897070170732 0 -0.35148772799309957 -0.29985445166453578 0 -0.34554467053578503 -0.29884792418155459 0 -0.35033955223799218 -0.29425490757171913 0 -0.35148772799309957 -0.29985445166453578 0 -0.34554467053578503 -0.29884792418155459 0 -0.34554467053578503 -0.29884792418155459 0 -0.32599203405061988 -0.31757739233528709 0 -0.35148772799309957 -0.29985445166453578 0 -0.3352639181585656 -0.31950151932936588 0 -0.34554467053578503 -0.29884792418155459 0 -0.33204780967045372 -0.30432859615729452 0 -0.32599203405061988 -0.31757739233528709 0 -0.34554467053578503 -0.29884792418155459 0 -0.32599203405061988 -0.31757739233528709 0 -0.3352639181585656 -0.31950151932936588 0 -0.34554467053578503 -0.29884792418155459 0 -0.33204780967045372 -0.30432859615729452 0 -0.32110830220587222 -0.29470933449352121 0 -0.34554467053578503 -0.29884792418155459 0 -0.32741520504563448 -0.29373012488063588 0 -0.32110830220587222 -0.29470933449352121 0 -0.34378287066291641 -0.2922093747005281 0 -0.34554467053578503 -0.29884792418155459 0 -0.32741520504563448 -0.29373012488063588 0 -0.34378287066291641 -0.2922093747005281 0 -0.34018106902909628 -0.28705791682195109 0 -0.32741520504563448 -0.29373012488063588 0 -0.34554467053578503 -0.29884792418155459 0 -0.32110830220587222 -0.29470933449352121 0 -0.3418284310783295 -0.27883761619266778 0 -0.34018106902909628 -0.28705791682195109 0 -0.32741520504563448 -0.29373012488063588 0 -0.32726778685223479 -0.2776712262571045 0 -0.32741520504563448 -0.29373012488063588 0 -0.32314001737946701 -0.28382525242087309 0 -0.32741520504563448 -0.29373012488063588 0 -0.32110830220587222 -0.29470933449352121 0 -0.32103344234237369 -0.28894848295999659 0 -0.32741520504563448 -0.29373012488063588 0 -0.32103344234237369 -0.28894848295999659 0 -0.32314001737946701 -0.28382525242087309 0 -0.32103344234237369 -0.28894848295999659 0 -0.32314001737946701 -0.28382525242087309 0 -0.31719156108903651 -0.28353744253782998 0 -0.32000134762486721 -0.27884501277309609 0 -0.32314001737946701 -0.28382525242087309 0 -0.31719156108903651 -0.28353744253782998 0 -0.32103344234237369 -0.28894848295999659 0 -0.31719156108903651 -0.28353744253782998 0 -0.31631212599185871 -0.28894026046712279 0 -0.31631212599185871 -0.28894026046712279 0 -0.3132864305207323 -0.28595686755737137 0 -0.31237803783571622 -0.28999330738521639 0 -0.31719156108903651 -0.28353744253782998 0 -0.31631212599185871 -0.28894026046712279 0 -0.3132864305207323 -0.28595686755737137 0 -0.31602084973301181 -0.28039531344597518 0 -0.31719156108903651 -0.28353744253782998 0 -0.31163682371991142 -0.28233559815212123 0 -0.31719156108903651 -0.28353744253782998 0 -0.3132864305207323 -0.28595686755737137 0 -0.31163682371991142 -0.28233559815212123 0 -0.32110830220587222 -0.29470933449352121 0 -0.32103344234237369 -0.28894848295999659 0 -0.31631212599185871 -0.28894026046712279 0 -0.32110830220587222 -0.29470933449352121 0 -0.31631212599185871 -0.28894026046712279 0 -0.31454217924732258 -0.29481024641351361 0 -0.31631212599185871 -0.28894026046712279 0 -0.31454217924732258 -0.29481024641351361 0 -0.31237803783571622 -0.28999330738521639 0 -0.32110830220587222 -0.29470933449352121 0 -0.31547336973009421 -0.30401620152784781 0 -0.32263629028376739 -0.30518495586429251 0 -0.32110830220587222 -0.29470933449352121 0 -0.31454217924732258 -0.29481024641351361 0 -0.31547336973009421 -0.30401620152784781 0 -0.31547336973009421 -0.30401620152784781 0 -0.31981648972715399 -0.31134404477679939 0 -0.31033794446020191 -0.31991949744251968 0 -0.31454217924732258 -0.29481024641351361 0 -0.31547336973009421 -0.30401620152784781 0 -0.30823237218248323 -0.29557775589592478 0 -0.31547336973009421 -0.30401620152784781 0 -0.31981648972715399 -0.31134404477679939 0 -0.32263629028376739 -0.30518495586429251 0 -0.33204780967045372 -0.30432859615729452 0 -0.32263629028376739 -0.30518495586429251 0 -0.3246428101110867 -0.31002217671404958 0 -0.33204780967045372 -0.30432859615729452 0 -0.3246428101110867 -0.31002217671404958 0 -0.32599203405061988 -0.31757739233528709 0 -0.31981648972715399 -0.31134404477679939 0 -0.32263629028376739 -0.30518495586429251 0 -0.3246428101110867 -0.31002217671404958 0 -0.33204780967045372 -0.30432859615729452 0 -0.32110830220587222 -0.29470933449352121 0 -0.32263629028376739 -0.30518495586429251 0 -0.31981648972715399 -0.31134404477679939 0 -0.32599203405061988 -0.31757739233528709 0 -0.31033794446020191 -0.31991949744251968 0 -0.32599203405061988 -0.31757739233528709 0 -0.30643939756545552 -0.33630686048902048 0 -0.31033794446020191 -0.31991949744251968 0 -0.32599203405061988 -0.31757739233528709 0 -0.31904010832403129 -0.33914858699419559 0 -0.3352639181585656 -0.31950151932936588 0 -0.32599203405061988 -0.31757739233528709 0 -0.30643939756545552 -0.33630686048902048 0 -0.31981648972715399 -0.31134404477679939 0 -0.3246428101110867 -0.31002217671404958 0 -0.32599203405061988 -0.31757739233528709 0 -0.32599203405061988 -0.31757739233528709 0 -0.31904010832403129 -0.33914858699419559 0 -0.30643939756545552 -0.33630686048902048 0 -0.31904010832403129 -0.33914858699419559 0 -0.3352639181585656 -0.31950151932936588 0 -0.31904010832403129 -0.33914858699419559 0 -0.31873938166318228 -0.34991336617752178 0 -0.30643939756545552 -0.33630686048902048 0 -0.31904010832403129 -0.33914858699419559 0 -0.33411974512123149 -0.3324771208791768 0 -0.32855550656029409 -0.34283047345945272 0 -0.31904010832403129 -0.33914858699419559 0 -0.33411974512123149 -0.3324771208791768 0 -0.3352639181585656 -0.31950151932936588 0 -0.33411974512123149 -0.3324771208791768 0 -0.32855550656029409 -0.34283047345945272 0 -0.34008245038164908 -0.34000252202488102 0 -0.33411974512123149 -0.3324771208791768 0 -0.34008245038164908 -0.34000252202488102 0 -0.34560798705520712 -0.32807443509355633 0 -0.3352639181585656 -0.31950151932936588 0 -0.34624807352299569 -0.31707897070170732 0 -0.34560798705520712 -0.32807443509355633 0 -0.33411974512123149 -0.3324771208791768 0 -0.3352639181585656 -0.31950151932936588 0 -0.34560798705520712 -0.32807443509355633 0 -0.34624807352299569 -0.31707897070170732 0 -0.34560798705520712 -0.32807443509355633 0 -0.35702530168381669 -0.32146803802095758 0 -0.36449476787506851 -0.31161214756111377 0 -0.35507073957858898 -0.31241725375512758 0 -0.35702530168381669 -0.32146803802095758 0 -0.35507073957858898 -0.31241725375512758 0 -0.34624807352299569 -0.31707897070170732 0 -0.35702530168381669 -0.32146803802095758 0 -0.37786419201092292 -0.30432161963799192 0 -0.36449476787506851 -0.31161214756111377 0 -0.37206967738156171 -0.323004225057405 0 -0.35702530168381669 -0.32146803802095758 0 -0.37206967738156171 -0.323004225057405 0 -0.36113558864576539 -0.33947837172352291 0 -0.36449476787506851 -0.31161214756111377 0 -0.35702530168381669 -0.32146803802095758 0 -0.37206967738156171 -0.323004225057405 0 -0.38067162737967358 -0.33937454717217602 0 -0.37206967738156171 -0.323004225057405 0 -0.36113558864576539 -0.33947837172352291 0 -0.34560798705520712 -0.32807443509355633 0 -0.35702530168381669 -0.32146803802095758 0 -0.36113558864576539 -0.33947837172352291 0 -0.34008245038164908 -0.34000252202488102 0 -0.34560798705520712 -0.32807443509355633 0 -0.36113558864576539 -0.33947837172352291 0 -0.36113558864576539 -0.33947837172352291 0 -0.35439625030616922 -0.35980771141496443 0 -0.34008245038164908 -0.34000252202488102 0 -0.36113558864576539 -0.33947837172352291 0 -0.34253583682028699 -0.3533044859555996 0 -0.36113558864576539 -0.33947837172352291 0 -0.35439625030616922 -0.35980771141496443 0 -0.34253583682028699 -0.3533044859555996 0 -0.35439625030616922 -0.35980771141496443 0 -0.33762702278031742 -0.36418841540222879 0 -0.34253583682028699 -0.3533044859555996 0 -0.36113558864576539 -0.33947837172352291 0 -0.37164753038444098 -0.35797121495657769 0 -0.35439625030616922 -0.35980771141496443 0 -0.38067162737967358 -0.33937454717217602 0 -0.36113558864576539 -0.33947837172352291 0 -0.37164753038444098 -0.35797121495657769 0 -0.38014804237086358 -0.37436813971595567 0 -0.37164753038444098 -0.35797121495657769 0 -0.36118957927782253 -0.37232727251836312 0 -0.37164753038444098 -0.35797121495657769 0 -0.36118957927782253 -0.37232727251836312 0 -0.35439625030616922 -0.35980771141496443 0 -0.35439625030616922 -0.35980771141496443 0 -0.34765691196657289 -0.38013705110640589 0 -0.35439625030616922 -0.35980771141496443 0 -0.33762702278031742 -0.36418841540222879 0 -0.34765691196657289 -0.38013705110640589 0 -0.36118957927782253 -0.37232727251836312 0 -0.35439625030616922 -0.35980771141496443 0 -0.34765691196657289 -0.38013705110640589 0 -0.33007103011208377 -0.37478571175297543 0 -0.33762702278031742 -0.36418841540222879 0 -0.34765691196657289 -0.38013705110640589 0 -0.33762702278031742 -0.36418841540222879 0 -0.33079584731137651 -0.35261077122148832 0 -0.32080638456026489 -0.36413435641964681 0 -0.33007103011208377 -0.37478571175297543 0 -0.33762702278031742 -0.36418841540222879 0 -0.32080638456026489 -0.36413435641964681 0 -0.33762702278031742 -0.36418841540222879 0 -0.34253583682028699 -0.3533044859555996 0 -0.33079584731137651 -0.35261077122148832 0 -0.34008245038164908 -0.34000252202488102 0 -0.34253583682028699 -0.3533044859555996 0 -0.33079584731137651 -0.35261077122148832 0 -0.32855550656029409 -0.34283047345945272 0 -0.34008245038164908 -0.34000252202488102 0 -0.33079584731137651 -0.35261077122148832 0 -0.33079584731137651 -0.35261077122148832 0 -0.31873938166318228 -0.34991336617752178 0 -0.32080638456026489 -0.36413435641964681 0 -0.32855550656029409 -0.34283047345945272 0 -0.33079584731137651 -0.35261077122148832 0 -0.31873938166318228 -0.34991336617752178 0 -0.31904010832403129 -0.33914858699419559 0 -0.32855550656029409 -0.34283047345945272 0 -0.31873938166318228 -0.34991336617752178 0 -0.31873938166318228 -0.34991336617752178 0 -0.32080638456026489 -0.36413435641964681 0 -0.30570356223595879 -0.356339611485057 0 -0.32080638456026489 -0.36413435641964681 0 -0.30651277177938208 -0.36856750644284231 0 -0.31546247105234559 -0.37852390254038581 0 -0.33007103011208377 -0.37478571175297543 0 -0.32080638456026489 -0.36413435641964681 0 -0.31546247105234559 -0.37852390254038581 0 -0.30651277177938208 -0.36856750644284231 0 -0.30570356223595879 -0.356339611485057 0 -0.29672056234021038 -0.36592269710066799 0 -0.30651277177938208 -0.36856750644284231 0 -0.29672056234021038 -0.36592269710066799 0 -0.29710588804814853 -0.37867623553919227 0 -0.32080638456026489 -0.36413435641964681 0 -0.30651277177938208 -0.36856750644284231 0 -0.30570356223595879 -0.356339611485057 0 -0.31873938166318228 -0.34991336617752178 0 -0.30570356223595879 -0.356339611485057 0 -0.30643939756545552 -0.33630686048902048 0 -0.30570356223595879 -0.356339611485057 0 -0.28688676108029099 -0.35503632864275381 0 -0.30643939756545552 -0.33630686048902048 0 -0.28688676108029099 -0.35503632864275381 0 -0.30643939756545552 -0.33630686048902048 0 -0.30570356223595879 -0.356339611485057 0 -0.28688676108029099 -0.35503632864275381 0 -0.29672056234021038 -0.36592269710066799 0 -0.28688676108029099 -0.35503632864275381 0 -0.27677185894696082 -0.35177455933098029 0 -0.28997751440021652 -0.33950297379240091 0 -0.28688676108029099 -0.35503632864275381 0 -0.29672056234021038 -0.36592269710066799 0 -0.28739382855727141 -0.37099380339349453 0 -0.28688676108029099 -0.35503632864275381 0 -0.28739382855727141 -0.37099380339349453 0 -0.27700026691642282 -0.3732873398037001 0 -0.29672056234021038 -0.36592269710066799 0 -0.28739382855727141 -0.37099380339349453 0 -0.29710588804814853 -0.37867623553919227 0 -0.28688676108029099 -0.35503632864275381 0 -0.26820669038733591 -0.36458238973878188 0 -0.26733412459512662 -0.37376579679648708 0 -0.28688676108029099 -0.35503632864275381 0 -0.26733412459512662 -0.37376579679648708 0 -0.28688676108029099 -0.35503632864275381 0 -0.27700026691642282 -0.3732873398037001 0 -0.26733412459512662 -0.37376579679648708 0 -0.26820669038733591 -0.36458238973878188 0 -0.26733412459512662 -0.37376579679648708 0 -0.26458634119166569 -0.36946848545616701 0 -0.27700026691642282 -0.3732873398037001 0 -0.26733412459512662 -0.37376579679648708 0 -0.27189931286356639 -0.37638821473323603 0 -0.26733412459512662 -0.37376579679648708 0 -0.26294412357548957 -0.3716201384419861 0 -0.26458634119166569 -0.36946848545616701 0 -0.26733412459512662 -0.37376579679648708 0 -0.26294412357548957 -0.3716201384419861 0 -0.2644276864009461 -0.3761725021908145 0 -0.26820669038733591 -0.36458238973878188 0 -0.25986042620871092 -0.36790561684741291 0 -0.26458634119166569 -0.36946848545616701 0 -0.26294412357548957 -0.3716201384419861 0 -0.25663434928953388 -0.37245856678327838 0 -0.2644276864009461 -0.3761725021908145 0 -0.26294412357548957 -0.3716201384419861 0 -0.25986042620871092 -0.36790561684741291 0 -0.25663434928953388 -0.37245856678327838 0 -0.26294412357548957 -0.3716201384419861 0 -0.25986042620871092 -0.36790561684741291 0 -0.26458634119166569 -0.36946848545616701 0 -0.26820669038733591 -0.36458238973878188 0 -0.25986042620871092 -0.36790561684741291 0 -0.26136607069844497 -0.36289394840145861 0 -0.26136607069844497 -0.36289394840145861 0 -0.25129988172241152 -0.36202624914387271 0 -0.26609728447532172 -0.35706153787576722 0 -0.26820669038733591 -0.36458238973878188 0 -0.26136607069844497 -0.36289394840145861 0 -0.26609728447532172 -0.35706153787576722 0 -0.25986042620871092 -0.36790561684741291 0 -0.26136607069844497 -0.36289394840145861 0 -0.25129988172241152 -0.36202624914387271 0 -0.25986042620871092 -0.36790561684741291 0 -0.25129988172241152 -0.36202624914387271 0 -0.25281973194894081 -0.36989072027067538 0 -0.25281973194894081 -0.36989072027067538 0 -0.25663434928953388 -0.37245856678327838 0 -0.24311977831358031 -0.37670385616550278 0 -0.25986042620871092 -0.36790561684741291 0 -0.25281973194894081 -0.36989072027067538 0 -0.25663434928953388 -0.37245856678327838 0 -0.25129988172241152 -0.36202624914387271 0 -0.27269104439163899 -0.34268956660519773 0 -0.24770300688035971 -0.35248990327902557 0 -0.26315652546931578 -0.33553777910730659 0 -0.24770300688035971 -0.35248990327902557 0 -0.25129988172241152 -0.36202624914387271 0 -0.27269104439163899 -0.34268956660519773 0 -0.25129988172241152 -0.36202624914387271 0 -0.26609728447532172 -0.35706153787576722 0 -0.27269104439163899 -0.34268956660519773 0 -0.28688676108029099 -0.35503632864275381 0 -0.26820669038733591 -0.36458238973878188 0 -0.27677185894696082 -0.35177455933098029 0 -0.26609728447532172 -0.35706153787576722 0 -0.27677185894696082 -0.35177455933098029 0 -0.27269104439163899 -0.34268956660519773 0 -0.27677185894696082 -0.35177455933098029 0 -0.27269104439163899 -0.34268956660519773 0 -0.28997751440021652 -0.33950297379240091 0 -0.26820669038733591 -0.36458238973878188 0 -0.26609728447532172 -0.35706153787576722 0 -0.27677185894696082 -0.35177455933098029 0 -0.27269104439163899 -0.34268956660519773 0 -0.26315652546931578 -0.33553777910730659 0 -0.27861004405827178 -0.3185856549355876 0 -0.26315652546931578 -0.33553777910730659 0 -0.25253068005804957 -0.32698450917250949 0 -0.24770300688035971 -0.35248990327902557 0 -0.27269104439163899 -0.34268956660519773 0 -0.26315652546931578 -0.33553777910730659 0 -0.24770300688035971 -0.35248990327902557 0 -0.25253068005804957 -0.32698450917250949 0 -0.24770300688035971 -0.35248990327902557 0 -0.25253068005804957 -0.32698450917250949 0 -0.264134082673189 -0.31826781997659942 0 -0.25735835323573958 -0.30147911506599351 0 -0.25253068005804957 -0.32698450917250949 0 -0.25735835323573958 -0.30147911506599351 0 -0.24260914844155909 -0.31500426102389079 0 -0.25253068005804957 -0.32698450917250949 0 -0.25735835323573958 -0.30147911506599351 0 -0.26315652546931578 -0.33553777910730659 0 -0.25253068005804957 -0.32698450917250949 0 -0.264134082673189 -0.31826781997659942 0 -0.264134082673189 -0.31826781997659942 0 -0.27861004405827178 -0.3185856549355876 0 -0.27420405063856612 -0.30643050351536227 0 -0.26315652546931578 -0.33553777910730659 0 -0.27861004405827178 -0.3185856549355876 0 -0.26315652546931578 -0.33553777910730659 0 -0.264134082673189 -0.31826781997659942 0 -0.27861004405827178 -0.3185856549355876 0 -0.27861004405827178 -0.3185856549355876 0 -0.29408220706086657 -0.32335288406652268 0 -0.29406356264722783 -0.30163353076386851 0 -0.28688676108029099 -0.35503632864275381 0 -0.28997751440021652 -0.33950297379240091 0 -0.30643939756545552 -0.33630686048902048 0 -0.29408220706086657 -0.32335288406652268 0 -0.28997751440021652 -0.33950297379240091 0 -0.30111812721941122 -0.32893455800663107 0 -0.27269104439163899 -0.34268956660519773 0 -0.29408220706086657 -0.32335288406652268 0 -0.28997751440021652 -0.33950297379240091 0 -0.27269104439163899 -0.34268956660519773 0 -0.29408220706086657 -0.32335288406652268 0 -0.27269104439163899 -0.34268956660519773 0 -0.27861004405827178 -0.3185856549355876 0 -0.29408220706086657 -0.32335288406652268 0 -0.28997751440021652 -0.33950297379240091 0 -0.30111812721941122 -0.32893455800663107 0 -0.30643939756545552 -0.33630686048902048 0 -0.30111812721941122 -0.32893455800663107 0 -0.30643939756545552 -0.33630686048902048 0 -0.31033794446020191 -0.31991949744251968 0 -0.29408220706086657 -0.32335288406652268 0 -0.30111812721941122 -0.32893455800663107 0 -0.31033794446020191 -0.31991949744251968 0 -0.31547336973009421 -0.30401620152784781 0 -0.29408220706086657 -0.32335288406652268 0 -0.31547336973009421 -0.30401620152784781 0 -0.29408220706086657 -0.32335288406652268 0 -0.31033794446020191 -0.31991949744251968 0 -0.31547336973009421 -0.30401620152784781 0 -0.30823237218248323 -0.29557775589592478 0 -0.29406356264722783 -0.30163353076386851 0 -0.31547336973009421 -0.30401620152784781 0 -0.29408220706086657 -0.32335288406652268 0 -0.29406356264722783 -0.30163353076386851 0 -0.31237803783571622 -0.28999330738521639 0 -0.30823237218248323 -0.29557775589592478 0 -0.30951708123618388 -0.28468140659214941 0 -0.30951708123618388 -0.28468140659214941 0 -0.29611557652834902 -0.28798438341479471 0 -0.29406356264722783 -0.30163353076386851 0 -0.30823237218248323 -0.29557775589592478 0 -0.30951708123618388 -0.28468140659214941 0 -0.29406356264722783 -0.30163353076386851 0 -0.30951708123618388 -0.28468140659214941 0 -0.29406356264722783 -0.30163353076386851 0 -0.31454217924732258 -0.29481024641351361 0 -0.31237803783571622 -0.28999330738521639 0 -0.30823237218248323 -0.29557775589592478 0 -0.31163682371991142 -0.28233559815212123 0 -0.30951708123618388 -0.28468140659214941 0 -0.30372272003979051 -0.28296922220515902 0 -0.3132864305207323 -0.28595686755737137 0 -0.31163682371991142 -0.28233559815212123 0 -0.30951708123618388 -0.28468140659214941 0 -0.3132864305207323 -0.28595686755737137 0 -0.31237803783571622 -0.28999330738521639 0 -0.30951708123618388 -0.28468140659214941 0 -0.30372272003979051 -0.28296922220515902 0 -0.29611557652834902 -0.28798438341479471 0 -0.30040296538899602 -0.27689540923789152 0 -0.30951708123618388 -0.28468140659214941 0 -0.30372272003979051 -0.28296922220515902 0 -0.29611557652834902 -0.28798438341479471 0 -0.29611557652834902 -0.28798438341479471 0 -0.27685421057840209 -0.2921863968347625 0 -0.28238693410109889 -0.2772955892028412 0 -0.29611557652834902 -0.28798438341479471 0 -0.29406356264722783 -0.30163353076386851 0 -0.27685421057840209 -0.2921863968347625 0 -0.27861004405827178 -0.3185856549355876 0 -0.29406356264722783 -0.30163353076386851 0 -0.27420405063856612 -0.30643050351536227 0 -0.29406356264722783 -0.30163353076386851 0 -0.27420405063856612 -0.30643050351536227 0 -0.27685421057840209 -0.2921863968347625 0 -0.27861004405827178 -0.3185856549355876 0 -0.29406356264722783 -0.30163353076386851 0 -0.27420405063856612 -0.30643050351536227 0 -0.25735835323573958 -0.30147911506599351 0 -0.27685421057840209 -0.2921863968347625 0 -0.264134082673189 -0.31826781997659942 0 -0.27420405063856612 -0.30643050351536227 0 -0.25735835323573958 -0.30147911506599351 0 -0.25735835323573958 -0.30147911506599351 0 -0.27685421057840209 -0.2921863968347625 0 -0.26218602641342958 -0.27597372095947742 0 -0.25735835323573958 -0.30147911506599351 0 -0.26218602641342958 -0.27597372095947742 0 -0.25735835323573958 -0.30147911506599351 0 -0.26218602641342958 -0.27597372095947742 0 -0.240565729014138 -0.29477389795429298 0 -0.27685421057840209 -0.2921863968347625 0 -0.26218602641342958 -0.27597372095947742 0 -0.28238693410109889 -0.2772955892028412 0 -0.26218602641342958 -0.27597372095947742 0 -0.28324850172526761 -0.2602482642556479 0 -0.28238693410109889 -0.2772955892028412 0 -0.26218602641342958 -0.27597372095947742 0 -0.24827797024798609 -0.25545493364081862 0 -0.24119414992733251 -0.27395725060427578 0 -0.26218602641342958 -0.27597372095947742 0 -0.26701369959111959 -0.25046832685296128 0 -0.24827797024798609 -0.25545493364081862 0 -0.26218602641342958 -0.27597372095947742 0 -0.26701369959111959 -0.25046832685296128 0 -0.26701369959111959 -0.25046832685296128 0 -0.28324850172526761 -0.2602482642556479 0 -0.28510652308584211 -0.24408715454833749 0 -0.26218602641342958 -0.27597372095947742 0 -0.26701369959111959 -0.25046832685296128 0 -0.28324850172526761 -0.2602482642556479 0 -0.29837167340287668 -0.26321137635022929 0 -0.30193187422854639 -0.24947705084208491 0 -0.28510652308584211 -0.24408715454833749 0 -0.28324850172526761 -0.2602482642556479 0 -0.29837167340287668 -0.26321137635022929 0 -0.28510652308584211 -0.24408715454833749 0 -0.29837167340287668 -0.26321137635022929 0 -0.28510652308584211 -0.24408715454833749 0 -0.28324850172526761 -0.2602482642556479 0 -0.29210513022931772 -0.27312700449228089 0 -0.29837167340287668 -0.26321137635022929 0 -0.28324850172526761 -0.2602482642556479 0 -0.28238693410109889 -0.2772955892028412 0 -0.29210513022931772 -0.27312700449228089 0 -0.29611557652834902 -0.28798438341479471 0 -0.29210513022931772 -0.27312700449228089 0 -0.30040296538899602 -0.27689540923789152 0 -0.29611557652834902 -0.28798438341479471 0 -0.28238693410109889 -0.2772955892028412 0 -0.29210513022931772 -0.27312700449228089 0 -0.29210513022931772 -0.27312700449228089 0 -0.30040296538899602 -0.27689540923789152 0 -0.29837167340287668 -0.26321137635022929 0 -0.31163682371991142 -0.28233559815212123 0 -0.30040296538899602 -0.27689540923789152 0 -0.29837167340287668 -0.26321137635022929 0 -0.31163682371991142 -0.28233559815212123 0 -0.30980952195535921 -0.26976827165469142 0 -0.29837167340287668 -0.26321137635022929 0 -0.31163682371991142 -0.28233559815212123 0 -0.29837167340287668 -0.26321137635022929 0 -0.31163682371991142 -0.28233559815212123 0 -0.30372272003979051 -0.28296922220515902 0 -0.30040296538899602 -0.27689540923789152 0 -0.31525366649823222 -0.27686320032085382 0 -0.31163682371991142 -0.28233559815212123 0 -0.30980952195535921 -0.26976827165469142 0 -0.311618892084079 -0.26015509305394652 0 -0.30193187422854639 -0.24947705084208491 0 -0.3165201609574339 -0.24265484446821489 0 -0.30980952195535921 -0.26976827165469142 0 -0.311618892084079 -0.26015509305394652 0 -0.29837167340287668 -0.26321137635022929 0 -0.311618892084079 -0.26015509305394652 0 -0.29837167340287668 -0.26321137635022929 0 -0.30193187422854639 -0.24947705084208491 0 -0.33764644244916681 -0.45760173926219522 0 -0.32932906593545691 -0.46943595917291342 0 -0.35529990711930781 -0.46706257117798211 0 -0.32932906593545691 -0.46943595917291342 0 -0.35529990711930781 -0.46706257117798211 0 -0.33764644244916681 -0.45760173926219522 0 -0.32054911338324171 -0.4567760016132561 0 -0.32932906593545691 -0.46943595917291342 0 -0.33764644244916681 -0.45760173926219522 0 -0.32814420715405951 -0.44868262694222621 0 -0.32054911338324171 -0.4567760016132561 0 -0.33764644244916681 -0.45760173926219522 0 -0.34805031492578331 -0.43722717084490847 0 -0.33764644244916681 -0.45760173926219522 0 -0.33514404107295692 -0.4436076617665804 0 -0.34805031492578331 -0.43722717084490847 0 -0.33514404107295692 -0.4436076617665804 0 -0.34805031492578331 -0.43722717084490847 0 -0.3338334548891061 -0.43523239357757348 0 -0.33514404107295692 -0.4436076617665804 0 -0.32804578594666878 -0.43929437820599537 0 -0.3338334548891061 -0.43523239357757348 0 -0.33514404107295692 -0.4436076617665804 0 -0.32814420715405951 -0.44868262694222621 0 -0.32804578594666878 -0.43929437820599537 0 -0.33764644244916681 -0.45760173926219522 0 -0.33514404107295692 -0.4436076617665804 0 -0.32814420715405951 -0.44868262694222621 0 -0.32814420715405951 -0.44868262694222621 0 -0.3164652655650203 -0.44236489516629179 0 -0.32054911338324171 -0.4567760016132561 0 -0.3164652655650203 -0.44236489516629179 0 -0.32054911338324171 -0.4567760016132561 0 -0.30109672889312511 -0.453159076618662 0 -0.32814420715405951 -0.44868262694222621 0 -0.32804578594666878 -0.43929437820599537 0 -0.3164652655650203 -0.44236489516629179 0 -0.32054911338324171 -0.4567760016132561 0 -0.314038178978015 -0.46976493553682819 0 -0.32932906593545691 -0.46943595917291342 0 -0.33446372643346017 -0.48912545522388079 0 -0.34530397034837079 -0.5 0 -0.29076423389735012 -0.5 0 -0.314038178978015 -0.46976493553682819 0 -0.32570323196582218 -0.47839238024040098 0 -0.30905275797869258 -0.48590517371351588 0 -0.314038178978015 -0.46976493553682819 0 -0.32570323196582218 -0.47839238024040098 0 -0.32932906593545691 -0.46943595917291342 0 -0.32570323196582218 -0.47839238024040098 0 -0.33446372643346017 -0.48912545522388079 0 -0.30905275797869258 -0.48590517371351588 0 -0.33446372643346017 -0.48912545522388079 0 -0.30905275797869258 -0.48590517371351588 0 -0.32570323196582218 -0.47839238024040098 0 -0.33446372643346017 -0.48912545522388079 0 -0.34163243050348641 -0.47773037755486669 0 -0.32570323196582218 -0.47839238024040098 0 -0.34163243050348641 -0.47773037755486669 0 -0.32932906593545691 -0.46943595917291342 0 -0.34163243050348641 -0.47773037755486669 0 -0.32932906593545691 -0.46943595917291342 0 -0.35529990711930781 -0.46706257117798211 0 -0.34163243050348641 -0.47773037755486669 0 -0.35987469488822771 -0.49234573673424581 0 -0.36866612254339032 -0.47475483899524168 0 -0.34163243050348641 -0.47773037755486669 0 -0.36866612254339032 -0.47475483899524168 0 -0.34163243050348641 -0.47773037755486669 0 -0.36866612254339032 -0.47475483899524168 0 -0.35529990711930781 -0.46706257117798211 0 -0.39077372265239102 -0.5 0 -0.34530397034837079 -0.5 0 -0.3741348568845082 -0.49723879900344709 0 -0.33446372643346017 -0.48912545522388079 0 -0.34530397034837079 -0.5 0 -0.35987469488822771 -0.49234573673424581 0 -0.33446372643346017 -0.48912545522388079 0 -0.34163243050348641 -0.47773037755486669 0 -0.35987469488822771 -0.49234573673424581 0 -0.33446372643346017 -0.48912545522388079 0 -0.35987469488822771 -0.49234573673424581 0 -0.38534619110644569 -0.49625766097799889 0 -0.35987469488822771 -0.49234573673424581 0 -0.3741348568845082 -0.49723879900344709 0 -0.34530397034837079 -0.5 0 -0.35987469488822771 -0.49234573673424581 0 -0.3741348568845082 -0.49723879900344709 0 -0.34530397034837079 -0.5 0 -0.3741348568845082 -0.49723879900344709 0 -0.35987469488822771 -0.49234573673424581 0 -0.37357405279752098 -0.48673035917827789 0 -0.36866612254339032 -0.47475483899524168 0 -0.38534619110644569 -0.49625766097799889 0 -0.35987469488822771 -0.49234573673424581 0 -0.38534619110644569 -0.49625766097799889 0 -0.35987469488822771 -0.49234573673424581 0 -0.37357405279752098 -0.48673035917827789 0 -0.38127074830315849 -0.46468918318305058 0 -0.36866612254339032 -0.47475483899524168 0 -0.35529990711930781 -0.46706257117798211 0 -0.38127074830315849 -0.46468918318305058 0 -0.36861387050571071 -0.45547274231786522 0 -0.35529990711930781 -0.46706257117798211 0 -0.38127074830315849 -0.46468918318305058 0 -0.35529990711930781 -0.46706257117798211 0 -0.33764644244916681 -0.45760173926219522 0 -0.35529990711930781 -0.46706257117798211 0 -0.35421052450234758 -0.45195170658183742 0 -0.36861387050571071 -0.45547274231786522 0 -0.35529990711930781 -0.46706257117798211 0 -0.35421052450234758 -0.45195170658183742 0 -0.33764644244916681 -0.45760173926219522 0 -0.35421052450234758 -0.45195170658183742 0 -0.34805031492578331 -0.43722717084490847 0 -0.35421052450234758 -0.45195170658183742 0 -0.37337526243815139 -0.44078053139455919 0 -0.34805031492578331 -0.43722717084490847 0 -0.36861387050571071 -0.45547274231786522 0 -0.35421052450234758 -0.45195170658183742 0 -0.37337526243815139 -0.44078053139455919 0 -0.37337526243815139 -0.44078053139455919 0 -0.34805031492578331 -0.43722717084490847 0 -0.37971676225351608 -0.4529634334142939 0 -0.36861387050571071 -0.45547274231786522 0 -0.37337526243815139 -0.44078053139455919 0 -0.38723460888519051 -0.42419360495579672 0 -0.37337526243815139 -0.44078053139455919 0 -0.35931698530543932 -0.41516293014979228 0 -0.37337526243815139 -0.44078053139455919 0 -0.35931698530543932 -0.41516293014979228 0 -0.34805031492578331 -0.43722717084490847 0 -0.35931698530543932 -0.41516293014979228 0 -0.34602796595468988 -0.4129342985722132 0 -0.35575061465603808 -0.39678254012626429 0 -0.35931698530543932 -0.41516293014979228 0 -0.34602796595468988 -0.4129342985722132 0 -0.34434208017236823 -0.42408743552928241 0 -0.35931698530543932 -0.41516293014979228 0 -0.34434208017236823 -0.42408743552928241 0 -0.34805031492578331 -0.43722717084490847 0 -0.35931698530543932 -0.41516293014979228 0 -0.34805031492578331 -0.43722717084490847 0 -0.38014804237086358 -0.37436813971595567 0 -0.36972926369223169 -0.3806534679218625 0 -0.37058365568509732 -0.39309868945467707 0 -0.38014804237086358 -0.37436813971595567 0 -0.36118957927782253 -0.37232727251836312 0 -0.36972926369223169 -0.3806534679218625 0 -0.36118957927782253 -0.37232727251836312 0 -0.36972926369223169 -0.3806534679218625 0 -0.35886936897906091 -0.38498397527551709 0 -0.36972926369223169 -0.3806534679218625 0 -0.36565889768521531 -0.38849408191951967 0 -0.37058365568509732 -0.39309868945467707 0 -0.36972926369223169 -0.3806534679218625 0 -0.36565889768521531 -0.38849408191951967 0 -0.35886936897906091 -0.38498397527551709 0 -0.36565889768521531 -0.38849408191951967 0 -0.36114946501616019 -0.39138702547992488 0 -0.35886936897906091 -0.38498397527551709 0 -0.35931698530543932 -0.41516293014979228 0 -0.37058365568509732 -0.39309868945467707 0 -0.35575061465603808 -0.39678254012626429 0 -0.37968344780272312 -0.40493494267242691 0 -0.35931698530543932 -0.41516293014979228 0 -0.37058365568509732 -0.39309868945467707 0 -0.35931698530543932 -0.41516293014979228 0 -0.37058365568509732 -0.39309868945467707 0 -0.36114946501616019 -0.39138702547992488 0 -0.36779932011886468 -0.39266727737656443 0 -0.35575061465603808 -0.39678254012626429 0 -0.36779932011886468 -0.39266727737656443 0 -0.37058365568509732 -0.39309868945467707 0 -0.35575061465603808 -0.39678254012626429 0 -0.37058365568509732 -0.39309868945467707 0 -0.35575061465603808 -0.39678254012626429 0 -0.36565889768521531 -0.38849408191951967 0 -0.36114946501616019 -0.39138702547992488 0 -0.36779932011886468 -0.39266727737656443 0 -0.36565889768521531 -0.38849408191951967 0 -0.36779932011886468 -0.39266727737656443 0 -0.37058365568509732 -0.39309868945467707 0 -0.36779932011886468 -0.39266727737656443 0 -0.37058365568509732 -0.39309868945467707 0 -0.35575061465603808 -0.39678254012626429 0 -0.34765691196657289 -0.38013705110640589 0 -0.34091757362697778 -0.40046639079784779 0 -0.34602796595468988 -0.4129342985722132 0 -0.35575061465603808 -0.39678254012626429 0 -0.34091757362697778 -0.40046639079784779 0 -0.35575061465603808 -0.39678254012626429 0 -0.34091757362697778 -0.40046639079784779 0 -0.36114946501616019 -0.39138702547992488 0 -0.35575061465603808 -0.39678254012626429 0 -0.35886936897906091 -0.38498397527551709 0 -0.35575061465603808 -0.39678254012626429 0 -0.35886936897906091 -0.38498397527551709 0 -0.34765691196657289 -0.38013705110640589 0 -0.34765691196657289 -0.38013705110640589 0 -0.34091757362697778 -0.40046639079784779 0 -0.36118957927782253 -0.37232727251836312 0 -0.35886936897906091 -0.38498397527551709 0 -0.34765691196657289 -0.38013705110640589 0 -0.34765691196657289 -0.38013705110640589 0 -0.32880236020091841 -0.3869448332962101 0 -0.34091757362697778 -0.40046639079784779 0 -0.33007103011208377 -0.37478571175297543 0 -0.34765691196657289 -0.38013705110640589 0 -0.32880236020091841 -0.3869448332962101 0 -0.32880236020091841 -0.3869448332962101 0 -0.34091757362697778 -0.40046639079784779 0 -0.32330772770154548 -0.39592330086460248 0 -0.34091757362697778 -0.40046639079784779 0 -0.31669635260985129 -0.40648183706647112 0 -0.34091757362697778 -0.40046639079784779 0 -0.32330772770154548 -0.39592330086460248 0 -0.31669635260985129 -0.40648183706647112 0 -0.32330772770154548 -0.39592330086460248 0 -0.31669635260985129 -0.40648183706647112 0 -0.31187365468682171 -0.3961112795479888 0 -0.32330772770154548 -0.39592330086460248 0 -0.31785586657269299 -0.38939792419957259 0 -0.31187365468682171 -0.3961112795479888 0 -0.32880236020091841 -0.3869448332962101 0 -0.32330772770154548 -0.39592330086460248 0 -0.31785586657269299 -0.38939792419957259 0 -0.32880236020091841 -0.3869448332962101 0 -0.31785586657269299 -0.38939792419957259 0 -0.31546247105234559 -0.37852390254038581 0 -0.31785586657269299 -0.38939792419957259 0 -0.31546247105234559 -0.37852390254038581 0 -0.30640763455457909 -0.38761813705057302 0 -0.33007103011208377 -0.37478571175297543 0 -0.32880236020091841 -0.3869448332962101 0 -0.31546247105234559 -0.37852390254038581 0 -0.32804578594666878 -0.43929437820599537 0 -0.33448167978682269 -0.41988038450192139 0 -0.32804578594666878 -0.43929437820599537 0 -0.3338334548891061 -0.43523239357757348 0 -0.33448167978682269 -0.41988038450192139 0 -0.34434208017236823 -0.42408743552928241 0 -0.34805031492578331 -0.43722717084490847 0 -0.3338334548891061 -0.43523239357757348 0 -0.34805031492578331 -0.43722717084490847 0 -0.3338334548891061 -0.43523239357757348 0 -0.34434208017236823 -0.42408743552928241 0 -0.3338334548891061 -0.43523239357757348 0 -0.33448167978682269 -0.41988038450192139 0 -0.34602796595468988 -0.4129342985722132 0 -0.34434208017236823 -0.42408743552928241 0 -0.33448167978682269 -0.41988038450192139 0 -0.34091757362697778 -0.40046639079784779 0 -0.33448167978682269 -0.41988038450192139 0 -0.31669635260985129 -0.40648183706647112 0 -0.34602796595468988 -0.4129342985722132 0 -0.34091757362697778 -0.40046639079784779 0 -0.33448167978682269 -0.41988038450192139 0 -0.34091757362697778 -0.40046639079784779 0 -0.33448167978682269 -0.41988038450192139 0 -0.31669635260985129 -0.40648183706647112 0 -0.31985706428818261 -0.42580597969284412 0 -0.30539690575222261 -0.43023831029449222 0 -0.33448167978682269 -0.41988038450192139 0 -0.31669635260985129 -0.40648183706647112 0 -0.31985706428818261 -0.42580597969284412 0 -0.32804578594666878 -0.43929437820599537 0 -0.3164652655650203 -0.44236489516629179 0 -0.31985706428818261 -0.42580597969284412 0 -0.3164652655650203 -0.44236489516629179 0 -0.31985706428818261 -0.42580597969284412 0 -0.30539690575222261 -0.43023831029449222 0 -0.32804578594666878 -0.43929437820599537 0 -0.33448167978682269 -0.41988038450192139 0 -0.31985706428818261 -0.42580597969284412 0 -0.31669635260985129 -0.40648183706647112 0 -0.30539690575222261 -0.43023831029449222 0 -0.29247513159272448 -0.41249728333509278 0 -0.31669635260985129 -0.40648183706647112 0 -0.29247513159272448 -0.41249728333509278 0 -0.29247513159272448 -0.41249728333509278 0 -0.27284209246239899 -0.41737323454724218 0 -0.29247513159272448 -0.41249728333509278 0 -0.27020420779849391 -0.43130961455558853 0 -0.30539690575222261 -0.43023831029449222 0 -0.29247513159272448 -0.41249728333509278 0 -0.28874761695656542 -0.43709191004478448 0 -0.29247513159272448 -0.41249728333509278 0 -0.28874761695656542 -0.43709191004478448 0 -0.27020420779849391 -0.43130961455558853 0 -0.30651277177938208 -0.36856750644284231 0 -0.31546247105234559 -0.37852390254038581 0 -0.29710588804814853 -0.37867623553919227 0 -0.31546247105234559 -0.37852390254038581 0 -0.29710588804814853 -0.37867623553919227 0 -0.30640763455457909 -0.38761813705057302 0 -0.29710588804814853 -0.37867623553919227 0 -0.30640763455457909 -0.38761813705057302 0 -0.29742426409992961 -0.39428415330883299 0 -0.29247513159272448 -0.41249728333509278 0 -0.29742426409992961 -0.39428415330883299 0 -0.31187365468682171 -0.3961112795479888 0 -0.29247513159272448 -0.41249728333509278 0 -0.31187365468682171 -0.3961112795479888 0 -0.31669635260985129 -0.40648183706647112 0 -0.29247513159272448 -0.41249728333509278 0 -0.31187365468682171 -0.3961112795479888 0 -0.30640763455457909 -0.38761813705057302 0 -0.29742426409992961 -0.39428415330883299 0 -0.31187365468682171 -0.3961112795479888 0 -0.31785586657269299 -0.38939792419957259 0 -0.30640763455457909 -0.38761813705057302 0 -0.31187365468682171 -0.3961112795479888 0 -0.29247513159272448 -0.41249728333509278 0 -0.29742426409992961 -0.39428415330883299 0 -0.28719344017666593 -0.39863152837545562 0 -0.29247513159272448 -0.41249728333509278 0 -0.28719344017666593 -0.39863152837545562 0 -0.27755706171758637 -0.40411894928547692 0 -0.28719344017666593 -0.39863152837545562 0 -0.28009943059364539 -0.39272140088361779 0 -0.27755706171758637 -0.40411894928547692 0 -0.28719344017666593 -0.39863152837545562 0 -0.28841131287944338 -0.38953585506425781 0 -0.28009943059364539 -0.39272140088361779 0 -0.29742426409992961 -0.39428415330883299 0 -0.28719344017666593 -0.39863152837545562 0 -0.28841131287944338 -0.38953585506425781 0 -0.29710588804814853 -0.37867623553919227 0 -0.29742426409992961 -0.39428415330883299 0 -0.28841131287944338 -0.38953585506425781 0 -0.29710588804814853 -0.37867623553919227 0 -0.28841131287944338 -0.38953585506425781 0 -0.28260545436571372 -0.38140155621940031 0 -0.28841131287944338 -0.38953585506425781 0 -0.28260545436571372 -0.38140155621940031 0 -0.28009943059364539 -0.39272140088361779 0 -0.28739382855727141 -0.37099380339349453 0 -0.27700026691642282 -0.3732873398037001 0 -0.28260545436571372 -0.38140155621940031 0 -0.28739382855727141 -0.37099380339349453 0 -0.29710588804814853 -0.37867623553919227 0 -0.28260545436571372 -0.38140155621940031 0 -0.26733412459512662 -0.37376579679648708 0 -0.26913278438577087 -0.37932779573144471 0 -0.27189931286356639 -0.37638821473323603 0 -0.26733412459512662 -0.37376579679648708 0 -0.26913278438577087 -0.37932779573144471 0 -0.2644276864009461 -0.3761725021908145 0 -0.26913278438577087 -0.37932779573144471 0 -0.26580824432444577 -0.38158321433340892 0 -0.26774640211187262 -0.38500042421592812 0 -0.26913278438577087 -0.37932779573144471 0 -0.26580824432444577 -0.38158321433340892 0 -0.2644276864009461 -0.3761725021908145 0 -0.26913278438577087 -0.37932779573144471 0 -0.27494703930791858 -0.37916584774760159 0 -0.27409737800811929 -0.38542433225022688 0 -0.26913278438577087 -0.37932779573144471 0 -0.27189931286356639 -0.37638821473323603 0 -0.27494703930791858 -0.37916584774760159 0 -0.27700026691642282 -0.3732873398037001 0 -0.28260545436571372 -0.38140155621940031 0 -0.27494703930791858 -0.37916584774760159 0 -0.27700026691642282 -0.3732873398037001 0 -0.27189931286356639 -0.37638821473323603 0 -0.27494703930791858 -0.37916584774760159 0 -0.28260545436571372 -0.38140155621940031 0 -0.27494703930791858 -0.37916584774760159 0 -0.27409737800811929 -0.38542433225022688 0 -0.27409737800811929 -0.38542433225022688 0 -0.268513825439325 -0.39367612964084098 0 -0.28009943059364539 -0.39272140088361779 0 -0.28260545436571372 -0.38140155621940031 0 -0.27409737800811929 -0.38542433225022688 0 -0.28009943059364539 -0.39272140088361779 0 -0.26774640211187262 -0.38500042421592812 0 -0.268513825439325 -0.39367612964084098 0 -0.26192610439919373 -0.38583213519544779 0 -0.27409737800811929 -0.38542433225022688 0 -0.26774640211187262 -0.38500042421592812 0 -0.268513825439325 -0.39367612964084098 0 -0.26913278438577087 -0.37932779573144471 0 -0.27409737800811929 -0.38542433225022688 0 -0.26774640211187262 -0.38500042421592812 0 -0.268513825439325 -0.39367612964084098 0 -0.28009943059364539 -0.39272140088361779 0 -0.27755706171758637 -0.40411894928547692 0 -0.268513825439325 -0.39367612964084098 0 -0.27755706171758637 -0.40411894928547692 0 -0.26257145873531379 -0.40724166260602251 0 -0.25661643408579998 -0.39481139302580059 0 -0.26257145873531379 -0.40724166260602251 0 -0.23834789625766301 -0.40191449656852118 0 -0.268513825439325 -0.39367612964084098 0 -0.25661643408579998 -0.39481139302580059 0 -0.26257145873531379 -0.40724166260602251 0 -0.268513825439325 -0.39367612964084098 0 -0.25661643408579998 -0.39481139302580059 0 -0.26192610439919373 -0.38583213519544779 0 -0.25663434928953388 -0.37245856678327838 0 -0.2644276864009461 -0.3761725021908145 0 -0.24311977831358031 -0.37670385616550278 0 -0.2519220738839355 -0.38585802058224389 0 -0.2644276864009461 -0.3761725021908145 0 -0.24311977831358031 -0.37670385616550278 0 -0.2644276864009461 -0.3761725021908145 0 -0.24311977831358031 -0.37670385616550278 0 -0.26580824432444577 -0.38158321433340892 0 -0.26774640211187262 -0.38500042421592812 0 -0.26192610439919373 -0.38583213519544779 0 -0.25661643408579998 -0.39481139302580059 0 -0.26192610439919373 -0.38583213519544779 0 -0.2519220738839355 -0.38585802058224389 0 -0.26580824432444577 -0.38158321433340892 0 -0.26192610439919373 -0.38583213519544779 0 -0.2644276864009461 -0.3761725021908145 0 -0.26192610439919373 -0.38583213519544779 0 -0.2519220738839355 -0.38585802058224389 0 -0.2644276864009461 -0.3761725021908145 0 -0.29247513159272448 -0.41249728333509278 0 -0.27755706171758637 -0.40411894928547692 0 -0.27284209246239899 -0.41737323454724218 0 -0.29247513159272448 -0.41249728333509278 0 -0.27020420779849391 -0.43130961455558853 0 -0.27284209246239899 -0.41737323454724218 0 -0.27755706171758637 -0.40411894928547692 0 -0.27284209246239899 -0.41737323454724218 0 -0.26257145873531379 -0.40724166260602251 0 -0.27284209246239899 -0.41737323454724218 0 -0.25320905333207361 -0.42224918575939208 0 -0.26257145873531379 -0.40724166260602251 0 -0.25320905333207361 -0.42224918575939208 0 -0.23834789625766301 -0.40191449656852118 0 -0.27284209246239899 -0.41737323454724218 0 -0.26257145873531379 -0.40724166260602251 0 -0.25320905333207361 -0.42224918575939208 0 -0.27020420779849391 -0.43130961455558853 0 -0.25320905333207361 -0.42224918575939208 0 -0.24603497244118491 -0.43532695237943653 0 -0.27020420779849391 -0.43130961455558853 0 -0.27284209246239899 -0.41737323454724218 0 -0.25320905333207361 -0.42224918575939208 0 -0.27020420779849391 -0.43130961455558853 0 -0.24793328400426279 -0.45012194577608389 0 -0.29076423389735012 -0.5 0 -0.2413320614864905 -0.48316137101608569 0 -0.22075999741693711 -0.49483426866728109 0 -0.27020420779849391 -0.43130961455558853 0 -0.27456511074626111 -0.45825526542008638 0 -0.24793328400426279 -0.45012194577608389 0 -0.27020420779849391 -0.43130961455558853 0 -0.24793328400426279 -0.45012194577608389 0 -0.24603497244118491 -0.43532695237943653 0 -0.27456511074626111 -0.45825526542008638 0 -0.25582340876531362 -0.47691927435091558 0 -0.24793328400426279 -0.45012194577608389 0 -0.28874761695656542 -0.43709191004478448 0 -0.27020420779849391 -0.43130961455558853 0 -0.27456511074626111 -0.45825526542008638 0 -0.28874761695656542 -0.43709191004478448 0 -0.27456511074626111 -0.45825526542008638 0 -0.30109672889312511 -0.453159076618662 0 -0.27456511074626111 -0.45825526542008638 0 -0.30109672889312511 -0.453159076618662 0 -0.29377398093374768 -0.47424122098538479 0 -0.32054911338324171 -0.4567760016132561 0 -0.314038178978015 -0.46976493553682819 0 -0.30109672889312511 -0.453159076618662 0 -0.314038178978015 -0.46976493553682819 0 -0.30109672889312511 -0.453159076618662 0 -0.29377398093374768 -0.47424122098538479 0 -0.3164652655650203 -0.44236489516629179 0 -0.30539690575222261 -0.43023831029449222 0 -0.30109672889312511 -0.453159076618662 0 -0.30539690575222261 -0.43023831029449222 0 -0.28874761695656542 -0.43709191004478448 0 -0.30109672889312511 -0.453159076618662 0 -0.33446372643346017 -0.48912545522388079 0 -0.30905275797869258 -0.48590517371351588 0 -0.29076423389735012 -0.5 0 -0.30905275797869258 -0.48590517371351588 0 -0.29377398093374768 -0.47424122098538479 0 -0.29076423389735012 -0.5 0 -0.314038178978015 -0.46976493553682819 0 -0.30905275797869258 -0.48590517371351588 0 -0.29377398093374768 -0.47424122098538479 0 -0.27456511074626111 -0.45825526542008638 0 -0.29377398093374768 -0.47424122098538479 0 -0.27873168358566808 -0.47735394018909671 0 -0.29377398093374768 -0.47424122098538479 0 -0.29076423389735012 -0.5 0 -0.27873168358566808 -0.47735394018909671 0 -0.29076423389735012 -0.5 0 -0.25582340876531362 -0.47691927435091558 0 -0.2413320614864905 -0.48316137101608569 0 -0.29076423389735012 -0.5 0 -0.27873168358566808 -0.47735394018909671 0 -0.25582340876531362 -0.47691927435091558 0 -0.27456511074626111 -0.45825526542008638 0 -0.27873168358566808 -0.47735394018909671 0 -0.25582340876531362 -0.47691927435091558 0 -0.29076423389735012 -0.5 0 -0.22075999741693711 -0.49483426866728109 0 -0.21597272653835051 -0.5 0 -0.25582340876531362 -0.47691927435091558 0 -0.2421618843202723 -0.46982680551560768 0 -0.2413320614864905 -0.48316137101608569 0 -0.2421618843202723 -0.46982680551560768 0 -0.2413320614864905 -0.48316137101608569 0 -0.2256623602100323 -0.46893427699657991 0 -0.2256623602100323 -0.46893427699657991 0 -0.22075999741693711 -0.49483426866728109 0 -0.2256623602100323 -0.46893427699657991 0 -0.22075999741693711 -0.49483426866728109 0 -0.21612805640910171 -0.47698793847542592 0 -0.2413320614864905 -0.48316137101608569 0 -0.2256623602100323 -0.46893427699657991 0 -0.22075999741693711 -0.49483426866728109 0 -0.2256623602100323 -0.46893427699657991 0 -0.21612805640910171 -0.47698793847542592 0 -0.21938822312387421 -0.47090353931461298 0 -0.2256623602100323 -0.46893427699657991 0 -0.21612805640910171 -0.47698793847542592 0 -0.24793328400426279 -0.45012194577608389 0 -0.22961918720588831 -0.44802970698405969 0 -0.24603497244118491 -0.43532695237943653 0 -0.2256623602100323 -0.46893427699657991 0 -0.24793328400426279 -0.45012194577608389 0 -0.22961918720588831 -0.44802970698405969 0 -0.25582340876531362 -0.47691927435091558 0 -0.2421618843202723 -0.46982680551560768 0 -0.24793328400426279 -0.45012194577608389 0 -0.2421618843202723 -0.46982680551560768 0 -0.2256623602100323 -0.46893427699657991 0 -0.24793328400426279 -0.45012194577608389 0 -0.2256623602100323 -0.46893427699657991 0 -0.24793328400426279 -0.45012194577608389 0 -0.21938822312387421 -0.47090353931461298 0 -0.2256623602100323 -0.46893427699657991 0 -0.2137646871222991 -0.45164242409333472 0 -0.2256623602100323 -0.46893427699657991 0 -0.22961918720588831 -0.44802970698405969 0 -0.2137646871222991 -0.45164242409333472 0 -0.2256623602100323 -0.46893427699657991 0 -0.22961918720588831 -0.44802970698405969 0 -0.22961918720588831 -0.44802970698405969 0 -0.22171339315545521 -0.43995100384331698 0 -0.2137646871222991 -0.45164242409333472 0 -0.22961918720588831 -0.44802970698405969 0 -0.22171339315545521 -0.43995100384331698 0 -0.23357601420174781 -0.42712513697154009 0 -0.22961918720588831 -0.44802970698405969 0 -0.23357601420174781 -0.42712513697154009 0 -0.2137646871222991 -0.45164242409333472 0 -0.20332563995887601 -0.44423875098405458 0 -0.1973916137322467 -0.45393882194166152 0 -0.2137646871222991 -0.45164242409333472 0 -0.20814115112072379 -0.43238130887205628 0 -0.2137646871222991 -0.45164242409333472 0 -0.20332563995887601 -0.44423875098405458 0 -0.20814115112072379 -0.43238130887205628 0 -0.2137646871222991 -0.45164242409333472 0 -0.2098936840918898 -0.43300674732433431 0 -0.20814115112072379 -0.43238130887205628 0 -0.22171339315545521 -0.43995100384331698 0 -0.2137646871222991 -0.45164242409333472 0 -0.2098936840918898 -0.43300674732433431 0 -0.2137646871222991 -0.45164242409333472 0 -0.20420666171286281 -0.46713012453180619 0 -0.1973916137322467 -0.45393882194166152 0 -0.21938822312387421 -0.47090353931461298 0 -0.2137646871222991 -0.45164242409333472 0 -0.20420666171286281 -0.46713012453180619 0 -0.21938822312387421 -0.47090353931461298 0 -0.2137646871222991 -0.45164242409333472 0 -0.1973916137322467 -0.45393882194166152 0 -0.18438984416438431 -0.47522646828299409 0 -0.1835583032715265 -0.45096465920198081 0 -0.20420666171286281 -0.46713012453180619 0 -0.1973916137322467 -0.45393882194166152 0 -0.18438984416438431 -0.47522646828299409 0 -0.1973916137322467 -0.45393882194166152 0 -0.1835583032715265 -0.45096465920198081 0 -0.19510454616353171 -0.43443050455579779 0 -0.20332563995887601 -0.44423875098405458 0 -0.1973916137322467 -0.45393882194166152 0 -0.19510454616353171 -0.43443050455579779 0 -0.1835583032715265 -0.45096465920198081 0 -0.19510454616353171 -0.43443050455579779 0 -0.1835583032715265 -0.45096465920198081 0 -0.1861715028575199 -0.43583467027574568 0 -0.19510454616353171 -0.43443050455579779 0 -0.20420666171286281 -0.46713012453180619 0 -0.21597272653835051 -0.5 0 -0.18438984416438431 -0.47522646828299409 0 -0.20420666171286281 -0.46713012453180619 0 -0.21597272653835051 -0.5 0 -0.21612805640910171 -0.47698793847542592 0 -0.22075999741693711 -0.49483426866728109 0 -0.21597272653835051 -0.5 0 -0.21612805640910171 -0.47698793847542592 0 -0.21938822312387421 -0.47090353931461298 0 -0.20420666171286281 -0.46713012453180619 0 -0.21612805640910171 -0.47698793847542592 0 -0.21597272653835051 -0.5 0 -0.16048329391911989 -0.5 0 -0.18438984416438431 -0.47522646828299409 0 -0.16048329391911989 -0.5 0 -0.15872051805300799 -0.48653222743286478 0 -0.18438984416438431 -0.47522646828299409 0 -0.15872051805300799 -0.48653222743286478 0 -0.18438984416438431 -0.47522646828299409 0 -0.172083767652639 -0.46754888895694668 0 -0.15872051805300799 -0.48653222743286478 0 -0.172083767652639 -0.46754888895694668 0 -0.15872051805300799 -0.48653222743286478 0 -0.172083767652639 -0.46754888895694668 0 -0.15550292113352621 -0.46882293778577372 0 -0.18438984416438431 -0.47522646828299409 0 -0.172083767652639 -0.46754888895694668 0 -0.1835583032715265 -0.45096465920198081 0 -0.172083767652639 -0.46754888895694668 0 -0.17912763525507991 -0.45169177961634638 0 -0.1835583032715265 -0.45096465920198081 0 -0.172083767652639 -0.46754888895694668 0 -0.1835583032715265 -0.45096465920198081 0 -0.172083767652639 -0.46754888895694668 0 -0.17912763525507991 -0.45169177961634638 0 -0.17912763525507991 -0.45169177961634638 0 -0.1861715028575199 -0.43583467027574568 0 -0.16019917503423381 -0.43991720420593089 0 -0.1861715028575199 -0.43583467027574568 0 -0.17912763525507991 -0.45169177961634638 0 -0.16019917503423381 -0.43991720420593089 0 -0.1861715028575199 -0.43583467027574568 0 -0.17912763525507991 -0.45169177961634638 0 -0.1835583032715265 -0.45096465920198081 0 -0.1861715028575199 -0.43583467027574568 0 -0.16019917503423381 -0.43991720420593089 0 -0.1638928096886276 -0.45555703393313102 0 -0.15089075505252181 -0.45492227916971778 0 -0.17912763525507991 -0.45169177961634638 0 -0.16019917503423381 -0.43991720420593089 0 -0.1638928096886276 -0.45555703393313102 0 -0.172083767652639 -0.46754888895694668 0 -0.1638928096886276 -0.45555703393313102 0 -0.15550292113352621 -0.46882293778577372 0 -0.172083767652639 -0.46754888895694668 0 -0.17912763525507991 -0.45169177961634638 0 -0.1638928096886276 -0.45555703393313102 0 -0.1638928096886276 -0.45555703393313102 0 -0.15089075505252181 -0.45492227916971778 0 -0.15550292113352621 -0.46882293778577372 0 -0.15089075505252181 -0.45492227916971778 0 -0.14027129269772071 -0.46737028282102711 0 -0.15550292113352621 -0.46882293778577372 0 -0.15089075505252181 -0.45492227916971778 0 -0.13422684721094749 -0.44399973813611582 0 -0.14027129269772071 -0.46737028282102711 0 -0.16019917503423381 -0.43991720420593089 0 -0.15089075505252181 -0.45492227916971778 0 -0.13422684721094749 -0.44399973813611582 0 -0.16019917503423381 -0.43991720420593089 0 -0.13422684721094749 -0.44399973813611582 0 -0.13422684721094749 -0.44399973813611582 0 -0.12725453073383031 -0.46040420120067788 0 -0.1209715931291258 -0.44608330280195979 0 -0.13422684721094749 -0.44399973813611582 0 -0.1209715931291258 -0.44608330280195979 0 -0.13422684721094749 -0.44399973813611582 0 -0.12725453073383031 -0.46040420120067788 0 -0.14027129269772071 -0.46737028282102711 0 -0.12725453073383031 -0.46040420120067788 0 -0.14027129269772071 -0.46737028282102711 0 -0.12557641315546761 -0.47775406968757211 0 -0.13422684721094749 -0.44399973813611582 0 -0.14027129269772071 -0.46737028282102711 0 -0.14027129269772071 -0.46737028282102711 0 -0.12557641315546761 -0.47775406968757211 0 -0.13957639539165079 -0.48712909960974538 0 -0.16048329391911989 -0.5 0 -0.13957639539165079 -0.48712909960974538 0 -0.119318990882151 -0.5 0 -0.12557641315546761 -0.47775406968757211 0 -0.13957639539165079 -0.48712909960974538 0 -0.119318990882151 -0.5 0 -0.16048329391911989 -0.5 0 -0.15872051805300799 -0.48653222743286478 0 -0.13957639539165079 -0.48712909960974538 0 -0.15872051805300799 -0.48653222743286478 0 -0.15550292113352621 -0.46882293778577372 0 -0.14818710495301571 -0.47824031340684958 0 -0.15872051805300799 -0.48653222743286478 0 -0.13957639539165079 -0.48712909960974538 0 -0.14818710495301571 -0.47824031340684958 0 -0.14027129269772071 -0.46737028282102711 0 -0.13957639539165079 -0.48712909960974538 0 -0.14818710495301571 -0.47824031340684958 0 -0.14027129269772071 -0.46737028282102711 0 -0.15550292113352621 -0.46882293778577372 0 -0.14818710495301571 -0.47824031340684958 0 -0.14635924308058351 -0.39435851299033681 0 -0.1502800263237424 -0.40695321198566958 0 -0.1621729654345358 -0.39032044626008289 0 -0.14635924308058351 -0.39435851299033681 0 -0.13369692947340239 -0.40016576909178991 0 -0.1502800263237424 -0.40695321198566958 0 -0.13928705109065459 -0.37999462462380168 0 -0.15708068220054949 -0.37884940773775111 0 -0.1621729654345358 -0.39032044626008289 0 -0.14011060610960371 -0.37702294557959681 0 -0.15708068220054949 -0.37884940773775111 0 -0.14521968082413839 -0.37021657594269219 0 -0.14011060610960371 -0.37702294557959681 0 -0.13928705109065459 -0.37999462462380168 0 -0.15708068220054949 -0.37884940773775111 0 -0.14635924308058351 -0.39435851299033681 0 -0.13928705109065459 -0.37999462462380168 0 -0.1621729654345358 -0.39032044626008289 0 -0.13928705109065459 -0.37999462462380168 0 -0.1621729654345358 -0.39032044626008289 0 -0.13928705109065459 -0.37999462462380168 0 -0.15708068220054949 -0.37884940773775111 0 -0.13928705109065459 -0.37999462462380168 0 -0.13369692947340239 -0.40016576909178991 0 -0.13781369823175171 -0.37932986731501922 0 -0.1312159761628823 -0.38885093340404592 0 -0.117090005787617 -0.37984665274065649 0 -0.13928705109065459 -0.37999462462380168 0 -0.1312159761628823 -0.38885093340404592 0 -0.13369692947340239 -0.40016576909178991 0 -0.13781369823175171 -0.37932986731501922 0 -0.117090005787617 -0.37984665274065649 0 -0.13781369823175171 -0.37932986731501922 0 -0.13928705109065459 -0.37999462462380168 0 -0.1312159761628823 -0.38885093340404592 0 -0.14011060610960371 -0.37702294557959681 0 -0.13781369823175171 -0.37932986731501922 0 -0.13928705109065459 -0.37999462462380168 0 -0.14011060610960371 -0.37702294557959681 0 -0.13928705109065459 -0.37999462462380168 0 -0.13781369823175171 -0.37932986731501922 0 -0.13928705109065459 -0.37999462462380168 0 -0.1312159761628823 -0.38885093340404592 0 -0.12712275605433601 -0.39520900375222628 0 -0.11968314310199001 -0.38776723715545369 0 -0.14635924308058351 -0.39435851299033681 0 -0.13928705109065459 -0.37999462462380168 0 -0.13369692947340239 -0.40016576909178991 0 -0.1312159761628823 -0.38885093340404592 0 -0.12712275605433601 -0.39520900375222628 0 -0.13369692947340239 -0.40016576909178991 0 -0.12712275605433601 -0.39520900375222628 0 -0.13369692947340239 -0.40016576909178991 0 -0.1238949754790693 -0.40405207535761578 0 -0.1281068078561492 -0.42033691355977781 0 -0.1238949754790693 -0.40405207535761578 0 -0.13369692947340239 -0.40016576909178991 0 -0.1281068078561492 -0.42033691355977781 0 -0.1502800263237424 -0.40695321198566958 0 -0.13369692947340239 -0.40016576909178991 0 -0.1281068078561492 -0.42033691355977781 0 -0.1238949754790693 -0.40405207535761578 0 -0.13369692947340239 -0.40016576909178991 0 -0.1281068078561492 -0.42033691355977781 0 -0.13422684721094749 -0.44399973813611582 0 -0.1281068078561492 -0.42033691355977781 0 -0.14644636230664851 -0.42569384071416078 0 -0.13422684721094749 -0.44399973813611582 0 -0.1281068078561492 -0.42033691355977781 0 -0.1209715931291258 -0.44608330280195979 0 -0.13422684721094749 -0.44399973813611582 0 -0.1281068078561492 -0.42033691355977781 0 -0.16019917503423381 -0.43991720420593089 0 -0.13422684721094749 -0.44399973813611582 0 -0.14644636230664851 -0.42569384071416078 0 -0.16019917503423381 -0.43991720420593089 0 -0.14644636230664851 -0.42569384071416078 0 -0.15941895510816889 -0.41726213568330739 0 -0.14644636230664851 -0.42569384071416078 0 -0.1502800263237424 -0.40695321198566958 0 -0.15941895510816889 -0.41726213568330739 0 -0.1281068078561492 -0.42033691355977781 0 -0.14644636230664851 -0.42569384071416078 0 -0.1502800263237424 -0.40695321198566958 0 -0.1502800263237424 -0.40695321198566958 0 -0.15941895510816889 -0.41726213568330739 0 -0.16997764942778981 -0.40790152465411578 0 -0.15941895510816889 -0.41726213568330739 0 -0.16997764942778981 -0.40790152465411578 0 -0.1750360514602439 -0.42209236474722461 0 -0.16019917503423381 -0.43991720420593089 0 -0.15941895510816889 -0.41726213568330739 0 -0.1750360514602439 -0.42209236474722461 0 -0.1750360514602439 -0.42209236474722461 0 -0.1861715028575199 -0.43583467027574568 0 -0.19310397731671519 -0.42022832846116248 0 -0.16019917503423381 -0.43991720420593089 0 -0.1750360514602439 -0.42209236474722461 0 -0.1861715028575199 -0.43583467027574568 0 -0.1750360514602439 -0.42209236474722461 0 -0.1813450490170363 -0.41141032520308668 0 -0.19310397731671519 -0.42022832846116248 0 -0.16997764942778981 -0.40790152465411578 0 -0.1750360514602439 -0.42209236474722461 0 -0.1813450490170363 -0.41141032520308668 0 -0.17758944877765381 -0.39727615949345868 0 -0.1893281580467325 -0.39502089325523421 0 -0.19300593212077161 -0.40423187272683531 0 -0.17758944877765381 -0.39727615949345868 0 -0.19300593212077161 -0.40423187272683531 0 -0.1813450490170363 -0.41141032520308668 0 -0.17758944877765381 -0.39727615949345868 0 -0.19300593212077161 -0.40423187272683531 0 -0.17758944877765381 -0.39727615949345868 0 -0.18355628587205131 -0.38778499855771131 0 -0.1893281580467325 -0.39502089325523421 0 -0.16997764942778981 -0.40790152465411578 0 -0.1813450490170363 -0.41141032520308668 0 -0.17758944877765381 -0.39727615949345868 0 -0.1502800263237424 -0.40695321198566958 0 -0.16997764942778981 -0.40790152465411578 0 -0.1621729654345358 -0.39032044626008289 0 -0.16997764942778981 -0.40790152465411578 0 -0.17758944877765381 -0.39727615949345868 0 -0.1621729654345358 -0.39032044626008289 0 -0.16997764942778981 -0.40790152465411578 0 -0.1621729654345358 -0.39032044626008289 0 -0.17758944877765381 -0.39727615949345868 0 -0.1621729654345358 -0.39032044626008289 0 -0.17279079216484389 -0.38627986657569241 0 -0.17758944877765381 -0.39727615949345868 0 -0.1621729654345358 -0.39032044626008289 0 -0.15708068220054949 -0.37884940773775111 0 -0.17279079216484389 -0.38627986657569241 0 -0.18458746861158801 -0.37816347272102208 0 -0.15708068220054949 -0.37884940773775111 0 -0.1621729654345358 -0.39032044626008289 0 -0.17279079216484389 -0.38627986657569241 0 -0.15708068220054949 -0.37884940773775111 0 -0.18458746861158801 -0.37816347272102208 0 -0.15708068220054949 -0.37884940773775111 0 -0.1621729654345358 -0.39032044626008289 0 -0.17758944877765381 -0.39727615949345868 0 -0.17279079216484389 -0.38627986657569241 0 -0.18355628587205131 -0.38778499855771131 0 -0.17279079216484389 -0.38627986657569241 0 -0.18355628587205131 -0.38778499855771131 0 -0.18458746861158801 -0.37816347272102208 0 -0.18355628587205131 -0.38778499855771131 0 -0.18458746861158801 -0.37816347272102208 0 -0.19348556175943851 -0.38218460074314908 0 -0.18458746861158801 -0.37816347272102208 0 -0.19348556175943851 -0.38218460074314908 0 -0.21209425502262641 -0.37747753770429288 0 -0.19348556175943851 -0.38218460074314908 0 -0.20003645177590951 -0.40462198664657878 0 -0.21209425502262641 -0.37747753770429288 0 -0.18458746861158801 -0.37816347272102208 0 -0.21209425502262641 -0.37747753770429288 0 -0.18355628587205131 -0.38778499855771131 0 -0.19348556175943851 -0.38218460074314908 0 -0.1893281580467325 -0.39502089325523421 0 -0.19348556175943851 -0.38218460074314908 0 -0.1893281580467325 -0.39502089325523421 0 -0.20003645177590951 -0.40462198664657878 0 -0.19348556175943851 -0.38218460074314908 0 -0.20003645177590951 -0.40462198664657878 0 -0.1893281580467325 -0.39502089325523421 0 -0.19300593212077161 -0.40423187272683531 0 -0.20003645177590951 -0.40462198664657878 0 -0.20003645177590951 -0.40462198664657878 0 -0.21776290556495501 -0.40198386179276901 0 -0.21919623784771791 -0.38762839766593699 0 -0.20003645177590951 -0.40462198664657878 0 -0.21209425502262641 -0.37747753770429288 0 -0.20003645177590951 -0.40462198664657878 0 -0.21209425502262641 -0.37747753770429288 0 -0.21919623784771791 -0.38762839766593699 0 -0.21209425502262641 -0.37747753770429288 0 -0.22578344531487499 -0.37713617121996929 0 -0.21439476535257179 -0.37229864367902321 0 -0.19510454616353171 -0.43443050455579779 0 -0.20814115112072379 -0.43238130887205628 0 -0.20332563995887601 -0.44423875098405458 0 -0.19510454616353171 -0.43443050455579779 0 -0.20814115112072379 -0.43238130887205628 0 -0.1861715028575199 -0.43583467027574568 0 -0.19510454616353171 -0.43443050455579779 0 -0.19310397731671519 -0.42022832846116248 0 -0.1861715028575199 -0.43583467027574568 0 -0.19510454616353171 -0.43443050455579779 0 -0.1861715028575199 -0.43583467027574568 0 -0.19310397731671519 -0.42022832846116248 0 -0.19510454616353171 -0.43443050455579779 0 -0.19310397731671519 -0.42022832846116248 0 -0.20471952019005549 -0.42066191602352931 0 -0.19510454616353171 -0.43443050455579779 0 -0.20471952019005549 -0.42066191602352931 0 -0.20814115112072379 -0.43238130887205628 0 -0.19510454616353171 -0.43443050455579779 0 -0.20471952019005549 -0.42066191602352931 0 -0.19300593212077161 -0.40423187272683531 0 -0.20003645177590951 -0.40462198664657878 0 -0.19310397731671519 -0.42022832846116248 0 -0.20003645177590951 -0.40462198664657878 0 -0.19310397731671519 -0.42022832846116248 0 -0.20471952019005549 -0.42066191602352931 0 -0.20003645177590951 -0.40462198664657878 0 -0.20471952019005549 -0.42066191602352931 0 -0.1813450490170363 -0.41141032520308668 0 -0.19300593212077161 -0.40423187272683531 0 -0.19310397731671519 -0.42022832846116248 0 -0.20003645177590951 -0.40462198664657878 0 -0.19310397731671519 -0.42022832846116248 0 -0.21776290556495501 -0.40198386179276901 0 -0.20471952019005549 -0.42066191602352931 0 -0.20003645177590951 -0.40462198664657878 0 -0.21776290556495501 -0.40198386179276901 0 -0.20471952019005549 -0.42066191602352931 0 -0.21776290556495501 -0.40198386179276901 0 -0.20471952019005549 -0.42066191602352931 0 -0.22014407368494471 -0.41692323283832089 0 -0.20471952019005549 -0.42066191602352931 0 -0.21145020904508899 -0.42527127987859747 0 -0.22014407368494471 -0.41692323283832089 0 -0.20471952019005549 -0.42066191602352931 0 -0.21145020904508899 -0.42527127987859747 0 -0.20814115112072379 -0.43238130887205628 0 -0.20471952019005549 -0.42066191602352931 0 -0.20814115112072379 -0.43238130887205628 0 -0.21145020904508899 -0.42527127987859747 0 -0.21799846006375431 -0.42443078195748318 0 -0.22014407368494471 -0.41692323283832089 0 -0.21145020904508899 -0.42527127987859747 0 -0.21799846006375431 -0.42443078195748318 0 -0.21494180417253711 -0.4317530246040297 0 -0.21494180417253711 -0.4317530246040297 0 -0.2098936840918898 -0.43300674732433431 0 -0.20814115112072379 -0.43238130887205628 0 -0.21494180417253711 -0.4317530246040297 0 -0.2098936840918898 -0.43300674732433431 0 -0.21145020904508899 -0.42527127987859747 0 -0.21494180417253711 -0.4317530246040297 0 -0.20814115112072379 -0.43238130887205628 0 -0.21494180417253711 -0.4317530246040297 0 -0.20814115112072379 -0.43238130887205628 0 -0.22171339315545521 -0.43995100384331698 0 -0.21494180417253711 -0.4317530246040297 0 -0.2098936840918898 -0.43300674732433431 0 -0.21799846006375431 -0.42443078195748318 0 -0.21494180417253711 -0.4317530246040297 0 -0.23357601420174781 -0.42712513697154009 0 -0.22171339315545521 -0.43995100384331698 0 -0.21494180417253711 -0.4317530246040297 0 -0.23357601420174781 -0.42712513697154009 0 -0.21494180417253711 -0.4317530246040297 0 -0.23357601420174781 -0.42712513697154009 0 -0.21799846006375431 -0.42443078195748318 0 -0.23357601420174781 -0.42712513697154009 0 -0.22014407368494471 -0.41692323283832089 0 -0.23357601420174781 -0.42712513697154009 0 -0.22014407368494471 -0.41692323283832089 0 -0.23834789625766301 -0.40191449656852118 0 -0.21776290556495501 -0.40198386179276901 0 -0.22014407368494471 -0.41692323283832089 0 -0.23834789625766301 -0.40191449656852118 0 -0.23357601420174781 -0.42712513697154009 0 -0.23834789625766301 -0.40191449656852118 0 -0.25320905333207361 -0.42224918575939208 0 -0.23357601420174781 -0.42712513697154009 0 -0.23834789625766301 -0.40191449656852118 0 -0.25320905333207361 -0.42224918575939208 0 -0.23357601420174781 -0.42712513697154009 0 -0.24603497244118491 -0.43532695237943653 0 -0.22961918720588831 -0.44802970698405969 0 -0.23357601420174781 -0.42712513697154009 0 -0.24603497244118491 -0.43532695237943653 0 -0.25320905333207361 -0.42224918575939208 0 -0.23357601420174781 -0.42712513697154009 0 -0.22924715615321001 -0.37860743888485909 0 -0.2276343157237318 -0.37709001618004862 0 -0.24311977831358031 -0.37670385616550278 0 -0.22924715615321001 -0.37860743888485909 0 -0.2276343157237318 -0.37709001618004862 0 -0.22578344531487499 -0.37713617121996929 0 -0.22924715615321001 -0.37860743888485909 0 -0.22578344531487499 -0.37713617121996929 0 -0.2276343157237318 -0.37709001618004862 0 -0.22578344531487499 -0.37713617121996929 0 -0.22924715615321001 -0.37860743888485909 0 -0.22501759038429961 -0.38201597116886982 0 -0.22578344531487499 -0.37713617121996929 0 -0.23080629093985469 -0.38330580756200899 0 -0.22924715615321001 -0.37860743888485909 0 -0.22501759038429961 -0.38201597116886982 0 -0.21209425502262641 -0.37747753770429288 0 -0.22501759038429961 -0.38201597116886982 0 -0.22578344531487499 -0.37713617121996929 0 -0.21209425502262641 -0.37747753770429288 0 -0.22578344531487499 -0.37713617121996929 0 -0.21209425502262641 -0.37747753770429288 0 -0.22501759038429961 -0.38201597116886982 0 -0.21919623784771791 -0.38762839766593699 0 -0.23080629093985469 -0.38330580756200899 0 -0.22501759038429961 -0.38201597116886982 0 -0.21919623784771791 -0.38762839766593699 0 -0.21776290556495501 -0.40198386179276901 0 -0.23080629093985469 -0.38330580756200899 0 -0.23834789625766301 -0.40191449656852118 0 -0.21776290556495501 -0.40198386179276901 0 -0.23080629093985469 -0.38330580756200899 0 -0.21919623784771791 -0.38762839766593699 0 -0.21776290556495501 -0.40198386179276901 0 -0.23080629093985469 -0.38330580756200899 0 -0.25661643408579998 -0.39481139302580059 0 -0.2519220738839355 -0.38585802058224389 0 -0.23834789625766301 -0.40191449656852118 0 -0.23834789625766301 -0.40191449656852118 0 -0.24311977831358031 -0.37670385616550278 0 -0.23080629093985469 -0.38330580756200899 0 -0.23834789625766301 -0.40191449656852118 0 -0.24311977831358031 -0.37670385616550278 0 -0.2519220738839355 -0.38585802058224389 0 -0.23834789625766301 -0.40191449656852118 0 -0.24311977831358031 -0.37670385616550278 0 -0.23080629093985469 -0.38330580756200899 0 -0.22924715615321001 -0.37860743888485909 0 -0.24311977831358031 -0.37670385616550278 0 -0.2276343157237318 -0.37709001618004862 0 -0.24311977831358031 -0.37670385616550278 0 -0.23241863977348509 -0.37564940920759182 0 -0.2276343157237318 -0.37709001618004862 0 -0.24311977831358031 -0.37670385616550278 0 -0.24311977831358031 -0.37670385616550278 0 -0.24770300688035971 -0.35248990327902557 0 -0.24311977831358031 -0.37670385616550278 0 -0.24171788947160461 -0.36501608504200489 0 -0.24770300688035971 -0.35248990327902557 0 -0.25129988172241152 -0.36202624914387271 0 -0.25281973194894081 -0.36989072027067538 0 -0.24311977831358031 -0.37670385616550278 0 -0.25129988172241152 -0.36202624914387271 0 -0.24311977831358031 -0.37670385616550278 0 -0.24770300688035971 -0.35248990327902557 0 -0.24115210805684439 -0.35979621038137483 0 -0.24171788947160461 -0.36501608504200489 0 -0.24278567696604109 -0.35672530956117271 0 -0.23907099908908841 -0.36112527945884038 0 -0.24115210805684439 -0.35979621038137483 0 -0.24171788947160461 -0.36501608504200489 0 -0.23907099908908841 -0.36112527945884038 0 -0.24115210805684439 -0.35979621038137483 0 -0.23882785937880061 -0.35722244771451878 0 -0.24171788947160461 -0.36501608504200489 0 -0.23683600826330961 -0.36474408136416969 0 -0.23797488152085769 -0.3712893738823595 0 -0.23907099908908841 -0.36112527945884038 0 -0.24171788947160461 -0.36501608504200489 0 -0.23683600826330961 -0.36474408136416969 0 -0.23683600826330961 -0.36474408136416969 0 -0.2358746206296729 -0.35990223993862008 0 -0.23272239018908689 -0.36274628961641969 0 -0.23907099908908841 -0.36112527945884038 0 -0.23683600826330961 -0.36474408136416969 0 -0.2358746206296729 -0.35990223993862008 0 -0.23907099908908841 -0.36112527945884038 0 -0.2358746206296729 -0.35990223993862008 0 -0.23882785937880061 -0.35722244771451878 0 -0.23241863977348509 -0.37564940920759182 0 -0.24311977831358031 -0.37670385616550278 0 -0.23797488152085769 -0.3712893738823595 0 -0.24311977831358031 -0.37670385616550278 0 -0.24171788947160461 -0.36501608504200489 0 -0.23797488152085769 -0.3712893738823595 0 -0.23241863977348509 -0.37564940920759182 0 -0.23797488152085769 -0.3712893738823595 0 -0.23337981300626989 -0.36770179109229401 0 -0.23683600826330961 -0.36474408136416969 0 -0.23797488152085769 -0.3712893738823595 0 -0.23337981300626989 -0.36770179109229401 0 -0.23241863977348509 -0.37564940920759182 0 -0.2276343157237318 -0.37709001618004862 0 -0.21343045759801271 -0.35514775126803882 0 -0.23241863977348509 -0.37564940920759182 0 -0.23337981300626989 -0.36770179109229401 0 -0.227772281814177 -0.3633091062002628 0 -0.23241863977348509 -0.37564940920759182 0 -0.21343045759801271 -0.35514775126803882 0 -0.23241863977348509 -0.37564940920759182 0 -0.227772281814177 -0.3633091062002628 0 -0.21343045759801271 -0.35514775126803882 0 -0.23337981300626989 -0.36770179109229401 0 -0.23272239018908689 -0.36274628961641969 0 -0.227772281814177 -0.3633091062002628 0 -0.23683600826330961 -0.36474408136416969 0 -0.23337981300626989 -0.36770179109229401 0 -0.23272239018908689 -0.36274628961641969 0 -0.2358746206296729 -0.35990223993862008 0 -0.23272239018908689 -0.36274628961641969 0 -0.23053989259388899 -0.35882078622566432 0 -0.227772281814177 -0.3633091062002628 0 -0.2239734472958588 -0.35732869904776682 0 -0.23053989259388899 -0.35882078622566432 0 -0.23272239018908689 -0.36274628961641969 0 -0.227772281814177 -0.3633091062002628 0 -0.23053989259388899 -0.35882078622566432 0 -0.2276343157237318 -0.37709001618004862 0 -0.22578344531487499 -0.37713617121996929 0 -0.21507355867412031 -0.37077054852917363 0 -0.22578344531487499 -0.37713617121996929 0 -0.21439476535257179 -0.37229864367902321 0 -0.22297289037900769 -0.3496282031009319 0 -0.22548200333638471 -0.34343065059489591 0 -0.21742061774525259 -0.34594186145980499 0 -0.22297289037900769 -0.3496282031009319 0 -0.22674701573689451 -0.35427532845557608 0 -0.22910709667238471 -0.34897442950905982 0 -0.22297289037900769 -0.3496282031009319 0 -0.22910709667238471 -0.34897442950905982 0 -0.22548200333638471 -0.34343065059489591 0 -0.22297289037900769 -0.3496282031009319 0 -0.2184213986129587 -0.35128373350268782 0 -0.21742061774525259 -0.34594186145980499 0 -0.227772281814177 -0.3633091062002628 0 -0.2239734472958588 -0.35732869904776682 0 -0.21343045759801271 -0.35514775126803882 0 -0.22297289037900769 -0.3496282031009319 0 -0.2210716957295682 -0.35404626735250228 0 -0.2184213986129587 -0.35128373350268782 0 -0.2210716957295682 -0.35404626735250228 0 -0.2239734472958588 -0.35732869904776682 0 -0.21343045759801271 -0.35514775126803882 0 -0.22297289037900769 -0.3496282031009319 0 -0.2210716957295682 -0.35404626735250228 0 -0.22674701573689451 -0.35427532845557608 0 -0.2210716957295682 -0.35404626735250228 0 -0.2239734472958588 -0.35732869904776682 0 -0.22674701573689451 -0.35427532845557608 0 -0.22674701573689451 -0.35427532845557608 0 -0.2317775163829105 -0.35359035006492318 0 -0.22910709667238471 -0.34897442950905982 0 -0.2239734472958588 -0.35732869904776682 0 -0.22674701573689451 -0.35427532845557608 0 -0.23053989259388899 -0.35882078622566432 0 -0.22674701573689451 -0.35427532845557608 0 -0.23053989259388899 -0.35882078622566432 0 -0.2317775163829105 -0.35359035006492318 0 -0.2358746206296729 -0.35990223993862008 0 -0.23053989259388899 -0.35882078622566432 0 -0.23434587355442979 -0.35640888488961381 0 -0.23053989259388899 -0.35882078622566432 0 -0.23434587355442979 -0.35640888488961381 0 -0.2317775163829105 -0.35359035006492318 0 -0.2317775163829105 -0.35359035006492318 0 -0.22910709667238471 -0.34897442950905982 0 -0.23495624410451321 -0.3494312792896348 0 -0.22910709667238471 -0.34897442950905982 0 -0.23228313488003899 -0.34409398703974958 0 -0.22548200333638471 -0.34343065059489591 0 -0.22910709667238471 -0.34897442950905982 0 -0.23228313488003899 -0.34409398703974958 0 -0.23495624410451321 -0.3494312792896348 0 -0.23228313488003899 -0.34409398703974958 0 -0.2381045078700755 -0.3460913205301388 0 -0.23495624410451321 -0.3494312792896348 0 -0.2381045078700755 -0.3460913205301388 0 -0.23495624410451321 -0.3494312792896348 0 -0.23860711320675801 -0.35028773638337929 0 -0.23495624410451321 -0.3494312792896348 0 -0.23860711320675801 -0.35028773638337929 0 -0.2371000209444602 -0.35357998748029013 0 -0.2381045078700755 -0.3460913205301388 0 -0.23860711320675801 -0.35028773638337929 0 -0.24140907670367359 -0.34931687232511238 0 -0.23860711320675801 -0.35028773638337929 0 -0.24140907670367359 -0.34931687232511238 0 -0.24146571641106751 -0.35301922229172028 0 -0.2381045078700755 -0.3460913205301388 0 -0.24140907670367359 -0.34931687232511238 0 -0.24263197771835859 -0.34529796500388787 0 -0.23434587355442979 -0.35640888488961381 0 -0.2371000209444602 -0.35357998748029013 0 -0.23882785937880061 -0.35722244771451878 0 -0.2358746206296729 -0.35990223993862008 0 -0.23434587355442979 -0.35640888488961381 0 -0.23882785937880061 -0.35722244771451878 0 -0.2317775163829105 -0.35359035006492318 0 -0.23495624410451321 -0.3494312792896348 0 -0.2371000209444602 -0.35357998748029013 0 -0.23434587355442979 -0.35640888488961381 0 -0.2317775163829105 -0.35359035006492318 0 -0.2371000209444602 -0.35357998748029013 0 -0.2371000209444602 -0.35357998748029013 0 -0.24146571641106751 -0.35301922229172028 0 -0.23882785937880061 -0.35722244771451878 0 -0.23860711320675801 -0.35028773638337929 0 -0.2371000209444602 -0.35357998748029013 0 -0.24146571641106751 -0.35301922229172028 0 -0.24115210805684439 -0.35979621038137483 0 -0.23882785937880061 -0.35722244771451878 0 -0.24278567696604109 -0.35672530956117271 0 -0.24146571641106751 -0.35301922229172028 0 -0.23882785937880061 -0.35722244771451878 0 -0.24278567696604109 -0.35672530956117271 0 -0.24171788947160461 -0.36501608504200489 0 -0.24278567696604109 -0.35672530956117271 0 -0.24620492361929389 -0.35413326322420408 0 -0.24171788947160461 -0.36501608504200489 0 -0.24770300688035971 -0.35248990327902557 0 -0.24620492361929389 -0.35413326322420408 0 -0.24278567696604109 -0.35672530956117271 0 -0.24372918764348131 -0.35368246471128512 0 -0.24620492361929389 -0.35413326322420408 0 -0.24146571641106751 -0.35301922229172028 0 -0.24278567696604109 -0.35672530956117271 0 -0.24372918764348131 -0.35368246471128512 0 -0.24146571641106751 -0.35301922229172028 0 -0.24372918764348131 -0.35368246471128512 0 -0.2439673667584995 -0.35114625165590008 0 -0.24770300688035971 -0.35248990327902557 0 -0.24620492361929389 -0.35413326322420408 0 -0.2439673667584995 -0.35114625165590008 0 -0.24372918764348131 -0.35368246471128512 0 -0.24620492361929389 -0.35413326322420408 0 -0.2439673667584995 -0.35114625165590008 0 -0.24770300688035971 -0.35248990327902557 0 -0.24620492361929389 -0.35413326322420408 0 -0.24770300688035971 -0.35248990327902557 0 -0.24263197771835859 -0.34529796500388787 0 -0.24527681010467819 -0.33961761805660201 0 -0.24140907670367359 -0.34931687232511238 0 -0.24263197771835859 -0.34529796500388787 0 -0.2439673667584995 -0.35114625165590008 0 -0.24770300688035971 -0.35248990327902557 0 -0.24263197771835859 -0.34529796500388787 0 -0.2439673667584995 -0.35114625165590008 0 -0.24140907670367359 -0.34931687232511238 0 -0.24146571641106751 -0.35301922229172028 0 -0.2439673667584995 -0.35114625165590008 0 -0.25253068005804957 -0.32698450917250949 0 -0.24770300688035971 -0.35248990327902557 0 -0.24527681010467819 -0.33961761805660201 0 -0.25253068005804957 -0.32698450917250949 0 -0.24527681010467819 -0.33961761805660201 0 -0.24175304916753171 -0.33032265664613958 0 -0.24175304916753171 -0.33032265664613958 0 -0.23730274387071629 -0.33818490976330973 0 -0.23210203779693339 -0.32613735535748889 0 -0.23228313488003899 -0.34409398703974958 0 -0.2381045078700755 -0.3460913205301388 0 -0.23730274387071629 -0.33818490976330973 0 -0.24527681010467819 -0.33961761805660201 0 -0.24175304916753171 -0.33032265664613958 0 -0.23730274387071629 -0.33818490976330973 0 -0.2381045078700755 -0.3460913205301388 0 -0.24263197771835859 -0.34529796500388787 0 -0.23730274387071629 -0.33818490976330973 0 -0.24263197771835859 -0.34529796500388787 0 -0.24527681010467819 -0.33961761805660201 0 -0.23730274387071629 -0.33818490976330973 0 -0.24260914844155909 -0.31500426102389079 0 -0.23210203779693339 -0.32613735535748889 0 -0.2313450413769621 -0.31032803194691999 0 -0.25253068005804957 -0.32698450917250949 0 -0.24175304916753171 -0.33032265664613958 0 -0.24260914844155909 -0.31500426102389079 0 -0.24175304916753171 -0.33032265664613958 0 -0.24260914844155909 -0.31500426102389079 0 -0.23210203779693339 -0.32613735535748889 0 -0.23210203779693339 -0.32613735535748889 0 -0.21930613455966161 -0.32115260471126977 0 -0.2313450413769621 -0.31032803194691999 0 -0.21930613455966161 -0.32115260471126977 0 -0.22366310446565441 -0.33041659886935221 0 -0.2161596682716263 -0.33046401019746902 0 -0.23210203779693339 -0.32613735535748889 0 -0.21930613455966161 -0.32115260471126977 0 -0.22366310446565441 -0.33041659886935221 0 -0.23228313488003899 -0.34409398703974958 0 -0.23730274387071629 -0.33818490976330973 0 -0.228615544744525 -0.33661177917908541 0 -0.23228313488003899 -0.34409398703974958 0 -0.228615544744525 -0.33661177917908541 0 -0.22548200333638471 -0.34343065059489591 0 -0.23210203779693339 -0.32613735535748889 0 -0.228615544744525 -0.33661177917908541 0 -0.22366310446565441 -0.33041659886935221 0 -0.23730274387071629 -0.33818490976330973 0 -0.23210203779693339 -0.32613735535748889 0 -0.228615544744525 -0.33661177917908541 0 -0.228615544744525 -0.33661177917908541 0 -0.22366310446565441 -0.33041659886935221 0 -0.2205124112192034 -0.33772308733591228 0 -0.22366310446565441 -0.33041659886935221 0 -0.2205124112192034 -0.33772308733591228 0 -0.2161596682716263 -0.33046401019746902 0 -0.2205124112192034 -0.33772308733591228 0 -0.22548200333638471 -0.34343065059489591 0 -0.21742061774525259 -0.34594186145980499 0 -0.228615544744525 -0.33661177917908541 0 -0.2205124112192034 -0.33772308733591228 0 -0.22548200333638471 -0.34343065059489591 0 -0.2126089943663183 -0.3384062272154949 0 -0.20478744518640779 -0.33624007921338861 0 -0.21343045759801271 -0.35514775126803882 0 -0.20478744518640779 -0.33624007921338861 0 -0.1944422754225402 -0.33464609332848583 0 -0.21343045759801271 -0.35514775126803882 0 -0.2205124112192034 -0.33772308733591228 0 -0.2126089943663183 -0.3384062272154949 0 -0.21742061774525259 -0.34594186145980499 0 -0.2205124112192034 -0.33772308733591228 0 -0.2126089943663183 -0.3384062272154949 0 -0.2161596682716263 -0.33046401019746902 0 -0.2126089943663183 -0.3384062272154949 0 -0.2161596682716263 -0.33046401019746902 0 -0.20741555818299739 -0.3270012679197567 0 -0.2126089943663183 -0.3384062272154949 0 -0.20478744518640779 -0.33624007921338861 0 -0.20741555818299739 -0.3270012679197567 0 -0.20478744518640779 -0.33624007921338861 0 -0.20741555818299739 -0.3270012679197567 0 -0.19881043161653489 -0.32603518372119222 0 -0.21930613455966161 -0.32115260471126977 0 -0.20741555818299739 -0.3270012679197567 0 -0.2032821994548526 -0.31292647350493769 0 -0.21930613455966161 -0.32115260471126977 0 -0.2161596682716263 -0.33046401019746902 0 -0.20741555818299739 -0.3270012679197567 0 -0.20741555818299739 -0.3270012679197567 0 -0.2032821994548526 -0.31292647350493769 0 -0.19881043161653489 -0.32603518372119222 0 -0.2032821994548526 -0.31292647350493769 0 -0.19881043161653489 -0.32603518372119222 0 -0.18966566234460569 -0.31943425941144449 0 -0.19881043161653489 -0.32603518372119222 0 -0.18966566234460569 -0.31943425941144449 0 -0.1944422754225402 -0.33464609332848583 0 -0.2032821994548526 -0.31292647350493769 0 -0.18966566234460569 -0.31943425941144449 0 -0.18900586385319779 -0.30525799030174472 0 -0.20478744518640779 -0.33624007921338861 0 -0.19881043161653489 -0.32603518372119222 0 -0.1944422754225402 -0.33464609332848583 0 -0.19054335992717439 -0.34298394246716468 0 -0.1944422754225402 -0.33464609332848583 0 -0.21343045759801271 -0.35514775126803882 0 -0.19054335992717439 -0.34298394246716468 0 -0.19570940149262001 -0.36436173065799637 0 -0.17702403763266819 -0.35642481763696948 0 -0.19054335992717439 -0.34298394246716468 0 -0.2090888378254537 -0.36003697932360601 0 -0.19054335992717439 -0.34298394246716468 0 -0.19570940149262001 -0.36436173065799637 0 -0.2090888378254537 -0.36003697932360601 0 -0.18458746861158801 -0.37816347272102208 0 -0.21209425502262641 -0.37747753770429288 0 -0.19570940149262001 -0.36436173065799637 0 -0.19570940149262001 -0.36436173065799637 0 -0.21439476535257179 -0.37229864367902321 0 -0.2276343157237318 -0.37709001618004862 0 -0.2090888378254537 -0.36003697932360601 0 -0.21507355867412031 -0.37077054852917363 0 -0.2276343157237318 -0.37709001618004862 0 -0.2090888378254537 -0.36003697932360601 0 -0.21209425502262641 -0.37747753770429288 0 -0.19570940149262001 -0.36436173065799637 0 -0.21439476535257179 -0.37229864367902321 0 -0.19570940149262001 -0.36436173065799637 0 -0.2090888378254537 -0.36003697932360601 0 -0.21439476535257179 -0.37229864367902321 0 -0.2276343157237318 -0.37709001618004862 0 -0.2090888378254537 -0.36003697932360601 0 -0.21343045759801271 -0.35514775126803882 0 -0.2090888378254537 -0.36003697932360601 0 -0.21439476535257179 -0.37229864367902321 0 -0.21507355867412031 -0.37077054852917363 0 -0.22578344531487499 -0.37713617121996929 0 -0.21439476535257179 -0.37229864367902321 0 -0.21507355867412031 -0.37077054852917363 0 -0.21209425502262641 -0.37747753770429288 0 -0.21439476535257179 -0.37229864367902321 0 -0.21439476535257179 -0.37229864367902321 0 -0.21507355867412031 -0.37077054852917363 0 -0.1944422754225402 -0.33464609332848583 0 -0.21343045759801271 -0.35514775126803882 0 -0.19054335992717439 -0.34298394246716468 0 -0.2090888378254537 -0.36003697932360601 0 -0.21343045759801271 -0.35514775126803882 0 -0.2126089943663183 -0.3384062272154949 0 -0.21343045759801271 -0.35514775126803882 0 -0.21742061774525259 -0.34594186145980499 0 -0.2210716957295682 -0.35404626735250228 0 -0.21343045759801271 -0.35514775126803882 0 -0.2184213986129587 -0.35128373350268782 0 -0.21343045759801271 -0.35514775126803882 0 -0.2184213986129587 -0.35128373350268782 0 -0.21742061774525259 -0.34594186145980499 0 -0.22881346986740889 -0.25969517203905867 0 -0.21502492674253099 -0.25133597507959871 0 -0.21978983545209549 -0.24214005824423079 0 -0.22881346986740889 -0.25969517203905867 0 -0.24827797024798609 -0.25545493364081862 0 -0.24119414992733251 -0.27395725060427578 0 -0.22881346986740889 -0.25969517203905867 0 -0.24827797024798609 -0.25545493364081862 0 -0.23149938564111819 -0.23550181565038569 0 -0.22881346986740889 -0.25969517203905867 0 -0.24119414992733251 -0.27395725060427578 0 -0.2261275540936997 -0.2838885284277316 0 -0.22881346986740889 -0.25969517203905867 0 -0.2261275540936997 -0.2838885284277316 0 -0.22881346986740889 -0.25969517203905867 0 -0.2261275540936997 -0.2838885284277316 0 -0.20440207564901741 -0.26346672649732611 0 -0.2261275540936997 -0.2838885284277316 0 -0.240565729014138 -0.29477389795429298 0 -0.21838215358086191 -0.29998253990995061 0 -0.26218602641342958 -0.27597372095947742 0 -0.24119414992733251 -0.27395725060427578 0 -0.240565729014138 -0.29477389795429298 0 -0.24119414992733251 -0.27395725060427578 0 -0.2261275540936997 -0.2838885284277316 0 -0.240565729014138 -0.29477389795429298 0 -0.25735835323573958 -0.30147911506599351 0 -0.24260914844155909 -0.31500426102389079 0 -0.240565729014138 -0.29477389795429298 0 -0.24260914844155909 -0.31500426102389079 0 -0.240565729014138 -0.29477389795429298 0 -0.2313450413769621 -0.31032803194691999 0 -0.240565729014138 -0.29477389795429298 0 -0.2313450413769621 -0.31032803194691999 0 -0.21838215358086191 -0.29998253990995061 0 -0.21930613455966161 -0.32115260471126977 0 -0.2313450413769621 -0.31032803194691999 0 -0.21838215358086191 -0.29998253990995061 0 -0.21930613455966161 -0.32115260471126977 0 -0.2032821994548526 -0.31292647350493769 0 -0.21838215358086191 -0.29998253990995061 0 -0.2032821994548526 -0.31292647350493769 0 -0.21838215358086191 -0.29998253990995061 0 -0.203842137551935 -0.28819660000113179 0 -0.2032821994548526 -0.31292647350493769 0 -0.203842137551935 -0.28819660000113179 0 -0.2032821994548526 -0.31292647350493769 0 -0.18900586385319779 -0.30525799030174472 0 -0.203842137551935 -0.28819660000113179 0 -0.18966566234460569 -0.31943425941144449 0 -0.18900586385319779 -0.30525799030174472 0 -0.1839137744171217 -0.31180351547184021 0 -0.203842137551935 -0.28819660000113179 0 -0.18586669574590889 -0.27463154422777819 0 -0.1874113926770706 -0.28953999437077399 0 -0.18900586385319779 -0.30525799030174472 0 -0.203842137551935 -0.28819660000113179 0 -0.1874113926770706 -0.28953999437077399 0 -0.2261275540936997 -0.2838885284277316 0 -0.21838215358086191 -0.29998253990995061 0 -0.203842137551935 -0.28819660000113179 0 -0.203842137551935 -0.28819660000113179 0 -0.20440207564901741 -0.26346672649732611 0 -0.2261275540936997 -0.2838885284277316 0 -0.203842137551935 -0.28819660000113179 0 -0.20440207564901741 -0.26346672649732611 0 -0.203842137551935 -0.28819660000113179 0 -0.20440207564901741 -0.26346672649732611 0 -0.18586669574590889 -0.27463154422777819 0 -0.20440207564901741 -0.26346672649732611 0 -0.18397289317318519 -0.25976340762325162 0 -0.18586669574590889 -0.27463154422777819 0 -0.1974750033546612 -0.25093860666183337 0 -0.20440207564901741 -0.26346672649732611 0 -0.18397289317318519 -0.25976340762325162 0 -0.1974750033546612 -0.25093860666183337 0 -0.20440207564901741 -0.26346672649732611 0 -0.20496201374609979 -0.2387368529935201 0 -0.22881346986740889 -0.25969517203905867 0 -0.20440207564901741 -0.26346672649732611 0 -0.21502492674253099 -0.25133597507959871 0 -0.20440207564901741 -0.26346672649732611 0 -0.20496201374609979 -0.2387368529935201 0 -0.20440207564901741 -0.26346672649732611 0 -0.21502492674253099 -0.25133597507959871 0 -0.20496201374609979 -0.2387368529935201 0 -0.17114208450176149 -0.25392426552431951 0 -0.16305952114753311 -0.26958862485581908 0 -0.1550620366314451 -0.25790203422340391 0 -0.17114208450176149 -0.25392426552431951 0 -0.1550620366314451 -0.25790203422340391 0 -0.15550554633892641 -0.24312817636800099 0 -0.17114208450176149 -0.25392426552431951 0 -0.18397289317318519 -0.25976340762325162 0 -0.1731983638381869 -0.28264162169002027 0 -0.17114208450176149 -0.25392426552431951 0 -0.18397289317318519 -0.25976340762325162 0 -0.18025512079503139 -0.24152858981872261 0 -0.18397289317318519 -0.25976340762325162 0 -0.1731983638381869 -0.28264162169002027 0 -0.17114208450176149 -0.25392426552431951 0 -0.1731983638381869 -0.28264162169002027 0 -0.18397289317318519 -0.25976340762325162 0 -0.18586669574590889 -0.27463154422777819 0 -0.1731983638381869 -0.28264162169002027 0 -0.18586669574590889 -0.27463154422777819 0 -0.1731983638381869 -0.28264162169002027 0 -0.1817625380498403 -0.28299796272105088 0 -0.16305952114753311 -0.26958862485581908 0 -0.15268982874870929 -0.27561422158948512 0 -0.1550620366314451 -0.25790203422340391 0 -0.17114208450176149 -0.25392426552431951 0 -0.16305952114753311 -0.26958862485581908 0 -0.1731983638381869 -0.28264162169002027 0 -0.16305952114753311 -0.26958862485581908 0 -0.16274070082087791 -0.28035557905152958 0 -0.1731983638381869 -0.28264162169002027 0 -0.16305952114753311 -0.26958862485581908 0 -0.16274070082087791 -0.28035557905152958 0 -0.15268982874870929 -0.27561422158948512 0 -0.16274070082087791 -0.28035557905152958 0 -0.15719517675439629 -0.28907403202496001 0 -0.16940469435591279 -0.29069695105202881 0 -0.16274070082087791 -0.28035557905152958 0 -0.15719517675439629 -0.28907403202496001 0 -0.15268982874870929 -0.27561422158948512 0 -0.15719517675439629 -0.28907403202496001 0 -0.16940469435591279 -0.29069695105202881 0 -0.16282313153540229 -0.29912093701690368 0 -0.15719517675439629 -0.28907403202496001 0 -0.16282313153540229 -0.29912093701690368 0 -0.15226528688094759 -0.30019532124210119 0 -0.16940469435591279 -0.29069695105202881 0 -0.17432622854262819 -0.29839302853947608 0 -0.16282313153540229 -0.29912093701690368 0 -0.16274070082087791 -0.28035557905152958 0 -0.16940469435591279 -0.29069695105202881 0 -0.1731983638381869 -0.28264162169002027 0 -0.16940469435591279 -0.29069695105202881 0 -0.1731983638381869 -0.28264162169002027 0 -0.1731983638381869 -0.28264162169002027 0 -0.17432622854262819 -0.29839302853947608 0 -0.16940469435591279 -0.29069695105202881 0 -0.1731983638381869 -0.28264162169002027 0 -0.17432622854262819 -0.29839302853947608 0 -0.1731983638381869 -0.28264162169002027 0 -0.1800089901757661 -0.29010712932268418 0 -0.17432622854262819 -0.29839302853947608 0 -0.1731983638381869 -0.28264162169002027 0 -0.1817625380498403 -0.28299796272105088 0 -0.1800089901757661 -0.29010712932268418 0 -0.18586669574590889 -0.27463154422777819 0 -0.1817625380498403 -0.28299796272105088 0 -0.1874113926770706 -0.28953999437077399 0 -0.1817625380498403 -0.28299796272105088 0 -0.1874113926770706 -0.28953999437077399 0 -0.1800089901757661 -0.29010712932268418 0 -0.1874113926770706 -0.28953999437077399 0 -0.1800089901757661 -0.29010712932268418 0 -0.18239658789785909 -0.29781533888539402 0 -0.1800089901757661 -0.29010712932268418 0 -0.17432622854262819 -0.29839302853947608 0 -0.18239658789785909 -0.29781533888539402 0 -0.17432622854262819 -0.29839302853947608 0 -0.1812304642406328 -0.30577855189229058 0 -0.17545409324706859 -0.31414443538893189 0 -0.17432622854262819 -0.29839302853947608 0 -0.17545409324706859 -0.31414443538893189 0 -0.17432622854262819 -0.29839302853947608 0 -0.18239658789785909 -0.29781533888539402 0 -0.1812304642406328 -0.30577855189229058 0 -0.18900586385319779 -0.30525799030174472 0 -0.1874113926770706 -0.28953999437077399 0 -0.18239658789785909 -0.29781533888539402 0 -0.17432622854262819 -0.29839302853947608 0 -0.17008462227792079 -0.30834698431602242 0 -0.17545409324706859 -0.31414443538893189 0 -0.18900586385319779 -0.30525799030174472 0 -0.18239658789785909 -0.29781533888539402 0 -0.1812304642406328 -0.30577855189229058 0 -0.1839137744171217 -0.31180351547184021 0 -0.1812304642406328 -0.30577855189229058 0 -0.17545409324706859 -0.31414443538893189 0 -0.18900586385319779 -0.30525799030174472 0 -0.1839137744171217 -0.31180351547184021 0 -0.1812304642406328 -0.30577855189229058 0 -0.17008462227792079 -0.30834698431602242 0 -0.17545409324706859 -0.31414443538893189 0 -0.16579900780491 -0.31177731367554401 0 -0.17008462227792079 -0.30834698431602242 0 -0.170536006536116 -0.31517607243335788 0 -0.16579900780491 -0.31177731367554401 0 -0.16447923884528851 -0.3058452276498555 0 -0.17008462227792079 -0.30834698431602242 0 -0.17432622854262819 -0.29839302853947608 0 -0.16447923884528851 -0.3058452276498555 0 -0.17008462227792079 -0.30834698431602242 0 -0.17432622854262819 -0.29839302853947608 0 -0.16447923884528851 -0.3058452276498555 0 -0.16282313153540229 -0.29912093701690368 0 -0.16282313153540229 -0.29912093701690368 0 -0.15887066060654309 -0.309999569950898 0 -0.15226528688094759 -0.30019532124210119 0 -0.16447923884528851 -0.3058452276498555 0 -0.16282313153540229 -0.29912093701690368 0 -0.15887066060654309 -0.309999569950898 0 -0.16579900780491 -0.31177731367554401 0 -0.16447923884528851 -0.3058452276498555 0 -0.15887066060654309 -0.309999569950898 0 -0.15093800621208761 -0.31095751086636281 0 -0.15226528688094759 -0.30019532124210119 0 -0.14299681071281681 -0.30688321670340007 0 -0.15887066060654309 -0.309999569950898 0 -0.15093800621208761 -0.31095751086636281 0 -0.15226528688094759 -0.30019532124210119 0 -0.15226528688094759 -0.30019532124210119 0 -0.14308833712511521 -0.29872559668309939 0 -0.14299681071281681 -0.30688321670340007 0 -0.15093800621208761 -0.31095751086636281 0 -0.14299681071281681 -0.30688321670340007 0 -0.1452988094482818 -0.31866943189739177 0 -0.14299681071281681 -0.30688321670340007 0 -0.13357045237283349 -0.29913522616234661 0 -0.13271673588873309 -0.31271054089298012 0 -0.13357045237283349 -0.29913522616234661 0 -0.13271673588873309 -0.31271054089298012 0 -0.1190213585810594 -0.30565280333975048 0 -0.14308833712511521 -0.29872559668309939 0 -0.14299681071281681 -0.30688321670340007 0 -0.13357045237283349 -0.29913522616234661 0 -0.14308833712511521 -0.29872559668309939 0 -0.13357045237283349 -0.29913522616234661 0 -0.14352079853386271 -0.28868862262454992 0 -0.13357045237283349 -0.29913522616234661 0 -0.12977354104693661 -0.28554722818437678 0 -0.14352079853386271 -0.28868862262454992 0 -0.12977354104693661 -0.28554722818437678 0 -0.14352079853386271 -0.28868862262454992 0 -0.1378963322189545 -0.27032745618766701 0 -0.13357045237283349 -0.29913522616234661 0 -0.12977354104693661 -0.28554722818437678 0 -0.1222774803296154 -0.29483958572579161 0 -0.15226528688094759 -0.30019532124210119 0 -0.14308833712511521 -0.29872559668309939 0 -0.14352079853386271 -0.28868862262454992 0 -0.15719517675439629 -0.28907403202496001 0 -0.15226528688094759 -0.30019532124210119 0 -0.14352079853386271 -0.28868862262454992 0 -0.15719517675439629 -0.28907403202496001 0 -0.14352079853386271 -0.28868862262454992 0 -0.15268982874870929 -0.27561422158948512 0 -0.14352079853386271 -0.28868862262454992 0 -0.15268982874870929 -0.27561422158948512 0 -0.1378963322189545 -0.27032745618766701 0 -0.15268982874870929 -0.27561422158948512 0 -0.1378963322189545 -0.27032745618766701 0 -0.1550620366314451 -0.25790203422340391 0 -0.12977354104693661 -0.28554722818437678 0 -0.1378963322189545 -0.27032745618766701 0 -0.1191187129455763 -0.27606003348986202 0 -0.1378963322189545 -0.27032745618766701 0 -0.12275815006185969 -0.25761869203139598 0 -0.1191187129455763 -0.27606003348986202 0 -0.14093101377403339 -0.25131595786198829 0 -0.12275815006185969 -0.25761869203139598 0 -0.12025598840083281 -0.2415988975586526 0 -0.1378963322189545 -0.27032745618766701 0 -0.14093101377403339 -0.25131595786198829 0 -0.12275815006185969 -0.25761869203139598 0 -0.1378963322189545 -0.27032745618766701 0 -0.14093101377403339 -0.25131595786198829 0 -0.1550620366314451 -0.25790203422340391 0 -0.14093101377403339 -0.25131595786198829 0 -0.1550620366314451 -0.25790203422340391 0 -0.15550554633892641 -0.24312817636800099 0 -0.15833867377271629 -0.34848790461594281 0 -0.17702403763266819 -0.35642481763696948 0 -0.1710694782940726 -0.34204668080416128 0 -0.15833867377271629 -0.34848790461594281 0 -0.16390806708365269 -0.36133957184182941 0 -0.17702403763266819 -0.35642481763696948 0 -0.15833867377271629 -0.34848790461594281 0 -0.17702403763266819 -0.35642481763696948 0 -0.15833867377271629 -0.34848790461594281 0 -0.16390806708365269 -0.36133957184182941 0 -0.1499848381947384 -0.36286508475351792 0 -0.15708068220054949 -0.37884940773775111 0 -0.16390806708365269 -0.36133957184182941 0 -0.17566193140421629 -0.36782780011911342 0 -0.15708068220054949 -0.37884940773775111 0 -0.16390806708365269 -0.36133957184182941 0 -0.1499848381947384 -0.36286508475351792 0 -0.18458746861158801 -0.37816347272102208 0 -0.19570940149262001 -0.36436173065799637 0 -0.17566193140421629 -0.36782780011911342 0 -0.19570940149262001 -0.36436173065799637 0 -0.17566193140421629 -0.36782780011911342 0 -0.17702403763266819 -0.35642481763696948 0 -0.16390806708365269 -0.36133957184182941 0 -0.17566193140421629 -0.36782780011911342 0 -0.17702403763266819 -0.35642481763696948 0 -0.19570940149262001 -0.36436173065799637 0 -0.17702403763266819 -0.35642481763696948 0 -0.15708068220054949 -0.37884940773775111 0 -0.18458746861158801 -0.37816347272102208 0 -0.17566193140421629 -0.36782780011911342 0 -0.19054335992717439 -0.34298394246716468 0 -0.17702403763266819 -0.35642481763696948 0 -0.1710694782940726 -0.34204668080416128 0 -0.19054335992717439 -0.34298394246716468 0 -0.17199788202889391 -0.32593090561072491 0 -0.17542756238416851 -0.32346254232223909 0 -0.19054335992717439 -0.34298394246716468 0 -0.1944422754225402 -0.33464609332848583 0 -0.17542756238416851 -0.32346254232223909 0 -0.19054335992717439 -0.34298394246716468 0 -0.17199788202889391 -0.32593090561072491 0 -0.1710694782940726 -0.34204668080416128 0 -0.19054335992717439 -0.34298394246716468 0 -0.17199788202889391 -0.32593090561072491 0 -0.1944422754225402 -0.33464609332848583 0 -0.17542756238416851 -0.32346254232223909 0 -0.1764092620229871 -0.32114615150580972 0 -0.1944422754225402 -0.33464609332848583 0 -0.17565697746169001 -0.31697785308099502 0 -0.17545409324706859 -0.31414443538893189 0 -0.18966566234460569 -0.31943425941144449 0 -0.1944422754225402 -0.33464609332848583 0 -0.17545409324706859 -0.31414443538893189 0 -0.1944422754225402 -0.33464609332848583 0 -0.1764092620229871 -0.32114615150580972 0 -0.17565697746169001 -0.31697785308099502 0 -0.1944422754225402 -0.33464609332848583 0 -0.17545409324706859 -0.31414443538893189 0 -0.18966566234460569 -0.31943425941144449 0 -0.1839137744171217 -0.31180351547184021 0 -0.17545409324706859 -0.31414443538893189 0 -0.17199788202889391 -0.32593090561072491 0 -0.17542756238416851 -0.32346254232223909 0 -0.17199788202889391 -0.32593090561072491 0 -0.17542756238416851 -0.32346254232223909 0 -0.17210607209679041 -0.32009863203187822 0 -0.17542756238416851 -0.32346254232223909 0 -0.1764092620229871 -0.32114615150580972 0 -0.17210607209679041 -0.32009863203187822 0 -0.17210607209679041 -0.32009863203187822 0 -0.17565697746169001 -0.31697785308099502 0 -0.170536006536116 -0.31517607243335788 0 -0.1764092620229871 -0.32114615150580972 0 -0.17210607209679041 -0.32009863203187822 0 -0.17565697746169001 -0.31697785308099502 0 -0.17565697746169001 -0.31697785308099502 0 -0.17545409324706859 -0.31414443538893189 0 -0.17008462227792079 -0.30834698431602242 0 -0.17545409324706859 -0.31414443538893189 0 -0.170536006536116 -0.31517607243335788 0 -0.17565697746169001 -0.31697785308099502 0 -0.17545409324706859 -0.31414443538893189 0 -0.170536006536116 -0.31517607243335788 0 -0.16579900780491 -0.31177731367554401 0 -0.170536006536116 -0.31517607243335788 0 -0.16502451075868119 -0.31951871402758619 0 -0.17210607209679041 -0.32009863203187822 0 -0.170536006536116 -0.31517607243335788 0 -0.16502451075868119 -0.31951871402758619 0 -0.17199788202889391 -0.32593090561072491 0 -0.16502451075868119 -0.31951871402758619 0 -0.16025358014953531 -0.32549820877868302 0 -0.17199788202889391 -0.32593090561072491 0 -0.16502451075868119 -0.31951871402758619 0 -0.17199788202889391 -0.32593090561072491 0 -0.17210607209679041 -0.32009863203187822 0 -0.16502451075868119 -0.31951871402758619 0 -0.16502451075868119 -0.31951871402758619 0 -0.16025358014953531 -0.32549820877868302 0 -0.1552584634118484 -0.31904001453802261 0 -0.16579900780491 -0.31177731367554401 0 -0.15887066060654309 -0.309999569950898 0 -0.16502451075868119 -0.31951871402758619 0 -0.15887066060654309 -0.309999569950898 0 -0.16502451075868119 -0.31951871402758619 0 -0.1552584634118484 -0.31904001453802261 0 -0.17199788202889391 -0.32593090561072491 0 -0.1710694782940726 -0.34204668080416128 0 -0.15744343810890879 -0.33640583369000571 0 -0.17199788202889391 -0.32593090561072491 0 -0.15744343810890879 -0.33640583369000571 0 -0.17199788202889391 -0.32593090561072491 0 -0.16025358014953531 -0.32549820877868302 0 -0.15744343810890879 -0.33640583369000571 0 -0.16025358014953531 -0.32549820877868302 0 -0.15744343810890879 -0.33640583369000571 0 -0.15234858708927179 -0.32562467488185493 0 -0.15833867377271629 -0.34848790461594281 0 -0.1710694782940726 -0.34204668080416128 0 -0.15744343810890879 -0.33640583369000571 0 -0.15744343810890879 -0.33640583369000571 0 -0.14288899418892359 -0.34688076176928639 0 -0.15744343810890879 -0.33640583369000571 0 -0.1434886443277848 -0.32850988550517141 0 -0.13861217446359561 -0.3372466621781775 0 -0.15744343810890879 -0.33640583369000571 0 -0.13861217446359561 -0.3372466621781775 0 -0.14288899418892359 -0.34688076176928639 0 -0.15744343810890879 -0.33640583369000571 0 -0.1434886443277848 -0.32850988550517141 0 -0.15234858708927179 -0.32562467488185493 0 -0.13861217446359561 -0.3372466621781775 0 -0.14288899418892359 -0.34688076176928639 0 -0.15887066060654309 -0.309999569950898 0 -0.15093800621208761 -0.31095751086636281 0 -0.1552584634118484 -0.31904001453802261 0 -0.15093800621208761 -0.31095751086636281 0 -0.1552584634118484 -0.31904001453802261 0 -0.1452988094482818 -0.31866943189739177 0 -0.16025358014953531 -0.32549820877868302 0 -0.1552584634118484 -0.31904001453802261 0 -0.15234858708927179 -0.32562467488185493 0 -0.1552584634118484 -0.31904001453802261 0 -0.15234858708927179 -0.32562467488185493 0 -0.1452988094482818 -0.31866943189739177 0 -0.1434886443277848 -0.32850988550517141 0 -0.15234858708927179 -0.32562467488185493 0 -0.1452988094482818 -0.31866943189739177 0 -0.1434886443277848 -0.32850988550517141 0 -0.1452988094482818 -0.31866943189739177 0 -0.13407435054536909 -0.3251213316028857 0 -0.1452988094482818 -0.31866943189739177 0 -0.13407435054536909 -0.3251213316028857 0 -0.13271673588873309 -0.31271054089298012 0 -0.14299681071281681 -0.30688321670340007 0 -0.1452988094482818 -0.31866943189739177 0 -0.13271673588873309 -0.31271054089298012 0 -0.13407435054536909 -0.3251213316028857 0 -0.12264219038279819 -0.33503481982302319 0 -0.1207477769855493 -0.31991717986543089 0 -0.13407435054536909 -0.3251213316028857 0 -0.13271673588873309 -0.31271054089298012 0 -0.1207477769855493 -0.31991717986543089 0 -0.13407435054536909 -0.3251213316028857 0 -0.13861217446359561 -0.3372466621781775 0 -0.12264219038279819 -0.33503481982302319 0 -0.13861217446359561 -0.3372466621781775 0 -0.1305054195463452 -0.34463938936098149 0 -0.12264219038279819 -0.33503481982302319 0 -0.13861217446359561 -0.3372466621781775 0 -0.1305054195463452 -0.34463938936098149 0 -0.14288899418892359 -0.34688076176928639 0 -0.1434886443277848 -0.32850988550517141 0 -0.13407435054536909 -0.3251213316028857 0 -0.13861217446359561 -0.3372466621781775 0 -0.1305054195463452 -0.34463938936098149 0 -0.12805458844456849 -0.35755718019689892 0 -0.1207314787024802 -0.34761820280422517 0 -0.12805458844456849 -0.35755718019689892 0 -0.14288899418892359 -0.34688076176928639 0 -0.13671818308892261 -0.36596690695307132 0 -0.12805458844456849 -0.35755718019689892 0 -0.14288899418892359 -0.34688076176928639 0 -0.1305054195463452 -0.34463938936098149 0 -0.12805458844456849 -0.35755718019689892 0 -0.14288899418892359 -0.34688076176928639 0 -0.14288899418892359 -0.34688076176928639 0 -0.1499848381947384 -0.36286508475351792 0 -0.14288899418892359 -0.34688076176928639 0 -0.1499848381947384 -0.36286508475351792 0 -0.13671818308892261 -0.36596690695307132 0 -0.15833867377271629 -0.34848790461594281 0 -0.14288899418892359 -0.34688076176928639 0 -0.1499848381947384 -0.36286508475351792 0 -0.15833867377271629 -0.34848790461594281 0 -0.15744343810890879 -0.33640583369000571 0 -0.14288899418892359 -0.34688076176928639 0 -0.15708068220054949 -0.37884940773775111 0 -0.1499848381947384 -0.36286508475351792 0 -0.14521968082413839 -0.37021657594269219 0 -0.15708068220054949 -0.37884940773775111 0 -0.1499848381947384 -0.36286508475351792 0 -0.1499848381947384 -0.36286508475351792 0 -0.14521968082413839 -0.37021657594269219 0 -0.13671818308892261 -0.36596690695307132 0 -0.14011060610960371 -0.37702294557959681 0 -0.14521968082413839 -0.37021657594269219 0 -0.13671818308892261 -0.36596690695307132 0 -0.13781369823175171 -0.37932986731501922 0 -0.13671818308892261 -0.36596690695307132 0 -0.1132201827002137 -0.36823359862451199 0 -0.13781369823175171 -0.37932986731501922 0 -0.1132201827002137 -0.36823359862451199 0 -0.12805458844456849 -0.35755718019689892 0 -0.13671818308892261 -0.36596690695307132 0 -0.1132201827002137 -0.36823359862451199 0 -0.14011060610960371 -0.37702294557959681 0 -0.13781369823175171 -0.37932986731501922 0 -0.13671818308892261 -0.36596690695307132 0 -0.12805458844456849 -0.35755718019689892 0 -0.1132201827002137 -0.36823359862451199 0 -0.12805458844456849 -0.35755718019689892 0 -0.1132201827002137 -0.36823359862451199 0 -0.114162176598399 -0.35661463327846632 0 -0.1132201827002137 -0.36823359862451199 0 -0.109036414386674 -0.366345937737385 0 -0.114162176598399 -0.35661463327846632 0 -0.109036414386674 -0.366345937737385 0 -0.1049776548386754 -0.35721049107538549 0 -0.114162176598399 -0.35661463327846632 0 -0.1132201827002137 -0.36823359862451199 0 -0.109036414386674 -0.366345937737385 0 -0.1132201827002137 -0.36823359862451199 0 -0.096366313343482321 -0.38036343816629647 0 -0.1132201827002137 -0.36823359862451199 0 -0.109036414386674 -0.366345937737385 0 -0.096366313343482321 -0.38036343816629647 0 -0.109036414386674 -0.366345937737385 0 -0.095738970808133178 -0.36601907424173852 0 -0.1049776548386754 -0.35721049107538549 0 -0.109036414386674 -0.366345937737385 0 -0.095738970808133178 -0.36601907424173852 0 -0.096366313343482321 -0.38036343816629647 0 -0.095533593003616024 -0.35359166308290302 0 -0.1082930185402903 -0.34424499136175579 0 -0.086703903286726197 -0.33776980809553209 0 -0.095738970808133178 -0.36601907424173852 0 -0.095533593003616024 -0.35359166308290302 0 -0.1049776548386754 -0.35721049107538549 0 -0.095533593003616024 -0.35359166308290302 0 -0.1049776548386754 -0.35721049107538549 0 -0.1082930185402903 -0.34424499136175579 0 -0.1049776548386754 -0.35721049107538549 0 -0.1082930185402903 -0.34424499136175579 0 -0.114162176598399 -0.35661463327846632 0 -0.1082930185402903 -0.34424499136175579 0 -0.114162176598399 -0.35661463327846632 0 -0.1207314787024802 -0.34761820280422517 0 -0.12805458844456849 -0.35755718019689892 0 -0.114162176598399 -0.35661463327846632 0 -0.1207314787024802 -0.34761820280422517 0 -0.1305054195463452 -0.34463938936098149 0 -0.1207314787024802 -0.34761820280422517 0 -0.12264219038279819 -0.33503481982302319 0 -0.1082930185402903 -0.34424499136175579 0 -0.1207314787024802 -0.34761820280422517 0 -0.12264219038279819 -0.33503481982302319 0 -0.1082930185402903 -0.34424499136175579 0 -0.12264219038279819 -0.33503481982302319 0 -0.10596301152835071 -0.32681161311008378 0 -0.1207477769855493 -0.31991717986543089 0 -0.10596301152835071 -0.32681161311008378 0 -0.1068182228978866 -0.31027097921747321 0 -0.12264219038279819 -0.33503481982302319 0 -0.1207477769855493 -0.31991717986543089 0 -0.10596301152835071 -0.32681161311008378 0 -0.13271673588873309 -0.31271054089298012 0 -0.1207477769855493 -0.31991717986543089 0 -0.1190213585810594 -0.30565280333975048 0 -0.10596301152835071 -0.32681161311008378 0 -0.092765630745887853 -0.31371234999831138 0 -0.1068182228978866 -0.31027097921747321 0 -0.10596301152835071 -0.32681161311008378 0 -0.086703903286726197 -0.33776980809553209 0 -0.092765630745887853 -0.31371234999831138 0 -0.1082930185402903 -0.34424499136175579 0 -0.10596301152835071 -0.32681161311008378 0 -0.086703903286726197 -0.33776980809553209 0 -0.086703903286726197 -0.33776980809553209 0 -0.081662940613641544 -0.32141558927478547 0 -0.069255093254359121 -0.33097511337982499 0 -0.081662940613641544 -0.32141558927478547 0 -0.092765630745887853 -0.31371234999831138 0 -0.077927135167593004 -0.30320508562547349 0 -0.086703903286726197 -0.33776980809553209 0 -0.092765630745887853 -0.31371234999831138 0 -0.086703903286726197 -0.33776980809553209 0 -0.081662940613641544 -0.32141558927478547 0 -0.092765630745887853 -0.31371234999831138 0 -0.069255093254359121 -0.33097511337982499 0 -0.077927135167593004 -0.30320508562547349 0 -0.061716067288840271 -0.31011417643116629 0 -0.069255093254359121 -0.33097511337982499 0 -0.077927135167593004 -0.30320508562547349 0 -0.081662940613641544 -0.32141558927478547 0 -0.069255093254359121 -0.33097511337982499 0 -0.077927135167593004 -0.30320508562547349 0 -0.086703903286726197 -0.33776980809553209 0 -0.069255093254359121 -0.33097511337982499 0 -0.074296055927443788 -0.34732933220057149 0 -0.069255093254359121 -0.33097511337982499 0 -0.074296055927443788 -0.34732933220057149 0 -0.060583051341125321 -0.35874514113417633 0 -0.074296055927443788 -0.34732933220057149 0 -0.080642175827564569 -0.36182726619275268 0 -0.060583051341125321 -0.35874514113417633 0 -0.069255093254359121 -0.33097511337982499 0 -0.060583051341125321 -0.35874514113417633 0 -0.069735158343403519 -0.37216849695563448 0 -0.080642175827564569 -0.36182726619275268 0 -0.075878470944038934 -0.38073320206582367 0 -0.069735158343403519 -0.37216849695563448 0 -0.080642175827564569 -0.36182726619275268 0 -0.060583051341125321 -0.35874514113417633 0 -0.069735158343403519 -0.37216849695563448 0 -0.060583051341125321 -0.35874514113417633 0 -0.063799252690434766 -0.38051946851676371 0 -0.080642175827564569 -0.36182726619275268 0 -0.075878470944038934 -0.38073320206582367 0 -0.080642175827564569 -0.36182726619275268 0 -0.087283908925451292 -0.37226785258465139 0 -0.075878470944038934 -0.38073320206582367 0 -0.095738970808133178 -0.36601907424173852 0 -0.087283908925451292 -0.37226785258465139 0 -0.096366313343482321 -0.38036343816629647 0 -0.095738970808133178 -0.36601907424173852 0 -0.095533593003616024 -0.35359166308290302 0 -0.080642175827564569 -0.36182726619275268 0 -0.095738970808133178 -0.36601907424173852 0 -0.080642175827564569 -0.36182726619275268 0 -0.087283908925451292 -0.37226785258465139 0 -0.086703903286726197 -0.33776980809553209 0 -0.080642175827564569 -0.36182726619275268 0 -0.086703903286726197 -0.33776980809553209 0 -0.074296055927443788 -0.34732933220057149 0 -0.080642175827564569 -0.36182726619275268 0 -0.095533593003616024 -0.35359166308290302 0 -0.086703903286726197 -0.33776980809553209 0 -0.080642175827564569 -0.36182726619275268 0 -0.096036871119177095 -0.25634881738357052 0 -0.1096444601012021 -0.26065043818009997 0 -0.1024732368110919 -0.27653067110203222 0 -0.096036871119177095 -0.25634881738357052 0 -0.1096444601012021 -0.26065043818009997 0 -0.1087023929305591 -0.24575936891010619 0 -0.12275815006185969 -0.25761869203139598 0 -0.1096444601012021 -0.26065043818009997 0 -0.1087023929305591 -0.24575936891010619 0 -0.12275815006185969 -0.25761869203139598 0 -0.1096444601012021 -0.26065043818009997 0 -0.1191187129455763 -0.27606003348986202 0 -0.1096444601012021 -0.26065043818009997 0 -0.1191187129455763 -0.27606003348986202 0 -0.1024732368110919 -0.27653067110203222 0 -0.096036871119177095 -0.25634881738357052 0 -0.1024732368110919 -0.27653067110203222 0 -0.086599177080826886 -0.27543505787112199 0 -0.1024732368110919 -0.27653067110203222 0 -0.094546944456763093 -0.29672375585563587 0 -0.086599177080826886 -0.27543505787112199 0 -0.1024732368110919 -0.27653067110203222 0 -0.094546944456763093 -0.29672375585563587 0 -0.1088932551630062 -0.29396592383190329 0 -0.12977354104693661 -0.28554722818437678 0 -0.1191187129455763 -0.27606003348986202 0 -0.1222774803296154 -0.29483958572579161 0 -0.1191187129455763 -0.27606003348986202 0 -0.1024732368110919 -0.27653067110203222 0 -0.1088932551630062 -0.29396592383190329 0 -0.1191187129455763 -0.27606003348986202 0 -0.1088932551630062 -0.29396592383190329 0 -0.1222774803296154 -0.29483958572579161 0 -0.1088932551630062 -0.29396592383190329 0 -0.1190213585810594 -0.30565280333975048 0 -0.1068182228978866 -0.31027097921747321 0 -0.1088932551630062 -0.29396592383190329 0 -0.1222774803296154 -0.29483958572579161 0 -0.1190213585810594 -0.30565280333975048 0 -0.13357045237283349 -0.29913522616234661 0 -0.1222774803296154 -0.29483958572579161 0 -0.1190213585810594 -0.30565280333975048 0 -0.1207477769855493 -0.31991717986543089 0 -0.1190213585810594 -0.30565280333975048 0 -0.1068182228978866 -0.31027097921747321 0 -0.092765630745887853 -0.31371234999831138 0 -0.094546944456763093 -0.29672375585563587 0 -0.1068182228978866 -0.31027097921747321 0 -0.094546944456763093 -0.29672375585563587 0 -0.1088932551630062 -0.29396592383190329 0 -0.1068182228978866 -0.31027097921747321 0 -0.092765630745887853 -0.31371234999831138 0 -0.094546944456763093 -0.29672375585563587 0 -0.077927135167593004 -0.30320508562547349 0 -0.077927135167593004 -0.30320508562547349 0 -0.065097304685888466 -0.29198451374351742 0 -0.061716067288840271 -0.31011417643116629 0 -0.077927135167593004 -0.30320508562547349 0 -0.065097304685888466 -0.29198451374351742 0 -0.086599177080826886 -0.27543505787112199 0 -0.094546944456763093 -0.29672375585563587 0 -0.077927135167593004 -0.30320508562547349 0 -0.086599177080826886 -0.27543505787112199 0 -0.077927135167593004 -0.30320508562547349 0 -0.086599177080826886 -0.27543505787112199 0 -0.086599177080826886 -0.27543505787112199 0 -0.064882790274702368 -0.2762100142505946 0 -0.068994526900409914 -0.2628150113923991 0 -0.064882790274702368 -0.2762100142505946 0 -0.068994526900409914 -0.2628150113923991 0 -0.053789020666314968 -0.25831114472560268 0 -0.065097304685888466 -0.29198451374351742 0 -0.086599177080826886 -0.27543505787112199 0 -0.064882790274702368 -0.2762100142505946 0 -0.068994526900409914 -0.2628150113923991 0 -0.053789020666314968 -0.25831114472560268 0 -0.069354248986417039 -0.24986922427479361 0 -0.080970802639528189 -0.25714235240685918 0 -0.083161105180478506 -0.24777117505195931 0 -0.069354248986417039 -0.24986922427479361 0 -0.068994526900409914 -0.2628150113923991 0 -0.080970802639528189 -0.25714235240685918 0 -0.069354248986417039 -0.24986922427479361 0 -0.086599177080826886 -0.27543505787112199 0 -0.068994526900409914 -0.2628150113923991 0 -0.080970802639528189 -0.25714235240685918 0 -0.096036871119177095 -0.25634881738357052 0 -0.086599177080826886 -0.27543505787112199 0 -0.080970802639528189 -0.25714235240685918 0 -0.096036871119177095 -0.25634881738357052 0 -0.080970802639528189 -0.25714235240685918 0 -0.083161105180478506 -0.24777117505195931 0 -0.038053548764808737 -0.26140704825687983 0 -0.04618549483822789 -0.25040962026526192 0 -0.037026263035115803 -0.2455232766625722 0 -0.038053548764808737 -0.26140704825687983 0 -0.04618549483822789 -0.25040962026526192 0 -0.053789020666314968 -0.25831114472560268 0 -0.038053548764808737 -0.26140704825687983 0 -0.02671910463718637 -0.25361334643031169 0 -0.037026263035115803 -0.2455232766625722 0 -0.04618549483822789 -0.25040962026526192 0 -0.053789020666314968 -0.25831114472560268 0 -0.056088383474936929 -0.24485817140682159 0 -0.053789020666314968 -0.25831114472560268 0 -0.056088383474936929 -0.24485817140682159 0 -0.069354248986417039 -0.24986922427479361 0 -0.064882790274702368 -0.2762100142505946 0 -0.053789020666314968 -0.25831114472560268 0 -0.047204535493374847 -0.27908731558968641 0 -0.038053548764808737 -0.26140704825687983 0 -0.053789020666314968 -0.25831114472560268 0 -0.047204535493374847 -0.27908731558968641 0 -0.038053548764808737 -0.26140704825687983 0 -0.047204535493374847 -0.27908731558968641 0 -0.030505484383701618 -0.27595514193124659 0 -0.047204535493374847 -0.27908731558968641 0 -0.036989088527444987 -0.29164144891732952 0 -0.050742590417224148 -0.3005183637837604 0 -0.047204535493374847 -0.27908731558968641 0 -0.036989088527444987 -0.29164144891732952 0 -0.030505484383701618 -0.27595514193124659 0 -0.065097304685888466 -0.29198451374351742 0 -0.064882790274702368 -0.2762100142505946 0 -0.047204535493374847 -0.27908731558968641 0 -0.065097304685888466 -0.29198451374351742 0 -0.047204535493374847 -0.27908731558968641 0 -0.050742590417224148 -0.3005183637837604 0 -0.065097304685888466 -0.29198451374351742 0 -0.061716067288840271 -0.31011417643116629 0 -0.050742590417224148 -0.3005183637837604 0 -0.061716067288840271 -0.31011417643116629 0 -0.050742590417224148 -0.3005183637837604 0 -0.04541376219352794 -0.32318663313574592 0 -0.050742590417224148 -0.3005183637837604 0 -0.028349692953982351 -0.30733549408196709 0 -0.04541376219352794 -0.32318663313574592 0 -0.036989088527444987 -0.29164144891732952 0 -0.050742590417224148 -0.3005183637837604 0 -0.028349692953982351 -0.30733549408196709 0 -0.050742590417224148 -0.3005183637837604 0 -0.028349692953982351 -0.30733549408196709 0 -0.028349692953982351 -0.30733549408196709 0 -0.0059567954907406356 -0.31415262438017377 0 -0.028349692953982351 -0.30733549408196709 0 -0.01478164667245411 -0.29912163559310512 0 -0.0059567954907406356 -0.31415262438017377 0 -0.028349692953982351 -0.30733549408196709 0 -0.01478164667245411 -0.29912163559310512 0 -0.022732430066012999 -0.28646876698280432 0 -0.001658291402832203 -0.29782421469986192 0 -0.0059567954907406356 -0.31415262438017377 0 0.0041958668063563371 -0.307640622600581 0 -0.001658291402832203 -0.29782421469986192 0 -0.01478164667245411 -0.29912163559310512 0 -0.0059567954907406356 -0.31415262438017377 0 -0.001658291402832203 -0.29782421469986192 0 -0.01478164667245411 -0.29912163559310512 0 -0.01098887548766502 -0.28788869494940728 0 -0.001658291402832203 -0.29782421469986192 0 -0.01098887548766502 -0.28788869494940728 0 -0.0018933533600431129 -0.28046667749116883 0 -0.01098887548766502 -0.28788869494940728 0 -0.022732430066012999 -0.28646876698280432 0 -0.013143216177046139 -0.27253145335338741 0 -0.036989088527444987 -0.29164144891732952 0 -0.022732430066012999 -0.28646876698280432 0 -0.030505484383701618 -0.27595514193124659 0 -0.036989088527444987 -0.29164144891732952 0 -0.028349692953982351 -0.30733549408196709 0 -0.022732430066012999 -0.28646876698280432 0 -0.01478164667245411 -0.29912163559310512 0 -0.01098887548766502 -0.28788869494940728 0 -0.022732430066012999 -0.28646876698280432 0 -0.030505484383701618 -0.27595514193124659 0 -0.013143216177046139 -0.27253145335338741 0 -0.024910087273522039 -0.26459481848739258 0 -0.022732430066012999 -0.28646876698280432 0 -0.030505484383701618 -0.27595514193124659 0 -0.013143216177046139 -0.27253145335338741 0 -0.038053548764808737 -0.26140704825687983 0 -0.030505484383701618 -0.27595514193124659 0 -0.024910087273522039 -0.26459481848739258 0 -0.01098887548766502 -0.28788869494940728 0 -0.0018933533600431129 -0.28046667749116883 0 -0.013143216177046139 -0.27253145335338741 0 -0.0018933533600431129 -0.28046667749116883 0 -0.013143216177046139 -0.27253145335338741 0 0.00043718057657325931 -0.27070861411802111 0 -0.013143216177046139 -0.27253145335338741 0 -0.0023769070460768161 -0.25944029114748868 0 0.00043718057657325931 -0.27070861411802111 0 -0.013143216177046139 -0.27253145335338741 0 -0.01483345629724947 -0.25905712350619953 0 -0.0023769070460768161 -0.25944029114748868 0 -0.01483345629724947 -0.25905712350619953 0 -0.0023769070460768161 -0.25944029114748868 0 -0.0050609087585187914 -0.24448965595804831 0 -0.01483345629724947 -0.25905712350619953 0 -0.017653692761977959 -0.24750206074588749 0 -0.0050609087585187914 -0.24448965595804831 0 -0.01483345629724947 -0.25905712350619953 0 -0.02671910463718637 -0.25361334643031169 0 -0.017653692761977959 -0.24750206074588749 0 -0.013143216177046139 -0.27253145335338741 0 -0.01483345629724947 -0.25905712350619953 0 -0.024910087273522039 -0.26459481848739258 0 -0.01483345629724947 -0.25905712350619953 0 -0.024910087273522039 -0.26459481848739258 0 -0.02671910463718637 -0.25361334643031169 0 -0.038053548764808737 -0.26140704825687983 0 -0.024910087273522039 -0.26459481848739258 0 -0.02671910463718637 -0.25361334643031169 0 -0.044346776091072737 -0.3599797216460533 0 -0.049858073189288817 -0.34232811264571072 0 -0.030728177089603501 -0.34341470092639648 0 -0.044346776091072737 -0.3599797216460533 0 -0.030728177089603501 -0.34341470092639648 0 -0.028653569407454501 -0.36889548463545552 0 -0.044346776091072737 -0.3599797216460533 0 -0.028653569407454501 -0.36889548463545552 0 -0.051911009427891529 -0.38651516888852738 0 -0.060583051341125321 -0.35874514113417633 0 -0.051911009427891529 -0.38651516888852738 0 -0.044346776091072737 -0.3599797216460533 0 -0.060583051341125321 -0.35874514113417633 0 -0.051911009427891529 -0.38651516888852738 0 -0.069255093254359121 -0.33097511337982499 0 -0.060583051341125321 -0.35874514113417633 0 -0.049858073189288817 -0.34232811264571072 0 -0.044346776091072737 -0.3599797216460533 0 -0.060583051341125321 -0.35874514113417633 0 -0.049858073189288817 -0.34232811264571072 0 -0.069255093254359121 -0.33097511337982499 0 -0.049858073189288817 -0.34232811264571072 0 -0.04541376219352794 -0.32318663313574592 0 -0.069255093254359121 -0.33097511337982499 0 -0.061716067288840271 -0.31011417643116629 0 -0.04541376219352794 -0.32318663313574592 0 -0.028349692953982351 -0.30733549408196709 0 -0.04541376219352794 -0.32318663313574592 0 -0.02056631902245077 -0.32761302404610387 0 -0.049858073189288817 -0.34232811264571072 0 -0.04541376219352794 -0.32318663313574592 0 -0.030728177089603501 -0.34341470092639648 0 -0.04541376219352794 -0.32318663313574592 0 -0.030728177089603501 -0.34341470092639648 0 -0.02056631902245077 -0.32761302404610387 0 -0.030728177089603501 -0.34341470092639648 0 -0.02056631902245077 -0.32761302404610387 0 -0.01223917899233096 -0.34951788546234519 0 -0.028349692953982351 -0.30733549408196709 0 -0.02056631902245077 -0.32761302404610387 0 -0.0059567954907406356 -0.31415262438017377 0 -0.02056631902245077 -0.32761302404610387 0 -0.0059567954907406356 -0.31415262438017377 0 -0.00018658340215797691 -0.33538528199099882 0 -0.02056631902245077 -0.32761302404610387 0 -0.00018658340215797691 -0.33538528199099882 0 -0.01223917899233096 -0.34951788546234519 0 -0.00018658340215797691 -0.33538528199099882 0 -0.01223917899233096 -0.34951788546234519 0 0.0055230265944788276 -0.35663431609733032 0 -0.01223917899233096 -0.34951788546234519 0 -0.0073527707683874628 -0.36700998164504728 0 0.0055230265944788276 -0.35663431609733032 0 -0.030728177089603501 -0.34341470092639648 0 -0.01223917899233096 -0.34951788546234519 0 -0.028653569407454501 -0.36889548463545552 0 -0.01223917899233096 -0.34951788546234519 0 -0.028653569407454501 -0.36889548463545552 0 -0.0073527707683874628 -0.36700998164504728 0 -0.028653569407454501 -0.36889548463545552 0 -0.0073527707683874628 -0.36700998164504728 0 -0.012292794881639009 -0.38408514781425918 0 -0.0073527707683874628 -0.36700998164504728 0 -0.012292794881639009 -0.38408514781425918 0 0.0094178782718157012 -0.37623746945321768 0 -0.012292794881639009 -0.38408514781425918 0 0.0094178782718157012 -0.37623746945321768 0 0.0026077901979910151 -0.3937155129803267 0 -0.011597975103927471 -0.39921267440386449 0 -0.0021544753678095999 -0.40784943556256648 0 0.0026077901979910151 -0.3937155129803267 0 -0.012292794881639009 -0.38408514781425918 0 -0.011597975103927471 -0.39921267440386449 0 0.0026077901979910151 -0.3937155129803267 0 -0.012292794881639009 -0.38408514781425918 0 -0.011597975103927471 -0.39921267440386449 0 -0.030333108536431942 -0.39749907856961142 0 -0.011597975103927471 -0.39921267440386449 0 -0.030333108536431942 -0.39749907856961142 0 -0.015817286931747821 -0.41291419709255861 0 -0.028653569407454501 -0.36889548463545552 0 -0.012292794881639009 -0.38408514781425918 0 -0.030333108536431942 -0.39749907856961142 0 -0.028653569407454501 -0.36889548463545552 0 -0.030333108536431942 -0.39749907856961142 0 -0.051911009427891529 -0.38651516888852738 0 -0.030333108536431942 -0.39749907856961142 0 -0.051911009427891529 -0.38651516888852738 0 -0.043238967514657722 -0.41428519664287872 0 -0.051911009427891529 -0.38651516888852738 0 -0.043238967514657722 -0.41428519664287872 0 -0.063515185679177563 -0.39588903593776242 0 -0.051911009427891529 -0.38651516888852738 0 -0.043238967514657722 -0.41428519664287872 0 -0.051911009427891529 -0.38651516888852738 0 -0.063799252690434766 -0.38051946851676371 0 -0.063515185679177563 -0.39588903593776242 0 -0.060583051341125321 -0.35874514113417633 0 -0.051911009427891529 -0.38651516888852738 0 -0.063799252690434766 -0.38051946851676371 0 -0.043238967514657722 -0.41428519664287872 0 -0.052162461130084922 -0.44032696311962921 0 -0.065319404463804964 -0.42909252783173479 0 -0.043238967514657722 -0.41428519664287872 0 -0.063515185679177563 -0.39588903593776242 0 -0.068518720909241368 -0.40994218238719382 0 -0.043238967514657722 -0.41428519664287872 0 -0.068518720909241368 -0.40994218238719382 0 -0.065319404463804964 -0.42909252783173479 0 -0.043238967514657722 -0.41428519664287872 0 -0.034566925601423923 -0.44205522439723 0 -0.052162461130084922 -0.44032696311962921 0 -0.043238967514657722 -0.41428519664287872 0 -0.024862703622458879 -0.42769665181648558 0 -0.034566925601423923 -0.44205522439723 0 -0.043238967514657722 -0.41428519664287872 0 -0.034566925601423923 -0.44205522439723 0 -0.024862703622458879 -0.42769665181648558 0 -0.0118329688184439 -0.43912322355566391 0 -0.02267887125344455 -0.44400420826011172 0 -0.024862703622458879 -0.42769665181648558 0 -0.015817286931747821 -0.41291419709255861 0 -0.01224035345367059 -0.42716049895332142 0 -0.024862703622458879 -0.42769665181648558 0 -0.01224035345367059 -0.42716049895332142 0 -0.0118329688184439 -0.43912322355566391 0 -0.043238967514657722 -0.41428519664287872 0 -0.024862703622458879 -0.42769665181648558 0 -0.015817286931747821 -0.41291419709255861 0 -0.030333108536431942 -0.39749907856961142 0 -0.043238967514657722 -0.41428519664287872 0 -0.015817286931747821 -0.41291419709255861 0 -0.011597975103927471 -0.39921267440386449 0 -0.015817286931747821 -0.41291419709255861 0 -0.0021544753678095999 -0.40784943556256648 0 -0.015817286931747821 -0.41291419709255861 0 -0.001601110338014082 -0.42097589615010578 0 -0.01224035345367059 -0.42716049895332142 0 -0.015817286931747821 -0.41291419709255861 0 -0.001601110338014082 -0.42097589615010578 0 -0.0021544753678095999 -0.40784943556256648 0 -0.001601110338014082 -0.42097589615010578 0 -0.01224035345367059 -0.42716049895332142 0 0.00088915341899545048 -0.43615426505860788 0 -0.01224035345367059 -0.42716049895332142 0 -0.0118329688184439 -0.43912322355566391 0 0.00088915341899545048 -0.43615426505860788 0 -0.0118329688184439 -0.43912322355566391 0 -0.0026670013933727068 -0.44670431023323709 0 0.00088915341899545048 -0.43615426505860788 0 -0.0118329688184439 -0.43912322355566391 0 -0.01228573866940167 -0.45073880728240567 0 -0.02267887125344455 -0.44400420826011172 0 -0.0118329688184439 -0.43912322355566391 0 -0.01228573866940167 -0.45073880728240567 0 -0.0026670013933727068 -0.44670431023323709 0 -0.01228573866940167 -0.45073880728240567 0 -0.0026670013933727068 -0.44670431023323709 0 -0.0034812919805265671 -0.45296449102686642 0 -0.0026670013933727068 -0.44670431023323709 0 -0.0034812919805265671 -0.45296449102686642 0 0.0021011584974573948 -0.45182517477826251 0 -0.002347703866505482 -0.45999088199490612 0 -0.0062631933699878028 -0.46411406759441309 0 -0.029846019555494291 -0.46040713424877278 0 -0.01228573866940167 -0.45073880728240567 0 -0.0034812919805265671 -0.45296449102686642 0 -0.002347703866505482 -0.45999088199490612 0 -0.01228573866940167 -0.45073880728240567 0 -0.002347703866505482 -0.45999088199490612 0 -0.029846019555494291 -0.46040713424877278 0 -0.0034812919805265671 -0.45296449102686642 0 -0.002347703866505482 -0.45999088199490612 0 0.0021011584974573948 -0.45182517477826251 0 -0.0062631933699878028 -0.46411406759441309 0 -0.029846019555494291 -0.46040713424877278 0 -0.02098434229454978 -0.47266052848335682 0 -0.0062631933699878028 -0.46411406759441309 0 -0.029846019555494291 -0.46040713424877278 0 -0.002347703866505482 -0.45999088199490612 0 -0.029846019555494291 -0.46040713424877278 0 -0.01228573866940167 -0.45073880728240567 0 -0.029846019555494291 -0.46040713424877278 0 -0.02267887125344455 -0.44400420826011172 0 -0.029846019555494291 -0.46040713424877278 0 -0.02267887125344455 -0.44400420826011172 0 -0.034566925601423923 -0.44205522439723 0 -0.024862703622458879 -0.42769665181648558 0 -0.02267887125344455 -0.44400420826011172 0 -0.034566925601423923 -0.44205522439723 0 -0.0040708438948800496 -0.5 0 -0.009457877438559463 -0.47543664792432039 0 0.0030783257516484299 -0.48155330781822908 0 -0.0040708438948800496 -0.5 0 -0.009457877438559463 -0.47543664792432039 0 -0.02080631460400036 -0.48452504677594271 0 -0.0062631933699878028 -0.46411406759441309 0 -0.009457877438559463 -0.47543664792432039 0 0.00103595329040903 -0.47221624115264649 0 -0.009457877438559463 -0.47543664792432039 0 0.0030783257516484299 -0.48155330781822908 0 0.00103595329040903 -0.47221624115264649 0 -0.0062631933699878028 -0.46411406759441309 0 -0.009457877438559463 -0.47543664792432039 0 -0.02098434229454978 -0.47266052848335682 0 -0.029846019555494291 -0.46040713424877278 0 -0.02098434229454978 -0.47266052848335682 0 -0.038548306504706899 -0.47881974587333492 0 -0.02098434229454978 -0.47266052848335682 0 -0.02080631460400036 -0.48452504677594271 0 -0.038548306504706899 -0.47881974587333492 0 -0.009457877438559463 -0.47543664792432039 0 -0.02098434229454978 -0.47266052848335682 0 -0.02080631460400036 -0.48452504677594271 0 -0.0040708438948800496 -0.5 0 -0.02080631460400036 -0.48452504677594271 0 -0.032302260259275288 -0.5 0 -0.02080631460400036 -0.48452504677594271 0 -0.032302260259275288 -0.5 0 -0.038548306504706899 -0.47881974587333492 0 -0.032302260259275288 -0.5 0 -0.038548306504706899 -0.47881974587333492 0 -0.060533676623670429 -0.5 0 -0.038548306504706899 -0.47881974587333492 0 -0.058928930807331442 -0.47619931511622782 0 -0.048987288436872369 -0.46069688277024012 0 -0.038548306504706899 -0.47881974587333492 0 -0.058928930807331442 -0.47619931511622782 0 -0.060533676623670429 -0.5 0 -0.034566925601423923 -0.44205522439723 0 -0.052627412948902219 -0.45682617638707002 0 -0.052162461130084922 -0.44032696311962921 0 -0.029846019555494291 -0.46040713424877278 0 -0.034566925601423923 -0.44205522439723 0 -0.052627412948902219 -0.45682617638707002 0 -0.029846019555494291 -0.46040713424877278 0 -0.048987288436872369 -0.46069688277024012 0 -0.029846019555494291 -0.46040713424877278 0 -0.052627412948902219 -0.45682617638707002 0 -0.029846019555494291 -0.46040713424877278 0 -0.038548306504706899 -0.47881974587333492 0 -0.048987288436872369 -0.46069688277024012 0 -0.029846019555494291 -0.46040713424877278 0 -0.052627412948902219 -0.45682617638707002 0 -0.048987288436872369 -0.46069688277024012 0 -0.048987288436872369 -0.46069688277024012 0 -0.068128557318250405 -0.46098663129170903 0 -0.058928930807331442 -0.47619931511622782 0 -0.048987288436872369 -0.46069688277024012 0 -0.068128557318250405 -0.46098663129170903 0 -0.052627412948902219 -0.45682617638707002 0 -0.048987288436872369 -0.46069688277024012 0 -0.068128557318250405 -0.46098663129170903 0 -0.052627412948902219 -0.45682617638707002 0 -0.065846189527558815 -0.45667181520189443 0 -0.068128557318250405 -0.46098663129170903 0 -0.052627412948902219 -0.45682617638707002 0 -0.052162461130084922 -0.44032696311962921 0 -0.075408806342310064 -0.45324521852536698 0 -0.052162461130084922 -0.44032696311962921 0 -0.075408806342310064 -0.45324521852536698 0 -0.065319404463804964 -0.42909252783173479 0 -0.075408806342310064 -0.45324521852536698 0 -0.065319404463804964 -0.42909252783173479 0 -0.07995448651059768 -0.43564612770114619 0 -0.068128557318250405 -0.46098663129170903 0 -0.075250078042331775 -0.46109443240526993 0 -0.078446825153157665 -0.48049331564585479 0 -0.052627412948902219 -0.45682617638707002 0 -0.065846189527558815 -0.45667181520189443 0 -0.075408806342310064 -0.45324521852536698 0 -0.065846189527558815 -0.45667181520189443 0 -0.068128557318250405 -0.46098663129170903 0 -0.075408806342310064 -0.45324521852536698 0 -0.052627412948902219 -0.45682617638707002 0 -0.075408806342310064 -0.45324521852536698 0 -0.065846189527558815 -0.45667181520189443 0 -0.068128557318250405 -0.46098663129170903 0 -0.068128557318250405 -0.46098663129170903 0 -0.075250078042331775 -0.46109443240526993 0 -0.068128557318250405 -0.46098663129170903 0 -0.075250078042331775 -0.46109443240526993 0 -0.075408806342310064 -0.45324521852536698 0 -0.075408806342310064 -0.45324521852536698 0 -0.091508836137816185 -0.46725533219134652 0 -0.098190199735717937 -0.44966426066366388 0 -0.075250078042331775 -0.46109443240526993 0 -0.075408806342310064 -0.45324521852536698 0 -0.091508836137816185 -0.46725533219134652 0 -0.075408806342310064 -0.45324521852536698 0 -0.098190199735717937 -0.44966426066366388 0 -0.07995448651059768 -0.43564612770114619 0 -0.075408806342310064 -0.45324521852536698 0 -0.098190199735717937 -0.44966426066366388 0 -0.060533676623670429 -0.5 0 -0.078446825153157665 -0.48049331564585479 0 -0.088765092988065564 -0.50000000000000022 0 -0.058928930807331442 -0.47619931511622782 0 -0.060533676623670429 -0.5 0 -0.078446825153157665 -0.48049331564585479 0 -0.068128557318250405 -0.46098663129170903 0 -0.078446825153157665 -0.48049331564585479 0 -0.058928930807331442 -0.47619931511622782 0 -0.068128557318250405 -0.46098663129170903 0 -0.078446825153157665 -0.48049331564585479 0 -0.075250078042331775 -0.46109443240526993 0 -0.091508836137816185 -0.46725533219134652 0 -0.078446825153157665 -0.48049331564585479 0 -0.091508836137816185 -0.46725533219134652 0 -0.078446825153157665 -0.48049331564585479 0 -0.094455028644722897 -0.48215215226893537 0 -0.078446825153157665 -0.48049331564585479 0 -0.088765092988065564 -0.50000000000000022 0 -0.094455028644722897 -0.48215215226893537 0 -0.078446825153157665 -0.48049331564585479 0 -0.088765092988065564 -0.50000000000000022 0 -0.088765092988065564 -0.50000000000000022 0 -0.119318990882151 -0.5 0 -0.1094814218226537 -0.48754392231146387 0 -0.088765092988065564 -0.50000000000000022 0 -0.094455028644722897 -0.48215215226893537 0 -0.1094814218226537 -0.48754392231146387 0 -0.091508836137816185 -0.46725533219134652 0 -0.10356093410382709 -0.47564059048030582 0 -0.1152265074758895 -0.46681361255671178 0 -0.094455028644722897 -0.48215215226893537 0 -0.10356093410382709 -0.47564059048030582 0 -0.1094814218226537 -0.48754392231146387 0 -0.091508836137816185 -0.46725533219134652 0 -0.094455028644722897 -0.48215215226893537 0 -0.10356093410382709 -0.47564059048030582 0 -0.10356093410382709 -0.47564059048030582 0 -0.1094814218226537 -0.48754392231146387 0 -0.1152265074758895 -0.46681361255671178 0 -0.12557641315546761 -0.47775406968757211 0 -0.1094814218226537 -0.48754392231146387 0 -0.1152265074758895 -0.46681361255671178 0 -0.1094814218226537 -0.48754392231146387 0 -0.1152265074758895 -0.46681361255671178 0 -0.12557641315546761 -0.47775406968757211 0 -0.119318990882151 -0.5 0 -0.1094814218226537 -0.48754392231146387 0 -0.098190199735717937 -0.44966426066366388 0 -0.1209715931291258 -0.44608330280195979 0 -0.1051760692692979 -0.4311993213449144 0 -0.091508836137816185 -0.46725533219134652 0 -0.098190199735717937 -0.44966426066366388 0 -0.1152265074758895 -0.46681361255671178 0 -0.12725453073383031 -0.46040420120067788 0 -0.1152265074758895 -0.46681361255671178 0 -0.1209715931291258 -0.44608330280195979 0 -0.12725453073383031 -0.46040420120067788 0 -0.12557641315546761 -0.47775406968757211 0 -0.1152265074758895 -0.46681361255671178 0 -0.098190199735717937 -0.44966426066366388 0 -0.1152265074758895 -0.46681361255671178 0 -0.1209715931291258 -0.44608330280195979 0 -0.1152265074758895 -0.46681361255671178 0 -0.1209715931291258 -0.44608330280195979 0 -0.098190199735717937 -0.44966426066366388 0 -0.1209715931291258 -0.44608330280195979 0 -0.1281068078561492 -0.42033691355977781 0 -0.1209715931291258 -0.44608330280195979 0 -0.1166422924281777 -0.42793349762982852 0 -0.1051760692692979 -0.4311993213449144 0 -0.1123146994581372 -0.4141144528126609 0 -0.1281068078561492 -0.42033691355977781 0 -0.1209715931291258 -0.44608330280195979 0 -0.1166422924281777 -0.42793349762982852 0 -0.1209715931291258 -0.44608330280195979 0 -0.1166422924281777 -0.42793349762982852 0 -0.1051760692692979 -0.4311993213449144 0 -0.098190199735717937 -0.44966426066366388 0 -0.1051760692692979 -0.4311993213449144 0 -0.091635327336938632 -0.42685028775260059 0 -0.1051760692692979 -0.4311993213449144 0 -0.097615997619852929 -0.41598519555245889 0 -0.091635327336938632 -0.42685028775260059 0 -0.1051760692692979 -0.4311993213449144 0 -0.097615997619852929 -0.41598519555245889 0 -0.1123146994581372 -0.4141144528126609 0 -0.097615997619852929 -0.41598519555245889 0 -0.1123146994581372 -0.4141144528126609 0 -0.098613907479184776 -0.40526870877508703 0 -0.1123146994581372 -0.4141144528126609 0 -0.1081968570404286 -0.4004525816128755 0 -0.098613907479184776 -0.40526870877508703 0 -0.1123146994581372 -0.4141144528126609 0 -0.11505248589157881 -0.4045874850253311 0 -0.1081968570404286 -0.4004525816128755 0 -0.1281068078561492 -0.42033691355977781 0 -0.1123146994581372 -0.4141144528126609 0 -0.1238949754790693 -0.40405207535761578 0 -0.1123146994581372 -0.4141144528126609 0 -0.1238949754790693 -0.40405207535761578 0 -0.11505248589157881 -0.4045874850253311 0 -0.1281068078561492 -0.42033691355977781 0 -0.1166422924281777 -0.42793349762982852 0 -0.1123146994581372 -0.4141144528126609 0 -0.1238949754790693 -0.40405207535761578 0 -0.11532200311750369 -0.39760402813869999 0 -0.11968314310199001 -0.38776723715545369 0 -0.12712275605433601 -0.39520900375222628 0 -0.1238949754790693 -0.40405207535761578 0 -0.11968314310199001 -0.38776723715545369 0 -0.1238949754790693 -0.40405207535761578 0 -0.11532200311750369 -0.39760402813869999 0 -0.11505248589157881 -0.4045874850253311 0 -0.1238949754790693 -0.40405207535761578 0 -0.11968314310199001 -0.38776723715545369 0 -0.11532200311750369 -0.39760402813869999 0 -0.11968314310199001 -0.38776723715545369 0 -0.10948167377996661 -0.38983151018005407 0 -0.11532200311750369 -0.39760402813869999 0 -0.10948167377996661 -0.38983151018005407 0 -0.1081968570404286 -0.4004525816128755 0 -0.11532200311750369 -0.39760402813869999 0 -0.11505248589157881 -0.4045874850253311 0 -0.1081968570404286 -0.4004525816128755 0 -0.13781369823175171 -0.37932986731501922 0 -0.1132201827002137 -0.36823359862451199 0 -0.117090005787617 -0.37984665274065649 0 -0.1312159761628823 -0.38885093340404592 0 -0.11968314310199001 -0.38776723715545369 0 -0.117090005787617 -0.37984665274065649 0 -0.11968314310199001 -0.38776723715545369 0 -0.10948167377996661 -0.38983151018005407 0 -0.117090005787617 -0.37984665274065649 0 -0.117090005787617 -0.37984665274065649 0 -0.096366313343482321 -0.38036343816629647 0 -0.1132201827002137 -0.36823359862451199 0 -0.117090005787617 -0.37984665274065649 0 -0.096366313343482321 -0.38036343816629647 0 -0.10948167377996661 -0.38983151018005407 0 -0.117090005787617 -0.37984665274065649 0 -0.096366313343482321 -0.38036343816629647 0 -0.10948167377996661 -0.38983151018005407 0 -0.096366313343482321 -0.38036343816629647 0 -0.10041262075794399 -0.39473341281352348 0 -0.096366313343482321 -0.38036343816629647 0 -0.10041262075794399 -0.39473341281352348 0 -0.0894012581436123 -0.39831712202478342 0 -0.1081968570404286 -0.4004525816128755 0 -0.10041262075794399 -0.39473341281352348 0 -0.098613907479184776 -0.40526870877508703 0 -0.10948167377996661 -0.38983151018005407 0 -0.1081968570404286 -0.4004525816128755 0 -0.10041262075794399 -0.39473341281352348 0 -0.10041262075794399 -0.39473341281352348 0 -0.098613907479184776 -0.40526870877508703 0 -0.0894012581436123 -0.39831712202478342 0 -0.098613907479184776 -0.40526870877508703 0 -0.0894012581436123 -0.39831712202478342 0 -0.083724190397594864 -0.41127135677714483 0 -0.096366313343482321 -0.38036343816629647 0 -0.0894012581436123 -0.39831712202478342 0 -0.074772078759020338 -0.39590494943549498 0 -0.0894012581436123 -0.39831712202478342 0 -0.0810799434930395 -0.4025383611867237 0 -0.083724190397594864 -0.41127135677714483 0 -0.0894012581436123 -0.39831712202478342 0 -0.0810799434930395 -0.4025383611867237 0 -0.074772078759020338 -0.39590494943549498 0 -0.096366313343482321 -0.38036343816629647 0 -0.074772078759020338 -0.39590494943549498 0 -0.096366313343482321 -0.38036343816629647 0 -0.075878470944038934 -0.38073320206582367 0 -0.096366313343482321 -0.38036343816629647 0 -0.074580448368402968 -0.38588472428997328 0 -0.074772078759020338 -0.39590494943549498 0 -0.087283908925451292 -0.37226785258465139 0 -0.096366313343482321 -0.38036343816629647 0 -0.075878470944038934 -0.38073320206582367 0 -0.096366313343482321 -0.38036343816629647 0 -0.075878470944038934 -0.38073320206582367 0 -0.074580448368402968 -0.38588472428997328 0 -0.069735158343403519 -0.37216849695563448 0 -0.075878470944038934 -0.38073320206582367 0 -0.074580448368402968 -0.38588472428997328 0 -0.075878470944038934 -0.38073320206582367 0 -0.074580448368402968 -0.38588472428997328 0 -0.074580448368402968 -0.38588472428997328 0 -0.063799252690434766 -0.38051946851676371 0 -0.063515185679177563 -0.39588903593776242 0 -0.069735158343403519 -0.37216849695563448 0 -0.074580448368402968 -0.38588472428997328 0 -0.063799252690434766 -0.38051946851676371 0 -0.074580448368402968 -0.38588472428997328 0 -0.074772078759020338 -0.39590494943549498 0 -0.068518720909241368 -0.40994218238719382 0 -0.074580448368402968 -0.38588472428997328 0 -0.068518720909241368 -0.40994218238719382 0 -0.074580448368402968 -0.38588472428997328 0 -0.063515185679177563 -0.39588903593776242 0 -0.068518720909241368 -0.40994218238719382 0 -0.0810799434930395 -0.4025383611867237 0 -0.074772078759020338 -0.39590494943549498 0 -0.068518720909241368 -0.40994218238719382 0 -0.068518720909241368 -0.40994218238719382 0 -0.065319404463804964 -0.42909252783173479 0 -0.077830425923635496 -0.42256049648996408 0 -0.0810799434930395 -0.4025383611867237 0 -0.068518720909241368 -0.40994218238719382 0 -0.083724190397594864 -0.41127135677714483 0 -0.068518720909241368 -0.40994218238719382 0 -0.077830425923635496 -0.42256049648996408 0 -0.083724190397594864 -0.41127135677714483 0 -0.065319404463804964 -0.42909252783173479 0 -0.077830425923635496 -0.42256049648996408 0 -0.07995448651059768 -0.43564612770114619 0 -0.077830425923635496 -0.42256049648996408 0 -0.07995448651059768 -0.43564612770114619 0 -0.091635327336938632 -0.42685028775260059 0 -0.098190199735717937 -0.44966426066366388 0 -0.07995448651059768 -0.43564612770114619 0 -0.091635327336938632 -0.42685028775260059 0 -0.097615997619852929 -0.41598519555245889 0 -0.091635327336938632 -0.42685028775260059 0 -0.083724190397594864 -0.41127135677714483 0 -0.097615997619852929 -0.41598519555245889 0 -0.098613907479184776 -0.40526870877508703 0 -0.083724190397594864 -0.41127135677714483 0 -0.077830425923635496 -0.42256049648996408 0 -0.091635327336938632 -0.42685028775260059 0 -0.083724190397594864 -0.41127135677714483 0 -0.089548879928329231 -0.093710393150088875 0 -0.083614733862720225 -0.076591009424384279 0 -0.10654865767821781 -0.091883937759532436 0 -0.089548879928329231 -0.093710393150088875 0 -0.079822860299075621 -0.079648639169498228 0 -0.079987985073928611 -0.1078849362616814 0 -0.089548879928329231 -0.093710393150088875 0 -0.079822860299075621 -0.079648639169498228 0 -0.083614733862720225 -0.076591009424384279 0 -0.083614733862720225 -0.076591009424384279 0 -0.079790064831643179 -0.074040622065096789 0 -0.079706050957266156 -0.059674269596838157 0 -0.083614733862720225 -0.076591009424384279 0 -0.1045663416402479 -0.059696390425816967 0 -0.079706050957266156 -0.059674269596838157 0 -0.079790064831643179 -0.074040622065096789 0 -0.079706050957266156 -0.059674269596838157 0 -0.079822860299075621 -0.079648639169498228 0 -0.079790064831643179 -0.074040622065096789 0 -0.079822860299075621 -0.079648639169498228 0 -0.083614733862720225 -0.076591009424384279 0 -0.079790064831643179 -0.074040622065096789 0 -0.083614733862720225 -0.076591009424384279 0 -0.079790064831643179 -0.074040622065096789 0 -0.079822860299075621 -0.079648639169498228 0 -0.083614733862720225 -0.076591009424384279 0 -0.079790064831643179 -0.074040622065096789 0 -0.071108324587963859 -0.075743632967931296 0 -0.065881316434799914 -0.064765912068857845 0 -0.079822860299075621 -0.079648639169498228 0 -0.079790064831643179 -0.074040622065096789 0 -0.071108324587963859 -0.075743632967931296 0 -0.079790064831643179 -0.074040622065096789 0 -0.065881316434799914 -0.064765912068857845 0 -0.079706050957266156 -0.059674269596838157 0 -0.079790064831643179 -0.074040622065096789 0 -0.065881316434799914 -0.064765912068857845 0 -0.065881316434799914 -0.064765912068857845 0 -0.063929853442850362 -0.072683386038222747 0 -0.059476848898936903 -0.067124674102462561 0 -0.065881316434799914 -0.064765912068857845 0 -0.059476848898936903 -0.067124674102462561 0 -0.071108324587963859 -0.075743632967931296 0 -0.065881316434799914 -0.064765912068857845 0 -0.063929853442850362 -0.072683386038222747 0 -0.071108324587963859 -0.075743632967931296 0 -0.063929853442850362 -0.072683386038222747 0 -0.065059717802934666 -0.079302302655448395 0 -0.071108324587963859 -0.075743632967931296 0 -0.065059717802934666 -0.079302302655448395 0 -0.07172876625015806 -0.086175423965541051 0 -0.079822860299075621 -0.079648639169498228 0 -0.07172876625015806 -0.086175423965541051 0 -0.079987985073928611 -0.1078849362616814 0 -0.065059717802934666 -0.079302302655448395 0 -0.07172876625015806 -0.086175423965541051 0 -0.060189477682686482 -0.087723935138946954 0 -0.079822860299075621 -0.079648639169498228 0 -0.07172876625015806 -0.086175423965541051 0 -0.079822860299075621 -0.079648639169498228 0 -0.071108324587963859 -0.075743632967931296 0 -0.07172876625015806 -0.086175423965541051 0 -0.07172876625015806 -0.086175423965541051 0 -0.065632122727269343 -0.097241677229118556 0 -0.060189477682686482 -0.087723935138946954 0 -0.07172876625015806 -0.086175423965541051 0 -0.065632122727269343 -0.097241677229118556 0 -0.079987985073928611 -0.1078849362616814 0 -0.065632122727269343 -0.097241677229118556 0 -0.079987985073928611 -0.1078849362616814 0 -0.05692612213036366 -0.106397908830902 0 -0.079480677129163083 -0.1222829519756167 0 -0.05692612213036366 -0.106397908830902 0 -0.066585048374631195 -0.12870657843384459 0 -0.079480677129163083 -0.1222829519756167 0 -0.079987985073928611 -0.1078849362616814 0 -0.05692612213036366 -0.106397908830902 0 -0.079480677129163083 -0.1222829519756167 0 -0.097511515019495371 -0.1161618035163912 0 -0.093982027244670974 -0.1315104457850988 0 -0.079480677129163083 -0.1222829519756167 0 -0.079987985073928611 -0.1078849362616814 0 -0.097511515019495371 -0.1161618035163912 0 -0.089548879928329231 -0.093710393150088875 0 -0.079987985073928611 -0.1078849362616814 0 -0.097511515019495371 -0.1161618035163912 0 -0.079822860299075621 -0.079648639169498228 0 -0.079987985073928611 -0.1078849362616814 0 -0.097511515019495371 -0.1161618035163912 0 -0.11679916795141 -0.11855651071921181 0 -0.10654865767821781 -0.091883937759532436 0 -0.089548879928329231 -0.093710393150088875 0 -0.097511515019495371 -0.1161618035163912 0 -0.10654865767821781 -0.091883937759532436 0 -0.097511515019495371 -0.1161618035163912 0 -0.11679916795141 -0.11855651071921181 0 -0.1092675985926794 -0.13454554542672961 0 -0.10654865767821781 -0.091883937759532436 0 -0.1307815944379738 -0.092699919988012899 0 -0.12948258149371511 -0.10717686609468061 0 -0.11679916795141 -0.11855651071921181 0 -0.10654865767821781 -0.091883937759532436 0 -0.12948258149371511 -0.10717686609468061 0 -0.10654865767821781 -0.091883937759532436 0 -0.12948258149371511 -0.10717686609468061 0 -0.10654865767821781 -0.091883937759532436 0 -0.1137004948943668 -0.072984887862278761 0 -0.13125558309419269 -0.077369862107999898 0 -0.10654865767821781 -0.091883937759532436 0 -0.13125558309419269 -0.077369862107999898 0 -0.1307815944379738 -0.092699919988012899 0 -0.10654865767821781 -0.091883937759532436 0 -0.1021075570188882 -0.075289056368003121 0 -0.1137004948943668 -0.072984887862278761 0 -0.083614733862720225 -0.076591009424384279 0 -0.10654865767821781 -0.091883937759532436 0 -0.083614733862720225 -0.076591009424384279 0 -0.10654865767821781 -0.091883937759532436 0 -0.1021075570188882 -0.075289056368003121 0 -0.083614733862720225 -0.076591009424384279 0 -0.1045663416402479 -0.059696390425816967 0 -0.083614733862720225 -0.076591009424384279 0 -0.1021075570188882 -0.075289056368003121 0 -0.1045663416402479 -0.059696390425816967 0 -0.1021075570188882 -0.075289056368003121 0 -0.1137004948943668 -0.072984887862278761 0 -0.1045663416402479 -0.059696390425816967 0 -0.1137004948943668 -0.072984887862278761 0 -0.13125558309419269 -0.077369862107999898 0 -0.12619302875418351 -0.060577836074509478 0 -0.1137004948943668 -0.072984887862278761 0 -0.1045663416402479 -0.059696390425816967 0 -0.12619302875418351 -0.060577836074509478 0 -0.10261200018752099 -0.05123802051204418 0 -0.1255179494177758 -0.042801771427249863 0 -0.10261200018752099 -0.05123802051204418 0 -0.1045663416402479 -0.059696390425816967 0 -0.1255179494177758 -0.042801771427249863 0 -0.1045663416402479 -0.059696390425816967 0 -0.1255179494177758 -0.042801771427249863 0 -0.1045663416402479 -0.059696390425816967 0 -0.1255179494177758 -0.042801771427249863 0 -0.12619302875418351 -0.060577836074509478 0 -0.1100678636826246 -0.033240756339674098 0 -0.10261200018752099 -0.05123802051204418 0 -0.1255179494177758 -0.042801771427249863 0 -0.1100678636826246 -0.033240756339674098 0 -0.12307210551450951 -0.027110368717823949 0 -0.1255179494177758 -0.042801771427249863 0 -0.1100678636826246 -0.033240756339674098 0 -0.095421607796595739 -0.032621831957992321 0 -0.10261200018752099 -0.05123802051204418 0 -0.10261200018752099 -0.05123802051204418 0 -0.1045663416402479 -0.059696390425816967 0 -0.079706050957266156 -0.059674269596838157 0 -0.1037156554967214 -0.01243178908326047 0 -0.12794466884393851 -0.002708162334285761 0 -0.12471248911896179 -0.01527569869178381 0 -0.1037156554967214 -0.01243178908326047 0 -0.12794466884393851 -0.002708162334285761 0 -0.1037156554967214 -0.01243178908326047 0 -0.12794466884393851 -0.002708162334285761 0 -0.1123354336913058 0.0013520760706568159 0 -0.12471248911896179 -0.01527569869178381 0 -0.12307210551450951 -0.027110368717823949 0 -0.1037156554967214 -0.01243178908326047 0 -0.1100678636826246 -0.033240756339674098 0 -0.12307210551450951 -0.027110368717823949 0 -0.1037156554967214 -0.01243178908326047 0 -0.1100678636826246 -0.033240756339674098 0 -0.095421607796595739 -0.032621831957992321 0 -0.1037156554967214 -0.01243178908326047 0 -0.1037156554967214 -0.01243178908326047 0 -0.093809747996545942 -0.0030093353284433712 0 -0.08517320924149388 -0.01102911899893003 0 -0.1037156554967214 -0.01243178908326047 0 -0.093809747996545942 -0.0030093353284433712 0 -0.1027673763153877 0.00091163931933735138 0 -0.1037156554967214 -0.01243178908326047 0 -0.1027673763153877 0.00091163931933735138 0 -0.1123354336913058 0.0013520760706568159 0 -0.1037156554967214 -0.01243178908326047 0 -0.08517320924149388 -0.01102911899893003 0 -0.079486642149504363 -0.02215541583223524 0 -0.077062003173608132 -0.0072942392970108362 0 -0.074632322639879081 -0.00077634831607193431 0 -0.083103434105877269 0.00052397087483265566 0 -0.08517320924149388 -0.01102911899893003 0 -0.077062003173608132 -0.0072942392970108362 0 -0.083103434105877269 0.00052397087483265566 0 -0.093809747996545942 -0.0030093353284433712 0 -0.08517320924149388 -0.01102911899893003 0 -0.083103434105877269 0.00052397087483265566 0 -0.08517320924149388 -0.01102911899893003 0 -0.078861556947535411 -0.01334686025626348 0 -0.077062003173608132 -0.0072942392970108362 0 -0.08517320924149388 -0.01102911899893003 0 -0.078861556947535411 -0.01334686025626348 0 -0.079465027303920202 -0.01845928239574814 0 -0.095421607796595739 -0.032621831957992321 0 -0.1037156554967214 -0.01243178908326047 0 -0.079486642149504363 -0.02215541583223524 0 -0.1037156554967214 -0.01243178908326047 0 -0.079486642149504363 -0.02215541583223524 0 -0.08517320924149388 -0.01102911899893003 0 -0.079465027303920202 -0.01845928239574814 0 -0.079486642149504363 -0.02215541583223524 0 -0.078861556947535411 -0.01334686025626348 0 -0.079465027303920202 -0.01845928239574814 0 -0.077113745264106651 -0.016868059277999971 0 -0.079465027303920202 -0.01845928239574814 0 -0.078066067768276168 -0.020315593376716418 0 -0.077113745264106651 -0.016868059277999971 0 -0.079465027303920202 -0.01845928239574814 0 -0.079486642149504363 -0.02215541583223524 0 -0.078066067768276168 -0.020315593376716418 0 -0.079465027303920202 -0.01845928239574814 0 -0.079486642149504363 -0.02215541583223524 0 -0.079486642149504363 -0.02215541583223524 0 -0.07132131468200896 -0.026419239319968989 0 -0.073955639575587845 -0.023034130415246341 0 -0.079486642149504363 -0.02215541583223524 0 -0.07132131468200896 -0.026419239319968989 0 -0.071325246910900267 -0.03602675906317878 0 -0.07132131468200896 -0.026419239319968989 0 -0.07052204144283987 -0.021952735966628691 0 -0.073955639575587845 -0.023034130415246341 0 -0.07132131468200896 -0.026419239319968989 0 -0.064116730791888274 -0.028715662213213981 0 -0.071325246910900267 -0.03602675906317878 0 -0.064116730791888274 -0.028715662213213981 0 -0.066247651905591509 -0.022516112482753189 0 -0.0606224431082793 -0.022168106557960639 0 -0.07132131468200896 -0.026419239319968989 0 -0.066247651905591509 -0.022516112482753189 0 -0.07052204144283987 -0.021952735966628691 0 -0.07132131468200896 -0.026419239319968989 0 -0.064116730791888274 -0.028715662213213981 0 -0.066247651905591509 -0.022516112482753189 0 -0.066247651905591509 -0.022516112482753189 0 -0.067909409681297841 -0.018993266192609638 0 -0.07052204144283987 -0.021952735966628691 0 -0.067909409681297841 -0.018993266192609638 0 -0.071386899022682346 -0.018466943769939889 0 -0.07052204144283987 -0.021952735966628691 0 -0.066247651905591509 -0.022516112482753189 0 -0.063710406556967497 -0.01711383215432449 0 -0.067909409681297841 -0.018993266192609638 0 -0.066247651905591509 -0.022516112482753189 0 -0.063710406556967497 -0.01711383215432449 0 -0.0606224431082793 -0.022168106557960639 0 -0.063710406556967497 -0.01711383215432449 0 -0.067909409681297841 -0.018993266192609638 0 -0.067680049478408 -0.014916706589401949 0 -0.071386899022682346 -0.018466943769939889 0 -0.071565284642600896 -0.014005468659128731 0 -0.067680049478408 -0.014916706589401949 0 -0.067909409681297841 -0.018993266192609638 0 -0.071386899022682346 -0.018466943769939889 0 -0.067680049478408 -0.014916706589401949 0 -0.074067968222820538 -0.01642596461434508 0 -0.071386899022682346 -0.018466943769939889 0 -0.071565284642600896 -0.014005468659128731 0 -0.074067968222820538 -0.01642596461434508 0 -0.071386899022682346 -0.018466943769939889 0 -0.075177527286053092 -0.01937175453558633 0 -0.071386899022682346 -0.018466943769939889 0 -0.07052204144283987 -0.021952735966628691 0 -0.072866604161473933 -0.020978370332235631 0 -0.07052204144283987 -0.021952735966628691 0 -0.073955639575587845 -0.023034130415246341 0 -0.072866604161473933 -0.020978370332235631 0 -0.073955639575587845 -0.023034130415246341 0 -0.072866604161473933 -0.020978370332235631 0 -0.075675464603735781 -0.021265376153280099 0 -0.071386899022682346 -0.018466943769939889 0 -0.072866604161473933 -0.020978370332235631 0 -0.075177527286053092 -0.01937175453558633 0 -0.079486642149504363 -0.02215541583223524 0 -0.073955639575587845 -0.023034130415246341 0 -0.075675464603735781 -0.021265376153280099 0 -0.072866604161473933 -0.020978370332235631 0 -0.075675464603735781 -0.021265376153280099 0 -0.075177527286053092 -0.01937175453558633 0 -0.075675464603735781 -0.021265376153280099 0 -0.078066067768276168 -0.020315593376716418 0 -0.075177527286053092 -0.01937175453558633 0 -0.079486642149504363 -0.02215541583223524 0 -0.075675464603735781 -0.021265376153280099 0 -0.078066067768276168 -0.020315593376716418 0 -0.078066067768276168 -0.020315593376716418 0 -0.077113745264106651 -0.016868059277999971 0 -0.075177527286053092 -0.01937175453558633 0 -0.074067968222820538 -0.01642596461434508 0 -0.077113745264106651 -0.016868059277999971 0 -0.075177527286053092 -0.01937175453558633 0 -0.074067968222820538 -0.01642596461434508 0 -0.077113745264106651 -0.016868059277999971 0 -0.075493799754548202 -0.013083601311628451 0 -0.078861556947535411 -0.01334686025626348 0 -0.077113745264106651 -0.016868059277999971 0 -0.075493799754548202 -0.013083601311628451 0 -0.075493799754548202 -0.013083601311628451 0 -0.072786647336589516 -0.010029240432107249 0 -0.077062003173608132 -0.0072942392970108362 0 -0.078861556947535411 -0.01334686025626348 0 -0.075493799754548202 -0.013083601311628451 0 -0.077062003173608132 -0.0072942392970108362 0 -0.072786647336589516 -0.010029240432107249 0 -0.068833286380685962 -0.010684910275239941 0 -0.069548490668443652 -0.0051861188613618759 0 -0.072786647336589516 -0.010029240432107249 0 -0.071565284642600896 -0.014005468659128731 0 -0.068833286380685962 -0.010684910275239941 0 -0.075493799754548202 -0.013083601311628451 0 -0.072786647336589516 -0.010029240432107249 0 -0.071565284642600896 -0.014005468659128731 0 -0.074067968222820538 -0.01642596461434508 0 -0.075493799754548202 -0.013083601311628451 0 -0.071565284642600896 -0.014005468659128731 0 -0.071565284642600896 -0.014005468659128731 0 -0.067680049478408 -0.014916706589401949 0 -0.068833286380685962 -0.010684910275239941 0 -0.067680049478408 -0.014916706589401949 0 -0.062997669888081309 -0.01000650404598839 0 -0.068833286380685962 -0.010684910275239941 0 -0.063710406556967497 -0.01711383215432449 0 -0.067680049478408 -0.014916706589401949 0 -0.062997669888081309 -0.01000650404598839 0 -0.062997669888081309 -0.01000650404598839 0 -0.068833286380685962 -0.010684910275239941 0 -0.069548490668443652 -0.0051861188613618759 0 -0.062997669888081309 -0.01000650404598839 0 -0.069548490668443652 -0.0051861188613618759 0 -0.061854179150853207 0.0001064690093241692 0 -0.069548490668443652 -0.0051861188613618759 0 -0.069146791006042943 0.0016798902546152059 0 -0.061854179150853207 0.0001064690093241692 0 -0.069548490668443652 -0.0051861188613618759 0 -0.074632322639879081 -0.00077634831607193431 0 -0.069146791006042943 0.0016798902546152059 0 -0.069548490668443652 -0.0051861188613618759 0 -0.077062003173608132 -0.0072942392970108362 0 -0.074632322639879081 -0.00077634831607193431 0 -0.072786647336589516 -0.010029240432107249 0 -0.069548490668443652 -0.0051861188613618759 0 -0.077062003173608132 -0.0072942392970108362 0 -0.079706050957266156 -0.059674269596838157 0 -0.079596346553385336 -0.040914842714536687 0 -0.10261200018752099 -0.05123802051204418 0 -0.079706050957266156 -0.059674269596838157 0 -0.079596346553385336 -0.040914842714536687 0 -0.10261200018752099 -0.05123802051204418 0 -0.079706050957266156 -0.059674269596838157 0 -0.095421607796595739 -0.032621831957992321 0 -0.079486642149504363 -0.02215541583223524 0 -0.079596346553385336 -0.040914842714536687 0 -0.079486642149504363 -0.02215541583223524 0 -0.079596346553385336 -0.040914842714536687 0 -0.095421607796595739 -0.032621831957992321 0 -0.10261200018752099 -0.05123802051204418 0 -0.079596346553385336 -0.040914842714536687 0 -0.071325246910900267 -0.03602675906317878 0 -0.069302147159630692 -0.05273993468353079 0 -0.059717415538427472 -0.044027960353144067 0 -0.079486642149504363 -0.02215541583223524 0 -0.079596346553385336 -0.040914842714536687 0 -0.071325246910900267 -0.03602675906317878 0 -0.079596346553385336 -0.040914842714536687 0 -0.071325246910900267 -0.03602675906317878 0 -0.069302147159630692 -0.05273993468353079 0 -0.071325246910900267 -0.03602675906317878 0 -0.059717415538427472 -0.044027960353144067 0 -0.059105624658530038 -0.034737116080632853 0 -0.064116730791888274 -0.028715662213213981 0 -0.071325246910900267 -0.03602675906317878 0 -0.059105624658530038 -0.034737116080632853 0 -0.079706050957266156 -0.059674269596838157 0 -0.079596346553385336 -0.040914842714536687 0 -0.069302147159630692 -0.05273993468353079 0 -0.065881316434799914 -0.064765912068857845 0 -0.079706050957266156 -0.059674269596838157 0 -0.065881316434799914 -0.064765912068857845 0 -0.079706050957266156 -0.059674269596838157 0 -0.069302147159630692 -0.05273993468353079 0 -0.065881316434799914 -0.064765912068857845 0 -0.046915329916180602 -0.052118906045466033 0 -0.059476848898936903 -0.067124674102462561 0 -0.065881316434799914 -0.064765912068857845 0 -0.069302147159630692 -0.05273993468353079 0 -0.046915329916180602 -0.052118906045466033 0 -0.065881316434799914 -0.064765912068857845 0 -0.046915329916180602 -0.052118906045466033 0 -0.069302147159630692 -0.05273993468353079 0 -0.046915329916180602 -0.052118906045466033 0 -0.059717415538427472 -0.044027960353144067 0 -0.046915329916180602 -0.052118906045466033 0 -0.059476848898936903 -0.067124674102462561 0 -0.049094585803705508 -0.062784387785864829 0 -0.059717415538427472 -0.044027960353144067 0 -0.059105624658530038 -0.034737116080632853 0 -0.050528834567478267 -0.04018022736765104 0 -0.059105624658530038 -0.034737116080632853 0 -0.051364848018467232 -0.031548488535391377 0 -0.057580672124018767 -0.027923598951217848 0 -0.059105624658530038 -0.034737116080632853 0 -0.051364848018467232 -0.031548488535391377 0 -0.050528834567478267 -0.04018022736765104 0 -0.051364848018467232 -0.031548488535391377 0 -0.050528834567478267 -0.04018022736765104 0 -0.044232690664000353 -0.033557453500119558 0 -0.046915329916180602 -0.052118906045466033 0 -0.059717415538427472 -0.044027960353144067 0 -0.050528834567478267 -0.04018022736765104 0 -0.046915329916180602 -0.052118906045466033 0 -0.041628042936122447 -0.040518231295865292 0 -0.027949343397561659 -0.039471900022073743 0 -0.046915329916180602 -0.052118906045466033 0 -0.027949343397561659 -0.039471900022073743 0 -0.046915329916180602 -0.052118906045466033 0 -0.050528834567478267 -0.04018022736765104 0 -0.041628042936122447 -0.040518231295865292 0 -0.050528834567478267 -0.04018022736765104 0 -0.041628042936122447 -0.040518231295865292 0 -0.044232690664000353 -0.033557453500119558 0 -0.041628042936122447 -0.040518231295865292 0 -0.044232690664000353 -0.033557453500119558 0 -0.036680109754763122 -0.034982376549129758 0 -0.044232690664000353 -0.033557453500119558 0 -0.036680109754763122 -0.034982376549129758 0 -0.037919182420191287 -0.028857293705977231 0 -0.041628042936122447 -0.040518231295865292 0 -0.036680109754763122 -0.034982376549129758 0 -0.027949343397561659 -0.039471900022073743 0 -0.036680109754763122 -0.034982376549129758 0 -0.031671289355939658 -0.032507004221613282 0 -0.027949343397561659 -0.039471900022073743 0 -0.036680109754763122 -0.034982376549129758 0 -0.031671289355939658 -0.032507004221613282 0 -0.037919182420191287 -0.028857293705977231 0 -0.046915329916180602 -0.052118906045466033 0 -0.037608269641828833 -0.061780569625016678 0 -0.027949343397561659 -0.039471900022073743 0 -0.037608269641828833 -0.061780569625016678 0 -0.027949343397561659 -0.039471900022073743 0 -0.046915329916180602 -0.052118906045466033 0 -0.037608269641828833 -0.061780569625016678 0 -0.049094585803705508 -0.062784387785864829 0 -0.051381789537699042 -0.0047793937464329118 0 -0.04325606691645726 -0.0040175228461035491 0 -0.047442606602610432 0.0044030920321683816 0 -0.051381789537699042 -0.0047793937464329118 0 -0.047143366834408243 -0.009821902846396148 0 -0.04325606691645726 -0.0040175228461035491 0 -0.051381789537699042 -0.0047793937464329118 0 -0.057239564442968467 -0.0045213709031247454 0 -0.055050355264087809 0.0010777032587787399 0 -0.057239564442968467 -0.0045213709031247454 0 -0.061854179150853207 0.0001064690093241692 0 -0.055050355264087809 0.0010777032587787399 0 -0.062997669888081309 -0.01000650404598839 0 -0.057239564442968467 -0.0045213709031247454 0 -0.061854179150853207 0.0001064690093241692 0 -0.051381789537699042 -0.0047793937464329118 0 -0.057239564442968467 -0.0045213709031247454 0 -0.057136329799097198 -0.0096645885328312132 0 -0.062997669888081309 -0.01000650404598839 0 -0.057239564442968467 -0.0045213709031247454 0 -0.057136329799097198 -0.0096645885328312132 0 -0.062997669888081309 -0.01000650404598839 0 -0.057136329799097198 -0.0096645885328312132 0 -0.058517505999778043 -0.015414937413342629 0 -0.063710406556967497 -0.01711383215432449 0 -0.062997669888081309 -0.01000650404598839 0 -0.058517505999778043 -0.015414937413342629 0 -0.057136329799097198 -0.0096645885328312132 0 -0.058517505999778043 -0.015414937413342629 0 -0.052534538441233028 -0.01308567594400393 0 -0.051381789537699042 -0.0047793937464329118 0 -0.057136329799097198 -0.0096645885328312132 0 -0.052534538441233028 -0.01308567594400393 0 -0.051381789537699042 -0.0047793937464329118 0 -0.052534538441233028 -0.01308567594400393 0 -0.047143366834408243 -0.009821902846396148 0 -0.052534538441233028 -0.01308567594400393 0 -0.047143366834408243 -0.009821902846396148 0 -0.047175793768670871 -0.017303971813810541 0 -0.047175793768670871 -0.017303971813810541 0 -0.053852444707744813 -0.021529261311210132 0 -0.046216146167872223 -0.025343514137872451 0 -0.052534538441233028 -0.01308567594400393 0 -0.047175793768670871 -0.017303971813810541 0 -0.053852444707744813 -0.021529261311210132 0 -0.058517505999778043 -0.015414937413342629 0 -0.052534538441233028 -0.01308567594400393 0 -0.053852444707744813 -0.021529261311210132 0 -0.063710406556967497 -0.01711383215432449 0 -0.058517505999778043 -0.015414937413342629 0 -0.0606224431082793 -0.022168106557960639 0 -0.058517505999778043 -0.015414937413342629 0 -0.053852444707744813 -0.021529261311210132 0 -0.0606224431082793 -0.022168106557960639 0 -0.053852444707744813 -0.021529261311210132 0 -0.0606224431082793 -0.022168106557960639 0 -0.057580672124018767 -0.027923598951217848 0 -0.064116730791888274 -0.028715662213213981 0 -0.0606224431082793 -0.022168106557960639 0 -0.057580672124018767 -0.027923598951217848 0 -0.064116730791888274 -0.028715662213213981 0 -0.059105624658530038 -0.034737116080632853 0 -0.057580672124018767 -0.027923598951217848 0 -0.051364848018467232 -0.031548488535391377 0 -0.053852444707744813 -0.021529261311210132 0 -0.046216146167872223 -0.025343514137872451 0 -0.051364848018467232 -0.031548488535391377 0 -0.044232690664000353 -0.033557453500119558 0 -0.046216146167872223 -0.025343514137872451 0 -0.051364848018467232 -0.031548488535391377 0 -0.053852444707744813 -0.021529261311210132 0 -0.057580672124018767 -0.027923598951217848 0 -0.044232690664000353 -0.033557453500119558 0 -0.046216146167872223 -0.025343514137872451 0 -0.037919182420191287 -0.028857293705977231 0 -0.046216146167872223 -0.025343514137872451 0 -0.037919182420191287 -0.028857293705977231 0 -0.04036150886580607 -0.01922245018388858 0 -0.037919182420191287 -0.028857293705977231 0 -0.034759568456069978 -0.022938719717331611 0 -0.04036150886580607 -0.01922245018388858 0 -0.037919182420191287 -0.028857293705977231 0 -0.034759568456069978 -0.022938719717331611 0 -0.029278644432709042 -0.026292627742660359 0 -0.031671289355939658 -0.032507004221613282 0 -0.037919182420191287 -0.028857293705977231 0 -0.029278644432709042 -0.026292627742660359 0 -0.034759568456069978 -0.022938719717331611 0 -0.04036150886580607 -0.01922245018388858 0 -0.031048934757751449 -0.017771957418864351 0 -0.04036150886580607 -0.01922245018388858 0 -0.034066206104214999 -0.011691404741361509 0 -0.031048934757751449 -0.017771957418864351 0 -0.034759568456069978 -0.022938719717331611 0 -0.031048934757751449 -0.017771957418864351 0 -0.029278644432709042 -0.026292627742660359 0 -0.047175793768670871 -0.017303971813810541 0 -0.04036150886580607 -0.01922245018388858 0 -0.040731466667068103 -0.01165924050043572 0 -0.047175793768670871 -0.017303971813810541 0 -0.046216146167872223 -0.025343514137872451 0 -0.04036150886580607 -0.01922245018388858 0 -0.047143366834408243 -0.009821902846396148 0 -0.047175793768670871 -0.017303971813810541 0 -0.040731466667068103 -0.01165924050043572 0 -0.047143366834408243 -0.009821902846396148 0 -0.040731466667068103 -0.01165924050043572 0 -0.04325606691645726 -0.0040175228461035491 0 -0.04036150886580607 -0.01922245018388858 0 -0.040731466667068103 -0.01165924050043572 0 -0.034066206104214999 -0.011691404741361509 0 -0.034066206104214999 -0.011691404741361509 0 -0.034843064896145547 -0.0053333955955667933 0 -0.027257330414840689 -0.010611146979813911 0 -0.040731466667068103 -0.01165924050043572 0 -0.034066206104214999 -0.011691404741361509 0 -0.034843064896145547 -0.0053333955955667933 0 -0.034843064896145547 -0.0053333955955667933 0 -0.024880619595713981 -0.00035602396182286117 0 -0.037994106960812207 0.0030857035800418938 0 -0.034843064896145547 -0.0053333955955667933 0 -0.04325606691645726 -0.0040175228461035491 0 -0.037994106960812207 0.0030857035800418938 0 -0.040731466667068103 -0.01165924050043572 0 -0.034843064896145547 -0.0053333955955667933 0 -0.04325606691645726 -0.0040175228461035491 0 -0.024880619595713981 -0.00035602396182286117 0 -0.0147421469897197 -0.012384041570326619 0 -0.0078605566542857899 -0.00046063017767232288 0 -0.024880619595713981 -0.00035602396182286117 0 -0.027257330414840689 -0.010611146979813911 0 -0.0147421469897197 -0.012384041570326619 0 -0.034843064896145547 -0.0053333955955667933 0 -0.024880619595713981 -0.00035602396182286117 0 -0.027257330414840689 -0.010611146979813911 0 -0.034066206104214999 -0.011691404741361509 0 -0.027257330414840689 -0.010611146979813911 0 -0.031048934757751449 -0.017771957418864351 0 -0.027257330414840689 -0.010611146979813911 0 -0.02202853612638471 -0.020490230700826308 0 -0.0147421469897197 -0.012384041570326619 0 -0.02202853612638471 -0.020490230700826308 0 -0.01089912658788021 -0.028102378353347779 0 -0.0147421469897197 -0.012384041570326619 0 -0.027257330414840689 -0.010611146979813911 0 -0.02202853612638471 -0.020490230700826308 0 -0.031048934757751449 -0.017771957418864351 0 -0.02202853612638471 -0.020490230700826308 0 -0.031048934757751449 -0.017771957418864351 0 -0.029278644432709042 -0.026292627742660359 0 -0.027382038630717361 -0.030238295385303961 0 -0.022529410869999079 -0.02707120317525669 0 -0.026048809864221669 -0.035082346401685512 0 -0.02202853612638471 -0.020490230700826308 0 -0.029278644432709042 -0.026292627742660359 0 -0.022529410869999079 -0.02707120317525669 0 -0.031671289355939658 -0.032507004221613282 0 -0.029278644432709042 -0.026292627742660359 0 -0.027382038630717361 -0.030238295385303961 0 -0.029278644432709042 -0.026292627742660359 0 -0.027382038630717361 -0.030238295385303961 0 -0.022529410869999079 -0.02707120317525669 0 -0.02202853612638471 -0.020490230700826308 0 -0.022529410869999079 -0.02707120317525669 0 -0.01089912658788021 -0.028102378353347779 0 -0.022529410869999079 -0.02707120317525669 0 -0.01089912658788021 -0.028102378353347779 0 -0.026048809864221669 -0.035082346401685512 0 -0.01089912658788021 -0.028102378353347779 0 0.0061510902218013946 -0.016732856684622179 0 -0.01089912658788021 -0.028102378353347779 0 -0.0147421469897197 -0.012384041570326619 0 0.0061510902218013946 -0.016732856684622179 0 -0.01089912658788021 -0.028102378353347779 0 0.0061510902218013946 -0.016732856684622179 0 0.0044416444853491791 -0.042406610406893218 0 -0.0147421469897197 -0.012384041570326619 0 -0.0078605566542857899 -0.00046063017767232288 0 0.0061510902218013946 -0.016732856684622179 0 -0.037608269641828833 -0.061780569625016678 0 -0.020820706790168359 -0.054898325299920531 0 -0.019342402458647139 -0.067658343687861167 0 -0.037608269641828833 -0.061780569625016678 0 -0.020820706790168359 -0.054898325299920531 0 -0.027949343397561659 -0.039471900022073743 0 -0.020820706790168359 -0.054898325299920531 0 -0.0070986439857384188 -0.060767224409321252 0 -0.019342402458647139 -0.067658343687861167 0 -0.01089912658788021 -0.028102378353347779 0 -0.027949343397561659 -0.039471900022073743 0 -0.01210487446706557 -0.044813588755330147 0 -0.020820706790168359 -0.054898325299920531 0 -0.027949343397561659 -0.039471900022073743 0 -0.01210487446706557 -0.044813588755330147 0 -0.01089912658788021 -0.028102378353347779 0 -0.027949343397561659 -0.039471900022073743 0 -0.026048809864221669 -0.035082346401685512 0 -0.01089912658788021 -0.028102378353347779 0 -0.027949343397561659 -0.039471900022073743 0 -0.031671289355939658 -0.032507004221613282 0 -0.027382038630717361 -0.030238295385303961 0 -0.026048809864221669 -0.035082346401685512 0 -0.031671289355939658 -0.032507004221613282 0 -0.027949343397561659 -0.039471900022073743 0 -0.026048809864221669 -0.035082346401685512 0 -0.027949343397561659 -0.039471900022073743 0 -0.026048809864221669 -0.035082346401685512 0 -0.01089912658788021 -0.028102378353347779 0 -0.01210487446706557 -0.044813588755330147 0 0.0044416444853491791 -0.042406610406893218 0 -0.020820706790168359 -0.054898325299920531 0 -0.01210487446706557 -0.044813588755330147 0 -0.0070986439857384188 -0.060767224409321252 0 -0.0062574754781501464 -0.066165341881438272 0 0.0044416444853491791 -0.042406610406893218 0 -0.0070986439857384188 -0.060767224409321252 0 -0.0062574754781501464 -0.066165341881438272 0 0.0044416444853491791 -0.042406610406893218 0 -0.01210487446706557 -0.044813588755330147 0 -0.0070986439857384188 -0.060767224409321252 0 0.0044416444853491791 -0.042406610406893218 0 -0.01028958877322941 -0.075119152791076255 0 -0.01462007858013578 -0.084735545992247974 0 -0.019342402458647139 -0.067658343687861167 0 -0.0070986439857384188 -0.060767224409321252 0 -0.0062574754781501464 -0.066165341881438272 0 -0.0062574754781501464 -0.066165341881438272 0 -0.0048113842628591426 -0.075445492273546855 0 -0.0062574754781501464 -0.066165341881438272 0 -0.0048113842628591426 -0.075445492273546855 0 -0.01028958877322941 -0.075119152791076255 0 -0.0048113842628591426 -0.075445492273546855 0 -0.01028958877322941 -0.075119152791076255 0 -0.0062574754781501464 -0.066165341881438272 0 -0.01028958877322941 -0.075119152791076255 0 -0.0062574754781501464 -0.066165341881438272 0 -0.01028958877322941 -0.075119152791076255 0 -0.019342402458647139 -0.067658343687861167 0 -0.0070986439857384188 -0.060767224409321252 0 -0.0062574754781501464 -0.066165341881438272 0 -0.019342402458647139 -0.067658343687861167 0 -0.0048113842628591426 -0.075445492273546855 0 -0.0094020972900166165 -0.095032591478015155 0 -0.00050519907656484302 -0.1030800188666879 0 -0.0048113842628591426 -0.075445492273546855 0 -0.00050519907656484302 -0.1030800188666879 0 -0.0048113842628591426 -0.075445492273546855 0 -0.01462007858013578 -0.084735545992247974 0 -0.0094020972900166165 -0.095032591478015155 0 -0.0048113842628591426 -0.075445492273546855 0 -0.01028958877322941 -0.075119152791076255 0 -0.01462007858013578 -0.084735545992247974 0 -0.01028958877322941 -0.075119152791076255 0 -0.01462007858013578 -0.084735545992247974 0 -0.01462007858013578 -0.084735545992247974 0 -0.0094020972900166165 -0.095032591478015155 0 -0.01433864707525026 -0.098897150298254077 0 -0.01462007858013578 -0.084735545992247974 0 -0.03304318729884928 -0.093010433502754411 0 -0.02298268168212101 -0.1033057501030579 0 -0.01462007858013578 -0.084735545992247974 0 -0.030376226773111459 -0.078254826407167924 0 -0.03304318729884928 -0.093010433502754411 0 -0.037608269641828833 -0.061780569625016678 0 -0.030376226773111459 -0.078254826407167924 0 -0.019342402458647139 -0.067658343687861167 0 -0.01462007858013578 -0.084735545992247974 0 -0.030376226773111459 -0.078254826407167924 0 -0.019342402458647139 -0.067658343687861167 0 -0.037608269641828833 -0.061780569625016678 0 -0.047267195886096257 -0.084089239227959384 0 -0.050313991944036907 -0.07045185582754325 0 -0.037608269641828833 -0.061780569625016678 0 -0.047267195886096257 -0.084089239227959384 0 -0.037608269641828833 -0.061780569625016678 0 -0.030376226773111459 -0.078254826407167924 0 -0.047267195886096257 -0.084089239227959384 0 -0.037608269641828833 -0.061780569625016678 0 -0.049094585803705508 -0.062784387785864829 0 -0.050313991944036907 -0.07045185582754325 0 -0.030376226773111459 -0.078254826407167924 0 -0.03304318729884928 -0.093010433502754411 0 -0.047267195886096257 -0.084089239227959384 0 -0.03304318729884928 -0.093010433502754411 0 -0.047267195886096257 -0.084089239227959384 0 -0.043841980568274437 -0.096936341047594451 0 -0.047267195886096257 -0.084089239227959384 0 -0.060189477682686482 -0.087723935138946954 0 -0.05692612213036366 -0.106397908830902 0 -0.047267195886096257 -0.084089239227959384 0 -0.060189477682686482 -0.087723935138946954 0 -0.058123059489617053 -0.076480408396412819 0 -0.065059717802934666 -0.079302302655448395 0 -0.060189477682686482 -0.087723935138946954 0 -0.058123059489617053 -0.076480408396412819 0 -0.063929853442850362 -0.072683386038222747 0 -0.065059717802934666 -0.079302302655448395 0 -0.058123059489617053 -0.076480408396412819 0 -0.058123059489617053 -0.076480408396412819 0 -0.059476848898936903 -0.067124674102462561 0 -0.050313991944036907 -0.07045185582754325 0 -0.063929853442850362 -0.072683386038222747 0 -0.058123059489617053 -0.076480408396412819 0 -0.059476848898936903 -0.067124674102462561 0 -0.059476848898936903 -0.067124674102462561 0 -0.049094585803705508 -0.062784387785864829 0 -0.050313991944036907 -0.07045185582754325 0 -0.047267195886096257 -0.084089239227959384 0 -0.058123059489617053 -0.076480408396412819 0 -0.050313991944036907 -0.07045185582754325 0 -0.05692612213036366 -0.106397908830902 0 -0.046003614737837407 -0.11871477076245281 0 -0.066585048374631195 -0.12870657843384459 0 -0.05692612213036366 -0.106397908830902 0 -0.066585048374631195 -0.12870657843384459 0 -0.046003614737837407 -0.11871477076245281 0 -0.066585048374631195 -0.12870657843384459 0 -0.05692612213036366 -0.106397908830902 0 -0.038131416957788593 -0.1042477826287621 0 -0.046003614737837407 -0.11871477076245281 0 -0.047267195886096257 -0.084089239227959384 0 -0.05692612213036366 -0.106397908830902 0 -0.043841980568274437 -0.096936341047594451 0 -0.065632122727269343 -0.097241677229118556 0 -0.060189477682686482 -0.087723935138946954 0 -0.05692612213036366 -0.106397908830902 0 -0.047267195886096257 -0.084089239227959384 0 -0.05692612213036366 -0.106397908830902 0 -0.05692612213036366 -0.106397908830902 0 -0.043841980568274437 -0.096936341047594451 0 -0.038131416957788593 -0.1042477826287621 0 -0.03304318729884928 -0.093010433502754411 0 -0.043841980568274437 -0.096936341047594451 0 -0.038131416957788593 -0.1042477826287621 0 -0.03304318729884928 -0.093010433502754411 0 -0.038131416957788593 -0.1042477826287621 0 -0.02298268168212101 -0.1033057501030579 0 -0.036528151656990457 -0.12376006449302759 0 -0.025422181101043381 -0.10872296309106171 0 -0.036754652129972372 -0.13388812966905281 0 -0.038131416957788593 -0.1042477826287621 0 -0.046003614737837407 -0.11871477076245281 0 -0.025422181101043381 -0.10872296309106171 0 -0.046003614737837407 -0.11871477076245281 0 -0.025422181101043381 -0.10872296309106171 0 -0.046003614737837407 -0.11871477076245281 0 -0.036528151656990457 -0.12376006449302759 0 -0.025422181101043381 -0.10872296309106171 0 -0.046003614737837407 -0.11871477076245281 0 -0.036528151656990457 -0.12376006449302759 0 -0.04662598924457674 -0.13163293957287109 0 -0.025422181101043381 -0.10872296309106171 0 -0.0257789820370312 -0.12628612711485429 0 -0.036754652129972372 -0.13388812966905281 0 -0.0202937414829981 -0.1197680442123264 0 -0.025422181101043381 -0.10872296309106171 0 -0.0257789820370312 -0.12628612711485429 0 -0.025422181101043381 -0.10872296309106171 0 -0.036754652129972372 -0.13388812966905281 0 -0.0202937414829981 -0.1197680442123264 0 -0.0201772428921199 -0.10617666749490751 0 -0.0081881283911954504 -0.118445606477368 0 -0.0202937414829981 -0.1197680442123264 0 -0.025422181101043381 -0.10872296309106171 0 -0.0201772428921199 -0.10617666749490751 0 -0.01462007858013578 -0.084735545992247974 0 -0.02298268168212101 -0.1033057501030579 0 -0.01462007858013578 -0.084735545992247974 0 -0.02298268168212101 -0.1033057501030579 0 -0.01433864707525026 -0.098897150298254077 0 -0.03304318729884928 -0.093010433502754411 0 -0.02298268168212101 -0.1033057501030579 0 -0.038131416957788593 -0.1042477826287621 0 -0.025422181101043381 -0.10872296309106171 0 -0.02298268168212101 -0.1033057501030579 0 -0.025422181101043381 -0.10872296309106171 0 -0.02298268168212101 -0.1033057501030579 0 -0.017279143181744751 -0.1047697074439411 0 -0.02298268168212101 -0.1033057501030579 0 -0.01433864707525026 -0.098897150298254077 0 -0.025422181101043381 -0.10872296309106171 0 -0.0201772428921199 -0.10617666749490751 0 -0.025422181101043381 -0.10872296309106171 0 -0.0201772428921199 -0.10617666749490751 0 -0.02298268168212101 -0.1033057501030579 0 -0.0201772428921199 -0.10617666749490751 0 -0.017279143181744751 -0.1047697074439411 0 -0.0201772428921199 -0.10617666749490751 0 -0.017279143181744751 -0.1047697074439411 0 -0.02298268168212101 -0.1033057501030579 0 -0.0201772428921199 -0.10617666749490751 0 -0.02298268168212101 -0.1033057501030579 0 -0.0094020972900166165 -0.095032591478015155 0 -0.01433864707525026 -0.098897150298254077 0 -0.0091181569718572636 -0.10405307848451981 0 -0.017279143181744751 -0.1047697074439411 0 -0.0091181569718572636 -0.10405307848451981 0 -0.0081881283911954504 -0.118445606477368 0 -0.017279143181744751 -0.1047697074439411 0 -0.01433864707525026 -0.098897150298254077 0 -0.0091181569718572636 -0.10405307848451981 0 -0.0091181569718572636 -0.10405307848451981 0 -0.00050519907656484302 -0.1030800188666879 0 -0.0081881283911954504 -0.118445606477368 0 -0.0094020972900166165 -0.095032591478015155 0 -0.0091181569718572636 -0.10405307848451981 0 -0.00050519907656484302 -0.1030800188666879 0 -0.00050519907656484302 -0.1030800188666879 0 -0.0081881283911954504 -0.118445606477368 0 0.003800986109728721 -0.1307145454598288 0 -0.0202937414829981 -0.1197680442123264 0 -0.0081881283911954504 -0.118445606477368 0 -0.0089898936059314375 -0.13084950001694601 0 -0.0201772428921199 -0.10617666749490751 0 -0.017279143181744751 -0.1047697074439411 0 -0.0081881283911954504 -0.118445606477368 0 -0.0201772428921199 -0.10617666749490751 0 -0.0081881283911954504 -0.118445606477368 0 -0.0081881283911954504 -0.118445606477368 0 0.003800986109728721 -0.1307145454598288 0 -0.0048513909474104822 -0.14039274635042809 0 -0.00099965877895308438 -0.1488051650987488 0 0.003800986109728721 -0.1307145454598288 0 -0.0081881283911954504 -0.118445606477368 0 -0.0089898936059314375 -0.13084950001694601 0 0.003800986109728721 -0.1307145454598288 0 -0.0048513909474104822 -0.14039274635042809 0 -0.0089898936059314375 -0.13084950001694601 0 0.003800986109728721 -0.1307145454598288 0 -0.01291655539011805 -0.14057808000275901 0 -0.0089898936059314375 -0.13084950001694601 0 -0.018961081167006798 -0.13254924091170359 0 -0.0048513909474104822 -0.14039274635042809 0 -0.01291655539011805 -0.14057808000275901 0 -0.0089898936059314375 -0.13084950001694601 0 -0.0202937414829981 -0.1197680442123264 0 -0.018961081167006798 -0.13254924091170359 0 -0.0257789820370312 -0.12628612711485429 0 -0.0202937414829981 -0.1197680442123264 0 -0.0089898936059314375 -0.13084950001694601 0 -0.018961081167006798 -0.13254924091170359 0 -0.018961081167006798 -0.13254924091170359 0 -0.027463254304135109 -0.13650225769012761 0 -0.020703645548638201 -0.14191869874217899 0 -0.01291655539011805 -0.14057808000275901 0 -0.018961081167006798 -0.13254924091170359 0 -0.020703645548638201 -0.14191869874217899 0 -0.027463254304135109 -0.13650225769012761 0 -0.027994784895663021 -0.14376712035145561 0 -0.033868926773102589 -0.14099207800810901 0 -0.018961081167006798 -0.13254924091170359 0 -0.027463254304135109 -0.13650225769012761 0 -0.0257789820370312 -0.12628612711485429 0 -0.027463254304135109 -0.13650225769012761 0 -0.0257789820370312 -0.12628612711485429 0 -0.036754652129972372 -0.13388812966905281 0 -0.024072921671949229 -0.1512684500115048 0 -0.02869852620220141 -0.16100633474849699 0 -0.033673414741908173 -0.15013552490891921 0 -0.024072921671949229 -0.1512684500115048 0 -0.027994784895663021 -0.14376712035145561 0 -0.033673414741908173 -0.15013552490891921 0 -0.024072921671949229 -0.1512684500115048 0 -0.027994784895663021 -0.14376712035145561 0 -0.020703645548638201 -0.14191869874217899 0 -0.027463254304135109 -0.13650225769012761 0 -0.027994784895663021 -0.14376712035145561 0 -0.020703645548638201 -0.14191869874217899 0 -0.01291655539011805 -0.14057808000275901 0 -0.020703645548638201 -0.14191869874217899 0 -0.01590037402896451 -0.14906381334361721 0 -0.024072921671949229 -0.1512684500115048 0 -0.020703645548638201 -0.14191869874217899 0 -0.01590037402896451 -0.14906381334361721 0 -0.024072921671949229 -0.1512684500115048 0 -0.01590037402896451 -0.14906381334361721 0 -0.01505133423359295 -0.15863561199961609 0 -0.01590037402896451 -0.14906381334361721 0 -0.0080929470427568585 -0.1486944806516802 0 -0.01505133423359295 -0.15863561199961609 0 -0.0080929470427568585 -0.1486944806516802 0 -0.0052788150010250542 -0.15630072898752759 0 -0.01505133423359295 -0.15863561199961609 0 -0.01291655539011805 -0.14057808000275901 0 -0.01590037402896451 -0.14906381334361721 0 -0.0080929470427568585 -0.1486944806516802 0 -0.0048513909474104822 -0.14039274635042809 0 -0.01291655539011805 -0.14057808000275901 0 -0.0080929470427568585 -0.1486944806516802 0 -0.0048513909474104822 -0.14039274635042809 0 -0.0080929470427568585 -0.1486944806516802 0 -0.00099965877895308438 -0.1488051650987488 0 -0.00099965877895308438 -0.1488051650987488 0 -0.0052788150010250542 -0.15630072898752759 0 0.0003014096489009662 -0.15827909213919711 0 -0.0080929470427568585 -0.1486944806516802 0 -0.00099965877895308438 -0.1488051650987488 0 -0.0052788150010250542 -0.15630072898752759 0 -0.0052788150010250542 -0.15630072898752759 0 -0.0053703566761962793 -0.162041345540028 0 0.0003014096489009662 -0.15827909213919711 0 -0.0053703566761962793 -0.162041345540028 0 0.0003014096489009662 -0.15827909213919711 0 0.0039027134903483682 -0.1655877358442541 0 -0.0053703566761962793 -0.162041345540028 0 -0.01170134061783454 -0.1704638064009304 0 0.0039027134903483682 -0.1655877358442541 0 -0.0053703566761962793 -0.162041345540028 0 -0.01170134061783454 -0.1704638064009304 0 -0.01505133423359295 -0.15863561199961609 0 -0.0052788150010250542 -0.15630072898752759 0 -0.0053703566761962793 -0.162041345540028 0 -0.01505133423359295 -0.15863561199961609 0 -0.015435746805596539 -0.18637973487241941 0 0.0039027134903483682 -0.1655877358442541 0 -0.015435746805596539 -0.18637973487241941 0 0.00066715547760964802 -0.17832489532098381 0 0.0028164378603697019 -0.18575172484963451 0 -0.01170134061783454 -0.1704638064009304 0 -0.015435746805596539 -0.18637973487241941 0 0.0039027134903483682 -0.1655877358442541 0 -0.015435746805596539 -0.18637973487241941 0 0.0039027134903483682 -0.1655877358442541 0 0.00066715547760964802 -0.17832489532098381 0 -0.015435746805596539 -0.18637973487241941 0 -0.030604706448980511 -0.1739606523948076 0 -0.02170363298012155 -0.16766261651502309 0 -0.01170134061783454 -0.1704638064009304 0 -0.015435746805596539 -0.18637973487241941 0 -0.02170363298012155 -0.16766261651502309 0 -0.015435746805596539 -0.18637973487241941 0 -0.030604706448980511 -0.1739606523948076 0 -0.034150497549535919 -0.1891588061903812 0 -0.015435746805596539 -0.18637973487241941 0 -0.030604706448980511 -0.1739606523948076 0 -0.01505133423359295 -0.15863561199961609 0 -0.02170363298012155 -0.16766261651502309 0 -0.02869852620220141 -0.16100633474849699 0 -0.024072921671949229 -0.1512684500115048 0 -0.01505133423359295 -0.15863561199961609 0 -0.02869852620220141 -0.16100633474849699 0 -0.01170134061783454 -0.1704638064009304 0 -0.01505133423359295 -0.15863561199961609 0 -0.02170363298012155 -0.16766261651502309 0 -0.030604706448980511 -0.1739606523948076 0 -0.02170363298012155 -0.16766261651502309 0 -0.02869852620220141 -0.16100633474849699 0 -0.030604706448980511 -0.1739606523948076 0 -0.02869852620220141 -0.16100633474849699 0 -0.045773666092364433 -0.16154156991719579 0 -0.02869852620220141 -0.16100633474849699 0 -0.045773666092364433 -0.16154156991719579 0 -0.033673414741908173 -0.15013552490891921 0 -0.030604706448980511 -0.1739606523948076 0 -0.045773666092364433 -0.16154156991719579 0 -0.030604706448980511 -0.1739606523948076 0 -0.045773666092364433 -0.16154156991719579 0 -0.052002289186797307 -0.18699464328292081 0 -0.030604706448980511 -0.1739606523948076 0 -0.052002289186797307 -0.18699464328292081 0 -0.034150497549535919 -0.1891588061903812 0 -0.052002289186797307 -0.18699464328292081 0 -0.060305428453466127 -0.16845970066786739 0 -0.072262670056362763 -0.18094976456976181 0 -0.045773666092364433 -0.16154156991719579 0 -0.052002289186797307 -0.18699464328292081 0 -0.060305428453466127 -0.16845970066786739 0 -0.045773666092364433 -0.16154156991719579 0 -0.052002289186797307 -0.18699464328292081 0 -0.045773666092364433 -0.16154156991719579 0 -0.060305428453466127 -0.16845970066786739 0 -0.058595597533760473 -0.15104403891727461 0 -0.045773666092364433 -0.16154156991719579 0 -0.058595597533760473 -0.15104403891727461 0 -0.058595597533760473 -0.15104403891727461 0 -0.053412790337615701 -0.13937991305674249 0 -0.041150908874677233 -0.14265081720511169 0 -0.045773666092364433 -0.16154156991719579 0 -0.058595597533760473 -0.15104403891727461 0 -0.041150908874677233 -0.14265081720511169 0 -0.058595597533760473 -0.15104403891727461 0 -0.061836737218624087 -0.1392467778113938 0 -0.053412790337615701 -0.13937991305674249 0 -0.061836737218624087 -0.1392467778113938 0 -0.05489283598265704 -0.13153619592746091 0 -0.053412790337615701 -0.13937991305674249 0 -0.061836737218624087 -0.1392467778113938 0 -0.05489283598265704 -0.13153619592746091 0 -0.066585048374631195 -0.12870657843384459 0 -0.046003614737837407 -0.11871477076245281 0 -0.05489283598265704 -0.13153619592746091 0 -0.066585048374631195 -0.12870657843384459 0 -0.046003614737837407 -0.11871477076245281 0 -0.05489283598265704 -0.13153619592746091 0 -0.04662598924457674 -0.13163293957287109 0 -0.053412790337615701 -0.13937991305674249 0 -0.04662598924457674 -0.13163293957287109 0 -0.041150908874677233 -0.14265081720511169 0 -0.05489283598265704 -0.13153619592746091 0 -0.053412790337615701 -0.13937991305674249 0 -0.04662598924457674 -0.13163293957287109 0 -0.036528151656990457 -0.12376006449302759 0 -0.036754652129972372 -0.13388812966905281 0 -0.041150908874677233 -0.14265081720511169 0 -0.036528151656990457 -0.12376006449302759 0 -0.041150908874677233 -0.14265081720511169 0 -0.036528151656990457 -0.12376006449302759 0 -0.04662598924457674 -0.13163293957287109 0 -0.041150908874677233 -0.14265081720511169 0 -0.027463254304135109 -0.13650225769012761 0 -0.036754652129972372 -0.13388812966905281 0 -0.033868926773102589 -0.14099207800810901 0 -0.036754652129972372 -0.13388812966905281 0 -0.033868926773102589 -0.14099207800810901 0 -0.041150908874677233 -0.14265081720511169 0 -0.045773666092364433 -0.16154156991719579 0 -0.041150908874677233 -0.14265081720511169 0 -0.027994784895663021 -0.14376712035145561 0 -0.033868926773102589 -0.14099207800810901 0 -0.033673414741908173 -0.15013552490891921 0 -0.045773666092364433 -0.16154156991719579 0 -0.033673414741908173 -0.15013552490891921 0 -0.041150908874677233 -0.14265081720511169 0 -0.033868926773102589 -0.14099207800810901 0 -0.033673414741908173 -0.15013552490891921 0 -0.041150908874677233 -0.14265081720511169 0 -0.02671910463718637 -0.25361334643031169 0 -0.02524851288041547 -0.2404509875535713 0 -0.037026263035115803 -0.2455232766625722 0 -0.02524851288041547 -0.2404509875535713 0 -0.017653692761977959 -0.24750206074588749 0 -0.0144808865699067 -0.23713156620209161 0 -0.02671910463718637 -0.25361334643031169 0 -0.02524851288041547 -0.2404509875535713 0 -0.017653692761977959 -0.24750206074588749 0 -0.017653692761977959 -0.24750206074588749 0 -0.0050609087585187914 -0.24448965595804831 0 -0.0144808865699067 -0.23713156620209161 0 -0.0050609087585187914 -0.24448965595804831 0 -0.0072280375481045024 -0.23276434443998831 0 0.0043532972358198471 -0.23289883483909901 0 -0.0050609087585187914 -0.24448965595804831 0 -0.0144808865699067 -0.23713156620209161 0 -0.0072280375481045024 -0.23276434443998831 0 -0.0144808865699067 -0.23713156620209161 0 -0.0072280375481045024 -0.23276434443998831 0 -0.020482474519229479 -0.2236017116935326 0 -0.00046921512868739422 -0.22569995350716959 0 -0.020482474519229479 -0.2236017116935326 0 0.0052132563045326416 -0.217943300132031 0 -0.020482474519229479 -0.2236017116935326 0 0.0052132563045326416 -0.217943300132031 0 -0.0072280375481045024 -0.23276434443998831 0 -0.00046921512868739422 -0.22569995350716959 0 -0.020482474519229479 -0.2236017116935326 0 -0.0072280375481045024 -0.23276434443998831 0 -0.00046921512868739422 -0.22569995350716959 0 0.0043532972358198471 -0.23289883483909901 0 -0.02524851288041547 -0.2404509875535713 0 -0.020482474519229479 -0.2236017116935326 0 -0.03418504585759493 -0.23438418031812189 0 -0.020482474519229479 -0.2236017116935326 0 -0.03094779218312025 -0.21631682165211111 0 -0.039567378369605673 -0.22064738725025829 0 -0.02524851288041547 -0.2404509875535713 0 -0.0144808865699067 -0.23713156620209161 0 -0.020482474519229479 -0.2236017116935326 0 -0.020482474519229479 -0.2236017116935326 0 -0.025941720447919269 -0.21059366789021941 0 -0.01533608103291358 -0.20434496000532509 0 -0.020482474519229479 -0.2236017116935326 0 -0.03094779218312025 -0.21631682165211111 0 -0.025941720447919269 -0.21059366789021941 0 -0.025941720447919269 -0.21059366789021941 0 -0.025275367445693291 -0.19695893195717409 0 -0.037799595395726603 -0.21042451977443399 0 -0.025941720447919269 -0.21059366789021941 0 -0.01533608103291358 -0.20434496000532509 0 -0.025275367445693291 -0.19695893195717409 0 -0.020482474519229479 -0.2236017116935326 0 -0.0051387385167336562 -0.21108637924508611 0 -0.01533608103291358 -0.20434496000532509 0 -0.020482474519229479 -0.2236017116935326 0 -0.0051387385167336562 -0.21108637924508611 0 0.0052132563045326416 -0.217943300132031 0 -0.0051387385167336562 -0.21108637924508611 0 -0.01533608103291358 -0.20434496000532509 0 -0.00051630681429407424 -0.19859453141270639 0 -0.015435746805596539 -0.18637973487241941 0 -0.00051630681429407424 -0.19859453141270639 0 0.0028164378603697019 -0.18575172484963451 0 -0.01533608103291358 -0.20434496000532509 0 -0.00051630681429407424 -0.19859453141270639 0 -0.014163830441390199 -0.19173661792444241 0 -0.015435746805596539 -0.18637973487241941 0 -0.00051630681429407424 -0.19859453141270639 0 -0.015435746805596539 -0.18637973487241941 0 -0.00051630681429407424 -0.19859453141270639 0 -0.014163830441390199 -0.19173661792444241 0 -0.015435746805596539 -0.18637973487241941 0 -0.014163830441390199 -0.19173661792444241 0 -0.025275367445693291 -0.19695893195717409 0 -0.015435746805596539 -0.18637973487241941 0 -0.025275367445693291 -0.19695893195717409 0 -0.034150497549535919 -0.1891588061903812 0 -0.015435746805596539 -0.18637973487241941 0 -0.025275367445693291 -0.19695893195717409 0 -0.014163830441390199 -0.19173661792444241 0 -0.025275367445693291 -0.19695893195717409 0 -0.01533608103291358 -0.20434496000532509 0 -0.014163830441390199 -0.19173661792444241 0 -0.025275367445693291 -0.19695893195717409 0 -0.025275367445693291 -0.19695893195717409 0 -0.041753139863462067 -0.20470332430290999 0 -0.052002289186797307 -0.18699464328292081 0 -0.034150497549535919 -0.1891588061903812 0 -0.041753139863462067 -0.20470332430290999 0 -0.025275367445693291 -0.19695893195717409 0 -0.034150497549535919 -0.1891588061903812 0 -0.041753139863462067 -0.20470332430290999 0 -0.052002289186797307 -0.18699464328292081 0 -0.058230912281230812 -0.2124477166486457 0 -0.052002289186797307 -0.18699464328292081 0 -0.058230912281230812 -0.2124477166486457 0 -0.067337313310813565 -0.19683638416798491 0 -0.052002289186797307 -0.18699464328292081 0 -0.058230912281230812 -0.2124477166486457 0 -0.041753139863462067 -0.20470332430290999 0 -0.058230912281230812 -0.2124477166486457 0 -0.04817865518562861 -0.21378754846444259 0 -0.041753139863462067 -0.20470332430290999 0 -0.058230912281230812 -0.2124477166486457 0 -0.041753139863462067 -0.20470332430290999 0 -0.058230912281230812 -0.2124477166486457 0 -0.060872439946322923 -0.22324223679183369 0 -0.058230912281230812 -0.2124477166486457 0 -0.054401457689735457 -0.21834190237415399 0 -0.060872439946322923 -0.22324223679183369 0 -0.058230912281230812 -0.2124477166486457 0 -0.054401457689735457 -0.21834190237415399 0 -0.04817865518562861 -0.21378754846444259 0 -0.054401457689735457 -0.21834190237415399 0 -0.04817865518562861 -0.21378754846444259 0 -0.050323823345759633 -0.22389010759169409 0 -0.037799595395726603 -0.21042451977443399 0 -0.039567378369605673 -0.22064738725025829 0 -0.050323823345759633 -0.22389010759169409 0 -0.025275367445693291 -0.19695893195717409 0 -0.041753139863462067 -0.20470332430290999 0 -0.037799595395726603 -0.21042451977443399 0 -0.037799595395726603 -0.21042451977443399 0 -0.050323823345759633 -0.22389010759169409 0 -0.04817865518562861 -0.21378754846444259 0 -0.037799595395726603 -0.21042451977443399 0 -0.050323823345759633 -0.22389010759169409 0 -0.04817865518562861 -0.21378754846444259 0 -0.041753139863462067 -0.20470332430290999 0 -0.037799595395726603 -0.21042451977443399 0 -0.025275367445693291 -0.19695893195717409 0 -0.037799595395726603 -0.21042451977443399 0 -0.03094779218312025 -0.21631682165211111 0 -0.037799595395726603 -0.21042451977443399 0 -0.039567378369605673 -0.22064738725025829 0 -0.03094779218312025 -0.21631682165211111 0 -0.025941720447919269 -0.21059366789021941 0 -0.037799595395726603 -0.21042451977443399 0 -0.020482474519229479 -0.2236017116935326 0 -0.046178205342991663 -0.22926012325503431 0 -0.020482474519229479 -0.2236017116935326 0 -0.046178205342991663 -0.22926012325503431 0 -0.039567378369605673 -0.22064738725025829 0 -0.020482474519229479 -0.2236017116935326 0 -0.046178205342991663 -0.22926012325503431 0 -0.03418504585759493 -0.23438418031812189 0 -0.046178205342991663 -0.22926012325503431 0 -0.04228329748576596 -0.23622167364580879 0 -0.03418504585759493 -0.23438418031812189 0 -0.046178205342991663 -0.22926012325503431 0 -0.039567378369605673 -0.22064738725025829 0 -0.050323823345759633 -0.22389010759169409 0 -0.046178205342991663 -0.22926012325503431 0 -0.071873936166753971 -0.23491853481653599 0 -0.046178205342991663 -0.22926012325503431 0 -0.052301932096045591 -0.23714343008129299 0 -0.071873936166753971 -0.23491853481653599 0 -0.046178205342991663 -0.22926012325503431 0 -0.050323823345759633 -0.22389010759169409 0 -0.060872439946322923 -0.22324223679183369 0 -0.046178205342991663 -0.22926012325503431 0 -0.060872439946322923 -0.22324223679183369 0 -0.071873936166753971 -0.23491853481653599 0 -0.054401457689735457 -0.21834190237415399 0 -0.050323823345759633 -0.22389010759169409 0 -0.060872439946322923 -0.22324223679183369 0 -0.046178205342991663 -0.22926012325503431 0 -0.052301932096045591 -0.23714343008129299 0 -0.04228329748576596 -0.23622167364580879 0 -0.052301932096045591 -0.23714343008129299 0 -0.056088383474936929 -0.24485817140682159 0 -0.045970258249962981 -0.24194846027443331 0 -0.052301932096045591 -0.23714343008129299 0 -0.056088383474936929 -0.24485817140682159 0 -0.071873936166753971 -0.23491853481653599 0 -0.04618549483822789 -0.25040962026526192 0 -0.056088383474936929 -0.24485817140682159 0 -0.045970258249962981 -0.24194846027443331 0 -0.04618549483822789 -0.25040962026526192 0 -0.045970258249962981 -0.24194846027443331 0 -0.037026263035115803 -0.2455232766625722 0 -0.04228329748576596 -0.23622167364580879 0 -0.045970258249962981 -0.24194846027443331 0 -0.037026263035115803 -0.2455232766625722 0 -0.052301932096045591 -0.23714343008129299 0 -0.04228329748576596 -0.23622167364580879 0 -0.045970258249962981 -0.24194846027443331 0 -0.02524851288041547 -0.2404509875535713 0 -0.03418504585759493 -0.23438418031812189 0 -0.037026263035115803 -0.2455232766625722 0 -0.04228329748576596 -0.23622167364580879 0 -0.03418504585759493 -0.23438418031812189 0 -0.037026263035115803 -0.2455232766625722 0 -0.083161105180478506 -0.24777117505195931 0 -0.071873936166753971 -0.23491853481653599 0 -0.097569666990516196 -0.24057694637803759 0 -0.096036871119177095 -0.25634881738357052 0 -0.083161105180478506 -0.24777117505195931 0 -0.097569666990516196 -0.24057694637803759 0 -0.071873936166753971 -0.23491853481653599 0 -0.097569666990516196 -0.24057694637803759 0 -0.083161105180478506 -0.24777117505195931 0 -0.069354248986417039 -0.24986922427479361 0 -0.071873936166753971 -0.23491853481653599 0 -0.056088383474936929 -0.24485817140682159 0 -0.069354248986417039 -0.24986922427479361 0 -0.071873936166753971 -0.23491853481653599 0 -0.060872439946322923 -0.22324223679183369 0 -0.071873936166753971 -0.23491853481653599 0 -0.078905937654431671 -0.22216477695198131 0 -0.058230912281230812 -0.2124477166486457 0 -0.060872439946322923 -0.22324223679183369 0 -0.078905937654431671 -0.22216477695198131 0 -0.078905937654431671 -0.22216477695198131 0 -0.095972115386728563 -0.2205481583904427 0 -0.099580963027632294 -0.231881837255317 0 -0.071873936166753971 -0.23491853481653599 0 -0.078905937654431671 -0.22216477695198131 0 -0.097569666990516196 -0.24057694637803759 0 -0.078905937654431671 -0.22216477695198131 0 -0.099580963027632294 -0.231881837255317 0 -0.097569666990516196 -0.24057694637803759 0 -0.078905937654431671 -0.22216477695198131 0 -0.099580963027632294 -0.231881837255317 0 -0.078905937654431671 -0.22216477695198131 0 -0.086618556277413578 -0.21410956349141791 0 -0.095972115386728563 -0.2205481583904427 0 -0.086618556277413578 -0.21410956349141791 0 -0.097065816698300722 -0.209902634335833 0 -0.095972115386728563 -0.2205481583904427 0 -0.086357957766658305 -0.20541074781144739 0 -0.094976002919610975 -0.1976005708378771 0 -0.097065816698300722 -0.209902634335833 0 -0.086618556277413578 -0.21410956349141791 0 -0.086357957766658305 -0.20541074781144739 0 -0.097065816698300722 -0.209902634335833 0 -0.086618556277413578 -0.21410956349141791 0 -0.086357957766658305 -0.20541074781144739 0 -0.074130118498696995 -0.20837437962717831 0 -0.078905937654431671 -0.22216477695198131 0 -0.086618556277413578 -0.21410956349141791 0 -0.074130118498696995 -0.20837437962717831 0 -0.058230912281230812 -0.2124477166486457 0 -0.074130118498696995 -0.20837437962717831 0 -0.067337313310813565 -0.19683638416798491 0 -0.058230912281230812 -0.2124477166486457 0 -0.078905937654431671 -0.22216477695198131 0 -0.058230912281230812 -0.2124477166486457 0 -0.078905937654431671 -0.22216477695198131 0 -0.074130118498696995 -0.20837437962717831 0 -0.052002289186797307 -0.18699464328292081 0 -0.067337313310813565 -0.19683638416798491 0 -0.072262670056362763 -0.18094976456976181 0 -0.067337313310813565 -0.19683638416798491 0 -0.080060576530980088 -0.19541541671141799 0 -0.072262670056362763 -0.18094976456976181 0 -0.074130118498696995 -0.20837437962717831 0 -0.067337313310813565 -0.19683638416798491 0 -0.080060576530980088 -0.19541541671141799 0 -0.086357957766658305 -0.20541074781144739 0 -0.074130118498696995 -0.20837437962717831 0 -0.080060576530980088 -0.19541541671141799 0 -0.086357957766658305 -0.20541074781144739 0 -0.080060576530980088 -0.19541541671141799 0 -0.094976002919610975 -0.1976005708378771 0 -0.080060576530980088 -0.19541541671141799 0 -0.094976002919610975 -0.1976005708378771 0 -0.090117386210590622 -0.18411738347046119 0 -0.094976002919610975 -0.1976005708378771 0 -0.1076580695554952 -0.1878424532639168 0 -0.090117386210590622 -0.18411738347046119 0 -0.094976002919610975 -0.1976005708378771 0 -0.1085962107556409 -0.2029147894341862 0 -0.1076580695554952 -0.1878424532639168 0 -0.1085962107556409 -0.2029147894341862 0 -0.1076580695554952 -0.1878424532639168 0 -0.12407951960934969 -0.19530210180974111 0 -0.1085962107556409 -0.2029147894341862 0 -0.12380948787171241 -0.2123840995226593 0 -0.1078746246534205 -0.21802065338811219 0 -0.1085962107556409 -0.2029147894341862 0 -0.12407951960934969 -0.19530210180974111 0 -0.12380948787171241 -0.2123840995226593 0 -0.1085962107556409 -0.2029147894341862 0 -0.1078746246534205 -0.21802065338811219 0 -0.097065816698300722 -0.209902634335833 0 -0.094976002919610975 -0.1976005708378771 0 -0.1085962107556409 -0.2029147894341862 0 -0.097065816698300722 -0.209902634335833 0 -0.1078746246534205 -0.21802065338811219 0 -0.097065816698300722 -0.209902634335833 0 -0.095972115386728563 -0.2205481583904427 0 -0.1078746246534205 -0.21802065338811219 0 -0.099580963027632294 -0.231881837255317 0 -0.1185655711151308 -0.2262354405192831 0 -0.1078746246534205 -0.21802065338811219 0 -0.095972115386728563 -0.2205481583904427 0 -0.099580963027632294 -0.231881837255317 0 -0.12380948787171241 -0.2123840995226593 0 -0.1078746246534205 -0.21802065338811219 0 -0.1185655711151308 -0.2262354405192831 0 -0.099580963027632294 -0.231881837255317 0 -0.1185655711151308 -0.2262354405192831 0 -0.12025598840083281 -0.2415988975586526 0 -0.12275815006185969 -0.25761869203139598 0 -0.12025598840083281 -0.2415988975586526 0 -0.1087023929305591 -0.24575936891010619 0 -0.099580963027632294 -0.231881837255317 0 -0.12025598840083281 -0.2415988975586526 0 -0.1087023929305591 -0.24575936891010619 0 -0.099580963027632294 -0.231881837255317 0 -0.12025598840083281 -0.2415988975586526 0 -0.096036871119177095 -0.25634881738357052 0 -0.1087023929305591 -0.24575936891010619 0 -0.097569666990516196 -0.24057694637803759 0 -0.099580963027632294 -0.231881837255317 0 -0.1087023929305591 -0.24575936891010619 0 -0.097569666990516196 -0.24057694637803759 0 -0.085274191498156959 -0.1529837732063361 0 -0.08240960914160339 -0.13638903488746909 0 -0.073744245772733835 -0.14524176726721119 0 -0.085274191498156959 -0.1529837732063361 0 -0.08240960914160339 -0.13638903488746909 0 -0.098234169908575558 -0.14407149134109379 0 -0.08240960914160339 -0.13638903488746909 0 -0.098234169908575558 -0.14407149134109379 0 -0.093982027244670974 -0.1315104457850988 0 -0.08240960914160339 -0.13638903488746909 0 -0.098234169908575558 -0.14407149134109379 0 -0.079480677129163083 -0.1222829519756167 0 -0.08240960914160339 -0.13638903488746909 0 -0.093982027244670974 -0.1315104457850988 0 -0.08240960914160339 -0.13638903488746909 0 -0.066585048374631195 -0.12870657843384459 0 -0.073744245772733835 -0.14524176726721119 0 -0.08240960914160339 -0.13638903488746909 0 -0.066585048374631195 -0.12870657843384459 0 -0.079480677129163083 -0.1222829519756167 0 -0.08240960914160339 -0.13638903488746909 0 -0.066585048374631195 -0.12870657843384459 0 -0.061836737218624087 -0.1392467778113938 0 -0.066585048374631195 -0.12870657843384459 0 -0.073744245772733835 -0.14524176726721119 0 -0.066585048374631195 -0.12870657843384459 0 -0.073744245772733835 -0.14524176726721119 0 -0.058595597533760473 -0.15104403891727461 0 -0.073744245772733835 -0.14524176726721119 0 -0.072892919398045597 -0.1617684866521843 0 -0.058595597533760473 -0.15104403891727461 0 -0.061836737218624087 -0.1392467778113938 0 -0.073744245772733835 -0.14524176726721119 0 -0.085274191498156959 -0.1529837732063361 0 -0.073744245772733835 -0.14524176726721119 0 -0.072892919398045597 -0.1617684866521843 0 -0.072892919398045597 -0.1617684866521843 0 -0.072262670056362763 -0.18094976456976181 0 -0.086891984883220266 -0.16928009889986531 0 -0.060305428453466127 -0.16845970066786739 0 -0.072892919398045597 -0.1617684866521843 0 -0.072262670056362763 -0.18094976456976181 0 -0.060305428453466127 -0.16845970066786739 0 -0.058595597533760473 -0.15104403891727461 0 -0.072892919398045597 -0.1617684866521843 0 -0.080060576530980088 -0.19541541671141799 0 -0.072262670056362763 -0.18094976456976181 0 -0.090117386210590622 -0.18411738347046119 0 -0.072262670056362763 -0.18094976456976181 0 -0.090117386210590622 -0.18411738347046119 0 -0.086891984883220266 -0.16928009889986531 0 -0.090117386210590622 -0.18411738347046119 0 -0.086891984883220266 -0.16928009889986531 0 -0.10024671310071109 -0.17403838265651861 0 -0.085274191498156959 -0.1529837732063361 0 -0.072892919398045597 -0.1617684866521843 0 -0.086891984883220266 -0.16928009889986531 0 -0.085274191498156959 -0.1529837732063361 0 -0.086891984883220266 -0.16928009889986531 0 -0.099064607573091407 -0.15894864648766849 0 -0.086891984883220266 -0.16928009889986531 0 -0.099064607573091407 -0.15894864648766849 0 -0.10024671310071109 -0.17403838265651861 0 -0.099064607573091407 -0.15894864648766849 0 -0.10024671310071109 -0.17403838265651861 0 -0.11084377039950449 -0.16417024651668349 0 -0.099064607573091407 -0.15894864648766849 0 -0.11084377039950449 -0.16417024651668349 0 -0.1128968156483801 -0.14914788630551351 0 -0.1076580695554952 -0.1878424532639168 0 -0.090117386210590622 -0.18411738347046119 0 -0.10024671310071109 -0.17403838265651861 0 -0.1076580695554952 -0.1878424532639168 0 -0.12407951960934969 -0.19530210180974111 0 -0.1219082846621198 -0.1773915086117992 0 -0.1076580695554952 -0.1878424532639168 0 -0.10024671310071109 -0.17403838265651861 0 -0.1219082846621198 -0.1773915086117992 0 -0.10024671310071109 -0.17403838265651861 0 -0.1219082846621198 -0.1773915086117992 0 -0.11084377039950449 -0.16417024651668349 0 -0.1219082846621198 -0.1773915086117992 0 -0.11084377039950449 -0.16417024651668349 0 -0.12535065221621169 -0.16147719466059759 0 -0.11084377039950449 -0.16417024651668349 0 -0.1128968156483801 -0.14914788630551351 0 -0.12535065221621169 -0.16147719466059759 0 -0.1128968156483801 -0.14914788630551351 0 -0.12835596383565359 -0.14713793072949261 0 -0.12535065221621169 -0.16147719466059759 0 -0.1128968156483801 -0.14914788630551351 0 -0.1238367175059541 -0.13407547289885149 0 -0.12835596383565359 -0.14713793072949261 0 -0.099064607573091407 -0.15894864648766849 0 -0.1128968156483801 -0.14914788630551351 0 -0.098234169908575558 -0.14407149134109379 0 -0.1128968156483801 -0.14914788630551351 0 -0.098234169908575558 -0.14407149134109379 0 -0.1092675985926794 -0.13454554542672961 0 -0.085274191498156959 -0.1529837732063361 0 -0.099064607573091407 -0.15894864648766849 0 -0.098234169908575558 -0.14407149134109379 0 -0.097511515019495371 -0.1161618035163912 0 -0.093982027244670974 -0.1315104457850988 0 -0.1092675985926794 -0.13454554542672961 0 -0.098234169908575558 -0.14407149134109379 0 -0.093982027244670974 -0.1315104457850988 0 -0.1092675985926794 -0.13454554542672961 0 -0.11679916795141 -0.11855651071921181 0 -0.1092675985926794 -0.13454554542672961 0 -0.1238367175059541 -0.13407547289885149 0 -0.11679916795141 -0.11855651071921181 0 -0.1238367175059541 -0.13407547289885149 0 -0.1325704388426576 -0.1243072301198026 0 -0.1128968156483801 -0.14914788630551351 0 -0.1092675985926794 -0.13454554542672961 0 -0.1238367175059541 -0.13407547289885149 0 -0.1238367175059541 -0.13407547289885149 0 -0.14031722195299631 -0.1392575064564405 0 -0.12835596383565359 -0.14713793072949261 0 -0.1238367175059541 -0.13407547289885149 0 -0.14031722195299631 -0.1392575064564405 0 -0.1325704388426576 -0.1243072301198026 0 -0.14031722195299631 -0.1392575064564405 0 -0.1325704388426576 -0.1243072301198026 0 -0.15241650530921241 -0.12246979442982869 0 -0.14031722195299631 -0.1392575064564405 0 -0.157632815591496 -0.14769980211167369 0 -0.15241650530921241 -0.12246979442982869 0 -0.14031722195299631 -0.1392575064564405 0 -0.14133565749718219 -0.1573898663627252 0 -0.157632815591496 -0.14769980211167369 0 -0.12835596383565359 -0.14713793072949261 0 -0.12535065221621169 -0.16147719466059759 0 -0.14133565749718219 -0.1573898663627252 0 -0.14031722195299631 -0.1392575064564405 0 -0.12835596383565359 -0.14713793072949261 0 -0.14133565749718219 -0.1573898663627252 0 -0.12535065221621169 -0.16147719466059759 0 -0.13719483867797261 -0.1718064079915754 0 -0.14133565749718219 -0.1573898663627252 0 -0.1219082846621198 -0.1773915086117992 0 -0.12535065221621169 -0.16147719466059759 0 -0.13719483867797261 -0.1718064079915754 0 -0.12407951960934969 -0.19530210180974111 0 -0.1219082846621198 -0.1773915086117992 0 -0.1407593345583866 -0.1866093140656577 0 -0.1219082846621198 -0.1773915086117992 0 -0.13719483867797261 -0.1718064079915754 0 -0.1407593345583866 -0.1866093140656577 0 -0.13719483867797261 -0.1718064079915754 0 -0.1407593345583866 -0.1866093140656577 0 -0.15748309930304841 -0.17252551336550459 0 -0.1407593345583866 -0.1866093140656577 0 -0.15748309930304841 -0.17252551336550459 0 -0.16702952582891081 -0.196489553192918 0 -0.14133565749718219 -0.1573898663627252 0 -0.15748309930304841 -0.17252551336550459 0 -0.157632815591496 -0.14769980211167369 0 -0.13719483867797261 -0.1718064079915754 0 -0.14133565749718219 -0.1573898663627252 0 -0.15748309930304841 -0.17252551336550459 0 -0.15748309930304841 -0.17252551336550459 0 -0.17439901109034109 -0.15787499218406301 0 -0.157632815591496 -0.14769980211167369 0 -0.15748309930304841 -0.17252551336550459 0 -0.18324435849224449 -0.17833127157803461 0 -0.17439901109034109 -0.15787499218406301 0 -0.15748309930304841 -0.17252551336550459 0 -0.18324435849224449 -0.17833127157803461 0 -0.16702952582891081 -0.196489553192918 0 -0.18324435849224449 -0.17833127157803461 0 -0.17439901109034109 -0.15787499218406301 0 -0.19828435294020691 -0.15305565110012501 0 -0.17439901109034109 -0.15787499218406301 0 -0.17535042912470961 -0.13776272276497681 0 -0.19828435294020691 -0.15305565110012501 0 -0.17535042912470961 -0.13776272276497681 0 -0.19828435294020691 -0.15305565110012501 0 -0.17535042912470961 -0.13776272276497681 0 -0.17025878243173759 -0.11811635005738751 0 -0.15241650530921241 -0.12246979442982869 0 -0.17535042912470961 -0.13776272276497681 0 -0.157632815591496 -0.14769980211167369 0 -0.15241650530921241 -0.12246979442982869 0 -0.17535042912470961 -0.13776272276497681 0 -0.15241650530921241 -0.12246979442982869 0 -0.17439901109034109 -0.15787499218406301 0 -0.17535042912470961 -0.13776272276497681 0 -0.157632815591496 -0.14769980211167369 0 -0.14093101377403339 -0.25131595786198829 0 -0.15550554633892641 -0.24312817636800099 0 -0.14130679162205559 -0.22729171487167441 0 -0.14093101377403339 -0.25131595786198829 0 -0.12025598840083281 -0.2415988975586526 0 -0.14130679162205559 -0.22729171487167441 0 -0.14093101377403339 -0.25131595786198829 0 -0.12025598840083281 -0.2415988975586526 0 -0.12380948787171241 -0.2123840995226593 0 -0.1185655711151308 -0.2262354405192831 0 -0.14130679162205559 -0.22729171487167441 0 -0.1185655711151308 -0.2262354405192831 0 -0.12025598840083281 -0.2415988975586526 0 -0.14130679162205559 -0.22729171487167441 0 -0.14130679162205559 -0.22729171487167441 0 -0.15567390943166459 -0.21317250064193191 0 -0.16908580516533619 -0.2252069093586187 0 -0.15550554633892641 -0.24312817636800099 0 -0.14130679162205559 -0.22729171487167441 0 -0.16908580516533619 -0.2252069093586187 0 -0.1417457302527432 -0.2046704459602271 0 -0.15567390943166459 -0.21317250064193191 0 -0.16702952582891081 -0.196489553192918 0 -0.14130679162205559 -0.22729171487167441 0 -0.1417457302527432 -0.2046704459602271 0 -0.15567390943166459 -0.21317250064193191 0 -0.12407951960934969 -0.19530210180974111 0 -0.12380948787171241 -0.2123840995226593 0 -0.1417457302527432 -0.2046704459602271 0 -0.12380948787171241 -0.2123840995226593 0 -0.14130679162205559 -0.22729171487167441 0 -0.1417457302527432 -0.2046704459602271 0 -0.12407951960934969 -0.19530210180974111 0 -0.1407593345583866 -0.1866093140656577 0 -0.1417457302527432 -0.2046704459602271 0 -0.1407593345583866 -0.1866093140656577 0 -0.1417457302527432 -0.2046704459602271 0 -0.16702952582891081 -0.196489553192918 0 -0.18324435849224449 -0.17833127157803461 0 -0.16702952582891081 -0.196489553192918 0 -0.1855365756718983 -0.20321381111995779 0 -0.1855365756718983 -0.20321381111995779 0 -0.16908580516533619 -0.2252069093586187 0 -0.18870054142532439 -0.22040655201447629 0 -0.16702952582891081 -0.196489553192918 0 -0.1855365756718983 -0.20321381111995779 0 -0.16908580516533619 -0.2252069093586187 0 -0.16702952582891081 -0.196489553192918 0 -0.16908580516533619 -0.2252069093586187 0 -0.15567390943166459 -0.21317250064193191 0 -0.16702952582891081 -0.196489553192918 0 -0.16908580516533619 -0.2252069093586187 0 -0.16908580516533619 -0.2252069093586187 0 -0.1831972224734689 -0.23100681118707511 0 -0.18025512079503139 -0.24152858981872261 0 -0.16908580516533619 -0.2252069093586187 0 -0.1831972224734689 -0.23100681118707511 0 -0.18870054142532439 -0.22040655201447629 0 -0.17114208450176149 -0.25392426552431951 0 -0.16908580516533619 -0.2252069093586187 0 -0.18025512079503139 -0.24152858981872261 0 -0.18397289317318519 -0.25976340762325162 0 -0.18025512079503139 -0.24152858981872261 0 -0.1947474225081835 -0.2368851935564828 0 -0.1831972224734689 -0.23100681118707511 0 -0.18025512079503139 -0.24152858981872261 0 -0.1947474225081835 -0.2368851935564828 0 -0.17114208450176149 -0.25392426552431951 0 -0.16908580516533619 -0.2252069093586187 0 -0.17114208450176149 -0.25392426552431951 0 -0.15550554633892641 -0.24312817636800099 0 -0.16908580516533619 -0.2252069093586187 0 -0.20496201374609979 -0.2387368529935201 0 -0.21864938126331959 -0.22543047545859071 0 -0.21978983545209549 -0.24214005824423079 0 -0.21502492674253099 -0.25133597507959871 0 -0.20496201374609979 -0.2387368529935201 0 -0.21978983545209549 -0.24214005824423079 0 -0.18397289317318519 -0.25976340762325162 0 -0.1947474225081835 -0.2368851935564828 0 -0.1974750033546612 -0.25093860666183337 0 -0.18397289317318519 -0.25976340762325162 0 -0.1947474225081835 -0.2368851935564828 0 -0.1974750033546612 -0.25093860666183337 0 -0.20496201374609979 -0.2387368529935201 0 -0.1947474225081835 -0.2368851935564828 0 -0.1831972224734689 -0.23100681118707511 0 -0.1947474225081835 -0.2368851935564828 0 -0.18870054142532439 -0.22040655201447629 0 -0.1947474225081835 -0.2368851935564828 0 -0.205521951843182 -0.21400697948971409 0 -0.20496201374609979 -0.2387368529935201 0 -0.1947474225081835 -0.2368851935564828 0 -0.205521951843182 -0.21400697948971409 0 -0.1947474225081835 -0.2368851935564828 0 -0.18870054142532439 -0.22040655201447629 0 -0.205521951843182 -0.21400697948971409 0 -0.20496201374609979 -0.2387368529935201 0 -0.205521951843182 -0.21400697948971409 0 -0.20496201374609979 -0.2387368529935201 0 -0.21864938126331959 -0.22543047545859071 0 -0.205521951843182 -0.21400697948971409 0 -0.21864938126331959 -0.22543047545859071 0 -0.21806543531455999 -0.2132895570732227 0 -0.205521951843182 -0.21400697948971409 0 -0.21806543531455999 -0.2132895570732227 0 -0.21022064659395009 -0.20402995487915401 0 -0.22046149852518451 -0.20391799246761441 0 -0.21806543531455999 -0.2132895570732227 0 -0.21022064659395009 -0.20402995487915401 0 -0.205521951843182 -0.21400697948971409 0 -0.21022064659395009 -0.20402995487915401 0 -0.205521951843182 -0.21400697948971409 0 -0.1855365756718983 -0.20321381111995779 0 -0.18870054142532439 -0.22040655201447629 0 -0.19462059807277851 -0.2105946715018911 0 -0.18870054142532439 -0.22040655201447629 0 -0.205521951843182 -0.21400697948971409 0 -0.19462059807277851 -0.2105946715018911 0 -0.1855365756718983 -0.20321381111995779 0 -0.19462059807277851 -0.2105946715018911 0 -0.19732749616142001 -0.20218401911108569 0 -0.205521951843182 -0.21400697948971409 0 -0.19462059807277851 -0.2105946715018911 0 -0.19732749616142001 -0.20218401911108569 0 -0.18324435849224449 -0.17833127157803461 0 -0.1855365756718983 -0.20321381111995779 0 -0.19492289300168161 -0.19012845564190961 0 -0.205521951843182 -0.21400697948971409 0 -0.19732749616142001 -0.20218401911108569 0 -0.20605911862316131 -0.19028280964210681 0 -0.1855365756718983 -0.20321381111995779 0 -0.19732749616142001 -0.20218401911108569 0 -0.19492289300168161 -0.19012845564190961 0 -0.19732749616142001 -0.20218401911108569 0 -0.19492289300168161 -0.19012845564190961 0 -0.20605911862316131 -0.19028280964210681 0 -0.205521951843182 -0.21400697948971409 0 -0.20605911862316131 -0.19028280964210681 0 -0.21022064659395009 -0.20402995487915401 0 -0.205521951843182 -0.21400697948971409 0 -0.20605911862316131 -0.19028280964210681 0 -0.21022064659395009 -0.20402995487915401 0 -0.20605911862316131 -0.19028280964210681 0 -0.2144894623300844 -0.19523424110635759 0 -0.21022064659395009 -0.20402995487915401 0 -0.2144894623300844 -0.19523424110635759 0 -0.22046149852518451 -0.20391799246761441 0 -0.2144894623300844 -0.19523424110635759 0 -0.22206507936836339 -0.18816766669326279 0 -0.21493888317954299 -0.18371300755101011 0 -0.20605911862316131 -0.19028280964210681 0 -0.2144894623300844 -0.19523424110635759 0 -0.21493888317954299 -0.18371300755101011 0 -0.22534664697250029 -0.1957277500176248 0 -0.23418530141482741 -0.21130845926171271 0 -0.2368712171885366 -0.1871151028730397 0 -0.2144894623300844 -0.19523424110635759 0 -0.22206507936836339 -0.18816766669326279 0 -0.22534664697250029 -0.1957277500176248 0 -0.22206507936836339 -0.18816766669326279 0 -0.22534664697250029 -0.1957277500176248 0 -0.22850688608396821 -0.186762291897104 0 -0.2144894623300844 -0.19523424110635759 0 -0.22534664697250029 -0.1957277500176248 0 -0.22046149852518451 -0.20391799246761441 0 -0.22534664697250029 -0.1957277500176248 0 -0.22850688608396821 -0.186762291897104 0 -0.2368712171885366 -0.1871151028730397 0 -0.24561626626948921 -0.1962427190764516 0 -0.2368712171885366 -0.1871151028730397 0 -0.23948602157315579 -0.18052997999217571 0 -0.23418530141482741 -0.21130845926171271 0 -0.2368712171885366 -0.1871151028730397 0 -0.24561626626948921 -0.1962427190764516 0 -0.23948602157315579 -0.18052997999217571 0 -0.25775376639060738 -0.1927113805490783 0 -0.24561626626948921 -0.1962427190764516 0 -0.23418530141482741 -0.21130845926171271 0 -0.2368712171885366 -0.1871151028730397 0 -0.24561626626948921 -0.1962427190764516 0 -0.245773254826505 -0.20823126201400199 0 -0.25644432346436052 -0.20276517554389251 0 -0.24561626626948921 -0.1962427190764516 0 -0.245773254826505 -0.20823126201400199 0 -0.23418530141482741 -0.21130845926171271 0 -0.245773254826505 -0.20823126201400199 0 -0.23418530141482741 -0.21130845926171271 0 -0.24952608325490699 -0.22006214967458301 0 -0.21806543531455999 -0.2132895570732227 0 -0.23418530141482741 -0.21130845926171271 0 -0.22046149852518451 -0.20391799246761441 0 -0.21864938126331959 -0.22543047545859071 0 -0.21806543531455999 -0.2132895570732227 0 -0.23418530141482741 -0.21130845926171271 0 -0.22534664697250029 -0.1957277500176248 0 -0.23418530141482741 -0.21130845926171271 0 -0.22046149852518451 -0.20391799246761441 0 -0.21864938126331959 -0.22543047545859071 0 -0.23418530141482741 -0.21130845926171271 0 -0.23149938564111819 -0.23550181565038569 0 -0.21864938126331959 -0.22543047545859071 0 -0.23149938564111819 -0.23550181565038569 0 -0.21978983545209549 -0.24214005824423079 0 -0.23418530141482741 -0.21130845926171271 0 -0.23149938564111819 -0.23550181565038569 0 -0.24952608325490699 -0.22006214967458301 0 -0.23149938564111819 -0.23550181565038569 0 -0.2536317023007878 -0.2372900317130387 0 -0.23418530141482741 -0.21130845926171271 0 -0.24952608325490699 -0.22006214967458301 0 -0.23149938564111819 -0.23550181565038569 0 -0.24827797024798609 -0.25545493364081862 0 -0.23149938564111819 -0.23550181565038569 0 -0.2536317023007878 -0.2372900317130387 0 -0.22881346986740889 -0.25969517203905867 0 -0.23149938564111819 -0.23550181565038569 0 -0.22881346986740889 -0.25969517203905867 0 -0.23149938564111819 -0.23550181565038569 0 -0.21978983545209549 -0.24214005824423079 0 -0.21554852519343631 -0.14979861314923229 0 -0.20326459084737289 -0.1340758140810763 0 -0.19828435294020691 -0.15305565110012501 0 -0.20326459084737289 -0.1340758140810763 0 -0.2191363851110881 -0.12538766070976959 0 -0.1935065428592255 -0.1165606293695631 0 -0.21554852519343631 -0.14979861314923229 0 -0.20326459084737289 -0.1340758140810763 0 -0.2191363851110881 -0.12538766070976959 0 -0.17535042912470961 -0.13776272276497681 0 -0.20326459084737289 -0.1340758140810763 0 -0.1935065428592255 -0.1165606293695631 0 -0.17535042912470961 -0.13776272276497681 0 -0.20326459084737289 -0.1340758140810763 0 -0.19828435294020691 -0.15305565110012501 0 -0.18324435849224449 -0.17833127157803461 0 -0.19828435294020691 -0.15305565110012501 0 -0.2024469160596839 -0.17663036675836319 0 -0.18324435849224449 -0.17833127157803461 0 -0.19492289300168161 -0.19012845564190961 0 -0.2024469160596839 -0.17663036675836319 0 -0.19492289300168161 -0.19012845564190961 0 -0.20605911862316131 -0.19028280964210681 0 -0.2024469160596839 -0.17663036675836319 0 -0.2024469160596839 -0.17663036675836319 0 -0.21493888317954299 -0.18371300755101011 0 -0.2212182767557043 -0.16834857943527309 0 -0.20605911862316131 -0.19028280964210681 0 -0.2024469160596839 -0.17663036675836319 0 -0.21493888317954299 -0.18371300755101011 0 -0.21493888317954299 -0.18371300755101011 0 -0.2212182767557043 -0.16834857943527309 0 -0.21554852519343631 -0.14979861314923229 0 -0.19828435294020691 -0.15305565110012501 0 -0.2212182767557043 -0.16834857943527309 0 -0.19828435294020691 -0.15305565110012501 0 -0.2212182767557043 -0.16834857943527309 0 -0.19828435294020691 -0.15305565110012501 0 -0.2024469160596839 -0.17663036675836319 0 -0.2212182767557043 -0.16834857943527309 0 -0.2212182767557043 -0.16834857943527309 0 -0.23948602157315579 -0.18052997999217571 0 -0.23828378537395919 -0.16381001122639199 0 -0.2212182767557043 -0.16834857943527309 0 -0.23828378537395919 -0.16381001122639199 0 -0.23145267108277021 -0.1433070504979459 0 -0.2212182767557043 -0.16834857943527309 0 -0.23948602157315579 -0.18052997999217571 0 -0.2212182767557043 -0.16834857943527309 0 -0.2270435182757207 -0.17940104289421771 0 -0.23948602157315579 -0.18052997999217571 0 -0.22206507936836339 -0.18816766669326279 0 -0.21493888317954299 -0.18371300755101011 0 -0.2270435182757207 -0.17940104289421771 0 -0.22206507936836339 -0.18816766669326279 0 -0.2270435182757207 -0.17940104289421771 0 -0.22850688608396821 -0.186762291897104 0 -0.21493888317954299 -0.18371300755101011 0 -0.2212182767557043 -0.16834857943527309 0 -0.2270435182757207 -0.17940104289421771 0 -0.2270435182757207 -0.17940104289421771 0 -0.2329769107803453 -0.18345210441413429 0 -0.23948602157315579 -0.18052997999217571 0 -0.2329769107803453 -0.18345210441413429 0 -0.22850688608396821 -0.186762291897104 0 -0.2368712171885366 -0.1871151028730397 0 -0.2270435182757207 -0.17940104289421771 0 -0.2329769107803453 -0.18345210441413429 0 -0.22850688608396821 -0.186762291897104 0 -0.23948602157315579 -0.18052997999217571 0 -0.23828378537395919 -0.16381001122639199 0 -0.24603994590135489 -0.17167346917297491 0 -0.23948602157315579 -0.18052997999217571 0 -0.25775376639060738 -0.1927113805490783 0 -0.2329769107803453 -0.18345210441413429 0 -0.2368712171885366 -0.1871151028730397 0 -0.23948602157315579 -0.18052997999217571 0 -0.23948602157315579 -0.18052997999217571 0 -0.24889463164364681 -0.17799518177576529 0 -0.24603994590135489 -0.17167346917297491 0 -0.23948602157315579 -0.18052997999217571 0 -0.24889463164364681 -0.17799518177576529 0 -0.25399129187800901 -0.18275551748322119 0 -0.23828378537395919 -0.16381001122639199 0 -0.24603994590135489 -0.17167346917297491 0 -0.25418454954943548 -0.16550371179532489 0 -0.23828378537395919 -0.16381001122639199 0 -0.25418454954943548 -0.16550371179532489 0 -0.25118390415433972 -0.15405218721727429 0 -0.23145267108277021 -0.1433070504979459 0 -0.24670829182420889 -0.13553695229414689 0 -0.25118390415433972 -0.15405218721727429 0 -0.23828378537395919 -0.16381001122639199 0 -0.23145267108277021 -0.1433070504979459 0 -0.25118390415433972 -0.15405218721727429 0 -0.2212182767557043 -0.16834857943527309 0 -0.23145267108277021 -0.1433070504979459 0 -0.21554852519343631 -0.14979861314923229 0 -0.2212182767557043 -0.16834857943527309 0 -0.23145267108277021 -0.1433070504979459 0 -0.23145267108277021 -0.1433070504979459 0 -0.2191363851110881 -0.12538766070976959 0 -0.24168706540983631 -0.11826552156061861 0 -0.21554852519343631 -0.14979861314923229 0 -0.23145267108277021 -0.1433070504979459 0 -0.2191363851110881 -0.12538766070976959 0 -0.23145267108277021 -0.1433070504979459 0 -0.24670829182420889 -0.13553695229414689 0 -0.24168706540983631 -0.11826552156061861 0 -0.23145267108277021 -0.1433070504979459 0 -0.24168706540983631 -0.11826552156061861 0 -0.24168706540983631 -0.11826552156061861 0 -0.2450926919459446 -0.10993263026013871 0 -0.21847471151871459 -0.101827052451873 0 -0.24168706540983631 -0.11826552156061861 0 -0.2450926919459446 -0.10993263026013871 0 -0.24168706540983631 -0.11826552156061861 0 -0.2450926919459446 -0.10993263026013871 0 -0.25686826842719213 -0.1164815964754297 0 -0.24898541820143941 -0.099744079344400965 0 -0.23505180382786009 -0.095147691264952178 0 -0.25181003488911058 -0.088936769675605293 0 -0.2450926919459446 -0.10993263026013871 0 -0.24898541820143941 -0.099744079344400965 0 -0.23505180382786009 -0.095147691264952178 0 -0.2450926919459446 -0.10993263026013871 0 -0.23505180382786009 -0.095147691264952178 0 -0.21847471151871459 -0.101827052451873 0 -0.24168706540983631 -0.11826552156061861 0 -0.21847471151871459 -0.101827052451873 0 -0.2191363851110881 -0.12538766070976959 0 -0.24168706540983631 -0.11826552156061861 0 -0.21847471151871459 -0.101827052451873 0 -0.23505180382786009 -0.095147691264952178 0 -0.23639725622590621 -0.073176214108610221 0 -0.25181003488911058 -0.088936769675605293 0 -0.23505180382786009 -0.095147691264952178 0 -0.23639725622590621 -0.073176214108610221 0 -0.2185521229612668 -0.074513868105514289 0 -0.23505180382786009 -0.095147691264952178 0 -0.2185521229612668 -0.074513868105514289 0 -0.21847471151871459 -0.101827052451873 0 -0.23639725622590621 -0.073176214108610221 0 -0.2185521229612668 -0.074513868105514289 0 -0.23132487707746721 -0.05754836942190622 0 -0.2185521229612668 -0.074513868105514289 0 -0.19526235762759239 -0.085388583343128072 0 -0.19924563781459961 -0.060678553006908137 0 -0.19526235762759239 -0.085388583343128072 0 -0.21847471151871459 -0.101827052451873 0 -0.2185521229612668 -0.074513868105514289 0 -0.19526235762759239 -0.085388583343128072 0 -0.21847471151871459 -0.101827052451873 0 -0.19526235762759239 -0.085388583343128072 0 -0.18578909403674279 -0.065516242812727665 0 -0.19924563781459961 -0.060678553006908137 0 -0.2191363851110881 -0.12538766070976959 0 -0.21847471151871459 -0.101827052451873 0 -0.1935065428592255 -0.1165606293695631 0 -0.19526235762759239 -0.085388583343128072 0 -0.21847471151871459 -0.101827052451873 0 -0.1935065428592255 -0.1165606293695631 0 -0.19526235762759239 -0.085388583343128072 0 -0.1935065428592255 -0.1165606293695631 0 -0.17438182378922071 -0.1020608473645457 0 -0.1935065428592255 -0.1165606293695631 0 -0.17025878243173759 -0.11811635005738751 0 -0.17438182378922071 -0.1020608473645457 0 -0.17535042912470961 -0.13776272276497681 0 -0.1935065428592255 -0.1165606293695631 0 -0.17025878243173759 -0.11811635005738751 0 -0.17025878243173759 -0.11811635005738751 0 -0.15896469428820531 -0.10856504232139561 0 -0.17438182378922071 -0.1020608473645457 0 -0.17025878243173759 -0.11811635005738751 0 -0.15896469428820531 -0.10856504232139561 0 -0.15241650530921241 -0.12246979442982869 0 -0.16100371709665859 -0.095831374314302983 0 -0.17438182378922071 -0.1020608473645457 0 -0.1715578129498484 -0.08622750654411282 0 -0.16100371709665859 -0.095831374314302983 0 -0.15896469428820531 -0.10856504232139561 0 -0.17438182378922071 -0.1020608473645457 0 -0.19526235762759239 -0.085388583343128072 0 -0.17205000373647031 -0.068950114234383145 0 -0.1715578129498484 -0.08622750654411282 0 -0.19526235762759239 -0.085388583343128072 0 -0.17438182378922071 -0.1020608473645457 0 -0.1715578129498484 -0.08622750654411282 0 -0.19526235762759239 -0.085388583343128072 0 -0.17205000373647031 -0.068950114234383145 0 -0.19526235762759239 -0.085388583343128072 0 -0.18578909403674279 -0.065516242812727665 0 -0.17205000373647031 -0.068950114234383145 0 -0.18578909403674279 -0.065516242812727665 0 -0.17205000373647031 -0.068950114234383145 0 -0.17398721804235609 -0.057688740130989291 0 -0.15827828913098749 -0.064672849445365485 0 -0.15894751063356341 -0.079882550597827756 0 -0.17398721804235609 -0.057688740130989291 0 -0.17205000373647031 -0.068950114234383145 0 -0.15894751063356341 -0.079882550597827756 0 -0.17398721804235609 -0.057688740130989291 0 -0.15894751063356341 -0.079882550597827756 0 -0.17398721804235609 -0.057688740130989291 0 -0.17205000373647031 -0.068950114234383145 0 -0.1715578129498484 -0.08622750654411282 0 -0.15894751063356341 -0.079882550597827756 0 -0.16100371709665859 -0.095831374314302983 0 -0.1715578129498484 -0.08622750654411282 0 -0.15894751063356341 -0.079882550597827756 0 -0.15894751063356341 -0.079882550597827756 0 -0.1427133466989729 -0.084992572913185238 0 -0.14665366183300629 -0.072017689434434304 0 -0.15894751063356341 -0.079882550597827756 0 -0.1427133466989729 -0.084992572913185238 0 -0.14390780322477059 -0.1020763610646663 0 -0.16100371709665859 -0.095831374314302983 0 -0.15894751063356341 -0.079882550597827756 0 -0.14390780322477059 -0.1020763610646663 0 -0.15894751063356341 -0.079882550597827756 0 -0.14390780322477059 -0.1020763610646663 0 -0.15827828913098749 -0.064672849445365485 0 -0.14665366183300629 -0.072017689434434304 0 -0.15043612902809511 -0.057922026932498122 0 -0.15827828913098749 -0.064672849445365485 0 -0.15894751063356341 -0.079882550597827756 0 -0.14665366183300629 -0.072017689434434304 0 -0.14665366183300629 -0.072017689434434304 0 -0.13894762502059579 -0.063355664815584037 0 -0.15043612902809511 -0.057922026932498122 0 -0.13894762502059579 -0.063355664815584037 0 -0.13125558309419269 -0.077369862107999898 0 -0.12619302875418351 -0.060577836074509478 0 -0.14665366183300629 -0.072017689434434304 0 -0.13894762502059579 -0.063355664815584037 0 -0.13125558309419269 -0.077369862107999898 0 -0.1427133466989729 -0.084992572913185238 0 -0.1307815944379738 -0.092699919988012899 0 -0.14390780322477059 -0.1020763610646663 0 -0.1427133466989729 -0.084992572913185238 0 -0.13125558309419269 -0.077369862107999898 0 -0.1307815944379738 -0.092699919988012899 0 -0.1427133466989729 -0.084992572913185238 0 -0.14665366183300629 -0.072017689434434304 0 -0.13125558309419269 -0.077369862107999898 0 -0.1307815944379738 -0.092699919988012899 0 -0.12948258149371511 -0.10717686609468061 0 -0.14390780322477059 -0.1020763610646663 0 -0.11679916795141 -0.11855651071921181 0 -0.12948258149371511 -0.10717686609468061 0 -0.1325704388426576 -0.1243072301198026 0 -0.12948258149371511 -0.10717686609468061 0 -0.1325704388426576 -0.1243072301198026 0 -0.15241650530921241 -0.12246979442982869 0 -0.15896469428820531 -0.10856504232139561 0 -0.15241650530921241 -0.12246979442982869 0 -0.14390780322477059 -0.1020763610646663 0 -0.12948258149371511 -0.10717686609468061 0 -0.15241650530921241 -0.12246979442982869 0 -0.14390780322477059 -0.1020763610646663 0 -0.12948258149371511 -0.10717686609468061 0 -0.15241650530921241 -0.12246979442982869 0 -0.16100371709665859 -0.095831374314302983 0 -0.15896469428820531 -0.10856504232139561 0 -0.14390780322477059 -0.1020763610646663 0 -0.1412699131596693 -0.020407082981404479 0 -0.15194453017624629 -0.02149233216654985 0 -0.14631868365282649 -0.0092697702074885507 0 -0.15194453017624629 -0.02149233216654985 0 -0.13873123979701091 -0.032147051796899737 0 -0.1412699131596693 -0.020407082981404479 0 -0.15194453017624629 -0.02149233216654985 0 -0.13873123979701091 -0.032147051796899737 0 -0.15194453017624629 -0.02149233216654985 0 -0.13873123979701091 -0.032147051796899737 0 -0.14809585040940271 -0.034486342336645187 0 -0.15194453017624629 -0.02149233216654985 0 -0.14809585040940271 -0.034486342336645187 0 -0.1566799433009681 -0.029888298174077479 0 -0.14631868365282649 -0.0092697702074885507 0 -0.12794466884393851 -0.002708162334285761 0 -0.1521736821911556 0.0070154644146889376 0 -0.15194453017624629 -0.02149233216654985 0 -0.14631868365282649 -0.0092697702074885507 0 -0.15768631885198689 -0.0078660734412130187 0 -0.14631868365282649 -0.0092697702074885507 0 -0.15768631885198689 -0.0078660734412130187 0 -0.1521736821911556 0.0070154644146889376 0 -0.1412699131596693 -0.020407082981404479 0 -0.14631868365282649 -0.0092697702074885507 0 -0.13556668316087001 -0.01447556625107317 0 -0.14631868365282649 -0.0092697702074885507 0 -0.13556668316087001 -0.01447556625107317 0 -0.12794466884393851 -0.002708162334285761 0 -0.12471248911896179 -0.01527569869178381 0 -0.13556668316087001 -0.01447556625107317 0 -0.12794466884393851 -0.002708162334285761 0 -0.12471248911896179 -0.01527569869178381 0 -0.12307210551450951 -0.027110368717823949 0 -0.1327243812800738 -0.021680376722767819 0 -0.12471248911896179 -0.01527569869178381 0 -0.13556668316087001 -0.01447556625107317 0 -0.1327243812800738 -0.021680376722767819 0 -0.12307210551450951 -0.027110368717823949 0 -0.1327243812800738 -0.021680376722767819 0 -0.13873123979701091 -0.032147051796899737 0 -0.1412699131596693 -0.020407082981404479 0 -0.13556668316087001 -0.01447556625107317 0 -0.1327243812800738 -0.021680376722767819 0 -0.1412699131596693 -0.020407082981404479 0 -0.1327243812800738 -0.021680376722767819 0 -0.13873123979701091 -0.032147051796899737 0 -0.1255179494177758 -0.042801771427249863 0 -0.13873123979701091 -0.032147051796899737 0 -0.1255179494177758 -0.042801771427249863 0 -0.14809585040940271 -0.034486342336645187 0 -0.1255179494177758 -0.042801771427249863 0 -0.14019972239350151 -0.048890909528478403 0 -0.14809585040940271 -0.034486342336645187 0 -0.12307210551450951 -0.027110368717823949 0 -0.1255179494177758 -0.042801771427249863 0 -0.13873123979701091 -0.032147051796899737 0 -0.1255179494177758 -0.042801771427249863 0 -0.13873123979701091 -0.032147051796899737 0 -0.14809585040940271 -0.034486342336645187 0 -0.1255179494177758 -0.042801771427249863 0 -0.12619302875418351 -0.060577836074509478 0 -0.14019972239350151 -0.048890909528478403 0 -0.13894762502059579 -0.063355664815584037 0 -0.12619302875418351 -0.060577836074509478 0 -0.14019972239350151 -0.048890909528478403 0 -0.13894762502059579 -0.063355664815584037 0 -0.14019972239350151 -0.048890909528478403 0 -0.15043612902809511 -0.057922026932498122 0 -0.14019972239350151 -0.048890909528478403 0 -0.15043612902809511 -0.057922026932498122 0 -0.15175178906324471 -0.04584125707794813 0 -0.15043612902809511 -0.057922026932498122 0 -0.15175178906324471 -0.04584125707794813 0 -0.1613669261179167 -0.055853240131077911 0 -0.14019972239350151 -0.048890909528478403 0 -0.14809585040940271 -0.034486342336645187 0 -0.15175178906324471 -0.04584125707794813 0 -0.14809585040940271 -0.034486342336645187 0 -0.15175178906324471 -0.04584125707794813 0 -0.15797279556297239 -0.038230984902785863 0 -0.14809585040940271 -0.034486342336645187 0 -0.15797279556297239 -0.038230984902785863 0 -0.1566799433009681 -0.029888298174077479 0 -0.15797279556297239 -0.038230984902785863 0 -0.17009758207081921 -0.035442947675340113 0 -0.1566799433009681 -0.029888298174077479 0 -0.15175178906324471 -0.04584125707794813 0 -0.15797279556297239 -0.038230984902785863 0 -0.16323881297042761 -0.045496079249918393 0 -0.15797279556297239 -0.038230984902785863 0 -0.16323881297042761 -0.045496079249918393 0 -0.17009758207081921 -0.035442947675340113 0 -0.16323881297042761 -0.045496079249918393 0 -0.17009758207081921 -0.035442947675340113 0 -0.1729004806473716 -0.045151628634314711 0 -0.15827828913098749 -0.064672849445365485 0 -0.1613669261179167 -0.055853240131077911 0 -0.17398721804235609 -0.057688740130989291 0 -0.15827828913098749 -0.064672849445365485 0 -0.15043612902809511 -0.057922026932498122 0 -0.1613669261179167 -0.055853240131077911 0 -0.15175178906324471 -0.04584125707794813 0 -0.16323881297042761 -0.045496079249918393 0 -0.1613669261179167 -0.055853240131077911 0 -0.16323881297042761 -0.045496079249918393 0 -0.1613669261179167 -0.055853240131077911 0 -0.16800977018292851 -0.051335433994746417 0 -0.16800977018292851 -0.051335433994746417 0 -0.17398721804235609 -0.057688740130989291 0 -0.1729004806473716 -0.045151628634314711 0 -0.16323881297042761 -0.045496079249918393 0 -0.16800977018292851 -0.051335433994746417 0 -0.1729004806473716 -0.045151628634314711 0 -0.1613669261179167 -0.055853240131077911 0 -0.16800977018292851 -0.051335433994746417 0 -0.17398721804235609 -0.057688740130989291 0 -0.17398721804235609 -0.057688740130989291 0 -0.1892643008988418 -0.052769444302067897 0 -0.1890269254511488 -0.035494929664150847 0 -0.18578909403674279 -0.065516242812727665 0 -0.17398721804235609 -0.057688740130989291 0 -0.1892643008988418 -0.052769444302067897 0 -0.17398721804235609 -0.057688740130989291 0 -0.1890269254511488 -0.035494929664150847 0 -0.17398721804235609 -0.057688740130989291 0 -0.1729004806473716 -0.045151628634314711 0 -0.1890269254511488 -0.035494929664150847 0 -0.17009758207081921 -0.035442947675340113 0 -0.1729004806473716 -0.045151628634314711 0 -0.1890269254511488 -0.035494929664150847 0 -0.17009758207081921 -0.035442947675340113 0 -0.17955082259089561 -0.021666128046344799 0 -0.1890269254511488 -0.035494929664150847 0 -0.17955082259089561 -0.021666128046344799 0 -0.1654769477888865 -0.01683341078555432 0 -0.1566799433009681 -0.029888298174077479 0 -0.17009758207081921 -0.035442947675340113 0 -0.17955082259089561 -0.021666128046344799 0 -0.1566799433009681 -0.029888298174077479 0 -0.17955082259089561 -0.021666128046344799 0 -0.1566799433009681 -0.029888298174077479 0 -0.15194453017624629 -0.02149233216654985 0 -0.1654769477888865 -0.01683341078555432 0 -0.1566799433009681 -0.029888298174077479 0 -0.1654769477888865 -0.01683341078555432 0 -0.15768631885198689 -0.0078660734412130187 0 -0.1725177504508198 0.001249681538838686 0 -0.15194453017624629 -0.02149233216654985 0 -0.1654769477888865 -0.01683341078555432 0 -0.15768631885198689 -0.0078660734412130187 0 -0.17955082259089561 -0.021666128046344799 0 -0.19071046507632669 -0.0018178219343990159 0 -0.1725177504508198 0.001249681538838686 0 -0.17955082259089561 -0.021666128046344799 0 -0.1654769477888865 -0.01683341078555432 0 -0.1725177504508198 0.001249681538838686 0 -0.17955082259089561 -0.021666128046344799 0 -0.19071046507632669 -0.0018178219343990159 0 -0.20242170188082309 -0.013443957918612101 0 -0.19071046507632669 -0.0018178219343990159 0 -0.20242170188082309 -0.013443957918612101 0 -0.20877238643255019 0.0072663334765693576 0 -0.17955082259089561 -0.021666128046344799 0 -0.20242170188082309 -0.013443957918612101 0 -0.1890269254511488 -0.035494929664150847 0 -0.17955082259089561 -0.021666128046344799 0 -0.20242170188082309 -0.013443957918612101 0 -0.20242170188082309 -0.013443957918612101 0 -0.1890269254511488 -0.035494929664150847 0 -0.20643719221934451 -0.034501183273154087 0 -0.20242170188082309 -0.013443957918612101 0 -0.20643719221934451 -0.034501183273154087 0 -0.2217741937323956 -0.0262017070596797 0 -0.20242170188082309 -0.013443957918612101 0 -0.22529258117075071 -0.0052217877908794143 0 -0.20877238643255019 0.0072663334765693576 0 -0.20242170188082309 -0.013443957918612101 0 -0.22529258117075071 -0.0052217877908794143 0 -0.2217741937323956 -0.0262017070596797 0 -0.20242170188082309 -0.013443957918612101 0 -0.22529258117075071 -0.0052217877908794143 0 -0.19924563781459961 -0.060678553006908137 0 -0.1892643008988418 -0.052769444302067897 0 -0.1982726291493615 -0.044468755895563553 0 -0.18578909403674279 -0.065516242812727665 0 -0.19924563781459961 -0.060678553006908137 0 -0.1892643008988418 -0.052769444302067897 0 -0.1892643008988418 -0.052769444302067897 0 -0.1890269254511488 -0.035494929664150847 0 -0.1982726291493615 -0.044468755895563553 0 -0.1890269254511488 -0.035494929664150847 0 -0.1982726291493615 -0.044468755895563553 0 -0.20643719221934451 -0.034501183273154087 0 -0.1982726291493615 -0.044468755895563553 0 -0.20643719221934451 -0.034501183273154087 0 -0.2149568559154264 -0.047328516260760373 0 -0.20643719221934451 -0.034501183273154087 0 -0.2149568559154264 -0.047328516260760373 0 -0.2217741937323956 -0.0262017070596797 0 -0.2185521229612668 -0.074513868105514289 0 -0.19924563781459961 -0.060678553006908137 0 -0.2149568559154264 -0.047328516260760373 0 -0.19924563781459961 -0.060678553006908137 0 -0.1982726291493615 -0.044468755895563553 0 -0.2149568559154264 -0.047328516260760373 0 -0.2149568559154264 -0.047328516260760373 0 -0.23132487707746721 -0.05754836942190622 0 -0.23534848148579371 -0.041720765945479063 0 -0.2185521229612668 -0.074513868105514289 0 -0.2149568559154264 -0.047328516260760373 0 -0.23132487707746721 -0.05754836942190622 0 -0.2149568559154264 -0.047328516260760373 0 -0.23534848148579371 -0.041720765945479063 0 -0.2217741937323956 -0.0262017070596797 0 -0.23534848148579371 -0.041720765945479063 0 -0.2217741937323956 -0.0262017070596797 0 -0.24301377140621319 -0.027391834334228631 0 -0.23534848148579371 -0.041720765945479063 0 -0.25250546270070201 -0.035751721668152991 0 -0.25136966879894268 -0.051002482689167183 0 -0.23534848148579371 -0.041720765945479063 0 -0.24301377140621319 -0.027391834334228631 0 -0.25250546270070201 -0.035751721668152991 0 -0.23132487707746721 -0.05754836942190622 0 -0.23534848148579371 -0.041720765945479063 0 -0.25136966879894268 -0.051002482689167183 0 -0.23639725622590621 -0.073176214108610221 0 -0.23132487707746721 -0.05754836942190622 0 -0.25136966879894268 -0.051002482689167183 0 -0.22529258117075071 -0.0052217877908794143 0 -0.2217741937323956 -0.0262017070596797 0 -0.23289468208456801 -0.017861048885421942 0 -0.2217741937323956 -0.0262017070596797 0 -0.23289468208456801 -0.017861048885421942 0 -0.24301377140621319 -0.027391834334228631 0 -0.24301377140621319 -0.027391834334228631 0 -0.24558861593344469 -0.012195725998687091 0 -0.25896595582832588 -0.019710319931209121 0 -0.23289468208456801 -0.017861048885421942 0 -0.24301377140621319 -0.027391834334228631 0 -0.24558861593344469 -0.012195725998687091 0 -0.24301377140621319 -0.027391834334228631 0 -0.24558861593344469 -0.012195725998687091 0 -0.22529258117075071 -0.0052217877908794143 0 -0.24558861593344469 -0.012195725998687091 0 -0.24816346046067789 0.0030003823368541021 0 -0.22529258117075071 -0.0052217877908794143 0 -0.23289468208456801 -0.017861048885421942 0 -0.24558861593344469 -0.012195725998687091 0 -0.22529258117075071 -0.0052217877908794143 0 -0.24816346046067789 0.0030003823368541021 0 -0.24558861593344469 -0.012195725998687091 0 -0.25126771155282179 -0.0053418015683327838 0 -0.24816346046067789 0.0030003823368541021 0 -0.24558861593344469 -0.012195725998687091 0 -0.24816346046067789 0.0030003823368541021 0 -0.25126771155282179 -0.0053418015683327838 0 -0.25666233569757813 0.0012409316492498191 0 -0.25111082347070451 0.00049171989325213312 0 -0.25126771155282179 -0.0053418015683327838 0 -0.25111082347070451 0.00049171989325213312 0 -0.24816346046067789 0.0030003823368541021 0 -0.25126771155282179 -0.0053418015683327838 0 -0.26150630910382561 -0.0082306034975630476 0 -0.25666233569757813 0.0012409316492498191 0 -0.24558861593344469 -0.012195725998687091 0 -0.25126771155282179 -0.0053418015683327838 0 -0.25896595582832588 -0.019710319931209121 0 -0.25126771155282179 -0.0053418015683327838 0 -0.26150630910382561 -0.0082306034975630476 0 -0.25896595582832588 -0.019710319931209121 0 -0.26150630910382561 -0.0082306034975630476 0 -0.25896595582832588 -0.019710319931209121 0 -0.27237870517348828 -0.0095230257326722363 0 -0.26150630910382561 -0.0082306034975630476 0 -0.25666233569757813 0.0012409316492498191 0 -0.2663175910824343 0.0041000388923687252 0 -0.25896595582832588 -0.019710319931209121 0 -0.26824976825191632 -0.035442074325356773 0 -0.25250546270070201 -0.035751721668152991 0 -0.24301377140621319 -0.027391834334228631 0 -0.25896595582832588 -0.019710319931209121 0 -0.25250546270070201 -0.035751721668152991 0 -0.27605487172662918 -0.023078453342320209 0 -0.27237870517348828 -0.0095230257326722363 0 -0.29011434940838288 -0.01561015546518056 0 -0.25896595582832588 -0.019710319931209121 0 -0.27605487172662918 -0.023078453342320209 0 -0.26824976825191632 -0.035442074325356773 0 -0.25896595582832588 -0.019710319931209121 0 -0.27605487172662918 -0.023078453342320209 0 -0.27237870517348828 -0.0095230257326722363 0 -0.27605487172662918 -0.023078453342320209 0 -0.28910447484146018 -0.03505208954590594 0 -0.26824976825191632 -0.035442074325356773 0 -0.27237870517348828 -0.0095230257326722363 0 -0.29011434940838288 -0.01561015546518056 0 -0.28034186949023432 0.0037744074343769251 0 -0.26150630910382561 -0.0082306034975630476 0 -0.27237870517348828 -0.0095230257326722363 0 -0.2663175910824343 0.0041000388923687252 0 -0.27237870517348828 -0.0095230257326722363 0 -0.28034186949023432 0.0037744074343769251 0 -0.2663175910824343 0.0041000388923687252 0 -0.29011434940838288 -0.01561015546518056 0 -0.28034186949023432 0.0037744074343769251 0 -0.30089842648014392 0.0001112674280922266 0 -0.27605487172662918 -0.023078453342320209 0 -0.29011434940838288 -0.01561015546518056 0 -0.28910447484146018 -0.03505208954590594 0 -0.29011434940838288 -0.01561015546518056 0 -0.30757197148661641 -0.02871725358153162 0 -0.28910447484146018 -0.03505208954590594 0 -0.29011434940838288 -0.01561015546518056 0 -0.30757197148661641 -0.02871725358153162 0 -0.30604511876004159 -0.01406870566435261 0 -0.30757197148661641 -0.02871725358153162 0 -0.30604511876004159 -0.01406870566435261 0 -0.31855581529707588 -0.017374921839872739 0 -0.29011434940838288 -0.01561015546518056 0 -0.30604511876004159 -0.01406870566435261 0 -0.30089842648014392 0.0001112674280922266 0 -0.31451796535328408 -0.0067966948272421349 0 -0.31143887040146051 0.0038024028975646041 0 -0.30089842648014392 0.0001112674280922266 0 -0.30604511876004159 -0.01406870566435261 0 -0.31451796535328408 -0.0067966948272421349 0 -0.30089842648014392 0.0001112674280922266 0 -0.2925873113878813 -0.064573126995756014 0 -0.32068233896886889 -0.060271583439328903 0 -0.30914946811962613 -0.044427276451128699 0 -0.2925873113878813 -0.064573126995756014 0 -0.32068233896886889 -0.060271583439328903 0 -0.30914946811962613 -0.044427276451128699 0 -0.29190469540726077 -0.048659654933632182 0 -0.2925873113878813 -0.064573126995756014 0 -0.30757197148661641 -0.02871725358153162 0 -0.30914946811962613 -0.044427276451128699 0 -0.28910447484146018 -0.03505208954590594 0 -0.30914946811962613 -0.044427276451128699 0 -0.28910447484146018 -0.03505208954590594 0 -0.29190469540726077 -0.048659654933632182 0 -0.28910447484146018 -0.03505208954590594 0 -0.29190469540726077 -0.048659654933632182 0 -0.27677752728007571 -0.050586126741738069 0 -0.29190469540726077 -0.048659654933632182 0 -0.27677752728007571 -0.050586126741738069 0 -0.2925873113878813 -0.064573126995756014 0 -0.27677752728007571 -0.050586126741738069 0 -0.26449228380689371 -0.068874670552183118 0 -0.2925873113878813 -0.064573126995756014 0 -0.28910447484146018 -0.03505208954590594 0 -0.27677752728007571 -0.050586126741738069 0 -0.26824976825191632 -0.035442074325356773 0 -0.27677752728007571 -0.050586126741738069 0 -0.26824976825191632 -0.035442074325356773 0 -0.25136966879894268 -0.051002482689167183 0 -0.26824976825191632 -0.035442074325356773 0 -0.25250546270070201 -0.035751721668152991 0 -0.25136966879894268 -0.051002482689167183 0 -0.27677752728007571 -0.050586126741738069 0 -0.25136966879894268 -0.051002482689167183 0 -0.26449228380689371 -0.068874670552183118 0 -0.23639725622590621 -0.073176214108610221 0 -0.26449228380689371 -0.068874670552183118 0 -0.23639725622590621 -0.073176214108610221 0 -0.26449228380689371 -0.068874670552183118 0 -0.25181003488911058 -0.088936769675605293 0 -0.23639725622590621 -0.073176214108610221 0 -0.25136966879894268 -0.051002482689167183 0 -0.26449228380689371 -0.068874670552183118 0 -0.26449228380689371 -0.068874670552183118 0 -0.25181003488911058 -0.088936769675605293 0 -0.27745789735438009 -0.081765779295857793 0 -0.27745789735438009 -0.081765779295857793 0 -0.27166531799663118 -0.097795201430451978 0 -0.28897478794728299 -0.1014816896399572 0 -0.25181003488911058 -0.088936769675605293 0 -0.27745789735438009 -0.081765779295857793 0 -0.27166531799663118 -0.097795201430451978 0 -0.26449228380689371 -0.068874670552183118 0 -0.2925873113878813 -0.064573126995756014 0 -0.26449228380689371 -0.068874670552183118 0 -0.27745789735438009 -0.081765779295857793 0 -0.2925873113878813 -0.064573126995756014 0 -0.24168706540983631 -0.11826552156061861 0 -0.25686826842719213 -0.1164815964754297 0 -0.2638863961514003 -0.1339865903648281 0 -0.25686826842719213 -0.1164815964754297 0 -0.27332612011857549 -0.1143007619476084 0 -0.2638863961514003 -0.1339865903648281 0 -0.25686826842719213 -0.1164815964754297 0 -0.25915601644770692 -0.1049879978325747 0 -0.27332612011857549 -0.1143007619476084 0 -0.2450926919459446 -0.10993263026013871 0 -0.25686826842719213 -0.1164815964754297 0 -0.25915601644770692 -0.1049879978325747 0 -0.25181003488911058 -0.088936769675605293 0 -0.25915601644770692 -0.1049879978325747 0 -0.27166531799663118 -0.097795201430451978 0 -0.24898541820143941 -0.099744079344400965 0 -0.25181003488911058 -0.088936769675605293 0 -0.25915601644770692 -0.1049879978325747 0 -0.2450926919459446 -0.10993263026013871 0 -0.24898541820143941 -0.099744079344400965 0 -0.25915601644770692 -0.1049879978325747 0 -0.25915601644770692 -0.1049879978325747 0 -0.27166531799663118 -0.097795201430451978 0 -0.27332612011857549 -0.1143007619476084 0 -0.27166531799663118 -0.097795201430451978 0 -0.27332612011857549 -0.1143007619476084 0 -0.28897478794728299 -0.1014816896399572 0 -0.27332612011857549 -0.1143007619476084 0 -0.2638863961514003 -0.1339865903648281 0 -0.2794663231397454 -0.12572361104946189 0 -0.2917399418950154 -0.1198355082005947 0 -0.28897478794728299 -0.1014816896399572 0 -0.30588282774737668 -0.11323602103075241 0 -0.27332612011857549 -0.1143007619476084 0 -0.2917399418950154 -0.1198355082005947 0 -0.28897478794728299 -0.1014816896399572 0 -0.27332612011857549 -0.1143007619476084 0 -0.2917399418950154 -0.1198355082005947 0 -0.2794663231397454 -0.12572361104946189 0 -0.28897478794728299 -0.1014816896399572 0 -0.30674912993655912 -0.09779799411523149 0 -0.29605965562328218 -0.085191111363325828 0 -0.28897478794728299 -0.1014816896399572 0 -0.30674912993655912 -0.09779799411523149 0 -0.30588282774737668 -0.11323602103075241 0 -0.30674912993655912 -0.09779799411523149 0 -0.30588282774737668 -0.11323602103075241 0 -0.31724818339806538 -0.105303144356013 0 -0.30588282774737668 -0.11323602103075241 0 -0.32131704467674232 -0.11872925924087301 0 -0.30325395822530088 -0.12850347570533349 0 -0.2917399418950154 -0.1198355082005947 0 -0.30588282774737668 -0.11323602103075241 0 -0.30325395822530088 -0.12850347570533349 0 -0.27745789735438009 -0.081765779295857793 0 -0.2925873113878813 -0.064573126995756014 0 -0.29605965562328218 -0.085191111363325828 0 -0.27745789735438009 -0.081765779295857793 0 -0.28897478794728299 -0.1014816896399572 0 -0.29605965562328218 -0.085191111363325828 0 -0.30674912993655912 -0.09779799411523149 0 -0.29605965562328218 -0.085191111363325828 0 -0.31102434445446009 -0.087372491168896005 0 -0.29605965562328218 -0.085191111363325828 0 -0.31102434445446009 -0.087372491168896005 0 -0.30722508379179703 -0.077599866462979949 0 -0.2925873113878813 -0.064573126995756014 0 -0.31534522545460081 -0.070199694803843971 0 -0.32068233896886889 -0.060271583439328903 0 -0.2925873113878813 -0.064573126995756014 0 -0.30722508379179703 -0.077599866462979949 0 -0.31534522545460081 -0.070199694803843971 0 -0.2925873113878813 -0.064573126995756014 0 -0.29605965562328218 -0.085191111363325828 0 -0.30722508379179703 -0.077599866462979949 0 -0.31534522545460081 -0.070199694803843971 0 -0.32487174093862359 -0.065387623305069392 0 -0.32068233896886889 -0.060271583439328903 0 -0.31534522545460081 -0.070199694803843971 0 -0.32487174093862359 -0.065387623305069392 0 -0.3265057413603919 -0.073040343842298988 0 -0.32487174093862359 -0.065387623305069392 0 -0.3265057413603919 -0.073040343842298988 0 -0.33236743287184389 -0.065411762181777924 0 -0.31534522545460081 -0.070199694803843971 0 -0.3265057413603919 -0.073040343842298988 0 -0.31972011046805371 -0.080625975354995771 0 -0.30722508379179703 -0.077599866462979949 0 -0.31534522545460081 -0.070199694803843971 0 -0.31972011046805371 -0.080625975354995771 0 -0.31102434445446009 -0.087372491168896005 0 -0.30722508379179703 -0.077599866462979949 0 -0.31972011046805371 -0.080625975354995771 0 -0.30674912993655912 -0.09779799411523149 0 -0.31102434445446009 -0.087372491168896005 0 -0.32174998427863 -0.093444296202575175 0 -0.31102434445446009 -0.087372491168896005 0 -0.31972011046805371 -0.080625975354995771 0 -0.32174998427863 -0.093444296202575175 0 -0.31972011046805371 -0.080625975354995771 0 -0.32174998427863 -0.093444296202575175 0 -0.32964887828480638 -0.08414042191824303 0 -0.3265057413603919 -0.073040343842298988 0 -0.31972011046805371 -0.080625975354995771 0 -0.32964887828480638 -0.08414042191824303 0 -0.32964887828480638 -0.08414042191824303 0 -0.33773560831435601 -0.076230011721568847 0 -0.34725570589963889 -0.084647179823017116 0 -0.32964887828480638 -0.08414042191824303 0 -0.33578700644892762 -0.096448488754935252 0 -0.34725570589963889 -0.084647179823017116 0 -0.32964887828480638 -0.08414042191824303 0 -0.33578700644892762 -0.096448488754935252 0 -0.3333676320486833 -0.096254265500532107 0 -0.32174998427863 -0.093444296202575175 0 -0.32964887828480638 -0.08414042191824303 0 -0.3333676320486833 -0.096254265500532107 0 -0.32964887828480638 -0.08414042191824303 0 -0.33578700644892762 -0.096448488754935252 0 -0.33773560831435601 -0.076230011721568847 0 -0.34036807977142253 -0.065923797186483279 0 -0.33236743287184389 -0.065411762181777924 0 -0.32487174093862359 -0.065387623305069392 0 -0.33236743287184389 -0.065411762181777924 0 -0.32719457661222578 -0.059196550118175102 0 -0.3265057413603919 -0.073040343842298988 0 -0.32964887828480638 -0.08414042191824303 0 -0.33773560831435601 -0.076230011721568847 0 -0.3265057413603919 -0.073040343842298988 0 -0.33773560831435601 -0.076230011721568847 0 -0.33236743287184389 -0.065411762181777924 0 -0.30588282774737668 -0.11323602103075241 0 -0.32131704467674232 -0.11872925924087301 0 -0.31724818339806538 -0.105303144356013 0 -0.32131704467674232 -0.11872925924087301 0 -0.32894299553720091 -0.10351921074311859 0 -0.33324102642618858 -0.112202474737571 0 -0.32131704467674232 -0.11872925924087301 0 -0.31724818339806538 -0.105303144356013 0 -0.32894299553720091 -0.10351921074311859 0 -0.30674912993655912 -0.09779799411523149 0 -0.32174998427863 -0.093444296202575175 0 -0.31724818339806538 -0.105303144356013 0 -0.32174998427863 -0.093444296202575175 0 -0.3333676320486833 -0.096254265500532107 0 -0.32894299553720091 -0.10351921074311859 0 -0.32174998427863 -0.093444296202575175 0 -0.31724818339806538 -0.105303144356013 0 -0.32894299553720091 -0.10351921074311859 0 -0.33578700644892762 -0.096448488754935252 0 -0.33324102642618858 -0.112202474737571 0 -0.34681834072850293 -0.1185683265915812 0 -0.33578700644892762 -0.096448488754935252 0 -0.34681834072850293 -0.1185683265915812 0 -0.33578700644892762 -0.096448488754935252 0 -0.32894299553720091 -0.10351921074311859 0 -0.33324102642618858 -0.112202474737571 0 -0.33578700644892762 -0.096448488754935252 0 -0.3333676320486833 -0.096254265500532107 0 -0.32894299553720091 -0.10351921074311859 0 -0.33578700644892762 -0.096448488754935252 0 -0.3333676320486833 -0.096254265500532107 0 -0.33324102642618858 -0.112202474737571 0 -0.34681834072850293 -0.1185683265915812 0 -0.33387057434113282 -0.1337957211518998 0 -0.32131704467674232 -0.11872925924087301 0 -0.33324102642618858 -0.112202474737571 0 -0.33387057434113282 -0.1337957211518998 0 -0.34681834072850293 -0.1185683265915812 0 -0.36463841033050798 -0.09876463029772839 0 -0.36325787309512553 -0.1168784494371649 0 -0.33578700644892762 -0.096448488754935252 0 -0.36463841033050798 -0.09876463029772839 0 -0.33578700644892762 -0.096448488754935252 0 -0.34681834072850293 -0.1185683265915812 0 -0.36463841033050798 -0.09876463029772839 0 -0.36463841033050798 -0.09876463029772839 0 -0.36325787309512553 -0.1168784494371649 0 -0.37809455910319512 -0.11048055718521541 0 -0.36325787309512553 -0.1168784494371649 0 -0.37580779371669332 -0.125685498048419 0 -0.37809455910319512 -0.11048055718521541 0 -0.33773560831435601 -0.076230011721568847 0 -0.35390898394392512 -0.068702850730659612 0 -0.34725570589963889 -0.084647179823017116 0 -0.35390898394392512 -0.068702850730659612 0 -0.34725570589963889 -0.084647179823017116 0 -0.36505403769633732 -0.079872977447981414 0 -0.33773560831435601 -0.076230011721568847 0 -0.34036807977142253 -0.065923797186483279 0 -0.35390898394392512 -0.068702850730659612 0 -0.34036807977142253 -0.065923797186483279 0 -0.35390898394392512 -0.068702850730659612 0 -0.34896167572579512 -0.056502487499272773 0 -0.33578700644892762 -0.096448488754935252 0 -0.36463841033050798 -0.09876463029772839 0 -0.34725570589963889 -0.084647179823017116 0 -0.36463841033050798 -0.09876463029772839 0 -0.34725570589963889 -0.084647179823017116 0 -0.36505403769633732 -0.079872977447981414 0 -0.36463841033050798 -0.09876463029772839 0 -0.36505403769633732 -0.079872977447981414 0 -0.3803197219795556 -0.084281989074093427 0 -0.36505403769633732 -0.079872977447981414 0 -0.37914736632805901 -0.062968237314408509 0 -0.3803197219795556 -0.084281989074093427 0 -0.35390898394392512 -0.068702850730659612 0 -0.36505403769633732 -0.079872977447981414 0 -0.37914736632805901 -0.062968237314408509 0 -0.35390898394392512 -0.068702850730659612 0 -0.36552395558364581 -0.048642081291832361 0 -0.37914736632805901 -0.062968237314408509 0 -0.36552395558364581 -0.048642081291832361 0 -0.34896167572579512 -0.056502487499272773 0 -0.34666386410034328 -0.044462344794116072 0 -0.35390898394392512 -0.068702850730659612 0 -0.36552395558364581 -0.048642081291832361 0 -0.34896167572579512 -0.056502487499272773 0 -0.34896167572579512 -0.056502487499272773 0 -0.34666386410034328 -0.044462344794116072 0 -0.33834349522963891 -0.054781363493272561 0 -0.35615760165725491 -0.037668845838006122 0 -0.36424129027578461 -0.028452765912320339 0 -0.34677425967628073 -0.029386338165434581 0 -0.36552395558364581 -0.048642081291832361 0 -0.34666386410034328 -0.044462344794116072 0 -0.35615760165725491 -0.037668845838006122 0 -0.34666386410034328 -0.044462344794116072 0 -0.35615760165725491 -0.037668845838006122 0 -0.34677425967628073 -0.029386338165434581 0 -0.36552395558364581 -0.048642081291832361 0 -0.35615760165725491 -0.037668845838006122 0 -0.36424129027578461 -0.028452765912320339 0 -0.36552395558364581 -0.048642081291832361 0 -0.36424129027578461 -0.028452765912320339 0 -0.38498033268007859 -0.035161861431758618 0 -0.36424129027578461 -0.028452765912320339 0 -0.35822270157699548 -0.01632984828271055 0 -0.3785878346708148 -0.01940136801545269 0 -0.36773282995165379 -0.00174619774939233 0 -0.35822270157699548 -0.01632984828271055 0 -0.3785878346708148 -0.01940136801545269 0 -0.36773282995165379 -0.00174619774939233 0 -0.35133934022977531 -0.0050012027761295336 0 -0.35822270157699548 -0.01632984828271055 0 -0.35133934022977531 -0.0050012027761295336 0 -0.34499226762563739 -0.01673168095719749 0 -0.33985588956642782 -0.0098797239003355908 0 -0.35133934022977531 -0.0050012027761295336 0 -0.35822270157699548 -0.01632984828271055 0 -0.34499226762563739 -0.01673168095719749 0 -0.35133934022977531 -0.0050012027761295336 0 -0.33985588956642782 -0.0098797239003355908 0 -0.34154901110111657 0.0037492786904802038 0 -0.36424129027578461 -0.028452765912320339 0 -0.35822270157699548 -0.01632984828271055 0 -0.34677425967628073 -0.029386338165434581 0 -0.35822270157699548 -0.01632984828271055 0 -0.34499226762563739 -0.01673168095719749 0 -0.34677425967628073 -0.029386338165434581 0 -0.34677425967628073 -0.029386338165434581 0 -0.3358519529623567 -0.020462886894036591 0 -0.32637072626273972 -0.035074338841484823 0 -0.3358519529623567 -0.020462886894036591 0 -0.32554687591325288 -0.01095212756479454 0 -0.32637072626273972 -0.035074338841484823 0 -0.34499226762563739 -0.01673168095719749 0 -0.34677425967628073 -0.029386338165434581 0 -0.3358519529623567 -0.020462886894036591 0 -0.34499226762563739 -0.01673168095719749 0 -0.3358519529623567 -0.020462886894036591 0 -0.33985588956642782 -0.0098797239003355908 0 -0.32554687591325288 -0.01095212756479454 0 -0.34154901110111657 0.0037492786904802038 0 -0.33985588956642782 -0.0098797239003355908 0 -0.32554687591325288 -0.01095212756479454 0 -0.34154901110111657 0.0037492786904802038 0 -0.3358519529623567 -0.020462886894036591 0 -0.33985588956642782 -0.0098797239003355908 0 -0.32554687591325288 -0.01095212756479454 0 -0.32554687591325288 -0.01095212756479454 0 -0.32165509881444659 0.00051444964237450791 0 -0.32485586550436651 0.0092805507219395761 0 -0.32554687591325288 -0.01095212756479454 0 -0.32485586550436651 0.0092805507219395761 0 -0.32554687591325288 -0.01095212756479454 0 -0.31451796535328408 -0.0067966948272421349 0 -0.32165509881444659 0.00051444964237450791 0 -0.32554687591325288 -0.01095212756479454 0 -0.31855581529707588 -0.017374921839872739 0 -0.32554687591325288 -0.01095212756479454 0 -0.31451796535328408 -0.0067966948272421349 0 -0.31855581529707588 -0.017374921839872739 0 -0.30604511876004159 -0.01406870566435261 0 -0.31451796535328408 -0.0067966948272421349 0 -0.31855581529707588 -0.017374921839872739 0 -0.31451796535328408 -0.0067966948272421349 0 -0.31143887040146051 0.0038024028975646041 0 -0.32165509881444659 0.00051444964237450791 0 -0.32554687591325288 -0.01095212756479454 0 -0.32637072626273972 -0.035074338841484823 0 -0.30757197148661641 -0.02871725358153162 0 -0.31855581529707588 -0.017374921839872739 0 -0.32637072626273972 -0.035074338841484823 0 -0.32554687591325288 -0.01095212756479454 0 -0.31855581529707588 -0.017374921839872739 0 -0.32637072626273972 -0.035074338841484823 0 -0.30914946811962613 -0.044427276451128699 0 -0.32637072626273972 -0.035074338841484823 0 -0.32068233896886889 -0.060271583439328903 0 -0.30757197148661641 -0.02871725358153162 0 -0.30914946811962613 -0.044427276451128699 0 -0.32637072626273972 -0.035074338841484823 0 -0.32637072626273972 -0.035074338841484823 0 -0.32719457661222578 -0.059196550118175102 0 -0.32637072626273972 -0.035074338841484823 0 -0.32068233896886889 -0.060271583439328903 0 -0.32719457661222578 -0.059196550118175102 0 -0.32487174093862359 -0.065387623305069392 0 -0.32068233896886889 -0.060271583439328903 0 -0.32719457661222578 -0.059196550118175102 0 -0.32637072626273972 -0.035074338841484823 0 -0.32719457661222578 -0.059196550118175102 0 -0.33834349522963891 -0.054781363493272561 0 -0.33236743287184389 -0.065411762181777924 0 -0.32719457661222578 -0.059196550118175102 0 -0.33834349522963891 -0.054781363493272561 0 -0.34036807977142253 -0.065923797186483279 0 -0.33236743287184389 -0.065411762181777924 0 -0.33834349522963891 -0.054781363493272561 0 -0.34036807977142253 -0.065923797186483279 0 -0.34896167572579512 -0.056502487499272773 0 -0.33834349522963891 -0.054781363493272561 0 -0.34666386410034328 -0.044462344794116072 0 -0.34677425967628073 -0.029386338165434581 0 -0.32637072626273972 -0.035074338841484823 0 -0.34666386410034328 -0.044462344794116072 0 -0.32637072626273972 -0.035074338841484823 0 -0.33834349522963891 -0.054781363493272561 0 -0.29804212161249999 -0.2372767857896961 0 -0.30193187422854639 -0.24947705084208491 0 -0.3165201609574339 -0.24265484446821489 0 -0.29804212161249999 -0.2372767857896961 0 -0.32087064687699729 -0.2217508789777782 0 -0.3165201609574339 -0.24265484446821489 0 -0.29804212161249999 -0.2372767857896961 0 -0.32087064687699729 -0.2217508789777782 0 -0.29804212161249999 -0.2372767857896961 0 -0.30189202448949082 -0.21620071349578751 0 -0.32087064687699729 -0.2217508789777782 0 -0.29804212161249999 -0.2372767857896961 0 -0.28756490117097649 -0.22056490963688921 0 -0.28510652308584211 -0.24408715454833749 0 -0.29804212161249999 -0.2372767857896961 0 -0.28756490117097649 -0.22056490963688921 0 -0.30189202448949082 -0.21620071349578751 0 -0.28756490117097649 -0.22056490963688921 0 -0.28510652308584211 -0.24408715454833749 0 -0.27184137276880821 -0.22496293274644491 0 -0.29804212161249999 -0.2372767857896961 0 -0.30193187422854639 -0.24947705084208491 0 -0.28510652308584211 -0.24408715454833749 0 -0.26701369959111959 -0.25046832685296128 0 -0.28510652308584211 -0.24408715454833749 0 -0.27184137276880821 -0.22496293274644491 0 -0.26701369959111959 -0.25046832685296128 0 -0.27184137276880821 -0.22496293274644491 0 -0.28510652308584211 -0.24408715454833749 0 -0.27184137276880821 -0.22496293274644491 0 -0.26701369959111959 -0.25046832685296128 0 -0.2536317023007878 -0.2372900317130387 0 -0.27184137276880821 -0.22496293274644491 0 -0.26701369959111959 -0.25046832685296128 0 -0.24827797024798609 -0.25545493364081862 0 -0.2536317023007878 -0.2372900317130387 0 -0.24952608325490699 -0.22006214967458301 0 -0.2536317023007878 -0.2372900317130387 0 -0.27184137276880821 -0.22496293274644491 0 -0.27184137276880821 -0.22496293274644491 0 -0.27657266375942707 -0.1999667416401433 0 -0.26616836348253331 -0.19891949917083801 0 -0.27184137276880821 -0.22496293274644491 0 -0.27657266375942707 -0.1999667416401433 0 -0.28756490117097649 -0.22056490963688921 0 -0.27184137276880821 -0.22496293274644491 0 -0.27657266375942707 -0.1999667416401433 0 -0.27184137276880821 -0.22496293274644491 0 -0.25644432346436052 -0.20276517554389251 0 -0.26616836348253331 -0.19891949917083801 0 -0.245773254826505 -0.20823126201400199 0 -0.24952608325490699 -0.22006214967458301 0 -0.25644432346436052 -0.20276517554389251 0 -0.24952608325490699 -0.22006214967458301 0 -0.27184137276880821 -0.22496293274644491 0 -0.25644432346436052 -0.20276517554389251 0 -0.27184137276880821 -0.22496293274644491 0 -0.25644432346436052 -0.20276517554389251 0 -0.25775376639060738 -0.1927113805490783 0 -0.26616836348253331 -0.19891949917083801 0 -0.26788362700163898 -0.18321676813887439 0 -0.24561626626948921 -0.1962427190764516 0 -0.25775376639060738 -0.1927113805490783 0 -0.25644432346436052 -0.20276517554389251 0 -0.25775376639060738 -0.1927113805490783 0 -0.25644432346436052 -0.20276517554389251 0 -0.26616836348253331 -0.19891949917083801 0 -0.27657266375942707 -0.1999667416401433 0 -0.26616836348253331 -0.19891949917083801 0 -0.26788362700163898 -0.18321676813887439 0 -0.27657266375942707 -0.1999667416401433 0 -0.29412311610040748 -0.2027978718908435 0 -0.29879811227571501 -0.1871202360689472 0 -0.28756490117097649 -0.22056490963688921 0 -0.27657266375942707 -0.1999667416401433 0 -0.29412311610040748 -0.2027978718908435 0 -0.28756490117097649 -0.22056490963688921 0 -0.29412311610040748 -0.2027978718908435 0 -0.30189202448949082 -0.21620071349578751 0 -0.29412311610040748 -0.2027978718908435 0 -0.30189202448949082 -0.21620071349578751 0 -0.31629226980138692 -0.1992699216040528 0 -0.29879811227571501 -0.1871202360689472 0 -0.32044453036360521 -0.18465670265282449 0 -0.31629226980138692 -0.1992699216040528 0 -0.29879811227571501 -0.1871202360689472 0 -0.31629226980138692 -0.1992699216040528 0 -0.29412311610040748 -0.2027978718908435 0 -0.29879811227571501 -0.1871202360689472 0 -0.31629226980138692 -0.1992699216040528 0 -0.29879811227571501 -0.1871202360689472 0 -0.30794042101866359 -0.1745719465984063 0 -0.32044453036360521 -0.18465670265282449 0 -0.29879811227571501 -0.1871202360689472 0 -0.30794042101866359 -0.1745719465984063 0 -0.29500987417332042 -0.17183906345480601 0 -0.30794042101866359 -0.1745719465984063 0 -0.30065080800530269 -0.16002232337993999 0 -0.32429353754507129 -0.16872181001889389 0 -0.30794042101866359 -0.1745719465984063 0 -0.30065080800530269 -0.16002232337993999 0 -0.29500987417332042 -0.17183906345480601 0 -0.29500987417332042 -0.17183906345480601 0 -0.28130395475004327 -0.17497055053384111 0 -0.2860857268929643 -0.14970765916903789 0 -0.30065080800530269 -0.16002232337993999 0 -0.29500987417332042 -0.17183906345480601 0 -0.2860857268929643 -0.14970765916903789 0 -0.28130395475004327 -0.17497055053384111 0 -0.2860857268929643 -0.14970765916903789 0 -0.29879811227571501 -0.1871202360689472 0 -0.29500987417332042 -0.17183906345480601 0 -0.28130395475004327 -0.17497055053384111 0 -0.27657266375942707 -0.1999667416401433 0 -0.29879811227571501 -0.1871202360689472 0 -0.28130395475004327 -0.17497055053384111 0 -0.29879811227571501 -0.1871202360689472 0 -0.28130395475004327 -0.17497055053384111 0 -0.27657266375942707 -0.1999667416401433 0 -0.28130395475004327 -0.17497055053384111 0 -0.27657266375942707 -0.1999667416401433 0 -0.28130395475004327 -0.17497055053384111 0 -0.26788362700163898 -0.18321676813887439 0 -0.28130395475004327 -0.17497055053384111 0 -0.26788362700163898 -0.18321676813887439 0 -0.26624392945219127 -0.16451136887555801 0 -0.25775376639060738 -0.1927113805490783 0 -0.26788362700163898 -0.18321676813887439 0 -0.25399129187800901 -0.18275551748322119 0 -0.23948602157315579 -0.18052997999217571 0 -0.25775376639060738 -0.1927113805490783 0 -0.25399129187800901 -0.18275551748322119 0 -0.26788362700163898 -0.18321676813887439 0 -0.25618412166313992 -0.1747192439491671 0 -0.26624392945219127 -0.16451136887555801 0 -0.26788362700163898 -0.18321676813887439 0 -0.25618412166313992 -0.1747192439491671 0 -0.25399129187800901 -0.18275551748322119 0 -0.24889463164364681 -0.17799518177576529 0 -0.24603994590135489 -0.17167346917297491 0 -0.25618412166313992 -0.1747192439491671 0 -0.24889463164364681 -0.17799518177576529 0 -0.25618412166313992 -0.1747192439491671 0 -0.25399129187800901 -0.18275551748322119 0 -0.25418454954943548 -0.16550371179532489 0 -0.26624392945219127 -0.16451136887555801 0 -0.25118390415433972 -0.15405218721727429 0 -0.24603994590135489 -0.17167346917297491 0 -0.25618412166313992 -0.1747192439491671 0 -0.25418454954943548 -0.16550371179532489 0 -0.25618412166313992 -0.1747192439491671 0 -0.25418454954943548 -0.16550371179532489 0 -0.26624392945219127 -0.16451136887555801 0 -0.26624392945219127 -0.16451136887555801 0 -0.25118390415433972 -0.15405218721727429 0 -0.28130395475004327 -0.17497055053384111 0 -0.26624392945219127 -0.16451136887555801 0 -0.2860857268929643 -0.14970765916903789 0 -0.28130395475004327 -0.17497055053384111 0 -0.26624392945219127 -0.16451136887555801 0 -0.26624392945219127 -0.16451136887555801 0 -0.26775426738613589 -0.15007937660031381 0 -0.2860857268929643 -0.14970765916903789 0 -0.2638863961514003 -0.1339865903648281 0 -0.2860857268929643 -0.14970765916903789 0 -0.26775426738613589 -0.15007937660031381 0 -0.2638863961514003 -0.1339865903648281 0 -0.2860857268929643 -0.14970765916903789 0 -0.26775426738613589 -0.15007937660031381 0 -0.25118390415433972 -0.15405218721727429 0 -0.2638863961514003 -0.1339865903648281 0 -0.26624392945219127 -0.16451136887555801 0 -0.26775426738613589 -0.15007937660031381 0 -0.25118390415433972 -0.15405218721727429 0 -0.24670829182420889 -0.13553695229414689 0 -0.25118390415433972 -0.15405218721727429 0 -0.2638863961514003 -0.1339865903648281 0 -0.24168706540983631 -0.11826552156061861 0 -0.2638863961514003 -0.1339865903648281 0 -0.24670829182420889 -0.13553695229414689 0 -0.24168706540983631 -0.11826552156061861 0 -0.2638863961514003 -0.1339865903648281 0 -0.2638863961514003 -0.1339865903648281 0 -0.2889128343939904 -0.1347715836848164 0 -0.2860857268929643 -0.14970765916903789 0 -0.2638863961514003 -0.1339865903648281 0 -0.2794663231397454 -0.12572361104946189 0 -0.2889128343939904 -0.1347715836848164 0 -0.2917399418950154 -0.1198355082005947 0 -0.2794663231397454 -0.12572361104946189 0 -0.2889128343939904 -0.1347715836848164 0 -0.2917399418950154 -0.1198355082005947 0 -0.2889128343939904 -0.1347715836848164 0 -0.30325395822530088 -0.12850347570533349 0 -0.2917399418950154 -0.1198355082005947 0 -0.2889128343939904 -0.1347715836848164 0 -0.2889128343939904 -0.1347715836848164 0 -0.29838227583528582 -0.1426201638369442 0 -0.30325395822530088 -0.12850347570533349 0 -0.2889128343939904 -0.1347715836848164 0 -0.2860857268929643 -0.14970765916903789 0 -0.30065080800530269 -0.16002232337993999 0 -0.2860857268929643 -0.14970765916903789 0 -0.29838227583528582 -0.1426201638369442 0 -0.30065080800530269 -0.16002232337993999 0 -0.2860857268929643 -0.14970765916903789 0 -0.2889128343939904 -0.1347715836848164 0 -0.2860857268929643 -0.14970765916903789 0 -0.29838227583528582 -0.1426201638369442 0 -0.30065080800530269 -0.16002232337993999 0 -0.31300805165887058 -0.1400957772455933 0 -0.32378827561297419 -0.15158105859589191 0 -0.30065080800530269 -0.16002232337993999 0 -0.29838227583528582 -0.1426201638369442 0 -0.31300805165887058 -0.1400957772455933 0 -0.29838227583528582 -0.1426201638369442 0 -0.30325395822530088 -0.12850347570533349 0 -0.31300805165887058 -0.1400957772455933 0 -0.32131704467674232 -0.11872925924087301 0 -0.31300805165887058 -0.1400957772455933 0 -0.33387057434113282 -0.1337957211518998 0 -0.32131704467674232 -0.11872925924087301 0 -0.30325395822530088 -0.12850347570533349 0 -0.31300805165887058 -0.1400957772455933 0 -0.31300805165887058 -0.1400957772455933 0 -0.32378827561297419 -0.15158105859589191 0 -0.33387057434113282 -0.1337957211518998 0 -0.32378827561297419 -0.15158105859589191 0 -0.34107160627657412 -0.15470498722356071 0 -0.33387057434113282 -0.1337957211518998 0 -0.34681834072850293 -0.1185683265915812 0 -0.33387057434113282 -0.1337957211518998 0 -0.35784967500807718 -0.14068816442822771 0 -0.34681834072850293 -0.1185683265915812 0 -0.36325787309512553 -0.1168784494371649 0 -0.35784967500807718 -0.14068816442822771 0 -0.34681834072850293 -0.1185683265915812 0 -0.35784967500807718 -0.14068816442822771 0 -0.36325787309512553 -0.1168784494371649 0 -0.35784967500807718 -0.14068816442822771 0 -0.37580779371669332 -0.125685498048419 0 -0.35784967500807718 -0.14068816442822771 0 -0.37580779371669332 -0.125685498048419 0 -0.35784967500807718 -0.14068816442822771 0 -0.37776953653850059 -0.1431302088901347 0 -0.37580779371669332 -0.125685498048419 0 -0.35784967500807718 -0.14068816442822771 0 -0.36584245209404409 -0.15671514072368481 0 -0.37776953653850059 -0.1431302088901347 0 -0.35784967500807718 -0.14068816442822771 0 -0.36584245209404409 -0.15671514072368481 0 -0.36584245209404409 -0.15671514072368481 0 -0.37926534255081168 -0.15797909926129319 0 -0.37776953653850059 -0.1431302088901347 0 -0.34107160627657412 -0.15470498722356071 0 -0.35784967500807718 -0.14068816442822771 0 -0.34107160627657412 -0.15470498722356071 0 -0.35784967500807718 -0.14068816442822771 0 -0.36584245209404409 -0.15671514072368481 0 -0.34107160627657412 -0.15470498722356071 0 -0.33387057434113282 -0.1337957211518998 0 -0.35784967500807718 -0.14068816442822771 0 -0.34918997348902059 -0.16791248789867769 0 -0.36584245209404409 -0.15671514072368481 0 -0.36242210986491191 -0.17111947315326709 0 -0.34107160627657412 -0.15470498722356071 0 -0.34918997348902059 -0.16791248789867769 0 -0.36584245209404409 -0.15671514072368481 0 -0.36584245209404409 -0.15671514072368481 0 -0.37383522918000989 -0.17274211701914241 0 -0.36584245209404409 -0.15671514072368481 0 -0.37383522918000989 -0.17274211701914241 0 -0.37926534255081168 -0.15797909926129319 0 -0.36584245209404409 -0.15671514072368481 0 -0.36242210986491191 -0.17111947315326709 0 -0.37383522918000989 -0.17274211701914241 0 -0.37383522918000989 -0.17274211701914241 0 -0.36703300841006131 -0.18110200339313651 0 -0.3727769921791968 -0.19444492836575819 0 -0.36242210986491191 -0.17111947315326709 0 -0.37383522918000989 -0.17274211701914241 0 -0.36703300841006131 -0.18110200339313651 0 -0.36242210986491191 -0.17111947315326709 0 -0.36703300841006131 -0.18110200339313651 0 -0.35620988615142329 -0.17712561673169411 0 -0.36703300841006131 -0.18110200339313651 0 -0.35734270974983429 -0.18568924236977619 0 -0.36652769740599211 -0.19069906535394229 0 -0.36703300841006131 -0.18110200339313651 0 -0.35734270974983429 -0.18568924236977619 0 -0.35620988615142329 -0.17712561673169411 0 -0.35734270974983429 -0.18568924236977619 0 -0.35620988615142329 -0.17712561673169411 0 -0.3435319047774506 -0.18266184974766739 0 -0.34918997348902059 -0.16791248789867769 0 -0.36242210986491191 -0.17111947315326709 0 -0.35620988615142329 -0.17712561673169411 0 -0.34918997348902059 -0.16791248789867769 0 -0.35620988615142329 -0.17712561673169411 0 -0.3435319047774506 -0.18266184974766739 0 -0.35734270974983429 -0.18568924236977619 0 -0.3435319047774506 -0.18266184974766739 0 -0.35075756625196602 -0.1924416669241325 0 -0.3435319047774506 -0.18266184974766739 0 -0.32429353754507129 -0.16872181001889389 0 -0.32044453036360521 -0.18465670265282449 0 -0.34918997348902059 -0.16791248789867769 0 -0.3435319047774506 -0.18266184974766739 0 -0.32429353754507129 -0.16872181001889389 0 -0.34107160627657412 -0.15470498722356071 0 -0.32429353754507129 -0.16872181001889389 0 -0.34107160627657412 -0.15470498722356071 0 -0.34918997348902059 -0.16791248789867769 0 -0.32429353754507129 -0.16872181001889389 0 -0.32378827561297419 -0.15158105859589191 0 -0.34107160627657412 -0.15470498722356071 0 -0.32429353754507129 -0.16872181001889389 0 -0.30065080800530269 -0.16002232337993999 0 -0.32378827561297419 -0.15158105859589191 0 -0.32429353754507129 -0.16872181001889389 0 -0.30794042101866359 -0.1745719465984063 0 -0.32429353754507129 -0.16872181001889389 0 -0.32044453036360521 -0.18465670265282449 0 -0.31629226980138692 -0.1992699216040528 0 -0.33378642732705888 -0.21141960713915839 0 -0.33181093676334439 -0.19559445187897961 0 -0.32044453036360521 -0.18465670265282449 0 -0.31629226980138692 -0.1992699216040528 0 -0.33181093676334439 -0.19559445187897961 0 -0.31629226980138692 -0.1992699216040528 0 -0.33378642732705888 -0.21141960713915839 0 -0.31629226980138692 -0.1992699216040528 0 -0.33378642732705888 -0.21141960713915839 0 -0.32087064687699729 -0.2217508789777782 0 -0.30189202448949082 -0.21620071349578751 0 -0.31629226980138692 -0.1992699216040528 0 -0.32087064687699729 -0.2217508789777782 0 -0.34369917214149459 -0.20622497216586039 0 -0.32087064687699729 -0.2217508789777782 0 -0.34369917214149459 -0.20622497216586039 0 -0.34374916365757779 -0.22373208101247591 0 -0.32087064687699729 -0.2217508789777782 0 -0.33378642732705888 -0.21141960713915839 0 -0.34369917214149459 -0.20622497216586039 0 -0.32087064687699729 -0.2217508789777782 0 -0.33378642732705888 -0.21141960713915839 0 -0.34369917214149459 -0.20622497216586039 0 -0.33181093676334439 -0.19559445187897961 0 -0.34369917214149459 -0.20622497216586039 0 -0.34213353765333421 -0.1960132029629354 0 -0.33181093676334439 -0.19559445187897961 0 -0.3435319047774506 -0.18266184974766739 0 -0.32044453036360521 -0.18465670265282449 0 -0.33181093676334439 -0.19559445187897961 0 -0.3435319047774506 -0.18266184974766739 0 -0.34213353765333421 -0.1960132029629354 0 -0.33181093676334439 -0.19559445187897961 0 -0.34369917214149459 -0.20622497216586039 0 -0.35075756625196602 -0.1924416669241325 0 -0.36652769740599211 -0.19069906535394229 0 -0.35734270974983429 -0.18568924236977619 0 -0.35075756625196602 -0.1924416669241325 0 -0.36652769740599211 -0.19069906535394229 0 -0.34369917214149459 -0.20622497216586039 0 -0.36652769740599211 -0.19069906535394229 0 -0.35943398798911252 -0.2045734419382215 0 -0.34369917214149459 -0.20622497216586039 0 -0.36652769740599211 -0.19069906535394229 0 -0.3435319047774506 -0.18266184974766739 0 -0.34213353765333421 -0.1960132029629354 0 -0.35075756625196602 -0.1924416669241325 0 -0.34369917214149459 -0.20622497216586039 0 -0.34213353765333421 -0.1960132029629354 0 -0.35075756625196602 -0.1924416669241325 0 -0.36652769740599211 -0.19069906535394229 0 -0.3727769921791968 -0.19444492836575819 0 -0.35943398798911252 -0.2045734419382215 0 -0.36703300841006131 -0.18110200339313651 0 -0.36652769740599211 -0.19069906535394229 0 -0.3727769921791968 -0.19444492836575819 0 -0.37433616301007161 -0.20926161488262709 0 -0.36168647440898849 -0.21871919765379899 0 -0.37795339495275249 -0.2228989092713938 0 -0.3727769921791968 -0.19444492836575819 0 -0.35943398798911252 -0.2045734419382215 0 -0.36168647440898849 -0.21871919765379899 0 -0.3727769921791968 -0.19444492836575819 0 -0.37433616301007161 -0.20926161488262709 0 -0.36168647440898849 -0.21871919765379899 0 -0.3727769921791968 -0.19444492836575819 0 -0.36168647440898849 -0.21871919765379899 0 -0.36168647440898849 -0.21871919765379899 0 -0.35247960380989068 -0.21277904615174759 0 -0.34374916365757779 -0.22373208101247591 0 -0.34369917214149459 -0.20622497216586039 0 -0.35247960380989068 -0.21277904615174759 0 -0.34374916365757779 -0.22373208101247591 0 -0.35943398798911252 -0.2045734419382215 0 -0.36168647440898849 -0.21871919765379899 0 -0.35247960380989068 -0.21277904615174759 0 -0.34369917214149459 -0.20622497216586039 0 -0.35943398798911252 -0.2045734419382215 0 -0.35247960380989068 -0.21277904615174759 0 -0.36168647440898849 -0.21871919765379899 0 -0.35059595663878029 -0.2429934669418396 0 -0.34374916365757779 -0.22373208101247591 0 -0.36168647440898849 -0.21871919765379899 0 -0.35059595663878029 -0.2429934669418396 0 -0.36168647440898849 -0.21871919765379899 0 -0.37443718435660461 -0.2389812387045101 0 -0.37795339495275249 -0.2228989092713938 0 -0.36168647440898849 -0.21871919765379899 0 -0.37443718435660461 -0.2389812387045101 0 -0.35059595663878029 -0.2429934669418396 0 -0.36764123883450761 -0.25737832796895799 0 -0.37443718435660461 -0.2389812387045101 0 -0.35059595663878029 -0.2429934669418396 0 -0.32847411645108021 -0.25369701977162651 0 -0.35059595663878029 -0.2429934669418396 0 -0.33204200891637392 -0.23696565823438701 0 -0.35059595663878029 -0.2429934669418396 0 -0.33204200891637392 -0.23696565823438701 0 -0.34374916365757779 -0.22373208101247591 0 -0.33204200891637392 -0.23696565823438701 0 -0.34374916365757779 -0.22373208101247591 0 -0.32087064687699729 -0.2217508789777782 0 -0.33204200891637392 -0.23696565823438701 0 -0.32087064687699729 -0.2217508789777782 0 -0.3165201609574339 -0.24265484446821489 0 -0.32847411645108021 -0.25369701977162651 0 -0.33204200891637392 -0.23696565823438701 0 -0.3165201609574339 -0.24265484446821489 0 -0.42397476907017401 -0.25353629667850253 0 -0.43480649961984402 -0.2293104065181838 0 -0.44974283407700649 -0.24306414261632861 0 -0.42397476907017401 -0.25353629667850253 0 -0.43480649961984402 -0.2293104065181838 0 -0.41501558743146533 -0.2384769833899873 0 -0.43480649961984402 -0.2293104065181838 0 -0.41466242825083932 -0.22334975743253721 0 -0.42335141310657171 -0.20466390904420459 0 -0.43480649961984402 -0.2293104065181838 0 -0.41466242825083932 -0.22334975743253721 0 -0.41501558743146533 -0.2384769833899873 0 -0.41466242825083932 -0.22334975743253721 0 -0.40031846873018828 -0.2407203224328695 0 -0.41466242825083932 -0.22334975743253721 0 -0.41501558743146533 -0.2384769833899873 0 -0.40031846873018828 -0.2407203224328695 0 -0.41466242825083932 -0.22334975743253721 0 -0.40079004660583439 -0.22741313417258069 0 -0.40347976240504191 -0.21108276046437299 0 -0.42397476907017401 -0.25353629667850253 0 -0.39863302542689749 -0.24370875631517799 0 -0.42397476907017401 -0.25353629667850253 0 -0.41501558743146533 -0.2384769833899873 0 -0.39863302542689749 -0.24370875631517799 0 -0.38597450920953752 -0.25809088743320169 0 -0.39863302542689749 -0.24370875631517799 0 -0.40031846873018828 -0.2407203224328695 0 -0.41501558743146533 -0.2384769833899873 0 -0.39863302542689749 -0.24370875631517799 0 -0.40031846873018828 -0.2407203224328695 0 -0.38597450920953752 -0.25809088743320169 0 -0.40031846873018828 -0.2407203224328695 0 -0.38823937011867399 -0.2423807086131454 0 -0.38597450920953752 -0.25809088743320169 0 -0.40031846873018828 -0.2407203224328695 0 -0.40031846873018828 -0.2407203224328695 0 -0.39414176579205479 -0.23647058072661351 0 -0.40079004660583439 -0.22741313417258069 0 -0.40031846873018828 -0.2407203224328695 0 -0.39414176579205479 -0.23647058072661351 0 -0.38823937011867399 -0.2423807086131454 0 -0.39414176579205479 -0.23647058072661351 0 -0.38823937011867399 -0.2423807086131454 0 -0.39044933269814103 -0.23038998007265629 0 -0.37443718435660461 -0.2389812387045101 0 -0.38823937011867399 -0.2423807086131454 0 -0.39044933269814103 -0.23038998007265629 0 -0.38597450920953752 -0.25809088743320169 0 -0.37443718435660461 -0.2389812387045101 0 -0.38823937011867399 -0.2423807086131454 0 -0.37443718435660461 -0.2389812387045101 0 -0.37795339495275249 -0.2228989092713938 0 -0.39044933269814103 -0.23038998007265629 0 -0.37795339495275249 -0.2228989092713938 0 -0.39044933269814103 -0.23038998007265629 0 -0.38885782028995691 -0.21714251504337651 0 -0.41466242825083932 -0.22334975743253721 0 -0.40031846873018828 -0.2407203224328695 0 -0.40079004660583439 -0.22741313417258069 0 -0.39044933269814103 -0.23038998007265629 0 -0.40079004660583439 -0.22741313417258069 0 -0.38885782028995691 -0.21714251504337651 0 -0.39414176579205479 -0.23647058072661351 0 -0.39044933269814103 -0.23038998007265629 0 -0.40079004660583439 -0.22741313417258069 0 -0.40079004660583439 -0.22741313417258069 0 -0.40347976240504191 -0.21108276046437299 0 -0.38885782028995691 -0.21714251504337651 0 -0.40347976240504191 -0.21108276046437299 0 -0.38885782028995691 -0.21714251504337651 0 -0.38784593028486553 -0.2015796859508738 0 -0.37433616301007161 -0.20926161488262709 0 -0.38885782028995691 -0.21714251504337651 0 -0.38784593028486553 -0.2015796859508738 0 -0.37433616301007161 -0.20926161488262709 0 -0.37939982656821242 -0.1989870361534859 0 -0.38784593028486553 -0.2015796859508738 0 -0.37433616301007161 -0.20926161488262709 0 -0.37795339495275249 -0.2228989092713938 0 -0.38885782028995691 -0.21714251504337651 0 -0.3727769921791968 -0.19444492836575819 0 -0.38264022079871612 -0.19066191541468461 0 -0.37939982656821242 -0.1989870361534859 0 -0.3727769921791968 -0.19444492836575819 0 -0.37433616301007161 -0.20926161488262709 0 -0.37939982656821242 -0.1989870361534859 0 -0.38264022079871612 -0.19066191541468461 0 -0.37939982656821242 -0.1989870361534859 0 -0.38784593028486553 -0.2015796859508738 0 -0.38264022079871612 -0.19066191541468461 0 -0.38784593028486553 -0.2015796859508738 0 -0.39063058517835131 -0.18681896447016039 0 -0.40347976240504191 -0.21108276046437299 0 -0.38784593028486553 -0.2015796859508738 0 -0.40364444722427378 -0.19361142647466531 0 -0.38784593028486553 -0.2015796859508738 0 -0.40364444722427378 -0.19361142647466531 0 -0.39063058517835131 -0.18681896447016039 0 -0.40364444722427378 -0.19361142647466531 0 -0.42335141310657171 -0.20466390904420459 0 -0.41888545648844322 -0.18263723900700721 0 -0.40347976240504191 -0.21108276046437299 0 -0.40364444722427378 -0.19361142647466531 0 -0.42335141310657171 -0.20466390904420459 0 -0.41466242825083932 -0.22334975743253721 0 -0.40347976240504191 -0.21108276046437299 0 -0.42335141310657171 -0.20466390904420459 0 -0.43480649961984402 -0.2293104065181838 0 -0.42335141310657171 -0.20466390904420459 0 -0.44557495167517652 -0.209851757993048 0 -0.42335141310657171 -0.20466390904420459 0 -0.41888545648844322 -0.18263723900700721 0 -0.44039488561280271 -0.18586032600277491 0 -0.42335141310657171 -0.20466390904420459 0 -0.44039488561280271 -0.18586032600277491 0 -0.44557495167517652 -0.209851757993048 0 -0.42873209877534679 -0.16847913354110869 0 -0.41888545648844322 -0.18263723900700721 0 -0.44039488561280271 -0.18586032600277491 0 -0.42873209877534679 -0.16847913354110869 0 -0.42521206900384462 -0.14508654697434001 0 -0.44399413106695151 -0.15914456897721899 0 -0.42873209877534679 -0.16847913354110869 0 -0.41311634331255093 -0.1645111076339581 0 -0.42521206900384462 -0.14508654697434001 0 -0.40364444722427378 -0.19361142647466531 0 -0.41888545648844322 -0.18263723900700721 0 -0.40020347564426578 -0.17455827907491439 0 -0.41311634331255093 -0.1645111076339581 0 -0.41888545648844322 -0.18263723900700721 0 -0.40020347564426578 -0.17455827907491439 0 -0.42873209877534679 -0.16847913354110869 0 -0.41311634331255093 -0.1645111076339581 0 -0.41888545648844322 -0.18263723900700721 0 -0.40364444722427378 -0.19361142647466531 0 -0.40020347564426578 -0.17455827907491439 0 -0.39063058517835131 -0.18681896447016039 0 -0.40020347564426578 -0.17455827907491439 0 -0.39063058517835131 -0.18681896447016039 0 -0.38386750994940511 -0.1701706590777175 0 -0.38264022079871612 -0.19066191541468461 0 -0.39063058517835131 -0.18681896447016039 0 -0.38386750994940511 -0.1701706590777175 0 -0.37383522918000989 -0.17274211701914241 0 -0.3727769921791968 -0.19444492836575819 0 -0.38386750994940511 -0.1701706590777175 0 -0.3727769921791968 -0.19444492836575819 0 -0.38264022079871612 -0.19066191541468461 0 -0.38386750994940511 -0.1701706590777175 0 -0.3727769921791968 -0.19444492836575819 0 -0.38386750994940511 -0.1701706590777175 0 -0.38386750994940511 -0.1701706590777175 0 -0.39495802771961341 -0.1458963897896767 0 -0.37926534255081168 -0.15797909926129319 0 -0.38386750994940511 -0.1701706590777175 0 -0.39495802771961341 -0.1458963897896767 0 -0.37383522918000989 -0.17274211701914241 0 -0.37926534255081168 -0.15797909926129319 0 -0.38386750994940511 -0.1701706590777175 0 -0.41311634331255093 -0.1645111076339581 0 -0.40020347564426578 -0.17455827907491439 0 -0.39495802771961341 -0.1458963897896767 0 -0.40020347564426578 -0.17455827907491439 0 -0.38386750994940511 -0.1701706590777175 0 -0.39495802771961341 -0.1458963897896767 0 -0.37926534255081168 -0.15797909926129319 0 -0.39495802771961341 -0.1458963897896767 0 -0.37776953653850059 -0.1431302088901347 0 -0.39495802771961341 -0.1458963897896767 0 -0.37776953653850059 -0.1431302088901347 0 -0.39276443068780009 -0.12883860715484269 0 -0.37776953653850059 -0.1431302088901347 0 -0.37580779371669332 -0.125685498048419 0 -0.39276443068780009 -0.12883860715484269 0 -0.39495802771961341 -0.1458963897896767 0 -0.39276443068780009 -0.12883860715484269 0 -0.41234133793195588 -0.1279130308640469 0 -0.39276443068780009 -0.12883860715484269 0 -0.41234133793195588 -0.1279130308640469 0 -0.40207242602646542 -0.11995643334472141 0 -0.39495802771961341 -0.1458963897896767 0 -0.41234133793195588 -0.1279130308640469 0 -0.42521206900384462 -0.14508654697434001 0 -0.41311634331255093 -0.1645111076339581 0 -0.39495802771961341 -0.1458963897896767 0 -0.42521206900384462 -0.14508654697434001 0 -0.42521206900384462 -0.14508654697434001 0 -0.44759337652110021 -0.13242881195166301 0 -0.43180389902509531 -0.1192338834619093 0 -0.41234133793195588 -0.1279130308640469 0 -0.42521206900384462 -0.14508654697434001 0 -0.43180389902509531 -0.1192338834619093 0 -0.44759337652110021 -0.13242881195166301 0 -0.44399413106695151 -0.15914456897721899 0 -0.42521206900384462 -0.14508654697434001 0 -0.44759337652110021 -0.13242881195166301 0 -0.44399413106695151 -0.15914456897721899 0 -0.44759337652110021 -0.13242881195166301 0 -0.46993892041413182 -0.14918424583787521 0 -0.44399413106695151 -0.15914456897721899 0 -0.44759337652110021 -0.13242881195166301 0 -0.46696095530472342 -0.1310624224172425 0 -0.46993892041413182 -0.14918424583787521 0 -0.44759337652110021 -0.13242881195166301 0 -0.46696095530472342 -0.1310624224172425 0 -0.46057924045788751 -0.1205779851681158 0 -0.46696095530472342 -0.1310624224172425 0 -0.48169758413695202 -0.12654011477325491 0 -0.46993892041413182 -0.14918424583787521 0 -0.48169758413695202 -0.12654011477325491 0 -0.5 -0.13754982245163311 0 -0.46993892041413182 -0.14918424583787521 0 -0.46696095530472342 -0.1310624224172425 0 -0.48169758413695202 -0.12654011477325491 0 -0.472649507602036 -0.12030416359573699 0 -0.48169758413695202 -0.12654011477325491 0 -0.5 -0.13754982245163311 0 -0.49011189739272087 -0.11923588700793571 0 -0.5 -0.13754982245163311 0 -0.46993892041413182 -0.14918424583787521 0 -0.5 -0.16664364151500191 0 -0.46993892041413182 -0.14918424583787521 0 -0.5 -0.16664364151500191 0 -0.47020523598973329 -0.17627615616928691 0 -0.5 -0.16664364151500191 0 -0.47020523598973329 -0.17627615616928691 0 -0.5 -0.1957374605783706 0 -0.46993892041413182 -0.14918424583787521 0 -0.47020523598973329 -0.17627615616928691 0 -0.44399413106695151 -0.15914456897721899 0 -0.42873209877534679 -0.16847913354110869 0 -0.44399413106695151 -0.15914456897721899 0 -0.44039488561280271 -0.18586032600277491 0 -0.44399413106695151 -0.15914456897721899 0 -0.44039488561280271 -0.18586032600277491 0 -0.47020523598973329 -0.17627615616928691 0 -0.44399413106695151 -0.15914456897721899 0 -0.44039488561280271 -0.18586032600277491 0 -0.44039488561280271 -0.18586032600277491 0 -0.44557495167517652 -0.209851757993048 0 -0.47131180399768507 -0.2047843140567413 0 -0.47131180399768507 -0.2047843140567413 0 -0.47563483755881558 -0.22481297646038231 0 -0.45801015603897888 -0.2246398343433352 0 -0.44557495167517652 -0.209851757993048 0 -0.47131180399768507 -0.2047843140567413 0 -0.45801015603897888 -0.2246398343433352 0 -0.47020523598973329 -0.17627615616928691 0 -0.44039488561280271 -0.18586032600277491 0 -0.47131180399768507 -0.2047843140567413 0 -0.47020523598973329 -0.17627615616928691 0 -0.5 -0.1957374605783706 0 -0.47131180399768507 -0.2047843140567413 0 -0.5 -0.1957374605783706 0 -0.47131180399768507 -0.2047843140567413 0 -0.5 -0.22483127964173941 0 -0.47131180399768507 -0.2047843140567413 0 -0.47563483755881558 -0.22481297646038231 0 -0.5 -0.22483127964173941 0 -0.47563483755881558 -0.22481297646038231 0 -0.4732173901985986 -0.2449964777997132 0 -0.45801015603897888 -0.2246398343433352 0 -0.47563483755881558 -0.22481297646038231 0 -0.5 -0.22483127964173941 0 -0.4732173901985986 -0.2449964777997132 0 -0.5 -0.25392509870510832 0 -0.5 -0.22483127964173941 0 -0.4732173901985986 -0.2449964777997132 0 -0.4732173901985986 -0.2449964777997132 0 -0.45801015603897888 -0.2246398343433352 0 -0.44974283407700649 -0.24306414261632861 0 -0.43480649961984402 -0.2293104065181838 0 -0.44557495167517652 -0.209851757993048 0 -0.45801015603897888 -0.2246398343433352 0 -0.43480649961984402 -0.2293104065181838 0 -0.45801015603897888 -0.2246398343433352 0 -0.44974283407700649 -0.24306414261632861 0 -0.42205554508422982 -0.039816377074084627 0 -0.42248057170117009 -0.022582871488531529 0 -0.40568486704566842 -0.041187406487239883 0 -0.42248057170117009 -0.022582871488531529 0 -0.40568486704566842 -0.041187406487239883 0 -0.41279568120248 -0.053551026128727849 0 -0.42205554508422982 -0.039816377074084627 0 -0.40568486704566842 -0.041187406487239883 0 -0.41279568120248 -0.053551026128727849 0 -0.43010338951272492 -0.049771306551784411 0 -0.42205554508422982 -0.039816377074084627 0 -0.41279568120248 -0.053551026128727849 0 -0.43010338951272492 -0.049771306551784411 0 -0.42308893815764792 -0.064722310244828066 0 -0.43010338951272492 -0.049771306551784411 0 -0.42308893815764792 -0.064722310244828066 0 -0.43980819028983031 -0.062250681101631053 0 -0.43010338951272492 -0.049771306551784411 0 -0.43390451750787401 -0.035451043068354463 0 -0.44656270010713273 -0.042971230502299541 0 -0.42205554508422982 -0.039816377074084627 0 -0.43390451750787401 -0.035451043068354463 0 -0.42248057170117009 -0.022582871488531529 0 -0.43010338951272492 -0.049771306551784411 0 -0.42205554508422982 -0.039816377074084627 0 -0.43390451750787401 -0.035451043068354463 0 -0.43390451750787401 -0.035451043068354463 0 -0.42248057170117009 -0.022582871488531529 0 -0.44832038113411249 -0.022113429725073071 0 -0.42248057170117009 -0.022582871488531529 0 -0.43862839027586409 -0.0046959973151864398 0 -0.44832038113411249 -0.022113429725073071 0 -0.42248057170117009 -0.022582871488531529 0 -0.44832038113411249 -0.022113429725073071 0 -0.42248057170117009 -0.022582871488531529 0 -0.42597947323087543 -0.0090103536709670029 0 -0.43862839027586409 -0.0046959973151864398 0 -0.42248057170117009 -0.022582871488531529 0 -0.43862839027586409 -0.0046959973151864398 0 -0.42597947323087543 -0.0090103536709670029 0 -0.43862839027586409 -0.0046959973151864398 0 -0.43050121763171523 0.001204678559991162 0 -0.42597947323087543 -0.0090103536709670029 0 -0.43050121763171523 0.001204678559991162 0 -0.42262721034591461 0.0039993990915221118 0 -0.42597947323087543 -0.0090103536709670029 0 -0.41065635893431801 -0.01017180525724273 0 -0.40850407597953198 0.0050437946196981174 0 -0.42597947323087543 -0.0090103536709670029 0 -0.40850407597953198 0.0050437946196981174 0 -0.42248057170117009 -0.022582871488531529 0 -0.42597947323087543 -0.0090103536709670029 0 -0.41065635893431801 -0.01017180525724273 0 -0.42248057170117009 -0.022582871488531529 0 -0.41065635893431801 -0.01017180525724273 0 -0.40212431635517332 -0.022952691414324509 0 -0.42248057170117009 -0.022582871488531529 0 -0.40212431635517332 -0.022952691414324509 0 -0.42248057170117009 -0.022582871488531529 0 -0.40212431635517332 -0.022952691414324509 0 -0.40568486704566842 -0.041187406487239883 0 -0.40212431635517332 -0.022952691414324509 0 -0.39926558985260341 -0.0040230340364888727 0 -0.38586672766963009 -0.0039758236297552374 0 -0.41065635893431801 -0.01017180525724273 0 -0.40212431635517332 -0.022952691414324509 0 -0.39926558985260341 -0.0040230340364888727 0 -0.41065635893431801 -0.01017180525724273 0 -0.39926558985260341 -0.0040230340364888727 0 -0.40850407597953198 0.0050437946196981174 0 -0.36773282995165379 -0.00174619774939233 0 -0.38586672766963009 -0.0039758236297552374 0 -0.3785878346708148 -0.01940136801545269 0 -0.40212431635517332 -0.022952691414324509 0 -0.38586672766963009 -0.0039758236297552374 0 -0.3785878346708148 -0.01940136801545269 0 -0.40212431635517332 -0.022952691414324509 0 -0.3785878346708148 -0.01940136801545269 0 -0.38498033268007859 -0.035161861431758618 0 -0.36424129027578461 -0.028452765912320339 0 -0.3785878346708148 -0.01940136801545269 0 -0.38498033268007859 -0.035161861431758618 0 -0.36552395558364581 -0.048642081291832361 0 -0.38498033268007859 -0.035161861431758618 0 -0.39182459664616842 -0.051357121041018049 0 -0.38498033268007859 -0.035161861431758618 0 -0.40568486704566842 -0.041187406487239883 0 -0.39182459664616842 -0.051357121041018049 0 -0.40212431635517332 -0.022952691414324509 0 -0.38498033268007859 -0.035161861431758618 0 -0.40568486704566842 -0.041187406487239883 0 -0.41279568120248 -0.053551026128727849 0 -0.40568486704566842 -0.041187406487239883 0 -0.39182459664616842 -0.051357121041018049 0 -0.39182459664616842 -0.051357121041018049 0 -0.37914736632805901 -0.062968237314408509 0 -0.40385129457438179 -0.072103504009581321 0 -0.41279568120248 -0.053551026128727849 0 -0.39182459664616842 -0.051357121041018049 0 -0.40385129457438179 -0.072103504009581321 0 -0.36552395558364581 -0.048642081291832361 0 -0.39182459664616842 -0.051357121041018049 0 -0.37914736632805901 -0.062968237314408509 0 -0.37914736632805901 -0.062968237314408509 0 -0.3803197219795556 -0.084281989074093427 0 -0.40385129457438179 -0.072103504009581321 0 -0.3803197219795556 -0.084281989074093427 0 -0.39658473782159059 -0.086682051263640522 0 -0.3934898142120884 -0.10108077184052169 0 -0.39658473782159059 -0.086682051263640522 0 -0.40385129457438179 -0.072103504009581321 0 -0.40867812052033681 -0.089261940130365688 0 -0.3803197219795556 -0.084281989074093427 0 -0.39658473782159059 -0.086682051263640522 0 -0.40385129457438179 -0.072103504009581321 0 -0.39658473782159059 -0.086682051263640522 0 -0.3934898142120884 -0.10108077184052169 0 -0.40867812052033681 -0.089261940130365688 0 -0.37914736632805901 -0.062968237314408509 0 -0.40385129457438179 -0.072103504009581321 0 -0.37580779371669332 -0.125685498048419 0 -0.37809455910319512 -0.11048055718521541 0 -0.39376591242530973 -0.11068283166861061 0 -0.37580779371669332 -0.125685498048419 0 -0.39376591242530973 -0.11068283166861061 0 -0.37580779371669332 -0.125685498048419 0 -0.39276443068780009 -0.12883860715484269 0 -0.39376591242530973 -0.11068283166861061 0 -0.36463841033050798 -0.09876463029772839 0 -0.37809455910319512 -0.11048055718521541 0 -0.3934898142120884 -0.10108077184052169 0 -0.36463841033050798 -0.09876463029772839 0 -0.3934898142120884 -0.10108077184052169 0 -0.37809455910319512 -0.11048055718521541 0 -0.3934898142120884 -0.10108077184052169 0 -0.39376591242530973 -0.11068283166861061 0 -0.36463841033050798 -0.09876463029772839 0 -0.3803197219795556 -0.084281989074093427 0 -0.3934898142120884 -0.10108077184052169 0 -0.3934898142120884 -0.10108077184052169 0 -0.39376591242530973 -0.11068283166861061 0 -0.40941802306079611 -0.11239126369138561 0 -0.39276443068780009 -0.12883860715484269 0 -0.39376591242530973 -0.11068283166861061 0 -0.40207242602646542 -0.11995643334472141 0 -0.39376591242530973 -0.11068283166861061 0 -0.40207242602646542 -0.11995643334472141 0 -0.40941802306079611 -0.11239126369138561 0 -0.40941802306079611 -0.11239126369138561 0 -0.42234121809366859 -0.1033969133833149 0 -0.43180389902509531 -0.1192338834619093 0 -0.41234133793195588 -0.1279130308640469 0 -0.40941802306079611 -0.11239126369138561 0 -0.43180389902509531 -0.1192338834619093 0 -0.41234133793195588 -0.1279130308640469 0 -0.40207242602646542 -0.11995643334472141 0 -0.40941802306079611 -0.11239126369138561 0 -0.3934898142120884 -0.10108077184052169 0 -0.42234121809366859 -0.1033969133833149 0 -0.40867812052033681 -0.089261940130365688 0 -0.3934898142120884 -0.10108077184052169 0 -0.40941802306079611 -0.11239126369138561 0 -0.42234121809366859 -0.1033969133833149 0 -0.3934898142120884 -0.10108077184052169 0 -0.42234121809366859 -0.1033969133833149 0 -0.42234121809366859 -0.1033969133833149 0 -0.45119262197524912 -0.10571305492610709 0 -0.42234121809366859 -0.1033969133833149 0 -0.45119262197524912 -0.10571305492610709 0 -0.43883705348916252 -0.095180694103525476 0 -0.42234121809366859 -0.1033969133833149 0 -0.43180389902509531 -0.1192338834619093 0 -0.45119262197524912 -0.10571305492610709 0 -0.40385129457438179 -0.072103504009581321 0 -0.42855522282070457 -0.081238770704754132 0 -0.41279568120248 -0.053551026128727849 0 -0.40385129457438179 -0.072103504009581321 0 -0.42308893815764792 -0.064722310244828066 0 -0.40385129457438179 -0.072103504009581321 0 -0.42855522282070457 -0.081238770704754132 0 -0.42308893815764792 -0.064722310244828066 0 -0.42234121809366859 -0.1033969133833149 0 -0.40867812052033681 -0.089261940130365688 0 -0.42855522282070457 -0.081238770704754132 0 -0.40385129457438179 -0.072103504009581321 0 -0.40867812052033681 -0.089261940130365688 0 -0.42855522282070457 -0.081238770704754132 0 -0.42234121809366859 -0.1033969133833149 0 -0.42855522282070457 -0.081238770704754132 0 -0.43883705348916252 -0.095180694103525476 0 -0.42855522282070457 -0.081238770704754132 0 -0.42308893815764792 -0.064722310244828066 0 -0.43980819028983031 -0.062250681101631053 0 -0.42855522282070457 -0.081238770704754132 0 -0.45576298608403182 -0.071789073190485317 0 -0.43980819028983031 -0.062250681101631053 0 -0.42855522282070457 -0.081238770704754132 0 -0.45325915106702802 -0.09037403739992575 0 -0.43883705348916252 -0.095180694103525476 0 -0.42855522282070457 -0.081238770704754132 0 -0.45325915106702802 -0.09037403739992575 0 -0.42855522282070457 -0.081238770704754132 0 -0.45325915106702802 -0.09037403739992575 0 -0.45576298608403182 -0.071789073190485317 0 -0.45325915106702802 -0.09037403739992575 0 -0.46773701885493968 -0.085131195631220458 0 -0.45576298608403182 -0.071789073190485317 0 -0.45325915106702802 -0.09037403739992575 0 -0.46773701885493968 -0.085131195631220458 0 -0.47440190635006818 -0.098192417790911951 0 -0.45325915106702802 -0.09037403739992575 0 -0.45576298608403182 -0.071789073190485317 0 -0.46773701885493968 -0.085131195631220458 0 -0.45576298608403182 -0.071789073190485317 0 -0.48053537599309448 -0.075077481218276648 0 -0.44759337652110021 -0.13242881195166301 0 -0.45119262197524912 -0.10571305492610709 0 -0.46057924045788751 -0.1205779851681158 0 -0.44759337652110021 -0.13242881195166301 0 -0.43180389902509531 -0.1192338834619093 0 -0.45119262197524912 -0.10571305492610709 0 -0.44759337652110021 -0.13242881195166301 0 -0.45119262197524912 -0.10571305492610709 0 -0.45325915106702802 -0.09037403739992575 0 -0.45119262197524912 -0.10571305492610709 0 -0.43883705348916252 -0.095180694103525476 0 -0.45325915106702802 -0.09037403739992575 0 -0.45119262197524912 -0.10571305492610709 0 -0.45325915106702802 -0.09037403739992575 0 -0.46221796282571309 -0.1001649663562902 0 -0.47440190635006818 -0.098192417790911951 0 -0.45119262197524912 -0.10571305492610709 0 -0.4722170274973761 -0.1074008583772747 0 -0.45119262197524912 -0.10571305492610709 0 -0.46221796282571309 -0.1001649663562902 0 -0.4722170274973761 -0.1074008583772747 0 -0.45325915106702802 -0.09037403739992575 0 -0.47440190635006818 -0.098192417790911951 0 -0.45325915106702802 -0.09037403739992575 0 -0.45119262197524912 -0.10571305492610709 0 -0.46221796282571309 -0.1001649663562902 0 -0.45119262197524912 -0.10571305492610709 0 -0.46057924045788751 -0.1205779851681158 0 -0.4722170274973761 -0.1074008583772747 0 -0.46057924045788751 -0.1205779851681158 0 -0.472649507602036 -0.12030416359573699 0 -0.4722170274973761 -0.1074008583772747 0 -0.46696095530472342 -0.1310624224172425 0 -0.46057924045788751 -0.1205779851681158 0 -0.472649507602036 -0.12030416359573699 0 -0.48169758413695202 -0.12654011477325491 0 -0.472649507602036 -0.12030416359573699 0 -0.48061965691748593 -0.1128010418630136 0 -0.48169758413695202 -0.12654011477325491 0 -0.48061965691748593 -0.1128010418630136 0 -0.49011189739272087 -0.11923588700793571 0 -0.472649507602036 -0.12030416359573699 0 -0.48061965691748593 -0.1128010418630136 0 -0.4722170274973761 -0.1074008583772747 0 -0.48342041077750719 -0.10602960453047269 0 -0.47766475038560929 -0.10610598064041819 0 -0.47440190635006818 -0.098192417790911951 0 -0.48061965691748593 -0.1128010418630136 0 -0.47766475038560929 -0.10610598064041819 0 -0.4722170274973761 -0.1074008583772747 0 -0.48061965691748593 -0.1128010418630136 0 -0.48342041077750719 -0.10602960453047269 0 -0.47766475038560929 -0.10610598064041819 0 -0.47766475038560929 -0.10610598064041819 0 -0.4722170274973761 -0.1074008583772747 0 -0.47440190635006818 -0.098192417790911951 0 -0.46221796282571309 -0.1001649663562902 0 -0.4722170274973761 -0.1074008583772747 0 -0.47440190635006818 -0.098192417790911951 0 -0.47440190635006818 -0.098192417790911951 0 -0.4955446616331089 -0.1060107981818969 0 -0.48781240370355899 -0.090492344307092715 0 -0.4955446616331089 -0.1060107981818969 0 -0.5 -0.10845600338826419 0 -0.5 -0.079362184324895391 0 -0.48342041077750719 -0.10602960453047269 0 -0.47440190635006818 -0.098192417790911951 0 -0.4955446616331089 -0.1060107981818969 0 -0.47440190635006818 -0.098192417790911951 0 -0.4955446616331089 -0.1060107981818969 0 -0.4955446616331089 -0.1060107981818969 0 -0.5 -0.10845600338826419 0 -0.48993932534416462 -0.1105066669943166 0 -0.48342041077750719 -0.10602960453047269 0 -0.4955446616331089 -0.1060107981818969 0 -0.48993932534416462 -0.1105066669943166 0 -0.5 -0.13754982245163311 0 -0.5 -0.10845600338826419 0 -0.49011189739272087 -0.11923588700793571 0 -0.48061965691748593 -0.1128010418630136 0 -0.48342041077750719 -0.10602960453047269 0 -0.48993932534416462 -0.1105066669943166 0 -0.48061965691748593 -0.1128010418630136 0 -0.48993932534416462 -0.1105066669943166 0 -0.49011189739272087 -0.11923588700793571 0 -0.5 -0.10845600338826419 0 -0.48993932534416462 -0.1105066669943166 0 -0.49011189739272087 -0.11923588700793571 0 -0.45576298608403182 -0.071789073190485317 0 -0.48053537599309448 -0.075077481218276648 0 -0.47456609176647269 -0.058331361634392877 0 -0.46773701885493968 -0.085131195631220458 0 -0.48053537599309448 -0.075077481218276648 0 -0.47762167622541529 -0.087223359736875436 0 -0.46773701885493968 -0.085131195631220458 0 -0.47440190635006818 -0.098192417790911951 0 -0.47762167622541529 -0.087223359736875436 0 -0.47440190635006818 -0.098192417790911951 0 -0.47762167622541529 -0.087223359736875436 0 -0.48781240370355899 -0.090492344307092715 0 -0.48053537599309448 -0.075077481218276648 0 -0.47762167622541529 -0.087223359736875436 0 -0.48781240370355899 -0.090492344307092715 0 -0.4955446616331089 -0.1060107981818969 0 -0.5 -0.079362184324895391 0 -0.48781240370355899 -0.090492344307092715 0 -0.48053537599309448 -0.075077481218276648 0 -0.5 -0.079362184324895391 0 -0.48781240370355899 -0.090492344307092715 0 -0.48053537599309448 -0.075077481218276648 0 -0.5 -0.079362184324895391 0 -0.5 -0.050268365261526671 0 -0.48053537599309448 -0.075077481218276648 0 -0.5 -0.050268365261526671 0 -0.47456609176647269 -0.058331361634392877 0 -0.5 -0.050268365261526671 0 -0.47826527565420152 -0.041317779520630787 0 -0.49999999999999711 -0.02117454619815794 0 -0.47826527565420152 -0.041317779520630787 0 -0.46157088873191843 -0.036267715029381323 0 -0.47416019056705477 -0.021643987961615471 0 -0.47826527565420152 -0.041317779520630787 0 -0.47456609176647269 -0.058331361634392877 0 -0.45826682110103528 -0.05320410898104494 0 -0.5 -0.050268365261526671 0 -0.47826527565420152 -0.041317779520630787 0 -0.47456609176647269 -0.058331361634392877 0 -0.45576298608403182 -0.071789073190485317 0 -0.45826682110103528 -0.05320410898104494 0 -0.45576298608403182 -0.071789073190485317 0 -0.47456609176647269 -0.058331361634392877 0 -0.45826682110103528 -0.05320410898104494 0 -0.45826682110103528 -0.05320410898104494 0 -0.46157088873191843 -0.036267715029381323 0 -0.44656270010713273 -0.042971230502299541 0 -0.47826527565420152 -0.041317779520630787 0 -0.45826682110103528 -0.05320410898104494 0 -0.46157088873191843 -0.036267715029381323 0 -0.43390451750787401 -0.035451043068354463 0 -0.44656270010713273 -0.042971230502299541 0 -0.44832038113411249 -0.022113429725073071 0 -0.46157088873191843 -0.036267715029381323 0 -0.44656270010713273 -0.042971230502299541 0 -0.44832038113411249 -0.022113429725073071 0 -0.45576298608403182 -0.071789073190485317 0 -0.45826682110103528 -0.05320410898104494 0 -0.43980819028983031 -0.062250681101631053 0 -0.43010338951272492 -0.049771306551784411 0 -0.44656270010713273 -0.042971230502299541 0 -0.43980819028983031 -0.062250681101631053 0 -0.45826682110103528 -0.05320410898104494 0 -0.44656270010713273 -0.042971230502299541 0 -0.43980819028983031 -0.062250681101631053 0 -0.43862839027586409 -0.0046959973151864398 0 -0.44832038113411249 -0.022113429725073071 0 -0.4578500182818811 -0.0070552588472488969 0 -0.44832038113411249 -0.022113429725073071 0 -0.47416019056705477 -0.021643987961615471 0 -0.44832038113411249 -0.022113429725073071 0 -0.4578500182818811 -0.0070552588472488969 0 -0.47416019056705477 -0.021643987961615471 0 -0.46157088873191843 -0.036267715029381323 0 -0.44832038113411249 -0.022113429725073071 0 -0.47416019056705477 -0.021643987961615471 0 -0.4578500182818811 -0.0070552588472488969 0 -0.47336492058181651 -1.3756092529014339e-05 0 -0.47416019056705477 -0.021643987961615471 0 -0.47336492058181651 -1.3756092529014339e-05 0 -0.47416019056705477 -0.021643987961615471 0 -0.49999999999999711 -0.02117454619815794 0 -0.47826527565420152 -0.041317779520630787 0 -0.47416019056705477 -0.021643987961615471 0 -0.49999999999999711 -0.02117454619815794 0 -0.47416019056705477 -0.021643987961615471 0 -0.49999999999999711 -0.02117454619815794 0 -0.47336492058181651 -1.3756092529014339e-05 0 -0.49999999999999711 -0.02117454619815794 0 -0.5 0.0069786657951326214 0 -0.47336492058181651 -1.3756092529014339e-05 0 -0.5 0.0069786657951326214 0 -0.48386225902648372 0.017098076089857708 0 -0.49123775828230598 0.023787943208615159 0 -0.48386225902648372 0.017098076089857708 0 -0.48108877410274048 0.035943153161047278 0 -0.5 0.0069786657951326214 0 -0.49123775828230598 0.023787943208615159 0 -0.48386225902648372 0.017098076089857708 0 -0.5 0.0069786657951326214 0 -0.49123775828230598 0.023787943208615159 0 -0.5 0.035131877788423027 0 -0.48386225902648372 0.017098076089857708 0 -0.47092402742525041 0.031077751031505479 0 -0.48108877410274048 0.035943153161047278 0 -0.48386225902648372 0.017098076089857708 0 -0.47092402742525041 0.031077751031505479 0 -0.47073185397102701 0.015338236971748419 0 -0.47336492058181651 -1.3756092529014339e-05 0 -0.48386225902648372 0.017098076089857708 0 -0.47073185397102701 0.015338236971748419 0 -0.48707184599994291 0.048964625204851953 0 -0.5 0.035131877788423027 0 -0.49999999999999539 0.063285089781713544 0 -0.48707184599994291 0.048964625204851953 0 -0.47788731744032059 0.065974279252569934 0 -0.49353592299996968 0.063032949870017951 0 -0.48707184599994291 0.048964625204851953 0 -0.49353592299996968 0.063032949870017951 0 -0.48707184599994291 0.048964625204851953 0 -0.49353592299996968 0.063032949870017951 0 -0.49999999999999539 0.063285089781713544 0 -0.48707184599994291 0.048964625204851953 0 -0.49999999999999539 0.063285089781713544 0 -0.48707184599994291 0.048964625204851953 0 -0.5 0.035131877788423027 0 -0.48108877410274048 0.035943153161047278 0 -0.49123775828230598 0.023787943208615159 0 -0.5 0.035131877788423027 0 -0.48108877410274048 0.035943153161047278 0 -0.47092402742525041 0.031077751031505479 0 -0.48707184599994291 0.048964625204851953 0 -0.470869591041987 0.048723400791036382 0 -0.47092402742525041 0.031077751031505479 0 -0.48707184599994291 0.048964625204851953 0 -0.48108877410274048 0.035943153161047278 0 -0.47092402742525041 0.031077751031505479 0 -0.48707184599994291 0.048964625204851953 0 -0.48707184599994291 0.048964625204851953 0 -0.48108877410274048 0.035943153161047278 0 -0.48707184599994291 0.048964625204851953 0 -0.470869591041987 0.048723400791036382 0 -0.47788731744032059 0.065974279252569934 0 -0.470869591041987 0.048723400791036382 0 -0.46275898895820378 0.058805495287743578 0 -0.47788731744032059 0.065974279252569934 0 -0.46275898895820378 0.058805495287743578 0 -0.45407482816920491 0.042995525853485712 0 -0.44658719079500192 0.057498251908467822 0 -0.470869591041987 0.048723400791036382 0 -0.46275898895820378 0.058805495287743578 0 -0.45407482816920491 0.042995525853485712 0 -0.47092402742525041 0.031077751031505479 0 -0.45407482816920491 0.042995525853485712 0 -0.45304598526010098 0.028263092950236931 0 -0.47092402742525041 0.031077751031505479 0 -0.470869591041987 0.048723400791036382 0 -0.45407482816920491 0.042995525853485712 0 -0.45407482816920491 0.042995525853485712 0 -0.4436830952193897 0.035051183448001948 0 -0.45304598526010098 0.028263092950236931 0 -0.45407482816920491 0.042995525853485712 0 -0.4436830952193897 0.035051183448001948 0 -0.43897150383807287 0.045756425474088473 0 -0.43897150383807287 0.045756425474088473 0 -0.44658719079500192 0.057498251908467822 0 -0.42962207560415577 0.056615344910167488 0 -0.44658719079500192 0.057498251908467822 0 -0.42962207560415577 0.056615344910167488 0 -0.44083822906912029 0.069173097248139651 0 -0.45407482816920491 0.042995525853485712 0 -0.43897150383807287 0.045756425474088473 0 -0.44658719079500192 0.057498251908467822 0 -0.4578500182818811 -0.0070552588472488969 0 -0.47336492058181651 -1.3756092529014339e-05 0 -0.45477620885055731 0.01319087685815952 0 -0.47336492058181651 -1.3756092529014339e-05 0 -0.47073185397102701 0.015338236971748419 0 -0.45477620885055731 0.01319087685815952 0 -0.47092402742525041 0.031077751031505479 0 -0.47073185397102701 0.015338236971748419 0 -0.45477620885055731 0.01319087685815952 0 -0.47092402742525041 0.031077751031505479 0 -0.45477620885055731 0.01319087685815952 0 -0.45304598526010098 0.028263092950236931 0 -0.47092402742525041 0.031077751031505479 0 -0.45477620885055731 0.01319087685815952 0 -0.45477620885055731 0.01319087685815952 0 -0.45304598526010098 0.028263092950236931 0 -0.44479676896195802 0.020712417704430029 0 -0.4436830952193897 0.035051183448001948 0 -0.44479676896195802 0.020712417704430029 0 -0.42752638986761132 0.037528455257768642 0 -0.4436830952193897 0.035051183448001948 0 -0.45304598526010098 0.028263092950236931 0 -0.44479676896195802 0.020712417704430029 0 -0.44479676896195802 0.020712417704430029 0 -0.43858662956055822 0.01038327323014902 0 -0.43244464460765591 0.020515626983742982 0 -0.43862839027586409 -0.0046959973151864398 0 -0.45477620885055731 0.01319087685815952 0 -0.43858662956055822 0.01038327323014902 0 -0.43862839027586409 -0.0046959973151864398 0 -0.45477620885055731 0.01319087685815952 0 -0.43862839027586409 -0.0046959973151864398 0 -0.4578500182818811 -0.0070552588472488969 0 -0.45477620885055731 0.01319087685815952 0 -0.45477620885055731 0.01319087685815952 0 -0.44479676896195802 0.020712417704430029 0 -0.43858662956055822 0.01038327323014902 0 -0.43862839027586409 -0.0046959973151864398 0 -0.43858662956055822 0.01038327323014902 0 -0.43050121763171523 0.001204678559991162 0 -0.43858662956055822 0.01038327323014902 0 -0.43050121763171523 0.001204678559991162 0 -0.42889787802318391 0.011119224090242821 0 -0.43858662956055822 0.01038327323014902 0 -0.42889787802318391 0.011119224090242821 0 -0.43244464460765591 0.020515626983742982 0 -0.42889787802318391 0.011119224090242821 0 -0.42262721034591461 0.0039993990915221118 0 -0.41875890212720412 0.012037673197588189 0 -0.42889787802318391 0.011119224090242821 0 -0.41875890212720412 0.012037673197588189 0 -0.42241555662496832 0.022834764636124411 0 -0.43050121763171523 0.001204678559991162 0 -0.42889787802318391 0.011119224090242821 0 -0.42262721034591461 0.0039993990915221118 0 -0.42597947323087543 -0.0090103536709670029 0 -0.42262721034591461 0.0039993990915221118 0 -0.40850407597953198 0.0050437946196981174 0 -0.42262721034591461 0.0039993990915221118 0 -0.41875890212720412 0.012037673197588189 0 -0.40850407597953198 0.0050437946196981174 0 -0.41875890212720412 0.012037673197588189 0 -0.40850407597953198 0.0050437946196981174 0 -0.41134978966242242 0.017191183550353501 0 -0.41134978966242242 0.017191183550353501 0 -0.42241555662496832 0.022834764636124411 0 -0.4108029002178446 0.035767838180730913 0 -0.41134978966242242 0.017191183550353501 0 -0.4108029002178446 0.035767838180730913 0 -0.41134978966242242 0.017191183550353501 0 -0.4108029002178446 0.035767838180730913 0 -0.39914187033371129 0.02978105179437043 0 -0.41875890212720412 0.012037673197588189 0 -0.41134978966242242 0.017191183550353501 0 -0.42241555662496832 0.022834764636124411 0 -0.44479676896195802 0.020712417704430029 0 -0.43244464460765591 0.020515626983742982 0 -0.42752638986761132 0.037528455257768642 0 -0.42241555662496832 0.022834764636124411 0 -0.43244464460765591 0.020515626983742982 0 -0.42752638986761132 0.037528455257768642 0 -0.44479676896195802 0.020712417704430029 0 -0.42752638986761132 0.037528455257768642 0 -0.42889787802318391 0.011119224090242821 0 -0.42241555662496832 0.022834764636124411 0 -0.43244464460765591 0.020515626983742982 0 -0.43897150383807287 0.045756425474088473 0 -0.42752638986761132 0.037528455257768642 0 -0.42962207560415577 0.056615344910167488 0 -0.4436830952193897 0.035051183448001948 0 -0.43897150383807287 0.045756425474088473 0 -0.42752638986761132 0.037528455257768642 0 -0.42752638986761132 0.037528455257768642 0 -0.42962207560415577 0.056615344910167488 0 -0.41025601077326568 0.054344492811108362 0 -0.42962207560415577 0.056615344910167488 0 -0.41025601077326568 0.054344492811108362 0 -0.41791433055127131 0.067670653303130934 0 -0.42752638986761132 0.037528455257768642 0 -0.41025601077326568 0.054344492811108362 0 -0.4108029002178446 0.035767838180730913 0 -0.42241555662496832 0.022834764636124411 0 -0.42752638986761132 0.037528455257768642 0 -0.4108029002178446 0.035767838180730913 0 -0.41025601077326568 0.054344492811108362 0 -0.4108029002178446 0.035767838180730913 0 -0.42752638986761132 0.037528455257768642 0 -0.41025601077326568 0.054344492811108362 0 -0.4108029002178446 0.035767838180730913 0 -0.39504556579687811 0.043665313061486508 0 -0.39914187033371129 0.02978105179437043 0 -0.41025601077326568 0.054344492811108362 0 -0.4108029002178446 0.035767838180730913 0 -0.39504556579687811 0.043665313061486508 0 -0.39504556579687811 0.043665313061486508 0 -0.38748241726322269 0.03318298126891802 0 -0.39914187033371129 0.02978105179437043 0 -0.41025601077326568 0.054344492811108362 0 -0.39406507826889381 0.070109481380825192 0 -0.41025601077326568 0.054344492811108362 0 -0.39187824995997839 0.057312829522212727 0 -0.39406507826889381 0.070109481380825192 0 -0.41025601077326568 0.054344492811108362 0 -0.39504556579687811 0.043665313061486508 0 -0.39187824995997839 0.057312829522212727 0 -0.39187824995997839 0.057312829522212727 0 -0.38240213800211831 0.048439283500169489 0 -0.37478596638445771 0.060295530683281529 0 -0.39504556579687811 0.043665313061486508 0 -0.39187824995997839 0.057312829522212727 0 -0.38240213800211831 0.048439283500169489 0 -0.38240213800211831 0.048439283500169489 0 -0.36950363917516221 0.047003191548943897 0 -0.37478596638445771 0.060295530683281529 0 -0.38748241726322269 0.03318298126891802 0 -0.38561321950145588 0.040521621708151469 0 -0.37752275694360438 0.036798909002031838 0 -0.39504556579687811 0.043665313061486508 0 -0.38240213800211831 0.048439283500169489 0 -0.38561321950145588 0.040521621708151469 0 -0.39504556579687811 0.043665313061486508 0 -0.38748241726322269 0.03318298126891802 0 -0.38561321950145588 0.040521621708151469 0 -0.38240213800211831 0.048439283500169489 0 -0.38561321950145588 0.040521621708151469 0 -0.37752275694360438 0.036798909002031838 0 -0.38240213800211831 0.048439283500169489 0 -0.37752275694360438 0.036798909002031838 0 -0.36950363917516221 0.047003191548943897 0 -0.38748241726322269 0.03318298126891802 0 -0.37752275694360438 0.036798909002031838 0 -0.3735532814768453 0.033152091201028272 0 -0.37752275694360438 0.036798909002031838 0 -0.3735532814768453 0.033152091201028272 0 -0.38748241726322269 0.03318298126891802 0 -0.39102867872818869 0.019097942910363219 0 -0.3735532814768453 0.033152091201028272 0 -0.39102867872818869 0.019097942910363219 0 -0.3735532814768453 0.033152091201028272 0 -0.37514653282305982 0.01299573953559963 0 -0.39102867872818869 0.019097942910363219 0 -0.3735532814768453 0.033152091201028272 0 -0.36773282995165379 -0.00174619774939233 0 -0.38586672766963009 -0.0039758236297552374 0 -0.37514653282305982 0.01299573953559963 0 -0.38586672766963009 -0.0039758236297552374 0 -0.37514653282305982 0.01299573953559963 0 -0.39102867872818869 0.019097942910363219 0 -0.39926558985260341 -0.0040230340364888727 0 -0.40850407597953198 0.0050437946196981174 0 -0.39102867872818869 0.019097942910363219 0 -0.40850407597953198 0.0050437946196981174 0 -0.39102867872818869 0.019097942910363219 0 -0.39926558985260341 -0.0040230340364888727 0 -0.38586672766963009 -0.0039758236297552374 0 -0.39102867872818869 0.019097942910363219 0 -0.40850407597953198 0.0050437946196981174 0 -0.41134978966242242 0.017191183550353501 0 -0.39102867872818869 0.019097942910363219 0 -0.41134978966242242 0.017191183550353501 0 -0.39914187033371129 0.02978105179437043 0 -0.39102867872818869 0.019097942910363219 0 -0.38748241726322269 0.03318298126891802 0 -0.39914187033371129 0.02978105179437043 0 -0.39102867872818869 0.019097942910363219 0 -0.39274238829309133 0.1016453497255231 0 -0.40943663493218752 0.082176922497065027 0 -0.4086172590911083 0.1100093521830217 0 -0.39274238829309133 0.1016453497255231 0 -0.4086172590911083 0.1100093521830217 0 -0.39811754494359242 0.1267666801070397 0 -0.39274238829309133 0.1016453497255231 0 -0.38015904838199821 0.12529305033380139 0 -0.39274238829309133 0.1016453497255231 0 -0.39811754494359242 0.1267666801070397 0 -0.38015904838199821 0.12529305033380139 0 -0.39274238829309133 0.1016453497255231 0 -0.37804285338412053 0.099049560295472294 0 -0.38015904838199821 0.12529305033380139 0 -0.39274238829309133 0.1016453497255231 0 -0.37804285338412053 0.099049560295472294 0 -0.39098049810060859 0.085894683007465861 0 -0.37804285338412053 0.099049560295472294 0 -0.377874145764523 0.085874469950543125 0 -0.39098049810060859 0.085894683007465861 0 -0.377874145764523 0.085874469950543125 0 -0.39406507826889381 0.070109481380825192 0 -0.39098049810060859 0.085894683007465861 0 -0.39187824995997839 0.057312829522212727 0 -0.38008645798265722 0.071949868533357608 0 -0.37478596638445771 0.060295530683281529 0 -0.377874145764523 0.085874469950543125 0 -0.39406507826889381 0.070109481380825192 0 -0.377874145764523 0.085874469950543125 0 -0.38008645798265722 0.071949868533357608 0 -0.39406507826889381 0.070109481380825192 0 -0.39187824995997839 0.057312829522212727 0 -0.38008645798265722 0.071949868533357608 0 -0.39406507826889381 0.070109481380825192 0 -0.4053257282041845 0.077997649117244883 0 -0.39406507826889381 0.070109481380825192 0 -0.39098049810060859 0.085894683007465861 0 -0.41025601077326568 0.054344492811108362 0 -0.4053257282041845 0.077997649117244883 0 -0.39406507826889381 0.070109481380825192 0 -0.39274238829309133 0.1016453497255231 0 -0.4053257282041845 0.077997649117244883 0 -0.40943663493218752 0.082176922497065027 0 -0.39274238829309133 0.1016453497255231 0 -0.4053257282041845 0.077997649117244883 0 -0.39098049810060859 0.085894683007465861 0 -0.39274238829309133 0.1016453497255231 0 -0.4053257282041845 0.077997649117244883 0 -0.40943663493218752 0.082176922497065027 0 -0.42095642233869812 0.089821009301655333 0 -0.41990251515176169 0.077260069976896925 0 -0.41025601077326568 0.054344492811108362 0 -0.4053257282041845 0.077997649117244883 0 -0.40943663493218752 0.082176922497065027 0 -0.41025601077326568 0.054344492811108362 0 -0.40943663493218752 0.082176922497065027 0 -0.41025601077326568 0.054344492811108362 0 -0.40943663493218752 0.082176922497065027 0 -0.41791433055127131 0.067670653303130934 0 -0.40943663493218752 0.082176922497065027 0 -0.41990251515176169 0.077260069976896925 0 -0.41791433055127131 0.067670653303130934 0 -0.42962207560415577 0.056615344910167488 0 -0.41791433055127131 0.067670653303130934 0 -0.42807796285574679 0.067374622588038793 0 -0.41990251515176169 0.077260069976896925 0 -0.41791433055127131 0.067670653303130934 0 -0.42807796285574679 0.067374622588038793 0 -0.41990251515176169 0.077260069976896925 0 -0.42807796285574679 0.067374622588038793 0 -0.42786107815332119 0.078542800530718881 0 -0.42807796285574679 0.067374622588038793 0 -0.42786107815332119 0.078542800530718881 0 -0.44083822906912029 0.069173097248139651 0 -0.42962207560415577 0.056615344910167488 0 -0.42807796285574679 0.067374622588038793 0 -0.44083822906912029 0.069173097248139651 0 -0.42786107815332119 0.078542800530718881 0 -0.43620715385824038 0.090100179950853745 0 -0.44083822906912029 0.069173097248139651 0 -0.42095642233869812 0.089821009301655333 0 -0.42786107815332119 0.078542800530718881 0 -0.43620715385824038 0.090100179950853745 0 -0.42095642233869812 0.089821009301655333 0 -0.43620715385824038 0.090100179950853745 0 -0.42608081938177739 0.100479559839438 0 -0.42095642233869812 0.089821009301655333 0 -0.41990251515176169 0.077260069976896925 0 -0.42786107815332119 0.078542800530718881 0 -0.43620715385824038 0.090100179950853745 0 -0.42608081938177739 0.100479559839438 0 -0.44222730576221397 0.1031323382789098 0 -0.42608081938177739 0.100479559839438 0 -0.42718679086027322 0.11402204660626621 0 -0.44222730576221397 0.1031323382789098 0 -0.42095642233869812 0.089821009301655333 0 -0.42608081938177739 0.100479559839438 0 -0.4086172590911083 0.1100093521830217 0 -0.42608081938177739 0.100479559839438 0 -0.4086172590911083 0.1100093521830217 0 -0.42718679086027322 0.11402204660626621 0 -0.40943663493218752 0.082176922497065027 0 -0.42095642233869812 0.089821009301655333 0 -0.4086172590911083 0.1100093521830217 0 -0.40943663493218752 0.082176922497065027 0 -0.4086172590911083 0.1100093521830217 0 -0.4086172590911083 0.1100093521830217 0 -0.42718679086027322 0.11402204660626621 0 -0.41487635600168282 0.12681197651326459 0 -0.4086172590911083 0.1100093521830217 0 -0.41487635600168282 0.12681197651326459 0 -0.39811754494359242 0.1267666801070397 0 -0.42718679086027322 0.11402204660626621 0 -0.41487635600168282 0.12681197651326459 0 -0.43085895492050452 0.12683622289135341 0 -0.42718679086027322 0.11402204660626621 0 -0.44075422150788718 0.1170431645347506 0 -0.44222730576221397 0.1031323382789098 0 -0.42718679086027322 0.11402204660626621 0 -0.44075422150788718 0.1170431645347506 0 -0.43085895492050452 0.12683622289135341 0 -0.44075422150788718 0.1170431645347506 0 -0.45655536597462121 0.11545699126691319 0 -0.44950786553265182 0.12734074136969811 0 -0.44075422150788718 0.1170431645347506 0 -0.44950786553265182 0.12734074136969811 0 -0.43085895492050452 0.12683622289135341 0 -0.44075422150788718 0.1170431645347506 0 -0.44222730576221397 0.1031323382789098 0 -0.45655536597462121 0.11545699126691319 0 -0.44222730576221397 0.1031323382789098 0 -0.46574285194997261 0.1048547529664539 0 -0.45655536597462121 0.11545699126691319 0 -0.44222730576221397 0.1031323382789098 0 -0.46574285194997261 0.1048547529664539 0 -0.44222730576221397 0.1031323382789098 0 -0.46574285194997261 0.1048547529664539 0 -0.45272789759457888 0.086892332219200522 0 -0.45655536597462121 0.11545699126691319 0 -0.44950786553265182 0.12734074136969811 0 -0.46810730926932198 0.12589260511875061 0 -0.46574285194997261 0.1048547529664539 0 -0.45655536597462121 0.11545699126691319 0 -0.47142694609172803 0.115816322446423 0 -0.45655536597462121 0.11545699126691319 0 -0.47142694609172803 0.115816322446423 0 -0.46810730926932198 0.12589260511875061 0 -0.44083822906912029 0.069173097248139651 0 -0.45272789759457888 0.086892332219200522 0 -0.45506304820082571 0.071240794608707608 0 -0.44658719079500192 0.057498251908467822 0 -0.44083822906912029 0.069173097248139651 0 -0.45506304820082571 0.071240794608707608 0 -0.43620715385824038 0.090100179950853745 0 -0.44222730576221397 0.1031323382789098 0 -0.45272789759457888 0.086892332219200522 0 -0.43620715385824038 0.090100179950853745 0 -0.44083822906912029 0.069173097248139651 0 -0.45272789759457888 0.086892332219200522 0 -0.46574285194997261 0.1048547529664539 0 -0.45272789759457888 0.086892332219200522 0 -0.47628879672710062 0.082852830262138452 0 -0.45272789759457888 0.086892332219200522 0 -0.45506304820082571 0.071240794608707608 0 -0.47628879672710062 0.082852830262138452 0 -0.46275898895820378 0.058805495287743578 0 -0.45506304820082571 0.071240794608707608 0 -0.47788731744032059 0.065974279252569934 0 -0.46275898895820378 0.058805495287743578 0 -0.44658719079500192 0.057498251908467822 0 -0.45506304820082571 0.071240794608707608 0 -0.45506304820082571 0.071240794608707608 0 -0.47788731744032059 0.065974279252569934 0 -0.47628879672710062 0.082852830262138452 0 -0.47788731744032059 0.065974279252569934 0 -0.47628879672710062 0.082852830262138452 0 -0.48752618940722459 0.074441225611079909 0 -0.47628879672710062 0.082852830262138452 0 -0.48991890986873449 0.083244794135489616 0 -0.48256538196697307 0.094828826018850287 0 -0.50000000000000067 0.088604385989082365 0 -0.48991890986873449 0.083244794135489616 0 -0.48256538196697307 0.094828826018850287 0 -0.48991890986873449 0.083244794135489616 0 -0.48752618940722459 0.074441225611079909 0 -0.49999999999999861 0.077101274535183104 0 -0.50000000000000067 0.088604385989082365 0 -0.48991890986873449 0.083244794135489616 0 -0.49999999999999861 0.077101274535183104 0 -0.47628879672710062 0.082852830262138452 0 -0.48991890986873449 0.083244794135489616 0 -0.48752618940722459 0.074441225611079909 0 -0.47788731744032059 0.065974279252569934 0 -0.48752618940722459 0.074441225611079909 0 -0.49353592299996968 0.063032949870017951 0 -0.48752618940722459 0.074441225611079909 0 -0.49999999999999861 0.077101274535183104 0 -0.49353592299996968 0.063032949870017951 0 -0.49999999999999861 0.077101274535183104 0 -0.49353592299996968 0.063032949870017951 0 -0.49999999999999861 0.077101274535183104 0 -0.49353592299996968 0.063032949870017951 0 -0.49999999999999539 0.063285089781713544 0 -0.47142694609172803 0.115816322446423 0 -0.48925839813773109 0.10657716765399711 0 -0.47747080512699358 0.12630009522600019 0 -0.48925839813773109 0.10657716765399711 0 -0.47747080512699358 0.12630009522600019 0 -0.47142694609172803 0.115816322446423 0 -0.47747080512699358 0.12630009522600019 0 -0.46810730926932198 0.12589260511875061 0 -0.46574285194997261 0.1048547529664539 0 -0.47142694609172803 0.115816322446423 0 -0.48925839813773109 0.10657716765399711 0 -0.46574285194997261 0.1048547529664539 0 -0.47628879672710062 0.082852830262138452 0 -0.48256538196697307 0.094828826018850287 0 -0.46574285194997261 0.1048547529664539 0 -0.48925839813773109 0.10657716765399711 0 -0.46574285194997261 0.1048547529664539 0 -0.48256538196697307 0.094828826018850287 0 -0.48925839813773109 0.10657716765399711 0 -0.50000000000000067 0.088604385989082365 0 -0.48256538196697307 0.094828826018850287 0 -0.48925839813773109 0.10657716765399711 0 -0.50000000000000067 0.088604385989082365 0 -0.48925839813773109 0.10657716765399711 0 -0.50000000000000067 0.088604385989082365 0 -0.48925839813773109 0.10657716765399711 0 -0.49999999999999928 0.1073639447361714 0 -0.48925839813773109 0.10657716765399711 0 -0.49999999999999928 0.1073639447361714 0 -0.48925839813773109 0.10657716765399711 0 -0.4902237912302157 0.1234173841300643 0 -0.47747080512699358 0.12630009522600019 0 -0.48925839813773109 0.10657716765399711 0 -0.49999999999999928 0.1073639447361714 0 -0.4902237912302157 0.1234173841300643 0 -0.49999999999999928 0.1073639447361714 0 -0.4902237912302157 0.1234173841300643 0 -0.5 0.1341655427399622 0 -0.4902237912302157 0.1234173841300643 0 -0.5 0.1341655427399622 0 -0.48438975288635411 0.14268017029419061 0 -0.47747080512699358 0.12630009522600019 0 -0.48438975288635411 0.14268017029419061 0 -0.4656832121162563 0.14602302279800339 0 -0.4902237912302157 0.1234173841300643 0 -0.47747080512699358 0.12630009522600019 0 -0.48438975288635411 0.14268017029419061 0 -0.47747080512699358 0.12630009522600019 0 -0.46810730926932198 0.12589260511875061 0 -0.4656832121162563 0.14602302279800339 0 -0.47747080512699358 0.12630009522600019 0 -0.4656832121162563 0.14602302279800339 0 -0.48438975288635411 0.14268017029419061 0 -0.48149869119449429 0.1579069059932085 0 -0.4656832121162563 0.14602302279800339 0 -0.5 0.1341655427399622 0 -0.48438975288635411 0.14268017029419061 0 -0.5 0.1609671407437529 0 -0.48438975288635411 0.14268017029419061 0 -0.5 0.1609671407437529 0 -0.48149869119449429 0.1579069059932085 0 -0.5 0.1609671407437529 0 -0.48301406361354182 0.17219197023973079 0 -0.48149869119449429 0.1579069059932085 0 -0.5 0.1609671407437529 0 -0.48993018662654481 0.18204474589666481 0 -0.48301406361354182 0.17219197023973079 0 -0.5 0.1609671407437529 0 -0.48993018662654481 0.18204474589666481 0 -0.50000000000000289 0.18776873874754371 0 -0.48993018662654481 0.18204474589666481 0 -0.47864614618895113 0.18465925673731309 0 -0.48246509273112248 0.19090124682342241 0 -0.48993018662654481 0.18204474589666481 0 -0.47864614618895113 0.18465925673731309 0 -0.48301406361354182 0.17219197023973079 0 -0.47864614618895113 0.18465925673731309 0 -0.48301406361354182 0.17219197023973079 0 -0.47456958279975558 0.17914249863854109 0 -0.47456958279975558 0.17914249863854109 0 -0.47040441341194278 0.1656959512872187 0 -0.46376531164209039 0.17316535968382171 0 -0.48301406361354182 0.17219197023973079 0 -0.47456958279975558 0.17914249863854109 0 -0.47040441341194278 0.1656959512872187 0 -0.47864614618895113 0.18465925673731309 0 -0.47456958279975558 0.17914249863854109 0 -0.46759404769877111 0.18490415202122371 0 -0.47864614618895113 0.18465925673731309 0 -0.46759404769877111 0.18490415202122371 0 -0.47456958279975558 0.17914249863854109 0 -0.46759404769877111 0.18490415202122371 0 -0.48149869119449429 0.1579069059932085 0 -0.47040441341194278 0.1656959512872187 0 -0.4656832121162563 0.14602302279800339 0 -0.48301406361354182 0.17219197023973079 0 -0.48149869119449429 0.1579069059932085 0 -0.47040441341194278 0.1656959512872187 0 -0.47040441341194278 0.1656959512872187 0 -0.45389561910551901 0.16574595037000661 0 -0.4656832121162563 0.14602302279800339 0 -0.47040441341194278 0.1656959512872187 0 -0.45389561910551901 0.16574595037000661 0 -0.46376531164209039 0.17316535968382171 0 -0.45389561910551901 0.16574595037000661 0 -0.46376531164209039 0.17316535968382171 0 -0.44210802609478089 0.1854688779420092 0 -0.46759404769877111 0.18490415202122371 0 -0.44210802609478089 0.1854688779420092 0 -0.46759404769877111 0.18490415202122371 0 -0.46376531164209039 0.17316535968382171 0 -0.44210802609478089 0.1854688779420092 0 -0.47456958279975558 0.17914249863854109 0 -0.46759404769877111 0.18490415202122371 0 -0.46376531164209039 0.17316535968382171 0 -0.45389561910551901 0.16574595037000661 0 -0.44210802609478089 0.1854688779420092 0 -0.45389561910551901 0.16574595037000661 0 -0.44210802609478089 0.1854688779420092 0 -0.42963367705818212 0.16607856318532879 0 -0.45389561910551901 0.16574595037000661 0 -0.4488704931637521 0.14598558415203969 0 -0.42963367705818212 0.16607856318532879 0 -0.4488704931637521 0.14598558415203969 0 -0.42963367705818212 0.16607856318532879 0 -0.4488704931637521 0.14598558415203969 0 -0.43961375932514729 0.13664695633495069 0 -0.42921772368368077 0.14642527692671151 0 -0.43961375932514729 0.13664695633495069 0 -0.44950786553265182 0.12734074136969811 0 -0.43085895492050452 0.12683622289135341 0 -0.4488704931637521 0.14598558415203969 0 -0.43961375932514729 0.13664695633495069 0 -0.44950786553265182 0.12734074136969811 0 -0.4488704931637521 0.14598558415203969 0 -0.44950786553265182 0.12734074136969811 0 -0.46810730926932198 0.12589260511875061 0 -0.4488704931637521 0.14598558415203969 0 -0.46810730926932198 0.12589260511875061 0 -0.4656832121162563 0.14602302279800339 0 -0.4488704931637521 0.14598558415203969 0 -0.46810730926932198 0.12589260511875061 0 -0.45389561910551901 0.16574595037000661 0 -0.4488704931637521 0.14598558415203969 0 -0.4656832121162563 0.14602302279800339 0 -0.45389561910551901 0.16574595037000661 0 -0.4656832121162563 0.14602302279800339 0 -0.47429755291000419 0.24562381763634661 0 -0.47974007898056131 0.22925782423188751 0 -0.45971207882101112 0.23655914999173319 0 -0.47429755291000419 0.24562381763634661 0 -0.48368830479211727 0.24590756946306941 0 -0.47974007898056131 0.22925782423188751 0 -0.47429755291000419 0.24562381763634661 0 -0.48368830479211727 0.24590756946306941 0 -0.48069604346874462 0.25546786677292138 0 -0.49445852599850509 0.2382617199101506 0 -0.5 0.22618467350116289 0 -0.5 0.25611761196898658 0 -0.49445852599850509 0.2382617199101506 0 -0.4892493226027716 0.26092661876404077 0 -0.48368830479211727 0.24590756946306941 0 -0.49445852599850509 0.2382617199101506 0 -0.47974007898056131 0.22925782423188751 0 -0.48368830479211727 0.24590756946306941 0 -0.49445852599850509 0.2382617199101506 0 -0.4892493226027716 0.26092661876404077 0 -0.5 0.22618467350116289 0 -0.47974007898056131 0.22925782423188751 0 -0.48954431290215578 0.2148727195394847 0 -0.49445852599850509 0.2382617199101506 0 -0.5 0.22618467350116289 0 -0.47974007898056131 0.22925782423188751 0 -0.47974007898056131 0.22925782423188751 0 -0.47843717262806201 0.20779664539154921 0 -0.45687434525609361 0.2193415557497489 0 -0.47974007898056131 0.22925782423188751 0 -0.47843717262806201 0.20779664539154921 0 -0.48954431290215578 0.2148727195394847 0 -0.47843717262806201 0.20779664539154921 0 -0.48954431290215578 0.2148727195394847 0 -0.50000000000002487 0.19625173503333929 0 -0.5 0.22618467350116289 0 -0.48954431290215578 0.2148727195394847 0 -0.50000000000002487 0.19625173503333929 0 -0.47843717262806201 0.20779664539154921 0 -0.50000000000002487 0.19625173503333929 0 -0.47843717262806201 0.20779664539154921 0 -0.50000000000002487 0.19625173503333929 0 -0.4843834106764171 0.1943624198946636 0 -0.50000000000000211 0.19403072401894861 0 -0.4843834106764171 0.1943624198946636 0 -0.50000000000000289 0.18776873874754371 0 -0.4843834106764171 0.1943624198946636 0 -0.50000000000002487 0.19625173503333929 0 -0.50000000000000211 0.19403072401894861 0 -0.4843834106764171 0.1943624198946636 0 -0.50000000000000211 0.19403072401894861 0 -0.50000000000000289 0.18776873874754371 0 -0.4843834106764171 0.1943624198946636 0 -0.48993018662654481 0.18204474589666481 0 -0.4843834106764171 0.1943624198946636 0 -0.48246509273112248 0.19090124682342241 0 -0.48993018662654481 0.18204474589666481 0 -0.50000000000000289 0.18776873874754371 0 -0.4843834106764171 0.1943624198946636 0 -0.48246509273112248 0.19090124682342241 0 -0.47327358943641168 0.19459839215524391 0 -0.47864614618895113 0.18465925673731309 0 -0.48246509273112248 0.19090124682342241 0 -0.47327358943641168 0.19459839215524391 0 -0.4843834106764171 0.1943624198946636 0 -0.47327358943641168 0.19459839215524391 0 -0.4843834106764171 0.1943624198946636 0 -0.48246509273112248 0.19090124682342241 0 -0.47327358943641168 0.19459839215524391 0 -0.4843834106764171 0.1943624198946636 0 -0.47327358943641168 0.19459839215524391 0 -0.46512600828997908 0.2024933355784205 0 -0.4843834106764171 0.1943624198946636 0 -0.46512600828997908 0.2024933355784205 0 -0.47843717262806201 0.20779664539154921 0 -0.4843834106764171 0.1943624198946636 0 -0.46512600828997908 0.2024933355784205 0 -0.47864614618895113 0.18465925673731309 0 -0.46759404769877111 0.18490415202122371 0 -0.47327358943641168 0.19459839215524391 0 -0.47327358943641168 0.19459839215524391 0 -0.45629943271506201 0.20142599393830041 0 -0.4553977215862306 0.1949780750372056 0 -0.47327358943641168 0.19459839215524391 0 -0.4553977215862306 0.1949780750372056 0 -0.47327358943641168 0.19459839215524391 0 -0.45629943271506201 0.20142599393830041 0 -0.46512600828997908 0.2024933355784205 0 -0.46759404769877111 0.18490415202122371 0 -0.47327358943641168 0.19459839215524391 0 -0.4553977215862306 0.1949780750372056 0 -0.47327358943641168 0.19459839215524391 0 -0.45629943271506201 0.20142599393830041 0 -0.46759404769877111 0.18490415202122371 0 -0.44210802609478089 0.1854688779420092 0 -0.4553977215862306 0.1949780750372056 0 -0.46759404769877111 0.18490415202122371 0 -0.4553977215862306 0.1949780750372056 0 -0.44210802609478089 0.1854688779420092 0 -0.4553977215862306 0.1949780750372056 0 -0.43618082061236169 0.19538624142135999 0 -0.4553977215862306 0.1949780750372056 0 -0.43932527599371229 0.20825359572135699 0 -0.43618082061236169 0.19538624142135999 0 -0.4553977215862306 0.1949780750372056 0 -0.43932527599371229 0.20825359572135699 0 -0.45629943271506201 0.20142599393830041 0 -0.4553977215862306 0.1949780750372056 0 -0.43932527599371229 0.20825359572135699 0 -0.4553977215862306 0.1949780750372056 0 -0.43618082061236169 0.19538624142135999 0 -0.44210802609478089 0.1854688779420092 0 -0.43618082061236169 0.19538624142135999 0 -0.45629943271506201 0.20142599393830041 0 -0.4458686059035411 0.2106242512621774 0 -0.43932527599371229 0.20825359572135699 0 -0.45629943271506201 0.20142599393830041 0 -0.43932527599371229 0.20825359572135699 0 -0.4458686059035411 0.2106242512621774 0 -0.45687434525609361 0.2193415557497489 0 -0.43934231080050379 0.2196847723963184 0 -0.45629943271506201 0.20142599393830041 0 -0.46512600828997908 0.2024933355784205 0 -0.4458686059035411 0.2106242512621774 0 -0.46512600828997908 0.2024933355784205 0 -0.4458686059035411 0.2106242512621774 0 -0.45687434525609361 0.2193415557497489 0 -0.47843717262806201 0.20779664539154921 0 -0.45687434525609361 0.2193415557497489 0 -0.47843717262806201 0.20779664539154921 0 -0.46512600828997908 0.2024933355784205 0 -0.45687434525609361 0.2193415557497489 0 -0.46512600828997908 0.2024933355784205 0 -0.4458686059035411 0.2106242512621774 0 -0.47974007898056131 0.22925782423188751 0 -0.45687434525609361 0.2193415557497489 0 -0.45971207882101112 0.23655914999173319 0 -0.45687434525609361 0.2193415557497489 0 -0.43934231080050379 0.2196847723963184 0 -0.43531151788412242 0.23088646610794339 0 -0.45687434525609361 0.2193415557497489 0 -0.45971207882101112 0.23655914999173319 0 -0.43531151788412242 0.23088646610794339 0 -0.45687434525609361 0.2193415557497489 0 -0.43531151788412242 0.23088646610794339 0 -0.43531151788412242 0.23088646610794339 0 -0.45490192420167802 0.25333295980957649 0 -0.45971207882101112 0.23655914999173319 0 -0.43531151788412242 0.23088646610794339 0 -0.45490192420167802 0.25333295980957649 0 -0.43531151788412242 0.23088646610794339 0 -0.45490192420167802 0.25333295980957649 0 -0.43322189072838602 0.25018414293199998 0 -0.45971207882101112 0.23655914999173319 0 -0.46577102953652549 0.24905509368475259 0 -0.45490192420167802 0.25333295980957649 0 -0.47429755291000419 0.24562381763634661 0 -0.45971207882101112 0.23655914999173319 0 -0.46577102953652549 0.24905509368475259 0 -0.41315111516502517 0.24275132308983971 0 -0.40407789528278182 0.2373672317885254 0 -0.40538367728771529 0.24053048630924839 0 -0.41315111516502517 0.24275132308983971 0 -0.43531151788412242 0.23088646610794339 0 -0.41315111516502517 0.24275132308983971 0 -0.43531151788412242 0.23088646610794339 0 -0.43322189072838602 0.25018414293199998 0 -0.41315111516502517 0.24275132308983971 0 -0.43531151788412242 0.23088646610794339 0 -0.42661120351710308 0.2187551669459343 0 -0.43531151788412242 0.23088646610794339 0 -0.42661120351710308 0.2187551669459343 0 -0.43934231080050379 0.2196847723963184 0 -0.43531151788412242 0.23088646610794339 0 -0.42661120351710308 0.2187551669459343 0 -0.42661120351710308 0.2187551669459343 0 -0.42185451595076101 0.22076354921680291 0 -0.41315111516502517 0.24275132308983971 0 -0.42661120351710308 0.2187551669459343 0 -0.40407789528278182 0.2373672317885254 0 -0.42185451595076101 0.22076354921680291 0 -0.40950878604712398 0.2202468348121551 0 -0.42173396386988032 0.21532943907514959 0 -0.42661120351710308 0.2187551669459343 0 -0.42185451595076101 0.22076354921680291 0 -0.40407789528278182 0.2373672317885254 0 -0.42185451595076101 0.22076354921680291 0 -0.40950878604712398 0.2202468348121551 0 -0.40407789528278182 0.2373672317885254 0 -0.42661120351710308 0.2187551669459343 0 -0.40407789528278182 0.2373672317885254 0 -0.40911416479527257 0.21159680690464441 0 -0.42173396386988032 0.21532943907514959 0 -0.40490805054919882 0.19605047409324181 0 -0.42173396386988032 0.21532943907514959 0 -0.40490805054919882 0.19605047409324181 0 -0.40950878604712398 0.2202468348121551 0 -0.40911416479527257 0.21159680690464441 0 -0.40375227416194309 0.21775857354698569 0 -0.40950878604712398 0.2202468348121551 0 -0.40911416479527257 0.21159680690464441 0 -0.42173396386988032 0.21532943907514959 0 -0.40950878604712398 0.2202468348121551 0 -0.42173396386988032 0.21532943907514959 0 -0.4458686059035411 0.2106242512621774 0 -0.43932527599371229 0.20825359572135699 0 -0.42661120351710308 0.2187551669459343 0 -0.42506152560403038 0.21399097691751309 0 -0.43618082061236169 0.19538624142135999 0 -0.42661120351710308 0.2187551669459343 0 -0.42185451595076101 0.22076354921680291 0 -0.42173396386988032 0.21532943907514959 0 -0.4458686059035411 0.2106242512621774 0 -0.43934231080050379 0.2196847723963184 0 -0.42661120351710308 0.2187551669459343 0 -0.42661120351710308 0.2187551669459343 0 -0.42173396386988032 0.21532943907514959 0 -0.42506152560403038 0.21399097691751309 0 -0.42661120351710308 0.2187551669459343 0 -0.42173396386988032 0.21532943907514959 0 -0.43932527599371229 0.20825359572135699 0 -0.42506152560403038 0.21399097691751309 0 -0.43618082061236169 0.19538624142135999 0 -0.42173396386988032 0.21532943907514959 0 -0.42506152560403038 0.21399097691751309 0 -0.42054443558078031 0.19571835775730079 0 -0.4458686059035411 0.2106242512621774 0 -0.42661120351710308 0.2187551669459343 0 -0.42173396386988032 0.21532943907514959 0 -0.42506152560403038 0.21399097691751309 0 -0.43932527599371229 0.20825359572135699 0 -0.42661120351710308 0.2187551669459343 0 -0.42506152560403038 0.21399097691751309 0 -0.43932527599371229 0.20825359572135699 0 -0.42661120351710308 0.2187551669459343 0 -0.43932527599371229 0.20825359572135699 0 -0.42506152560403038 0.21399097691751309 0 -0.44210802609478089 0.1854688779420092 0 -0.43618082061236169 0.19538624142135999 0 -0.42625244352369662 0.18582021008031249 0 -0.43618082061236169 0.19538624142135999 0 -0.42054443558078031 0.19571835775730079 0 -0.42625244352369662 0.18582021008031249 0 -0.42506152560403038 0.21399097691751309 0 -0.43618082061236169 0.19538624142135999 0 -0.42054443558078031 0.19571835775730079 0 -0.43618082061236169 0.19538624142135999 0 -0.42054443558078031 0.19571835775730079 0 -0.42173396386988032 0.21532943907514959 0 -0.42054443558078031 0.19571835775730079 0 -0.40490805054919882 0.19605047409324181 0 -0.42054443558078031 0.19571835775730079 0 -0.40490805054919882 0.19605047409324181 0 -0.42054443558078031 0.19571835775730079 0 -0.42625244352369662 0.18582021008031249 0 -0.41039686095261219 0.18617154221861759 0 -0.42054443558078031 0.19571835775730079 0 -0.40490805054919882 0.19605047409324181 0 -0.41039686095261219 0.18617154221861759 0 -0.40301523206660972 0.19388170140629321 0 -0.41039686095261219 0.18617154221861759 0 -0.40301523206660972 0.19388170140629321 0 -0.40490805054919882 0.19605047409324181 0 -0.41039686095261219 0.18617154221861759 0 -0.40301523206660972 0.19388170140629321 0 -0.41039686095261219 0.18617154221861759 0 -0.39655382045805382 0.18647827992414079 0 -0.40301523206660972 0.19388170140629321 0 -0.40085648253786532 0.19613652927287781 0 -0.39655382045805382 0.18647827992414079 0 -0.40301523206660972 0.19388170140629321 0 -0.40085648253786532 0.19613652927287781 0 -0.40301523206660972 0.19388170140629321 0 -0.39655382045805382 0.18647827992414079 0 -0.40301523206660972 0.19388170140629321 0 -0.40490805054919882 0.19605047409324181 0 -0.40301523206660972 0.19388170140629321 0 -0.40490805054919882 0.19605047409324181 0 -0.40085648253786532 0.19613652927287781 0 -0.40490805054919882 0.19605047409324181 0 -0.40085648253786532 0.19613652927287781 0 -0.40490805054919882 0.19605047409324181 0 -0.40085648253786532 0.19613652927287781 0 -0.40225052616972551 0.2042008083830063 0 -0.40085648253786532 0.19613652927287781 0 -0.38725432200540783 0.19642543874318311 0 -0.39121506598392691 0.20620705131801731 0 -0.40085648253786532 0.19613652927287781 0 -0.38725432200540783 0.19642543874318311 0 -0.40085648253786532 0.19613652927287781 0 -0.39121506598392691 0.20620705131801731 0 -0.40085648253786532 0.19613652927287781 0 -0.39121506598392691 0.20620705131801731 0 -0.40225052616972551 0.2042008083830063 0 -0.40085648253786532 0.19613652927287781 0 -0.38725432200540783 0.19642543874318311 0 -0.39655382045805382 0.18647827992414079 0 -0.38725432200540783 0.19642543874318311 0 -0.38319329506822858 0.18677432593399451 0 -0.38725432200540783 0.19642543874318311 0 -0.39655382045805382 0.18647827992414079 0 -0.38319329506822858 0.18677432593399451 0 -0.37518815340213912 0.1965286258885281 0 -0.38725432200540783 0.19642543874318311 0 -0.38319329506822858 0.18677432593399451 0 -0.37518815340213912 0.1965286258885281 0 -0.38725432200540783 0.19642543874318311 0 -0.37998007696654279 0.2057879129581309 0 -0.38725432200540783 0.19642543874318311 0 -0.37998007696654279 0.2057879129581309 0 -0.39121506598392691 0.20620705131801731 0 -0.38725432200540783 0.19642543874318311 0 -0.39121506598392691 0.20620705131801731 0 -0.37998007696654279 0.2057879129581309 0 -0.39121506598392691 0.20620705131801731 0 -0.37546058849402181 0.22266270510957481 0 -0.39121506598392691 0.20620705131801731 0 -0.37546058849402181 0.22266270510957481 0 -0.37998007696654279 0.2057879129581309 0 -0.37546058849402181 0.22266270510957481 0 -0.37084810965119519 0.20708855910651919 0 -0.39121506598392691 0.20620705131801731 0 -0.39897952943756992 0.22501644984542599 0 -0.37546058849402181 0.22266270510957481 0 -0.37518815340213912 0.1965286258885281 0 -0.37998007696654279 0.2057879129581309 0 -0.37084810965119519 0.20708855910651919 0 -0.39121506598392691 0.20620705131801731 0 -0.4013204508519933 0.21197799324764191 0 -0.39897952943756992 0.22501644984542599 0 -0.39121506598392691 0.20620705131801731 0 -0.39897952943756992 0.22501644984542599 0 -0.39121506598392691 0.20620705131801731 0 -0.40225052616972551 0.2042008083830063 0 -0.4013204508519933 0.21197799324764191 0 -0.40911416479527257 0.21159680690464441 0 -0.40490805054919882 0.19605047409324181 0 -0.40225052616972551 0.2042008083830063 0 -0.40911416479527257 0.21159680690464441 0 -0.40225052616972551 0.2042008083830063 0 -0.4013204508519933 0.21197799324764191 0 -0.40911416479527257 0.21159680690464441 0 -0.40375227416194309 0.21775857354698569 0 -0.4013204508519933 0.21197799324764191 0 -0.40375227416194309 0.21775857354698569 0 -0.4013204508519933 0.21197799324764191 0 -0.39897952943756992 0.22501644984542599 0 -0.39897952943756992 0.22501644984542599 0 -0.38063689746311752 0.23520230412784821 0 -0.40407789528278182 0.2373672317885254 0 -0.40950878604712398 0.2202468348121551 0 -0.40150570344353331 0.22361363914996091 0 -0.40407789528278182 0.2373672317885254 0 -0.40950878604712398 0.2202468348121551 0 -0.40375227416194309 0.21775857354698569 0 -0.40150570344353331 0.22361363914996091 0 -0.40150570344353331 0.22361363914996091 0 -0.39897952943756992 0.22501644984542599 0 -0.40375227416194309 0.21775857354698569 0 -0.40150570344353331 0.22361363914996091 0 -0.39897952943756992 0.22501644984542599 0 -0.39897952943756992 0.22501644984542599 0 -0.40407789528278182 0.2373672317885254 0 -0.40150570344353331 0.22361363914996091 0 -0.39897952943756992 0.22501644984542599 0 -0.40407789528278182 0.2373672317885254 0 -0.39897952943756992 0.22501644984542599 0 -0.38063689746311752 0.23520230412784821 0 -0.39897952943756992 0.22501644984542599 0 -0.37546058849402181 0.22266270510957481 0 -0.38063689746311752 0.23520230412784821 0 -0.38063689746311752 0.23520230412784821 0 -0.38645410250480378 0.25192413442107381 0 -0.37230098287792679 0.25294325508864451 0 -0.38063689746311752 0.23520230412784821 0 -0.40407789528278182 0.2373672317885254 0 -0.38645410250480378 0.25192413442107381 0 -0.40407789528278182 0.2373672317885254 0 -0.40538367728771529 0.24053048630924839 0 -0.38645410250480378 0.25192413442107381 0 -0.40538367728771529 0.24053048630924839 0 -0.38645410250480378 0.25192413442107381 0 -0.39099071244592531 0.25461618007173081 0 -0.40407789528278182 0.2373672317885254 0 -0.38645410250480378 0.25192413442107381 0 -0.41315111516502517 0.24275132308983971 0 -0.39099071244592531 0.25461618007173081 0 -0.41315111516502517 0.24275132308983971 0 -0.40538367728771529 0.24053048630924839 0 -0.39099071244592531 0.25461618007173081 0 -0.40407789528278182 0.2373672317885254 0 -0.40538367728771529 0.24053048630924839 0 -0.40899553808751421 0.1425493529175163 0 -0.42921772368368077 0.14642527692671151 0 -0.4150516164294995 0.15633176772402291 0 -0.40899553808751421 0.1425493529175163 0 -0.4150516164294995 0.15633176772402291 0 -0.40157887579219942 0.1549325929417944 0 -0.40899553808751421 0.1425493529175163 0 -0.41487635600168282 0.12681197651326459 0 -0.42921772368368077 0.14642527692671151 0 -0.40899553808751421 0.1425493529175163 0 -0.41487635600168282 0.12681197651326459 0 -0.39811754494359242 0.1267666801070397 0 -0.41487635600168282 0.12681197651326459 0 -0.43085895492050452 0.12683622289135341 0 -0.42921772368368077 0.14642527692671151 0 -0.43961375932514729 0.13664695633495069 0 -0.43085895492050452 0.12683622289135341 0 -0.42921772368368077 0.14642527692671151 0 -0.4488704931637521 0.14598558415203969 0 -0.42921772368368077 0.14642527692671151 0 -0.42963367705818212 0.16607856318532879 0 -0.42921772368368077 0.14642527692671151 0 -0.42963367705818212 0.16607856318532879 0 -0.4150516164294995 0.15633176772402291 0 -0.42963367705818212 0.16607856318532879 0 -0.42625244352369662 0.18582021008031249 0 -0.41039686095261219 0.18617154221861759 0 -0.44210802609478089 0.1854688779420092 0 -0.42963367705818212 0.16607856318532879 0 -0.42625244352369662 0.18582021008031249 0 -0.44210802609478089 0.1854688779420092 0 -0.42625244352369662 0.18582021008031249 0 -0.42625244352369662 0.18582021008031249 0 -0.41039686095261219 0.18617154221861759 0 -0.42963367705818212 0.16607856318532879 0 -0.41039686095261219 0.18617154221861759 0 -0.41039686095261219 0.18617154221861759 0 -0.41256410644063662 0.16901600218963281 0 -0.4004612504882491 0.1747594312677746 0 -0.42963367705818212 0.16607856318532879 0 -0.41039686095261219 0.18617154221861759 0 -0.41256410644063662 0.16901600218963281 0 -0.42963367705818212 0.16607856318532879 0 -0.4150516164294995 0.15633176772402291 0 -0.41256410644063662 0.16901600218963281 0 -0.4150516164294995 0.15633176772402291 0 -0.41256410644063662 0.16901600218963281 0 -0.40541281781580152 0.16411760996795349 0 -0.4150516164294995 0.15633176772402291 0 -0.40541281781580152 0.16411760996795349 0 -0.40157887579219942 0.1549325929417944 0 -0.40541281781580152 0.16411760996795349 0 -0.3919169713179389 0.16235710017995281 0 -0.40157887579219942 0.1549325929417944 0 -0.41256410644063662 0.16901600218963281 0 -0.40541281781580152 0.16411760996795349 0 -0.4004612504882491 0.1747594312677746 0 -0.40541281781580152 0.16411760996795349 0 -0.3919169713179389 0.16235710017995281 0 -0.4004612504882491 0.1747594312677746 0 -0.3919169713179389 0.16235710017995281 0 -0.4004612504882491 0.1747594312677746 0 -0.38832157652682658 0.17704585628995881 0 -0.41039686095261219 0.18617154221861759 0 -0.4004612504882491 0.1747594312677746 0 -0.39655382045805382 0.18647827992414079 0 -0.41039686095261219 0.18617154221861759 0 -0.39655382045805382 0.18647827992414079 0 -0.4004612504882491 0.1747594312677746 0 -0.39655382045805382 0.18647827992414079 0 -0.38832157652682658 0.17704585628995881 0 -0.39655382045805382 0.18647827992414079 0 -0.38832157652682658 0.17704585628995881 0 -0.38319329506822858 0.18677432593399451 0 -0.38326939629491491 0.16844468527799539 0 -0.37339442102192022 0.1630365714636027 0 -0.38319329506822858 0.18677432593399451 0 -0.38832157652682658 0.17704585628995881 0 -0.38326939629491491 0.16844468527799539 0 -0.38319329506822858 0.18677432593399451 0 -0.37339442102192022 0.1630365714636027 0 -0.39655382045805382 0.18647827992414079 0 -0.38319329506822858 0.18677432593399451 0 -0.39655382045805382 0.18647827992414079 0 -0.38319329506822858 0.18677432593399451 0 -0.38832157652682658 0.17704585628995881 0 -0.3919169713179389 0.16235710017995281 0 -0.38326939629491491 0.16844468527799539 0 -0.37952071753966021 0.15300957252246841 0 -0.3919169713179389 0.16235710017995281 0 -0.38832157652682658 0.17704585628995881 0 -0.38326939629491491 0.16844468527799539 0 -0.38326939629491491 0.16844468527799539 0 -0.37952071753966021 0.15300957252246841 0 -0.37339442102192022 0.1630365714636027 0 -0.37952071753966021 0.15300957252246841 0 -0.37339442102192022 0.1630365714636027 0 -0.3919169713179389 0.16235710017995281 0 -0.37952071753966021 0.15300957252246841 0 -0.39404087372094387 0.14652036713962169 0 -0.37952071753966021 0.15300957252246841 0 -0.37818257778086628 0.14164730372235171 0 -0.38547483673090238 0.1393458410910576 0 -0.37952071753966021 0.15300957252246841 0 -0.37818257778086628 0.14164730372235171 0 -0.36757570847090471 0.14894075094207951 0 -0.37952071753966021 0.15300957252246841 0 -0.39404087372094387 0.14652036713962169 0 -0.38547483673090238 0.1393458410910576 0 -0.3919169713179389 0.16235710017995281 0 -0.39404087372094387 0.14652036713962169 0 -0.40157887579219942 0.1549325929417944 0 -0.40899553808751421 0.1425493529175163 0 -0.39404087372094387 0.14652036713962169 0 -0.40157887579219942 0.1549325929417944 0 -0.40899553808751421 0.1425493529175163 0 -0.39404087372094387 0.14652036713962169 0 -0.39811754494359242 0.1267666801070397 0 -0.39404087372094387 0.14652036713962169 0 -0.39811754494359242 0.1267666801070397 0 -0.38547483673090238 0.1393458410910576 0 -0.37818257778086628 0.14164730372235171 0 -0.38015904838199821 0.12529305033380139 0 -0.36757570847090471 0.14894075094207951 0 -0.39811754494359242 0.1267666801070397 0 -0.38015904838199821 0.12529305033380139 0 -0.38547483673090238 0.1393458410910576 0 -0.37818257778086628 0.14164730372235171 0 -0.38015904838199821 0.12529305033380139 0 -0.38547483673090238 0.1393458410910576 0 -0.38015904838199821 0.12529305033380139 0 -0.36757570847090471 0.14894075094207951 0 -0.38015904838199821 0.12529305033380139 0 -0.3659510969526576 0.14500513250799621 0 -0.36757570847090471 0.14894075094207951 0 -0.38015904838199821 0.12529305033380139 0 -0.36065567313482172 0.12797661595255691 0 -0.3659510969526576 0.14500513250799621 0 -0.36065567313482172 0.12797661595255691 0 -0.3572817299621982 0.14039151753365209 0 -0.3659510969526576 0.14500513250799621 0 -0.36065567313482172 0.12797661595255691 0 -0.3447047479462696 0.13635858554850611 0 -0.3509323009719364 0.1171748886634135 0 -0.36065567313482172 0.12797661595255691 0 -0.3572817299621982 0.14039151753365209 0 -0.3447047479462696 0.13635858554850611 0 -0.3447047479462696 0.13635858554850611 0 -0.35361610641569419 0.15824271913356061 0 -0.3447047479462696 0.13635858554850611 0 -0.35846742852376828 0.1503974950567844 0 -0.35361610641569419 0.15824271913356061 0 -0.3447047479462696 0.13635858554850611 0 -0.35361610641569419 0.15824271913356061 0 -0.34155802068817842 0.15354786577970381 0 -0.3572817299621982 0.14039151753365209 0 -0.3447047479462696 0.13635858554850611 0 -0.35846742852376828 0.1503974950567844 0 -0.35846742852376828 0.1503974950567844 0 -0.36181135358705169 0.1597736251596043 0 -0.35361610641569419 0.15824271913356061 0 -0.35846742852376828 0.1503974950567844 0 -0.36261872000834933 0.1487028821927083 0 -0.36181135358705169 0.1597736251596043 0 -0.36757570847090471 0.14894075094207951 0 -0.36181135358705169 0.1597736251596043 0 -0.36261872000834933 0.1487028821927083 0 -0.36757570847090471 0.14894075094207951 0 -0.36181135358705169 0.1597736251596043 0 -0.3572817299621982 0.14039151753365209 0 -0.36261872000834933 0.1487028821927083 0 -0.3659510969526576 0.14500513250799621 0 -0.3572817299621982 0.14039151753365209 0 -0.35846742852376828 0.1503974950567844 0 -0.36261872000834933 0.1487028821927083 0 -0.36261872000834933 0.1487028821927083 0 -0.3659510969526576 0.14500513250799621 0 -0.36757570847090471 0.14894075094207951 0 -0.3659510969526576 0.14500513250799621 0 -0.36757570847090471 0.14894075094207951 0 -0.37952071753966021 0.15300957252246841 0 -0.36757570847090471 0.14894075094207951 0 -0.37339442102192022 0.1630365714636027 0 -0.36757570847090471 0.14894075094207951 0 -0.37339442102192022 0.1630365714636027 0 -0.36757570847090471 0.14894075094207951 0 -0.37339442102192022 0.1630365714636027 0 -0.36181135358705169 0.1597736251596043 0 -0.37339442102192022 0.1630365714636027 0 -0.36283703739859069 0.18031599535465259 0 -0.37339442102192022 0.1630365714636027 0 -0.36181135358705169 0.1597736251596043 0 -0.36283703739859069 0.18031599535465259 0 -0.36181135358705169 0.1597736251596043 0 -0.36283703739859069 0.18031599535465259 0 -0.35361610641569419 0.15824271913356061 0 -0.38319329506822858 0.18677432593399451 0 -0.36426777199827848 0.18719368261539759 0 -0.38319329506822858 0.18677432593399451 0 -0.37339442102192022 0.1630365714636027 0 -0.36426777199827848 0.18719368261539759 0 -0.37339442102192022 0.1630365714636027 0 -0.36283703739859069 0.18031599535465259 0 -0.36426777199827848 0.18719368261539759 0 -0.36283703739859069 0.18031599535465259 0 -0.36060039241854058 0.18397674484363319 0 -0.36283703739859069 0.18031599535465259 0 -0.36060039241854058 0.18397674484363319 0 -0.36426777199827848 0.18719368261539759 0 -0.36283703739859069 0.18031599535465259 0 -0.36060039241854058 0.18397674484363319 0 -0.35381112477655041 0.17817111475111211 0 -0.36060039241854058 0.18397674484363319 0 -0.35381112477655041 0.17817111475111211 0 -0.34615269748580141 0.1834351948221 0 -0.36283703739859069 0.18031599535465259 0 -0.35381112477655041 0.17817111475111211 0 -0.35277303683597833 0.17023498807151771 0 -0.35381112477655041 0.17817111475111211 0 -0.34615269748580141 0.1834351948221 0 -0.34594609581282232 0.17130132695918859 0 -0.35381112477655041 0.17817111475111211 0 -0.35277303683597833 0.17023498807151771 0 -0.34594609581282232 0.17130132695918859 0 -0.36283703739859069 0.18031599535465259 0 -0.35361610641569419 0.15824271913356061 0 -0.35277303683597833 0.17023498807151771 0 -0.36283703739859069 0.18031599535465259 0 -0.35361610641569419 0.15824271913356061 0 -0.35361610641569419 0.15824271913356061 0 -0.35277303683597833 0.17023498807151771 0 -0.34779999097813208 0.16376401364107179 0 -0.35277303683597833 0.17023498807151771 0 -0.34594609581282232 0.17130132695918859 0 -0.34779999097813208 0.16376401364107179 0 -0.34594609581282232 0.17130132695918859 0 -0.34779999097813208 0.16376401364107179 0 -0.34083712953182349 0.16376331101261771 0 -0.35361610641569419 0.15824271913356061 0 -0.34779999097813208 0.16376401364107179 0 -0.34155802068817842 0.15354786577970381 0 -0.34083712953182349 0.16376331101261771 0 -0.33052633735396708 0.15703128849837319 0 -0.34155802068817842 0.15354786577970381 0 -0.34779999097813208 0.16376401364107179 0 -0.34083712953182349 0.16376331101261771 0 -0.34155802068817842 0.15354786577970381 0 -0.34083712953182349 0.16376331101261771 0 -0.33052633735396708 0.15703128849837319 0 -0.33367691620285689 0.17280513828120889 0 -0.34594609581282232 0.17130132695918859 0 -0.34083712953182349 0.16376331101261771 0 -0.33367691620285689 0.17280513828120889 0 -0.34615269748580141 0.1834351948221 0 -0.33367691620285689 0.17280513828120889 0 -0.33507529188887819 0.18943992587379441 0 -0.33367691620285689 0.17280513828120889 0 -0.32247770492564742 0.1813685216679764 0 -0.33507529188887819 0.18943992587379441 0 -0.34615269748580141 0.1834351948221 0 -0.34594609581282232 0.17130132695918859 0 -0.33367691620285689 0.17280513828120889 0 -0.32247770492564742 0.1813685216679764 0 -0.30937615051756828 0.19578226248874581 0 -0.31058259130658838 0.1795697401161577 0 -0.33367691620285689 0.17280513828120889 0 -0.32247770492564742 0.1813685216679764 0 -0.31454904342674722 0.16482950789284939 0 -0.32247770492564742 0.1813685216679764 0 -0.31454904342674722 0.16482950789284939 0 -0.31058259130658838 0.1795697401161577 0 -0.33052633735396708 0.15703128849837319 0 -0.33367691620285689 0.17280513828120889 0 -0.31454904342674722 0.16482950789284939 0 -0.33052633735396708 0.15703128849837319 0 -0.31454904342674722 0.16482950789284939 0 -0.31865171016954291 0.14739900069409251 0 -0.33052633735396708 0.15703128849837319 0 -0.31865171016954291 0.14739900069409251 0 -0.3321891676438995 0.14447485483654041 0 -0.31865171016954291 0.14739900069409251 0 -0.32615573354296978 0.13273268964692081 0 -0.3321891676438995 0.14447485483654041 0 -0.31865171016954291 0.14739900069409251 0 -0.32615573354296978 0.13273268964692081 0 -0.31156315844750648 0.1321107028343074 0 -0.32615573354296978 0.13273268964692081 0 -0.31156315844750648 0.1321107028343074 0 -0.3198793781922627 0.1208060804587982 0 -0.3447047479462696 0.13635858554850611 0 -0.32615573354296978 0.13273268964692081 0 -0.3321891676438995 0.14447485483654041 0 -0.3447047479462696 0.13635858554850611 0 -0.33579338947684512 0.1144744519634515 0 -0.3447047479462696 0.13635858554850611 0 -0.32615573354296978 0.13273268964692081 0 -0.33579338947684512 0.1144744519634515 0 -0.3447047479462696 0.13635858554850611 0 -0.34155802068817842 0.15354786577970381 0 -0.3321891676438995 0.14447485483654041 0 -0.33052633735396708 0.15703128849837319 0 -0.34155802068817842 0.15354786577970381 0 -0.3321891676438995 0.14447485483654041 0 -0.35970611100411592 0.2391183589011317 0 -0.33501233521178059 0.2258570916036933 0 -0.33656394265933492 0.2425708704437449 0 -0.36229426548866411 0.2453881584102689 0 -0.35970611100411592 0.2391183589011317 0 -0.34395163351421038 0.25557401269268892 0 -0.35970611100411592 0.2391183589011317 0 -0.34395163351421038 0.25557401269268892 0 -0.35970611100411592 0.2391183589011317 0 -0.33656394265933492 0.2425708704437449 0 -0.34395163351421038 0.25557401269268892 0 -0.38063689746311752 0.23520230412784821 0 -0.36229426548866411 0.2453881584102689 0 -0.35970611100411592 0.2391183589011317 0 -0.38063689746311752 0.23520230412784821 0 -0.36229426548866411 0.2453881584102689 0 -0.37230098287792679 0.25294325508864451 0 -0.38063689746311752 0.23520230412784821 0 -0.36229426548866411 0.2453881584102689 0 -0.37546058849402181 0.22266270510957481 0 -0.35970611100411592 0.2391183589011317 0 -0.37546058849402181 0.22266270510957481 0 -0.38063689746311752 0.23520230412784821 0 -0.35970611100411592 0.2391183589011317 0 -0.37546058849402181 0.22266270510957481 0 -0.35970611100411592 0.2391183589011317 0 -0.35885004685950012 0.21620629208441811 0 -0.35970611100411592 0.2391183589011317 0 -0.35885004685950012 0.21620629208441811 0 -0.33501233521178059 0.2258570916036933 0 -0.35885004685950012 0.21620629208441811 0 -0.34780636381516061 0.20491691822366331 0 -0.33501233521178059 0.2258570916036933 0 -0.35885004685950012 0.21620629208441811 0 -0.34780636381516061 0.20491691822366331 0 -0.36426677298072652 0.19759411956192621 0 -0.37546058849402181 0.22266270510957481 0 -0.35885004685950012 0.21620629208441811 0 -0.37084810965119519 0.20708855910651919 0 -0.35885004685950012 0.21620629208441811 0 -0.37084810965119519 0.20708855910651919 0 -0.36426677298072652 0.19759411956192621 0 -0.37518815340213912 0.1965286258885281 0 -0.38319329506822858 0.18677432593399451 0 -0.36426777199827848 0.18719368261539759 0 -0.37518815340213912 0.1965286258885281 0 -0.37084810965119519 0.20708855910651919 0 -0.36426677298072652 0.19759411956192621 0 -0.37518815340213912 0.1965286258885281 0 -0.36426777199827848 0.18719368261539759 0 -0.36426677298072652 0.19759411956192621 0 -0.36060039241854058 0.18397674484363319 0 -0.36426777199827848 0.18719368261539759 0 -0.36426677298072652 0.19759411956192621 0 -0.36060039241854058 0.18397674484363319 0 -0.34780636381516061 0.20491691822366331 0 -0.36426677298072652 0.19759411956192621 0 -0.36060039241854058 0.18397674484363319 0 -0.34780636381516061 0.20491691822366331 0 -0.36060039241854058 0.18397674484363319 0 -0.34615269748580141 0.1834351948221 0 -0.34780636381516061 0.20491691822366331 0 -0.34780636381516061 0.20491691822366331 0 -0.33507529188887819 0.18943992587379441 0 -0.32751172082371138 0.20229484623570149 0 -0.34615269748580141 0.1834351948221 0 -0.34780636381516061 0.20491691822366331 0 -0.33507529188887819 0.18943992587379441 0 -0.32247770492564742 0.1813685216679764 0 -0.33507529188887819 0.18943992587379441 0 -0.32751172082371138 0.20229484623570149 0 -0.32247770492564742 0.1813685216679764 0 -0.32751172082371138 0.20229484623570149 0 -0.30937615051756828 0.19578226248874581 0 -0.32751172082371138 0.20229484623570149 0 -0.31532247858323359 0.21640435755633611 0 -0.30937615051756828 0.19578226248874581 0 -0.32751172082371138 0.20229484623570149 0 -0.31532247858323359 0.21640435755633611 0 -0.33501233521178059 0.2258570916036933 0 -0.34780636381516061 0.20491691822366331 0 -0.33501233521178059 0.2258570916036933 0 -0.34780636381516061 0.20491691822366331 0 -0.32751172082371138 0.20229484623570149 0 -0.33501233521178059 0.2258570916036933 0 -0.33501233521178059 0.2258570916036933 0 -0.31928852524238549 0.23050759930132231 0 -0.32133167483713088 0.2448940891786261 0 -0.31532247858323359 0.21640435755633611 0 -0.33501233521178059 0.2258570916036933 0 -0.31928852524238549 0.23050759930132231 0 -0.31532247858323359 0.21640435755633611 0 -0.31928852524238549 0.23050759930132231 0 -0.30843134910048298 0.22793863775064899 0 -0.31928852524238549 0.23050759930132231 0 -0.31553220836327839 0.2382159469978683 0 -0.30843134910048298 0.22793863775064899 0 -0.33501233521178059 0.2258570916036933 0 -0.32221830660839929 0.24679726498372251 0 -0.32133167483713088 0.2448940891786261 0 -0.31553220836327839 0.2382159469978683 0 -0.32106837165573132 0.2486793803072968 0 -0.30754112098066161 0.23906002845144769 0 -0.31928852524238549 0.23050759930132231 0 -0.31553220836327839 0.2382159469978683 0 -0.32133167483713088 0.2448940891786261 0 -0.31553220836327839 0.2382159469978683 0 -0.32106837165573132 0.2486793803072968 0 -0.32133167483713088 0.2448940891786261 0 -0.32106837165573132 0.2486793803072968 0 -0.30754112098066161 0.23906002845144769 0 -0.32106837165573132 0.2486793803072968 0 -0.32221830660839929 0.24679726498372251 0 -0.324099188522188 0.25083462194133671 0 -0.32221830660839929 0.24679726498372251 0 -0.324099188522188 0.25083462194133671 0 -0.32221830660839929 0.24679726498372251 0 -0.33267593655950928 0.2510925736975908 0 -0.324099188522188 0.25083462194133671 0 -0.32106837165573132 0.2486793803072968 0 -0.32221830660839929 0.24679726498372251 0 -0.32133167483713088 0.2448940891786261 0 -0.32106837165573132 0.2486793803072968 0 -0.32221830660839929 0.24679726498372251 0 -0.32106837165573132 0.2486793803072968 0 -0.324099188522188 0.25083462194133671 0 -0.32221830660839929 0.24679726498372251 0 -0.32133167483713088 0.2448940891786261 0 -0.32221830660839929 0.24679726498372251 0 -0.33656394265933492 0.2425708704437449 0 -0.33267593655950928 0.2510925736975908 0 -0.33501233521178059 0.2258570916036933 0 -0.32221830660839929 0.24679726498372251 0 -0.33656394265933492 0.2425708704437449 0 -0.33501233521178059 0.2258570916036933 0 -0.32221830660839929 0.24679726498372251 0 -0.33656394265933492 0.2425708704437449 0 -0.34395163351421038 0.25557401269268892 0 -0.33267593655950928 0.2510925736975908 0 -0.28739650657821542 0.24626561578924161 0 -0.29897154726595537 0.24684560196851091 0 -0.29401387030558951 0.22944067659560169 0 -0.28739650657821542 0.24626561578924161 0 -0.29401387030558951 0.22944067659560169 0 -0.28134713643184572 0.23018408597700171 0 -0.29897154726595537 0.24684560196851091 0 -0.30754112098066161 0.23906002845144769 0 -0.29401387030558951 0.22944067659560169 0 -0.29897154726595537 0.24684560196851091 0 -0.30833816360920352 0.24979970928733461 0 -0.30754112098066161 0.23906002845144769 0 -0.32106837165573132 0.2486793803072968 0 -0.30833816360920352 0.24979970928733461 0 -0.30754112098066161 0.23906002845144769 0 -0.31553220836327839 0.2382159469978683 0 -0.30754112098066161 0.23906002845144769 0 -0.30843134910048298 0.22793863775064899 0 -0.30754112098066161 0.23906002845144769 0 -0.30843134910048298 0.22793863775064899 0 -0.29401387030558951 0.22944067659560169 0 -0.30754112098066161 0.23906002845144769 0 -0.29401387030558951 0.22944067659560169 0 -0.31532247858323359 0.21640435755633611 0 -0.30843134910048298 0.22793863775064899 0 -0.29791989371710448 0.2140687164716957 0 -0.30843134910048298 0.22793863775064899 0 -0.29401387030558951 0.22944067659560169 0 -0.29791989371710448 0.2140687164716957 0 -0.29401387030558951 0.22944067659560169 0 -0.29791989371710448 0.2140687164716957 0 -0.28076870128250447 0.21608966378568781 0 -0.29401387030558951 0.22944067659560169 0 -0.28134713643184572 0.23018408597700171 0 -0.28076870128250447 0.21608966378568781 0 -0.29791989371710448 0.2140687164716957 0 -0.28829918478595629 0.19937542092163149 0 -0.28076870128250447 0.21608966378568781 0 -0.31532247858323359 0.21640435755633611 0 -0.29791989371710448 0.2140687164716957 0 -0.30937615051756828 0.19578226248874581 0 -0.29791989371710448 0.2140687164716957 0 -0.30937615051756828 0.19578226248874581 0 -0.28829918478595629 0.19937542092163149 0 -0.30937615051756828 0.19578226248874581 0 -0.28829918478595629 0.19937542092163149 0 -0.30937615051756828 0.19578226248874581 0 -0.28829918478595629 0.19937542092163149 0 -0.29592746635639061 0.1762986684150592 0 -0.26722221905434429 0.20296857935451831 0 -0.27454952302599822 0.18532499456576229 0 -0.28829918478595629 0.19937542092163149 0 -0.26722221905434429 0.20296857935451831 0 -0.27454952302599822 0.18532499456576229 0 -0.28829918478595629 0.19937542092163149 0 -0.26722221905434429 0.20296857935451831 0 -0.26722221905434429 0.20296857935451831 0 -0.26157007251894859 0.19808198070212621 0 -0.27454952302599822 0.18532499456576229 0 -0.25669856363692678 0.19129905301876091 0 -0.25785624182739092 0.2045652721842047 0 -0.23571011199556749 0.19027560157752119 0 -0.25669856363692678 0.19129905301876091 0 -0.26157007251894859 0.19808198070212621 0 -0.27454952302599822 0.18532499456576229 0 -0.25669856363692678 0.19129905301876091 0 -0.26157007251894859 0.19808198070212621 0 -0.25785624182739092 0.2045652721842047 0 -0.26722221905434429 0.20296857935451831 0 -0.26157007251894859 0.19808198070212621 0 -0.25785624182739092 0.2045652721842047 0 -0.26722221905434429 0.20296857935451831 0 -0.26071179979650472 0.2064078055336786 0 -0.25785624182739092 0.2045652721842047 0 -0.26722221905434429 0.20296857935451831 0 -0.26030609859934312 0.21962206583865981 0 -0.26722221905434429 0.20296857935451831 0 -0.25785624182739092 0.2045652721842047 0 -0.26722221905434429 0.20296857935451831 0 -0.26071179979650472 0.2064078055336786 0 -0.26030609859934312 0.21962206583865981 0 -0.26071179979650472 0.2064078055336786 0 -0.25785624182739092 0.2045652721842047 0 -0.2576123358244175 0.21099426328065879 0 -0.26071179979650472 0.2064078055336786 0 -0.25785624182739092 0.2045652721842047 0 -0.25785624182739092 0.2045652721842047 0 -0.25157520307443132 0.21338190956609229 0 -0.2576123358244175 0.21099426328065879 0 -0.25157520307443132 0.21338190956609229 0 -0.2576123358244175 0.21099426328065879 0 -0.26030609859934312 0.21962206583865981 0 -0.25157520307443132 0.21338190956609229 0 -0.26030609859934312 0.21962206583865981 0 -0.25207110710078701 0.2198329446334365 0 -0.26071179979650472 0.2064078055336786 0 -0.2576123358244175 0.21099426328065879 0 -0.26030609859934312 0.21962206583865981 0 -0.28829918478595629 0.19937542092163149 0 -0.26722221905434429 0.20296857935451831 0 -0.28076870128250447 0.21608966378568781 0 -0.26722221905434429 0.20296857935451831 0 -0.26982277947105188 0.21549321117589301 0 -0.26030609859934312 0.21962206583865981 0 -0.26722221905434429 0.20296857935451831 0 -0.26982277947105188 0.21549321117589301 0 -0.28076870128250447 0.21608966378568781 0 -0.26982277947105188 0.21549321117589301 0 -0.28076870128250447 0.21608966378568781 0 -0.27099409894801568 0.22329253572470589 0 -0.28134713643184572 0.23018408597700171 0 -0.28076870128250447 0.21608966378568781 0 -0.27099409894801568 0.22329253572470589 0 -0.28134713643184572 0.23018408597700171 0 -0.26702075191911451 0.23165655287197831 0 -0.27099409894801568 0.22329253572470589 0 -0.26982277947105188 0.21549321117589301 0 -0.27099409894801568 0.22329253572470589 0 -0.26030609859934312 0.21962206583865981 0 -0.26702075191911451 0.23165655287197831 0 -0.27099409894801568 0.22329253572470589 0 -0.26030609859934312 0.21962206583865981 0 -0.26030609859934312 0.21962206583865981 0 -0.2525016477119898 0.22545096211968291 0 -0.25338997814434111 0.23627555232280109 0 -0.26030609859934312 0.21962206583865981 0 -0.25338997814434111 0.23627555232280109 0 -0.26702075191911451 0.23165655287197831 0 -0.26030609859934312 0.21962206583865981 0 -0.25338997814434111 0.23627555232280109 0 -0.26030609859934312 0.21962206583865981 0 -0.25207110710078701 0.2198329446334365 0 -0.2525016477119898 0.22545096211968291 0 -0.2525016477119898 0.22545096211968291 0 -0.25087197849701109 0.23172467114630951 0 -0.25338997814434111 0.23627555232280109 0 -0.25338997814434111 0.23627555232280109 0 -0.26906644747202718 0.24890852449672279 0 -0.25338997814434111 0.23627555232280109 0 -0.26906644747202718 0.24890852449672279 0 -0.25694559370152048 0.25065128912585227 0 -0.25338997814434111 0.23627555232280109 0 -0.25694559370152048 0.25065128912585227 0 -0.2445739512607959 0.2575038674604756 0 -0.26702075191911451 0.23165655287197831 0 -0.25338997814434111 0.23627555232280109 0 -0.26906644747202718 0.24890852449672279 0 -0.28134713643184572 0.23018408597700171 0 -0.26702075191911451 0.23165655287197831 0 -0.26906644747202718 0.24890852449672279 0 -0.28739650657821542 0.24626561578924161 0 -0.28134713643184572 0.23018408597700171 0 -0.26906644747202718 0.24890852449672279 0 -0.28153275062988231 0.14383631727947241 0 -0.30131101603804389 0.1510369528255287 0 -0.28610644016741799 0.16137992338250309 0 -0.28153275062988231 0.14383631727947241 0 -0.29447999206370812 0.1280207861497788 0 -0.30131101603804389 0.1510369528255287 0 -0.28153275062988231 0.14383631727947241 0 -0.29447999206370812 0.1280207861497788 0 -0.27541757840336523 0.12981825985503381 0 -0.29447999206370812 0.1280207861497788 0 -0.31156315844750648 0.1321107028343074 0 -0.30131101603804389 0.1510369528255287 0 -0.31865171016954291 0.14739900069409251 0 -0.31156315844750648 0.1321107028343074 0 -0.30131101603804389 0.1510369528255287 0 -0.31454904342674722 0.16482950789284939 0 -0.31865171016954291 0.14739900069409251 0 -0.30131101603804389 0.1510369528255287 0 -0.31454904342674722 0.16482950789284939 0 -0.30131101603804389 0.1510369528255287 0 -0.29592746635639061 0.1762986684150592 0 -0.31454904342674722 0.16482950789284939 0 -0.31058259130658838 0.1795697401161577 0 -0.29592746635639061 0.1762986684150592 0 -0.30937615051756828 0.19578226248874581 0 -0.31058259130658838 0.1795697401161577 0 -0.29592746635639061 0.1762986684150592 0 -0.29592746635639061 0.1762986684150592 0 -0.281741313682913 0.17190633884976239 0 -0.27454952302599822 0.18532499456576229 0 -0.28829918478595629 0.19937542092163149 0 -0.29592746635639061 0.1762986684150592 0 -0.27454952302599822 0.18532499456576229 0 -0.30131101603804389 0.1510369528255287 0 -0.29592746635639061 0.1762986684150592 0 -0.28610644016741799 0.16137992338250309 0 -0.29592746635639061 0.1762986684150592 0 -0.281741313682913 0.17190633884976239 0 -0.28610644016741799 0.16137992338250309 0 -0.281741313682913 0.17190633884976239 0 -0.28610644016741799 0.16137992338250309 0 -0.26941603570988693 0.16248729038763951 0 -0.281741313682913 0.17190633884976239 0 -0.26941603570988693 0.16248729038763951 0 -0.27454952302599822 0.18532499456576229 0 -0.26941603570988693 0.16248729038763951 0 -0.27454952302599822 0.18532499456576229 0 -0.2538068688167292 0.17824741606419039 0 -0.25669856363692678 0.19129905301876091 0 -0.27454952302599822 0.18532499456576229 0 -0.2538068688167292 0.17824741606419039 0 -0.26941603570988693 0.16248729038763951 0 -0.2538068688167292 0.17824741606419039 0 -0.245907630704644 0.16467346334311689 0 -0.26941603570988693 0.16248729038763951 0 -0.25072935194538559 0.15091073656359991 0 -0.245907630704644 0.16467346334311689 0 -0.26941603570988693 0.16248729038763951 0 -0.2635180216702947 0.14109085249426109 0 -0.25072935194538559 0.15091073656359991 0 -0.2635180216702947 0.14109085249426109 0 -0.25072935194538559 0.15091073656359991 0 -0.24681648486499361 0.13989079764542439 0 -0.28153275062988231 0.14383631727947241 0 -0.28610644016741799 0.16137992338250309 0 -0.26941603570988693 0.16248729038763951 0 -0.28153275062988231 0.14383631727947241 0 -0.26941603570988693 0.16248729038763951 0 -0.2635180216702947 0.14109085249426109 0 -0.28153275062988231 0.14383631727947241 0 -0.2635180216702947 0.14109085249426109 0 -0.27541757840336523 0.12981825985503381 0 -0.2635180216702947 0.14109085249426109 0 -0.25560731199770448 0.1231882924394609 0 -0.24681648486499361 0.13989079764542439 0 -0.2635180216702947 0.14109085249426109 0 -0.27541757840336523 0.12981825985503381 0 -0.25560731199770448 0.1231882924394609 0 -0.25560731199770448 0.1231882924394609 0 -0.25649798179994171 0.1077666324077486 0 -0.28194981565523669 0.11295505091219581 0 -0.27163497607041043 0.099554683677957834 0 -0.26291193068027252 0.085092279111468369 0 -0.24284988513574529 0.096642882843885058 0 -0.27163497607041043 0.099554683677957834 0 -0.24284988513574529 0.096642882843885058 0 -0.25649798179994171 0.1077666324077486 0 -0.27163497607041043 0.099554683677957834 0 -0.24284988513574529 0.096642882843885058 0 -0.25649798179994171 0.1077666324077486 0 -0.27163497607041043 0.099554683677957834 0 -0.28194981565523669 0.11295505091219581 0 -0.25560731199770448 0.1231882924394609 0 -0.28194981565523669 0.11295505091219581 0 -0.27541757840336523 0.12981825985503381 0 -0.25560731199770448 0.1231882924394609 0 -0.28194981565523669 0.11295505091219581 0 -0.29447999206370812 0.1280207861497788 0 -0.28194981565523669 0.11295505091219581 0 -0.29537760003130481 0.1083064235432771 0 -0.29447999206370812 0.1280207861497788 0 -0.27541757840336523 0.12981825985503381 0 -0.28194981565523669 0.11295505091219581 0 -0.28194981565523669 0.11295505091219581 0 -0.29108790648228811 0.094053948808632756 0 -0.29537760003130481 0.1083064235432771 0 -0.27163497607041043 0.099554683677957834 0 -0.28194981565523669 0.11295505091219581 0 -0.29108790648228811 0.094053948808632756 0 -0.29108790648228811 0.094053948808632756 0 -0.29537760003130481 0.1083064235432771 0 -0.30908974193557548 0.09940873138167855 0 -0.29537760003130481 0.1083064235432771 0 -0.30908974193557548 0.09940873138167855 0 -0.30890112067851239 0.1126687072307255 0 -0.29447999206370812 0.1280207861497788 0 -0.29537760003130481 0.1083064235432771 0 -0.30890112067851239 0.1126687072307255 0 -0.29447999206370812 0.1280207861497788 0 -0.31156315844750648 0.1321107028343074 0 -0.30890112067851239 0.1126687072307255 0 -0.30905797758167952 0.081999833367399744 0 -0.3080843350590583 0.060631143582027133 0 -0.31569048099385488 0.071044698506477627 0 -0.30905797758167952 0.081999833367399744 0 -0.28860958210788379 0.072768293229925118 0 -0.30905797758167952 0.081999833367399744 0 -0.28860958210788379 0.072768293229925118 0 -0.3080843350590583 0.060631143582027133 0 -0.29108790648228811 0.094053948808632756 0 -0.30908974193557548 0.09940873138167855 0 -0.30905797758167952 0.081999833367399744 0 -0.29108790648228811 0.094053948808632756 0 -0.30905797758167952 0.081999833367399744 0 -0.28860958210788379 0.072768293229925118 0 -0.29108790648228811 0.094053948808632756 0 -0.28860958210788379 0.072768293229925118 0 -0.27710178314023631 0.084608823328274504 0 -0.28860958210788379 0.072768293229925118 0 -0.27160759873598289 0.070809773612540955 0 -0.27710178314023631 0.084608823328274504 0 -0.28860958210788379 0.072768293229925118 0 -0.27160759873598289 0.070809773612540955 0 -0.27979790678356581 0.059842222773058132 0 -0.27163497607041043 0.099554683677957834 0 -0.29108790648228811 0.094053948808632756 0 -0.27710178314023631 0.084608823328274504 0 -0.27160759873598289 0.070809773612540955 0 -0.27710178314023631 0.084608823328274504 0 -0.26291193068027252 0.085092279111468369 0 -0.27163497607041043 0.099554683677957834 0 -0.27710178314023631 0.084608823328274504 0 -0.26291193068027252 0.085092279111468369 0 -0.26291193068027252 0.085092279111468369 0 -0.25136541031898729 0.073845232094683494 0 -0.24284988513574529 0.096642882843885058 0 -0.27160759873598289 0.070809773612540955 0 -0.25136541031898729 0.073845232094683494 0 -0.26787641570603948 0.049267243872486523 0 -0.27160759873598289 0.070809773612540955 0 -0.26291193068027252 0.085092279111468369 0 -0.25136541031898729 0.073845232094683494 0 -0.25136541031898729 0.073845232094683494 0 -0.25597861636397973 0.049123538321515482 0 -0.26787641570603948 0.049267243872486523 0 -0.25136541031898729 0.073845232094683494 0 -0.26787641570603948 0.049267243872486523 0 -0.25136541031898729 0.073845232094683494 0 -0.25597861636397973 0.049123538321515482 0 -0.24384480862188049 0.059602248430989879 0 -0.25597861636397973 0.049123538321515482 0 -0.25207103841232792 0.026061960329184921 0 -0.25597861636397973 0.049123538321515482 0 -0.26564054002631382 0.033927343479510527 0 -0.25207103841232792 0.026061960329184921 0 -0.25597861636397973 0.049123538321515482 0 -0.26564054002631382 0.033927343479510527 0 -0.26787641570603948 0.049267243872486523 0 -0.26564054002631382 0.033927343479510527 0 -0.26787641570603948 0.049267243872486523 0 -0.28438742109309167 0.02468925565028933 0 -0.26787641570603948 0.049267243872486523 0 -0.28438742109309167 0.02468925565028933 0 -0.26787641570603948 0.049267243872486523 0 -0.28438742109309167 0.02468925565028933 0 -0.29039739118820002 0.049988263865168608 0 -0.27979790678356581 0.059842222773058132 0 -0.26787641570603948 0.049267243872486523 0 -0.29039739118820002 0.049988263865168608 0 -0.27160759873598289 0.070809773612540955 0 -0.27979790678356581 0.059842222773058132 0 -0.26787641570603948 0.049267243872486523 0 -0.25670989474245642 0.014084883427816049 0 -0.25207103841232792 0.026061960329184921 0 -0.24816346046067789 0.0030003823368541021 0 -0.25207103841232792 0.026061960329184921 0 -0.24816346046067789 0.0030003823368541021 0 -0.25666233569757813 0.0012409316492498191 0 -0.25670989474245642 0.014084883427816049 0 -0.2663175910824343 0.0041000388923687252 0 -0.25666233569757813 0.0012409316492498191 0 -0.25111082347070451 0.00049171989325213312 0 -0.24816346046067789 0.0030003823368541021 0 -0.25666233569757813 0.0012409316492498191 0 -0.25670989474245642 0.014084883427816049 0 -0.24816346046067789 0.0030003823368541021 0 -0.25670989474245642 0.014084883427816049 0 -0.26795472370386481 0.01887906383336407 0 -0.2663175910824343 0.0041000388923687252 0 -0.26564054002631382 0.033927343479510527 0 -0.25207103841232792 0.026061960329184921 0 -0.26795472370386481 0.01887906383336407 0 -0.25670989474245642 0.014084883427816049 0 -0.25207103841232792 0.026061960329184921 0 -0.26795472370386481 0.01887906383336407 0 -0.26564054002631382 0.033927343479510527 0 -0.26795472370386481 0.01887906383336407 0 -0.28438742109309167 0.02468925565028933 0 -0.26795472370386481 0.01887906383336407 0 -0.28034186949023432 0.0037744074343769251 0 -0.28438742109309167 0.02468925565028933 0 -0.26795472370386481 0.01887906383336407 0 -0.28034186949023432 0.0037744074343769251 0 -0.2663175910824343 0.0041000388923687252 0 -0.28438742109309167 0.02468925565028933 0 -0.30110161761433291 0.021836220914155099 0 -0.30089842648014392 0.0001112674280922266 0 -0.28034186949023432 0.0037744074343769251 0 -0.28438742109309167 0.02468925565028933 0 -0.30089842648014392 0.0001112674280922266 0 -0.28438742109309167 0.02468925565028933 0 -0.30089842648014392 0.0001112674280922266 0 -0.28438742109309167 0.02468925565028933 0 -0.30110161761433291 0.021836220914155099 0 -0.30077663074283473 0.038513770901170842 0 -0.30110161761433291 0.021836220914155099 0 -0.30902853172429401 0.03114689191569547 0 -0.31041707803130031 0.01471991867552766 0 -0.30902853172429401 0.03114689191569547 0 -0.31041707803130031 0.01471991867552766 0 -0.31646314116746099 0.021481879300980181 0 -0.30110161761433291 0.021836220914155099 0 -0.30902853172429401 0.03114689191569547 0 -0.30077663074283473 0.038513770901170842 0 -0.30110161761433291 0.021836220914155099 0 -0.31041707803130031 0.01471991867552766 0 -0.30089842648014392 0.0001112674280922266 0 -0.31041707803130031 0.01471991867552766 0 -0.31143887040146051 0.0038024028975646041 0 -0.30089842648014392 0.0001112674280922266 0 -0.28860958210788379 0.072768293229925118 0 -0.29039739118820002 0.049988263865168608 0 -0.3080843350590583 0.060631143582027133 0 -0.28860958210788379 0.072768293229925118 0 -0.27979790678356581 0.059842222773058132 0 -0.29039739118820002 0.049988263865168608 0 -0.28438742109309167 0.02468925565028933 0 -0.29039739118820002 0.049988263865168608 0 -0.30077663074283473 0.038513770901170842 0 -0.30902853172429401 0.03114689191569547 0 -0.30077663074283473 0.038513770901170842 0 -0.31452512745056982 0.042543375381032172 0 -0.29039739118820002 0.049988263865168608 0 -0.30077663074283473 0.038513770901170842 0 -0.3080843350590583 0.060631143582027133 0 -0.30077663074283473 0.038513770901170842 0 -0.3080843350590583 0.060631143582027133 0 -0.31452512745056982 0.042543375381032172 0 -0.3080843350590583 0.060631143582027133 0 -0.32594536108214378 0.050085943840741151 0 -0.31452512745056982 0.042543375381032172 0 -0.3080843350590583 0.060631143582027133 0 -0.32594536108214378 0.050085943840741151 0 -0.31569048099385488 0.071044698506477627 0 -0.32594536108214378 0.050085943840741151 0 -0.32772586706880857 0.070658658672808627 0 -0.32594536108214378 0.050085943840741151 0 -0.32453282475568762 0.033764905185568198 0 -0.32594536108214378 0.050085943840741151 0 -0.31452512745056982 0.042543375381032172 0 -0.32453282475568762 0.033764905185568198 0 -0.31452512745056982 0.042543375381032172 0 -0.31705014217178512 0.031514907262629621 0 -0.32453282475568762 0.033764905185568198 0 -0.30902853172429401 0.03114689191569547 0 -0.31452512745056982 0.042543375381032172 0 -0.31705014217178512 0.031514907262629621 0 -0.31705014217178512 0.031514907262629621 0 -0.32453282475568762 0.033764905185568198 0 -0.32416485509547921 0.029513229008673651 0 -0.32453282475568762 0.033764905185568198 0 -0.32416485509547921 0.029513229008673651 0 -0.32594536108214378 0.050085943840741151 0 -0.34045160207812281 0.037981512204422092 0 -0.33878661806210347 0.048441589842637918 0 -0.32594536108214378 0.050085943840741151 0 -0.34045160207812281 0.037981512204422092 0 -0.33444945392567599 0.029629228295885851 0 -0.32594536108214378 0.050085943840741151 0 -0.32453282475568762 0.033764905185568198 0 -0.33444945392567599 0.029629228295885851 0 -0.34045160207812281 0.037981512204422092 0 -0.33444945392567599 0.029629228295885851 0 -0.34661330806137147 0.028778874896438569 0 -0.34045160207812281 0.037981512204422092 0 -0.33878661806210347 0.048441589842637918 0 -0.34831883502193589 0.03894908953968651 0 -0.32594536108214378 0.050085943840741151 0 -0.3394995154937156 0.06053897517848536 0 -0.32772586706880857 0.070658658672808627 0 -0.32594536108214378 0.050085943840741151 0 -0.33878661806210347 0.048441589842637918 0 -0.3394995154937156 0.06053897517848536 0 -0.32165509881444659 0.00051444964237450791 0 -0.32416485509547921 0.029513229008673651 0 -0.32165509881444659 0.00051444964237450791 0 -0.32485586550436651 0.0092805507219395761 0 -0.32416485509547921 0.029513229008673651 0 -0.31041707803130031 0.01471991867552766 0 -0.32165509881444659 0.00051444964237450791 0 -0.31646314116746099 0.021481879300980181 0 -0.31041707803130031 0.01471991867552766 0 -0.31143887040146051 0.0038024028975646041 0 -0.32165509881444659 0.00051444964237450791 0 -0.32485586550436651 0.0092805507219395761 0 -0.32416485509547921 0.029513229008673651 0 -0.32165509881444659 0.00051444964237450791 0 -0.31646314116746099 0.021481879300980181 0 -0.32416485509547921 0.029513229008673651 0 -0.32485586550436651 0.0092805507219395761 0 -0.32416485509547921 0.029513229008673651 0 -0.33018209530157772 0.021510816402518888 0 -0.31705014217178512 0.031514907262629621 0 -0.31646314116746099 0.021481879300980181 0 -0.32416485509547921 0.029513229008673651 0 -0.30902853172429401 0.03114689191569547 0 -0.31705014217178512 0.031514907262629621 0 -0.31646314116746099 0.021481879300980181 0 -0.32453282475568762 0.033764905185568198 0 -0.32416485509547921 0.029513229008673651 0 -0.33444945392567599 0.029629228295885851 0 -0.32416485509547921 0.029513229008673651 0 -0.33444945392567599 0.029629228295885851 0 -0.33018209530157772 0.021510816402518888 0 -0.33444945392567599 0.029629228295885851 0 -0.33998655242876052 0.019466737527311029 0 -0.33018209530157772 0.021510816402518888 0 -0.33444945392567599 0.029629228295885851 0 -0.33998655242876052 0.019466737527311029 0 -0.34661330806137147 0.028778874896438569 0 -0.33998655242876052 0.019466737527311029 0 -0.33018209530157772 0.021510816402518888 0 -0.33332388317617162 0.013791934808605841 0 -0.32554687591325288 -0.01095212756479454 0 -0.32485586550436651 0.0092805507219395761 0 -0.34154901110111657 0.0037492786904802038 0 -0.33998655242876052 0.019466737527311029 0 -0.33332388317617162 0.013791934808605841 0 -0.34154901110111657 0.0037492786904802038 0 -0.32485586550436651 0.0092805507219395761 0 -0.33332388317617162 0.013791934808605841 0 -0.34154901110111657 0.0037492786904802038 0 -0.32485586550436651 0.0092805507219395761 0 -0.33018209530157772 0.021510816402518888 0 -0.33332388317617162 0.013791934808605841 0 -0.36773282995165379 -0.00174619774939233 0 -0.35133934022977531 -0.0050012027761295336 0 -0.35755114628898088 0.01845068494575423 0 -0.35133934022977531 -0.0050012027761295336 0 -0.34154901110111657 0.0037492786904802038 0 -0.35755114628898088 0.01845068494575423 0 -0.33998655242876052 0.019466737527311029 0 -0.34154901110111657 0.0037492786904802038 0 -0.35755114628898088 0.01845068494575423 0 -0.34154901110111657 0.0037492786904802038 0 -0.35755114628898088 0.01845068494575423 0 -0.33998655242876052 0.019466737527311029 0 -0.35755114628898088 0.01845068494575423 0 -0.34661330806137147 0.028778874896438569 0 -0.35755114628898088 0.01845068494575423 0 -0.34661330806137147 0.028778874896438569 0 -0.3592162484228012 0.032697937565177138 0 -0.37514653282305982 0.01299573953559963 0 -0.35755114628898088 0.01845068494575423 0 -0.3735532814768453 0.033152091201028272 0 -0.35755114628898088 0.01845068494575423 0 -0.3592162484228012 0.032697937565177138 0 -0.3735532814768453 0.033152091201028272 0 -0.35755114628898088 0.01845068494575423 0 -0.3735532814768453 0.033152091201028272 0 -0.36773282995165379 -0.00174619774939233 0 -0.37514653282305982 0.01299573953559963 0 -0.35755114628898088 0.01845068494575423 0 -0.3394995154937156 0.06053897517848536 0 -0.35652639848528039 0.046845533189756837 0 -0.33878661806210347 0.048441589842637918 0 -0.3394995154937156 0.06053897517848536 0 -0.35652639848528039 0.046845533189756837 0 -0.3394995154937156 0.06053897517848536 0 -0.35652639848528039 0.046845533189756837 0 -0.35666306290045058 0.063485067477955182 0 -0.33878661806210347 0.048441589842637918 0 -0.34831883502193589 0.03894908953968651 0 -0.35652639848528039 0.046845533189756837 0 -0.34045160207812281 0.037981512204422092 0 -0.34661330806137147 0.028778874896438569 0 -0.34831883502193589 0.03894908953968651 0 -0.34661330806137147 0.028778874896438569 0 -0.34831883502193589 0.03894908953968651 0 -0.3592162484228012 0.032697937565177138 0 -0.34831883502193589 0.03894908953968651 0 -0.3592162484228012 0.032697937565177138 0 -0.35652639848528039 0.046845533189756837 0 -0.35652639848528039 0.046845533189756837 0 -0.3735532814768453 0.033152091201028272 0 -0.36950363917516221 0.047003191548943897 0 -0.35652639848528039 0.046845533189756837 0 -0.3735532814768453 0.033152091201028272 0 -0.3592162484228012 0.032697937565177138 0 -0.35652639848528039 0.046845533189756837 0 -0.3735532814768453 0.033152091201028272 0 -0.37752275694360438 0.036798909002031838 0 -0.3735532814768453 0.033152091201028272 0 -0.36950363917516221 0.047003191548943897 0 -0.36950363917516221 0.047003191548943897 0 -0.37478596638445771 0.060295530683281529 0 -0.35666306290045058 0.063485067477955182 0 -0.35652639848528039 0.046845533189756837 0 -0.36950363917516221 0.047003191548943897 0 -0.35666306290045058 0.063485067477955182 0 -0.37478596638445771 0.060295530683281529 0 -0.36660702705474019 0.074639361310034666 0 -0.35666306290045058 0.063485067477955182 0 -0.38008645798265722 0.071949868533357608 0 -0.37478596638445771 0.060295530683281529 0 -0.36660702705474019 0.074639361310034666 0 -0.377874145764523 0.085874469950543125 0 -0.38008645798265722 0.071949868533357608 0 -0.36660702705474019 0.074639361310034666 0 -0.36660702705474019 0.074639361310034666 0 -0.35666306290045058 0.063485067477955182 0 -0.34956782804785702 0.078274157859647697 0 -0.3394995154937156 0.06053897517848536 0 -0.35666306290045058 0.063485067477955182 0 -0.34211354321445359 0.070615258139624076 0 -0.35666306290045058 0.063485067477955182 0 -0.34956782804785702 0.078274157859647697 0 -0.34211354321445359 0.070615258139624076 0 -0.34490434013980081 0.087402818136329205 0 -0.34956782804785702 0.078274157859647697 0 -0.36066470124849598 0.087957073355422938 0 -0.34490434013980081 0.087402818136329205 0 -0.36066470124849598 0.087957073355422938 0 -0.34767135578574032 0.099432054452475827 0 -0.36660702705474019 0.074639361310034666 0 -0.34956782804785702 0.078274157859647697 0 -0.36066470124849598 0.087957073355422938 0 -0.34490434013980081 0.087402818136329205 0 -0.34956782804785702 0.078274157859647697 0 -0.33711144256143633 0.080119431509223543 0 -0.37804285338412053 0.099049560295472294 0 -0.377874145764523 0.085874469950543125 0 -0.36066470124849598 0.087957073355422938 0 -0.377874145764523 0.085874469950543125 0 -0.36660702705474019 0.074639361310034666 0 -0.36066470124849598 0.087957073355422938 0 -0.37804285338412053 0.099049560295472294 0 -0.36066470124849598 0.087957073355422938 0 -0.3658363385160055 0.1076327354000773 0 -0.37804285338412053 0.099049560295472294 0 -0.38015904838199821 0.12529305033380139 0 -0.3658363385160055 0.1076327354000773 0 -0.38015904838199821 0.12529305033380139 0 -0.36065567313482172 0.12797661595255691 0 -0.3658363385160055 0.1076327354000773 0 -0.3509323009719364 0.1171748886634135 0 -0.34767135578574032 0.099432054452475827 0 -0.33579338947684512 0.1144744519634515 0 -0.36065567313482172 0.12797661595255691 0 -0.3658363385160055 0.1076327354000773 0 -0.3509323009719364 0.1171748886634135 0 -0.3447047479462696 0.13635858554850611 0 -0.3509323009719364 0.1171748886634135 0 -0.33579338947684512 0.1144744519634515 0 -0.36066470124849598 0.087957073355422938 0 -0.3658363385160055 0.1076327354000773 0 -0.34767135578574032 0.099432054452475827 0 -0.3658363385160055 0.1076327354000773 0 -0.3509323009719364 0.1171748886634135 0 -0.34767135578574032 0.099432054452475827 0 -0.3658363385160055 0.1076327354000773 0 -0.34767135578574032 0.099432054452475827 0 -0.34767135578574032 0.099432054452475827 0 -0.3297617374826301 0.094181961471158593 0 -0.32950637305547442 0.091231373504876007 0 -0.34767135578574032 0.099432054452475827 0 -0.32950637305547442 0.091231373504876007 0 -0.33579338947684512 0.1144744519634515 0 -0.32688203100742053 0.09259031837839693 0 -0.3297617374826301 0.094181961471158593 0 -0.33579338947684512 0.1144744519634515 0 -0.32688203100742053 0.09259031837839693 0 -0.34767135578574032 0.099432054452475827 0 -0.3297617374826301 0.094181961471158593 0 -0.33579338947684512 0.1144744519634515 0 -0.33579338947684512 0.1144744519634515 0 -0.3198793781922627 0.1208060804587982 0 -0.32104232851064118 0.1075182649961037 0 -0.32615573354296978 0.13273268964692081 0 -0.33579338947684512 0.1144744519634515 0 -0.3198793781922627 0.1208060804587982 0 -0.31156315844750648 0.1321107028343074 0 -0.30890112067851239 0.1126687072307255 0 -0.3198793781922627 0.1208060804587982 0 -0.30890112067851239 0.1126687072307255 0 -0.3198793781922627 0.1208060804587982 0 -0.32104232851064118 0.1075182649961037 0 -0.30908974193557548 0.09940873138167855 0 -0.32104232851064118 0.1075182649961037 0 -0.32688203100742053 0.09259031837839693 0 -0.33579338947684512 0.1144744519634515 0 -0.32104232851064118 0.1075182649961037 0 -0.32688203100742053 0.09259031837839693 0 -0.30908974193557548 0.09940873138167855 0 -0.30890112067851239 0.1126687072307255 0 -0.32104232851064118 0.1075182649961037 0 -0.30908974193557548 0.09940873138167855 0 -0.30905797758167952 0.081999833367399744 0 -0.32688203100742053 0.09259031837839693 0 -0.30905797758167952 0.081999833367399744 0 -0.32688203100742053 0.09259031837839693 0 -0.32950637305547442 0.091231373504876007 0 -0.30905797758167952 0.081999833367399744 0 -0.32049517467495442 0.078733641012890487 0 -0.32950637305547442 0.091231373504876007 0 -0.32049517467495442 0.078733641012890487 0 -0.32772586706880857 0.070658658672808627 0 -0.32950637305547442 0.091231373504876007 0 -0.30905797758167952 0.081999833367399744 0 -0.32950637305547442 0.091231373504876007 0 -0.32594536108214378 0.050085943840741151 0 -0.31569048099385488 0.071044698506477627 0 -0.32772586706880857 0.070658658672808627 0 -0.30905797758167952 0.081999833367399744 0 -0.32049517467495442 0.078733641012890487 0 -0.31569048099385488 0.071044698506477627 0 -0.32049517467495442 0.078733641012890487 0 -0.31569048099385488 0.071044698506477627 0 -0.32772586706880857 0.070658658672808627 0 -0.32772586706880857 0.070658658672808627 0 -0.34211354321445359 0.070615258139624076 0 -0.33711144256143633 0.080119431509223543 0 -0.3394995154937156 0.06053897517848536 0 -0.32772586706880857 0.070658658672808627 0 -0.34211354321445359 0.070615258139624076 0 -0.34956782804785702 0.078274157859647697 0 -0.34211354321445359 0.070615258139624076 0 -0.33711144256143633 0.080119431509223543 0 -0.32772586706880857 0.070658658672808627 0 -0.32950637305547442 0.091231373504876007 0 -0.32772586706880857 0.070658658672808627 0 -0.33711144256143633 0.080119431509223543 0 -0.32950637305547442 0.091231373504876007 0 -0.34490434013980081 0.087402818136329205 0 -0.34767135578574032 0.099432054452475827 0 -0.32950637305547442 0.091231373504876007 0 -0.34490434013980081 0.087402818136329205 0 -0.33711144256143633 0.080119431509223543 0 -0.32950637305547442 0.091231373504876007 0 -0.3297617374826301 0.094181961471158593 0 -0.32950637305547442 0.091231373504876007 0 -0.3297617374826301 0.094181961471158593 0 -0.32688203100742053 0.09259031837839693 0 -0.32950637305547442 0.091231373504876007 0 -0.39340986872036943 0.47847686159125641 0 -0.39902266917126672 0.45762976207991291 0 -0.41396192375636182 0.47283109011922109 0 -0.39340986872036943 0.47847686159125641 0 -0.40206733440067749 0.5 0 -0.41680041680244989 0.4902619760574296 0 -0.39340986872036943 0.47847686159125641 0 -0.37145147134208079 0.47492047415535948 0 -0.37260116959713208 0.5 0 -0.39340986872036943 0.47847686159125641 0 -0.40206733440067749 0.5 0 -0.37260116959713208 0.5 0 -0.39340986872036943 0.47847686159125641 0 -0.38196615058521222 0.46232555044454787 0 -0.37145147134208079 0.47492047415535948 0 -0.39340986872036943 0.47847686159125641 0 -0.38196615058521222 0.46232555044454787 0 -0.39071266099244872 0.46077041008690872 0 -0.38196615058521222 0.46232555044454787 0 -0.38357449999343551 0.44947474228202539 0 -0.36985250797186892 0.45774409643025621 0 -0.38357449999343551 0.44947474228202539 0 -0.36985250797186892 0.45774409643025621 0 -0.38196615058521222 0.46232555044454787 0 -0.38357449999343551 0.44947474228202539 0 -0.38970863315721688 0.45194364205200838 0 -0.38196615058521222 0.46232555044454787 0 -0.38970863315721688 0.45194364205200838 0 -0.39071266099244872 0.46077041008690872 0 -0.38802568426535411 0.44588296056049298 0 -0.38357449999343551 0.44947474228202539 0 -0.37700386651057838 0.43281994941734597 0 -0.38802568426535411 0.44588296056049298 0 -0.39976270268382302 0.43763793998718881 0 -0.37700386651057838 0.43281994941734597 0 -0.38802568426535411 0.44588296056049298 0 -0.37700386651057838 0.43281994941734597 0 -0.38357449999343551 0.44947474228202539 0 -0.38970863315721688 0.45194364205200838 0 -0.38357449999343551 0.44947474228202539 0 -0.4046354696221659 0.43678266256856979 0 -0.38970863315721688 0.45194364205200838 0 -0.39902266917126672 0.45762976207991291 0 -0.4046354696221659 0.43678266256856979 0 -0.39902266917126672 0.45762976207991291 0 -0.4046354696221659 0.43678266256856979 0 -0.38802568426535411 0.44588296056049298 0 -0.38357449999343551 0.44947474228202539 0 -0.4046354696221659 0.43678266256856979 0 -0.38357449999343551 0.44947474228202539 0 -0.38970863315721688 0.45194364205200838 0 -0.4046354696221659 0.43678266256856979 0 -0.38802568426535411 0.44588296056049298 0 -0.39976270268382302 0.43763793998718881 0 -0.4046354696221659 0.43678266256856979 0 -0.39902266917126672 0.45762976207991291 0 -0.40769191675703409 0.44874951840219379 0 -0.4046354696221659 0.43678266256856979 0 -0.39340986872036943 0.47847686159125641 0 -0.39071266099244872 0.46077041008690872 0 -0.39902266917126672 0.45762976207991291 0 -0.39340986872036943 0.47847686159125641 0 -0.39902266917126672 0.45762976207991291 0 -0.38970863315721688 0.45194364205200838 0 -0.39071266099244872 0.46077041008690872 0 -0.39902266917126672 0.45762976207991291 0 -0.41351417206779872 0.45582710195314557 0 -0.43095767306328608 0.45997005566575999 0 -0.41396192375636182 0.47283109011922109 0 -0.39902266917126672 0.45762976207991291 0 -0.41351417206779872 0.45582710195314557 0 -0.41396192375636182 0.47283109011922109 0 -0.39902266917126672 0.45762976207991291 0 -0.41351417206779872 0.45582710195314557 0 -0.40769191675703409 0.44874951840219379 0 -0.41351417206779872 0.45582710195314557 0 -0.40769191675703409 0.44874951840219379 0 -0.4159366775910448 0.43995508349864032 0 -0.41351417206779872 0.45582710195314557 0 -0.4159366775910448 0.43995508349864032 0 -0.43095767306328608 0.45997005566575999 0 -0.40769191675703409 0.44874951840219379 0 -0.4159366775910448 0.43995508349864032 0 -0.4046354696221659 0.43678266256856979 0 -0.4159366775910448 0.43995508349864032 0 -0.43095767306328608 0.45997005566575999 0 -0.4159366775910448 0.43995508349864032 0 -0.43696488849727799 0.43910360734703618 0 -0.43095767306328608 0.45997005566575999 0 -0.43095767306328608 0.45997005566575999 0 -0.41396192375636182 0.47283109011922109 0 -0.44597866853552742 0.47998502783287972 0 -0.41396192375636182 0.47283109011922109 0 -0.41680041680244989 0.4902619760574296 0 -0.44597866853552742 0.47998502783287972 0 -0.39340986872036943 0.47847686159125641 0 -0.41396192375636182 0.47283109011922109 0 -0.41680041680244989 0.4902619760574296 0 -0.40206733440067749 0.5 0 -0.41680041680244989 0.4902619760574296 0 -0.43153349920422301 0.5 0 -0.41680041680244989 0.4902619760574296 0 -0.43153349920422301 0.5 0 -0.44597866853552742 0.47998502783287972 0 -0.5 0.5 0 -0.47387259881690491 0.46563206010587072 0 -0.5 0.41987183277431589 0 -0.44597866853552742 0.47998502783287972 0 -0.46099966400776848 0.49999999999999961 0 -0.47387259881690491 0.46563206010587072 0 -0.43153349920422301 0.5 0 -0.44597866853552742 0.47998502783287972 0 -0.46099966400776848 0.49999999999999961 0 -0.43095767306328608 0.45997005566575999 0 -0.44597866853552742 0.47998502783287972 0 -0.44597866853552742 0.47998502783287972 0 -0.46099966400776848 0.49999999999999961 0 -0.46099966400776848 0.49999999999999961 0 -0.5 0.5 0 -0.47387259881690491 0.46563206010587072 0 -0.47387259881690491 0.46563206010587072 0 -0.46298153777203133 0.42820276893279091 0 -0.5 0.41987183277431589 0 -0.47387259881690491 0.46563206010587072 0 -0.45034298572646231 0.45446003559464943 0 -0.46298153777203133 0.42820276893279091 0 -0.44597866853552742 0.47998502783287972 0 -0.47387259881690491 0.46563206010587072 0 -0.45034298572646231 0.45446003559464943 0 -0.43095767306328608 0.45997005566575999 0 -0.44597866853552742 0.47998502783287972 0 -0.45034298572646231 0.45446003559464943 0 -0.43696488849727799 0.43910360734703618 0 -0.43095767306328608 0.45997005566575999 0 -0.45034298572646231 0.45446003559464943 0 -0.43696488849727799 0.43910360734703618 0 -0.45034298572646231 0.45446003559464943 0 -0.46298153777203133 0.42820276893279091 0 -0.45355831016456782 0.407012508626097 0 -0.46298153777203133 0.42820276893279091 0 -0.47544103967192941 0.39659899887284011 0 -0.43696488849727799 0.43910360734703618 0 -0.46298153777203133 0.42820276893279091 0 -0.43562586022539029 0.41810676517063627 0 -0.45355831016456782 0.407012508626097 0 -0.43377416788321832 0.39979855530697028 0 -0.43562586022539029 0.41810676517063627 0 -0.45355831016456782 0.407012508626097 0 -0.46298153777203133 0.42820276893279091 0 -0.43562586022539029 0.41810676517063627 0 -0.46298153777203133 0.42820276893279091 0 -0.5 0.41987183277431589 0 -0.47544103967192941 0.39659899887284011 0 -0.5 0.41987183277431589 0 -0.47544103967192941 0.39659899887284011 0 -0.5 0.36102136840824889 0 -0.47544103967192941 0.39659899887284011 0 -0.47518292677707319 0.37020038316674259 0 -0.5 0.36102136840824889 0 -0.47544103967192941 0.39659899887284011 0 -0.45551921662651168 0.38715534733427748 0 -0.47518292677707319 0.37020038316674259 0 -0.45355831016456782 0.407012508626097 0 -0.47544103967192941 0.39659899887284011 0 -0.45551921662651168 0.38715534733427748 0 -0.45355831016456782 0.407012508626097 0 -0.45551921662651168 0.38715534733427748 0 -0.43377416788321832 0.39979855530697028 0 -0.45551921662651168 0.38715534733427748 0 -0.4368198845341329 0.38009397786819382 0 -0.43377416788321832 0.39979855530697028 0 -0.45551921662651168 0.38715534733427748 0 -0.4368198845341329 0.38009397786819382 0 -0.45024633034321532 0.36514947141111992 0 -0.4368198845341329 0.38009397786819382 0 -0.41869925507287892 0.38454686025167639 0 -0.43377416788321832 0.39979855530697028 0 -0.4368198845341329 0.38009397786819382 0 -0.41869925507287892 0.38454686025167639 0 -0.42586045274484069 0.36381965503692482 0 -0.41869925507287892 0.38454686025167639 0 -0.40147778116132871 0.38883355985551882 0 -0.4101482392820805 0.37254862533153582 0 -0.41869925507287892 0.38454686025167639 0 -0.41261971288793381 0.40712753491163173 0 -0.40147778116132871 0.38883355985551882 0 -0.41869925507287892 0.38454686025167639 0 -0.41261971288793381 0.40712753491163173 0 -0.41869925507287892 0.38454686025167639 0 -0.43377416788321832 0.39979855530697028 0 -0.41261971288793381 0.40712753491163173 0 -0.43377416788321832 0.39979855530697028 0 -0.43562586022539029 0.41810676517063627 0 -0.42483456420435928 0.41360201664740992 0 -0.43377416788321832 0.39979855530697028 0 -0.42483456420435928 0.41360201664740992 0 -0.41261971288793381 0.40712753491163173 0 -0.43562586022539029 0.41810676517063627 0 -0.42483456420435928 0.41360201664740992 0 -0.42013066492377849 0.4274447138696037 0 -0.4159366775910448 0.43995508349864032 0 -0.43696488849727799 0.43910360734703618 0 -0.42013066492377849 0.4274447138696037 0 -0.43696488849727799 0.43910360734703618 0 -0.43562586022539029 0.41810676517063627 0 -0.42013066492377849 0.4274447138696037 0 -0.43562586022539029 0.41810676517063627 0 -0.42013066492377849 0.4274447138696037 0 -0.42013066492377849 0.4274447138696037 0 -0.4046354696221659 0.43678266256856979 0 -0.42013066492377849 0.4274447138696037 0 -0.40857143178215372 0.43367155452754941 0 -0.4046354696221659 0.43678266256856979 0 -0.42013066492377849 0.4274447138696037 0 -0.4065401707029882 0.42970820957158679 0 -0.40857143178215372 0.43367155452754941 0 -0.4159366775910448 0.43995508349864032 0 -0.42013066492377849 0.4274447138696037 0 -0.4046354696221659 0.43678266256856979 0 -0.4065401707029882 0.42970820957158679 0 -0.40857143178215372 0.43367155452754941 0 -0.4046354696221659 0.43678266256856979 0 -0.4065401707029882 0.42970820957158679 0 -0.40857143178215372 0.43367155452754941 0 -0.42013066492377849 0.4274447138696037 0 -0.4065401707029882 0.42970820957158679 0 -0.41261971288793381 0.40712753491163173 0 -0.4065401707029882 0.42970820957158679 0 -0.41261971288793381 0.40712753491163173 0 -0.42483456420435928 0.41360201664740992 0 -0.42013066492377849 0.4274447138696037 0 -0.41261971288793381 0.40712753491163173 0 -0.4065401707029882 0.42970820957158679 0 -0.39486697608323851 0.40693176911758422 0 -0.39232834634424962 0.42524822850653637 0 -0.4065401707029882 0.42970820957158679 0 -0.39486697608323851 0.40693176911758422 0 -0.39486697608323851 0.40693176911758422 0 -0.39232834634424962 0.42524822850653637 0 -0.38508993310262762 0.41491499694836781 0 -0.4065401707029882 0.42970820957158679 0 -0.41261971288793381 0.40712753491163173 0 -0.39486697608323851 0.40693176911758422 0 -0.39976270268382302 0.43763793998718881 0 -0.4046354696221659 0.43678266256856979 0 -0.4011242179143516 0.43218339121435612 0 -0.4065401707029882 0.42970820957158679 0 -0.4046354696221659 0.43678266256856979 0 -0.4011242179143516 0.43218339121435612 0 -0.4065401707029882 0.42970820957158679 0 -0.4046354696221659 0.43678266256856979 0 -0.4065401707029882 0.42970820957158679 0 -0.4011242179143516 0.43218339121435612 0 -0.39232834634424962 0.42524822850653637 0 -0.39976270268382302 0.43763793998718881 0 -0.4011242179143516 0.43218339121435612 0 -0.39232834634424962 0.42524822850653637 0 -0.39976270268382302 0.43763793998718881 0 -0.39232834634424962 0.42524822850653637 0 -0.37700386651057838 0.43281994941734597 0 -0.39976270268382302 0.43763793998718881 0 -0.37700386651057838 0.43281994941734597 0 -0.38243114464577582 0.42206344604012119 0 -0.37700386651057838 0.43281994941734597 0 -0.3753024326256475 0.415270609288235 0 -0.39232834634424962 0.42524822850653637 0 -0.38243114464577582 0.42206344604012119 0 -0.37700386651057838 0.43281994941734597 0 -0.39486697608323851 0.40693176911758422 0 -0.38508993310262762 0.41491499694836781 0 -0.38199429539907243 0.40354489834884288 0 -0.39232834634424962 0.42524822850653637 0 -0.38243114464577582 0.42206344604012119 0 -0.38508993310262762 0.41491499694836781 0 -0.38243114464577582 0.42206344604012119 0 -0.38508993310262762 0.41491499694836781 0 -0.3753024326256475 0.415270609288235 0 -0.38508993310262762 0.41491499694836781 0 -0.3753024326256475 0.415270609288235 0 -0.38199429539907243 0.40354489834884288 0 -0.39486697608323851 0.40693176911758422 0 -0.38199429539907243 0.40354489834884288 0 -0.38319378146349098 0.38415532866358049 0 -0.3753024326256475 0.415270609288235 0 -0.38199429539907243 0.40354489834884288 0 -0.37074175630953887 0.39739768255072361 0 -0.39486697608323851 0.40693176911758422 0 -0.38319378146349098 0.38415532866358049 0 -0.38199429539907243 0.40354489834884288 0 -0.38319378146349098 0.38415532866358049 0 -0.37074175630953887 0.39739768255072361 0 -0.38319378146349098 0.38415532866358049 0 -0.37074175630953887 0.39739768255072361 0 -0.38319378146349098 0.38415532866358049 0 -0.39548798559074072 0.37108081268718801 0 -0.40147778116132871 0.38883355985551882 0 -0.39548798559074072 0.37108081268718801 0 -0.4101482392820805 0.37254862533153582 0 -0.38319378146349098 0.38415532866358049 0 -0.40147778116132871 0.38883355985551882 0 -0.39548798559074072 0.37108081268718801 0 -0.39486697608323851 0.40693176911758422 0 -0.38319378146349098 0.38415532866358049 0 -0.40147778116132871 0.38883355985551882 0 -0.41261971288793381 0.40712753491163173 0 -0.39486697608323851 0.40693176911758422 0 -0.40147778116132871 0.38883355985551882 0 -0.39608059821172531 0.35609300288532469 0 -0.40168391176567259 0.34595758428574508 0 -0.38852837653544031 0.34699353768145141 0 -0.39608059821172531 0.35609300288532469 0 -0.40168391176567259 0.34595758428574508 0 -0.40778218971798991 0.35800629671079498 0 -0.39608059821172531 0.35609300288532469 0 -0.39548798559074072 0.37108081268718801 0 -0.40778218971798991 0.35800629671079498 0 -0.39548798559074072 0.37108081268718801 0 -0.40778218971798991 0.35800629671079498 0 -0.39548798559074072 0.37108081268718801 0 -0.40778218971798991 0.35800629671079498 0 -0.4101482392820805 0.37254862533153582 0 -0.39608059821172531 0.35609300288532469 0 -0.39548798559074072 0.37108081268718801 0 -0.38692052744878302 0.35842678306144438 0 -0.39548798559074072 0.37108081268718801 0 -0.38411569465526563 0.3697151009907329 0 -0.38692052744878302 0.35842678306144438 0 -0.38411569465526563 0.3697151009907329 0 -0.38027737096482422 0.36277382621864263 0 -0.38692052744878302 0.35842678306144438 0 -0.38319378146349098 0.38415532866358049 0 -0.37353936917537611 0.36531788495073808 0 -0.38319378146349098 0.38415532866358049 0 -0.38411569465526563 0.3697151009907329 0 -0.37353936917537611 0.36531788495073808 0 -0.38319378146349098 0.38415532866358049 0 -0.37353936917537611 0.36531788495073808 0 -0.3705431614235668 0.37254791364451911 0 -0.38319378146349098 0.38415532866358049 0 -0.39548798559074072 0.37108081268718801 0 -0.38411569465526563 0.3697151009907329 0 -0.38411569465526563 0.3697151009907329 0 -0.38027737096482422 0.36277382621864263 0 -0.37353936917537611 0.36531788495073808 0 -0.38027737096482422 0.36277382621864263 0 -0.38100291745562648 0.35857982571845121 0 -0.38692052744878302 0.35842678306144438 0 -0.38027737096482422 0.36277382621864263 0 -0.37580834608906982 0.36182953637184628 0 -0.38100291745562648 0.35857982571845121 0 -0.38027737096482422 0.36277382621864263 0 -0.37580834608906982 0.36182953637184628 0 -0.37353936917537611 0.36531788495073808 0 -0.38100291745562648 0.35857982571845121 0 -0.38692052744878302 0.35842678306144438 0 -0.37918555484205568 0.3505400947690257 0 -0.37580834608906982 0.36182953637184628 0 -0.38100291745562648 0.35857982571845121 0 -0.37918555484205568 0.3505400947690257 0 -0.38692052744878302 0.35842678306144438 0 -0.38852837653544031 0.34699353768145141 0 -0.37918555484205568 0.3505400947690257 0 -0.39608059821172531 0.35609300288532469 0 -0.38692052744878302 0.35842678306144438 0 -0.38852837653544031 0.34699353768145141 0 -0.38852837653544031 0.34699353768145141 0 -0.37918555484205568 0.3505400947690257 0 -0.37906719231399549 0.33714418589191503 0 -0.37906719231399549 0.33714418589191503 0 -0.38615637183148599 0.32609982203653509 0 -0.39202970792404562 0.3379249373586064 0 -0.38852837653544031 0.34699353768145141 0 -0.37906719231399549 0.33714418589191503 0 -0.39202970792404562 0.3379249373586064 0 -0.37906719231399549 0.33714418589191503 0 -0.38615637183148599 0.32609982203653509 0 -0.36760005648933819 0.31877008717568522 0 -0.39642661286538933 0.31731311753141661 0 -0.37295462397507217 0.31131695018609351 0 -0.36760005648933819 0.31877008717568522 0 -0.38615637183148599 0.32609982203653509 0 -0.36760005648933819 0.31877008717568522 0 -0.39642661286538933 0.31731311753141661 0 -0.36760005648933819 0.31877008717568522 0 -0.38615637183148599 0.32609982203653509 0 -0.39642661286538933 0.31731311753141661 0 -0.36760005648933819 0.31877008717568522 0 -0.39642661286538933 0.31731311753141661 0 -0.37295462397507217 0.31131695018609351 0 -0.38615637183148599 0.32609982203653509 0 -0.39642661286538933 0.31731311753141661 0 -0.40471268717363362 0.33342955689738552 0 -0.39642661286538933 0.31731311753141661 0 -0.41177687591846329 0.31653727504062013 0 -0.39642661286538933 0.31731311753141661 0 -0.41177687591846329 0.31653727504062013 0 -0.40301153479583829 0.30414981954983411 0 -0.38615637183148599 0.32609982203653509 0 -0.40471268717363362 0.33342955689738552 0 -0.38615637183148599 0.32609982203653509 0 -0.39202970792404562 0.3379249373586064 0 -0.40471268717363362 0.33342955689738552 0 -0.40168391176567259 0.34595758428574508 0 -0.38852837653544031 0.34699353768145141 0 -0.39202970792404562 0.3379249373586064 0 -0.40168391176567259 0.34595758428574508 0 -0.39202970792404562 0.3379249373586064 0 -0.40471268717363362 0.33342955689738552 0 -0.40168391176567259 0.34595758428574508 0 -0.40471268717363362 0.33342955689738552 0 -0.41890686950811962 0.34315513627077038 0 -0.40471268717363362 0.33342955689738552 0 -0.41890686950811962 0.34315513627077038 0 -0.42248354486935857 0.32396963588321098 0 -0.39642661286538933 0.31731311753141661 0 -0.41177687591846329 0.31653727504062013 0 -0.42248354486935857 0.32396963588321098 0 -0.39642661286538933 0.31731311753141661 0 -0.40471268717363362 0.33342955689738552 0 -0.42248354486935857 0.32396963588321098 0 -0.39642661286538933 0.31731311753141661 0 -0.42248354486935857 0.32396963588321098 0 -0.41177687591846329 0.31653727504062013 0 -0.42248354486935857 0.32396963588321098 0 -0.42246628995519242 0.30997529208591662 0 -0.42248354486935857 0.32396963588321098 0 -0.43407134589639113 0.31323342036233393 0 -0.42246628995519242 0.30997529208591662 0 -0.42248354486935857 0.32396963588321098 0 -0.43680904408736682 0.32780984440870042 0 -0.43407134589639113 0.31323342036233393 0 -0.41890686950811962 0.34315513627077038 0 -0.42897422833190513 0.33446988020441282 0 -0.44006632082403929 0.34382500303524621 0 -0.41890686950811962 0.34315513627077038 0 -0.42248354486935857 0.32396963588321098 0 -0.42897422833190513 0.33446988020441282 0 -0.43680904408736682 0.32780984440870042 0 -0.42897422833190513 0.33446988020441282 0 -0.44006632082403929 0.34382500303524621 0 -0.42248354486935857 0.32396963588321098 0 -0.43680904408736682 0.32780984440870042 0 -0.42897422833190513 0.33446988020441282 0 -0.41890686950811962 0.34315513627077038 0 -0.42586045274484069 0.36381965503692482 0 -0.44006632082403929 0.34382500303524621 0 -0.40168391176567259 0.34595758428574508 0 -0.41890686950811962 0.34315513627077038 0 -0.40778218971798991 0.35800629671079498 0 -0.41890686950811962 0.34315513627077038 0 -0.40778218971798991 0.35800629671079498 0 -0.42586045274484069 0.36381965503692482 0 -0.41869925507287892 0.38454686025167639 0 -0.4101482392820805 0.37254862533153582 0 -0.42586045274484069 0.36381965503692482 0 -0.40778218971798991 0.35800629671079498 0 -0.4101482392820805 0.37254862533153582 0 -0.42586045274484069 0.36381965503692482 0 -0.4368198845341329 0.38009397786819382 0 -0.42586045274484069 0.36381965503692482 0 -0.45024633034321532 0.36514947141111992 0 -0.45024633034321532 0.36514947141111992 0 -0.44006632082403929 0.34382500303524621 0 -0.45413610881771621 0.34961663129969822 0 -0.42586045274484069 0.36381965503692482 0 -0.45024633034321532 0.36514947141111992 0 -0.44006632082403929 0.34382500303524621 0 -0.44006632082403929 0.34382500303524621 0 -0.45413610881771621 0.34961663129969822 0 -0.45769520107156703 0.33844567437976059 0 -0.45024633034321532 0.36514947141111992 0 -0.45413610881771621 0.34961663129969822 0 -0.46853658303204332 0.35104637637266589 0 -0.45413610881771621 0.34961663129969822 0 -0.46853658303204332 0.35104637637266589 0 -0.45769520107156703 0.33844567437976059 0 -0.45551921662651168 0.38715534733427748 0 -0.45024633034321532 0.36514947141111992 0 -0.47518292677707319 0.37020038316674259 0 -0.45024633034321532 0.36514947141111992 0 -0.46853658303204332 0.35104637637266589 0 -0.47518292677707319 0.37020038316674259 0 -0.46853658303204332 0.35104637637266589 0 -0.47518292677707319 0.37020038316674259 0 -0.49124680183232378 0.34767775894946529 0 -0.46853658303204332 0.35104637637266589 0 -0.49124680183232378 0.34767775894946529 0 -0.4810311944004268 0.33958614435613199 0 -0.47518292677707319 0.37020038316674259 0 -0.49124680183232378 0.34767775894946529 0 -0.5 0.36102136840824889 0 -0.49124680183232378 0.34767775894946529 0 -0.5 0.36102136840824889 0 -0.5 0.31779665248144517 0 -0.5 0.31779665248144517 0 -0.48499207123758797 0.32717065738982593 0 -0.47873734064285411 0.3066635558301859 0 -0.49124680183232378 0.34767775894946529 0 -0.5 0.31779665248144517 0 -0.48499207123758797 0.32717065738982593 0 -0.49124680183232378 0.34767775894946529 0 -0.48499207123758797 0.32717065738982593 0 -0.49124680183232378 0.34767775894946529 0 -0.48499207123758797 0.32717065738982593 0 -0.4810311944004268 0.33958614435613199 0 -0.46853658303204332 0.35104637637266589 0 -0.47363696183744952 0.32885496610142612 0 -0.48499207123758797 0.32717065738982593 0 -0.4810311944004268 0.33958614435613199 0 -0.47363696183744952 0.32885496610142612 0 -0.46853658303204332 0.35104637637266589 0 -0.4810311944004268 0.33958614435613199 0 -0.47363696183744952 0.32885496610142612 0 -0.47363696183744952 0.32885496610142612 0 -0.46468699848466372 0.31511611505231579 0 -0.47873734064285411 0.3066635558301859 0 -0.47363696183744952 0.32885496610142612 0 -0.47873734064285411 0.3066635558301859 0 -0.48499207123758797 0.32717065738982593 0 -0.47363696183744952 0.32885496610142612 0 -0.47873734064285411 0.3066635558301859 0 -0.48499207123758797 0.32717065738982593 0 -0.47873734064285411 0.3066635558301859 0 -0.46468699848466372 0.31511611505231579 0 -0.44876495037233399 0.3190335448314604 0 -0.45526414731005382 0.30882794924208901 0 -0.46468699848466372 0.31511611505231579 0 -0.46130730432174999 0.32640169137951303 0 -0.44876495037233399 0.3190335448314604 0 -0.47363696183744952 0.32885496610142612 0 -0.46468699848466372 0.31511611505231579 0 -0.46130730432174999 0.32640169137951303 0 -0.46853658303204332 0.35104637637266589 0 -0.47363696183744952 0.32885496610142612 0 -0.45769520107156703 0.33844567437976059 0 -0.47363696183744952 0.32885496610142612 0 -0.46130730432174999 0.32640169137951303 0 -0.45769520107156703 0.33844567437976059 0 -0.46130730432174999 0.32640169137951303 0 -0.45769520107156703 0.33844567437976059 0 -0.44803498738176961 0.33032130730053783 0 -0.44006632082403929 0.34382500303524621 0 -0.45769520107156703 0.33844567437976059 0 -0.44803498738176961 0.33032130730053783 0 -0.43680904408736682 0.32780984440870042 0 -0.44006632082403929 0.34382500303524621 0 -0.44803498738176961 0.33032130730053783 0 -0.46130730432174999 0.32640169137951303 0 -0.44803498738176961 0.33032130730053783 0 -0.44876495037233399 0.3190335448314604 0 -0.43680904408736682 0.32780984440870042 0 -0.44803498738176961 0.33032130730053783 0 -0.44876495037233399 0.3190335448314604 0 -0.43407134589639113 0.31323342036233393 0 -0.44876495037233399 0.3190335448314604 0 -0.44456863667783469 0.30600822541360129 0 -0.43680904408736682 0.32780984440870042 0 -0.43407134589639113 0.31323342036233393 0 -0.44876495037233399 0.3190335448314604 0 -0.44456863667783469 0.30600822541360129 0 -0.44358508017626452 0.29203780545737962 0 -0.43243771552247268 0.29783856651619961 0 -0.44456863667783469 0.30600822541360129 0 -0.45311248922273289 0.29925616308529362 0 -0.44358508017626452 0.29203780545737962 0 -0.44456863667783469 0.30600822541360129 0 -0.45311248922273289 0.29925616308529362 0 -0.45526414731005382 0.30882794924208901 0 -0.44876495037233399 0.3190335448314604 0 -0.44456863667783469 0.30600822541360129 0 -0.45526414731005382 0.30882794924208901 0 -0.44358508017626452 0.29203780545737962 0 -0.43749048551119191 0.28151631566062019 0 -0.43243771552247268 0.29783856651619961 0 -0.45311248922273289 0.29925616308529362 0 -0.44358508017626452 0.29203780545737962 0 -0.45467350514747013 0.27906683045461861 0 -0.44358508017626452 0.29203780545737962 0 -0.45467350514747013 0.27906683045461861 0 -0.43749048551119191 0.28151631566062019 0 -0.45311248922273289 0.29925616308529362 0 -0.46604840587062202 0.2971581329144895 0 -0.45467350514747013 0.27906683045461861 0 -0.46604840587062202 0.2971581329144895 0 -0.47109180812606838 0.28159649507921353 0 -0.45467350514747013 0.27906683045461861 0 -0.46468699848466372 0.31511611505231579 0 -0.45526414731005382 0.30882794924208901 0 -0.46604840587062202 0.2971581329144895 0 -0.45311248922273289 0.29925616308529362 0 -0.45526414731005382 0.30882794924208901 0 -0.46604840587062202 0.2971581329144895 0 -0.5 0.31779665248144517 0 -0.50000000000000133 0.28605055043681032 0 -0.49069436496247348 0.29852556909159322 0 -0.46468699848466372 0.31511611505231579 0 -0.46604840587062202 0.2971581329144895 0 -0.47873734064285411 0.3066635558301859 0 -0.47873734064285411 0.3066635558301859 0 -0.48404011920703799 0.28359151761793111 0 -0.47873734064285411 0.3066635558301859 0 -0.47109180812606838 0.28159649507921353 0 -0.47873734064285411 0.3066635558301859 0 -0.47109180812606838 0.28159649507921353 0 -0.48404011920703799 0.28359151761793111 0 -0.46604840587062202 0.2971581329144895 0 -0.47873734064285411 0.3066635558301859 0 -0.47109180812606838 0.28159649507921353 0 -0.47109180812606838 0.28159649507921353 0 -0.48404011920703799 0.28359151761793111 0 -0.48404011920703799 0.28359151761793111 0 -0.50000000000000133 0.28605055043681032 0 -0.49069436496247348 0.29852556909159322 0 -0.48404011920703799 0.28359151761793111 0 -0.50000000000000133 0.28605055043681032 0 -0.47873734064285411 0.3066635558301859 0 -0.48404011920703799 0.28359151761793111 0 -0.49069436496247348 0.29852556909159322 0 -0.5 0.31779665248144517 0 -0.47873734064285411 0.3066635558301859 0 -0.49069436496247348 0.29852556909159322 0 -0.49445852599850509 0.2382617199101506 0 -0.4892493226027716 0.26092661876404077 0 -0.5 0.25611761196898658 0 -0.48368830479211727 0.24590756946306941 0 -0.4892493226027716 0.26092661876404077 0 -0.48069604346874462 0.25546786677292138 0 -0.4892493226027716 0.26092661876404077 0 -0.5 0.25611761196898658 0 -0.49332236045245242 0.27167157469694209 0 -0.48404011920703799 0.28359151761793111 0 -0.4892493226027716 0.26092661876404077 0 -0.48075494667388757 0.2668779513353508 0 -0.48404011920703799 0.28359151761793111 0 -0.4892493226027716 0.26092661876404077 0 -0.49332236045245242 0.27167157469694209 0 -0.50000000000000133 0.28605055043681032 0 -0.5 0.25611761196898658 0 -0.49332236045245242 0.27167157469694209 0 -0.48404011920703799 0.28359151761793111 0 -0.4892493226027716 0.26092661876404077 0 -0.48404011920703799 0.28359151761793111 0 -0.50000000000000133 0.28605055043681032 0 -0.49332236045245242 0.27167157469694209 0 -0.48404011920703799 0.28359151761793111 0 -0.48075494667388757 0.2668779513353508 0 -0.47449233051921391 0.27577945351122679 0 -0.47109180812606838 0.28159649507921353 0 -0.47449233051921391 0.27577945351122679 0 -0.46750997712448811 0.26777914208546949 0 -0.47109180812606838 0.28159649507921353 0 -0.48404011920703799 0.28359151761793111 0 -0.47449233051921391 0.27577945351122679 0 -0.47109180812606838 0.28159649507921353 0 -0.46750997712448811 0.26777914208546949 0 -0.48075494667388757 0.2668779513353508 0 -0.47449233051921391 0.27577945351122679 0 -0.47417256221340859 0.26070444730135428 0 -0.47449233051921391 0.27577945351122679 0 -0.46750997712448811 0.26777914208546949 0 -0.47449233051921391 0.27577945351122679 0 -0.47417256221340859 0.26070444730135428 0 -0.46750997712448811 0.26777914208546949 0 -0.4892493226027716 0.26092661876404077 0 -0.48075494667388757 0.2668779513353508 0 -0.48069604346874462 0.25546786677292138 0 -0.48075494667388757 0.2668779513353508 0 -0.47417256221340859 0.26070444730135428 0 -0.48069604346874462 0.25546786677292138 0 -0.47429755291000419 0.24562381763634661 0 -0.47417256221340859 0.26070444730135428 0 -0.48069604346874462 0.25546786677292138 0 -0.47429755291000419 0.24562381763634661 0 -0.46577102953652549 0.24905509368475259 0 -0.47417256221340859 0.26070444730135428 0 -0.46577102953652549 0.24905509368475259 0 -0.47417256221340859 0.26070444730135428 0 -0.45490192420167802 0.25333295980957649 0 -0.47417256221340859 0.26070444730135428 0 -0.45490192420167802 0.25333295980957649 0 -0.46750997712448811 0.26777914208546949 0 -0.45490192420167802 0.25333295980957649 0 -0.46750997712448811 0.26777914208546949 0 -0.45490192420167802 0.25333295980957649 0 -0.46750997712448811 0.26777914208546949 0 -0.45522715856127088 0.26668047759953839 0 -0.47109180812606838 0.28159649507921353 0 -0.46750997712448811 0.26777914208546949 0 -0.45467350514747013 0.27906683045461861 0 -0.47109180812606838 0.28159649507921353 0 -0.45467350514747013 0.27906683045461861 0 -0.46750997712448811 0.26777914208546949 0 -0.45522715856127088 0.26668047759953839 0 -0.45467350514747013 0.27906683045461861 0 -0.45467350514747013 0.27906683045461861 0 -0.44432276014611211 0.26610700607359988 0 -0.43749048551119191 0.28151631566062019 0 -0.45522715856127088 0.26668047759953839 0 -0.45467350514747013 0.27906683045461861 0 -0.44432276014611211 0.26610700607359988 0 -0.45490192420167802 0.25333295980957649 0 -0.44432276014611211 0.26610700607359988 0 -0.43322189072838602 0.25018414293199998 0 -0.45490192420167802 0.25333295980957649 0 -0.45522715856127088 0.26668047759953839 0 -0.44432276014611211 0.26610700607359988 0 -0.44432276014611211 0.26610700607359988 0 -0.43322189072838602 0.25018414293199998 0 -0.42716390144242278 0.26862506585539803 0 -0.41315111516502517 0.24275132308983971 0 -0.43322189072838602 0.25018414293199998 0 -0.42716390144242278 0.26862506585539803 0 -0.41315111516502517 0.24275132308983971 0 -0.40673300605190121 0.26767398370548029 0 -0.42716390144242278 0.26862506585539803 0 -0.40673300605190121 0.26767398370548029 0 -0.42716390144242278 0.26862506585539803 0 -0.42054803570266103 0.28394411279333198 0 -0.40673300605190121 0.26767398370548029 0 -0.42054803570266103 0.28394411279333198 0 -0.40389436293567682 0.28854349601385731 0 -0.42716390144242278 0.26862506585539803 0 -0.43749048551119191 0.28151631566062019 0 -0.42054803570266103 0.28394411279333198 0 -0.44432276014611211 0.26610700607359988 0 -0.42716390144242278 0.26862506585539803 0 -0.43749048551119191 0.28151631566062019 0 -0.43243771552247268 0.29783856651619961 0 -0.41556874275230088 0.29946724900843641 0 -0.42054803570266103 0.28394411279333198 0 -0.43749048551119191 0.28151631566062019 0 -0.43243771552247268 0.29783856651619961 0 -0.42054803570266103 0.28394411279333198 0 -0.43243771552247268 0.29783856651619961 0 -0.42246628995519242 0.30997529208591662 0 -0.41556874275230088 0.29946724900843641 0 -0.43407134589639113 0.31323342036233393 0 -0.44456863667783469 0.30600822541360129 0 -0.43243771552247268 0.29783856651619961 0 -0.43407134589639113 0.31323342036233393 0 -0.43243771552247268 0.29783856651619961 0 -0.42246628995519242 0.30997529208591662 0 -0.41177687591846329 0.31653727504062013 0 -0.41556874275230088 0.29946724900843641 0 -0.40301153479583829 0.30414981954983411 0 -0.41177687591846329 0.31653727504062013 0 -0.42246628995519242 0.30997529208591662 0 -0.41556874275230088 0.29946724900843641 0 -0.41556874275230088 0.29946724900843641 0 -0.40389436293567682 0.28854349601385731 0 -0.40301153479583829 0.30414981954983411 0 -0.41556874275230088 0.29946724900843641 0 -0.42054803570266103 0.28394411279333198 0 -0.40389436293567682 0.28854349601385731 0 -0.40389436293567682 0.28854349601385731 0 -0.38739107950736151 0.29888796015484009 0 -0.38853930137585052 0.27711944751273992 0 -0.40389436293567682 0.28854349601385731 0 -0.40301153479583829 0.30414981954983411 0 -0.38739107950736151 0.29888796015484009 0 -0.39642661286538933 0.31731311753141661 0 -0.40301153479583829 0.30414981954983411 0 -0.38739107950736151 0.29888796015484009 0 -0.39642661286538933 0.31731311753141661 0 -0.38739107950736151 0.29888796015484009 0 -0.37295462397507217 0.31131695018609351 0 -0.38739107950736151 0.29888796015484009 0 -0.37295462397507217 0.31131695018609351 0 -0.36783982085410288 0.29794816612943742 0 -0.38739107950736151 0.29888796015484009 0 -0.37248135068276822 0.28523962060280661 0 -0.36783982085410288 0.29794816612943742 0 -0.38739107950736151 0.29888796015484009 0 -0.38853930137585052 0.27711944751273992 0 -0.37248135068276822 0.28523962060280661 0 -0.38853930137585052 0.27711944751273992 0 -0.36883030972682501 0.26648103705362119 0 -0.37248135068276822 0.28523962060280661 0 -0.38853930137585052 0.27711944751273992 0 -0.39099071244592531 0.25461618007173081 0 -0.36883030972682501 0.26648103705362119 0 -0.39099071244592531 0.25461618007173081 0 -0.36883030972682501 0.26648103705362119 0 -0.38645410250480378 0.25192413442107381 0 -0.39099071244592531 0.25461618007173081 0 -0.36883030972682501 0.26648103705362119 0 -0.38645410250480378 0.25192413442107381 0 -0.36883030972682501 0.26648103705362119 0 -0.38645410250480378 0.25192413442107381 0 -0.37230098287792679 0.25294325508864451 0 -0.36883030972682501 0.26648103705362119 0 -0.41315111516502517 0.24275132308983971 0 -0.40673300605190121 0.26767398370548029 0 -0.39099071244592531 0.25461618007173081 0 -0.40673300605190121 0.26767398370548029 0 -0.38853930137585052 0.27711944751273992 0 -0.39099071244592531 0.25461618007173081 0 -0.40673300605190121 0.26767398370548029 0 -0.40389436293567682 0.28854349601385731 0 -0.38853930137585052 0.27711944751273992 0 -0.35586434715294468 0.27342311719185031 0 -0.34742398918178019 0.27391142714713967 0 -0.33886310680047249 0.28252571735006832 0 -0.35586434715294468 0.27342311719185031 0 -0.34136089237065409 0.26929466540867708 0 -0.33860999464984998 0.26115338908824132 0 -0.35586434715294468 0.27342311719185031 0 -0.33860999464984998 0.26115338908824132 0 -0.35586434715294468 0.27342311719185031 0 -0.33886310680047249 0.28252571735006832 0 -0.35586434715294468 0.27342311719185031 0 -0.34742398918178019 0.27391142714713967 0 -0.34136089237065409 0.26929466540867708 0 -0.34395163351421038 0.25557401269268892 0 -0.35692133885755889 0.25981776918475608 0 -0.33860999464984998 0.26115338908824132 0 -0.35586434715294468 0.27342311719185031 0 -0.35692133885755889 0.25981776918475608 0 -0.33860999464984998 0.26115338908824132 0 -0.36229426548866411 0.2453881584102689 0 -0.34395163351421038 0.25557401269268892 0 -0.35692133885755889 0.25981776918475608 0 -0.36229426548866411 0.2453881584102689 0 -0.34395163351421038 0.25557401269268892 0 -0.35692133885755889 0.25981776918475608 0 -0.37230098287792679 0.25294325508864451 0 -0.36883030972682501 0.26648103705362119 0 -0.36229426548866411 0.2453881584102689 0 -0.35692133885755889 0.25981776918475608 0 -0.37230098287792679 0.25294325508864451 0 -0.35586434715294468 0.27342311719185031 0 -0.36022503899124492 0.27358881968603199 0 -0.37248135068276822 0.28523962060280661 0 -0.36883030972682501 0.26648103705362119 0 -0.36022503899124492 0.27358881968603199 0 -0.37248135068276822 0.28523962060280661 0 -0.35586434715294468 0.27342311719185031 0 -0.37248135068276822 0.28523962060280661 0 -0.35586434715294468 0.27342311719185031 0 -0.36883030972682501 0.26648103705362119 0 -0.35586434715294468 0.27342311719185031 0 -0.35692133885755889 0.25981776918475608 0 -0.36883030972682501 0.26648103705362119 0 -0.36883030972682501 0.26648103705362119 0 -0.36022503899124492 0.27358881968603199 0 -0.35586434715294468 0.27342311719185031 0 -0.36883030972682501 0.26648103705362119 0 -0.36022503899124492 0.27358881968603199 0 -0.35586434715294468 0.27342311719185031 0 -0.37248135068276822 0.28523962060280661 0 -0.35688941502055732 0.28897551686267647 0 -0.37248135068276822 0.28523962060280661 0 -0.36783982085410288 0.29794816612943742 0 -0.35688941502055732 0.28897551686267647 0 -0.37295462397507217 0.31131695018609351 0 -0.36783982085410288 0.29794816612943742 0 -0.34948263508475458 0.30532078284077169 0 -0.37295462397507217 0.31131695018609351 0 -0.34948263508475458 0.30532078284077169 0 -0.36783982085410288 0.29794816612943742 0 -0.34948263508475458 0.30532078284077169 0 -0.35688941502055732 0.28897551686267647 0 -0.37295462397507217 0.31131695018609351 0 -0.34948263508475458 0.30532078284077169 0 -0.35307546783281951 0.31303288224829168 0 -0.34655731222028491 0.30457347823371578 0 -0.34948263508475458 0.30532078284077169 0 -0.33886310680047249 0.28252571735006832 0 -0.34655731222028491 0.30457347823371578 0 -0.3361599693353024 0.30184535454005967 0 -0.35307546783281951 0.31303288224829168 0 -0.34655731222028491 0.30457347823371578 0 -0.34948263508475458 0.30532078284077169 0 -0.35307546783281951 0.31303288224829168 0 -0.34655731222028491 0.30457347823371578 0 -0.34948263508475458 0.30532078284077169 0 -0.34948263508475458 0.30532078284077169 0 -0.35307546783281951 0.31303288224829168 0 -0.34948263508475458 0.30532078284077169 0 -0.35688941502055732 0.28897551686267647 0 -0.33886310680047249 0.28252571735006832 0 -0.35586434715294468 0.27342311719185031 0 -0.35688941502055732 0.28897551686267647 0 -0.33886310680047249 0.28252571735006832 0 -0.34948263508475458 0.30532078284077169 0 -0.33886310680047249 0.28252571735006832 0 -0.33886310680047249 0.28252571735006832 0 -0.33633249334970478 0.29202056804636689 0 -0.32199182125145648 0.29155873866638432 0 -0.33886310680047249 0.28252571735006832 0 -0.32199182125145648 0.29155873866638432 0 -0.32957342064902873 0.2809268294101066 0 -0.34655731222028491 0.30457347823371578 0 -0.33886310680047249 0.28252571735006832 0 -0.33633249334970478 0.29202056804636689 0 -0.33886310680047249 0.28252571735006832 0 -0.32199182125145648 0.29155873866638432 0 -0.33633249334970478 0.29202056804636689 0 -0.32726575590174167 0.29580876896922031 0 -0.32199182125145648 0.29155873866638432 0 -0.33633249334970478 0.29202056804636689 0 -0.3346710441942215 0.2969053008844677 0 -0.32726575590174167 0.29580876896922031 0 -0.3254138457664057 0.30210655599065789 0 -0.35307546783281951 0.31303288224829168 0 -0.3254138457664057 0.30210655599065789 0 -0.32777973188800519 0.32078271065426772 0 -0.35307546783281951 0.31303288224829168 0 -0.3361599693353024 0.30184535454005967 0 -0.3254138457664057 0.30210655599065789 0 -0.35307546783281951 0.31303288224829168 0 -0.34655731222028491 0.30457347823371578 0 -0.33633249334970478 0.29202056804636689 0 -0.3346710441942215 0.2969053008844677 0 -0.34655731222028491 0.30457347823371578 0 -0.3361599693353024 0.30184535454005967 0 -0.3346710441942215 0.2969053008844677 0 -0.3361599693353024 0.30184535454005967 0 -0.3308776537994178 0.29916649509610138 0 -0.3254138457664057 0.30210655599065789 0 -0.3361599693353024 0.30184535454005967 0 -0.3346710441942215 0.2969053008844677 0 -0.3308776537994178 0.29916649509610138 0 -0.3346710441942215 0.2969053008844677 0 -0.3308776537994178 0.29916649509610138 0 -0.32726575590174167 0.29580876896922031 0 -0.31420285653393842 0.30839552503747442 0 -0.3254138457664057 0.30210655599065789 0 -0.32777973188800519 0.32078271065426772 0 -0.31420285653393842 0.30839552503747442 0 -0.3254138457664057 0.30210655599065789 0 -0.32199182125145648 0.29155873866638432 0 -0.3308776537994178 0.29916649509610138 0 -0.3254138457664057 0.30210655599065789 0 -0.32726575590174167 0.29580876896922031 0 -0.32199182125145648 0.29155873866638432 0 -0.30381802219213577 0.27691327909180041 0 -0.32228631675337921 0.28286518587405129 0 -0.32199182125145648 0.29155873866638432 0 -0.30381802219213577 0.27691327909180041 0 -0.32228631675337921 0.28286518587405129 0 -0.32199182125145648 0.29155873866638432 0 -0.32957342064902873 0.2809268294101066 0 -0.3254138457664057 0.30210655599065789 0 -0.32726575590174167 0.29580876896922031 0 -0.32199182125145648 0.29155873866638432 0 -0.32726575590174167 0.29580876896922031 0 -0.32199182125145648 0.29155873866638432 0 -0.32228631675337921 0.28286518587405129 0 -0.32097553126267903 0.27766341151461621 0 -0.31055820435224069 0.27411773116820082 0 -0.32628230788730372 0.27402973776722339 0 -0.31055820435224069 0.27411773116820082 0 -0.32628230788730372 0.27402973776722339 0 -0.32993361851774278 0.26335836219507741 0 -0.31055820435224069 0.27411773116820082 0 -0.32097553126267903 0.27766341151461621 0 -0.32628230788730372 0.27402973776722339 0 -0.31055820435224069 0.27411773116820082 0 -0.32993361851774278 0.26335836219507741 0 -0.31055820435224069 0.27411773116820082 0 -0.32228631675337921 0.28286518587405129 0 -0.32097553126267903 0.27766341151461621 0 -0.3255127708578599 0.27887069404315062 0 -0.32097553126267903 0.27766341151461621 0 -0.32628230788730372 0.27402973776722339 0 -0.3255127708578599 0.27887069404315062 0 -0.32228631675337921 0.28286518587405129 0 -0.3255127708578599 0.27887069404315062 0 -0.32957342064902873 0.2809268294101066 0 -0.32628230788730372 0.27402973776722339 0 -0.3255127708578599 0.27887069404315062 0 -0.32957342064902873 0.2809268294101066 0 -0.33886310680047249 0.28252571735006832 0 -0.32957342064902873 0.2809268294101066 0 -0.33488266657498411 0.27398160943934391 0 -0.32628230788730372 0.27402973776722339 0 -0.33488266657498411 0.27398160943934391 0 -0.32628230788730372 0.27402973776722339 0 -0.32957342064902873 0.2809268294101066 0 -0.33488266657498411 0.27398160943934391 0 -0.32628230788730372 0.27402973776722339 0 -0.3320826294402256 0.26797126433224389 0 -0.32628230788730372 0.27402973776722339 0 -0.33488266657498411 0.27398160943934391 0 -0.3320826294402256 0.26797126433224389 0 -0.32628230788730372 0.27402973776722339 0 -0.3320826294402256 0.26797126433224389 0 -0.32993361851774278 0.26335836219507741 0 -0.3320826294402256 0.26797126433224389 0 -0.32993361851774278 0.26335836219507741 0 -0.33488266657498411 0.27398160943934391 0 -0.3320826294402256 0.26797126433224389 0 -0.34742398918178019 0.27391142714713967 0 -0.33488266657498411 0.27398160943934391 0 -0.34136089237065409 0.26929466540867708 0 -0.3320826294402256 0.26797126433224389 0 -0.34136089237065409 0.26929466540867708 0 -0.33860999464984998 0.26115338908824132 0 -0.33488266657498411 0.27398160943934391 0 -0.3320826294402256 0.26797126433224389 0 -0.34136089237065409 0.26929466540867708 0 -0.33886310680047249 0.28252571735006832 0 -0.33488266657498411 0.27398160943934391 0 -0.34742398918178019 0.27391142714713967 0 -0.33488266657498411 0.27398160943934391 0 -0.34742398918178019 0.27391142714713967 0 -0.33886310680047249 0.28252571735006832 0 -0.33488266657498411 0.27398160943934391 0 -0.34395163351421038 0.25557401269268892 0 -0.3365466114934168 0.2596860984264594 0 -0.33267593655950928 0.2510925736975908 0 -0.34395163351421038 0.25557401269268892 0 -0.3365466114934168 0.2596860984264594 0 -0.34395163351421038 0.25557401269268892 0 -0.33860999464984998 0.26115338908824132 0 -0.34395163351421038 0.25557401269268892 0 -0.33860999464984998 0.26115338908824132 0 -0.3365466114934168 0.2596860984264594 0 -0.33860999464984998 0.26115338908824132 0 -0.3365466114934168 0.2596860984264594 0 -0.3320826294402256 0.26797126433224389 0 -0.33860999464984998 0.26115338908824132 0 -0.3365466114934168 0.2596860984264594 0 -0.3320826294402256 0.26797126433224389 0 -0.3365466114934168 0.2596860984264594 0 -0.32993361851774278 0.26335836219507741 0 -0.3365466114934168 0.2596860984264594 0 -0.32993361851774278 0.26335836219507741 0 -0.324099188522188 0.25083462194133671 0 -0.3365466114934168 0.2596860984264594 0 -0.32993361851774278 0.26335836219507741 0 -0.3320826294402256 0.26797126433224389 0 -0.33860999464984998 0.26115338908824132 0 -0.3365466114934168 0.2596860984264594 0 -0.324099188522188 0.25083462194133671 0 -0.3365466114934168 0.2596860984264594 0 -0.33267593655950928 0.2510925736975908 0 -0.324099188522188 0.25083462194133671 0 -0.32993361851774278 0.26335836219507741 0 -0.324099188522188 0.25083462194133671 0 -0.32993361851774278 0.26335836219507741 0 -0.324099188522188 0.25083462194133671 0 -0.31055820435224069 0.27411773116820082 0 -0.32106837165573132 0.2486793803072968 0 -0.324099188522188 0.25083462194133671 0 -0.31055820435224069 0.27411773116820082 0 -0.32106837165573132 0.2486793803072968 0 -0.30550878180017549 0.2741459881599172 0 -0.30833816360920352 0.24979970928733461 0 -0.30567918650313891 0.26044546311688332 0 -0.30216575257995482 0.25553552221175763 0 -0.30567918650313891 0.26044546311688332 0 -0.30041938612739932 0.27417446884456642 0 -0.29593721223279001 0.25846917992181451 0 -0.32106837165573132 0.2486793803072968 0 -0.30567918650313891 0.26044546311688332 0 -0.30550878180017549 0.2741459881599172 0 -0.32106837165573132 0.2486793803072968 0 -0.30833816360920352 0.24979970928733461 0 -0.30567918650313891 0.26044546311688332 0 -0.30567918650313891 0.26044546311688332 0 -0.30216575257995482 0.25553552221175763 0 -0.29593721223279001 0.25846917992181451 0 -0.29897154726595537 0.24684560196851091 0 -0.30833816360920352 0.24979970928733461 0 -0.30216575257995482 0.25553552221175763 0 -0.29897154726595537 0.24684560196851091 0 -0.30216575257995482 0.25553552221175763 0 -0.29593721223279001 0.25846917992181451 0 -0.32228631675337921 0.28286518587405129 0 -0.31055820435224069 0.27411773116820082 0 -0.30381802219213577 0.27691327909180041 0 -0.32106837165573132 0.2486793803072968 0 -0.31055820435224069 0.27411773116820082 0 -0.30550878180017549 0.2741459881599172 0 -0.31055820435224069 0.27411773116820082 0 -0.30550878180017549 0.2741459881599172 0 -0.31055820435224069 0.27411773116820082 0 -0.30381802219213577 0.27691327909180041 0 -0.31055820435224069 0.27411773116820082 0 -0.30550878180017549 0.2741459881599172 0 -0.30381802219213577 0.27691327909180041 0 -0.30567918650313891 0.26044546311688332 0 -0.30550878180017549 0.2741459881599172 0 -0.30041938612739932 0.27417446884456642 0 -0.30041938612739932 0.27417446884456642 0 -0.30294198960143098 0.2783470944211674 0 -0.28968332517938661 0.28570976865300418 0 -0.30550878180017549 0.2741459881599172 0 -0.30041938612739932 0.27417446884456642 0 -0.30550878180017549 0.2741459881599172 0 -0.30381802219213577 0.27691327909180041 0 -0.30041938612739932 0.27417446884456642 0 -0.30381802219213577 0.27691327909180041 0 -0.30041938612739932 0.27417446884456642 0 -0.30294198960143098 0.2783470944211674 0 -0.30550878180017549 0.2741459881599172 0 -0.30381802219213577 0.27691327909180041 0 -0.30381802219213577 0.27691327909180041 0 -0.30041938612739932 0.27417446884456642 0 -0.30127417694123931 0.2810768277485215 0 -0.30294198960143098 0.2783470944211674 0 -0.30381802219213577 0.27691327909180041 0 -0.30294198960143098 0.2783470944211674 0 -0.30041938612739932 0.27417446884456642 0 -0.2847429167997132 0.26154149667064469 0 -0.2706001263162815 0.27434133992116361 0 -0.30041938612739932 0.27417446884456642 0 -0.2706001263162815 0.27434133992116361 0 -0.27999602346432251 0.28285086070034082 0 -0.30041938612739932 0.27417446884456642 0 -0.27999602346432251 0.28285086070034082 0 -0.28968332517938661 0.28570976865300418 0 -0.30041938612739932 0.27417446884456642 0 -0.2706001263162815 0.27434133992116361 0 -0.30041938612739932 0.27417446884456642 0 -0.2847429167997132 0.26154149667064469 0 -0.30041938612739932 0.27417446884456642 0 -0.29593721223279001 0.25846917992181451 0 -0.2847429167997132 0.26154149667064469 0 -0.28739650657821542 0.24626561578924161 0 -0.29593721223279001 0.25846917992181451 0 -0.2847429167997132 0.26154149667064469 0 -0.28739650657821542 0.24626561578924161 0 -0.29897154726595537 0.24684560196851091 0 -0.29593721223279001 0.25846917992181451 0 -0.28739650657821542 0.24626561578924161 0 -0.26906644747202718 0.24890852449672279 0 -0.2847429167997132 0.26154149667064469 0 -0.26906644747202718 0.24890852449672279 0 -0.2847429167997132 0.26154149667064469 0 -0.26296481268023469 0.26156309459304311 0 -0.26906644747202718 0.24890852449672279 0 -0.2847429167997132 0.26154149667064469 0 -0.2847429167997132 0.26154149667064469 0 -0.2706001263162815 0.27434133992116361 0 -0.26296481268023469 0.26156309459304311 0 -0.2706001263162815 0.27434133992116361 0 -0.25386702737968753 0.27392986973978373 0 -0.26285261894119938 0.28695628319812633 0 -0.2706001263162815 0.27434133992116361 0 -0.25386702737968753 0.27392986973978373 0 -0.26296481268023469 0.26156309459304311 0 -0.25694559370152048 0.25065128912585227 0 -0.26296481268023469 0.26156309459304311 0 -0.2445739512607959 0.2575038674604756 0 -0.25386702737968753 0.27392986973978373 0 -0.26296481268023469 0.26156309459304311 0 -0.2445739512607959 0.2575038674604756 0 -0.26906644747202718 0.24890852449672279 0 -0.25694559370152048 0.25065128912585227 0 -0.26296481268023469 0.26156309459304311 0 -0.25386702737968753 0.27392986973978373 0 -0.26285261894119938 0.28695628319812633 0 -0.24532497764207051 0.29226635226491421 0 -0.25647260987368248 0.30596935954371429 0 -0.26285261894119938 0.28695628319812633 0 -0.24532497764207051 0.29226635226491421 0 -0.25647260987368248 0.30596935954371429 0 -0.26285261894119938 0.28695628319812633 0 -0.27642466075734562 0.2930724428848438 0 -0.26285261894119938 0.28695628319812633 0 -0.27999602346432251 0.28285086070034082 0 -0.27642466075734562 0.2930724428848438 0 -0.2706001263162815 0.27434133992116361 0 -0.26285261894119938 0.28695628319812633 0 -0.27999602346432251 0.28285086070034082 0 -0.27642466075734562 0.2930724428848438 0 -0.28651845578656321 0.29906020411085071 0 -0.27058882498474202 0.3190803142837606 0 -0.25647260987368248 0.30596935954371429 0 -0.27642466075734562 0.2930724428848438 0 -0.27058882498474202 0.3190803142837606 0 -0.29629032311809889 0.30531952647507199 0 -0.27058882498474202 0.3190803142837606 0 -0.28651845578656321 0.29906020411085071 0 -0.29629032311809889 0.30531952647507199 0 -0.27058882498474202 0.3190803142837606 0 -0.28651845578656321 0.29906020411085071 0 -0.29629032311809889 0.30531952647507199 0 -0.29960514489324258 0.29211896825757311 0 -0.27999602346432251 0.28285086070034082 0 -0.27642466075734562 0.2930724428848438 0 -0.28968332517938661 0.28570976865300418 0 -0.27642466075734562 0.2930724428848438 0 -0.28968332517938661 0.28570976865300418 0 -0.27642466075734562 0.2930724428848438 0 -0.28651845578656321 0.29906020411085071 0 -0.28968332517938661 0.28570976865300418 0 -0.28651845578656321 0.29906020411085071 0 -0.28968332517938661 0.28570976865300418 0 -0.29960514489324258 0.29211896825757311 0 -0.30127417694123931 0.2810768277485215 0 -0.28968332517938661 0.28570976865300418 0 -0.29960514489324258 0.29211896825757311 0 -0.30294198960143098 0.2783470944211674 0 -0.28968332517938661 0.28570976865300418 0 -0.32199182125145648 0.29155873866638432 0 -0.30127417694123931 0.2810768277485215 0 -0.29960514489324258 0.29211896825757311 0 -0.32199182125145648 0.29155873866638432 0 -0.30381802219213577 0.27691327909180041 0 -0.30294198960143098 0.2783470944211674 0 -0.32199182125145648 0.29155873866638432 0 -0.30127417694123931 0.2810768277485215 0 -0.30294198960143098 0.2783470944211674 0 -0.32199182125145648 0.29155873866638432 0 -0.29629032311809889 0.30531952647507199 0 -0.29960514489324258 0.29211896825757311 0 -0.30127417694123931 0.2810768277485215 0 -0.30294198960143098 0.2783470944211674 0 -0.28968332517938661 0.28570976865300418 0 -0.31420285653393842 0.30839552503747442 0 -0.29629032311809889 0.30531952647507199 0 -0.29953856064572598 0.32221009340099083 0 -0.32199182125145648 0.29155873866638432 0 -0.29629032311809889 0.30531952647507199 0 -0.31420285653393842 0.30839552503747442 0 -0.32199182125145648 0.29155873866638432 0 -0.29629032311809889 0.30531952647507199 0 -0.31203216161103381 0.33632208230303079 0 -0.29902079216369221 0.33387579068604589 0 -0.29514291976124563 0.34489026675065632 0 -0.29953856064572598 0.32221009340099083 0 -0.31203216161103381 0.33632208230303079 0 -0.29902079216369221 0.33387579068604589 0 -0.29902079216369221 0.33387579068604589 0 -0.2851127833038607 0.33416408230771028 0 -0.29514291976124563 0.34489026675065632 0 -0.29953856064572598 0.32221009340099083 0 -0.29902079216369221 0.33387579068604589 0 -0.2851127833038607 0.33416408230771028 0 -0.2851127833038607 0.33416408230771028 0 -0.28035425374815931 0.3458065335268431 0 -0.29514291976124563 0.34489026675065632 0 -0.29629032311809889 0.30531952647507199 0 -0.29953856064572598 0.32221009340099083 0 -0.27058882498474202 0.3190803142837606 0 -0.29953856064572598 0.32221009340099083 0 -0.2851127833038607 0.33416408230771028 0 -0.27058882498474202 0.3190803142837606 0 -0.2851127833038607 0.33416408230771028 0 -0.26603134851959892 0.33912149519796531 0 -0.28035425374815931 0.3458065335268431 0 -0.2851127833038607 0.33416408230771028 0 -0.27058882498474202 0.3190803142837606 0 -0.26603134851959892 0.33912149519796531 0 -0.27058882498474202 0.3190803142837606 0 -0.26603134851959892 0.33912149519796531 0 -0.24488732685138509 0.33284110209244933 0 -0.26603134851959892 0.33912149519796531 0 -0.243241615744651 0.34560974687225782 0 -0.24488732685138509 0.33284110209244933 0 -0.25647260987368248 0.30596935954371429 0 -0.27058882498474202 0.3190803142837606 0 -0.24488732685138509 0.33284110209244933 0 -0.27058882498474202 0.3190803142837606 0 -0.24488732685138509 0.33284110209244933 0 -0.25131668888737901 0.36573777118583611 0 -0.27765785641069579 0.35998942174633303 0 -0.2484955859805823 0.35515481751859251 0 -0.25131668888737901 0.36573777118583611 0 -0.27850816468071798 0.3713818185060983 0 -0.25131668888737901 0.36573777118583611 0 -0.27850816468071798 0.3713818185060983 0 -0.2633990577201854 0.37585079294208451 0 -0.25131668888737901 0.36573777118583611 0 -0.25415213025302541 0.37590247751886791 0 -0.2633990577201854 0.37585079294208451 0 -0.25131668888737901 0.36573777118583611 0 -0.25415213025302541 0.37590247751886791 0 -0.24609435682760589 0.37689211691858182 0 -0.26151628884784378 0.34961896323254887 0 -0.243241615744651 0.34560974687225782 0 -0.2484955859805823 0.35515481751859251 0 -0.26151628884784378 0.34961896323254887 0 -0.27765785641069579 0.35998942174633303 0 -0.2484955859805823 0.35515481751859251 0 -0.27765785641069579 0.35998942174633303 0 -0.2484955859805823 0.35515481751859251 0 -0.26603134851959892 0.33912149519796531 0 -0.26151628884784378 0.34961896323254887 0 -0.243241615744651 0.34560974687225782 0 -0.26151628884784378 0.34961896323254887 0 -0.2707714103464397 0.34881888727550298 0 -0.27765785641069579 0.35998942174633303 0 -0.26603134851959892 0.33912149519796531 0 -0.26151628884784378 0.34961896323254887 0 -0.2707714103464397 0.34881888727550298 0 -0.26603134851959892 0.33912149519796531 0 -0.2707714103464397 0.34881888727550298 0 -0.28035425374815931 0.3458065335268431 0 -0.2707714103464397 0.34881888727550298 0 -0.28035425374815931 0.3458065335268431 0 -0.27765785641069579 0.35998942174633303 0 -0.25131668888737901 0.36573777118583611 0 -0.27765785641069579 0.35998942174633303 0 -0.27850816468071798 0.3713818185060983 0 -0.27850816468071798 0.3713818185060983 0 -0.30569964047405718 0.3770258658263605 0 -0.27765785641069579 0.35998942174633303 0 -0.27850816468071798 0.3713818185060983 0 -0.30682012684080961 0.36482402597407371 0 -0.27765785641069579 0.35998942174633303 0 -0.30682012684080961 0.36482402597407371 0 -0.27765785641069579 0.35998942174633303 0 -0.29739619461656369 0.35613598418242071 0 -0.30682012684080961 0.36482402597407371 0 -0.27765785641069579 0.35998942174633303 0 -0.28763780613416612 0.35170555155156319 0 -0.29739619461656369 0.35613598418242071 0 -0.28035425374815931 0.3458065335268431 0 -0.28763780613416612 0.35170555155156319 0 -0.29514291976124563 0.34489026675065632 0 -0.28035425374815931 0.3458065335268431 0 -0.27765785641069579 0.35998942174633303 0 -0.28763780613416612 0.35170555155156319 0 -0.28763780613416612 0.35170555155156319 0 -0.29514291976124563 0.34489026675065632 0 -0.29739619461656369 0.35613598418242071 0 -0.31203216161103381 0.33632208230303079 0 -0.29514291976124563 0.34489026675065632 0 -0.30936672432241979 0.35160906675210352 0 -0.29514291976124563 0.34489026675065632 0 -0.29739619461656369 0.35613598418242071 0 -0.30936672432241979 0.35160906675210352 0 -0.29739619461656369 0.35613598418242071 0 -0.30936672432241979 0.35160906675210352 0 -0.30682012684080961 0.36482402597407371 0 -0.30936672432241979 0.35160906675210352 0 -0.30682012684080961 0.36482402597407371 0 -0.32040816114349069 0.35891906637948079 0 -0.27850816468071798 0.3713818185060983 0 -0.30682012684080961 0.36482402597407371 0 -0.30569964047405718 0.3770258658263605 0 -0.30682012684080961 0.36482402597407371 0 -0.32032602911403429 0.37233417665287882 0 -0.30569964047405718 0.3770258658263605 0 -0.30682012684080961 0.36482402597407371 0 -0.32032602911403429 0.37233417665287882 0 -0.33598239727092333 0.36965863020181422 0 -0.30682012684080961 0.36482402597407371 0 -0.33598239727092333 0.36965863020181422 0 -0.32040816114349069 0.35891906637948079 0 -0.30682012684080961 0.36482402597407371 0 -0.33598239727092333 0.36965863020181422 0 -0.32032602911403429 0.37233417665287882 0 -0.33119017128643591 0.37474633449294908 0 -0.3239151479702172 0.37680340651236183 0 -0.32032602911403429 0.37233417665287882 0 -0.33119017128643591 0.37474633449294908 0 -0.33598239727092333 0.36965863020181422 0 -0.33119017128643591 0.37474633449294908 0 -0.33743171254153692 0.37498111133383899 0 -0.33598239727092333 0.36965863020181422 0 -0.33598239727092333 0.36965863020181422 0 -0.33237732794088082 0.35843869943552159 0 -0.32040816114349069 0.35891906637948079 0 -0.34258875828520402 0.36289287400074788 0 -0.33598239727092333 0.36965863020181422 0 -0.33237732794088082 0.35843869943552159 0 -0.34258875828520402 0.36289287400074788 0 -0.34307954554344561 0.3715191433611712 0 -0.33598239727092333 0.36965863020181422 0 -0.34307954554344561 0.3715191433611712 0 -0.33743171254153692 0.37498111133383899 0 -0.33598239727092333 0.36965863020181422 0 -0.33955716230302813 0.35309860480511301 0 -0.33539177439384982 0.34357479794698031 0 -0.34926678015548829 0.34394718637665911 0 -0.34258875828520402 0.36289287400074788 0 -0.33955716230302813 0.35309860480511301 0 -0.33237732794088082 0.35843869943552159 0 -0.33955716230302813 0.35309860480511301 0 -0.33237732794088082 0.35843869943552159 0 -0.32474290381529608 0.34809985126071091 0 -0.33955716230302813 0.35309860480511301 0 -0.32474290381529608 0.34809985126071091 0 -0.33539177439384982 0.34357479794698031 0 -0.33237732794088082 0.35843869943552159 0 -0.32474290381529608 0.34809985126071091 0 -0.32040816114349069 0.35891906637948079 0 -0.30936672432241979 0.35160906675210352 0 -0.32474290381529608 0.34809985126071091 0 -0.32040816114349069 0.35891906637948079 0 -0.31203216161103381 0.33632208230303079 0 -0.30936672432241979 0.35160906675210352 0 -0.32474290381529608 0.34809985126071091 0 -0.31203216161103381 0.33632208230303079 0 -0.32777973188800519 0.32078271065426772 0 -0.32993470715465839 0.33504342256158393 0 -0.31203216161103381 0.33632208230303079 0 -0.32474290381529608 0.34809985126071091 0 -0.32993470715465839 0.33504342256158393 0 -0.31420285653393842 0.30839552503747442 0 -0.29953856064572598 0.32221009340099083 0 -0.32777973188800519 0.32078271065426772 0 -0.29953856064572598 0.32221009340099083 0 -0.32777973188800519 0.32078271065426772 0 -0.29953856064572598 0.32221009340099083 0 -0.31203216161103381 0.33632208230303079 0 -0.32777973188800519 0.32078271065426772 0 -0.32777973188800519 0.32078271065426772 0 -0.3366378448227636 0.32908834091458661 0 -0.34614688756765338 0.32594812402140461 0 -0.32777973188800519 0.32078271065426772 0 -0.34614688756765338 0.32594812402140461 0 -0.35602090313028423 0.31935532790754501 0 -0.32777973188800519 0.32078271065426772 0 -0.35602090313028423 0.31935532790754501 0 -0.32474290381529608 0.34809985126071091 0 -0.33539177439384982 0.34357479794698031 0 -0.32993470715465839 0.33504342256158393 0 -0.32777973188800519 0.32078271065426772 0 -0.32993470715465839 0.33504342256158393 0 -0.3366378448227636 0.32908834091458661 0 -0.32993470715465839 0.33504342256158393 0 -0.3366378448227636 0.32908834091458661 0 -0.34269005268073732 0.33457910642109029 0 -0.3366378448227636 0.32908834091458661 0 -0.34269005268073732 0.33457910642109029 0 -0.34614688756765338 0.32594812402140461 0 -0.33539177439384982 0.34357479794698031 0 -0.34269005268073732 0.33457910642109029 0 -0.34926678015548829 0.34394718637665911 0 -0.33539177439384982 0.34357479794698031 0 -0.32993470715465839 0.33504342256158393 0 -0.34269005268073732 0.33457910642109029 0 -0.35268086346313071 0.33301153147341522 0 -0.35602090313028423 0.31935532790754501 0 -0.3659146246096765 0.34059243213969592 0 -0.35268086346313071 0.33301153147341522 0 -0.3659146246096765 0.34059243213969592 0 -0.34926678015548829 0.34394718637665911 0 -0.34269005268073732 0.33457910642109029 0 -0.35268086346313071 0.33301153147341522 0 -0.34926678015548829 0.34394718637665911 0 -0.34269005268073732 0.33457910642109029 0 -0.35268086346313071 0.33301153147341522 0 -0.34614688756765338 0.32594812402140461 0 -0.32777973188800519 0.32078271065426772 0 -0.35602090313028423 0.31935532790754501 0 -0.35307546783281951 0.31303288224829168 0 -0.35268086346313071 0.33301153147341522 0 -0.34614688756765338 0.32594812402140461 0 -0.35602090313028423 0.31935532790754501 0 -0.35602090313028423 0.31935532790754501 0 -0.35307546783281951 0.31303288224829168 0 -0.36760005648933819 0.31877008717568522 0 -0.35602090313028423 0.31935532790754501 0 -0.35307546783281951 0.31303288224829168 0 -0.37295462397507217 0.31131695018609351 0 -0.35307546783281951 0.31303288224829168 0 -0.36760005648933819 0.31877008717568522 0 -0.35602090313028423 0.31935532790754501 0 -0.36760005648933819 0.31877008717568522 0 -0.3659146246096765 0.34059243213969592 0 -0.35307546783281951 0.31303288224829168 0 -0.36760005648933819 0.31877008717568522 0 -0.35602090313028423 0.31935532790754501 0 -0.36760005648933819 0.31877008717568522 0 -0.37906719231399549 0.33714418589191503 0 -0.36760005648933819 0.31877008717568522 0 -0.3659146246096765 0.34059243213969592 0 -0.35602090313028423 0.31935532790754501 0 -0.3659146246096765 0.34059243213969592 0 -0.37918555484205568 0.3505400947690257 0 -0.37906719231399549 0.33714418589191503 0 -0.3659146246096765 0.34059243213969592 0 -0.37580834608906982 0.36182953637184628 0 -0.3659146246096765 0.34059243213969592 0 -0.36606355733129481 0.35797318876362111 0 -0.37580834608906982 0.36182953637184628 0 -0.3659146246096765 0.34059243213969592 0 -0.3659146246096765 0.34059243213969592 0 -0.36606355733129481 0.35797318876362111 0 -0.35375477870952732 0.35647547147257891 0 -0.37580834608906982 0.36182953637184628 0 -0.37918555484205568 0.3505400947690257 0 -0.3659146246096765 0.34059243213969592 0 -0.37580834608906982 0.36182953637184628 0 -0.36606355733129481 0.35797318876362111 0 -0.37090185516655932 0.36246773239635938 0 -0.37580834608906982 0.36182953637184628 0 -0.37353936917537611 0.36531788495073808 0 -0.37090185516655932 0.36246773239635938 0 -0.37353936917537611 0.36531788495073808 0 -0.3681961480704965 0.36475031949923209 0 -0.37090185516655932 0.36246773239635938 0 -0.36606355733129481 0.35797318876362111 0 -0.3681961480704965 0.36475031949923209 0 -0.37090185516655932 0.36246773239635938 0 -0.37353936917537611 0.36531788495073808 0 -0.3681961480704965 0.36475031949923209 0 -0.3705431614235668 0.37254791364451911 0 -0.3681961480704965 0.36475031949923209 0 -0.3705431614235668 0.37254791364451911 0 -0.36128561476873072 0.36794350613030902 0 -0.3705431614235668 0.37254791364451911 0 -0.36128561476873072 0.36794350613030902 0 -0.36730123819526828 0.38122870665378272 0 -0.36606355733129481 0.35797318876362111 0 -0.36128561476873072 0.36794350613030902 0 -0.35375477870952732 0.35647547147257891 0 -0.36606355733129481 0.35797318876362111 0 -0.3681961480704965 0.36475031949923209 0 -0.36128561476873072 0.36794350613030902 0 -0.36128561476873072 0.36794350613030902 0 -0.35078133794341909 0.36816669472828872 0 -0.35375477870952732 0.35647547147257891 0 -0.36128561476873072 0.36794350613030902 0 -0.35078133794341909 0.36816669472828872 0 -0.35585444955969409 0.37695000614746282 0 -0.35078133794341909 0.36816669472828872 0 -0.34917766401900308 0.37573945475159443 0 -0.35585444955969409 0.37695000614746282 0 -0.34258875828520402 0.36289287400074788 0 -0.34307954554344561 0.3715191433611712 0 -0.35078133794341909 0.36816669472828872 0 -0.34307954554344561 0.3715191433611712 0 -0.35078133794341909 0.36816669472828872 0 -0.34917766401900308 0.37573945475159443 0 -0.34258875828520402 0.36289287400074788 0 -0.35078133794341909 0.36816669472828872 0 -0.35375477870952732 0.35647547147257891 0 -0.3659146246096765 0.34059243213969592 0 -0.34926678015548829 0.34394718637665911 0 -0.35375477870952732 0.35647547147257891 0 -0.34258875828520402 0.36289287400074788 0 -0.33955716230302813 0.35309860480511301 0 -0.35375477870952732 0.35647547147257891 0 -0.33955716230302813 0.35309860480511301 0 -0.34926678015548829 0.34394718637665911 0 -0.35375477870952732 0.35647547147257891 0 -0.34538775997253762 0.39534867551333053 0 -0.35828973115558632 0.41064003643786617 0 -0.35702960071437367 0.39650648733376709 0 -0.34538775997253762 0.39534867551333053 0 -0.35828973115558632 0.41064003643786617 0 -0.34538775997253762 0.39534867551333053 0 -0.35828973115558632 0.41064003643786617 0 -0.34566049643538088 0.41039385894909591 0 -0.35702960071437367 0.39650648733376709 0 -0.34538775997253762 0.39534867551333053 0 -0.35182146589033791 0.38559628849095989 0 -0.34538775997253762 0.39534867551333053 0 -0.35182146589033791 0.38559628849095989 0 -0.34346477147013171 0.37983810821191549 0 -0.34307954554344561 0.3715191433611712 0 -0.34917766401900308 0.37573945475159443 0 -0.34346477147013171 0.37983810821191549 0 -0.34917766401900308 0.37573945475159443 0 -0.35182146589033791 0.38559628849095989 0 -0.34346477147013171 0.37983810821191549 0 -0.34917766401900308 0.37573945475159443 0 -0.35585444955969409 0.37695000614746282 0 -0.35182146589033791 0.38559628849095989 0 -0.35585444955969409 0.37695000614746282 0 -0.35182146589033791 0.38559628849095989 0 -0.36023505928071842 0.38821321148125087 0 -0.35702960071437367 0.39650648733376709 0 -0.35182146589033791 0.38559628849095989 0 -0.36023505928071842 0.38821321148125087 0 -0.38319378146349098 0.38415532866358049 0 -0.36730123819526828 0.38122870665378272 0 -0.37074175630953887 0.39739768255072361 0 -0.36023505928071842 0.38821321148125087 0 -0.36730123819526828 0.38122870665378272 0 -0.37074175630953887 0.39739768255072361 0 -0.38319378146349098 0.38415532866358049 0 -0.3705431614235668 0.37254791364451911 0 -0.36730123819526828 0.38122870665378272 0 -0.35585444955969409 0.37695000614746282 0 -0.36023505928071842 0.38821321148125087 0 -0.36730123819526828 0.38122870665378272 0 -0.36128561476873072 0.36794350613030902 0 -0.35585444955969409 0.37695000614746282 0 -0.36730123819526828 0.38122870665378272 0 -0.35702960071437367 0.39650648733376709 0 -0.36023505928071842 0.38821321148125087 0 -0.37074175630953887 0.39739768255072361 0 -0.37074175630953887 0.39739768255072361 0 -0.35828973115558632 0.41064003643786617 0 -0.35702960071437367 0.39650648733376709 0 -0.37074175630953887 0.39739768255072361 0 -0.35828973115558632 0.41064003643786617 0 -0.37700386651057838 0.43281994941734597 0 -0.35828973115558632 0.41064003643786617 0 -0.37700386651057838 0.43281994941734597 0 -0.35828973115558632 0.41064003643786617 0 -0.35329700073899151 0.415949654931422 0 -0.3753024326256475 0.415270609288235 0 -0.37074175630953887 0.39739768255072361 0 -0.35828973115558632 0.41064003643786617 0 -0.37700386651057838 0.43281994941734597 0 -0.3753024326256475 0.415270609288235 0 -0.35828973115558632 0.41064003643786617 0 -0.37700386651057838 0.43281994941734597 0 -0.34891386464940372 0.42687336396614811 0 -0.35775774519919112 0.4390838723300069 0 -0.37700386651057838 0.43281994941734597 0 -0.34891386464940372 0.42687336396614811 0 -0.37700386651057838 0.43281994941734597 0 -0.34891386464940372 0.42687336396614811 0 -0.35329700073899151 0.415949654931422 0 -0.34891386464940372 0.42687336396614811 0 -0.33194099040494679 0.42869300237798852 0 -0.35775774519919112 0.4390838723300069 0 -0.33194099040494679 0.42869300237798852 0 -0.35775774519919112 0.4390838723300069 0 -0.35828973115558632 0.41064003643786617 0 -0.35329700073899151 0.415949654931422 0 -0.34566049643538088 0.41039385894909591 0 -0.35828973115558632 0.41064003643786617 0 -0.35329700073899151 0.415949654931422 0 -0.35329700073899151 0.415949654931422 0 -0.34612425325150509 0.41720459445693231 0 -0.34566049643538088 0.41039385894909591 0 -0.34891386464940372 0.42687336396614811 0 -0.35329700073899151 0.415949654931422 0 -0.34612425325150509 0.41720459445693231 0 -0.34891386464940372 0.42687336396614811 0 -0.34612425325150509 0.41720459445693231 0 -0.3366256511822443 0.41560149998106338 0 -0.34566049643538088 0.41039385894909591 0 -0.3366256511822443 0.41560149998106338 0 -0.3369635696565958 0.40584868473470531 0 -0.34891386464940372 0.42687336396614811 0 -0.3366256511822443 0.41560149998106338 0 -0.32082386278822878 0.4209267785149502 0 -0.34612425325150509 0.41720459445693231 0 -0.34566049643538088 0.41039385894909591 0 -0.3366256511822443 0.41560149998106338 0 -0.3366256511822443 0.41560149998106338 0 -0.32554909165478252 0.40912504544230022 0 -0.3369635696565958 0.40584868473470531 0 -0.34891386464940372 0.42687336396614811 0 -0.32082386278822878 0.4209267785149502 0 -0.34891386464940372 0.42687336396614811 0 -0.33194099040494679 0.42869300237798852 0 -0.32082386278822878 0.4209267785149502 0 -0.33194099040494679 0.42869300237798852 0 -0.34058357964679459 0.44275890177657229 0 -0.35775774519919112 0.4390838723300069 0 -0.33194099040494679 0.42869300237798852 0 -0.32580950616778209 0.44061671407247188 0 -0.34058357964679459 0.44275890177657229 0 -0.33194099040494679 0.42869300237798852 0 -0.31858907832273581 0.42331905111406087 0 -0.32580950616778209 0.44061671407247188 0 -0.31858907832273581 0.42331905111406087 0 -0.3145452713527559 0.43470420544638377 0 -0.32580950616778209 0.44061671407247188 0 -0.33194099040494679 0.42869300237798852 0 -0.31858907832273581 0.42331905111406087 0 -0.33194099040494679 0.42869300237798852 0 -0.31858907832273581 0.42331905111406087 0 -0.32082386278822878 0.4209267785149502 0 -0.3366256511822443 0.41560149998106338 0 -0.32554909165478252 0.40912504544230022 0 -0.32082386278822878 0.4209267785149502 0 -0.32082386278822878 0.4209267785149502 0 -0.31283987334645708 0.40883442309159063 0 -0.30612423561070251 0.41830213242596997 0 -0.31858907832273581 0.42331905111406087 0 -0.32082386278822878 0.4209267785149502 0 -0.30612423561070251 0.41830213242596997 0 -0.32554909165478252 0.40912504544230022 0 -0.31283987334645708 0.40883442309159063 0 -0.31930414022384079 0.40380913950375158 0 -0.32554909165478252 0.40912504544230022 0 -0.32082386278822878 0.4209267785149502 0 -0.31283987334645708 0.40883442309159063 0 -0.31283987334645708 0.40883442309159063 0 -0.31930414022384079 0.40380913950375158 0 -0.31561806994161018 0.39756415539659501 0 -0.31930414022384079 0.40380913950375158 0 -0.31561806994161018 0.39756415539659501 0 -0.32323275799088358 0.39725640362141618 0 -0.31561806994161018 0.39756415539659501 0 -0.31867808737609749 0.39330414764159438 0 -0.31337275356054389 0.38815648440221762 0 -0.31561806994161018 0.39756415539659501 0 -0.31867808737609749 0.39330414764159438 0 -0.32323275799088358 0.39725640362141618 0 -0.32323275799088358 0.39725640362141618 0 -0.33048585485386373 0.39136346169262448 0 -0.32248876801135229 0.39023954714614878 0 -0.31867808737609749 0.39330414764159438 0 -0.32323275799088358 0.39725640362141618 0 -0.32248876801135229 0.39023954714614878 0 -0.32554909165478252 0.40912504544230022 0 -0.32323275799088358 0.39725640362141618 0 -0.3315948490380336 0.39877434378773619 0 -0.32554909165478252 0.40912504544230022 0 -0.31930414022384079 0.40380913950375158 0 -0.32323275799088358 0.39725640362141618 0 -0.32554909165478252 0.40912504544230022 0 -0.3315948490380336 0.39877434378773619 0 -0.3369635696565958 0.40584868473470531 0 -0.34538775997253762 0.39534867551333053 0 -0.3315948490380336 0.39877434378773619 0 -0.33048585485386373 0.39136346169262448 0 -0.32323275799088358 0.39725640362141618 0 -0.3315948490380336 0.39877434378773619 0 -0.33048585485386373 0.39136346169262448 0 -0.34538775997253762 0.39534867551333053 0 -0.3315948490380336 0.39877434378773619 0 -0.3369635696565958 0.40584868473470531 0 -0.34538775997253762 0.39534867551333053 0 -0.34566049643538088 0.41039385894909591 0 -0.3369635696565958 0.40584868473470531 0 -0.33743171254153692 0.37498111133383899 0 -0.34346477147013171 0.37983810821191549 0 -0.33248578878948859 0.3800573145887951 0 -0.34307954554344561 0.3715191433611712 0 -0.33743171254153692 0.37498111133383899 0 -0.34346477147013171 0.37983810821191549 0 -0.34538775997253762 0.39534867551333053 0 -0.34346477147013171 0.37983810821191549 0 -0.33248578878948859 0.3800573145887951 0 -0.34538775997253762 0.39534867551333053 0 -0.33248578878948859 0.3800573145887951 0 -0.3328911162673962 0.38266991314662269 0 -0.34538775997253762 0.39534867551333053 0 -0.33048585485386373 0.39136346169262448 0 -0.3328911162673962 0.38266991314662269 0 -0.34538775997253762 0.39534867551333053 0 -0.33248578878948859 0.3800573145887951 0 -0.33248578878948859 0.3800573145887951 0 -0.3328911162673962 0.38266991314662269 0 -0.3299343351157496 0.37818967083027238 0 -0.3328911162673962 0.38266991314662269 0 -0.3299343351157496 0.37818967083027238 0 -0.3239151479702172 0.37680340651236183 0 -0.33119017128643591 0.37474633449294908 0 -0.33743171254153692 0.37498111133383899 0 -0.33248578878948859 0.3800573145887951 0 -0.33119017128643591 0.37474633449294908 0 -0.3299343351157496 0.37818967083027238 0 -0.3239151479702172 0.37680340651236183 0 -0.33119017128643591 0.37474633449294908 0 -0.33248578878948859 0.3800573145887951 0 -0.3299343351157496 0.37818967083027238 0 -0.3328911162673962 0.38266991314662269 0 -0.30569964047405718 0.3770258658263605 0 -0.3328911162673962 0.38266991314662269 0 -0.32098762663344271 0.38589105444279492 0 -0.30569964047405718 0.3770258658263605 0 -0.32032602911403429 0.37233417665287882 0 -0.3239151479702172 0.37680340651236183 0 -0.30569964047405718 0.3770258658263605 0 -0.3328911162673962 0.38266991314662269 0 -0.3239151479702172 0.37680340651236183 0 -0.30569964047405718 0.3770258658263605 0 -0.33048585485386373 0.39136346169262448 0 -0.3328911162673962 0.38266991314662269 0 -0.32098762663344271 0.38589105444279492 0 -0.33048585485386373 0.39136346169262448 0 -0.32098762663344271 0.38589105444279492 0 -0.32248876801135229 0.39023954714614878 0 -0.32098762663344271 0.38589105444279492 0 -0.32248876801135229 0.39023954714614878 0 -0.31337275356054389 0.38815648440221762 0 -0.32098762663344271 0.38589105444279492 0 -0.31337275356054389 0.38815648440221762 0 -0.30569964047405718 0.3770258658263605 0 -0.31867808737609749 0.39330414764159438 0 -0.32248876801135229 0.39023954714614878 0 -0.31337275356054389 0.38815648440221762 0 -0.31337275356054389 0.38815648440221762 0 -0.30569964047405718 0.3770258658263605 0 -0.30399264161159162 0.39051428401513089 0 -0.30569964047405718 0.3770258658263605 0 -0.30399264161159162 0.39051428401513089 0 -0.29880191314123461 0.38511984051802728 0 -0.30399264161159162 0.39051428401513089 0 -0.29880191314123461 0.38511984051802728 0 -0.29501882760392428 0.39099155078919978 0 -0.30569964047405718 0.3770258658263605 0 -0.29880191314123461 0.38511984051802728 0 -0.29049654287536503 0.38194766144141817 0 -0.31283987334645708 0.40883442309159063 0 -0.30803488928733991 0.39776557575157251 0 -0.30170722775389502 0.40309123368119859 0 -0.31283987334645708 0.40883442309159063 0 -0.31561806994161018 0.39756415539659501 0 -0.30803488928733991 0.39776557575157251 0 -0.31561806994161018 0.39756415539659501 0 -0.31337275356054389 0.38815648440221762 0 -0.30803488928733991 0.39776557575157251 0 -0.31337275356054389 0.38815648440221762 0 -0.30399264161159162 0.39051428401513089 0 -0.30803488928733991 0.39776557575157251 0 -0.30399264161159162 0.39051428401513089 0 -0.30170722775389502 0.40309123368119859 0 -0.29501882760392428 0.39099155078919978 0 -0.30399264161159162 0.39051428401513089 0 -0.30803488928733991 0.39776557575157251 0 -0.30170722775389502 0.40309123368119859 0 -0.30170722775389502 0.40309123368119859 0 -0.28882358847639372 0.39783978125756297 0 -0.29265693464307369 0.40687018525515523 0 -0.29501882760392428 0.39099155078919978 0 -0.28882358847639372 0.39783978125756297 0 -0.28652235817694899 0.39016841102473421 0 -0.30170722775389502 0.40309123368119859 0 -0.29501882760392428 0.39099155078919978 0 -0.28882358847639372 0.39783978125756297 0 -0.28882358847639372 0.39783978125756297 0 -0.28652235817694899 0.39016841102473421 0 -0.27949585768809948 0.39569713315343791 0 -0.28882358847639372 0.39783978125756297 0 -0.28344486193404589 0.406467529179392 0 -0.29265693464307369 0.40687018525515523 0 -0.28882358847639372 0.39783978125756297 0 -0.27949585768809948 0.39569713315343791 0 -0.28344486193404589 0.406467529179392 0 -0.27850816468071798 0.3713818185060983 0 -0.30569964047405718 0.3770258658263605 0 -0.29049654287536503 0.38194766144141817 0 -0.29880191314123461 0.38511984051802728 0 -0.29501882760392428 0.39099155078919978 0 -0.29049654287536503 0.38194766144141817 0 -0.29501882760392428 0.39099155078919978 0 -0.29049654287536503 0.38194766144141817 0 -0.28652235817694899 0.39016841102473421 0 -0.28652235817694899 0.39016841102473421 0 -0.27877697424096243 0.38436592848205192 0 -0.27949585768809948 0.39569713315343791 0 -0.29049654287536503 0.38194766144141817 0 -0.28652235817694899 0.39016841102473421 0 -0.27877697424096243 0.38436592848205192 0 -0.27850816468071798 0.3713818185060983 0 -0.29049654287536503 0.38194766144141817 0 -0.27877697424096243 0.38436592848205192 0 -0.27850816468071798 0.3713818185060983 0 -0.27222801197401969 0.38040888421547508 0 -0.27877697424096243 0.38436592848205192 0 -0.27222801197401969 0.38040888421547508 0 -0.26822785125421289 0.39003699693166588 0 -0.2633990577201854 0.37585079294208451 0 -0.27850816468071798 0.3713818185060983 0 -0.27222801197401969 0.38040888421547508 0 -0.2633990577201854 0.37585079294208451 0 -0.27222801197401969 0.38040888421547508 0 -0.26822785125421289 0.39003699693166588 0 -0.27877697424096243 0.38436592848205192 0 -0.26822785125421289 0.39003699693166588 0 -0.27877697424096243 0.38436592848205192 0 -0.27949585768809948 0.39569713315343791 0 -0.26822785125421289 0.39003699693166588 0 -0.27949585768809948 0.39569713315343791 0 -0.27167044937907009 0.40639887674431768 0 -0.26822785125421289 0.39003699693166588 0 -0.2579667928209704 0.40233278043420312 0 -0.27167044937907009 0.40639887674431768 0 -0.27949585768809948 0.39569713315343791 0 -0.27167044937907009 0.40639887674431768 0 -0.28344486193404589 0.406467529179392 0 -0.2579667928209704 0.40233278043420312 0 -0.25579841757693111 0.38512922902896918 0 -0.24442080765291929 0.39167101754676842 0 -0.26822785125421289 0.39003699693166588 0 -0.2579667928209704 0.40233278043420312 0 -0.25579841757693111 0.38512922902896918 0 -0.25579841757693111 0.38512922902896918 0 -0.25415213025302541 0.37590247751886791 0 -0.2633990577201854 0.37585079294208451 0 -0.25579841757693111 0.38512922902896918 0 -0.25415213025302541 0.37590247751886791 0 -0.24609435682760589 0.37689211691858182 0 -0.26822785125421289 0.39003699693166588 0 -0.25579841757693111 0.38512922902896918 0 -0.2633990577201854 0.37585079294208451 0 -0.26531974359781979 0.42266845732450947 0 -0.2433305638685194 0.41180726758166358 0 -0.2454072755437606 0.4312301048156057 0 -0.26531974359781979 0.42266845732450947 0 -0.2621958054067226 0.44121532402395131 0 -0.2454072755437606 0.4312301048156057 0 -0.2579667928209704 0.40233278043420312 0 -0.26531974359781979 0.42266845732450947 0 -0.2433305638685194 0.41180726758166358 0 -0.26531974359781979 0.42266845732450947 0 -0.2433305638685194 0.41180726758166358 0 -0.2579667928209704 0.40233278043420312 0 -0.26531974359781979 0.42266845732450947 0 -0.27167044937907009 0.40639887674431768 0 -0.26531974359781979 0.42266845732450947 0 -0.27167044937907009 0.40639887674431768 0 -0.27827659008124578 0.41773886297590151 0 -0.27167044937907009 0.40639887674431768 0 -0.27827659008124578 0.41773886297590151 0 -0.28344486193404589 0.406467529179392 0 -0.26531974359781979 0.42266845732450947 0 -0.27827659008124578 0.41773886297590151 0 -0.28730892332712082 0.43352964706735397 0 -0.28730892332712082 0.43352964706735397 0 -0.2621958054067226 0.44121532402395131 0 -0.26531974359781979 0.42266845732450947 0 -0.28730892332712082 0.43352964706735397 0 -0.2621958054067226 0.44121532402395131 0 -0.26531974359781979 0.42266845732450947 0 -0.28730892332712082 0.43352964706735397 0 -0.28730892332712082 0.43352964706735397 0 -0.28900251095731189 0.41523341435800998 0 -0.29690328249472819 0.42166562048097977 0 -0.27827659008124578 0.41773886297590151 0 -0.28730892332712082 0.43352964706735397 0 -0.28900251095731189 0.41523341435800998 0 -0.28730892332712082 0.43352964706735397 0 -0.29690328249472819 0.42166562048097977 0 -0.30280267559022872 0.42878790312630549 0 -0.28730892332712082 0.43352964706735397 0 -0.30280267559022872 0.42878790312630549 0 -0.28344486193404589 0.406467529179392 0 -0.28900251095731189 0.41523341435800998 0 -0.29265693464307369 0.40687018525515523 0 -0.27827659008124578 0.41773886297590151 0 -0.28344486193404589 0.406467529179392 0 -0.28900251095731189 0.41523341435800998 0 -0.28900251095731189 0.41523341435800998 0 -0.29999680060243789 0.41212441724462617 0 -0.29690328249472819 0.42166562048097977 0 -0.28900251095731189 0.41523341435800998 0 -0.29265693464307369 0.40687018525515523 0 -0.29999680060243789 0.41212441724462617 0 -0.30170722775389502 0.40309123368119859 0 -0.29265693464307369 0.40687018525515523 0 -0.29999680060243789 0.41212441724462617 0 -0.29999680060243789 0.41212441724462617 0 -0.29690328249472819 0.42166562048097977 0 -0.30612423561070251 0.41830213242596997 0 -0.31858907832273581 0.42331905111406087 0 -0.30612423561070251 0.41830213242596997 0 -0.31283987334645708 0.40883442309159063 0 -0.30170722775389502 0.40309123368119859 0 -0.29999680060243789 0.41212441724462617 0 -0.31283987334645708 0.40883442309159063 0 -0.29999680060243789 0.41212441724462617 0 -0.30612423561070251 0.41830213242596997 0 -0.31858907832273581 0.42331905111406087 0 -0.30280267559022872 0.42878790312630549 0 -0.31858907832273581 0.42331905111406087 0 -0.3145452713527559 0.43470420544638377 0 -0.30280267559022872 0.42878790312630549 0 -0.28730892332712082 0.43352964706735397 0 -0.30280267559022872 0.42878790312630549 0 -0.3112724757996756 0.44536604540149882 0 -0.31858907832273581 0.42331905111406087 0 -0.30612423561070251 0.41830213242596997 0 -0.30280267559022872 0.42878790312630549 0 -0.3145452713527559 0.43470420544638377 0 -0.30280267559022872 0.42878790312630549 0 -0.3112724757996756 0.44536604540149882 0 -0.29690328249472819 0.42166562048097977 0 -0.30612423561070251 0.41830213242596997 0 -0.30280267559022872 0.42878790312630549 0 -0.3112724757996756 0.44536604540149882 0 -0.30569698124026867 0.46161996515285081 0 -0.29383096668494058 0.45100909724443078 0 -0.28730892332712082 0.43352964706735397 0 -0.3112724757996756 0.44536604540149882 0 -0.29383096668494058 0.45100909724443078 0 -0.28730892332712082 0.43352964706735397 0 -0.3112724757996756 0.44536604540149882 0 -0.30569698124026867 0.46161996515285081 0 -0.28639821779027291 0.46498297821908963 0 -0.29383096668494058 0.45100909724443078 0 -0.28639821779027291 0.46498297821908963 0 -0.29383096668494058 0.45100909724443078 0 -0.27847823526736509 0.44954685038136089 0 -0.28730892332712082 0.43352964706735397 0 -0.29383096668494058 0.45100909724443078 0 -0.27847823526736509 0.44954685038136089 0 -0.27847823526736509 0.44954685038136089 0 -0.26738213270952338 0.46065332287947591 0 -0.2621958054067226 0.44121532402395131 0 -0.28730892332712082 0.43352964706735397 0 -0.27847823526736509 0.44954685038136089 0 -0.2621958054067226 0.44121532402395131 0 -0.28639821779027291 0.46498297821908963 0 -0.27847823526736509 0.44954685038136089 0 -0.26738213270952338 0.46065332287947591 0 -0.28639821779027291 0.46498297821908963 0 -0.26738213270952338 0.46065332287947591 0 -0.2703236078379358 0.48047242862373302 0 -0.26738213270952338 0.46065332287947591 0 -0.25215212019293959 0.4569327384527293 0 -0.25474480976190428 0.47076961757599162 0 -0.26738213270952338 0.46065332287947591 0 -0.25215212019293959 0.4569327384527293 0 -0.2621958054067226 0.44121532402395131 0 -0.25215212019293959 0.4569327384527293 0 -0.2621958054067226 0.44121532402395131 0 -0.23708268748632519 0.44890100098055058 0 -0.25473651038295009 0.5 0 -0.2703236078379358 0.48047242862373302 0 -0.24529031990638939 0.4829812714305477 0 -0.26738213270952338 0.46065332287947591 0 -0.25474480976190428 0.47076961757599162 0 -0.2703236078379358 0.48047242862373302 0 -0.25474480976190428 0.47076961757599162 0 -0.2703236078379358 0.48047242862373302 0 -0.24529031990638939 0.4829812714305477 0 -0.25473651038295009 0.5 0 -0.2703236078379358 0.48047242862373302 0 -0.28420267518649561 0.5 0 -0.2703236078379358 0.48047242862373302 0 -0.28420267518649561 0.5 0 -0.29919480631509637 0.48226753533387179 0 -0.28639821779027291 0.46498297821908963 0 -0.2703236078379358 0.48047242862373302 0 -0.29919480631509637 0.48226753533387179 0 -0.30569698124026867 0.46161996515285081 0 -0.29919480631509637 0.48226753533387179 0 -0.31908425688571018 0.47239293585077519 0 -0.30569698124026867 0.46161996515285081 0 -0.28639821779027291 0.46498297821908963 0 -0.29919480631509637 0.48226753533387179 0 -0.29919480631509637 0.48226753533387179 0 -0.31366883999004108 0.5 0 -0.31908425688571018 0.47239293585077519 0 -0.28420267518649561 0.5 0 -0.29919480631509637 0.48226753533387179 0 -0.31366883999004108 0.5 0 -0.31366883999004108 0.5 0 -0.33025373365270688 0.48694210923541348 0 -0.31908425688571018 0.47239293585077519 0 -0.34313500479358661 0.5 0 -0.33025373365270688 0.48694210923541348 0 -0.35209570835903942 0.48257551281603572 0 -0.31366883999004108 0.5 0 -0.34313500479358661 0.5 0 -0.33025373365270688 0.48694210923541348 0 -0.33025373365270688 0.48694210923541348 0 -0.31908425688571018 0.47239293585077519 0 -0.33900235481842728 0.46757704292695401 0 -0.33025373365270688 0.48694210923541348 0 -0.33900235481842728 0.46757704292695401 0 -0.35209570835903942 0.48257551281603572 0 -0.31908425688571018 0.47239293585077519 0 -0.32297922846030341 0.45673320650755161 0 -0.33900235481842728 0.46757704292695401 0 -0.3112724757996756 0.44536604540149882 0 -0.30569698124026867 0.46161996515285081 0 -0.32297922846030341 0.45673320650755161 0 -0.30569698124026867 0.46161996515285081 0 -0.31908425688571018 0.47239293585077519 0 -0.32297922846030341 0.45673320650755161 0 -0.3112724757996756 0.44536604540149882 0 -0.32297922846030341 0.45673320650755161 0 -0.32580950616778209 0.44061671407247188 0 -0.3145452713527559 0.43470420544638377 0 -0.3112724757996756 0.44536604540149882 0 -0.32580950616778209 0.44061671407247188 0 -0.32297922846030341 0.45673320650755161 0 -0.32580950616778209 0.44061671407247188 0 -0.33700979584995672 0.45282653564075948 0 -0.32580950616778209 0.44061671407247188 0 -0.33700979584995672 0.45282653564075948 0 -0.34058357964679459 0.44275890177657229 0 -0.33700979584995672 0.45282653564075948 0 -0.34058357964679459 0.44275890177657229 0 -0.35039986061209638 0.45257438446163478 0 -0.32297922846030341 0.45673320650755161 0 -0.33700979584995672 0.45282653564075948 0 -0.33900235481842728 0.46757704292695401 0 -0.33700979584995672 0.45282653564075948 0 -0.33900235481842728 0.46757704292695401 0 -0.35039986061209638 0.45257438446163478 0 -0.33900235481842728 0.46757704292695401 0 -0.35613051595030221 0.46601345057848692 0 -0.35039986061209638 0.45257438446163478 0 -0.35613051595030221 0.46601345057848692 0 -0.35039986061209638 0.45257438446163478 0 -0.36318958447702371 0.4510549129553123 0 -0.34058357964679459 0.44275890177657229 0 -0.35039986061209638 0.45257438446163478 0 -0.35775774519919112 0.4390838723300069 0 -0.35039986061209638 0.45257438446163478 0 -0.35775774519919112 0.4390838723300069 0 -0.36318958447702371 0.4510549129553123 0 -0.38357449999343551 0.44947474228202539 0 -0.37700386651057838 0.43281994941734597 0 -0.35775774519919112 0.4390838723300069 0 -0.38357449999343551 0.44947474228202539 0 -0.35775774519919112 0.4390838723300069 0 -0.36318958447702371 0.4510549129553123 0 -0.38357449999343551 0.44947474228202539 0 -0.36318958447702371 0.4510549129553123 0 -0.36985250797186892 0.45774409643025621 0 -0.38357449999343551 0.44947474228202539 0 -0.35775774519919112 0.4390838723300069 0 -0.35613051595030221 0.46601345057848692 0 -0.36985250797186892 0.45774409643025621 0 -0.37145147134208079 0.47492047415535948 0 -0.38196615058521222 0.46232555044454787 0 -0.36985250797186892 0.45774409643025621 0 -0.37145147134208079 0.47492047415535948 0 -0.35613051595030221 0.46601345057848692 0 -0.36985250797186892 0.45774409643025621 0 -0.35613051595030221 0.46601345057848692 0 -0.36318958447702371 0.4510549129553123 0 -0.36985250797186892 0.45774409643025621 0 -0.35613051595030221 0.46601345057848692 0 -0.37145147134208079 0.47492047415535948 0 -0.35209570835903942 0.48257551281603572 0 -0.37145147134208079 0.47492047415535948 0 -0.37260116959713208 0.5 0 -0.35209570835903942 0.48257551281603572 0 -0.34313500479358661 0.5 0 -0.37260116959713208 0.5 0 -0.35209570835903942 0.48257551281603572 0 -0.33900235481842728 0.46757704292695401 0 -0.35613051595030221 0.46601345057848692 0 -0.35209570835903942 0.48257551281603572 0 -0.14603718706823279 0.47105467522594868 0 -0.1347977349745561 0.48578114025847202 0 -0.16015647918881901 0.48532544048093529 0 -0.14603718706823279 0.47105467522594868 0 -0.16015647918881901 0.48532544048093529 0 -0.14667283848446019 0.5 0 -0.1347977349745561 0.48578114025847202 0 -0.16015647918881901 0.48532544048093529 0 -0.14667283848446019 0.5 0 -0.1347977349745561 0.48578114025847202 0 -0.12084574077210521 0.5 0 -0.14603718706823279 0.47105467522594868 0 -0.1347977349745561 0.48578114025847202 0 -0.1248439306779754 0.47015693353475119 0 -0.1347977349745561 0.48578114025847202 0 -0.1248439306779754 0.47015693353475119 0 -0.1162957698088448 0.48530707093783348 0 -0.14603718706823279 0.47105467522594868 0 -0.1248439306779754 0.47015693353475119 0 -0.14603718706823279 0.47105467522594868 0 -0.1251174229778457 0.44991048187872179 0 -0.14341279482816369 0.44465865230968987 0 -0.14603718706823279 0.47105467522594868 0 -0.1251174229778457 0.44991048187872179 0 -0.14603718706823279 0.47105467522594868 0 -0.1251174229778457 0.44991048187872179 0 -0.1248439306779754 0.47015693353475119 0 -0.1251174229778457 0.44991048187872179 0 -0.14341279482816369 0.44465865230968987 0 -0.1300075274285809 0.43184728509160669 0 -0.1251174229778457 0.44991048187872179 0 -0.14341279482816369 0.44465865230968987 0 -0.14341279482816369 0.44465865230968987 0 -0.15510776921980199 0.45280753098500548 0 -0.16170816667848201 0.43940682274065851 0 -0.14341279482816369 0.44465865230968987 0 -0.16170816667848201 0.43940682274065851 0 -0.14555961165937001 0.42843882914572118 0 -0.14341279482816369 0.44465865230968987 0 -0.16170816667848201 0.43940682274065851 0 -0.14603718706823279 0.47105467522594868 0 -0.14341279482816369 0.44465865230968987 0 -0.15510776921980199 0.45280753098500548 0 -0.14603718706823279 0.47105467522594868 0 -0.15510776921980199 0.45280753098500548 0 -0.16097695288014099 0.46127420158038301 0 -0.14603718706823279 0.47105467522594868 0 -0.16097695288014099 0.46127420158038301 0 -0.1739209515220457 0.47223582537091802 0 -0.15510776921980199 0.45280753098500548 0 -0.16097695288014099 0.46127420158038301 0 -0.16340374464399049 0.44764330306834688 0 -0.16097695288014099 0.46127420158038301 0 -0.16340374464399049 0.44764330306834688 0 -0.17260445979049621 0.45808265733441722 0 -0.16097695288014099 0.46127420158038301 0 -0.17260445979049621 0.45808265733441722 0 -0.1739209515220457 0.47223582537091802 0 -0.16170816667848201 0.43940682274065851 0 -0.16340374464399049 0.44764330306834688 0 -0.1798023828047669 0.44758928765080769 0 -0.16170816667848201 0.43940682274065851 0 -0.16340374464399049 0.44764330306834688 0 -0.15510776921980199 0.45280753098500548 0 -0.16170816667848201 0.43940682274065851 0 -0.16340374464399049 0.44764330306834688 0 -0.16340374464399049 0.44764330306834688 0 -0.1798023828047669 0.44758928765080769 0 -0.17260445979049621 0.45808265733441722 0 -0.16170816667848201 0.43940682274065851 0 -0.1798023828047669 0.44758928765080769 0 -0.18341828266189511 0.43317476416313377 0 -0.1798023828047669 0.44758928765080769 0 -0.1969273690788062 0.43930435800478679 0 -0.18341828266189511 0.43317476416313377 0 -0.1798023828047669 0.44758928765080769 0 -0.18491826710153661 0.46167066900163062 0 -0.19769097969073379 0.45466413097232689 0 -0.17260445979049621 0.45808265733441722 0 -0.18491826710153661 0.46167066900163062 0 -0.1739209515220457 0.47223582537091802 0 -0.1798023828047669 0.44758928765080769 0 -0.17260445979049621 0.45808265733441722 0 -0.18491826710153661 0.46167066900163062 0 -0.18491826710153661 0.46167066900163062 0 -0.1739209515220457 0.47223582537091802 0 -0.20180471597585861 0.47341697551588707 0 -0.18676596519792621 0.48329569450870791 0 -0.1739209515220457 0.47223582537091802 0 -0.19004292544566631 0.47787499222500252 0 -0.18676596519792621 0.48329569450870791 0 -0.1739209515220457 0.47223582537091802 0 -0.17501732753956489 0.48590409805226298 0 -0.14603718706823279 0.47105467522594868 0 -0.1739209515220457 0.47223582537091802 0 -0.16015647918881901 0.48532544048093529 0 -0.14603718706823279 0.47105467522594868 0 -0.1739209515220457 0.47223582537091802 0 -0.1739209515220457 0.47223582537091802 0 -0.16015647918881901 0.48532544048093529 0 -0.17501732753956489 0.48590409805226298 0 -0.14667283848446019 0.5 0 -0.16015647918881901 0.48532544048093529 0 -0.17249993619681539 0.5 0 -0.16015647918881901 0.48532544048093529 0 -0.17427577130940539 0.49959620573592189 0 -0.17501732753956489 0.48590409805226298 0 -0.16015647918881901 0.48532544048093529 0 -0.17249993619681539 0.5 0 -0.17427577130940539 0.49959620573592189 0 -0.16015647918881901 0.48532544048093529 0 -0.17427577130940539 0.49959620573592189 0 -0.17427577130940539 0.49959620573592189 0 -0.19259830486890239 0.5 0 -0.19124916096692821 0.49573674978920562 0 -0.18676596519792621 0.48329569450870791 0 -0.17501732753956489 0.48590409805226298 0 -0.19124916096692821 0.49573674978920562 0 -0.17427577130940539 0.49959620573592189 0 -0.17501732753956489 0.48590409805226298 0 -0.19124916096692821 0.49573674978920562 0 -0.17427577130940539 0.49959620573592189 0 -0.19124916096692821 0.49573674978920562 0 -0.17249993619681539 0.5 0 -0.17427577130940539 0.49959620573592189 0 -0.19259830486890239 0.5 0 -0.19124916096692821 0.49573674978920562 0 -0.20822255062445089 0.49187729384248913 0 -0.19124916096692821 0.49573674978920562 0 -0.19768006908683461 0.48255147350449701 0 -0.20822255062445089 0.49187729384248913 0 -0.19124916096692821 0.49573674978920562 0 -0.20822255062445089 0.49187729384248913 0 -0.18676596519792621 0.48329569450870791 0 -0.19124916096692821 0.49573674978920562 0 -0.19768006908683461 0.48255147350449701 0 -0.19768006908683461 0.48255147350449701 0 -0.20180471597585861 0.47341697551588707 0 -0.20822255062445089 0.49187729384248913 0 -0.1739209515220457 0.47223582537091802 0 -0.19004292544566631 0.47787499222500252 0 -0.20180471597585861 0.47341697551588707 0 -0.1739209515220457 0.47223582537091802 0 -0.20180471597585861 0.47341697551588707 0 -0.18676596519792621 0.48329569450870791 0 -0.19004292544566631 0.47787499222500252 0 -0.19768006908683461 0.48255147350449701 0 -0.19004292544566631 0.47787499222500252 0 -0.19768006908683461 0.48255147350449701 0 -0.20180471597585861 0.47341697551588707 0 -0.20180471597585861 0.47341697551588707 0 -0.20822255062445089 0.49187729384248913 0 -0.21401746641346239 0.48093828771583619 0 -0.22479865775150629 0.48810817308843713 0 -0.21396494735806451 0.46859484102569732 0 -0.20180471597585861 0.47341697551588707 0 -0.20945897863345939 0.47701901219831438 0 -0.20822255062445089 0.49187729384248913 0 -0.20813316361372661 0.47041392600014131 0 -0.20945897863345939 0.47701901219831438 0 -0.21396494735806451 0.46859484102569732 0 -0.20180471597585861 0.47341697551588707 0 -0.20813316361372661 0.47041392600014131 0 -0.20660045617871231 0.46462883009902572 0 -0.20180471597585861 0.47341697551588707 0 -0.20813316361372661 0.47041392600014131 0 -0.20945897863345939 0.47701901219831438 0 -0.20945897863345939 0.47701901219831438 0 -0.21401746641346239 0.48093828771583619 0 -0.20822255062445089 0.49187729384248913 0 -0.20945897863345939 0.47701901219831438 0 -0.21401746641346239 0.48093828771583619 0 -0.21396494735806451 0.46859484102569732 0 -0.19259830486890239 0.5 0 -0.21052133012809041 0.49999999999999789 0 -0.20822255062445089 0.49187729384248913 0 -0.20822255062445089 0.49187729384248913 0 -0.22479865775150629 0.48810817308843713 0 -0.21401746641346239 0.48093828771583619 0 -0.20822255062445089 0.49187729384248913 0 -0.22479865775150629 0.48810817308843713 0 -0.20822255062445089 0.49187729384248913 0 -0.21720322102086259 0.49499636673272979 0 -0.22479865775150629 0.48810817308843713 0 -0.21052133012809041 0.49999999999999789 0 -0.20822255062445089 0.49187729384248913 0 -0.21052133012809041 0.49999999999999789 0 -0.20822255062445089 0.49187729384248913 0 -0.21720322102086259 0.49499636673272979 0 -0.21052133012809041 0.49999999999999789 0 -0.21720322102086259 0.49499636673272979 0 -0.22527034557940451 0.50000000000000244 0 -0.22527034557940451 0.50000000000000244 0 -0.22479865775150629 0.48810817308843713 0 -0.21720322102086259 0.49499636673272979 0 -0.22527034557940451 0.50000000000000244 0 -0.22479865775150629 0.48810817308843713 0 -0.23000946788217411 0.48692332477281308 0 -0.22479865775150629 0.48810817308843713 0 -0.23415103357760439 0.4821979521921107 0 -0.22527034557940451 0.50000000000000244 0 -0.23000946788217411 0.48692332477281308 0 -0.22479865775150629 0.48810817308843713 0 -0.23000946788217411 0.48692332477281308 0 -0.22479865775150629 0.48810817308843713 0 -0.22479865775150629 0.48810817308843713 0 -0.22364623321407931 0.45905414133856359 0 -0.21396494735806451 0.46859484102569732 0 -0.22479865775150629 0.48810817308843713 0 -0.23650568877034661 0.4707790394766449 0 -0.22364623321407931 0.45905414133856359 0 -0.22479865775150629 0.48810817308843713 0 -0.23415103357760439 0.4821979521921107 0 -0.23650568877034661 0.4707790394766449 0 -0.22479865775150629 0.48810817308843713 0 -0.22364623321407931 0.45905414133856359 0 -0.25474480976190428 0.47076961757599162 0 -0.23650568877034661 0.4707790394766449 0 -0.24529031990638939 0.4829812714305477 0 -0.23415103357760439 0.4821979521921107 0 -0.23650568877034661 0.4707790394766449 0 -0.24529031990638939 0.4829812714305477 0 -0.23000946788217411 0.48692332477281308 0 -0.23415103357760439 0.4821979521921107 0 -0.24529031990638939 0.4829812714305477 0 -0.25473651038295009 0.5 0 -0.23000946788217411 0.48692332477281308 0 -0.24529031990638939 0.4829812714305477 0 -0.25473651038295009 0.5 0 -0.22527034557940451 0.50000000000000244 0 -0.23000946788217411 0.48692332477281308 0 -0.2621958054067226 0.44121532402395131 0 -0.23708268748632519 0.44890100098055058 0 -0.2621958054067226 0.44121532402395131 0 -0.23708268748632519 0.44890100098055058 0 -0.2454072755437606 0.4312301048156057 0 -0.25215212019293959 0.4569327384527293 0 -0.23650568877034661 0.4707790394766449 0 -0.23708268748632519 0.44890100098055058 0 -0.25215212019293959 0.4569327384527293 0 -0.25474480976190428 0.47076961757599162 0 -0.23650568877034661 0.4707790394766449 0 -0.23650568877034661 0.4707790394766449 0 -0.23708268748632519 0.44890100098055058 0 -0.22364623321407931 0.45905414133856359 0 -0.22364623321407931 0.45905414133856359 0 -0.21069525132297801 0.44364979047304021 0 -0.222493808676651 0.43000010958868989 0 -0.22364623321407931 0.45905414133856359 0 -0.222493808676651 0.43000010958868989 0 -0.23708268748632519 0.44890100098055058 0 -0.22364623321407931 0.45905414133856359 0 -0.222493808676651 0.43000010958868989 0 -0.21069525132297801 0.44364979047304021 0 -0.21015623503610259 0.45691214073506509 0 -0.19769097969073379 0.45466413097232689 0 -0.22364623321407931 0.45905414133856359 0 -0.21396494735806451 0.46859484102569732 0 -0.21015623503610259 0.45691214073506509 0 -0.22364623321407931 0.45905414133856359 0 -0.21069525132297801 0.44364979047304021 0 -0.21015623503610259 0.45691214073506509 0 -0.21015623503610259 0.45691214073506509 0 -0.20660045617871231 0.46462883009902572 0 -0.19769097969073379 0.45466413097232689 0 -0.21396494735806451 0.46859484102569732 0 -0.21015623503610259 0.45691214073506509 0 -0.20660045617871231 0.46462883009902572 0 -0.20813316361372661 0.47041392600014131 0 -0.21396494735806451 0.46859484102569732 0 -0.20660045617871231 0.46462883009902572 0 -0.20180471597585861 0.47341697551588707 0 -0.20660045617871231 0.46462883009902572 0 -0.19769097969073379 0.45466413097232689 0 -0.18491826710153661 0.46167066900163062 0 -0.20180471597585861 0.47341697551588707 0 -0.19769097969073379 0.45466413097232689 0 -0.20180471597585861 0.47341697551588707 0 -0.19769097969073379 0.45466413097232689 0 -0.1798023828047669 0.44758928765080769 0 -0.19769097969073379 0.45466413097232689 0 -0.1969273690788062 0.43930435800478679 0 -0.21069525132297801 0.44364979047304021 0 -0.19769097969073379 0.45466413097232689 0 -0.1969273690788062 0.43930435800478679 0 -0.1969273690788062 0.43930435800478679 0 -0.20512839864530799 0.42694270558560887 0 -0.18341828266189511 0.43317476416313377 0 -0.19419151936535259 0.41213805344984689 0 -0.20512839864530799 0.42694270558560887 0 -0.18341828266189511 0.43317476416313377 0 -0.20512839864530799 0.42694270558560887 0 -0.18341828266189511 0.43317476416313377 0 -0.19419151936535259 0.41213805344984689 0 -0.20761309019003099 0.40909981334662121 0 -0.20512839864530799 0.42694270558560887 0 -0.19419151936535259 0.41213805344984689 0 -0.20761309019003099 0.40909981334662121 0 -0.1990914428281097 0.40000462035732909 0 -0.21414417041280309 0.4167471765899341 0 -0.20761309019003099 0.40909981334662121 0 -0.22134138413921969 0.40094607783881647 0 -0.21414417041280309 0.4167471765899341 0 -0.20761309019003099 0.40909981334662121 0 -0.20512839864530799 0.42694270558560887 0 -0.21069525132297801 0.44364979047304021 0 -0.1969273690788062 0.43930435800478679 0 -0.20512839864530799 0.42694270558560887 0 -0.21414417041280309 0.4167471765899341 0 -0.20512839864530799 0.42694270558560887 0 -0.222493808676651 0.43000010958868989 0 -0.21069525132297801 0.44364979047304021 0 -0.20512839864530799 0.42694270558560887 0 -0.222493808676651 0.43000010958868989 0 -0.222493808676651 0.43000010958868989 0 -0.2433305638685194 0.41180726758166358 0 -0.22134138413921969 0.40094607783881647 0 -0.2433305638685194 0.41180726758166358 0 -0.22134138413921969 0.40094607783881647 0 -0.21414417041280309 0.4167471765899341 0 -0.222493808676651 0.43000010958868989 0 -0.22134138413921969 0.40094607783881647 0 -0.222493808676651 0.43000010958868989 0 -0.22134138413921969 0.40094607783881647 0 -0.222493808676651 0.43000010958868989 0 -0.2433305638685194 0.41180726758166358 0 -0.2454072755437606 0.4312301048156057 0 -0.23708268748632519 0.44890100098055058 0 -0.222493808676651 0.43000010958868989 0 -0.2454072755437606 0.4312301048156057 0 -0.23587849819277201 0.3812845664901367 0 -0.24442080765291929 0.39167101754676842 0 -0.22863306215097109 0.39113241710644869 0 -0.23587849819277201 0.3812845664901367 0 -0.24609435682760589 0.37689211691858182 0 -0.24442080765291929 0.39167101754676842 0 -0.23587849819277201 0.3812845664901367 0 -0.24609435682760589 0.37689211691858182 0 -0.23631174808201691 0.36970490158577912 0 -0.23587849819277201 0.3812845664901367 0 -0.2310004315715711 0.37500775070015752 0 -0.23631174808201691 0.36970490158577912 0 -0.25579841757693111 0.38512922902896918 0 -0.24609435682760589 0.37689211691858182 0 -0.24442080765291929 0.39167101754676842 0 -0.2579667928209704 0.40233278043420312 0 -0.2433305638685194 0.41180726758166358 0 -0.24442080765291929 0.39167101754676842 0 -0.2433305638685194 0.41180726758166358 0 -0.24442080765291929 0.39167101754676842 0 -0.22863306215097109 0.39113241710644869 0 -0.2433305638685194 0.41180726758166358 0 -0.22863306215097109 0.39113241710644869 0 -0.22134138413921969 0.40094607783881647 0 -0.22134138413921969 0.40094607783881647 0 -0.22045699807677149 0.37864962379514022 0 -0.22863306215097109 0.39113241710644869 0 -0.2244050789082743 0.37966068389404739 0 -0.22045699807677149 0.37864962379514022 0 -0.22863306215097109 0.39113241710644869 0 -0.22134138413921969 0.40094607783881647 0 -0.22045699807677149 0.37864962379514022 0 -0.23587849819277201 0.3812845664901367 0 -0.22863306215097109 0.39113241710644869 0 -0.2244050789082743 0.37966068389404739 0 -0.23587849819277201 0.3812845664901367 0 -0.2310004315715711 0.37500775070015752 0 -0.2244050789082743 0.37966068389404739 0 -0.2310004315715711 0.37500775070015752 0 -0.2244050789082743 0.37966068389404739 0 -0.2272598939465349 0.37262333676813958 0 -0.2244050789082743 0.37966068389404739 0 -0.22045699807677149 0.37864962379514022 0 -0.2272598939465349 0.37262333676813958 0 -0.2244050789082743 0.37966068389404739 0 -0.22045699807677149 0.37864962379514022 0 -0.22045699807677149 0.37864962379514022 0 -0.21014234309151569 0.39541449770465981 0 -0.19712786949277841 0.38806415594015198 0 -0.22045699807677149 0.37864962379514022 0 -0.19712786949277841 0.38806415594015198 0 -0.1997820443454261 0.37335499542845452 0 -0.22045699807677149 0.37864962379514022 0 -0.1997820443454261 0.37335499542845452 0 -0.22134138413921969 0.40094607783881647 0 -0.22045699807677149 0.37864962379514022 0 -0.21014234309151569 0.39541449770465981 0 -0.20761309019003099 0.40909981334662121 0 -0.22134138413921969 0.40094607783881647 0 -0.21014234309151569 0.39541449770465981 0 -0.22134138413921969 0.40094607783881647 0 -0.21014234309151569 0.39541449770465981 0 -0.20761309019003099 0.40909981334662121 0 -0.21014234309151569 0.39541449770465981 0 -0.1990914428281097 0.40000462035732909 0 -0.21014234309151569 0.39541449770465981 0 -0.1990914428281097 0.40000462035732909 0 -0.19712786949277841 0.38806415594015198 0 -0.1990914428281097 0.40000462035732909 0 -0.19712786949277841 0.38806415594015198 0 -0.18530577387678829 0.39765345266744512 0 -0.19419151936535259 0.41213805344984689 0 -0.1990914428281097 0.40000462035732909 0 -0.18530577387678829 0.39765345266744512 0 -0.19712786949277841 0.38806415594015198 0 -0.18237628870676509 0.38281936939278788 0 -0.1997820443454261 0.37335499542845452 0 -0.19712786949277841 0.38806415594015198 0 -0.18237628870676509 0.38281936939278788 0 -0.18530577387678829 0.39765345266744512 0 -0.18237628870676509 0.38281936939278788 0 -0.16465660289972631 0.37579727384196171 0 -0.17910709061408209 0.36806036706176359 0 -0.18237628870676509 0.38281936939278788 0 -0.16465660289972631 0.37579727384196171 0 -0.1682783510117897 0.39398597141694808 0 -0.16465660289972631 0.37579727384196171 0 -0.1682783510117897 0.39398597141694808 0 -0.15020611518537119 0.38353418062216083 0 -0.16465660289972631 0.37579727384196171 0 -0.15020611518537119 0.38353418062216083 0 -0.1682783510117897 0.39398597141694808 0 -0.15595714093192481 0.41147050168140997 0 -0.15020611518537119 0.38353418062216083 0 -0.1682783510117897 0.39398597141694808 0 -0.17620976108036421 0.412837085341553 0 -0.15595714093192481 0.41147050168140997 0 -0.18237628870676509 0.38281936939278788 0 -0.1682783510117897 0.39398597141694808 0 -0.18530577387678829 0.39765345266744512 0 -0.1682783510117897 0.39398597141694808 0 -0.18530577387678829 0.39765345266744512 0 -0.17620976108036421 0.412837085341553 0 -0.19419151936535259 0.41213805344984689 0 -0.18530577387678829 0.39765345266744512 0 -0.17620976108036421 0.412837085341553 0 -0.19419151936535259 0.41213805344984689 0 -0.17620976108036421 0.412837085341553 0 -0.18341828266189511 0.43317476416313377 0 -0.16170816667848201 0.43940682274065851 0 -0.18341828266189511 0.43317476416313377 0 -0.17620976108036421 0.412837085341553 0 -0.18341828266189511 0.43317476416313377 0 -0.1693233378381665 0.42422229348168888 0 -0.16170816667848201 0.43940682274065851 0 -0.18341828266189511 0.43317476416313377 0 -0.1693233378381665 0.42422229348168888 0 -0.16170816667848201 0.43940682274065851 0 -0.15595714093192481 0.41147050168140997 0 -0.16170816667848201 0.43940682274065851 0 -0.1693233378381665 0.42422229348168888 0 -0.15595714093192481 0.41147050168140997 0 -0.17620976108036421 0.412837085341553 0 -0.1693233378381665 0.42422229348168888 0 -0.15595714093192481 0.41147050168140997 0 -0.15595714093192481 0.41147050168140997 0 -0.13671242842969841 0.41481088390524062 0 -0.1447962595306968 0.40019754605569968 0 -0.15595714093192481 0.41147050168140997 0 -0.14555961165937001 0.42843882914572118 0 -0.13671242842969841 0.41481088390524062 0 -0.16170816667848201 0.43940682274065851 0 -0.15595714093192481 0.41147050168140997 0 -0.14555961165937001 0.42843882914572118 0 -0.14341279482816369 0.44465865230968987 0 -0.14555961165937001 0.42843882914572118 0 -0.1300075274285809 0.43184728509160669 0 -0.1300075274285809 0.43184728509160669 0 -0.13671242842969841 0.41481088390524062 0 -0.1171512206080559 0.41918941498794088 0 -0.14555961165937001 0.42843882914572118 0 -0.1300075274285809 0.43184728509160669 0 -0.13671242842969841 0.41481088390524062 0 -0.13671242842969841 0.41481088390524062 0 -0.13630935357579299 0.39097461801398659 0 -0.11359212236027549 0.40313760542957072 0 -0.13671242842969841 0.41481088390524062 0 -0.13630935357579299 0.39097461801398659 0 -0.1447962595306968 0.40019754605569968 0 -0.13671242842969841 0.41481088390524062 0 -0.13630935357579299 0.39097461801398659 0 -0.13630935357579299 0.39097461801398659 0 -0.13602169828187499 0.37396381219365338 0 -0.13630935357579299 0.39097461801398659 0 -0.13602169828187499 0.37396381219365338 0 -0.1235107131369523 0.38376834649550079 0 -0.13602169828187499 0.37396381219365338 0 -0.1218812127072432 0.36962893694440041 0 -0.1235107131369523 0.38376834649550079 0 -0.13630935357579299 0.39097461801398659 0 -0.15020611518537119 0.38353418062216083 0 -0.13602169828187499 0.37396381219365338 0 -0.13630935357579299 0.39097461801398659 0 -0.15020611518537119 0.38353418062216083 0 -0.15595714093192481 0.41147050168140997 0 -0.15020611518537119 0.38353418062216083 0 -0.15595714093192481 0.41147050168140997 0 -0.15020611518537119 0.38353418062216083 0 -0.1447962595306968 0.40019754605569968 0 -0.13630935357579299 0.39097461801398659 0 -0.15020611518537119 0.38353418062216083 0 -0.1447962595306968 0.40019754605569968 0 -0.15036033532043569 0.34735634131424142 0 -0.14523494026894901 0.35938608172171121 0 -0.16217101544151499 0.36372322439173937 0 -0.15036033532043569 0.34735634131424142 0 -0.14523494026894901 0.35938608172171121 0 -0.14090013357628881 0.33832922041857449 0 -0.14523494026894901 0.35938608172171121 0 -0.14090013357628881 0.33832922041857449 0 -0.15020611518537119 0.38353418062216083 0 -0.14523494026894901 0.35938608172171121 0 -0.13602169828187499 0.37396381219365338 0 -0.15020611518537119 0.38353418062216083 0 -0.14523494026894901 0.35938608172171121 0 -0.16217101544151499 0.36372322439173937 0 -0.14523494026894901 0.35938608172171121 0 -0.16217101544151499 0.36372322439173937 0 -0.15020611518537119 0.38353418062216083 0 -0.14523494026894901 0.35938608172171121 0 -0.13602169828187499 0.37396381219365338 0 -0.12731417856514909 0.36251937461001837 0 -0.13573404298795769 0.35695300637332011 0 -0.14523494026894901 0.35938608172171121 0 -0.13602169828187499 0.37396381219365338 0 -0.13573404298795769 0.35695300637332011 0 -0.13602169828187499 0.37396381219365338 0 -0.13573404298795769 0.35695300637332011 0 -0.13602169828187499 0.37396381219365338 0 -0.12731417856514909 0.36251937461001837 0 -0.1218812127072432 0.36962893694440041 0 -0.13573404298795769 0.35695300637332011 0 -0.13022300430503819 0.34697680439308243 0 -0.13534683846353371 0.33405524951990478 0 -0.13573404298795769 0.35695300637332011 0 -0.13022300430503819 0.34697680439308243 0 -0.12059520332410931 0.35307611595970279 0 -0.13573404298795769 0.35695300637332011 0 -0.13534683846353371 0.33405524951990478 0 -0.12731417856514909 0.36251937461001837 0 -0.13573404298795769 0.35695300637332011 0 -0.12059520332410931 0.35307611595970279 0 -0.14523494026894901 0.35938608172171121 0 -0.13573404298795769 0.35695300637332011 0 -0.14090013357628881 0.33832922041857449 0 -0.13573404298795769 0.35695300637332011 0 -0.12059520332410931 0.35307611595970279 0 -0.14523494026894901 0.35938608172171121 0 -0.13573404298795769 0.35695300637332011 0 -0.13022300430503819 0.34697680439308243 0 -0.12900606968278641 0.33806786040455422 0 -0.13534683846353371 0.33405524951990478 0 -0.13534683846353371 0.33405524951990478 0 -0.13656532688362791 0.31727235911543822 0 -0.14090013357628881 0.33832922041857449 0 -0.13022300430503819 0.34697680439308243 0 -0.12900606968278641 0.33806786040455422 0 -0.1220831832376227 0.33899936957319349 0 -0.13573404298795769 0.35695300637332011 0 -0.13534683846353371 0.33405524951990478 0 -0.14090013357628881 0.33832922041857449 0 -0.12900606968278641 0.33806786040455422 0 -0.1283712527249512 0.3322400181320358 0 -0.1220831832376227 0.33899936957319349 0 -0.12900606968278641 0.33806786040455422 0 -0.1283712527249512 0.3322400181320358 0 -0.13534683846353371 0.33405524951990478 0 -0.1283712527249512 0.3322400181320358 0 -0.13534683846353371 0.33405524951990478 0 -0.13656532688362791 0.31727235911543822 0 -0.13656532688362791 0.31727235911543822 0 -0.14090013357628881 0.33832922041857449 0 -0.13656532688362791 0.31727235911543822 0 -0.12734652110589809 0.30819554397352439 0 -0.1236377507415423 0.32520040947199541 0 -0.1283712527249512 0.3322400181320358 0 -0.13656532688362791 0.31727235911543822 0 -0.1236377507415423 0.32520040947199541 0 -0.13656532688362791 0.31727235911543822 0 -0.15299211787041239 0.32486532431053422 0 -0.14090013357628881 0.33832922041857449 0 -0.13656532688362791 0.31727235911543822 0 -0.15299211787041239 0.32486532431053422 0 -0.14361112679995941 0.30484728040275161 0 -0.15299211787041239 0.32486532431053422 0 -0.16594888529195059 0.31187677851033818 0 -0.14361112679995941 0.30484728040275161 0 -0.15299211787041239 0.32486532431053422 0 -0.15147540849748881 0.33782700927056641 0 -0.16164904722281831 0.34075715103891552 0 -0.15036033532043569 0.34735634131424142 0 -0.14090013357628881 0.33832922041857449 0 -0.15147540849748881 0.33782700927056641 0 -0.15299211787041239 0.32486532431053422 0 -0.14090013357628881 0.33832922041857449 0 -0.15147540849748881 0.33782700927056641 0 -0.15036033532043569 0.34735634131424142 0 -0.15147540849748881 0.33782700927056641 0 -0.16164904722281831 0.34075715103891552 0 -0.15299211787041239 0.32486532431053422 0 -0.16164904722281831 0.34075715103891552 0 -0.17692802731694801 0.32958201272077958 0 -0.15299211787041239 0.32486532431053422 0 -0.17692802731694801 0.32958201272077958 0 -0.16594888529195059 0.31187677851033818 0 -0.1859951567860392 0.31481026229346909 0 -0.17692802731694801 0.32958201272077958 0 -0.16594888529195059 0.31187677851033818 0 -0.1859951567860392 0.31481026229346909 0 -0.17692802731694801 0.32958201272077958 0 -0.1911803753788355 0.32855209582425737 0 -0.16164904722281831 0.34075715103891552 0 -0.17692802731694801 0.32958201272077958 0 -0.18778343854158919 0.345089784846079 0 -0.17692802731694801 0.32958201272077958 0 -0.18778343854158919 0.345089784846079 0 -0.1911803753788355 0.32855209582425737 0 -0.16164904722281831 0.34075715103891552 0 -0.18778343854158919 0.345089784846079 0 -0.1739440078932101 0.3529863028017961 0 -0.18778343854158919 0.345089784846079 0 -0.1965124602372193 0.35874139285749218 0 -0.16164904722281831 0.34075715103891552 0 -0.1739440078932101 0.3529863028017961 0 -0.18778343854158919 0.345089784846079 0 -0.15036033532043569 0.34735634131424142 0 -0.16164904722281831 0.34075715103891552 0 -0.16217101544151499 0.36372322439173937 0 -0.16164904722281831 0.34075715103891552 0 -0.1739440078932101 0.3529863028017961 0 -0.16217101544151499 0.36372322439173937 0 -0.1739440078932101 0.3529863028017961 0 -0.16217101544151499 0.36372322439173937 0 -0.17910709061408209 0.36806036706176359 0 -0.16465660289972631 0.37579727384196171 0 -0.16217101544151499 0.36372322439173937 0 -0.17910709061408209 0.36806036706176359 0 -0.16465660289972631 0.37579727384196171 0 -0.15020611518537119 0.38353418062216083 0 -0.16217101544151499 0.36372322439173937 0 -0.16217101544151499 0.36372322439173937 0 -0.17910709061408209 0.36806036706176359 0 -0.18237628870676509 0.38281936939278788 0 -0.17910709061408209 0.36806036706176359 0 -0.1997820443454261 0.37335499542845452 0 -0.1739440078932101 0.3529863028017961 0 -0.17910709061408209 0.36806036706176359 0 -0.1965124602372193 0.35874139285749218 0 -0.16465660289972631 0.37579727384196171 0 -0.17910709061408209 0.36806036706176359 0 -0.17910709061408209 0.36806036706176359 0 -0.1997820443454261 0.37335499542845452 0 -0.17910709061408209 0.36806036706176359 0 -0.1997820443454261 0.37335499542845452 0 -0.1965124602372193 0.35874139285749218 0 -0.17910709061408209 0.36806036706176359 0 -0.1965124602372193 0.35874139285749218 0 -0.1997820443454261 0.37335499542845452 0 -0.1965124602372193 0.35874139285749218 0 -0.21000052961404941 0.36209772880503632 0 -0.18778343854158919 0.345089784846079 0 -0.21391782986036209 0.34942241865323159 0 -0.18778343854158919 0.345089784846079 0 -0.1965124602372193 0.35874139285749218 0 -0.21391782986036209 0.34942241865323159 0 -0.1965124602372193 0.35874139285749218 0 -0.21391782986036209 0.34942241865323159 0 -0.21000052961404941 0.36209772880503632 0 -0.1965124602372193 0.35874139285749218 0 -0.21391782986036209 0.34942241865323159 0 -0.21391782986036209 0.34942241865323159 0 -0.21000052961404941 0.36209772880503632 0 -0.21933331555046839 0.35032021329085289 0 -0.21391782986036209 0.34942241865323159 0 -0.21918582871802819 0.34660188990113783 0 -0.21260003965454469 0.33975046477921411 0 -0.21391782986036209 0.34942241865323159 0 -0.21918582871802819 0.34660188990113783 0 -0.21933331555046839 0.35032021329085289 0 -0.21391782986036209 0.34942241865323159 0 -0.21933331555046839 0.35032021329085289 0 -0.21391782986036209 0.34942241865323159 0 -0.21918582871802819 0.34660188990113783 0 -0.22045699807677149 0.37864962379514022 0 -0.1997820443454261 0.37335499542845452 0 -0.21000052961404941 0.36209772880503632 0 -0.22045699807677149 0.37864962379514022 0 -0.21000052961404941 0.36209772880503632 0 -0.21933331555046839 0.35032021329085289 0 -0.22045699807677149 0.37864962379514022 0 -0.2272598939465349 0.37262333676813958 0 -0.22412521309403979 0.36009372386557392 0 -0.22045699807677149 0.37864962379514022 0 -0.22412521309403979 0.36009372386557392 0 -0.21933331555046839 0.35032021329085289 0 -0.22045699807677149 0.37864962379514022 0 -0.21933331555046839 0.35032021329085289 0 -0.2310004315715711 0.37500775070015752 0 -0.2272598939465349 0.37262333676813958 0 -0.23631174808201691 0.36970490158577912 0 -0.2272598939465349 0.37262333676813958 0 -0.22412521309403979 0.36009372386557392 0 -0.23631174808201691 0.36970490158577912 0 -0.21933331555046839 0.35032021329085289 0 -0.2484955859805823 0.35515481751859251 0 -0.22412521309403979 0.36009372386557392 0 -0.21933331555046839 0.35032021329085289 0 -0.2484955859805823 0.35515481751859251 0 -0.21918582871802819 0.34660188990113783 0 -0.21933331555046839 0.35032021329085289 0 -0.243241615744651 0.34560974687225782 0 -0.21918582871802819 0.34660188990113783 0 -0.21933331555046839 0.35032021329085289 0 -0.21933331555046839 0.35032021329085289 0 -0.243241615744651 0.34560974687225782 0 -0.2484955859805823 0.35515481751859251 0 -0.25131668888737901 0.36573777118583611 0 -0.22412521309403979 0.36009372386557392 0 -0.23631174808201691 0.36970490158577912 0 -0.25131668888737901 0.36573777118583611 0 -0.22412521309403979 0.36009372386557392 0 -0.25131668888737901 0.36573777118583611 0 -0.22412521309403979 0.36009372386557392 0 -0.2484955859805823 0.35515481751859251 0 -0.25131668888737901 0.36573777118583611 0 -0.24609435682760589 0.37689211691858182 0 -0.23631174808201691 0.36970490158577912 0 -0.25647260987368248 0.30596935954371429 0 -0.24488732685138509 0.33284110209244933 0 -0.236307886985645 0.31155240457022038 0 -0.21918582871802819 0.34660188990113783 0 -0.243241615744651 0.34560974687225782 0 -0.24488732685138509 0.33284110209244933 0 -0.21918582871802819 0.34660188990113783 0 -0.21845475028967631 0.32817050877454229 0 -0.21918582871802819 0.34660188990113783 0 -0.24488732685138509 0.33284110209244933 0 -0.21918582871802819 0.34660188990113783 0 -0.24488732685138509 0.33284110209244933 0 -0.21845475028967631 0.32817050877454229 0 -0.24488732685138509 0.33284110209244933 0 -0.21845475028967631 0.32817050877454229 0 -0.236307886985645 0.31155240457022038 0 -0.21845475028967631 0.32817050877454229 0 -0.21772367186132441 0.30973912764794692 0 -0.236307886985645 0.31155240457022038 0 -0.21845475028967631 0.32817050877454229 0 -0.21772367186132441 0.30973912764794692 0 -0.21845475028967631 0.32817050877454229 0 -0.20272936213831161 0.33592363903034012 0 -0.20256563000478781 0.31954633776149349 0 -0.21845475028967631 0.32817050877454229 0 -0.20256563000478781 0.31954633776149349 0 -0.21772367186132441 0.30973912764794692 0 -0.21918582871802819 0.34660188990113783 0 -0.21845475028967631 0.32817050877454229 0 -0.21260003965454469 0.33975046477921411 0 -0.21845475028967631 0.32817050877454229 0 -0.21260003965454469 0.33975046477921411 0 -0.20272936213831161 0.33592363903034012 0 -0.21391782986036209 0.34942241865323159 0 -0.21260003965454469 0.33975046477921411 0 -0.20272936213831161 0.33592363903034012 0 -0.18778343854158919 0.345089784846079 0 -0.20272936213831161 0.33592363903034012 0 -0.1911803753788355 0.32855209582425737 0 -0.18778343854158919 0.345089784846079 0 -0.21391782986036209 0.34942241865323159 0 -0.20272936213831161 0.33592363903034012 0 -0.20272936213831161 0.33592363903034012 0 -0.1911803753788355 0.32855209582425737 0 -0.20256563000478781 0.31954633776149349 0 -0.1859951567860392 0.31481026229346909 0 -0.1911803753788355 0.32855209582425737 0 -0.20256563000478781 0.31954633776149349 0 -0.1859951567860392 0.31481026229346909 0 -0.20256563000478781 0.31954633776149349 0 -0.19875222422565131 0.30384802584509563 0 -0.1859951567860392 0.31481026229346909 0 -0.19875222422565131 0.30384802584509563 0 -0.18008138945524491 0.29926667536886581 0 -0.19875222422565131 0.30384802584509563 0 -0.19480201413570661 0.28660914291789968 0 -0.2113454831108047 0.29311660908089909 0 -0.19875222422565131 0.30384802584509563 0 -0.19480201413570661 0.28660914291789968 0 -0.18008138945524491 0.29926667536886581 0 -0.19480201413570661 0.28660914291789968 0 -0.2113454831108047 0.29311660908089909 0 -0.20698397739827601 0.2790130477901378 0 -0.2113454831108047 0.29311660908089909 0 -0.22079399583561521 0.28158080021329102 0 -0.20698397739827601 0.2790130477901378 0 -0.19875222422565131 0.30384802584509563 0 -0.2113454831108047 0.29311660908089909 0 -0.21772367186132441 0.30973912764794692 0 -0.20256563000478781 0.31954633776149349 0 -0.19875222422565131 0.30384802584509563 0 -0.21772367186132441 0.30973912764794692 0 -0.2113454831108047 0.29311660908089909 0 -0.21772367186132441 0.30973912764794692 0 -0.22851683804105061 0.29652194419003242 0 -0.21772367186132441 0.30973912764794692 0 -0.22851683804105061 0.29652194419003242 0 -0.236307886985645 0.31155240457022038 0 -0.22851683804105061 0.29652194419003242 0 -0.22079399583561521 0.28158080021329102 0 -0.23708398682049101 0.27510624957551733 0 -0.2113454831108047 0.29311660908089909 0 -0.22851683804105061 0.29652194419003242 0 -0.22079399583561521 0.28158080021329102 0 -0.22851683804105061 0.29652194419003242 0 -0.24532497764207051 0.29226635226491421 0 -0.23708398682049101 0.27510624957551733 0 -0.22851683804105061 0.29652194419003242 0 -0.24532497764207051 0.29226635226491421 0 -0.236307886985645 0.31155240457022038 0 -0.25647260987368248 0.30596935954371429 0 -0.24532497764207051 0.29226635226491421 0 -0.236307886985645 0.31155240457022038 0 -0.2445739512607959 0.2575038674604756 0 -0.22119344979997979 0.25982520082248228 0 -0.24225983049638999 0.24450153809524269 0 -0.25386702737968753 0.27392986973978373 0 -0.2445739512607959 0.2575038674604756 0 -0.23708398682049101 0.27510624957551733 0 -0.25386702737968753 0.27392986973978373 0 -0.24532497764207051 0.29226635226491421 0 -0.23708398682049101 0.27510624957551733 0 -0.22079399583561521 0.28158080021329102 0 -0.23708398682049101 0.27510624957551733 0 -0.22119344979997979 0.25982520082248228 0 -0.2445739512607959 0.2575038674604756 0 -0.23708398682049101 0.27510624957551733 0 -0.22119344979997979 0.25982520082248228 0 -0.22119344979997979 0.25982520082248228 0 -0.20648687714957689 0.25050186499486288 0 -0.1978257235791768 0.26739654674117852 0 -0.22119344979997979 0.25982520082248228 0 -0.20698397739827601 0.2790130477901378 0 -0.1978257235791768 0.26739654674117852 0 -0.22079399583561521 0.28158080021329102 0 -0.22119344979997979 0.25982520082248228 0 -0.20698397739827601 0.2790130477901378 0 -0.19480201413570661 0.28660914291789968 0 -0.1978257235791768 0.26739654674117852 0 -0.17560924597656061 0.27735910928292667 0 -0.19480201413570661 0.28660914291789968 0 -0.20698397739827601 0.2790130477901378 0 -0.1978257235791768 0.26739654674117852 0 -0.1978257235791768 0.26739654674117852 0 -0.19032044224941569 0.25159013000670127 0 -0.18124530543056661 0.26193872406647378 0 -0.20648687714957689 0.25050186499486288 0 -0.1978257235791768 0.26739654674117852 0 -0.19032044224941569 0.25159013000670127 0 -0.19032044224941569 0.25159013000670127 0 -0.18124530543056661 0.26193872406647378 0 -0.17408437879610761 0.25064564606173922 0 -0.18124530543056661 0.26193872406647378 0 -0.17408437879610761 0.25064564606173922 0 -0.16838673655157241 0.26270218823982361 0 -0.17408437879610761 0.25064564606173922 0 -0.16838673655157241 0.26270218823982361 0 -0.16145592628632241 0.25191482903985191 0 -0.16838673655157241 0.26270218823982361 0 -0.16145592628632241 0.25191482903985191 0 -0.15212989983233391 0.2688484752333139 0 -0.16838673655157241 0.26270218823982361 0 -0.17560924597656061 0.27735910928292667 0 -0.15212989983233391 0.2688484752333139 0 -0.1978257235791768 0.26739654674117852 0 -0.18124530543056661 0.26193872406647378 0 -0.17560924597656061 0.27735910928292667 0 -0.18124530543056661 0.26193872406647378 0 -0.16838673655157241 0.26270218823982361 0 -0.17560924597656061 0.27735910928292667 0 -0.19480201413570661 0.28660914291789968 0 -0.17560924597656061 0.27735910928292667 0 -0.18008138945524491 0.29926667536886581 0 -0.1859951567860392 0.31481026229346909 0 -0.18008138945524491 0.29926667536886581 0 -0.16594888529195059 0.31187677851033818 0 -0.18008138945524491 0.29926667536886581 0 -0.16594888529195059 0.31187677851033818 0 -0.15608549352310019 0.29788911596562923 0 -0.17560924597656061 0.27735910928292667 0 -0.15608549352310019 0.29788911596562923 0 -0.15212989983233391 0.2688484752333139 0 -0.17560924597656061 0.27735910928292667 0 -0.18008138945524491 0.29926667536886581 0 -0.15608549352310019 0.29788911596562923 0 -0.15608549352310019 0.29788911596562923 0 -0.15212989983233391 0.2688484752333139 0 -0.14358212630255829 0.28799360508428168 0 -0.15608549352310019 0.29788911596562923 0 -0.15212989983233391 0.2688484752333139 0 -0.16594888529195059 0.31187677851033818 0 -0.14361112679995941 0.30484728040275161 0 -0.15608549352310019 0.29788911596562923 0 -0.14358212630255829 0.28799360508428168 0 -0.14361112679995941 0.30484728040275161 0 -0.15608549352310019 0.29788911596562923 0 -0.13656532688362791 0.31727235911543822 0 -0.12734652110589809 0.30819554397352439 0 -0.13223052019096701 0.29621549781230172 0 -0.13656532688362791 0.31727235911543822 0 -0.13223052019096701 0.29621549781230172 0 -0.13656532688362791 0.31727235911543822 0 -0.14361112679995941 0.30484728040275161 0 -0.13223052019096701 0.29621549781230172 0 -0.12734652110589809 0.30819554397352439 0 -0.13223052019096701 0.29621549781230172 0 -0.12525301970957939 0.29382205871496542 0 -0.14358212630255829 0.28799360508428168 0 -0.13223052019096701 0.29621549781230172 0 -0.133853591166431 0.27216765600741238 0 -0.12525301970957939 0.29382205871496542 0 -0.133853591166431 0.27216765600741238 0 -0.12213227451246129 0.28276411285194908 0 -0.14358212630255829 0.28799360508428168 0 -0.14361112679995941 0.30484728040275161 0 -0.13223052019096701 0.29621549781230172 0 -0.13223052019096701 0.29621549781230172 0 -0.12525301970957939 0.29382205871496542 0 -0.133853591166431 0.27216765600741238 0 -0.12525301970957939 0.29382205871496542 0 -0.133853591166431 0.27216765600741238 0 -0.133853591166431 0.27216765600741238 0 -0.12007295344625531 0.27179859115449462 0 -0.12213227451246129 0.28276411285194908 0 -0.133853591166431 0.27216765600741238 0 -0.12941667412378149 0.2578702625739705 0 -0.12007295344625531 0.27179859115449462 0 -0.12941667412378149 0.2578702625739705 0 -0.1424541626232827 0.25051325329985952 0 -0.1228336577714793 0.24442535321989489 0 -0.133853591166431 0.27216765600741238 0 -0.12941667412378149 0.2578702625739705 0 -0.1424541626232827 0.25051325329985952 0 -0.133853591166431 0.27216765600741238 0 -0.1424541626232827 0.25051325329985952 0 -0.15212989983233391 0.2688484752333139 0 -0.1481743061415659 0.23980783450099891 0 -0.133853591166431 0.27216765600741238 0 -0.1424541626232827 0.25051325329985952 0 -0.15212989983233391 0.2688484752333139 0 -0.1424541626232827 0.25051325329985952 0 -0.15212989983233391 0.2688484752333139 0 -0.1481743061415659 0.23980783450099891 0 -0.16145592628632241 0.25191482903985191 0 -0.15212989983233391 0.2688484752333139 0 -0.1481743061415659 0.23980783450099891 0 -0.14358212630255829 0.28799360508428168 0 -0.133853591166431 0.27216765600741238 0 -0.15212989983233391 0.2688484752333139 0 -0.10685576941222211 0.27387362680616961 0 -0.09843916164218916 0.26542804956412802 0 -0.1130949171957656 0.25907730933210138 0 -0.10685576941222211 0.27387362680616961 0 -0.09576178841375485 0.27652500182202988 0 -0.1022943310543542 0.28342210416975572 0 -0.10685576941222211 0.27387362680616961 0 -0.1130848085280463 0.28534236373819921 0 -0.1022943310543542 0.28342210416975572 0 -0.09576178841375485 0.27652500182202988 0 -0.09843916164218916 0.26542804956412802 0 -0.087415340945400447 0.26944904351782928 0 -0.10685576941222211 0.27387362680616961 0 -0.09576178841375485 0.27652500182202988 0 -0.09843916164218916 0.26542804956412802 0 -0.09843916164218916 0.26542804956412802 0 -0.098434194655151852 0.25359205744849089 0 -0.090477240373770626 0.25864787520338561 0 -0.098434194655151852 0.25359205744849089 0 -0.1130949171957656 0.25907730933210138 0 -0.10321315291967641 0.2383374531399286 0 -0.09843916164218916 0.26542804956412802 0 -0.098434194655151852 0.25359205744849089 0 -0.1130949171957656 0.25907730933210138 0 -0.12941667412378149 0.2578702625739705 0 -0.1130949171957656 0.25907730933210138 0 -0.12007295344625531 0.27179859115449462 0 -0.12941667412378149 0.2578702625739705 0 -0.1130949171957656 0.25907730933210138 0 -0.1228336577714793 0.24442535321989489 0 -0.10685576941222211 0.27387362680616961 0 -0.1130949171957656 0.25907730933210138 0 -0.12007295344625531 0.27179859115449462 0 -0.10685576941222211 0.27387362680616961 0 -0.12007295344625531 0.27179859115449462 0 -0.1130848085280463 0.28534236373819921 0 -0.12007295344625531 0.27179859115449462 0 -0.12213227451246129 0.28276411285194908 0 -0.1130848085280463 0.28534236373819921 0 -0.12213227451246129 0.28276411285194908 0 -0.1183969997119942 0.29068989464467421 0 -0.1130848085280463 0.28534236373819921 0 -0.12525301970957939 0.29382205871496542 0 -0.12213227451246129 0.28276411285194908 0 -0.1183969997119942 0.29068989464467421 0 -0.12525301970957939 0.29382205871496542 0 -0.1183969997119942 0.29068989464467421 0 -0.113922502502031 0.29780897164988618 0 -0.1130848085280463 0.28534236373819921 0 -0.113922502502031 0.29780897164988618 0 -0.1028482601902566 0.29423502078314662 0 -0.1183969997119942 0.29068989464467421 0 -0.1130848085280463 0.28534236373819921 0 -0.113922502502031 0.29780897164988618 0 -0.12525301970957939 0.29382205871496542 0 -0.1166524482527279 0.31547646142251817 0 -0.12734652110589809 0.30819554397352439 0 -0.12525301970957939 0.29382205871496542 0 -0.1166524482527279 0.31547646142251817 0 -0.113922502502031 0.29780897164988618 0 -0.10477845802176 0.30553555443414843 0 -0.1166524482527279 0.31547646142251817 0 -0.12525301970957939 0.29382205871496542 0 -0.113922502502031 0.29780897164988618 0 -0.1166524482527279 0.31547646142251817 0 -0.10477845802176 0.30553555443414843 0 -0.093017058723837157 0.29955703977778381 0 -0.094419705115873026 0.31980145713958408 0 -0.113922502502031 0.29780897164988618 0 -0.10477845802176 0.30553555443414843 0 -0.1028482601902566 0.29423502078314662 0 -0.10477845802176 0.30553555443414843 0 -0.1028482601902566 0.29423502078314662 0 -0.093017058723837157 0.29955703977778381 0 -0.1130848085280463 0.28534236373819921 0 -0.1022943310543542 0.28342210416975572 0 -0.1028482601902566 0.29423502078314662 0 -0.1028482601902566 0.29423502078314662 0 -0.092996879484467887 0.28696357673963191 0 -0.093017058723837157 0.29955703977778381 0 -0.09576178841375485 0.27652500182202988 0 -0.1022943310543542 0.28342210416975572 0 -0.092996879484467887 0.28696357673963191 0 -0.1022943310543542 0.28342210416975572 0 -0.1028482601902566 0.29423502078314662 0 -0.092996879484467887 0.28696357673963191 0 -0.09576178841375485 0.27652500182202988 0 -0.092996879484467887 0.28696357673963191 0 -0.086954175476795459 0.28034926816103872 0 -0.092996879484467887 0.28696357673963191 0 -0.082271516094794522 0.28833457942109519 0 -0.086954175476795459 0.28034926816103872 0 -0.092996879484467887 0.28696357673963191 0 -0.082271516094794522 0.28833457942109519 0 -0.093017058723837157 0.29955703977778381 0 -0.082271516094794522 0.28833457942109519 0 -0.093017058723837157 0.29955703977778381 0 -0.080787533435870945 0.30247205014909651 0 -0.082271516094794522 0.28833457942109519 0 -0.07640120320253628 0.28030320834500599 0 -0.086954175476795459 0.28034926816103872 0 -0.093017058723837157 0.29955703977778381 0 -0.080787533435870945 0.30247205014909651 0 -0.094419705115873026 0.31980145713958408 0 -0.080787533435870945 0.30247205014909651 0 -0.094419705115873026 0.31980145713958408 0 -0.080787533435870945 0.30247205014909651 0 -0.065996409097154318 0.30714116087859589 0 -0.078819272017715658 0.32156201488265912 0 -0.080787533435870945 0.30247205014909651 0 -0.065996409097154318 0.30714116087859589 0 -0.064502982277076362 0.2916935718921137 0 -0.080787533435870945 0.30247205014909651 0 -0.064502982277076362 0.2916935718921137 0 -0.067155361755868892 0.28514264315860888 0 -0.082271516094794522 0.28833457942109519 0 -0.080787533435870945 0.30247205014909651 0 -0.067155361755868892 0.28514264315860888 0 -0.080787533435870945 0.30247205014909651 0 -0.067155361755868892 0.28514264315860888 0 -0.082271516094794522 0.28833457942109519 0 -0.067155361755868892 0.28514264315860888 0 -0.07640120320253628 0.28030320834500599 0 -0.067155361755868892 0.28514264315860888 0 -0.067351626309570922 0.27413017072055201 0 -0.054970106980293559 0.27172766263957582 0 -0.067155361755868892 0.28514264315860888 0 -0.067351626309570922 0.27413017072055201 0 -0.07640120320253628 0.28030320834500599 0 -0.075562652837463357 0.26768473922310332 0 -0.07640120320253628 0.28030320834500599 0 -0.079996925635204746 0.25627638070248449 0 -0.067351626309570922 0.27413017072055201 0 -0.075562652837463357 0.26768473922310332 0 -0.060499942260486522 0.25972324630507099 0 -0.067351626309570922 0.27413017072055201 0 -0.075562652837463357 0.26768473922310332 0 -0.07640120320253628 0.28030320834500599 0 -0.07640120320253628 0.28030320834500599 0 -0.087415340945400447 0.26944904351782928 0 -0.079996925635204746 0.25627638070248449 0 -0.07640120320253628 0.28030320834500599 0 -0.087415340945400447 0.26944904351782928 0 -0.086954175476795459 0.28034926816103872 0 -0.07640120320253628 0.28030320834500599 0 -0.079996925635204746 0.25627638070248449 0 -0.09576178841375485 0.27652500182202988 0 -0.087415340945400447 0.26944904351782928 0 -0.086954175476795459 0.28034926816103872 0 -0.090477240373770626 0.25864787520338561 0 -0.079996925635204746 0.25627638070248449 0 -0.090909141276767719 0.24568707827447131 0 -0.098434194655151852 0.25359205744849089 0 -0.090477240373770626 0.25864787520338561 0 -0.090909141276767719 0.24568707827447131 0 -0.087415340945400447 0.26944904351782928 0 -0.090477240373770626 0.25864787520338561 0 -0.079996925635204746 0.25627638070248449 0 -0.09843916164218916 0.26542804956412802 0 -0.087415340945400447 0.26944904351782928 0 -0.090477240373770626 0.25864787520338561 0 -0.070568440882543729 0.25853216062932127 0 -0.060499942260486522 0.25972324630507099 0 -0.067578588882820742 0.24363817085521811 0 -0.079996925635204746 0.25627638070248449 0 -0.070568440882543729 0.25853216062932127 0 -0.067578588882820742 0.24363817085521811 0 -0.075562652837463357 0.26768473922310332 0 -0.079996925635204746 0.25627638070248449 0 -0.070568440882543729 0.25853216062932127 0 -0.075562652837463357 0.26768473922310332 0 -0.060499942260486522 0.25972324630507099 0 -0.075562652837463357 0.26768473922310332 0 -0.070568440882543729 0.25853216062932127 0 -0.060499942260486522 0.25972324630507099 0 -0.060499942260486522 0.25972324630507099 0 -0.054970106980293559 0.27172766263957582 0 -0.045437231683510118 0.25176175338703799 0 -0.054970106980293559 0.27172766263957582 0 -0.041225130906935102 0.26603157950360518 0 -0.045437231683510118 0.25176175338703799 0 -0.060499942260486522 0.25972324630507099 0 -0.067578588882820742 0.24363817085521811 0 -0.056712690044116429 0.24828582856676401 0 -0.054970106980293559 0.27172766263957582 0 -0.045437231683510118 0.25176175338703799 0 -0.060499942260486522 0.25972324630507099 0 -0.045437231683510118 0.25176175338703799 0 -0.056712690044116429 0.24828582856676401 0 -0.060499942260486522 0.25972324630507099 0 -0.045437231683510118 0.25176175338703799 0 -0.067351626309570922 0.27413017072055201 0 -0.060499942260486522 0.25972324630507099 0 -0.054970106980293559 0.27172766263957582 0 -0.054970106980293559 0.27172766263957582 0 -0.042709299113798962 0.2787278375045078 0 -0.052531705532086581 0.2863004834807385 0 -0.054970106980293559 0.27172766263957582 0 -0.042709299113798962 0.2787278375045078 0 -0.041225130906935102 0.26603157950360518 0 -0.042709299113798962 0.2787278375045078 0 -0.041225130906935102 0.26603157950360518 0 -0.02720517512022691 0.2715452085561964 0 -0.042709299113798962 0.2787278375045078 0 -0.02720517512022691 0.2715452085561964 0 -0.02966402778283022 0.28703559877341739 0 -0.041225130906935102 0.26603157950360518 0 -0.045437231683510118 0.25176175338703799 0 -0.03067695542781158 0.25696212032607801 0 -0.041225130906935102 0.26603157950360518 0 -0.03067695542781158 0.25696212032607801 0 -0.02720517512022691 0.2715452085561964 0 -0.018566296301133871 0.25665269269268071 0 -0.02720517512022691 0.2715452085561964 0 -0.0098746745205664094 0.26763692024252328 0 -0.03067695542781158 0.25696212032607801 0 -0.018566296301133871 0.25665269269268071 0 -0.02095094312725191 0.23881936749086971 0 -0.03067695542781158 0.25696212032607801 0 -0.018566296301133871 0.25665269269268071 0 -0.02720517512022691 0.2715452085561964 0 -0.02720517512022691 0.2715452085561964 0 -0.0094230267692259947 0.28411503643911262 0 -0.02966402778283022 0.28703559877341739 0 -0.0098746745205664094 0.26763692024252328 0 -0.0094230267692259947 0.28411503643911262 0 0.0051221579672991388 0.26796090467185169 0 -0.02720517512022691 0.2715452085561964 0 -0.0098746745205664094 0.26763692024252328 0 -0.0094230267692259947 0.28411503643911262 0 -0.0098746745205664094 0.26763692024252328 0 -0.0026056055883075658 0.24895329681263881 0 0.0051221579672991388 0.26796090467185169 0 -0.018566296301133871 0.25665269269268071 0 -0.0098746745205664094 0.26763692024252328 0 -0.0026056055883075658 0.24895329681263881 0 -0.0067385281896786284 0.30985562035238162 0 -0.0094230267692259947 0.28411503643911262 0 -0.024265056619926971 0.30308189205309571 0 -0.0067385281896786284 0.30985562035238162 0 -0.0094230267692259947 0.28411503643911262 0 0.0067024598137256546 0.29774090349646121 0 -0.0094230267692259947 0.28411503643911262 0 -0.02966402778283022 0.28703559877341739 0 -0.024265056619926971 0.30308189205309571 0 -0.02966402778283022 0.28703559877341739 0 -0.024265056619926971 0.30308189205309571 0 -0.039915410299002869 0.30370898372156441 0 -0.024265056619926971 0.30308189205309571 0 -0.039915410299002869 0.30370898372156441 0 -0.037706933981013699 0.31720411607101229 0 -0.039915410299002869 0.30370898372156441 0 -0.044317033131562968 0.29069888200373029 0 -0.053275610187054928 0.29882344610912048 0 -0.039915410299002869 0.30370898372156441 0 -0.051605183232875662 0.31463127483633141 0 -0.037706933981013699 0.31720411607101229 0 -0.02966402778283022 0.28703559877341739 0 -0.039915410299002869 0.30370898372156441 0 -0.044317033131562968 0.29069888200373029 0 -0.042709299113798962 0.2787278375045078 0 -0.02966402778283022 0.28703559877341739 0 -0.044317033131562968 0.29069888200373029 0 -0.042709299113798962 0.2787278375045078 0 -0.044317033131562968 0.29069888200373029 0 -0.052531705532086581 0.2863004834807385 0 -0.064502982277076362 0.2916935718921137 0 -0.067155361755868892 0.28514264315860888 0 -0.054970106980293559 0.27172766263957582 0 -0.064502982277076362 0.2916935718921137 0 -0.054970106980293559 0.27172766263957582 0 -0.052531705532086581 0.2863004834807385 0 -0.064502982277076362 0.2916935718921137 0 -0.054970106980293559 0.27172766263957582 0 -0.044317033131562968 0.29069888200373029 0 -0.052531705532086581 0.2863004834807385 0 -0.053275610187054928 0.29882344610912048 0 -0.064502982277076362 0.2916935718921137 0 -0.052531705532086581 0.2863004834807385 0 -0.053275610187054928 0.29882344610912048 0 -0.039915410299002869 0.30370898372156441 0 -0.053275610187054928 0.29882344610912048 0 -0.051605183232875662 0.31463127483633141 0 -0.065996409097154318 0.30714116087859589 0 -0.053275610187054928 0.29882344610912048 0 -0.051605183232875662 0.31463127483633141 0 -0.065996409097154318 0.30714116087859589 0 -0.064502982277076362 0.2916935718921137 0 -0.053275610187054928 0.29882344610912048 0 -0.065996409097154318 0.30714116087859589 0 -0.051605183232875662 0.31463127483633141 0 -0.064361421460975704 0.32550585438990032 0 -0.051605183232875662 0.31463127483633141 0 -0.047727160276192199 0.33441541118813017 0 -0.064361421460975704 0.32550585438990032 0 -0.047727160276192199 0.33441541118813017 0 -0.075594346354513647 0.34155189119322832 0 -0.047727160276192199 0.33441541118813017 0 -0.052758994208010918 0.35190684723246712 0 -0.075594346354513647 0.34155189119322832 0 -0.047727160276192199 0.33441541118813017 0 -0.023681470620494201 0.32614688697101668 0 -0.035859085478719618 0.35466543313864951 0 -0.051605183232875662 0.31463127483633141 0 -0.047727160276192199 0.33441541118813017 0 -0.037706933981013699 0.31720411607101229 0 -0.047727160276192199 0.33441541118813017 0 -0.037706933981013699 0.31720411607101229 0 -0.023681470620494201 0.32614688697101668 0 -0.0067385281896786284 0.30985562035238162 0 -0.024265056619926971 0.30308189205309571 0 -0.023681470620494201 0.32614688697101668 0 -0.024265056619926971 0.30308189205309571 0 -0.037706933981013699 0.31720411607101229 0 -0.023681470620494201 0.32614688697101668 0 -0.023681470620494201 0.32614688697101668 0 -0.011358049858765529 0.34271416703683821 0 -0.035859085478719618 0.35466543313864951 0 -0.023681470620494201 0.32614688697101668 0 -0.011358049858765529 0.34271416703683821 0 0.0017414686764784179 0.32714726761812218 0 -0.0067385281896786284 0.30985562035238162 0 -0.023681470620494201 0.32614688697101668 0 0.0017414686764784179 0.32714726761812218 0 -0.011358049858765529 0.34271416703683821 0 -0.008767201673121932 0.36301178482875629 0 0.01526557131014524 0.34388807842494001 0 -0.011358049858765529 0.34271416703683821 0 -0.008767201673121932 0.36301178482875629 0 -0.035859085478719618 0.35466543313864951 0 -0.008767201673121932 0.36301178482875629 0 -0.035859085478719618 0.35466543313864951 0 -0.008767201673121932 0.36301178482875629 0 -0.027464114754432129 0.3742998184055179 0 -0.035859085478719618 0.35466543313864951 0 -0.035859085478719618 0.35466543313864951 0 -0.052758994208010918 0.35190684723246712 0 -0.044962318027526683 0.37540596993261061 0 -0.027464114754432129 0.3742998184055179 0 -0.035859085478719618 0.35466543313864951 0 -0.044962318027526683 0.37540596993261061 0 -0.047727160276192199 0.33441541118813017 0 -0.035859085478719618 0.35466543313864951 0 -0.052758994208010918 0.35190684723246712 0 -0.052758994208010918 0.35190684723246712 0 -0.063851915102754619 0.3641500949958576 0 -0.044962318027526683 0.37540596993261061 0 -0.063851915102754619 0.3641500949958576 0 -0.08507219433424526 0.35815365602393862 0 -0.075962308826619709 0.37541484789530782 0 -0.093393957333914077 0.37403637587154343 0 -0.08507219433424526 0.35815365602393862 0 -0.075962308826619709 0.37541484789530782 0 -0.08507219433424526 0.35815365602393862 0 -0.075594346354513647 0.34155189119322832 0 -0.10346153243283319 0.34868837119833362 0 -0.075594346354513647 0.34155189119322832 0 -0.10346153243283319 0.34868837119833362 0 -0.063851915102754619 0.3641500949958576 0 -0.08507219433424526 0.35815365602393862 0 -0.075594346354513647 0.34155189119322832 0 -0.052758994208010918 0.35190684723246712 0 -0.063851915102754619 0.3641500949958576 0 -0.075594346354513647 0.34155189119322832 0 -0.075594346354513647 0.34155189119322832 0 -0.064361421460975704 0.32550585438990032 0 -0.078819272017715658 0.32156201488265912 0 -0.047727160276192199 0.33441541118813017 0 -0.075594346354513647 0.34155189119322832 0 -0.064361421460975704 0.32550585438990032 0 -0.065996409097154318 0.30714116087859589 0 -0.064361421460975704 0.32550585438990032 0 -0.078819272017715658 0.32156201488265912 0 -0.080787533435870945 0.30247205014909651 0 -0.078819272017715658 0.32156201488265912 0 -0.094419705115873026 0.31980145713958408 0 -0.078819272017715658 0.32156201488265912 0 -0.091756216641906418 0.33289967554554978 0 -0.094419705115873026 0.31980145713958408 0 -0.075594346354513647 0.34155189119322832 0 -0.078819272017715658 0.32156201488265912 0 -0.091756216641906418 0.33289967554554978 0 -0.075594346354513647 0.34155189119322832 0 -0.091756216641906418 0.33289967554554978 0 -0.10346153243283319 0.34868837119833362 0 -0.091756216641906418 0.33289967554554978 0 -0.1080518767958758 0.33713086413007098 0 -0.094419705115873026 0.31980145713958408 0 -0.1080518767958758 0.33713086413007098 0 -0.094419705115873026 0.31980145713958408 0 -0.091756216641906418 0.33289967554554978 0 -0.1080518767958758 0.33713086413007098 0 -0.10346153243283319 0.34868837119833362 0 -0.1080518767958758 0.33713086413007098 0 -0.10346153243283319 0.34868837119833362 0 -0.10477845802176 0.30553555443414843 0 -0.094419705115873026 0.31980145713958408 0 -0.1166524482527279 0.31547646142251817 0 -0.1080518767958758 0.33713086413007098 0 -0.094419705115873026 0.31980145713958408 0 -0.1166524482527279 0.31547646142251817 0 -0.12734652110589809 0.30819554397352439 0 -0.1166524482527279 0.31547646142251817 0 -0.1236377507415423 0.32520040947199541 0 -0.1080518767958758 0.33713086413007098 0 -0.1166524482527279 0.31547646142251817 0 -0.1236377507415423 0.32520040947199541 0 -0.1080518767958758 0.33713086413007098 0 -0.1166524482527279 0.31547646142251817 0 -0.1080518767958758 0.33713086413007098 0 -0.1220831832376227 0.33899936957319349 0 -0.12059520332410931 0.35307611595970279 0 -0.1080518767958758 0.33713086413007098 0 -0.1236377507415423 0.32520040947199541 0 -0.1220831832376227 0.33899936957319349 0 -0.1283712527249512 0.3322400181320358 0 -0.1236377507415423 0.32520040947199541 0 -0.1220831832376227 0.33899936957319349 0 -0.1080518767958758 0.33713086413007098 0 -0.12059520332410931 0.35307611595970279 0 -0.10346153243283319 0.34868837119833362 0 -0.12059520332410931 0.35307611595970279 0 -0.10346153243283319 0.34868837119833362 0 -0.13022300430503819 0.34697680439308243 0 -0.1220831832376227 0.33899936957319349 0 -0.12059520332410931 0.35307611595970279 0 -0.1151902231755436 0.35606486559718142 0 -0.12059520332410931 0.35307611595970279 0 -0.10346153243283319 0.34868837119833362 0 -0.1080518767958758 0.33713086413007098 0 -0.12059520332410931 0.35307611595970279 0 -0.12731417856514909 0.36251937461001837 0 -0.12059520332410931 0.35307611595970279 0 -0.11904605412961849 0.36122250895756508 0 -0.1151902231755436 0.35606486559718142 0 -0.12059520332410931 0.35307611595970279 0 -0.11904605412961849 0.36122250895756508 0 -0.12731417856514909 0.36251937461001837 0 -0.11904605412961849 0.36122250895756508 0 -0.1218812127072432 0.36962893694440041 0 -0.1218812127072432 0.36962893694440041 0 -0.10937763365937191 0.36371498291476623 0 -0.10974917875957541 0.38113675989589302 0 -0.1151902231755436 0.35606486559718142 0 -0.11904605412961849 0.36122250895756508 0 -0.10937763365937191 0.36371498291476623 0 -0.11904605412961849 0.36122250895756508 0 -0.1218812127072432 0.36962893694440041 0 -0.10937763365937191 0.36371498291476623 0 -0.093393957333914077 0.37403637587154343 0 -0.10346153243283319 0.34868837119833362 0 -0.093393957333914077 0.37403637587154343 0 -0.08507219433424526 0.35815365602393862 0 -0.10346153243283319 0.34868837119833362 0 -0.093393957333914077 0.37403637587154343 0 -0.10937763365937191 0.36371498291476623 0 -0.10346153243283319 0.34868837119833362 0 -0.093393957333914077 0.37403637587154343 0 -0.10937763365937191 0.36371498291476623 0 -0.10974917875957541 0.38113675989589302 0 -0.1151902231755436 0.35606486559718142 0 -0.10937763365937191 0.36371498291476623 0 -0.10346153243283319 0.34868837119833362 0 -0.098392823681189887 0.40179666865379549 0 -0.10974917875957541 0.38113675989589302 0 -0.11359212236027549 0.40313760542957072 0 -0.093393957333914077 0.37403637587154343 0 -0.098392823681189887 0.40179666865379549 0 -0.10974917875957541 0.38113675989589302 0 -0.10974917875957541 0.38113675989589302 0 -0.1235107131369523 0.38376834649550079 0 -0.11359212236027549 0.40313760542957072 0 -0.1218812127072432 0.36962893694440041 0 -0.10974917875957541 0.38113675989589302 0 -0.1235107131369523 0.38376834649550079 0 -0.13630935357579299 0.39097461801398659 0 -0.1235107131369523 0.38376834649550079 0 -0.11359212236027549 0.40313760542957072 0 -0.13630935357579299 0.39097461801398659 0 -0.11359212236027549 0.40313760542957072 0 -0.13671242842969841 0.41481088390524062 0 -0.11359212236027549 0.40313760542957072 0 -0.1171512206080559 0.41918941498794088 0 -0.1300075274285809 0.43184728509160669 0 -0.1171512206080559 0.41918941498794088 0 -0.1079961570613059 0.43260553736193058 0 -0.1079961570613059 0.43260553736193058 0 -0.090874891144755415 0.41530059284514997 0 -0.08638135507185965 0.43349446705082639 0 -0.1079961570613059 0.43260553736193058 0 -0.090874891144755415 0.41530059284514997 0 -0.1171512206080559 0.41918941498794088 0 -0.1079961570613059 0.43260553736193058 0 -0.090874891144755415 0.41530059284514997 0 -0.11359212236027549 0.40313760542957072 0 -0.090874891144755415 0.41530059284514997 0 -0.11359212236027549 0.40313760542957072 0 -0.1171512206080559 0.41918941498794088 0 -0.090874891144755415 0.41530059284514997 0 -0.098392823681189887 0.40179666865379549 0 -0.11359212236027549 0.40313760542957072 0 -0.090874891144755415 0.41530059284514997 0 -0.090874891144755415 0.41530059284514997 0 -0.073258807136067833 0.4247323852179597 0 -0.090874891144755415 0.41530059284514997 0 -0.073258807136067833 0.4247323852179597 0 -0.083326382234994084 0.39938438054475289 0 -0.073258807136067833 0.4247323852179597 0 -0.083326382234994084 0.39938438054475289 0 -0.090874891144755415 0.41530059284514997 0 -0.08638135507185965 0.43349446705082639 0 -0.073258807136067833 0.4247323852179597 0 -0.073258807136067833 0.4247323852179597 0 -0.062718779043509115 0.41632060756762229 0 -0.051681815925328063 0.43628487900879109 0 -0.073258807136067833 0.4247323852179597 0 -0.063294020635729781 0.44982159014530948 0 -0.073258807136067833 0.4247323852179597 0 -0.051681815925328063 0.43628487900879109 0 -0.063294020635729781 0.44982159014530948 0 -0.08638135507185965 0.43349446705082639 0 -0.073258807136067833 0.4247323852179597 0 -0.063294020635729781 0.44982159014530948 0 -0.062718779043509115 0.41632060756762229 0 -0.083326382234994084 0.39938438054475289 0 -0.05875207829104219 0.40396747849072601 0 -0.073258807136067833 0.4247323852179597 0 -0.062718779043509115 0.41632060756762229 0 -0.083326382234994084 0.39938438054475289 0 -0.083326382234994084 0.39938438054475289 0 -0.065591133040425798 0.38949324509150912 0 -0.05875207829104219 0.40396747849072601 0 -0.098392823681189887 0.40179666865379549 0 -0.090874891144755415 0.41530059284514997 0 -0.083326382234994084 0.39938438054475289 0 -0.093393957333914077 0.37403637587154343 0 -0.098392823681189887 0.40179666865379549 0 -0.083326382234994084 0.39938438054475289 0 -0.093393957333914077 0.37403637587154343 0 -0.083326382234994084 0.39938438054475289 0 -0.093393957333914077 0.37403637587154343 0 -0.083326382234994084 0.39938438054475289 0 -0.075962308826619709 0.37541484789530782 0 -0.083326382234994084 0.39938438054475289 0 -0.075962308826619709 0.37541484789530782 0 -0.065591133040425798 0.38949324509150912 0 -0.063851915102754619 0.3641500949958576 0 -0.075962308826619709 0.37541484789530782 0 -0.065591133040425798 0.38949324509150912 0 -0.065591133040425798 0.38949324509150912 0 -0.044962318027526683 0.37540596993261061 0 -0.046401552081485692 0.3898202281408632 0 -0.063851915102754619 0.3641500949958576 0 -0.065591133040425798 0.38949324509150912 0 -0.044962318027526683 0.37540596993261061 0 -0.065591133040425798 0.38949324509150912 0 -0.042323669271406503 0.40483571642995392 0 -0.065591133040425798 0.38949324509150912 0 -0.05875207829104219 0.40396747849072601 0 -0.042323669271406503 0.40483571642995392 0 -0.065591133040425798 0.38949324509150912 0 -0.042323669271406503 0.40483571642995392 0 -0.046401552081485692 0.3898202281408632 0 -0.042323669271406503 0.40483571642995392 0 -0.032729087986583798 0.38954598110937938 0 -0.02209175699220553 0.40223312386233218 0 -0.042323669271406503 0.40483571642995392 0 -0.046401552081485692 0.3898202281408632 0 -0.032729087986583798 0.38954598110937938 0 -0.027464114754432129 0.3742998184055179 0 -0.044962318027526683 0.37540596993261061 0 -0.032729087986583798 0.38954598110937938 0 -0.044962318027526683 0.37540596993261061 0 -0.046401552081485692 0.3898202281408632 0 -0.032729087986583798 0.38954598110937938 0 -0.027464114754432129 0.3742998184055179 0 -0.032729087986583798 0.38954598110937938 0 -0.01500288060620858 0.38886992301819362 0 -0.008767201673121932 0.36301178482875629 0 -0.027464114754432129 0.3742998184055179 0 -0.01500288060620858 0.38886992301819362 0 -0.032729087986583798 0.38954598110937938 0 -0.02209175699220553 0.40223312386233218 0 -0.01500288060620858 0.38886992301819362 0 -0.02209175699220553 0.40223312386233218 0 -0.00015915912015578059 0.40515224490459789 0 -0.01500288060620858 0.38886992301819362 0 -0.00015915912015578059 0.40515224490459789 0 -0.01500288060620858 0.38886992301819362 0 0.0035961909011746991 0.38454086690399292 0 -0.008767201673121932 0.36301178482875629 0 -0.01500288060620858 0.38886992301819362 0 0.0035961909011746991 0.38454086690399292 0 -0.01905620550238709 0.42017818776839871 0 0.0042112582666323298 0.43552065910684351 0 -0.01251122839825103 0.43606444447367332 0 -0.01905620550238709 0.42017818776839871 0 0.0042112582666323298 0.43552065910684351 0 -0.02209175699220553 0.40223312386233218 0 -0.00015915912015578059 0.40515224490459789 0 -0.01905620550238709 0.42017818776839871 0 -0.00015915912015578059 0.40515224490459789 0 -0.01905620550238709 0.42017818776839871 0 0.0042112582666323298 0.43552065910684351 0 -0.042323669271406503 0.40483571642995392 0 -0.01905620550238709 0.42017818776839871 0 -0.042323669271406503 0.40483571642995392 0 -0.02209175699220553 0.40223312386233218 0 -0.01905620550238709 0.42017818776839871 0 -0.01251122839825103 0.43606444447367332 0 -0.01905620550238709 0.42017818776839871 0 -0.028680490893239551 0.43787214220400711 0 -0.01905620550238709 0.42017818776839871 0 -0.034723378487413678 0.4198101160549757 0 -0.028680490893239551 0.43787214220400711 0 -0.034723378487413678 0.4198101160549757 0 -0.048833148282621572 0.41635441781754312 0 -0.028680490893239551 0.43787214220400711 0 -0.048833148282621572 0.41635441781754312 0 -0.028680490893239551 0.43787214220400711 0 -0.048833148282621572 0.41635441781754312 0 -0.051681815925328063 0.43628487900879109 0 -0.028680490893239551 0.43787214220400711 0 -0.042323669271406503 0.40483571642995392 0 -0.01905620550238709 0.42017818776839871 0 -0.034723378487413678 0.4198101160549757 0 -0.042323669271406503 0.40483571642995392 0 -0.034723378487413678 0.4198101160549757 0 -0.048833148282621572 0.41635441781754312 0 -0.05875207829104219 0.40396747849072601 0 -0.042323669271406503 0.40483571642995392 0 -0.048833148282621572 0.41635441781754312 0 -0.062718779043509115 0.41632060756762229 0 -0.05875207829104219 0.40396747849072601 0 -0.048833148282621572 0.41635441781754312 0 -0.073258807136067833 0.4247323852179597 0 -0.051681815925328063 0.43628487900879109 0 -0.062718779043509115 0.41632060756762229 0 -0.048833148282621572 0.41635441781754312 0 -0.051681815925328063 0.43628487900879109 0 -0.051681815925328063 0.43628487900879109 0 -0.046317674541136153 0.45539952723660132 0 -0.063294020635729781 0.44982159014530948 0 -0.053329234135385428 0.47491079507265688 0 -0.063294020635729781 0.44982159014530948 0 -0.046317674541136153 0.45539952723660132 0 -0.053329234135385428 0.47491079507265688 0 -0.063294020635729781 0.44982159014530948 0 -0.046317674541136153 0.45539952723660132 0 -0.030104824714592249 0.44783737279963048 0 -0.031050732322714329 0.46709715658757389 0 -0.046317674541136153 0.45539952723660132 0 -0.031050732322714329 0.46709715658757389 0 -0.053329234135385428 0.47491079507265688 0 -0.051681815925328063 0.43628487900879109 0 -0.030104824714592249 0.44783737279963048 0 -0.051681815925328063 0.43628487900879109 0 -0.028680490893239551 0.43787214220400711 0 -0.030104824714592249 0.44783737279963048 0 -0.051681815925328063 0.43628487900879109 0 -0.046317674541136153 0.45539952723660132 0 -0.030104824714592249 0.44783737279963048 0 -0.028680490893239551 0.43787214220400711 0 -0.030104824714592249 0.44783737279963048 0 -0.0085278335038570172 0.45938986659047037 0 -0.01251122839825103 0.43606444447367332 0 -0.028680490893239551 0.43787214220400711 0 -0.0085278335038570172 0.45938986659047037 0 -0.028680490893239551 0.43787214220400711 0 -0.0085278335038570172 0.45938986659047037 0 -0.030104824714592249 0.44783737279963048 0 -0.031050732322714329 0.46709715658757389 0 -0.0085278335038570172 0.45938986659047037 0 -0.031050732322714329 0.46709715658757389 0 -0.0085278335038570172 0.45938986659047037 0 -0.01577609056647071 0.4790481694026768 0 -0.030104824714592249 0.44783737279963048 0 -0.0085278335038570172 0.45938986659047037 0 -0.0085278335038570172 0.45938986659047037 0 0.0043144432838517072 0.47310203204207069 0 -0.01251122839825103 0.43606444447367332 0 -0.0085278335038570172 0.45938986659047037 0 0.0042112582666323298 0.43552065910684351 0 -0.0015143242079153931 0.48653361892752911 0 -0.015693057300666721 0.5 0 0.011978333033706099 0.5 0 -0.0015143242079153931 0.48653361892752911 0 -0.01577609056647071 0.4790481694026768 0 -0.015693057300666721 0.5 0 -0.0085278335038570172 0.45938986659047037 0 -0.01577609056647071 0.4790481694026768 0 0.0043144432838517072 0.47310203204207069 0 -0.0015143242079153931 0.48653361892752911 0 -0.01577609056647071 0.4790481694026768 0 0.0043144432838517072 0.47310203204207069 0 -0.031050732322714329 0.46709715658757389 0 -0.01577609056647071 0.4790481694026768 0 -0.031958719272852341 0.48472150541567488 0 -0.015693057300666721 0.5 0 -0.043364447635039681 0.50000000000000377 0 -0.031958719272852341 0.48472150541567488 0 -0.01577609056647071 0.4790481694026768 0 -0.015693057300666721 0.5 0 -0.031958719272852341 0.48472150541567488 0 -0.043364447635039681 0.50000000000000377 0 -0.031958719272852341 0.48472150541567488 0 -0.053329234135385428 0.47491079507265688 0 -0.031050732322714329 0.46709715658757389 0 -0.031958719272852341 0.48472150541567488 0 -0.053329234135385428 0.47491079507265688 0 -0.043364447635039681 0.50000000000000377 0 -0.053329234135385428 0.47491079507265688 0 -0.069191545347394801 0.5 0 -0.043364447635039681 0.50000000000000377 0 -0.053329234135385428 0.47491079507265688 0 -0.053329234135385428 0.47491079507265688 0 -0.069191545347394801 0.5 0 -0.071497844271206298 0.4809829050742912 0 -0.069191545347394801 0.5 0 -0.071497844271206298 0.4809829050742912 0 -0.095018643059750052 0.5 0 -0.087110083064977042 0.46988214320919081 0 -0.071497844271206298 0.4809829050742912 0 -0.095018643059750052 0.5 0 -0.087110083064977042 0.46988214320919081 0 -0.071497844271206298 0.4809829050742912 0 -0.063294020635729781 0.44982159014530948 0 -0.053329234135385428 0.47491079507265688 0 -0.071497844271206298 0.4809829050742912 0 -0.063294020635729781 0.44982159014530948 0 -0.08638135507185965 0.43349446705082639 0 -0.063294020635729781 0.44982159014530948 0 -0.092601027459602941 0.4486011764558267 0 -0.087110083064977042 0.46988214320919081 0 -0.092601027459602941 0.4486011764558267 0 -0.099781605002355944 0.46058561438385992 0 -0.087110083064977042 0.46988214320919081 0 -0.063294020635729781 0.44982159014530948 0 -0.092601027459602941 0.4486011764558267 0 -0.092601027459602941 0.4486011764558267 0 -0.099781605002355944 0.46058561438385992 0 -0.1134425099250068 0.45326185697447779 0 -0.087110083064977042 0.46988214320919081 0 -0.099781605002355944 0.46058561438385992 0 -0.105972799559837 0.47059728089594433 0 -0.099781605002355944 0.46058561438385992 0 -0.1134425099250068 0.45326185697447779 0 -0.105972799559837 0.47059728089594433 0 -0.1079961570613059 0.43260553736193058 0 -0.08638135507185965 0.43349446705082639 0 -0.092601027459602941 0.4486011764558267 0 -0.1079961570613059 0.43260553736193058 0 -0.092601027459602941 0.4486011764558267 0 -0.1134425099250068 0.45326185697447779 0 -0.1251174229778457 0.44991048187872179 0 -0.1079961570613059 0.43260553736193058 0 -0.1134425099250068 0.45326185697447779 0 -0.1251174229778457 0.44991048187872179 0 -0.1079961570613059 0.43260553736193058 0 -0.1251174229778457 0.44991048187872179 0 -0.1300075274285809 0.43184728509160669 0 -0.1079961570613059 0.43260553736193058 0 -0.1251174229778457 0.44991048187872179 0 -0.1134425099250068 0.45326185697447779 0 -0.1251174229778457 0.44991048187872179 0 -0.1134425099250068 0.45326185697447779 0 -0.1248439306779754 0.47015693353475119 0 -0.1134425099250068 0.45326185697447779 0 -0.1248439306779754 0.47015693353475119 0 -0.105972799559837 0.47059728089594433 0 -0.1248439306779754 0.47015693353475119 0 -0.1162957698088448 0.48530707093783348 0 -0.105972799559837 0.47059728089594433 0 -0.12084574077210521 0.5 0 -0.1162957698088448 0.48530707093783348 0 -0.095018643059750052 0.5 0 -0.1347977349745561 0.48578114025847202 0 -0.12084574077210521 0.5 0 -0.1162957698088448 0.48530707093783348 0 -0.1162957698088448 0.48530707093783348 0 -0.095018643059750052 0.5 0 -0.105972799559837 0.47059728089594433 0 -0.087110083064977042 0.46988214320919081 0 -0.095018643059750052 0.5 0 -0.105972799559837 0.47059728089594433 0 -0.16726835492852871 0.076353443748564398 0 -0.15708935888012551 0.098405372719785333 0 -0.14512720393050141 0.075524530629894518 0 -0.16726835492852871 0.076353443748564398 0 -0.1852797032664146 0.090819281175739452 0 -0.15708935888012551 0.098405372719785333 0 -0.16726835492852871 0.076353443748564398 0 -0.1866346627918192 0.06311748533671091 0 -0.15896794836218389 0.05162890801582902 0 -0.16726835492852871 0.076353443748564398 0 -0.14512720393050141 0.075524530629894518 0 -0.15896794836218389 0.05162890801582902 0 -0.16726835492852871 0.076353443748564398 0 -0.1866346627918192 0.06311748533671091 0 -0.1852797032664146 0.090819281175739452 0 -0.1852797032664146 0.090819281175739452 0 -0.17132995622643121 0.110960954347351 0 -0.18774212458305001 0.1162598482240003 0 -0.17132995622643121 0.110960954347351 0 -0.18774212458305001 0.1162598482240003 0 -0.1703759862901113 0.12881718256580399 0 -0.17132995622643121 0.110960954347351 0 -0.15708935888012551 0.098405372719785333 0 -0.15616260811245461 0.1205030870514258 0 -0.17132995622643121 0.110960954347351 0 -0.15616260811245461 0.1205030870514258 0 -0.1703759862901113 0.12881718256580399 0 -0.1852797032664146 0.090819281175739452 0 -0.17132995622643121 0.110960954347351 0 -0.15708935888012551 0.098405372719785333 0 -0.15708935888012551 0.098405372719785333 0 -0.142761346449152 0.1109348850638532 0 -0.1283856502170109 0.09889627259268309 0 -0.15708935888012551 0.098405372719785333 0 -0.15616260811245461 0.1205030870514258 0 -0.142761346449152 0.1109348850638532 0 -0.15616260811245461 0.1205030870514258 0 -0.142761346449152 0.1109348850638532 0 -0.14597742155775081 0.1199539886648068 0 -0.142761346449152 0.1109348850638532 0 -0.14597742155775081 0.1199539886648068 0 -0.13543177976928 0.1255897942953659 0 -0.15616260811245461 0.1205030870514258 0 -0.14597742155775081 0.1199539886648068 0 -0.14113727737491069 0.1272398325320501 0 -0.14597742155775081 0.1199539886648068 0 -0.14113727737491069 0.1272398325320501 0 -0.13543177976928 0.1255897942953659 0 -0.1283856502170109 0.09889627259268309 0 -0.13543177976928 0.1255897942953659 0 -0.1283856502170109 0.09889627259268309 0 -0.13543177976928 0.1255897942953659 0 -0.11988723480721181 0.11352300531899349 0 -0.142761346449152 0.1109348850638532 0 -0.1283856502170109 0.09889627259268309 0 -0.13543177976928 0.1255897942953659 0 -0.1283856502170109 0.09889627259268309 0 -0.14512720393050141 0.075524530629894518 0 -0.1213395206647418 0.0722027508900005 0 -0.15708935888012551 0.098405372719785333 0 -0.1283856502170109 0.09889627259268309 0 -0.14512720393050141 0.075524530629894518 0 -0.14512720393050141 0.075524530629894518 0 -0.13609094182461801 0.054524615380073527 0 -0.1213395206647418 0.0722027508900005 0 -0.13609094182461801 0.054524615380073527 0 -0.1213395206647418 0.0722027508900005 0 -0.12448500522056789 0.053122360731716153 0 -0.13609094182461801 0.054524615380073527 0 -0.12621616728043911 0.040252847469472788 0 -0.12448500522056789 0.053122360731716153 0 -0.13609094182461801 0.054524615380073527 0 -0.12621616728043911 0.040252847469472788 0 -0.138354983634946 0.034214299964623239 0 -0.12621616728043911 0.040252847469472788 0 -0.138354983634946 0.034214299964623239 0 -0.123387765805449 0.026807379020421379 0 -0.13609094182461801 0.054524615380073527 0 -0.138354983634946 0.034214299964623239 0 -0.15896794836218389 0.05162890801582902 0 -0.138354983634946 0.034214299964623239 0 -0.16234621766998389 0.02384077760504796 0 -0.15896794836218389 0.05162890801582902 0 -0.14512720393050141 0.075524530629894518 0 -0.13609094182461801 0.054524615380073527 0 -0.15896794836218389 0.05162890801582902 0 -0.12794466884393851 -0.002708162334285761 0 -0.13780637087705019 0.01631097735332554 0 -0.1521736821911556 0.0070154644146889376 0 -0.12794466884393851 -0.002708162334285761 0 -0.13780637087705019 0.01631097735332554 0 -0.1222144850561783 0.0104564985208432 0 -0.12794466884393851 -0.002708162334285761 0 -0.1521736821911556 0.0070154644146889376 0 -0.13780637087705019 0.01631097735332554 0 -0.1222144850561783 0.0104564985208432 0 -0.123387765805449 0.026807379020421379 0 -0.138354983634946 0.034214299964623239 0 -0.13780637087705019 0.01631097735332554 0 -0.123387765805449 0.026807379020421379 0 -0.13780637087705019 0.01631097735332554 0 -0.1521736821911556 0.0070154644146889376 0 -0.16234621766998389 0.02384077760504796 0 -0.138354983634946 0.034214299964623239 0 -0.13780637087705019 0.01631097735332554 0 -0.16234621766998389 0.02384077760504796 0 -0.1521736821911556 0.0070154644146889376 0 -0.16234621766998389 0.02384077760504796 0 -0.1725177504508198 0.001249681538838686 0 -0.15768631885198689 -0.0078660734412130187 0 -0.1521736821911556 0.0070154644146889376 0 -0.1725177504508198 0.001249681538838686 0 -0.16234621766998389 0.02384077760504796 0 -0.1866441662687485 0.039290536868070762 0 -0.1902896640265446 0.017504961277553781 0 -0.19071046507632669 -0.0018178219343990159 0 -0.1725177504508198 0.001249681538838686 0 -0.1902896640265446 0.017504961277553781 0 -0.16234621766998389 0.02384077760504796 0 -0.1725177504508198 0.001249681538838686 0 -0.1902896640265446 0.017504961277553781 0 -0.16234621766998389 0.02384077760504796 0 -0.15896794836218389 0.05162890801582902 0 -0.1866441662687485 0.039290536868070762 0 -0.1866346627918192 0.06311748533671091 0 -0.15896794836218389 0.05162890801582902 0 -0.1866441662687485 0.039290536868070762 0 -0.1866346627918192 0.06311748533671091 0 -0.21050544349621139 0.049363678898612123 0 -0.2100254630365268 0.069709131965535312 0 -0.1866346627918192 0.06311748533671091 0 -0.1866441662687485 0.039290536868070762 0 -0.21050544349621139 0.049363678898612123 0 -0.1866441662687485 0.039290536868070762 0 -0.21050544349621139 0.049363678898612123 0 -0.21095217372568259 0.02785191898103866 0 -0.21050544349621139 0.049363678898612123 0 -0.21095217372568259 0.02785191898103866 0 -0.2347404694330478 0.037786329720759237 0 -0.21050544349621139 0.049363678898612123 0 -0.22900673975816449 0.058458490982005208 0 -0.2100254630365268 0.069709131965535312 0 -0.19071046507632669 -0.0018178219343990159 0 -0.1902896640265446 0.017504961277553781 0 -0.20877238643255019 0.0072663334765693576 0 -0.1866441662687485 0.039290536868070762 0 -0.1902896640265446 0.017504961277553781 0 -0.21095217372568259 0.02785191898103866 0 -0.1902896640265446 0.017504961277553781 0 -0.21095217372568259 0.02785191898103866 0 -0.20877238643255019 0.0072663334765693576 0 -0.21095217372568259 0.02785191898103866 0 -0.20877238643255019 0.0072663334765693576 0 -0.2273806652430351 0.015640924315588629 0 -0.22529258117075071 -0.0052217877908794143 0 -0.20877238643255019 0.0072663334765693576 0 -0.2273806652430351 0.015640924315588629 0 -0.22529258117075071 -0.0052217877908794143 0 -0.2273806652430351 0.015640924315588629 0 -0.23553239876361701 0.0075094190729034244 0 -0.21095217372568259 0.02785191898103866 0 -0.2273806652430351 0.015640924315588629 0 -0.2347404694330478 0.037786329720759237 0 -0.2273806652430351 0.015640924315588629 0 -0.24129288818000441 0.016618157430050379 0 -0.2347404694330478 0.037786329720759237 0 -0.25207103841232792 0.026061960329184921 0 -0.24129288818000441 0.016618157430050379 0 -0.2347404694330478 0.037786329720759237 0 -0.25207103841232792 0.026061960329184921 0 -0.24129288818000441 0.016618157430050379 0 -0.24816346046067789 0.0030003823368541021 0 -0.22529258117075071 -0.0052217877908794143 0 -0.24816346046067789 0.0030003823368541021 0 -0.23553239876361701 0.0075094190729034244 0 -0.2273806652430351 0.015640924315588629 0 -0.24129288818000441 0.016618157430050379 0 -0.23553239876361701 0.0075094190729034244 0 -0.24129288818000441 0.016618157430050379 0 -0.24816346046067789 0.0030003823368541021 0 -0.23553239876361701 0.0075094190729034244 0 -0.21050544349621139 0.049363678898612123 0 -0.22900673975816449 0.058458490982005208 0 -0.2347404694330478 0.037786329720759237 0 -0.25597861636397973 0.049123538321515482 0 -0.25207103841232792 0.026061960329184921 0 -0.2347404694330478 0.037786329720759237 0 -0.25597861636397973 0.049123538321515482 0 -0.2347404694330478 0.037786329720759237 0 -0.24384480862188049 0.059602248430989879 0 -0.22900673975816449 0.058458490982005208 0 -0.2347404694330478 0.037786329720759237 0 -0.24384480862188049 0.059602248430989879 0 -0.22900673975816449 0.058458490982005208 0 -0.24384480862188049 0.059602248430989879 0 -0.23216471734033031 0.075396517757814169 0 -0.25136541031898729 0.073845232094683494 0 -0.24384480862188049 0.059602248430989879 0 -0.23216471734033031 0.075396517757814169 0 -0.25136541031898729 0.073845232094683494 0 -0.23216471734033031 0.075396517757814169 0 -0.24284988513574529 0.096642882843885058 0 -0.23216471734033031 0.075396517757814169 0 -0.2100254630365268 0.069709131965535312 0 -0.21406479420107991 0.093731082009812255 0 -0.23216471734033031 0.075396517757814169 0 -0.21406479420107991 0.093731082009812255 0 -0.24284988513574529 0.096642882843885058 0 -0.22900673975816449 0.058458490982005208 0 -0.23216471734033031 0.075396517757814169 0 -0.2100254630365268 0.069709131965535312 0 -0.1852797032664146 0.090819281175739452 0 -0.2100254630365268 0.069709131965535312 0 -0.21406479420107991 0.093731082009812255 0 -0.1852797032664146 0.090819281175739452 0 -0.21406479420107991 0.093731082009812255 0 -0.1866346627918192 0.06311748533671091 0 -0.1852797032664146 0.090819281175739452 0 -0.2100254630365268 0.069709131965535312 0 -0.18774212458305001 0.1162598482240003 0 -0.20462239664310539 0.1188469095142272 0 -0.19961469520531189 0.1303945325995573 0 -0.18774212458305001 0.1162598482240003 0 -0.201321245926882 0.1074245226007709 0 -0.20462239664310539 0.1188469095142272 0 -0.1852797032664146 0.090819281175739452 0 -0.18774212458305001 0.1162598482240003 0 -0.201321245926882 0.1074245226007709 0 -0.1852797032664146 0.090819281175739452 0 -0.21406479420107991 0.093731082009812255 0 -0.201321245926882 0.1074245226007709 0 -0.21406479420107991 0.093731082009812255 0 -0.201321245926882 0.1074245226007709 0 -0.2183742696563245 0.109622629898107 0 -0.201321245926882 0.1074245226007709 0 -0.2183742696563245 0.109622629898107 0 -0.20462239664310539 0.1188469095142272 0 -0.20462239664310539 0.1188469095142272 0 -0.21547812764512911 0.1240912382221471 0 -0.19961469520531189 0.1303945325995573 0 -0.2183742696563245 0.109622629898107 0 -0.20462239664310539 0.1188469095142272 0 -0.21547812764512911 0.1240912382221471 0 -0.2183742696563245 0.109622629898107 0 -0.21547812764512911 0.1240912382221471 0 -0.23134156008494661 0.11778794384473749 0 -0.21547812764512911 0.1240912382221471 0 -0.23134156008494661 0.11778794384473749 0 -0.21406479420107991 0.093731082009812255 0 -0.2183742696563245 0.109622629898107 0 -0.24284988513574529 0.096642882843885058 0 -0.21406479420107991 0.093731082009812255 0 -0.24284988513574529 0.096642882843885058 0 -0.2183742696563245 0.109622629898107 0 -0.23134156008494661 0.11778794384473749 0 -0.24284988513574529 0.096642882843885058 0 -0.25649798179994171 0.1077666324077486 0 -0.23134156008494661 0.11778794384473749 0 -0.24284988513574529 0.096642882843885058 0 -0.25560731199770448 0.1231882924394609 0 -0.23134156008494661 0.11778794384473749 0 -0.22926480834017221 0.1334215339667261 0 -0.25560731199770448 0.1231882924394609 0 -0.25649798179994171 0.1077666324077486 0 -0.23134156008494661 0.11778794384473749 0 -0.25560731199770448 0.1231882924394609 0 -0.24681648486499361 0.13989079764542439 0 -0.22926480834017221 0.1334215339667261 0 -0.25560731199770448 0.1231882924394609 0 -0.22926480834017221 0.1334215339667261 0 -0.21547812764512911 0.1240912382221471 0 -0.23134156008494661 0.11778794384473749 0 -0.22926480834017221 0.1334215339667261 0 -0.21547812764512911 0.1240912382221471 0 -0.22926480834017221 0.1334215339667261 0 -0.21179203064145599 0.13105146723086961 0 -0.22926480834017221 0.1334215339667261 0 -0.22059906227062001 0.151125087974118 0 -0.2368957959583374 0.151197903335341 0 -0.24681648486499361 0.13989079764542439 0 -0.22926480834017221 0.1334215339667261 0 -0.2368957959583374 0.151197903335341 0 -0.25072935194538559 0.15091073656359991 0 -0.24681648486499361 0.13989079764542439 0 -0.2368957959583374 0.151197903335341 0 -0.25072935194538559 0.15091073656359991 0 -0.2368957959583374 0.151197903335341 0 -0.245907630704644 0.16467346334311689 0 -0.2538068688167292 0.17824741606419039 0 -0.245907630704644 0.16467346334311689 0 -0.22977569093836281 0.16987608662561909 0 -0.2368957959583374 0.151197903335341 0 -0.245907630704644 0.16467346334311689 0 -0.22977569093836281 0.16987608662561909 0 -0.2538068688167292 0.17824741606419039 0 -0.22977569093836281 0.16987608662561909 0 -0.23571011199556749 0.19027560157752119 0 -0.25669856363692678 0.19129905301876091 0 -0.2538068688167292 0.17824741606419039 0 -0.23571011199556749 0.19027560157752119 0 -0.2538068688167292 0.17824741606419039 0 -0.22977569093836281 0.16987608662561909 0 -0.21356398216374381 0.17598593097083801 0 -0.23571011199556749 0.19027560157752119 0 -0.21831851346693759 0.19535324581936139 0 -0.22977569093836281 0.16987608662561909 0 -0.21356398216374381 0.17598593097083801 0 -0.23571011199556749 0.19027560157752119 0 -0.21356398216374381 0.17598593097083801 0 -0.23571011199556749 0.19027560157752119 0 -0.22059906227062001 0.151125087974118 0 -0.2368957959583374 0.151197903335341 0 -0.22977569093836281 0.16987608662561909 0 -0.22059906227062001 0.151125087974118 0 -0.22977569093836281 0.16987608662561909 0 -0.2057445130599965 0.1615047571870479 0 -0.22977569093836281 0.16987608662561909 0 -0.2057445130599965 0.1615047571870479 0 -0.2057445130599965 0.1615047571870479 0 -0.21356398216374381 0.17598593097083801 0 -0.1914178523319201 0.1616962603641548 0 -0.22977569093836281 0.16987608662561909 0 -0.2057445130599965 0.1615047571870479 0 -0.21356398216374381 0.17598593097083801 0 -0.21356398216374381 0.17598593097083801 0 -0.20161290395602349 0.17159151755943269 0 -0.2021827918735494 0.18848997197293299 0 -0.21356398216374381 0.17598593097083801 0 -0.21831851346693759 0.19535324581936139 0 -0.2021827918735494 0.18848997197293299 0 -0.20161290395602349 0.17159151755943269 0 -0.2021827918735494 0.18848997197293299 0 -0.18648636458765599 0.18220469518806881 0 -0.20161290395602349 0.17159151755943269 0 -0.18648636458765599 0.18220469518806881 0 -0.20161290395602349 0.17159151755943269 0 -0.19039370493538529 0.17165725632822901 0 -0.18648636458765599 0.18220469518806881 0 -0.2057445130599965 0.1615047571870479 0 -0.1914178523319201 0.1616962603641548 0 -0.18171333518163019 0.15313342774847671 0 -0.21356398216374381 0.17598593097083801 0 -0.20161290395602349 0.17159151755943269 0 -0.1914178523319201 0.1616962603641548 0 -0.2057445130599965 0.1615047571870479 0 -0.18171333518163019 0.15313342774847671 0 -0.21356398216374381 0.17598593097083801 0 -0.1914178523319201 0.1616962603641548 0 -0.19039370493538529 0.17165725632822901 0 -0.1914178523319201 0.1616962603641548 0 -0.1820576988659415 0.1711365522012597 0 -0.20161290395602349 0.17159151755943269 0 -0.19039370493538529 0.17165725632822901 0 -0.1914178523319201 0.1616962603641548 0 -0.2029223046826398 0.1436547754939913 0 -0.1765798010251074 0.15388801702125651 0 -0.2029223046826398 0.1436547754939913 0 -0.18567883736827351 0.1446023220450674 0 -0.1765798010251074 0.15388801702125651 0 -0.2029223046826398 0.1436547754939913 0 -0.19049392225187509 0.13982987969299721 0 -0.18567883736827351 0.1446023220450674 0 -0.2057445130599965 0.1615047571870479 0 -0.2029223046826398 0.1436547754939913 0 -0.18171333518163019 0.15313342774847671 0 -0.19049392225187509 0.13982987969299721 0 -0.19961469520531189 0.1303945325995573 0 -0.17375985175127531 0.14066788863337271 0 -0.2029223046826398 0.1436547754939913 0 -0.19049392225187509 0.13982987969299721 0 -0.19961469520531189 0.1303945325995573 0 -0.2029223046826398 0.1436547754939913 0 -0.19961469520531189 0.1303945325995573 0 -0.21179203064145599 0.13105146723086961 0 -0.21547812764512911 0.1240912382221471 0 -0.19961469520531189 0.1303945325995573 0 -0.21179203064145599 0.13105146723086961 0 -0.21547812764512911 0.1240912382221471 0 -0.19961469520531189 0.1303945325995573 0 -0.22926480834017221 0.1334215339667261 0 -0.2029223046826398 0.1436547754939913 0 -0.22926480834017221 0.1334215339667261 0 -0.2029223046826398 0.1436547754939913 0 -0.21179203064145599 0.13105146723086961 0 -0.19961469520531189 0.1303945325995573 0 -0.21179203064145599 0.13105146723086961 0 -0.22059906227062001 0.151125087974118 0 -0.2057445130599965 0.1615047571870479 0 -0.2029223046826398 0.1436547754939913 0 -0.22926480834017221 0.1334215339667261 0 -0.22059906227062001 0.151125087974118 0 -0.2029223046826398 0.1436547754939913 0 -0.22119344979997979 0.25982520082248228 0 -0.22334351471757549 0.2359903166451808 0 -0.24225983049638999 0.24450153809524269 0 -0.22334351471757549 0.2359903166451808 0 -0.24225983049638999 0.24450153809524269 0 -0.2381146611919181 0.23362795865159089 0 -0.25338997814434111 0.23627555232280109 0 -0.2445739512607959 0.2575038674604756 0 -0.24225983049638999 0.24450153809524269 0 -0.25338997814434111 0.23627555232280109 0 -0.2445739512607959 0.2575038674604756 0 -0.25338997814434111 0.23627555232280109 0 -0.24225983049638999 0.24450153809524269 0 -0.2458786025898568 0.23635395315149491 0 -0.24225983049638999 0.24450153809524269 0 -0.2458786025898568 0.23635395315149491 0 -0.2381146611919181 0.23362795865159089 0 -0.2458786025898568 0.23635395315149491 0 -0.2381146611919181 0.23362795865159089 0 -0.2455651673360745 0.22999166076078681 0 -0.2381146611919181 0.23362795865159089 0 -0.2455651673360745 0.22999166076078681 0 -0.2439014790173839 0.2208768410093109 0 -0.25087197849701109 0.23172467114630951 0 -0.25338997814434111 0.23627555232280109 0 -0.2455651673360745 0.22999166076078681 0 -0.25338997814434111 0.23627555232280109 0 -0.2458786025898568 0.23635395315149491 0 -0.2455651673360745 0.22999166076078681 0 -0.2525016477119898 0.22545096211968291 0 -0.25087197849701109 0.23172467114630951 0 -0.2455651673360745 0.22999166076078681 0 -0.25207110710078701 0.2198329446334365 0 -0.2525016477119898 0.22545096211968291 0 -0.2439014790173839 0.2208768410093109 0 -0.2525016477119898 0.22545096211968291 0 -0.2455651673360745 0.22999166076078681 0 -0.2439014790173839 0.2208768410093109 0 -0.2381146611919181 0.23362795865159089 0 -0.2439014790173839 0.2208768410093109 0 -0.2296663547775579 0.22243898958929331 0 -0.22334351471757549 0.2359903166451808 0 -0.2296663547775579 0.22243898958929331 0 -0.20747170692542119 0.21315472565560831 0 -0.22334351471757549 0.2359903166451808 0 -0.2381146611919181 0.23362795865159089 0 -0.2296663547775579 0.22243898958929331 0 -0.2326639743764061 0.20885999891990681 0 -0.21831851346693759 0.19535324581936139 0 -0.20747170692542119 0.21315472565560831 0 -0.2296663547775579 0.22243898958929331 0 -0.2326639743764061 0.20885999891990681 0 -0.20747170692542119 0.21315472565560831 0 -0.2326639743764061 0.20885999891990681 0 -0.20747170692542119 0.21315472565560831 0 -0.25157520307443132 0.21338190956609229 0 -0.2439014790173839 0.2208768410093109 0 -0.2326639743764061 0.20885999891990681 0 -0.25785624182739092 0.2045652721842047 0 -0.25157520307443132 0.21338190956609229 0 -0.2326639743764061 0.20885999891990681 0 -0.2439014790173839 0.2208768410093109 0 -0.2296663547775579 0.22243898958929331 0 -0.2326639743764061 0.20885999891990681 0 -0.25785624182739092 0.2045652721842047 0 -0.2326639743764061 0.20885999891990681 0 -0.25157520307443132 0.21338190956609229 0 -0.25207110710078701 0.2198329446334365 0 -0.2439014790173839 0.2208768410093109 0 -0.25785624182739092 0.2045652721842047 0 -0.23571011199556749 0.19027560157752119 0 -0.25785624182739092 0.2045652721842047 0 -0.2326639743764061 0.20885999891990681 0 -0.23571011199556749 0.19027560157752119 0 -0.2326639743764061 0.20885999891990681 0 -0.23571011199556749 0.19027560157752119 0 -0.21831851346693759 0.19535324581936139 0 -0.21831851346693759 0.19535324581936139 0 -0.2021827918735494 0.18848997197293299 0 -0.20747170692542119 0.21315472565560831 0 -0.1881793455130519 0.20015405791700991 0 -0.2021827918735494 0.18848997197293299 0 -0.18648636458765599 0.18220469518806881 0 -0.1881793455130519 0.20015405791700991 0 -0.2021827918735494 0.18848997197293299 0 -0.20747170692542119 0.21315472565560831 0 -0.20747170692542119 0.21315472565560831 0 -0.18227943947443631 0.21744945239130981 0 -0.1881793455130519 0.20015405791700991 0 -0.20747170692542119 0.21315472565560831 0 -0.18227943947443631 0.21744945239130981 0 -0.22334351471757549 0.2359903166451808 0 -0.20747170692542119 0.21315472565560831 0 -0.1987579692608861 0.2345755233458289 0 -0.20747170692542119 0.21315472565560831 0 -0.1987579692608861 0.2345755233458289 0 -0.18227943947443631 0.21744945239130981 0 -0.1987579692608861 0.2345755233458289 0 -0.18230091315516081 0.23847411121809389 0 -0.18227943947443631 0.21744945239130981 0 -0.20648687714957689 0.25050186499486288 0 -0.19032044224941569 0.25159013000670127 0 -0.1987579692608861 0.2345755233458289 0 -0.19032044224941569 0.25159013000670127 0 -0.1987579692608861 0.2345755233458289 0 -0.18230091315516081 0.23847411121809389 0 -0.20648687714957689 0.25050186499486288 0 -0.22334351471757549 0.2359903166451808 0 -0.1987579692608861 0.2345755233458289 0 -0.22119344979997979 0.25982520082248228 0 -0.20648687714957689 0.25050186499486288 0 -0.22334351471757549 0.2359903166451808 0 -0.16145592628632241 0.25191482903985191 0 -0.16556267387302381 0.2367128139155521 0 -0.1481743061415659 0.23980783450099891 0 -0.17408437879610761 0.25064564606173922 0 -0.16145592628632241 0.25191482903985191 0 -0.16556267387302381 0.2367128139155521 0 -0.17408437879610761 0.25064564606173922 0 -0.16556267387302381 0.2367128139155521 0 -0.18230091315516081 0.23847411121809389 0 -0.19032044224941569 0.25159013000670127 0 -0.17408437879610761 0.25064564606173922 0 -0.18230091315516081 0.23847411121809389 0 -0.16556267387302381 0.2367128139155521 0 -0.18230091315516081 0.23847411121809389 0 -0.18227943947443631 0.21744945239130981 0 -0.16556267387302381 0.2367128139155521 0 -0.15708717202345099 0.22174417912700981 0 -0.18227943947443631 0.21744945239130981 0 -0.15708717202345099 0.22174417912700981 0 -0.18227943947443631 0.21744945239130981 0 -0.16556267387302381 0.2367128139155521 0 -0.15708717202345099 0.22174417912700981 0 -0.1481743061415659 0.23980783450099891 0 -0.15708717202345099 0.22174417912700981 0 -0.16422349862136931 0.2072810259718571 0 -0.18227943947443631 0.21744945239130981 0 -0.15708717202345099 0.22174417912700981 0 -0.16422349862136931 0.2072810259718571 0 -0.15543597806162129 0.2119372970372366 0 -0.15708717202345099 0.22174417912700981 0 -0.16422349862136931 0.2072810259718571 0 -0.16422349862136931 0.2072810259718571 0 -0.15785725078718399 0.2022916339594211 0 -0.15543597806162129 0.2119372970372366 0 -0.1881793455130519 0.20015405791700991 0 -0.18227943947443631 0.21744945239130981 0 -0.17651052720703639 0.20442560227422041 0 -0.16422349862136931 0.2072810259718571 0 -0.18227943947443631 0.21744945239130981 0 -0.17651052720703639 0.20442560227422041 0 -0.1881793455130519 0.20015405791700991 0 -0.17135982521928839 0.1928178728167049 0 -0.18648636458765599 0.18220469518806881 0 -0.1881793455130519 0.20015405791700991 0 -0.17651052720703639 0.20442560227422041 0 -0.17135982521928839 0.1928178728167049 0 -0.17135982521928839 0.1928178728167049 0 -0.18648636458765599 0.18220469518806881 0 -0.17135982521928839 0.1928178728167049 0 -0.15909335348099879 0.191127596025334 0 -0.16251235986611229 0.18102217298292261 0 -0.16422349862136931 0.2072810259718571 0 -0.17651052720703639 0.20442560227422041 0 -0.17135982521928839 0.1928178728167049 0 -0.16422349862136931 0.2072810259718571 0 -0.17135982521928839 0.1928178728167049 0 -0.15785725078718399 0.2022916339594211 0 -0.17135982521928839 0.1928178728167049 0 -0.15785725078718399 0.2022916339594211 0 -0.16422349862136931 0.2072810259718571 0 -0.17135982521928839 0.1928178728167049 0 -0.17135982521928839 0.1928178728167049 0 -0.15785725078718399 0.2022916339594211 0 -0.15909335348099879 0.191127596025334 0 -0.15909335348099879 0.191127596025334 0 -0.15009482819834549 0.1950590468562487 0 -0.14720966402230429 0.18311127529990459 0 -0.15785725078718399 0.2022916339594211 0 -0.15909335348099879 0.191127596025334 0 -0.15009482819834549 0.1950590468562487 0 -0.15785725078718399 0.2022916339594211 0 -0.15009482819834549 0.1950590468562487 0 -0.14320055480970201 0.2032922222282427 0 -0.15009482819834549 0.1950590468562487 0 -0.14174074430183001 0.19477119914129309 0 -0.14320055480970201 0.2032922222282427 0 -0.15009482819834549 0.1950590468562487 0 -0.14174074430183001 0.19477119914129309 0 -0.14720966402230429 0.18311127529990459 0 -0.14174074430183001 0.19477119914129309 0 -0.13367468098829269 0.18975271547439049 0 -0.14720966402230429 0.18311127529990459 0 -0.14174074430183001 0.19477119914129309 0 -0.13367468098829269 0.18975271547439049 0 -0.13424147653794549 0.19895236042398931 0 -0.13367468098829269 0.18975271547439049 0 -0.13424147653794549 0.19895236042398931 0 -0.1228369648098183 0.19157836423330571 0 -0.13424147653794549 0.19895236042398931 0 -0.12413517026960991 0.20328261756003591 0 -0.1228369648098183 0.19157836423330571 0 -0.13424147653794549 0.19895236042398931 0 -0.13487502023546091 0.20624363592022371 0 -0.12413517026960991 0.20328261756003591 0 -0.13424147653794549 0.19895236042398931 0 -0.13487502023546091 0.20624363592022371 0 -0.14320055480970201 0.2032922222282427 0 -0.14174074430183001 0.19477119914129309 0 -0.13424147653794549 0.19895236042398931 0 -0.14320055480970201 0.2032922222282427 0 -0.12808143729227359 0.21365777151523749 0 -0.1443546763550799 0.2117653951021376 0 -0.1201215298800582 0.22876800764800431 0 -0.13487502023546091 0.20624363592022371 0 -0.12808143729227359 0.21365777151523749 0 -0.1443546763550799 0.2117653951021376 0 -0.13487502023546091 0.20624363592022371 0 -0.12808143729227359 0.21365777151523749 0 -0.12413517026960991 0.20328261756003591 0 -0.1443546763550799 0.2117653951021376 0 -0.1459719772207167 0.22363907502650779 0 -0.1443546763550799 0.2117653951021376 0 -0.14320055480970201 0.2032922222282427 0 -0.13487502023546091 0.20624363592022371 0 -0.1443546763550799 0.2117653951021376 0 -0.14320055480970201 0.2032922222282427 0 -0.15785725078718399 0.2022916339594211 0 -0.1443546763550799 0.2117653951021376 0 -0.15543597806162129 0.2119372970372366 0 -0.15785725078718399 0.2022916339594211 0 -0.1443546763550799 0.2117653951021376 0 -0.14320055480970201 0.2032922222282427 0 -0.15785725078718399 0.2022916339594211 0 -0.1443546763550799 0.2117653951021376 0 -0.1443546763550799 0.2117653951021376 0 -0.15543597806162129 0.2119372970372366 0 -0.1459719772207167 0.22363907502650779 0 -0.15708717202345099 0.22174417912700981 0 -0.1459719772207167 0.22363907502650779 0 -0.14785055011673839 0.2374309264722767 0 -0.15708717202345099 0.22174417912700981 0 -0.1481743061415659 0.23980783450099891 0 -0.15708717202345099 0.22174417912700981 0 -0.14785055011673839 0.2374309264722767 0 -0.1481743061415659 0.23980783450099891 0 -0.15708717202345099 0.22174417912700981 0 -0.1459719772207167 0.22363907502650779 0 -0.15708717202345099 0.22174417912700981 0 -0.15543597806162129 0.2119372970372366 0 -0.1459719772207167 0.22363907502650779 0 -0.1459719772207167 0.22363907502650779 0 -0.14785055011673839 0.2374309264722767 0 -0.14386489488029161 0.23247146604840629 0 -0.1459719772207167 0.22363907502650779 0 -0.14785055011673839 0.2374309264722767 0 -0.14386489488029161 0.23247146604840629 0 -0.1459719772207167 0.22363907502650779 0 -0.13984261399805681 0.2313890873292386 0 -0.14386489488029161 0.23247146604840629 0 -0.13984261399805681 0.2313890873292386 0 -0.14200632494200199 0.23739791450387751 0 -0.1459719772207167 0.22363907502650779 0 -0.1248188876052452 0.22724521090494579 0 -0.1443546763550799 0.2117653951021376 0 -0.1459719772207167 0.22363907502650779 0 -0.1248188876052452 0.22724521090494579 0 -0.1443546763550799 0.2117653951021376 0 -0.1201215298800582 0.22876800764800431 0 -0.1443546763550799 0.2117653951021376 0 -0.1201215298800582 0.22876800764800431 0 -0.1248188876052452 0.22724521090494579 0 -0.1459719772207167 0.22363907502650779 0 -0.13984261399805681 0.2313890873292386 0 -0.1248188876052452 0.22724521090494579 0 -0.13081371297826269 0.23337918477023209 0 -0.12405448318332241 0.23615031783259799 0 -0.1248188876052452 0.22724521090494579 0 -0.13081371297826269 0.23337918477023209 0 -0.13984261399805681 0.2313890873292386 0 -0.1248188876052452 0.22724521090494579 0 -0.13984261399805681 0.2313890873292386 0 -0.13453886712642629 0.23873212301414601 0 -0.14200632494200199 0.23739791450387751 0 -0.1424541626232827 0.25051325329985952 0 -0.13794685842589141 0.2436155227601409 0 -0.1228336577714793 0.24442535321989489 0 -0.1424541626232827 0.25051325329985952 0 -0.1228336577714793 0.24442535321989489 0 -0.13081371297826269 0.23337918477023209 0 -0.13984261399805681 0.2313890873292386 0 -0.13453886712642629 0.23873212301414601 0 -0.14027905442366179 0.24079875547744059 0 -0.13794685842589141 0.2436155227601409 0 -0.14292398160573119 0.2419580220569946 0 -0.14027905442366179 0.24079875547744059 0 -0.13453886712642629 0.23873212301414601 0 -0.13794685842589141 0.2436155227601409 0 -0.14027905442366179 0.24079875547744059 0 -0.13453886712642629 0.23873212301414601 0 -0.14200632494200199 0.23739791450387751 0 -0.13081371297826269 0.23337918477023209 0 -0.13453886712642629 0.23873212301414601 0 -0.12405448318332241 0.23615031783259799 0 -0.13453886712642629 0.23873212301414601 0 -0.1228336577714793 0.24442535321989489 0 -0.12405448318332241 0.23615031783259799 0 -0.13453886712642629 0.23873212301414601 0 -0.13794685842589141 0.2436155227601409 0 -0.1228336577714793 0.24442535321989489 0 -0.1424541626232827 0.25051325329985952 0 -0.13794685842589141 0.2436155227601409 0 -0.14292398160573119 0.2419580220569946 0 -0.1424541626232827 0.25051325329985952 0 -0.14785055011673839 0.2374309264722767 0 -0.1424541626232827 0.25051325329985952 0 -0.14785055011673839 0.2374309264722767 0 -0.1481743061415659 0.23980783450099891 0 -0.1424541626232827 0.25051325329985952 0 -0.14292398160573119 0.2419580220569946 0 -0.14785055011673839 0.2374309264722767 0 -0.14027905442366179 0.24079875547744059 0 -0.14292398160573119 0.2419580220569946 0 -0.14200632494200199 0.23739791450387751 0 -0.14292398160573119 0.2419580220569946 0 -0.14200632494200199 0.23739791450387751 0 -0.14785055011673839 0.2374309264722767 0 -0.14386489488029161 0.23247146604840629 0 -0.14200632494200199 0.23739791450387751 0 -0.14785055011673839 0.2374309264722767 0 -0.14785055011673839 0.2374309264722767 0 -0.1481743061415659 0.23980783450099891 0 -0.16780973058002949 0.14923158366596001 0 -0.17375985175127531 0.14066788863337271 0 -0.14790500829723899 0.15094124466718881 0 -0.17375985175127531 0.14066788863337271 0 -0.14790500829723899 0.15094124466718881 0 -0.17375985175127531 0.14066788863337271 0 -0.14790500829723899 0.15094124466718881 0 -0.15350355114741129 0.14136128755626151 0 -0.16780973058002949 0.14923158366596001 0 -0.16085896581463741 0.15440139989604629 0 -0.1765798010251074 0.15388801702125651 0 -0.16780973058002949 0.14923158366596001 0 -0.16085896581463741 0.15440139989604629 0 -0.14790500829723899 0.15094124466718881 0 -0.1585161137422974 0.13525114865876711 0 -0.1703759862901113 0.12881718256580399 0 -0.149408476883923 0.13353794199584251 0 -0.16339421534131229 0.136966559162291 0 -0.17375985175127531 0.14066788863337271 0 -0.15350355114741129 0.14136128755626151 0 -0.16339421534131229 0.136966559162291 0 -0.1585161137422974 0.13525114865876711 0 -0.15350355114741129 0.14136128755626151 0 -0.16339421534131229 0.136966559162291 0 -0.1703759862901113 0.12881718256580399 0 -0.17375985175127531 0.14066788863337271 0 -0.16339421534131229 0.136966559162291 0 -0.1585161137422974 0.13525114865876711 0 -0.1703759862901113 0.12881718256580399 0 -0.19961469520531189 0.1303945325995573 0 -0.1703759862901113 0.12881718256580399 0 -0.17375985175127531 0.14066788863337271 0 -0.19961469520531189 0.1303945325995573 0 -0.1703759862901113 0.12881718256580399 0 -0.18774212458305001 0.1162598482240003 0 -0.19961469520531189 0.1303945325995573 0 -0.1703759862901113 0.12881718256580399 0 -0.19961469520531189 0.1303945325995573 0 -0.17375985175127531 0.14066788863337271 0 -0.2029223046826398 0.1436547754939913 0 -0.1765798010251074 0.15388801702125651 0 -0.18171333518163019 0.15313342774847671 0 -0.19049392225187509 0.13982987969299721 0 -0.18567883736827351 0.1446023220450674 0 -0.17375985175127531 0.14066788863337271 0 -0.18567883736827351 0.1446023220450674 0 -0.17595705518117141 0.14709745284141421 0 -0.17375985175127531 0.14066788863337271 0 -0.16780973058002949 0.14923158366596001 0 -0.17595705518117141 0.14709745284141421 0 -0.17375985175127531 0.14066788863337271 0 -0.16780973058002949 0.14923158366596001 0 -0.17595705518117141 0.14709745284141421 0 -0.1765798010251074 0.15388801702125651 0 -0.18567883736827351 0.1446023220450674 0 -0.17595705518117141 0.14709745284141421 0 -0.1765798010251074 0.15388801702125651 0 -0.1765798010251074 0.15388801702125651 0 -0.18171333518163019 0.15313342774847671 0 -0.18006728990758611 0.158618441685553 0 -0.1914178523319201 0.1616962603641548 0 -0.1801772742265465 0.16378263013983341 0 -0.18006728990758611 0.158618441685553 0 -0.1914178523319201 0.1616962603641548 0 -0.18171333518163019 0.15313342774847671 0 -0.18006728990758611 0.158618441685553 0 -0.1914178523319201 0.1616962603641548 0 -0.1801772742265465 0.16378263013983341 0 -0.1820576988659415 0.1711365522012597 0 -0.1801772742265465 0.16378263013983341 0 -0.17384434322117279 0.16900296892627531 0 -0.17112973237201251 0.16291642824721531 0 -0.1801772742265465 0.16378263013983341 0 -0.1820576988659415 0.1711365522012597 0 -0.17384434322117279 0.16900296892627531 0 -0.1801772742265465 0.16378263013983341 0 -0.18006728990758611 0.158618441685553 0 -0.17112973237201251 0.16291642824721531 0 -0.1765798010251074 0.15388801702125651 0 -0.18006728990758611 0.158618441685553 0 -0.17112973237201251 0.16291642824721531 0 -0.17135982521928839 0.1928178728167049 0 -0.1820576988659415 0.1711365522012597 0 -0.1711974776912491 0.1766454195271201 0 -0.17135982521928839 0.1928178728167049 0 -0.1820576988659415 0.1711365522012597 0 -0.18648636458765599 0.18220469518806881 0 -0.17135982521928839 0.1928178728167049 0 -0.1820576988659415 0.1711365522012597 0 -0.19039370493538529 0.17165725632822901 0 -0.1820576988659415 0.1711365522012597 0 -0.18648636458765599 0.18220469518806881 0 -0.1820576988659415 0.1711365522012597 0 -0.17384434322117279 0.16900296892627531 0 -0.1711974776912491 0.1766454195271201 0 -0.17135982521928839 0.1928178728167049 0 -0.1711974776912491 0.1766454195271201 0 -0.16251235986611229 0.18102217298292261 0 -0.17384434322117279 0.16900296892627531 0 -0.1711974776912491 0.1766454195271201 0 -0.1646595329501144 0.1705338145159479 0 -0.1711974776912491 0.1766454195271201 0 -0.16251235986611229 0.18102217298292261 0 -0.1646595329501144 0.1705338145159479 0 -0.16251235986611229 0.18102217298292261 0 -0.1646595329501144 0.1705338145159479 0 -0.1556371416193813 0.17460273937162391 0 -0.15909335348099879 0.191127596025334 0 -0.16251235986611229 0.18102217298292261 0 -0.14720966402230429 0.18311127529990459 0 -0.1765798010251074 0.15388801702125651 0 -0.17112973237201251 0.16291642824721531 0 -0.15023729736757499 0.16412125854852169 0 -0.16085896581463741 0.15440139989604629 0 -0.1765798010251074 0.15388801702125651 0 -0.15023729736757499 0.16412125854852169 0 -0.1765798010251074 0.15388801702125651 0 -0.15023729736757499 0.16412125854852169 0 -0.17112973237201251 0.16291642824721531 0 -0.1646595329501144 0.1705338145159479 0 -0.15023729736757499 0.16412125854852169 0 -0.17384434322117279 0.16900296892627531 0 -0.17112973237201251 0.16291642824721531 0 -0.1646595329501144 0.1705338145159479 0 -0.1646595329501144 0.1705338145159479 0 -0.15023729736757499 0.16412125854852169 0 -0.1556371416193813 0.17460273937162391 0 -0.15023729736757499 0.16412125854852169 0 -0.13267835803843411 0.15894091917248979 0 -0.14790500829723899 0.15094124466718881 0 -0.16085896581463741 0.15440139989604629 0 -0.15023729736757499 0.16412125854852169 0 -0.14790500829723899 0.15094124466718881 0 -0.15023729736757499 0.16412125854852169 0 -0.1556371416193813 0.17460273937162391 0 -0.14720966402230429 0.18311127529990459 0 -0.16251235986611229 0.18102217298292261 0 -0.1556371416193813 0.17460273937162391 0 -0.14720966402230429 0.18311127529990459 0 -0.15023729736757499 0.16412125854852169 0 -0.14720966402230429 0.18311127529990459 0 -0.1238947937100426 0.1743545000757869 0 -0.13367468098829269 0.18975271547439049 0 -0.1238947937100426 0.1743545000757869 0 -0.1228369648098183 0.19157836423330571 0 -0.13367468098829269 0.18975271547439049 0 -0.14720966402230429 0.18311127529990459 0 -0.1238947937100426 0.1743545000757869 0 -0.15023729736757499 0.16412125854852169 0 -0.13267835803843411 0.15894091917248979 0 -0.1238947937100426 0.1743545000757869 0 -0.15023729736757499 0.16412125854852169 0 -0.1238947937100426 0.1743545000757869 0 -0.13267835803843411 0.15894091917248979 0 -0.13617659497319889 0.1471998709921386 0 -0.1239111636881627 0.14551335037359051 0 -0.13617659497319889 0.1471998709921386 0 -0.1329971917538012 0.13686961064399489 0 -0.1239111636881627 0.14551335037359051 0 -0.13617659497319889 0.1471998709921386 0 -0.14289061628769359 0.1406150618267441 0 -0.1329971917538012 0.13686961064399489 0 -0.13267835803843411 0.15894091917248979 0 -0.13617659497319889 0.1471998709921386 0 -0.14790500829723899 0.15094124466718881 0 -0.14790500829723899 0.15094124466718881 0 -0.15350355114741129 0.14136128755626151 0 -0.14289061628769359 0.1406150618267441 0 -0.13617659497319889 0.1471998709921386 0 -0.14790500829723899 0.15094124466718881 0 -0.14289061628769359 0.1406150618267441 0 -0.1703759862901113 0.12881718256580399 0 -0.149408476883923 0.13353794199584251 0 -0.14113727737491069 0.1272398325320501 0 -0.15616260811245461 0.1205030870514258 0 -0.1703759862901113 0.12881718256580399 0 -0.14113727737491069 0.1272398325320501 0 -0.1703759862901113 0.12881718256580399 0 -0.14113727737491069 0.1272398325320501 0 -0.15350355114741129 0.14136128755626151 0 -0.149408476883923 0.13353794199584251 0 -0.14289061628769359 0.1406150618267441 0 -0.1585161137422974 0.13525114865876711 0 -0.15350355114741129 0.14136128755626151 0 -0.149408476883923 0.13353794199584251 0 -0.149408476883923 0.13353794199584251 0 -0.14289061628769359 0.1406150618267441 0 -0.14160839057508209 0.13456561174965789 0 -0.149408476883923 0.13353794199584251 0 -0.14160839057508209 0.13456561174965789 0 -0.14113727737491069 0.1272398325320501 0 -0.14113727737491069 0.1272398325320501 0 -0.1329971917538012 0.13686961064399489 0 -0.11189856845971009 0.12566248249829609 0 -0.14113727737491069 0.1272398325320501 0 -0.13543177976928 0.1255897942953659 0 -0.11189856845971009 0.12566248249829609 0 -0.14113727737491069 0.1272398325320501 0 -0.11189856845971009 0.12566248249829609 0 -0.14289061628769359 0.1406150618267441 0 -0.14160839057508209 0.13456561174965789 0 -0.1329971917538012 0.13686961064399489 0 -0.14160839057508209 0.13456561174965789 0 -0.14113727737491069 0.1272398325320501 0 -0.1329971917538012 0.13686961064399489 0 -0.1329971917538012 0.13686961064399489 0 -0.11189856845971009 0.12566248249829609 0 -0.1239111636881627 0.14551335037359051 0 -0.11189856845971009 0.12566248249829609 0 -0.10901941698893521 0.14557465660866231 0 -0.1239111636881627 0.14551335037359051 0 -0.11189856845971009 0.12566248249829609 0 -0.098673753723558993 0.13757889365355219 0 -0.091730220224361211 0.12746149685899841 0 -0.11189856845971009 0.12566248249829609 0 -0.098673753723558993 0.13757889365355219 0 -0.10901941698893521 0.14557465660866231 0 -0.096097387031697901 0.15093505162158119 0 -0.10901941698893521 0.14557465660866231 0 -0.10848383811186151 0.1622888609988351 0 -0.098673753723558993 0.13757889365355219 0 -0.096097387031697901 0.15093505162158119 0 -0.10901941698893521 0.14557465660866231 0 -0.13267835803843411 0.15894091917248979 0 -0.1239111636881627 0.14551335037359051 0 -0.10848383811186151 0.1622888609988351 0 -0.10901941698893521 0.14557465660866231 0 -0.1239111636881627 0.14551335037359051 0 -0.10848383811186151 0.1622888609988351 0 -0.13267835803843411 0.15894091917248979 0 -0.1238947937100426 0.1743545000757869 0 -0.10848383811186151 0.1622888609988351 0 -0.1238947937100426 0.1743545000757869 0 -0.09755229005251026 0.18458774160305211 0 -0.10848383811186151 0.1622888609988351 0 -0.1238947937100426 0.1743545000757869 0 -0.09755229005251026 0.18458774160305211 0 -0.1088333282931141 0.19325588289515211 0 -0.1238947937100426 0.1743545000757869 0 -0.09755229005251026 0.18458774160305211 0 -0.1238947937100426 0.1743545000757869 0 -0.1228369648098183 0.19157836423330571 0 -0.1088333282931141 0.19325588289515211 0 -0.09755229005251026 0.18458774160305211 0 -0.10848383811186151 0.1622888609988351 0 -0.09336294068587879 0.17242006759583231 0 -0.09755229005251026 0.18458774160305211 0 -0.091726491308167582 0.17982175358740191 0 -0.09336294068587879 0.17242006759583231 0 -0.09755229005251026 0.18458774160305211 0 -0.09066339447450257 0.18500241193678529 0 -0.096287584503285631 0.19088292254024941 0 -0.096097387031697901 0.15093505162158119 0 -0.10848383811186151 0.1622888609988351 0 -0.092332973589932962 0.16176486543358271 0 -0.10848383811186151 0.1622888609988351 0 -0.092332973589932962 0.16176486543358271 0 -0.09336294068587879 0.17242006759583231 0 -0.092332973589932962 0.16176486543358271 0 -0.081141238878174551 0.16856603670450129 0 -0.09336294068587879 0.17242006759583231 0 -0.092332973589932962 0.16176486543358271 0 -0.081141238878174551 0.16856603670450129 0 -0.083801711912624144 0.15465705385340059 0 -0.081141238878174551 0.16856603670450129 0 -0.07353835510986996 0.15899132224259979 0 -0.083801711912624144 0.15465705385340059 0 -0.09755229005251026 0.18458774160305211 0 -0.09066339447450257 0.18500241193678529 0 -0.091726491308167582 0.17982175358740191 0 -0.09066339447450257 0.18500241193678529 0 -0.091726491308167582 0.17982175358740191 0 -0.085327340019778722 0.17727679321393769 0 -0.091726491308167582 0.17982175358740191 0 -0.09336294068587879 0.17242006759583231 0 -0.085327340019778722 0.17727679321393769 0 -0.081141238878174551 0.16856603670450129 0 -0.09336294068587879 0.17242006759583231 0 -0.085327340019778722 0.17727679321393769 0 -0.081141238878174551 0.16856603670450129 0 -0.085327340019778722 0.17727679321393769 0 -0.076638764097247236 0.1774129894493891 0 -0.085327340019778722 0.17727679321393769 0 -0.078703692664408353 0.18691245043337801 0 -0.076638764097247236 0.1774129894493891 0 -0.09066339447450257 0.18500241193678529 0 -0.085327340019778722 0.17727679321393769 0 -0.078703692664408353 0.18691245043337801 0 -0.066264893885961948 0.18437249628270319 0 -0.07175665503791262 0.16993717061242519 0 -0.062879087156076527 0.16404893305326551 0 -0.066264893885961948 0.18437249628270319 0 -0.062879087156076527 0.16404893305326551 0 -0.078703692664408353 0.18691245043337801 0 -0.076638764097247236 0.1774129894493891 0 -0.066264893885961948 0.18437249628270319 0 -0.081141238878174551 0.16856603670450129 0 -0.076638764097247236 0.1774129894493891 0 -0.07175665503791262 0.16993717061242519 0 -0.076638764097247236 0.1774129894493891 0 -0.066264893885961948 0.18437249628270319 0 -0.07175665503791262 0.16993717061242519 0 -0.081141238878174551 0.16856603670450129 0 -0.07353835510986996 0.15899132224259979 0 -0.07175665503791262 0.16993717061242519 0 -0.07353835510986996 0.15899132224259979 0 -0.07175665503791262 0.16993717061242519 0 -0.062879087156076527 0.16404893305326551 0 -0.07353835510986996 0.15899132224259979 0 -0.062879087156076527 0.16404893305326551 0 -0.067973377089238202 0.1514437544257308 0 -0.062879087156076527 0.16404893305326551 0 -0.067973377089238202 0.1514437544257308 0 -0.059493280426191113 0.1437253698238278 0 -0.07353835510986996 0.15899132224259979 0 -0.067973377089238202 0.1514437544257308 0 -0.076415410006448192 0.14713220288541151 0 -0.07353835510986996 0.15899132224259979 0 -0.076415410006448192 0.14713220288541151 0 -0.083801711912624144 0.15465705385340059 0 -0.067973377089238202 0.1514437544257308 0 -0.076415410006448192 0.14713220288541151 0 -0.069688790992790198 0.1434011360221471 0 -0.076415410006448192 0.14713220288541151 0 -0.069688790992790198 0.1434011360221471 0 -0.075795317247010441 0.13799859027901371 0 -0.069688790992790198 0.1434011360221471 0 -0.06876657019506309 0.1367057626967518 0 -0.059493280426191113 0.1437253698238278 0 -0.067973377089238202 0.1514437544257308 0 -0.069688790992790198 0.1434011360221471 0 -0.059493280426191113 0.1437253698238278 0 -0.06876657019506309 0.1367057626967518 0 -0.065250091528402929 0.1287463732894033 0 -0.059493280426191113 0.1437253698238278 0 -0.06876657019506309 0.1367057626967518 0 -0.065250091528402929 0.1287463732894033 0 -0.074104704471125687 0.12947736917812719 0 -0.065250091528402929 0.1287463732894033 0 -0.074104704471125687 0.12947736917812719 0 -0.070920758885679891 0.122612280453199 0 -0.074104704471125687 0.12947736917812719 0 -0.075795317247010441 0.13799859027901371 0 -0.081726162392826041 0.1306998339025463 0 -0.06876657019506309 0.1367057626967518 0 -0.074104704471125687 0.12947736917812719 0 -0.075795317247010441 0.13799859027901371 0 -0.069688790992790198 0.1434011360221471 0 -0.06876657019506309 0.1367057626967518 0 -0.075795317247010441 0.13799859027901371 0 -0.075795317247010441 0.13799859027901371 0 -0.081726162392826041 0.1306998339025463 0 -0.086218303668994481 0.14065542888769611 0 -0.081726162392826041 0.1306998339025463 0 -0.091730220224361211 0.12746149685899841 0 -0.080623491526222016 0.1199931131298478 0 -0.074104704471125687 0.12947736917812719 0 -0.081726162392826041 0.1306998339025463 0 -0.080623491526222016 0.1199931131298478 0 -0.098673753723558993 0.13757889365355219 0 -0.091730220224361211 0.12746149685899841 0 -0.086218303668994481 0.14065542888769611 0 -0.081726162392826041 0.1306998339025463 0 -0.091730220224361211 0.12746149685899841 0 -0.086218303668994481 0.14065542888769611 0 -0.098673753723558993 0.13757889365355219 0 -0.096097387031697901 0.15093505162158119 0 -0.086218303668994481 0.14065542888769611 0 -0.096097387031697901 0.15093505162158119 0 -0.092332973589932962 0.16176486543358271 0 -0.083801711912624144 0.15465705385340059 0 -0.096097387031697901 0.15093505162158119 0 -0.086218303668994481 0.14065542888769611 0 -0.083801711912624144 0.15465705385340059 0 -0.076415410006448192 0.14713220288541151 0 -0.086218303668994481 0.14065542888769611 0 -0.083801711912624144 0.15465705385340059 0 -0.076415410006448192 0.14713220288541151 0 -0.075795317247010441 0.13799859027901371 0 -0.086218303668994481 0.14065542888769611 0 -0.098434194655151852 0.25359205744849089 0 -0.10321315291967641 0.2383374531399286 0 -0.090909141276767719 0.24568707827447131 0 -0.10321315291967641 0.2383374531399286 0 -0.1228336577714793 0.24442535321989489 0 -0.10321315291967641 0.2383374531399286 0 -0.1228336577714793 0.24442535321989489 0 -0.12405448318332241 0.23615031783259799 0 -0.10321315291967641 0.2383374531399286 0 -0.12405448318332241 0.23615031783259799 0 -0.1201215298800582 0.22876800764800431 0 -0.1130949171957656 0.25907730933210138 0 -0.10321315291967641 0.2383374531399286 0 -0.1228336577714793 0.24442535321989489 0 -0.10321315291967641 0.2383374531399286 0 -0.1201215298800582 0.22876800764800431 0 -0.1076125114805062 0.2238753613480671 0 -0.12405448318332241 0.23615031783259799 0 -0.1201215298800582 0.22876800764800431 0 -0.1248188876052452 0.22724521090494579 0 -0.12808143729227359 0.21365777151523749 0 -0.1201215298800582 0.22876800764800431 0 -0.1167998821472946 0.21574788458080241 0 -0.1201215298800582 0.22876800764800431 0 -0.1076125114805062 0.2238753613480671 0 -0.1167998821472946 0.21574788458080241 0 -0.10321315291967641 0.2383374531399286 0 -0.095662588999315151 0.2242431803433993 0 -0.083592648067873296 0.232249553059963 0 -0.1076125114805062 0.2238753613480671 0 -0.095662588999315151 0.2242431803433993 0 -0.1051743507671718 0.20900963788930779 0 -0.10321315291967641 0.2383374531399286 0 -0.1076125114805062 0.2238753613480671 0 -0.095662588999315151 0.2242431803433993 0 -0.095662588999315151 0.2242431803433993 0 -0.1051743507671718 0.20900963788930779 0 -0.08621353126473344 0.21473665821857851 0 -0.1051743507671718 0.20900963788930779 0 -0.094950855915543975 0.19880001647090501 0 -0.08621353126473344 0.21473665821857851 0 -0.1051743507671718 0.20900963788930779 0 -0.08621353126473344 0.21473665821857851 0 -0.1076125114805062 0.2238753613480671 0 -0.1051743507671718 0.20900963788930779 0 -0.1167998821472946 0.21574788458080241 0 -0.1051743507671718 0.20900963788930779 0 -0.12413517026960991 0.20328261756003591 0 -0.1051743507671718 0.20900963788930779 0 -0.1167998821472946 0.21574788458080241 0 -0.12413517026960991 0.20328261756003591 0 -0.12808143729227359 0.21365777151523749 0 -0.1167998821472946 0.21574788458080241 0 -0.12413517026960991 0.20328261756003591 0 -0.1051743507671718 0.20900963788930779 0 -0.12413517026960991 0.20328261756003591 0 -0.1088333282931141 0.19325588289515211 0 -0.12413517026960991 0.20328261756003591 0 -0.1228369648098183 0.19157836423330571 0 -0.1088333282931141 0.19325588289515211 0 -0.1051743507671718 0.20900963788930779 0 -0.1088333282931141 0.19325588289515211 0 -0.094950855915543975 0.19880001647090501 0 -0.09755229005251026 0.18458774160305211 0 -0.1088333282931141 0.19325588289515211 0 -0.096287584503285631 0.19088292254024941 0 -0.09066339447450257 0.18500241193678529 0 -0.094950855915543975 0.19880001647090501 0 -0.096287584503285631 0.19088292254024941 0 -0.1088333282931141 0.19325588289515211 0 -0.094950855915543975 0.19880001647090501 0 -0.096287584503285631 0.19088292254024941 0 -0.09066339447450257 0.18500241193678529 0 -0.081242199341161087 0.19831760678225219 0 -0.08621353126473344 0.21473665821857851 0 -0.09066339447450257 0.18500241193678529 0 -0.094950855915543975 0.19880001647090501 0 -0.08621353126473344 0.21473665821857851 0 -0.09066339447450257 0.18500241193678529 0 -0.08621353126473344 0.21473665821857851 0 -0.09066339447450257 0.18500241193678529 0 -0.078703692664408353 0.18691245043337801 0 -0.081242199341161087 0.19831760678225219 0 -0.078703692664408353 0.18691245043337801 0 -0.066264893885961948 0.18437249628270319 0 -0.071219636088363056 0.1962151721444241 0 -0.078703692664408353 0.18691245043337801 0 -0.081242199341161087 0.19831760678225219 0 -0.071219636088363056 0.1962151721444241 0 -0.066264893885961948 0.18437249628270319 0 -0.071219636088363056 0.1962151721444241 0 -0.058315133835868907 0.1898060950754723 0 -0.071219636088363056 0.1962151721444241 0 -0.062821092003032028 0.20410820832987109 0 -0.058315133835868907 0.1898060950754723 0 -0.071219636088363056 0.1962151721444241 0 -0.07355342858175809 0.2076328862598841 0 -0.062821092003032028 0.20410820832987109 0 -0.081242199341161087 0.19831760678225219 0 -0.071219636088363056 0.1962151721444241 0 -0.07355342858175809 0.2076328862598841 0 -0.07355342858175809 0.2076328862598841 0 -0.062821092003032028 0.20410820832987109 0 -0.0577518811680994 0.22333335672557669 0 -0.07355342858175809 0.2076328862598841 0 -0.08621353126473344 0.21473665821857851 0 -0.0577518811680994 0.22333335672557669 0 -0.081242199341161087 0.19831760678225219 0 -0.07355342858175809 0.2076328862598841 0 -0.08621353126473344 0.21473665821857851 0 -0.095662588999315151 0.2242431803433993 0 -0.08621353126473344 0.21473665821857851 0 -0.083592648067873296 0.232249553059963 0 -0.08621353126473344 0.21473665821857851 0 -0.083592648067873296 0.232249553059963 0 -0.08621353126473344 0.21473665821857851 0 -0.083592648067873296 0.232249553059963 0 -0.060706944196038892 0.2251485187347104 0 -0.067578588882820742 0.24363817085521811 0 -0.0577518811680994 0.22333335672557669 0 -0.08621353126473344 0.21473665821857851 0 -0.0577518811680994 0.22333335672557669 0 -0.08621353126473344 0.21473665821857851 0 -0.060706944196038892 0.2251485187347104 0 -0.0577518811680994 0.22333335672557669 0 -0.083592648067873296 0.232249553059963 0 -0.067578588882820742 0.24363817085521811 0 -0.060706944196038892 0.2251485187347104 0 -0.083592648067873296 0.232249553059963 0 -0.060706944196038892 0.2251485187347104 0 -0.079996925635204746 0.25627638070248449 0 -0.083592648067873296 0.232249553059963 0 -0.067578588882820742 0.24363817085521811 0 -0.10321315291967641 0.2383374531399286 0 -0.083592648067873296 0.232249553059963 0 -0.090909141276767719 0.24568707827447131 0 -0.079996925635204746 0.25627638070248449 0 -0.083592648067873296 0.232249553059963 0 -0.10321315291967641 0.2383374531399286 0 -0.083592648067873296 0.232249553059963 0 -0.079996925635204746 0.25627638070248449 0 -0.083592648067873296 0.232249553059963 0 -0.090909141276767719 0.24568707827447131 0 -0.045437231683510118 0.25176175338703799 0 -0.03067695542781158 0.25696212032607801 0 -0.02095094312725191 0.23881936749086971 0 -0.045437231683510118 0.25176175338703799 0 -0.02095094312725191 0.23881936749086971 0 -0.045437231683510118 0.25176175338703799 0 -0.02095094312725191 0.23881936749086971 0 -0.029760347238771849 0.23534514472321111 0 -0.045437231683510118 0.25176175338703799 0 -0.035812252025579812 0.23160293829453071 0 -0.029760347238771849 0.23534514472321111 0 -0.045437231683510118 0.25176175338703799 0 -0.035812252025579812 0.23160293829453071 0 -0.045437231683510118 0.25176175338703799 0 -0.042906570843878167 0.23400195750542141 0 -0.035812252025579812 0.23160293829453071 0 -0.045437231683510118 0.25176175338703799 0 -0.053334997349648333 0.23802014371972899 0 -0.042906570843878167 0.23400195750542141 0 -0.067578588882820742 0.24363817085521811 0 -0.053334997349648333 0.23802014371972899 0 -0.0577518811680994 0.22333335672557669 0 -0.045437231683510118 0.25176175338703799 0 -0.056712690044116429 0.24828582856676401 0 -0.053334997349648333 0.23802014371972899 0 -0.067578588882820742 0.24363817085521811 0 -0.056712690044116429 0.24828582856676401 0 -0.053334997349648333 0.23802014371972899 0 -0.053334997349648333 0.23802014371972899 0 -0.047699478671301851 0.23125396911402199 0 -0.042906570843878167 0.23400195750542141 0 -0.047699478671301851 0.23125396911402199 0 -0.0577518811680994 0.22333335672557669 0 -0.036804465323581503 0.22966041850536081 0 -0.053334997349648333 0.23802014371972899 0 -0.047699478671301851 0.23125396911402199 0 -0.0577518811680994 0.22333335672557669 0 -0.0577518811680994 0.22333335672557669 0 -0.036804465323581503 0.22966041850536081 0 -0.067578588882820742 0.24363817085521811 0 -0.060706944196038892 0.2251485187347104 0 -0.0577518811680994 0.22333335672557669 0 -0.036804465323581503 0.22966041850536081 0 -0.035812252025579812 0.23160293829453071 0 -0.026187272367648909 0.2114441232020236 0 -0.0577518811680994 0.22333335672557669 0 -0.036804465323581503 0.22966041850536081 0 -0.041516048806167438 0.21552114793936331 0 -0.036804465323581503 0.22966041850536081 0 -0.041516048806167438 0.21552114793936331 0 -0.026187272367648909 0.2114441232020236 0 -0.047699478671301851 0.23125396911402199 0 -0.042906570843878167 0.23400195750542141 0 -0.036804465323581503 0.22966041850536081 0 -0.035812252025579812 0.23160293829453071 0 -0.028878035791205129 0.2265164812131138 0 -0.029760347238771849 0.23534514472321111 0 -0.042906570843878167 0.23400195750542141 0 -0.036804465323581503 0.22966041850536081 0 -0.035812252025579812 0.23160293829453071 0 -0.041516048806167438 0.21552114793936331 0 -0.045320576365339947 0.19764669332449211 0 -0.026187272367648909 0.2114441232020236 0 -0.062821092003032028 0.20410820832987109 0 -0.0577518811680994 0.22333335672557669 0 -0.045320576365339947 0.19764669332449211 0 -0.0577518811680994 0.22333335672557669 0 -0.045320576365339947 0.19764669332449211 0 -0.0577518811680994 0.22333335672557669 0 -0.041516048806167438 0.21552114793936331 0 -0.045320576365339947 0.19764669332449211 0 -0.062821092003032028 0.20410820832987109 0 -0.058315133835868907 0.1898060950754723 0 -0.045320576365339947 0.19764669332449211 0 -0.058315133835868907 0.1898060950754723 0 -0.045320576365339947 0.19764669332449211 0 -0.047375559133274368 0.18100334445826491 0 -0.045320576365339947 0.19764669332449211 0 -0.030239853251322061 0.19308403863985979 0 -0.032889271562581368 0.17196002992340709 0 -0.045320576365339947 0.19764669332449211 0 -0.030239853251322061 0.19308403863985979 0 -0.026187272367648909 0.2114441232020236 0 -0.030239853251322061 0.19308403863985979 0 -0.01656229270971803 0.19128530810951669 0 -0.026187272367648909 0.2114441232020236 0 -0.01656229270971803 0.19128530810951669 0 -0.01367446187186812 0.2032429511627627 0 -0.026187272367648909 0.2114441232020236 0 -0.01656229270971803 0.19128530810951669 0 -0.026187272367648909 0.2114441232020236 0 -0.0075829514464992621 0.1849322941617467 0 0.0063827717358030632 0.20264123217486221 0 -0.01237736087050894 0.18798491754449881 0 -0.01367446187186812 0.2032429511627627 0 -0.001995617986719397 0.21148658785678021 0 -0.01237736087050894 0.18798491754449881 0 0.0063827717358030632 0.20264123217486221 0 -0.01237736087050894 0.18798491754449881 0 -0.0075829514464992621 0.1849322941617467 0 0.0063827717358030632 0.20264123217486221 0 -0.01237736087050894 0.18798491754449881 0 -0.001995617986719397 0.21148658785678021 0 0.0063827717358030632 0.20264123217486221 0 -0.01656229270971803 0.19128530810951669 0 -0.01237736087050894 0.18798491754449881 0 -0.01367446187186812 0.2032429511627627 0 -0.01237736087050894 0.18798491754449881 0 -0.001995617986719397 0.21148658785678021 0 -0.01367446187186812 0.2032429511627627 0 -0.001995617986719397 0.21148658785678021 0 -0.01213479354333157 0.2138078566692789 0 -0.001995617986719397 0.21148658785678021 0 -0.01213479354333157 0.2138078566692789 0 -0.005705330694576103 0.2188486019354606 0 -0.001995617986719397 0.21148658785678021 0 -0.005705330694576103 0.2188486019354606 0 0.0042264113753839021 0.22557170674079849 0 -0.01213479354333157 0.2138078566692789 0 -0.026187272367648909 0.2114441232020236 0 -0.013111284795845351 0.2240170191893672 0 -0.01367446187186812 0.2032429511627627 0 -0.01213479354333157 0.2138078566692789 0 -0.026187272367648909 0.2114441232020236 0 -0.035812252025579812 0.23160293829453071 0 -0.026187272367648909 0.2114441232020236 0 -0.035812252025579812 0.23160293829453071 0 -0.026187272367648909 0.2114441232020236 0 -0.028878035791205129 0.2265164812131138 0 -0.026187272367648909 0.2114441232020236 0 -0.028878035791205129 0.2265164812131138 0 -0.023752271532819981 0.2276737186326899 0 -0.026187272367648909 0.2114441232020236 0 -0.023752271532819981 0.2276737186326899 0 -0.013111284795845351 0.2240170191893672 0 -0.023752271532819981 0.2276737186326899 0 -0.02095094312725191 0.23881936749086971 0 -0.029760347238771849 0.23534514472321111 0 -0.028878035791205129 0.2265164812131138 0 -0.023752271532819981 0.2276737186326899 0 -0.029760347238771849 0.23534514472321111 0 -0.023752271532819981 0.2276737186326899 0 -0.013111284795845351 0.2240170191893672 0 -0.02095094312725191 0.23881936749086971 0 -0.02095094312725191 0.23881936749086971 0 0.0042264113753839021 0.22557170674079849 0 -0.013111284795845351 0.2240170191893672 0 -0.02095094312725191 0.23881936749086971 0 0.0042264113753839021 0.22557170674079849 0 -0.013111284795845351 0.2240170191893672 0 -0.005705330694576103 0.2188486019354606 0 0.0042264113753839021 0.22557170674079849 0 -0.01213479354333157 0.2138078566692789 0 -0.013111284795845351 0.2240170191893672 0 -0.005705330694576103 0.2188486019354606 0 -0.018566296301133871 0.25665269269268071 0 -0.0026056055883075658 0.24895329681263881 0 -0.02095094312725191 0.23881936749086971 0 -0.0026056055883075658 0.24895329681263881 0 -0.02095094312725191 0.23881936749086971 0 0.0042264113753839021 0.22557170674079849 0 -0.03802602409436593 0.14632960388839139 0 -0.056248899860905373 0.15371036883767311 0 -0.02934117145641681 0.16462863112123249 0 -0.03802602409436593 0.14632960388839139 0 -0.054503373559930297 0.1254358516281516 0 -0.03802602409436593 0.14632960388839139 0 -0.036907119312978527 0.1285031003037912 0 -0.054503373559930297 0.1254358516281516 0 -0.03802602409436593 0.14632960388839139 0 -0.036907119312978527 0.1285031003037912 0 -0.027639061783294609 0.1370808625216357 0 -0.056711552995528387 0.1270278386785611 0 -0.059493280426191113 0.1437253698238278 0 -0.03802602409436593 0.14632960388839139 0 -0.056711552995528387 0.1270278386785611 0 -0.059493280426191113 0.1437253698238278 0 -0.03802602409436593 0.14632960388839139 0 -0.054503373559930297 0.1254358516281516 0 -0.056711552995528387 0.1270278386785611 0 -0.065250091528402929 0.1287463732894033 0 -0.056711552995528387 0.1270278386785611 0 -0.059493280426191113 0.1437253698238278 0 -0.065250091528402929 0.1287463732894033 0 -0.056107473696304561 0.1234018065943904 0 -0.061128465846185073 0.1231052270537922 0 -0.065250091528402929 0.1287463732894033 0 -0.056711552995528387 0.1270278386785611 0 -0.056107473696304561 0.1234018065943904 0 -0.054503373559930297 0.1254358516281516 0 -0.056711552995528387 0.1270278386785611 0 -0.054503373559930297 0.1254358516281516 0 -0.056711552995528387 0.1270278386785611 0 -0.056107473696304561 0.1234018065943904 0 -0.056711552995528387 0.1270278386785611 0 -0.056107473696304561 0.1234018065943904 0 -0.03802602409436593 0.14632960388839139 0 -0.059493280426191113 0.1437253698238278 0 -0.056248899860905373 0.15371036883767311 0 -0.062879087156076527 0.16404893305326551 0 -0.059493280426191113 0.1437253698238278 0 -0.062879087156076527 0.16404893305326551 0 -0.059493280426191113 0.1437253698238278 0 -0.056248899860905373 0.15371036883767311 0 -0.062879087156076527 0.16404893305326551 0 -0.056248899860905373 0.15371036883767311 0 -0.05601267161504634 0.16514361220868309 0 -0.062879087156076527 0.16404893305326551 0 -0.05601267161504634 0.16514361220868309 0 -0.056889045539242213 0.1754906559130788 0 -0.05601267161504634 0.16514361220868309 0 -0.048033653903961263 0.16732449103071501 0 -0.056889045539242213 0.1754906559130788 0 -0.056248899860905373 0.15371036883767311 0 -0.05601267161504634 0.16514361220868309 0 -0.048033653903961263 0.16732449103071501 0 -0.066264893885961948 0.18437249628270319 0 -0.062879087156076527 0.16404893305326551 0 -0.056889045539242213 0.1754906559130788 0 -0.066264893885961948 0.18437249628270319 0 -0.058315133835868907 0.1898060950754723 0 -0.056889045539242213 0.1754906559130788 0 -0.048033653903961263 0.16732449103071501 0 -0.056889045539242213 0.1754906559130788 0 -0.047375559133274368 0.18100334445826491 0 -0.058315133835868907 0.1898060950754723 0 -0.056889045539242213 0.1754906559130788 0 -0.047375559133274368 0.18100334445826491 0 -0.045320576365339947 0.19764669332449211 0 -0.047375559133274368 0.18100334445826491 0 -0.032889271562581368 0.17196002992340709 0 -0.045320576365339947 0.19764669332449211 0 -0.032889271562581368 0.17196002992340709 0 -0.048033653903961263 0.16732449103071501 0 -0.047375559133274368 0.18100334445826491 0 -0.032889271562581368 0.17196002992340709 0 -0.056248899860905373 0.15371036883767311 0 -0.032889271562581368 0.17196002992340709 0 -0.056248899860905373 0.15371036883767311 0 -0.032889271562581368 0.17196002992340709 0 -0.02934117145641681 0.16462863112123249 0 -0.056248899860905373 0.15371036883767311 0 -0.048033653903961263 0.16732449103071501 0 -0.032889271562581368 0.17196002992340709 0 -0.03802602409436593 0.14632960388839139 0 -0.021548674628802399 0.16722335614863171 0 -0.03802602409436593 0.14632960388839139 0 -0.02934117145641681 0.16462863112123249 0 -0.021548674628802399 0.16722335614863171 0 -0.03802602409436593 0.14632960388839139 0 -0.021548674628802399 0.16722335614863171 0 -0.02332565116567481 0.16320072553740561 0 -0.032889271562581368 0.17196002992340709 0 -0.02934117145641681 0.16462863112123249 0 -0.021548674628802399 0.16722335614863171 0 -0.032889271562581368 0.17196002992340709 0 -0.02934117145641681 0.16462863112123249 0 -0.021548674628802399 0.16722335614863171 0 -0.02332565116567481 0.16320072553740561 0 -0.02332565116567481 0.16320072553740561 0 -0.01297643594022368 0.16056462110032041 0 -0.017809827156933151 0.15530315557062349 0 -0.021548674628802399 0.16722335614863171 0 -0.02332565116567481 0.16320072553740561 0 -0.01297643594022368 0.16056462110032041 0 -0.01656229270971803 0.19128530810951669 0 -0.01237736087050894 0.18798491754449881 0 -0.032889271562581368 0.17196002992340709 0 -0.030239853251322061 0.19308403863985979 0 -0.01656229270971803 0.19128530810951669 0 -0.032889271562581368 0.17196002992340709 0 -0.01237736087050894 0.18798491754449881 0 -0.021548674628802399 0.16722335614863171 0 -0.01237736087050894 0.18798491754449881 0 -0.032889271562581368 0.17196002992340709 0 -0.021548674628802399 0.16722335614863171 0 -0.01237736087050894 0.18798491754449881 0 -0.032889271562581368 0.17196002992340709 0 -0.021548674628802399 0.16722335614863171 0 -0.0075829514464992621 0.1849322941617467 0 -0.0044038107806405082 0.16985632141771759 0 -0.01237736087050894 0.18798491754449881 0 -0.021548674628802399 0.16722335614863171 0 -0.0075829514464992621 0.1849322941617467 0 -0.021548674628802399 0.16722335614863171 0 -0.0075829514464992621 0.1849322941617467 0 -0.0075829514464992621 0.1849322941617467 0 -0.0044038107806405082 0.16985632141771759 0 0.0096382588945957519 0.1876603216572042 0 -0.021548674628802399 0.16722335614863171 0 -0.01297643594022368 0.16056462110032041 0 -0.0044038107806405082 0.16985632141771759 0 -0.01297643594022368 0.16056462110032041 0 -0.0044038107806405082 0.16985632141771759 0 -0.002616345114230932 0.15504128183753721 0 -0.002616345114230932 0.15504128183753721 0 -0.0097137871811661513 0.1483388793135971 0 0.0061287859223852067 0.1350776176849659 0 -0.01297643594022368 0.16056462110032041 0 -0.002616345114230932 0.15504128183753721 0 -0.0097137871811661513 0.1483388793135971 0 -0.01297643594022368 0.16056462110032041 0 -0.0097137871811661513 0.1483388793135971 0 -0.017809827156933151 0.15530315557062349 0 -0.0097137871811661513 0.1483388793135971 0 -0.017809827156933151 0.15530315557062349 0 -0.02331079562616761 0.1483477571246819 0 -0.03802602409436593 0.14632960388839139 0 -0.02332565116567481 0.16320072553740561 0 -0.02331079562616761 0.1483477571246819 0 -0.02332565116567481 0.16320072553740561 0 -0.017809827156933151 0.15530315557062349 0 -0.02331079562616761 0.1483477571246819 0 -0.0097137871811661513 0.1483388793135971 0 -0.02331079562616761 0.1483477571246819 0 -0.01762693565229401 0.13884695264602909 0 -0.02331079562616761 0.1483477571246819 0 -0.027639061783294609 0.1370808625216357 0 -0.01762693565229401 0.13884695264602909 0 -0.03802602409436593 0.14632960388839139 0 -0.02331079562616761 0.1483477571246819 0 -0.027639061783294609 0.1370808625216357 0 -0.036907119312978527 0.1285031003037912 0 -0.027639061783294609 0.1370808625216357 0 -0.018933038337601089 0.12599277341977461 0 -0.027639061783294609 0.1370808625216357 0 -0.01762693565229401 0.13884695264602909 0 -0.018933038337601089 0.12599277341977461 0 -0.0097137871811661513 0.1483388793135971 0 -0.0082992991132894468 0.13465860365834539 0 0.0061287859223852067 0.1350776176849659 0 -0.018933038337601089 0.12599277341977461 0 -0.0082992991132894468 0.13465860365834539 0 -0.0035236072963641522 0.1223087619485858 0 -0.0097137871811661513 0.1483388793135971 0 -0.01762693565229401 0.13884695264602909 0 -0.0082992991132894468 0.13465860365834539 0 -0.01762693565229401 0.13884695264602909 0 -0.018933038337601089 0.12599277341977461 0 -0.0082992991132894468 0.13465860365834539 0 -0.0082992991132894468 0.13465860365834539 0 -0.0035236072963641522 0.1223087619485858 0 0.0061287859223852067 0.1350776176849659 0 -0.018933038337601089 0.12599277341977461 0 -0.0035236072963641522 0.1223087619485858 0 -0.0095174190183631227 0.11578078572049159 0 -0.018933038337601089 0.12599277341977461 0 -0.0095174190183631227 0.11578078572049159 0 -0.01753527720781628 0.1125586582830234 0 -0.0095174190183631227 0.11578078572049159 0 -0.0078217045402907866 0.1073091720909376 0 -0.01753527720781628 0.1125586582830234 0 -0.0095174190183631227 0.11578078572049159 0 -0.0078217045402907866 0.1073091720909376 0 0.00022653229025670389 0.11073456286013671 0 -0.0035236072963641522 0.1223087619485858 0 -0.0095174190183631227 0.11578078572049159 0 0.00022653229025670389 0.11073456286013671 0 -0.0078749990535523784 0.098562482563056206 0 0.0007935816666427137 0.105797794714191 0 -0.0078749990535523784 0.098562482563056206 0 -0.0078217045402907866 0.1073091720909376 0 0.0007935816666427137 0.105797794714191 0 -0.0078749990535523784 0.098562482563056206 0 0.0029320278621630118 0.087180345335934856 0 0.0007935816666427137 0.105797794714191 0 -0.0078217045402907866 0.1073091720909376 0 0.0007935816666427137 0.105797794714191 0 0.00022653229025670389 0.11073456286013671 0 -0.0078749990535523784 0.098562482563056206 0 -0.02140061000690606 0.095241999690398288 0 -0.0077982023571719246 0.090282475327728429 0 -0.0078749990535523784 0.098562482563056206 0 -0.016752381106248229 0.1034590037963368 0 -0.02140061000690606 0.095241999690398288 0 -0.0078217045402907866 0.1073091720909376 0 -0.016752381106248229 0.1034590037963368 0 -0.01753527720781628 0.1125586582830234 0 -0.0078749990535523784 0.098562482563056206 0 -0.0078217045402907866 0.1073091720909376 0 -0.016752381106248229 0.1034590037963368 0 -0.02140061000690606 0.095241999690398288 0 -0.037951991783418883 0.1103389256592742 0 -0.016752381106248229 0.1034590037963368 0 -0.01753527720781628 0.1125586582830234 0 -0.037951991783418883 0.1103389256592742 0 -0.016752381106248229 0.1034590037963368 0 -0.02140061000690606 0.095241999690398288 0 -0.037951991783418883 0.1103389256592742 0 -0.018933038337601089 0.12599277341977461 0 -0.01753527720781628 0.1125586582830234 0 -0.037951991783418883 0.1103389256592742 0 -0.013164902030022241 0.069935539414423015 0 -0.0048492282303920931 0.080145073721523519 0 -0.02200413048082497 0.07032291851014752 0 -0.0048492282303920931 0.080145073721523519 0 -0.025998107513481319 0.074880437012516066 0 -0.0088205722318333984 0.067659222779514236 0 -0.0091362934134955852 0.055837541371496921 0 0.0020429074551330038 0.073858585764393483 0 -0.0088205722318333984 0.067659222779514236 0 -0.013164902030022241 0.069935539414423015 0 -0.016985677177038298 0.061614942646505952 0 -0.0088205722318333984 0.067659222779514236 0 -0.0048492282303920931 0.080145073721523519 0 0.0020429074551330038 0.073858585764393483 0 -0.0048492282303920931 0.080145073721523519 0 0.0020429074551330038 0.073858585764393483 0 -0.0088205722318333984 0.067659222779514236 0 -0.013164902030022241 0.069935539414423015 0 -0.0048492282303920931 0.080145073721523519 0 -0.02140061000690606 0.095241999690398288 0 -0.0048492282303920931 0.080145073721523519 0 -0.0077982023571719246 0.090282475327728429 0 -0.02140061000690606 0.095241999690398288 0 -0.0048492282303920931 0.080145073721523519 0 -0.0048492282303920931 0.080145073721523519 0 -0.0077982023571719246 0.090282475327728429 0 0.0029320278621630118 0.087180345335934856 0 -0.0048492282303920931 0.080145073721523519 0 0.0035013487700014741 0.082223801091856674 0 -0.0078749990535523784 0.098562482563056206 0 -0.0077982023571719246 0.090282475327728429 0 0.0029320278621630118 0.087180345335934856 0 -0.02140061000690606 0.095241999690398288 0 -0.025998107513481319 0.074880437012516066 0 -0.036842768269834882 0.08802890768868625 0 -0.02140061000690606 0.095241999690398288 0 -0.0048492282303920931 0.080145073721523519 0 -0.025998107513481319 0.074880437012516066 0 -0.0048492282303920931 0.080145073721523519 0 -0.02200413048082497 0.07032291851014752 0 -0.025998107513481319 0.074880437012516066 0 -0.02200413048082497 0.07032291851014752 0 -0.025998107513481319 0.074880437012516066 0 -0.034841854300234877 0.068600280794859872 0 -0.02200413048082497 0.07032291851014752 0 -0.016985677177038298 0.061614942646505952 0 -0.03001806134922947 0.058699203422127033 0 -0.013164902030022241 0.069935539414423015 0 -0.02200413048082497 0.07032291851014752 0 -0.016985677177038298 0.061614942646505952 0 -0.025998107513481319 0.074880437012516066 0 -0.034841854300234877 0.068600280794859872 0 -0.047146986796569597 0.069615800303504449 0 -0.025998107513481319 0.074880437012516066 0 -0.047146986796569597 0.069615800303504449 0 -0.02200413048082497 0.07032291851014752 0 -0.03817706802538659 0.064358044842456608 0 -0.034841854300234877 0.068600280794859872 0 -0.025998107513481319 0.074880437012516066 0 -0.036842768269834882 0.08802890768868625 0 -0.047146986796569597 0.069615800303504449 0 -0.02200413048082497 0.07032291851014752 0 -0.03817706802538659 0.064358044842456608 0 -0.04473364324790978 0.055129521517232417 0 -0.02200413048082497 0.07032291851014752 0 -0.04473364324790978 0.055129521517232417 0 -0.041102691973234899 0.066036362634620621 0 -0.034841854300234877 0.068600280794859872 0 -0.047146986796569597 0.069615800303504449 0 -0.04308653148000377 0.064333169372715701 0 -0.044946944214942219 0.066188843614966561 0 -0.041102691973234899 0.066036362634620621 0 -0.04308653148000377 0.064333169372715701 0 -0.046401310731219919 0.06513982282698641 0 -0.044946944214942219 0.066188843614966561 0 -0.04308653148000377 0.064333169372715701 0 -0.046401310731219919 0.06513982282698641 0 -0.043293556670112143 0.061726016225163292 0 -0.046401310731219919 0.06513982282698641 0 -0.044946944214942219 0.066188843614966561 0 -0.046401310731219919 0.06513982282698641 0 -0.044946944214942219 0.066188843614966561 0 -0.047146986796569597 0.069615800303504449 0 -0.046401310731219919 0.06513982282698641 0 -0.047146986796569597 0.069615800303504449 0 -0.044946944214942219 0.066188843614966561 0 -0.041102691973234899 0.066036362634620621 0 -0.047146986796569597 0.069615800303504449 0 -0.04308653148000377 0.064333169372715701 0 -0.041102691973234899 0.066036362634620621 0 -0.03817706802538659 0.064358044842456608 0 -0.04308653148000377 0.064333169372715701 0 -0.03817706802538659 0.064358044842456608 0 -0.043293556670112143 0.061726016225163292 0 -0.041102691973234899 0.066036362634620621 0 -0.03817706802538659 0.064358044842456608 0 -0.034841854300234877 0.068600280794859872 0 -0.036842768269834882 0.08802890768868625 0 -0.047146986796569597 0.069615800303504449 0 -0.051627230246437519 0.096508803448947342 0 -0.047146986796569597 0.069615800303504449 0 -0.051627230246437519 0.096508803448947342 0 -0.065345940743060354 0.08107369462484873 0 -0.047146986796569597 0.069615800303504449 0 -0.051627230246437519 0.096508803448947342 0 -0.051627230246437519 0.096508803448947342 0 -0.064974804915673534 0.092724921429007234 0 -0.065345940743060354 0.08107369462484873 0 -0.046401310731219919 0.06513982282698641 0 -0.047146986796569597 0.069615800303504449 0 -0.067530464115447456 0.064541696777085614 0 -0.047146986796569597 0.069615800303504449 0 -0.065345940743060354 0.08107369462484873 0 -0.067530464115447456 0.064541696777085614 0 -0.047146986796569597 0.069615800303504449 0 -0.067530464115447456 0.064541696777085614 0 -0.036907119312978527 0.1285031003037912 0 -0.018933038337601089 0.12599277341977461 0 -0.037951991783418883 0.1103389256592742 0 -0.036907119312978527 0.1285031003037912 0 -0.054503373559930297 0.1254358516281516 0 -0.037951991783418883 0.1103389256592742 0 -0.054503373559930297 0.1254358516281516 0 -0.037951991783418883 0.1103389256592742 0 -0.02140061000690606 0.095241999690398288 0 -0.036842768269834882 0.08802890768868625 0 -0.037951991783418883 0.1103389256592742 0 -0.036842768269834882 0.08802890768868625 0 -0.037951991783418883 0.1103389256592742 0 -0.051627230246437519 0.096508803448947342 0 -0.051627230246437519 0.096508803448947342 0 -0.063397710311600922 0.1124598023047038 0 -0.068748806460680642 0.10191113560718371 0 -0.051627230246437519 0.096508803448947342 0 -0.068748806460680642 0.10191113560718371 0 -0.064974804915673534 0.092724921429007234 0 -0.037951991783418883 0.1103389256592742 0 -0.051627230246437519 0.096508803448947342 0 -0.056107473696304561 0.1234018065943904 0 -0.051627230246437519 0.096508803448947342 0 -0.056107473696304561 0.1234018065943904 0 -0.051627230246437519 0.096508803448947342 0 -0.056107473696304561 0.1234018065943904 0 -0.057611695453897473 0.12149441021287059 0 -0.054503373559930297 0.1254358516281516 0 -0.037951991783418883 0.1103389256592742 0 -0.056107473696304561 0.1234018065943904 0 -0.051627230246437519 0.096508803448947342 0 -0.057611695453897473 0.12149441021287059 0 -0.063397710311600922 0.1124598023047038 0 -0.056107473696304561 0.1234018065943904 0 -0.057611695453897473 0.12149441021287059 0 -0.061128465846185073 0.1231052270537922 0 -0.057611695453897473 0.12149441021287059 0 -0.061934448559457671 0.1194662138637432 0 -0.063397710311600922 0.1124598023047038 0 -0.054503373559930297 0.1254358516281516 0 -0.056107473696304561 0.1234018065943904 0 -0.056107473696304561 0.1234018065943904 0 -0.057611695453897473 0.12149441021287059 0 -0.057611695453897473 0.12149441021287059 0 -0.061934448559457671 0.1194662138637432 0 -0.061128465846185073 0.1231052270537922 0 -0.065250091528402929 0.1287463732894033 0 -0.065599922626147236 0.1208054158836061 0 -0.070920758885679891 0.122612280453199 0 -0.061934448559457671 0.1194662138637432 0 -0.061128465846185073 0.1231052270537922 0 -0.065599922626147236 0.1208054158836061 0 -0.061934448559457671 0.1194662138637432 0 -0.065599922626147236 0.1208054158836061 0 -0.063397710311600922 0.1124598023047038 0 -0.065250091528402929 0.1287463732894033 0 -0.061128465846185073 0.1231052270537922 0 -0.065599922626147236 0.1208054158836061 0 -0.065599922626147236 0.1208054158836061 0 -0.071502594885826526 0.1156850969989098 0 -0.070920758885679891 0.122612280453199 0 -0.063397710311600922 0.1124598023047038 0 -0.069943188602970316 0.11007905438929159 0 -0.071502594885826526 0.1156850969989098 0 -0.065599922626147236 0.1208054158836061 0 -0.063397710311600922 0.1124598023047038 0 -0.071502594885826526 0.1156850969989098 0 -0.071502594885826526 0.1156850969989098 0 -0.07637116149923219 0.10993829749659741 0 -0.080623491526222016 0.1199931131298478 0 -0.069943188602970316 0.11007905438929159 0 -0.071502594885826526 0.1156850969989098 0 -0.07637116149923219 0.10993829749659741 0 -0.071502594885826526 0.1156850969989098 0 -0.070920758885679891 0.122612280453199 0 -0.080623491526222016 0.1199931131298478 0 -0.074104704471125687 0.12947736917812719 0 -0.070920758885679891 0.122612280453199 0 -0.080623491526222016 0.1199931131298478 0 -0.07637116149923219 0.10993829749659741 0 -0.080623491526222016 0.1199931131298478 0 -0.0880827940188776 0.10758976841005929 0 -0.080623491526222016 0.1199931131298478 0 -0.0880827940188776 0.10758976841005929 0 -0.094699414980648211 0.1157912437702677 0 -0.091730220224361211 0.12746149685899841 0 -0.080623491526222016 0.1199931131298478 0 -0.094699414980648211 0.1157912437702677 0 -0.092747569059551435 0.096128793763944384 0 -0.0880827940188776 0.10758976841005929 0 -0.080222186264765516 0.099743690410069821 0 -0.07637116149923219 0.10993829749659741 0 -0.0880827940188776 0.10758976841005929 0 -0.080222186264765516 0.099743690410069821 0 -0.092747569059551435 0.096128793763944384 0 -0.080222186264765516 0.099743690410069821 0 -0.083956218944454028 0.089005719588711535 0 -0.080222186264765516 0.099743690410069821 0 -0.068748806460680642 0.10191113560718371 0 -0.074177242212515648 0.091406052035049257 0 -0.069943188602970316 0.11007905438929159 0 -0.07637116149923219 0.10993829749659741 0 -0.068748806460680642 0.10191113560718371 0 -0.07637116149923219 0.10993829749659741 0 -0.080222186264765516 0.099743690410069821 0 -0.068748806460680642 0.10191113560718371 0 -0.063397710311600922 0.1124598023047038 0 -0.069943188602970316 0.11007905438929159 0 -0.068748806460680642 0.10191113560718371 0 -0.068748806460680642 0.10191113560718371 0 -0.064974804915673534 0.092724921429007234 0 -0.074177242212515648 0.091406052035049257 0 -0.064974804915673534 0.092724921429007234 0 -0.065345940743060354 0.08107369462484873 0 -0.074177242212515648 0.091406052035049257 0 -0.065345940743060354 0.08107369462484873 0 -0.073196915654733324 0.073908435539388445 0 -0.080074460761927757 0.079557384142269746 0 -0.065345940743060354 0.08107369462484873 0 -0.074177242212515648 0.091406052035049257 0 -0.080074460761927757 0.079557384142269746 0 -0.065345940743060354 0.08107369462484873 0 -0.067530464115447456 0.064541696777085614 0 -0.073196915654733324 0.073908435539388445 0 -0.073196915654733324 0.073908435539388445 0 -0.079654675390713428 0.069670995806333194 0 -0.080074460761927757 0.079557384142269746 0 -0.067530464115447456 0.064541696777085614 0 -0.073196915654733324 0.073908435539388445 0 -0.079654675390713428 0.069670995806333194 0 -0.067530464115447456 0.064541696777085614 0 -0.079654675390713428 0.069670995806333194 0 -0.087913941434324516 0.059467593250663461 0 -0.079654675390713428 0.069670995806333194 0 -0.090330687224732892 0.071553204746449939 0 -0.080074460761927757 0.079557384142269746 0 -0.090330687224732892 0.071553204746449939 0 -0.080074460761927757 0.079557384142269746 0 -0.0929239961909267 0.082949279451770053 0 -0.090330687224732892 0.071553204746449939 0 -0.099351750538710856 0.06471207251916819 0 -0.087913941434324516 0.059467593250663461 0 -0.079654675390713428 0.069670995806333194 0 -0.090330687224732892 0.071553204746449939 0 -0.087913941434324516 0.059467593250663461 0 -0.074177242212515648 0.091406052035049257 0 -0.083956218944454028 0.089005719588711535 0 -0.080074460761927757 0.079557384142269746 0 -0.080222186264765516 0.099743690410069821 0 -0.074177242212515648 0.091406052035049257 0 -0.083956218944454028 0.089005719588711535 0 -0.083956218944454028 0.089005719588711535 0 -0.080074460761927757 0.079557384142269746 0 -0.0929239961909267 0.082949279451770053 0 -0.092747569059551435 0.096128793763944384 0 -0.083956218944454028 0.089005719588711535 0 -0.0929239961909267 0.082949279451770053 0 -0.092747569059551435 0.096128793763944384 0 -0.0929239961909267 0.082949279451770053 0 -0.1072500894647293 0.088009010123693401 0 -0.0929239961909267 0.082949279451770053 0 -0.1072500894647293 0.088009010123693401 0 -0.1032267360671623 0.073987046210178181 0 -0.090330687224732892 0.071553204746449939 0 -0.099351750538710856 0.06471207251916819 0 -0.1032267360671623 0.073987046210178181 0 -0.090330687224732892 0.071553204746449939 0 -0.0929239961909267 0.082949279451770053 0 -0.1032267360671623 0.073987046210178181 0 -0.099351750538710856 0.06471207251916819 0 -0.1032267360671623 0.073987046210178181 0 -0.1080538565059541 0.066323839835897042 0 -0.1072500894647293 0.088009010123693401 0 -0.1032267360671623 0.073987046210178181 0 -0.1213395206647418 0.0722027508900005 0 -0.1080538565059541 0.066323839835897042 0 -0.1213395206647418 0.0722027508900005 0 -0.1082974187532016 0.054393489724241309 0 -0.1032267360671623 0.073987046210178181 0 -0.1080538565059541 0.066323839835897042 0 -0.1213395206647418 0.0722027508900005 0 -0.1283856502170109 0.09889627259268309 0 -0.1072500894647293 0.088009010123693401 0 -0.1213395206647418 0.0722027508900005 0 -0.1283856502170109 0.09889627259268309 0 -0.1213395206647418 0.0722027508900005 0 -0.1283856502170109 0.09889627259268309 0 -0.1072500894647293 0.088009010123693401 0 -0.1038329407828463 0.1039434718896288 0 -0.1283856502170109 0.09889627259268309 0 -0.11988723480721181 0.11352300531899349 0 -0.1038329407828463 0.1039434718896288 0 -0.13543177976928 0.1255897942953659 0 -0.11189856845971009 0.12566248249829609 0 -0.11988723480721181 0.11352300531899349 0 -0.11189856845971009 0.12566248249829609 0 -0.11988723480721181 0.11352300531899349 0 -0.1038329407828463 0.1039434718896288 0 -0.11189856845971009 0.12566248249829609 0 -0.094699414980648211 0.1157912437702677 0 -0.1038329407828463 0.1039434718896288 0 -0.11189856845971009 0.12566248249829609 0 -0.091730220224361211 0.12746149685899841 0 -0.094699414980648211 0.1157912437702677 0 -0.092747569059551435 0.096128793763944384 0 -0.0880827940188776 0.10758976841005929 0 -0.1038329407828463 0.1039434718896288 0 -0.092747569059551435 0.096128793763944384 0 -0.1072500894647293 0.088009010123693401 0 -0.1038329407828463 0.1039434718896288 0 -0.0880827940188776 0.10758976841005929 0 -0.094699414980648211 0.1157912437702677 0 -0.1038329407828463 0.1039434718896288 0 -0.1029386265691041 0.024359992607635501 0 -0.092783654682345146 0.018367939351768128 0 -0.086068634800046756 0.027499411589856769 0 -0.1029386265691041 0.024359992607635501 0 -0.1050349827443032 0.010532193930649761 0 -0.092783654682345146 0.018367939351768128 0 -0.094001915570355143 0.0068379182405286006 0 -0.1050349827443032 0.010532193930649761 0 -0.092783654682345146 0.018367939351768128 0 -0.093809747996545942 -0.0030093353284433712 0 -0.094001915570355143 0.0068379182405286006 0 -0.1027673763153877 0.00091163931933735138 0 -0.094001915570355143 0.0068379182405286006 0 -0.1027673763153877 0.00091163931933735138 0 -0.1050349827443032 0.010532193930649761 0 -0.1027673763153877 0.00091163931933735138 0 -0.1050349827443032 0.010532193930649761 0 -0.1123354336913058 0.0013520760706568159 0 -0.1050349827443032 0.010532193930649761 0 -0.1123354336913058 0.0013520760706568159 0 -0.1222144850561783 0.0104564985208432 0 -0.1029386265691041 0.024359992607635501 0 -0.1050349827443032 0.010532193930649761 0 -0.1222144850561783 0.0104564985208432 0 -0.12794466884393851 -0.002708162334285761 0 -0.1123354336913058 0.0013520760706568159 0 -0.1222144850561783 0.0104564985208432 0 -0.1029386265691041 0.024359992607635501 0 -0.1222144850561783 0.0104564985208432 0 -0.1029386265691041 0.024359992607635501 0 -0.123387765805449 0.026807379020421379 0 -0.11262245222303929 0.035983155319705432 0 -0.1029386265691041 0.024359992607635501 0 -0.1222144850561783 0.0104564985208432 0 -0.123387765805449 0.026807379020421379 0 -0.12621616728043911 0.040252847469472788 0 -0.123387765805449 0.026807379020421379 0 -0.11262245222303929 0.035983155319705432 0 -0.12621616728043911 0.040252847469472788 0 -0.11429339111247271 0.045509229187317812 0 -0.11262245222303929 0.035983155319705432 0 -0.12621616728043911 0.040252847469472788 0 -0.11429339111247271 0.045509229187317812 0 -0.12448500522056789 0.053122360731716153 0 -0.11429339111247271 0.045509229187317812 0 -0.11262245222303929 0.035983155319705432 0 -0.1067303271072647 0.045084832286679227 0 -0.1213395206647418 0.0722027508900005 0 -0.11429339111247271 0.045509229187317812 0 -0.1082974187532016 0.054393489724241309 0 -0.1213395206647418 0.0722027508900005 0 -0.11429339111247271 0.045509229187317812 0 -0.1213395206647418 0.0722027508900005 0 -0.11429339111247271 0.045509229187317812 0 -0.12448500522056789 0.053122360731716153 0 -0.11429339111247271 0.045509229187317812 0 -0.1082974187532016 0.054393489724241309 0 -0.1067303271072647 0.045084832286679227 0 -0.1082974187532016 0.054393489724241309 0 -0.1019708283413646 0.05156968144185331 0 -0.087913941434324516 0.059467593250663461 0 -0.099351750538710856 0.06471207251916819 0 -0.1082974187532016 0.054393489724241309 0 -0.087913941434324516 0.059467593250663461 0 -0.1082974187532016 0.054393489724241309 0 -0.087913941434324516 0.059467593250663461 0 -0.099351750538710856 0.06471207251916819 0 -0.1080538565059541 0.066323839835897042 0 -0.1082974187532016 0.054393489724241309 0 -0.1082974187532016 0.054393489724241309 0 -0.1019708283413646 0.05156968144185331 0 -0.1067303271072647 0.045084832286679227 0 -0.1029386265691041 0.024359992607635501 0 -0.096263480404908203 0.037987644634967392 0 -0.083662768082029798 0.038263486694427827 0 -0.1029386265691041 0.024359992607635501 0 -0.11262245222303929 0.035983155319705432 0 -0.1036474331529286 0.038150836325214037 0 -0.11262245222303929 0.035983155319705432 0 -0.1036474331529286 0.038150836325214037 0 -0.1067303271072647 0.045084832286679227 0 -0.1019708283413646 0.05156968144185331 0 -0.1067303271072647 0.045084832286679227 0 -0.10006972224115721 0.043648892635395953 0 -0.1036474331529286 0.038150836325214037 0 -0.1067303271072647 0.045084832286679227 0 -0.10006972224115721 0.043648892635395953 0 -0.1036474331529286 0.038150836325214037 0 -0.10006972224115721 0.043648892635395953 0 -0.096263480404908203 0.037987644634967392 0 -0.1019708283413646 0.05156968144185331 0 -0.10006972224115721 0.043648892635395953 0 -0.092474232419318125 0.045387922064367953 0 -0.10006972224115721 0.043648892635395953 0 -0.096263480404908203 0.037987644634967392 0 -0.092474232419318125 0.045387922064367953 0 -0.1029386265691041 0.024359992607635501 0 -0.1036474331529286 0.038150836325214037 0 -0.096263480404908203 0.037987644634967392 0 -0.1029386265691041 0.024359992607635501 0 -0.083662768082029798 0.038263486694427827 0 -0.083662768082029798 0.038263486694427827 0 -0.067431786542833855 0.039957093246744367 0 -0.086068634800046756 0.027499411589856769 0 -0.096263480404908203 0.037987644634967392 0 -0.092474232419318125 0.045387922064367953 0 -0.083662768082029798 0.038263486694427827 0 -0.092474232419318125 0.045387922064367953 0 -0.084229364155417999 0.045600841412731491 0 -0.083662768082029798 0.038263486694427827 0 -0.067530464115447456 0.064541696777085614 0 -0.087913941434324516 0.059467593250663461 0 -0.083178868968160249 0.051868331111537463 0 -0.1019708283413646 0.05156968144185331 0 -0.087913941434324516 0.059467593250663461 0 -0.083178868968160249 0.051868331111537463 0 -0.1019708283413646 0.05156968144185331 0 -0.092474232419318125 0.045387922064367953 0 -0.083178868968160249 0.051868331111537463 0 -0.1019708283413646 0.05156968144185331 0 -0.083178868968160249 0.051868331111537463 0 -0.092474232419318125 0.045387922064367953 0 -0.084229364155417999 0.045600841412731491 0 -0.083178868968160249 0.051868331111537463 0 -0.067530464115447456 0.064541696777085614 0 -0.083178868968160249 0.051868331111537463 0 -0.064386909594955966 0.052166980781220708 0 -0.067530464115447456 0.064541696777085614 0 -0.087913941434324516 0.059467593250663461 0 -0.084229364155417999 0.045600841412731491 0 -0.083178868968160249 0.051868331111537463 0 -0.064386909594955966 0.052166980781220708 0 -0.083178868968160249 0.051868331111537463 0 -0.064386909594955966 0.052166980781220708 0 -0.083662768082029798 0.038263486694427827 0 -0.064386909594955966 0.052166980781220708 0 -0.067431786542833855 0.039957093246744367 0 -0.086068634800046756 0.027499411589856769 0 -0.083662768082029798 0.038263486694427827 0 -0.064386909594955966 0.052166980781220708 0 -0.067431786542833855 0.039957093246744367 0 -0.067431786542833855 0.039957093246744367 0 -0.072754380638830191 0.026790484392110559 0 -0.086068634800046756 0.027499411589856769 0 -0.084229364155417999 0.045600841412731491 0 -0.083662768082029798 0.038263486694427827 0 -0.064386909594955966 0.052166980781220708 0 -0.067431786542833855 0.039957093246744367 0 -0.072754380638830191 0.026790484392110559 0 -0.06119297493096968 0.029577658698819918 0 -0.067223235450260904 0.020545375194041711 0 -0.072754380638830191 0.026790484392110559 0 -0.06119297493096968 0.029577658698819918 0 -0.067223235450260904 0.020545375194041711 0 -0.059634028750688857 0.019945122267620009 0 -0.06119297493096968 0.029577658698819918 0 -0.067223235450260904 0.020545375194041711 0 -0.071176636362949949 0.013354148061317 0 -0.062426320909589363 0.0138175749209812 0 -0.067223235450260904 0.020545375194041711 0 -0.062426320909589363 0.0138175749209812 0 -0.059634028750688857 0.019945122267620009 0 -0.073901481467321326 0.019972629680535928 0 -0.072754380638830191 0.026790484392110559 0 -0.081555611544121012 0.021036699249558241 0 -0.067223235450260904 0.020545375194041711 0 -0.073901481467321326 0.019972629680535928 0 -0.071176636362949949 0.013354148061317 0 -0.067223235450260904 0.020545375194041711 0 -0.073901481467321326 0.019972629680535928 0 -0.072754380638830191 0.026790484392110559 0 -0.072754380638830191 0.026790484392110559 0 -0.081555611544121012 0.021036699249558241 0 -0.086068634800046756 0.027499411589856769 0 -0.1029386265691041 0.024359992607635501 0 -0.083662768082029798 0.038263486694427827 0 -0.086068634800046756 0.027499411589856769 0 -0.073901481467321326 0.019972629680535928 0 -0.081555611544121012 0.021036699249558241 0 -0.082269906132061615 0.01255303123351981 0 -0.081555611544121012 0.021036699249558241 0 -0.092783654682345146 0.018367939351768128 0 -0.082269906132061615 0.01255303123351981 0 -0.081555611544121012 0.021036699249558241 0 -0.092783654682345146 0.018367939351768128 0 -0.086068634800046756 0.027499411589856769 0 -0.094001915570355143 0.0068379182405286006 0 -0.082269906132061615 0.01255303123351981 0 -0.083103434105877269 0.00052397087483265566 0 -0.093809747996545942 -0.0030093353284433712 0 -0.094001915570355143 0.0068379182405286006 0 -0.083103434105877269 0.00052397087483265566 0 -0.094001915570355143 0.0068379182405286006 0 -0.092783654682345146 0.018367939351768128 0 -0.082269906132061615 0.01255303123351981 0 -0.082269906132061615 0.01255303123351981 0 -0.083103434105877269 0.00052397087483265566 0 -0.074655996784706871 0.0056854755633451394 0 -0.074632322639879081 -0.00077634831607193431 0 -0.083103434105877269 0.00052397087483265566 0 -0.074655996784706871 0.0056854755633451394 0 -0.074632322639879081 -0.00077634831607193431 0 -0.074655996784706871 0.0056854755633451394 0 -0.069146791006042943 0.0016798902546152059 0 -0.073901481467321326 0.019972629680535928 0 -0.082269906132061615 0.01255303123351981 0 -0.071176636362949949 0.013354148061317 0 -0.082269906132061615 0.01255303123351981 0 -0.074655996784706871 0.0056854755633451394 0 -0.071176636362949949 0.013354148061317 0 -0.074655996784706871 0.0056854755633451394 0 -0.071176636362949949 0.013354148061317 0 -0.065753170864898819 0.0071514141074004497 0 -0.071176636362949949 0.013354148061317 0 -0.065753170864898819 0.0071514141074004497 0 -0.062426320909589363 0.0138175749209812 0 -0.074655996784706871 0.0056854755633451394 0 -0.069146791006042943 0.0016798902546152059 0 -0.065753170864898819 0.0071514141074004497 0 -0.069146791006042943 0.0016798902546152059 0 -0.065753170864898819 0.0071514141074004497 0 -0.061854179150853207 0.0001064690093241692 0 -0.065753170864898819 0.0071514141074004497 0 -0.061854179150853207 0.0001064690093241692 0 -0.056270420176362287 0.0078127712479582646 0 -0.061854179150853207 0.0001064690093241692 0 -0.055050355264087809 0.0010777032587787399 0 -0.056270420176362287 0.0078127712479582646 0 -0.055050355264087809 0.0010777032587787399 0 -0.047442606602610432 0.0044030920321683816 0 -0.056270420176362287 0.0078127712479582646 0 -0.051381789537699042 -0.0047793937464329118 0 -0.055050355264087809 0.0010777032587787399 0 -0.047442606602610432 0.0044030920321683816 0 -0.047442606602610432 0.0044030920321683816 0 -0.048323473610563487 0.013481082904852551 0 -0.056270420176362287 0.0078127712479582646 0 -0.048323473610563487 0.013481082904852551 0 -0.055268701095523842 0.01511575380914483 0 -0.056270420176362287 0.0078127712479582646 0 -0.055268701095523842 0.01511575380914483 0 -0.056270420176362287 0.0078127712479582646 0 -0.062426320909589363 0.0138175749209812 0 -0.065753170864898819 0.0071514141074004497 0 -0.056270420176362287 0.0078127712479582646 0 -0.062426320909589363 0.0138175749209812 0 -0.055268701095523842 0.01511575380914483 0 -0.062426320909589363 0.0138175749209812 0 -0.059634028750688857 0.019945122267620009 0 -0.055268701095523842 0.01511575380914483 0 -0.059634028750688857 0.019945122267620009 0 -0.051225796516712267 0.022560488027502181 0 -0.059634028750688857 0.019945122267620009 0 -0.06119297493096968 0.029577658698819918 0 -0.051225796516712267 0.022560488027502181 0 -0.051225796516712267 0.022560488027502181 0 -0.045330759838121459 0.027083409307357972 0 -0.050414273685423228 0.033564743974672517 0 -0.06119297493096968 0.029577658698819918 0 -0.051225796516712267 0.022560488027502181 0 -0.050414273685423228 0.033564743974672517 0 -0.048323473610563487 0.013481082904852551 0 -0.055268701095523842 0.01511575380914483 0 -0.051225796516712267 0.022560488027502181 0 -0.051225796516712267 0.022560488027502181 0 -0.040080682764338231 0.020569192603518069 0 -0.045330759838121459 0.027083409307357972 0 -0.048323473610563487 0.013481082904852551 0 -0.051225796516712267 0.022560488027502181 0 -0.040080682764338231 0.020569192603518069 0 -0.040080682764338231 0.020569192603518069 0 -0.045330759838121459 0.027083409307357972 0 -0.039602286386012112 0.031639212623739088 0 -0.045330759838121459 0.027083409307357972 0 -0.050414273685423228 0.033564743974672517 0 -0.039602286386012112 0.031639212623739088 0 -0.040080682764338231 0.020569192603518069 0 -0.039602286386012112 0.031639212623739088 0 -0.02949134306216818 0.030635776758327699 0 -0.040080682764338231 0.020569192603518069 0 -0.02847093548730532 0.020628879678521009 0 -0.02949134306216818 0.030635776758327699 0 -0.040080682764338231 0.020569192603518069 0 -0.03180586451787798 0.011405647480993431 0 -0.02847093548730532 0.020628879678521009 0 -0.03180586451787798 0.011405647480993431 0 -0.037994106960812207 0.0030857035800418938 0 -0.040954234817113661 0.010630098639731189 0 -0.040080682764338231 0.020569192603518069 0 -0.03180586451787798 0.011405647480993431 0 -0.040954234817113661 0.010630098639731189 0 -0.024880619595713981 -0.00035602396182286117 0 -0.03180586451787798 0.011405647480993431 0 -0.037994106960812207 0.0030857035800418938 0 -0.047442606602610432 0.0044030920321683816 0 -0.037994106960812207 0.0030857035800418938 0 -0.040954234817113661 0.010630098639731189 0 -0.04325606691645726 -0.0040175228461035491 0 -0.047442606602610432 0.0044030920321683816 0 -0.037994106960812207 0.0030857035800418938 0 -0.047442606602610432 0.0044030920321683816 0 -0.048323473610563487 0.013481082904852551 0 -0.040954234817113661 0.010630098639731189 0 -0.048323473610563487 0.013481082904852551 0 -0.040080682764338231 0.020569192603518069 0 -0.040954234817113661 0.010630098639731189 0 -0.046401310731219919 0.06513982282698641 0 -0.064386909594955966 0.052166980781220708 0 -0.046401310731219919 0.06513982282698641 0 -0.067530464115447456 0.064541696777085614 0 -0.064386909594955966 0.052166980781220708 0 -0.046401310731219919 0.06513982282698641 0 -0.064386909594955966 0.052166980781220708 0 -0.048794938285621023 0.052414774903632028 0 -0.064386909594955966 0.052166980781220708 0 -0.067431786542833855 0.039957093246744367 0 -0.048794938285621023 0.052414774903632028 0 -0.064386909594955966 0.052166980781220708 0 -0.048794938285621023 0.052414774903632028 0 -0.067431786542833855 0.039957093246744367 0 -0.048794938285621023 0.052414774903632028 0 -0.053087627193278489 0.041591062982259973 0 -0.067431786542833855 0.039957093246744367 0 -0.048794938285621023 0.052414774903632028 0 -0.048794938285621023 0.052414774903632028 0 -0.053087627193278489 0.041591062982259973 0 -0.045313754316222359 0.040401003153602823 0 -0.067431786542833855 0.039957093246744367 0 -0.053087627193278489 0.041591062982259973 0 -0.057904901863158803 0.036324397248116501 0 -0.06119297493096968 0.029577658698819918 0 -0.057904901863158803 0.036324397248116501 0 -0.050414273685423228 0.033564743974672517 0 -0.067431786542833855 0.039957093246744367 0 -0.06119297493096968 0.029577658698819918 0 -0.057904901863158803 0.036324397248116501 0 -0.053087627193278489 0.041591062982259973 0 -0.050414273685423228 0.033564743974672517 0 -0.045313754316222359 0.040401003153602823 0 -0.053087627193278489 0.041591062982259973 0 -0.057904901863158803 0.036324397248116501 0 -0.050414273685423228 0.033564743974672517 0 -0.050414273685423228 0.033564743974672517 0 -0.039602286386012112 0.031639212623739088 0 -0.045313754316222359 0.040401003153602823 0 -0.039602286386012112 0.031639212623739088 0 -0.035176700930646961 0.042188191193741162 0 -0.045313754316222359 0.040401003153602823 0 -0.039602286386012112 0.031639212623739088 0 -0.035176700930646961 0.042188191193741162 0 -0.02949134306216818 0.030635776758327699 0 -0.048794938285621023 0.052414774903632028 0 -0.035176700930646961 0.042188191193741162 0 -0.045313754316222359 0.040401003153602823 0 -0.048794938285621023 0.052414774903632028 0 -0.035176700930646961 0.042188191193741162 0 -0.021890309131453459 0.052842354510968033 0 -0.048794938285621023 0.052414774903632028 0 -0.021890309131453459 0.052842354510968033 0 -0.044476546708921719 0.053586279925781043 0 -0.03001806134922947 0.058699203422127033 0 -0.021890309131453459 0.052842354510968033 0 -0.048794938285621023 0.052414774903632028 0 -0.044476546708921719 0.053586279925781043 0 -0.021890309131453459 0.052842354510968033 0 -0.02200413048082497 0.07032291851014752 0 -0.04473364324790978 0.055129521517232417 0 -0.03001806134922947 0.058699203422127033 0 -0.048794938285621023 0.052414774903632028 0 -0.04473364324790978 0.055129521517232417 0 -0.048794938285621023 0.052414774903632028 0 -0.044476546708921719 0.053586279925781043 0 -0.04473364324790978 0.055129521517232417 0 -0.044476546708921719 0.053586279925781043 0 -0.04473364324790978 0.055129521517232417 0 -0.046401310731219919 0.06513982282698641 0 -0.04473364324790978 0.055129521517232417 0 -0.043293556670112143 0.061726016225163292 0 -0.046401310731219919 0.06513982282698641 0 -0.04473364324790978 0.055129521517232417 0 -0.044476546708921719 0.053586279925781043 0 -0.04473364324790978 0.055129521517232417 0 -0.03001806134922947 0.058699203422127033 0 -0.03817706802538659 0.064358044842456608 0 -0.04473364324790978 0.055129521517232417 0 -0.043293556670112143 0.061726016225163292 0 -0.046401310731219919 0.06513982282698641 0 -0.048794938285621023 0.052414774903632028 0 -0.04473364324790978 0.055129521517232417 0 -0.016985677177038298 0.061614942646505952 0 -0.021890309131453459 0.052842354510968033 0 -0.0091362934134955852 0.055837541371496921 0 -0.016985677177038298 0.061614942646505952 0 -0.03001806134922947 0.058699203422127033 0 -0.021890309131453459 0.052842354510968033 0 -0.021890309131453459 0.052842354510968033 0 -0.024339531498285289 0.039067176404352408 0 -0.01437412971158742 0.040466364537667533 0 -0.035176700930646961 0.042188191193741162 0 -0.021890309131453459 0.052842354510968033 0 -0.024339531498285289 0.039067176404352408 0 -0.035176700930646961 0.042188191193741162 0 -0.024339531498285289 0.039067176404352408 0 -0.02949134306216818 0.030635776758327699 0 -0.024339531498285289 0.039067176404352408 0 -0.02949134306216818 0.030635776758327699 0 -0.02073699703527521 0.02817770670157491 0 -0.024339531498285289 0.039067176404352408 0 -0.01437412971158742 0.040466364537667533 0 -0.02073699703527521 0.02817770670157491 0 -0.01437412971158742 0.040466364537667533 0 -0.011066006939408891 0.028134905151373301 0 4.78159324789223e-05 0.04396597574463753 0 -0.01437412971158742 0.040466364537667533 0 -0.02073699703527521 0.02817770670157491 0 -0.011066006939408891 0.028134905151373301 0 -0.01437412971158742 0.040466364537667533 0 -0.0091362934134955852 0.055837541371496921 0 4.78159324789223e-05 0.04396597574463753 0 -0.0091362934134955852 0.055837541371496921 0 4.78159324789223e-05 0.04396597574463753 0 0.0020429074551330038 0.073858585764393483 0 -0.021890309131453459 0.052842354510968033 0 -0.01437412971158742 0.040466364537667533 0 -0.0091362934134955852 0.055837541371496921 0 -0.0088205722318333984 0.067659222779514236 0 -0.016985677177038298 0.061614942646505952 0 -0.0091362934134955852 0.055837541371496921 0 -0.024880619595713981 -0.00035602396182286117 0 -0.0078605566542857899 -0.00046063017767232288 0 -0.018319448292487071 0.013991113048104881 0 -0.024880619595713981 -0.00035602396182286117 0 -0.03180586451787798 0.011405647480993431 0 -0.018319448292487071 0.013991113048104881 0 -0.03180586451787798 0.011405647480993431 0 -0.018319448292487071 0.013991113048104881 0 -0.02847093548730532 0.020628879678521009 0 -0.02847093548730532 0.020628879678521009 0 -0.02949134306216818 0.030635776758327699 0 -0.02073699703527521 0.02817770670157491 0 -0.018319448292487071 0.013991113048104881 0 -0.02847093548730532 0.020628879678521009 0 -0.02073699703527521 0.02817770670157491 0 -0.018319448292487071 0.013991113048104881 0 -0.02073699703527521 0.02817770670157491 0 -0.011066006939408891 0.028134905151373301 0 -0.00194727559017367 0.01407336572488165 0 4.78159324789223e-05 0.04396597574463753 0 -0.018319448292487071 0.013991113048104881 0 -0.011066006939408891 0.028134905151373301 0 -0.00194727559017367 0.01407336572488165 0 -0.011066006939408891 0.028134905151373301 0 -0.00194727559017367 0.01407336572488165 0 4.78159324789223e-05 0.04396597574463753 0 -0.0078605566542857899 -0.00046063017767232288 0 -0.018319448292487071 0.013991113048104881 0 -0.00194727559017367 0.01407336572488165 0 -0.0078605566542857899 -0.00046063017767232288 0 -0.00194727559017367 0.01407336572488165 0 0.0067200560687082156 0.00010385857572603739 0 -0.00194727559017367 0.01407336572488165 0 0.0067200560687082156 0.00010385857572603739 0 0.014345706830976071 0.01192114142788931 0 0.0067200560687082156 0.00010385857572603739 0 0.014345706830976071 0.01192114142788931 0 0.02320130703148204 -0.0053633350158952308 0 -0.00194727559017367 0.01407336572488165 0 0.014345706830976071 0.01192114142788931 0 0.0062782792357720567 0.023421584809252639 0 -0.00194727559017367 0.01407336572488165 0 0.0062782792357720567 0.023421584809252639 0 4.78159324789223e-05 0.04396597574463753 0 0.015675933468858809 0.023155775110423289 0 0.0093391111926480804 0.031399867988638412 0 0.015506696948698981 0.033309822123093767 0 0.0062782792357720567 0.023421584809252639 0 0.015675933468858809 0.023155775110423289 0 0.0093391111926480804 0.031399867988638412 0 0.014345706830976071 0.01192114142788931 0 0.0062782792357720567 0.023421584809252639 0 0.015675933468858809 0.023155775110423289 0 0.014345706830976071 0.01192114142788931 0 0.015675933468858809 0.023155775110423289 0 0.030297747657250091 0.022215359128054099 0 0.015675933468858809 0.023155775110423289 0 0.022452515305929791 0.028733117214641789 0 0.030297747657250091 0.022215359128054099 0 0.015675933468858809 0.023155775110423289 0 0.022452515305929791 0.028733117214641789 0 0.015506696948698981 0.033309822123093767 0 0.022452515305929791 0.028733117214641789 0 0.030297747657250091 0.022215359128054099 0 0.02832968314891128 0.03625151249699602 0 0.014345706830976071 0.01192114142788931 0 0.02320130703148204 -0.0053633350158952308 0 0.014345706830976071 0.01192114142788931 0 0.028433722078197061 0.0096348292981649729 0 0.02320130703148204 -0.0053633350158952308 0 0.014345706830976071 0.01192114142788931 0 0.030297747657250091 0.022215359128054099 0 0.028433722078197061 0.0096348292981649729 0 0.0070422194294889086 0.051396754614801983 0 4.78159324789223e-05 0.04396597574463753 0 0.0020429074551330038 0.073858585764393483 0 0.0070422194294889086 0.051396754614801983 0 0.027052960865488421 0.051046295533162332 0 0.0047453276663297541 0.071393641240965644 0 4.78159324789223e-05 0.04396597574463753 0 0.0020429074551330038 0.073858585764393483 0 0.0070422194294889086 0.051396754614801983 0 0.0047453276663297541 0.071393641240965644 0 0.0062782792357720567 0.023421584809252639 0 4.78159324789223e-05 0.04396597574463753 0 0.0093391111926480804 0.031399867988638412 0 0.0070422194294889086 0.051396754614801983 0 0.0093391111926480804 0.031399867988638412 0 0.016365123713302569 0.044166962903136188 0 0.0070422194294889086 0.051396754614801983 0 0.0093391111926480804 0.031399867988638412 0 0.0070422194294889086 0.051396754614801983 0 4.78159324789223e-05 0.04396597574463753 0 0.0093391111926480804 0.031399867988638412 0 0.0093391111926480804 0.031399867988638412 0 0.015506696948698981 0.033309822123093767 0 0.016365123713302569 0.044166962903136188 0 0.015506696948698981 0.033309822123093767 0 0.02832968314891128 0.03625151249699602 0 0.027052960865488421 0.051046295533162332 0 0.015506696948698981 0.033309822123093767 0 0.016365123713302569 0.044166962903136188 0 0.027052960865488421 0.051046295533162332 0 0.015506696948698981 0.033309822123093767 0 0.027052960865488421 0.051046295533162332 0 0.022452515305929791 0.028733117214641789 0 0.015506696948698981 0.033309822123093767 0 0.02832968314891128 0.03625151249699602 0 0.027052960865488421 0.051046295533162332 0 0.0047453276663297541 0.071393641240965644 0 0.0070422194294889086 0.051396754614801983 0 0.016365123713302569 0.044166962903136188 0 0.027052960865488421 0.051046295533162332 0 0.027052960865488421 0.051046295533162332 0 0.038885837239366193 0.069223040728186663 0 0.027052960865488421 0.051046295533162332 0 0.04068394302040923 0.055111267499590763 0 0.038885837239366193 0.069223040728186663 0 0.04068394302040923 0.055111267499590763 0 0.042429844006031642 0.037020658910227711 0 0.052790715350934193 0.04946187548615167 0 0.027052960865488421 0.051046295533162332 0 0.04068394302040923 0.055111267499590763 0 0.042429844006031642 0.037020658910227711 0 0.04068394302040923 0.055111267499590763 0 0.038885837239366193 0.069223040728186663 0 0.02832968314891128 0.03625151249699602 0 0.027052960865488421 0.051046295533162332 0 0.042429844006031642 0.037020658910227711 0 0.027052960865488421 0.051046295533162332 0 0.042429844006031642 0.037020658910227711 0 0.030297747657250091 0.022215359128054099 0 0.02832968314891128 0.03625151249699602 0 0.042429844006031642 0.037020658910227711 0 0.042429844006031642 0.037020658910227711 0 0.060034620955209762 0.041026813789817942 0 0.052790715350934193 0.04946187548615167 0 0.042429844006031642 0.037020658910227711 0 0.060619370763474081 0.032141634266143249 0 0.060034620955209762 0.041026813789817942 0 0.060034620955209762 0.041026813789817942 0 0.052790715350934193 0.04946187548615167 0 0.066107244100984563 0.050327170450578378 0 0.052790715350934193 0.04946187548615167 0 0.066107244100984563 0.050327170450578378 0 0.054697924672035762 0.06382346678054357 0 0.04068394302040923 0.055111267499590763 0 0.052790715350934193 0.04946187548615167 0 0.054697924672035762 0.06382346678054357 0 0.028433722078197061 0.0096348292981649729 0 0.045890126793079133 0.0097661516526130754 0 0.02320130703148204 -0.0053633350158952308 0 0.045890126793079133 0.0097661516526130754 0 0.02320130703148204 -0.0053633350158952308 0 0.04623017629991278 -0.0023706412909148891 0 0.045890126793079133 0.0097661516526130754 0 0.02320130703148204 -0.0053633350158952308 0 0.030297747657250091 0.022215359128054099 0 0.028433722078197061 0.0096348292981649729 0 0.045890126793079133 0.0097661516526130754 0 0.030297747657250091 0.022215359128054099 0 0.042429844006031642 0.037020658910227711 0 0.044106111400733901 0.022999297994546929 0 0.030297747657250091 0.022215359128054099 0 0.045890126793079133 0.0097661516526130754 0 0.044106111400733901 0.022999297994546929 0 0.045890126793079133 0.0097661516526130754 0 0.068578946554675252 0.02489563832112272 0 0.045890126793079133 0.0097661516526130754 0 0.044106111400733901 0.022999297994546929 0 0.057806727146574748 0.022995022287292829 0 0.045890126793079133 0.0097661516526130754 0 0.057806727146574748 0.022995022287292829 0 0.068578946554675252 0.02489563832112272 0 0.042429844006031642 0.037020658910227711 0 0.060619370763474081 0.032141634266143249 0 0.057806727146574748 0.022995022287292829 0 0.042429844006031642 0.037020658910227711 0 0.057806727146574748 0.022995022287292829 0 0.042429844006031642 0.037020658910227711 0 0.044106111400733901 0.022999297994546929 0 0.057806727146574748 0.022995022287292829 0 0.060619370763474081 0.032141634266143249 0 0.057806727146574748 0.022995022287292829 0 0.068578946554675252 0.02489563832112272 0 0.045890126793079133 0.0097661516526130754 0 0.061289353183331993 0.010835112920428779 0 0.068578946554675252 0.02489563832112272 0 0.045890126793079133 0.0097661516526130754 0 0.061289353183331993 0.010835112920428779 0 0.053802205276232327 0.003682353028027469 0 0.045890126793079133 0.0097661516526130754 0 0.053802205276232327 0.003682353028027469 0 0.04623017629991278 -0.0023706412909148891 0 0.061289353183331993 0.010835112920428779 0 0.053802205276232327 0.003682353028027469 0 0.061757503530185887 0.0030345535022356859 0 0.053802205276232327 0.003682353028027469 0 0.061757503530185887 0.0030345535022356859 0 0.055452110893871268 -0.0028082665874396419 0 0.061757503530185887 0.0030345535022356859 0 0.067036063715506675 0.0067822644191834931 0 0.06795049627233557 -0.0023941361538292539 0 0.067036063715506675 0.0067822644191834931 0 0.075119936680586558 0.0056312202844776733 0 0.06795049627233557 -0.0023941361538292539 0 0.061289353183331993 0.010835112920428779 0 0.061757503530185887 0.0030345535022356859 0 0.067036063715506675 0.0067822644191834931 0 0.061289353183331993 0.010835112920428779 0 0.067036063715506675 0.0067822644191834931 0 0.070671273230312803 0.01684971659939025 0 0.067036063715506675 0.0067822644191834931 0 0.075119936680586558 0.0056312202844776733 0 0.070671273230312803 0.01684971659939025 0 0.075119936680586558 0.0056312202844776733 0 0.081052437518811429 0.011243034890422939 0 0.070671273230312803 0.01684971659939025 0 0.075119936680586558 0.0056312202844776733 0 0.079607049088793305 -0.0022136162043640468 0 0.06795049627233557 -0.0023941361538292539 0 0.075119936680586558 0.0056312202844776733 0 0.087389042276107873 0.0058380201399859666 0 0.079607049088793305 -0.0022136162043640468 0 0.075119936680586558 0.0056312202844776733 0 0.081052437518811429 0.011243034890422939 0 0.087389042276107873 0.0058380201399859666 0 0.081052437518811429 0.011243034890422939 0 0.089384479710379383 0.01496054013249919 0 0.070671273230312803 0.01684971659939025 0 0.081052437518811429 0.011243034890422939 0 0.089384479710379383 0.01496054013249919 0 0.087389042276107873 0.0058380201399859666 0 0.089384479710379383 0.01496054013249919 0 0.087389042276107873 0.0058380201399859666 0 0.1007352537157663 0.0081054707936590031 0 0.070671273230312803 0.01684971659939025 0 0.099178304557174829 0.024641774693412121 0 0.083143571403794192 0.026556140377868749 0 0.070671273230312803 0.01684971659939025 0 0.099178304557174829 0.024641774693412121 0 0.089384479710379383 0.01496054013249919 0 0.070671273230312803 0.01684971659939025 0 0.099178304557174829 0.024641774693412121 0 0.083143571403794192 0.026556140377868749 0 0.068578946554675252 0.02489563832112272 0 0.091267766316271343 0.04002512498963233 0 0.083143571403794192 0.026556140377868749 0 0.091267766316271343 0.04002512498963233 0 0.099178304557174829 0.024641774693412121 0 0.083143571403794192 0.026556140377868749 0 0.070671273230312803 0.01684971659939025 0 0.068578946554675252 0.02489563832112272 0 0.061289353183331993 0.010835112920428779 0 0.070671273230312803 0.01684971659939025 0 0.068578946554675252 0.02489563832112272 0 0.068578946554675252 0.02489563832112272 0 0.071187501642121925 0.039329975336045792 0 0.091267766316271343 0.04002512498963233 0 0.060619370763474081 0.032141634266143249 0 0.068578946554675252 0.02489563832112272 0 0.071187501642121925 0.039329975336045792 0 0.060619370763474081 0.032141634266143249 0 0.060034620955209762 0.041026813789817942 0 0.071187501642121925 0.039329975336045792 0 0.060034620955209762 0.041026813789817942 0 0.071187501642121925 0.039329975336045792 0 0.066107244100984563 0.050327170450578378 0 0.071187501642121925 0.039329975336045792 0 0.066107244100984563 0.050327170450578378 0 0.077619002674011284 0.050310455702480432 0 0.066107244100984563 0.050327170450578378 0 0.073253213115719445 0.06256204586919363 0 0.054697924672035762 0.06382346678054357 0 0.066107244100984563 0.050327170450578378 0 0.077619002674011284 0.050310455702480432 0 0.073253213115719445 0.06256204586919363 0 0.085938603768822425 0.059495239952590803 0 0.091267766316271343 0.04002512498963233 0 0.1002871688600918 0.063976433572300068 0 0.077619002674011284 0.050310455702480432 0 0.085938603768822425 0.059495239952590803 0 0.091267766316271343 0.04002512498963233 0 0.077619002674011284 0.050310455702480432 0 0.085938603768822425 0.059495239952590803 0 0.073253213115719445 0.06256204586919363 0 0.068578946554675252 0.02489563832112272 0 0.091267766316271343 0.04002512498963233 0 0.071187501642121925 0.039329975336045792 0 0.077619002674011284 0.050310455702480432 0 0.091267766316271343 0.04002512498963233 0 0.091267766316271343 0.04002512498963233 0 0.1109001863998397 0.037799716801889247 0 0.099178304557174829 0.024641774693412121 0 0.091267766316271343 0.04002512498963233 0 0.11395658607786729 0.05515461165814188 0 0.1109001863998397 0.037799716801889247 0 0.091267766316271343 0.04002512498963233 0 0.11395658607786729 0.05515461165814188 0 0.091267766316271343 0.04002512498963233 0 0.11395658607786729 0.05515461165814188 0 0.1002871688600918 0.063976433572300068 0 0.11395658607786729 0.05515461165814188 0 0.1292747177634703 0.043396020512386058 0 0.1287406024342054 0.055097879708328808 0 0.1109001863998397 0.037799716801889247 0 0.099178304557174829 0.024641774693412121 0 0.12768533588403691 0.032433832787434003 0 0.11395658607786729 0.05515461165814188 0 0.1109001863998397 0.037799716801889247 0 0.1292747177634703 0.043396020512386058 0 0.1109001863998397 0.037799716801889247 0 0.12768533588403691 0.032433832787434003 0 0.1292747177634703 0.043396020512386058 0 0.116582036394333 0.01496864832639778 0 0.099178304557174829 0.024641774693412121 0 0.12768533588403691 0.032433832787434003 0 0.099178304557174829 0.024641774693412121 0 0.12768533588403691 0.032433832787434003 0 0.116582036394333 0.01496864832639778 0 0.12927156724533451 0.018095418705272891 0 0.12768533588403691 0.032433832787434003 0 0.12497209006325551 0.0045335831921891464 0 0.116582036394333 0.01496864832639778 0 0.12927156724533451 0.018095418705272891 0 0.11278102560414061 0.0018115570737424059 0 0.116582036394333 0.01496864832639778 0 0.1007352537157663 0.0081054707936590031 0 0.12497209006325551 0.0045335831921891464 0 0.11278102560414061 0.0018115570737424059 0 0.116582036394333 0.01496864832639778 0 0.11278102560414061 0.0018115570737424059 0 0.1007352537157663 0.0081054707936590031 0 0.1035045777476903 -0.0060376178322144964 0 0.1007352537157663 0.0081054707936590031 0 0.1035045777476903 -0.0060376178322144964 0 0.09468229154267907 -0.001137269383548628 0 0.087389042276107873 0.0058380201399859666 0 0.1007352537157663 0.0081054707936590031 0 0.09468229154267907 -0.001137269383548628 0 0.116582036394333 0.01496864832639778 0 0.1007352537157663 0.0081054707936590031 0 0.099178304557174829 0.024641774693412121 0 0.089384479710379383 0.01496054013249919 0 0.1007352537157663 0.0081054707936590031 0 0.099178304557174829 0.024641774693412121 0 0.098734499580457782 0.095359594439687487 0 0.10074483460637999 0.1179447633533638 0 0.1149332751215142 0.100568527587294 0 0.10074483460637999 0.1179447633533638 0 0.1149332751215142 0.100568527587294 0 0.098734499580457782 0.095359594439687487 0 0.10074483460637999 0.1179447633533638 0 0.082556200173465433 0.10300178146928241 0 0.10074483460637999 0.1179447633533638 0 0.1149332751215142 0.100568527587294 0 0.12141129518055099 0.13003920851435891 0 0.1149332751215142 0.100568527587294 0 0.1091534866821465 0.081261709519078976 0 0.1271333380040621 0.088167172483248069 0 0.1219325569799334 0.076800083693214879 0 0.1091534866821465 0.081261709519078976 0 0.1271333380040621 0.088167172483248069 0 0.11395658607786729 0.05515461165814188 0 0.1151459747404818 0.069799013897504494 0 0.12979596907018781 0.070425716351517467 0 0.1219325569799334 0.076800083693214879 0 0.1151459747404818 0.069799013897504494 0 0.12979596907018781 0.070425716351517467 0 0.1219325569799334 0.076800083693214879 0 0.1151459747404818 0.069799013897504494 0 0.1091534866821465 0.081261709519078976 0 0.11395658607786729 0.05515461165814188 0 0.1151459747404818 0.069799013897504494 0 0.1002871688600918 0.063976433572300068 0 0.1002871688600918 0.063976433572300068 0 0.1091534866821465 0.081261709519078976 0 0.086260595574961851 0.078122901416852006 0 0.1151459747404818 0.069799013897504494 0 0.1002871688600918 0.063976433572300068 0 0.1091534866821465 0.081261709519078976 0 0.098734499580457782 0.095359594439687487 0 0.1091534866821465 0.081261709519078976 0 0.086260595574961851 0.078122901416852006 0 0.098734499580457782 0.095359594439687487 0 0.1149332751215142 0.100568527587294 0 0.1091534866821465 0.081261709519078976 0 0.086260595574961851 0.078122901416852006 0 0.072254974534814678 0.089276382380824651 0 0.082556200173465433 0.10300178146928241 0 0.098734499580457782 0.095359594439687487 0 0.086260595574961851 0.078122901416852006 0 0.082556200173465433 0.10300178146928241 0 0.085938603768822425 0.059495239952590803 0 0.1002871688600918 0.063976433572300068 0 0.086260595574961851 0.078122901416852006 0 0.085938603768822425 0.059495239952590803 0 0.086260595574961851 0.078122901416852006 0 0.073253213115719445 0.06256204586919363 0 0.066933565608953485 0.074371762685396053 0 0.073253213115719445 0.06256204586919363 0 0.054697924672035762 0.06382346678054357 0 0.086260595574961851 0.078122901416852006 0 0.066933565608953485 0.074371762685396053 0 0.073253213115719445 0.06256204586919363 0 0.066933565608953485 0.074371762685396053 0 0.072254974534814678 0.089276382380824651 0 0.049024805197378458 0.084797735442323774 0 0.086260595574961851 0.078122901416852006 0 0.066933565608953485 0.074371762685396053 0 0.072254974534814678 0.089276382380824651 0 0.082556200173465433 0.10300178146928241 0 0.067117147511190772 0.1197386390433379 0 0.059163773155390689 0.1003724301564609 0 0.072254974534814678 0.089276382380824651 0 0.082556200173465433 0.10300178146928241 0 0.059163773155390689 0.1003724301564609 0 0.10074483460637999 0.1179447633533638 0 0.083869890648835765 0.1198706839722407 0 0.086556394091245922 0.1353209991194336 0 0.10074483460637999 0.1179447633533638 0 0.082556200173465433 0.10300178146928241 0 0.083869890648835765 0.1198706839722407 0 0.082556200173465433 0.10300178146928241 0 0.083869890648835765 0.1198706839722407 0 0.067117147511190772 0.1197386390433379 0 0.067117147511190772 0.1197386390433379 0 0.049117835003357958 0.1160199916210624 0 0.059163773155390689 0.1003724301564609 0 0.067117147511190772 0.1197386390433379 0 0.049117835003357958 0.1160199916210624 0 0.052104316523673179 0.13860580521741961 0 0.059163773155390689 0.1003724301564609 0 0.035363258355302497 0.096868708138759668 0 0.049024805197378458 0.084797735442323774 0 0.049117835003357958 0.1160199916210624 0 0.059163773155390689 0.1003724301564609 0 0.035363258355302497 0.096868708138759668 0 0.035363258355302497 0.096868708138759668 0 0.031840679471233972 0.1245143755493321 0 0.049117835003357958 0.1160199916210624 0 0.035363258355302497 0.096868708138759668 0 0.031840679471233972 0.1245143755493321 0 0.066933565608953485 0.074371762685396053 0 0.054697924672035762 0.06382346678054357 0 0.049024805197378458 0.084797735442323774 0 0.054697924672035762 0.06382346678054357 0 0.049024805197378458 0.084797735442323774 0 0.038885837239366193 0.069223040728186663 0 0.072254974534814678 0.089276382380824651 0 0.059163773155390689 0.1003724301564609 0 0.049024805197378458 0.084797735442323774 0 0.059163773155390689 0.1003724301564609 0 0.049024805197378458 0.084797735442323774 0 0.035363258355302497 0.096868708138759668 0 0.038885837239366193 0.069223040728186663 0 0.035363258355302497 0.096868708138759668 0 0.038885837239366193 0.069223040728186663 0 0.029829747421552821 0.088777786869309136 0 0.035363258355302497 0.096868708138759668 0 0.049024805197378458 0.084797735442323774 0 0.038885837239366193 0.069223040728186663 0 0.04068394302040923 0.055111267499590763 0 0.054697924672035762 0.06382346678054357 0 0.038885837239366193 0.069223040728186663 0 0.049024805197378458 0.084797735442323774 0 0.038885837239366193 0.069223040728186663 0 0.027052960865488421 0.051046295533162332 0 0.022312341959598189 0.067512650437581451 0 0.0047453276663297541 0.071393641240965644 0 0.027052960865488421 0.051046295533162332 0 0.038885837239366193 0.069223040728186663 0 0.022312341959598189 0.067512650437581451 0 0.038885837239366193 0.069223040728186663 0 0.022312341959598189 0.067512650437581451 0 0.01842048689069891 0.078450926957568543 0 0.022312341959598189 0.067512650437581451 0 0.01842048689069891 0.078450926957568543 0 0.011673890284272881 0.075642906109091329 0 0.038885837239366193 0.069223040728186663 0 0.01842048689069891 0.078450926957568543 0 0.029829747421552821 0.088777786869309136 0 0.029829747421552821 0.088777786869309136 0 0.0035013487700014741 0.082223801091856674 0 0.015940929252030271 0.095387085200753841 0 0.01842048689069891 0.078450926957568543 0 0.029829747421552821 0.088777786869309136 0 0.0035013487700014741 0.082223801091856674 0 0.029829747421552821 0.088777786869309136 0 0.0035013487700014741 0.082223801091856674 0 0.0029320278621630118 0.087180345335934856 0 0.0035013487700014741 0.082223801091856674 0 0.015940929252030271 0.095387085200753841 0 -0.0048492282303920931 0.080145073721523519 0 0.0029320278621630118 0.087180345335934856 0 0.0035013487700014741 0.082223801091856674 0 -0.0048492282303920931 0.080145073721523519 0 0.0035013487700014741 0.082223801091856674 0 0.0020429074551330038 0.073858585764393483 0 0.0029320278621630118 0.087180345335934856 0 0.0035013487700014741 0.082223801091856674 0 0.01842048689069891 0.078450926957568543 0 0.0035013487700014741 0.082223801091856674 0 0.011673890284272881 0.075642906109091329 0 0.0070422194294889086 0.051396754614801983 0 0.0020429074551330038 0.073858585764393483 0 0.0047453276663297541 0.071393641240965644 0 0.022312341959598189 0.067512650437581451 0 0.011673890284272881 0.075642906109091329 0 0.0047453276663297541 0.071393641240965644 0 0.0035013487700014741 0.082223801091856674 0 0.0020429074551330038 0.073858585764393483 0 0.0047453276663297541 0.071393641240965644 0 0.0035013487700014741 0.082223801091856674 0 0.0020429074551330038 0.073858585764393483 0 0.0035013487700014741 0.082223801091856674 0 0.011673890284272881 0.075642906109091329 0 0.0047453276663297541 0.071393641240965644 0 0.0035013487700014741 0.082223801091856674 0 0.0047453276663297541 0.071393641240965644 0 0.0020429074551330038 0.073858585764393483 0 0.0047453276663297541 0.071393641240965644 0 0.031840679471233972 0.1245143755493321 0 0.017989349589041349 0.11488209481220731 0 0.025029663982651329 0.1042872174506006 0 0.031840679471233972 0.1245143755493321 0 0.017989349589041349 0.11488209481220731 0 0.017692914234737549 0.1199029810443146 0 0.031840679471233972 0.1245143755493321 0 0.017989349589041349 0.11488209481220731 0 0.017989349589041349 0.11488209481220731 0 0.025029663982651329 0.1042872174506006 0 0.015940929252030271 0.095387085200753841 0 0.035363258355302497 0.096868708138759668 0 0.031840679471233972 0.1245143755493321 0 0.025029663982651329 0.1042872174506006 0 0.029829747421552821 0.088777786869309136 0 0.025029663982651329 0.1042872174506006 0 0.015940929252030271 0.095387085200753841 0 0.035363258355302497 0.096868708138759668 0 0.029829747421552821 0.088777786869309136 0 0.025029663982651329 0.1042872174506006 0 0.0029320278621630118 0.087180345335934856 0 0.00269720988657482 0.1042478680673154 0 0.0007935816666427137 0.105797794714191 0 0.0029320278621630118 0.087180345335934856 0 0.0007935816666427137 0.105797794714191 0 0.0029320278621630118 0.087180345335934856 0 0.015940929252030271 0.095387085200753841 0 0.0041380197068510548 0.1052498140750789 0 0.0029320278621630118 0.087180345335934856 0 0.0041380197068510548 0.1052498140750789 0 0.017989349589041349 0.11488209481220731 0 0.015940929252030271 0.095387085200753841 0 0.0041380197068510548 0.1052498140750789 0 0.0029320278621630118 0.087180345335934856 0 0.0041380197068510548 0.1052498140750789 0 0.00269720988657482 0.1042478680673154 0 0.004374049436280566 0.1087862656988467 0 0.0041380197068510548 0.1052498140750789 0 0.0041380197068510548 0.1052498140750789 0 0.00269720988657482 0.1042478680673154 0 0.0007935816666427137 0.105797794714191 0 0.0041380197068510548 0.1052498140750789 0 0.00269720988657482 0.1042478680673154 0 0.0007935816666427137 0.105797794714191 0 0.00022653229025670389 0.11073456286013671 0 0.004374049436280566 0.1087862656988467 0 0.0007935816666427137 0.105797794714191 0 0.00022653229025670389 0.11073456286013671 0 0.004374049436280566 0.1087862656988467 0 0.0041380197068510548 0.1052498140750789 0 0.0007935816666427137 0.105797794714191 0 0.004374049436280566 0.1087862656988467 0 0.0007935816666427137 0.105797794714191 0 0.004374049436280566 0.1087862656988467 0 0.0061287859223852067 0.1350776176849659 0 -0.0035236072963641522 0.1223087619485858 0 0.004374049436280566 0.1087862656988467 0 0.00022653229025670389 0.11073456286013671 0 -0.0035236072963641522 0.1223087619485858 0 0.004374049436280566 0.1087862656988467 0 0.0061287859223852067 0.1350776176849659 0 0.017692914234737549 0.1199029810443146 0 0.004374049436280566 0.1087862656988467 0 0.0061287859223852067 0.1350776176849659 0 0.017989349589041349 0.11488209481220731 0 0.017692914234737549 0.1199029810443146 0 0.004374049436280566 0.1087862656988467 0 0.017692914234737549 0.1199029810443146 0 0.004374049436280566 0.1087862656988467 0 0.017989349589041349 0.11488209481220731 0 0.004374049436280566 0.1087862656988467 0 0.0041380197068510548 0.1052498140750789 0 0.017989349589041349 0.11488209481220731 0 0.0041380197068510548 0.1052498140750789 0 0.017692914234737549 0.1199029810443146 0 0.0061287859223852067 0.1350776176849659 0 0.019681647019630238 0.13771344532507171 0 0.019681647019630238 0.13771344532507171 0 0.03101177903319477 0.13101969638978231 0 0.02879838928760942 0.1483906733843002 0 0.017692914234737549 0.1199029810443146 0 0.019681647019630238 0.13771344532507171 0 0.03101177903319477 0.13101969638978231 0 0.03101177903319477 0.13101969638978231 0 0.02879838928760942 0.1483906733843002 0 0.017692914234737549 0.1199029810443146 0 0.03101177903319477 0.13101969638978231 0 0.031840679471233972 0.1245143755493321 0 0.017692914234737549 0.1199029810443146 0 0.03101177903319477 0.13101969638978231 0 0.02879838928760942 0.1483906733843002 0 0.017815468836027751 0.1496624712888481 0 0.026584999542023421 0.16576165037881799 0 0.019681647019630238 0.13771344532507171 0 0.02879838928760942 0.1483906733843002 0 0.017815468836027751 0.1496624712888481 0 -0.002616345114230932 0.15504128183753721 0 0.0061287859223852067 0.1350776176849659 0 0.0078835224084904745 0.16136896967108491 0 0.0061287859223852067 0.1350776176849659 0 0.017815468836027751 0.1496624712888481 0 0.0078835224084904745 0.16136896967108491 0 0.0061287859223852067 0.1350776176849659 0 0.0078835224084904745 0.16136896967108491 0 0.0061287859223852067 0.1350776176849659 0 0.019681647019630238 0.13771344532507171 0 0.017815468836027751 0.1496624712888481 0 -0.0044038107806405082 0.16985632141771759 0 -0.002616345114230932 0.15504128183753721 0 0.0078835224084904745 0.16136896967108491 0 -0.0044038107806405082 0.16985632141771759 0 0.0078835224084904745 0.16136896967108491 0 0.0096382588945957519 0.1876603216572042 0 0.0078835224084904745 0.16136896967108491 0 0.0096382588945957519 0.1876603216572042 0 0.0078835224084904745 0.16136896967108491 0 0.019966733134741229 0.17610680167277409 0 0.0096382588945957519 0.1876603216572042 0 0.019966733134741229 0.17610680167277409 0 0.026584999542023421 0.16576165037881799 0 0.037487327326592032 0.1775165968982606 0 0.019966733134741229 0.17610680167277409 0 0.037487327326592032 0.1775165968982606 0 0.023973189061808679 0.18858396945722911 0 0.019966733134741229 0.17610680167277409 0 0.0096382588945957519 0.1876603216572042 0 0.023973189061808679 0.18858396945722911 0 0.0078835224084904745 0.16136896967108491 0 0.019966733134741229 0.17610680167277409 0 0.026584999542023421 0.16576165037881799 0 0.02879838928760942 0.1483906733843002 0 0.026584999542023421 0.16576165037881799 0 0.017815468836027751 0.1496624712888481 0 0.0078835224084904745 0.16136896967108491 0 0.026584999542023421 0.16576165037881799 0 0.038660052602186031 0.1611157657262576 0 0.037487327326592032 0.1775165968982606 0 0.050369726184422439 0.167326369636455 0 0.02879838928760942 0.1483906733843002 0 0.026584999542023421 0.16576165037881799 0 0.038660052602186031 0.1611157657262576 0 0.026584999542023421 0.16576165037881799 0 0.038660052602186031 0.1611157657262576 0 0.037487327326592032 0.1775165968982606 0 0.038660052602186031 0.1611157657262576 0 0.050369726184422439 0.167326369636455 0 0.048572165470441478 0.14567663752803511 0 0.037487327326592032 0.1775165968982606 0 0.053519253641463357 0.17764643307067629 0 0.038474877393331927 0.1967603747701378 0 0.053519253641463357 0.17764643307067629 0 0.038474877393331927 0.1967603747701378 0 0.037487327326592032 0.1775165968982606 0 0.053519253641463357 0.17764643307067629 0 0.050369726184422439 0.167326369636455 0 0.053519253641463357 0.17764643307067629 0 0.050369726184422439 0.167326369636455 0 0.062752553808442954 0.17566150180965709 0 0.053519253641463357 0.17764643307067629 0 0.059836189728645253 0.19055847296930881 0 0.062752553808442954 0.17566150180965709 0 0.061227004257408818 0.16634128278584351 0 0.048572165470441478 0.14567663752803511 0 0.066132551907688991 0.16033357866628689 0 0.050369726184422439 0.167326369636455 0 0.061227004257408818 0.16634128278584351 0 0.048572165470441478 0.14567663752803511 0 0.050369726184422439 0.167326369636455 0 0.061227004257408818 0.16634128278584351 0 0.062752553808442954 0.17566150180965709 0 0.048572165470441478 0.14567663752803511 0 0.052104316523673179 0.13860580521741961 0 0.072367953576113836 0.15269723488550491 0 0.048572165470441478 0.14567663752803511 0 0.072367953576113836 0.15269723488550491 0 0.066132551907688991 0.16033357866628689 0 0.048572165470441478 0.14567663752803511 0 0.066132551907688991 0.16033357866628689 0 0.052104316523673179 0.13860580521741961 0 0.072367953576113836 0.15269723488550491 0 0.031840679471233972 0.1245143755493321 0 0.052104316523673179 0.13860580521741961 0 0.031840679471233972 0.1245143755493321 0 0.03101177903319477 0.13101969638978231 0 0.052104316523673179 0.13860580521741961 0 0.03101177903319477 0.13101969638978231 0 0.048572165470441478 0.14567663752803511 0 0.03101177903319477 0.13101969638978231 0 0.048572165470441478 0.14567663752803511 0 0.052104316523673179 0.13860580521741961 0 0.049117835003357958 0.1160199916210624 0 0.031840679471233972 0.1245143755493321 0 0.052104316523673179 0.13860580521741961 0 0.031840679471233972 0.1245143755493321 0 0.03101177903319477 0.13101969638978231 0 0.03101177903319477 0.13101969638978231 0 0.02879838928760942 0.1483906733843002 0 0.048572165470441478 0.14567663752803511 0 0.02879838928760942 0.1483906733843002 0 0.038660052602186031 0.1611157657262576 0 0.048572165470441478 0.14567663752803511 0 0.023943399368744671 0.2400909659566085 0 0.033235232253471178 0.23721147407568649 0 0.025946871203154 0.25652283541899262 0 0.023943399368744671 0.2400909659566085 0 0.016746840900060182 0.2431358424122595 0 0.025946871203154 0.25652283541899262 0 0.023943399368744671 0.2400909659566085 0 0.024205409536835469 0.23026648032777039 0 0.033235232253471178 0.23721147407568649 0 0.023943399368744671 0.2400909659566085 0 0.018233885211615061 0.23637847974396561 0 0.016746840900060182 0.2431358424122595 0 0.023943399368744671 0.2400909659566085 0 0.018233885211615061 0.23637847974396561 0 0.024205409536835469 0.23026648032777039 0 0.018233885211615061 0.23637847974396561 0 0.016746840900060182 0.2431358424122595 0 0.0145326299103883 0.23850958991908491 0 0.016746840900060182 0.2431358424122595 0 0.0095164699969590514 0.24170627934191891 0 0.01094534689583296 0.25165583173153228 0 -0.0026056055883075658 0.24895329681263881 0 0.0083861248970700068 0.23498825816906141 0 0.0042264113753839021 0.22557170674079849 0 -0.0026056055883075658 0.24895329681263881 0 0.0095164699969590514 0.24170627934191891 0 0.01094534689583296 0.25165583173153228 0 -0.0026056055883075658 0.24895329681263881 0 0.0083861248970700068 0.23498825816906141 0 -0.0026056055883075658 0.24895329681263881 0 0.0083861248970700068 0.23498825816906141 0 0.0095164699969590514 0.24170627934191891 0 0.0083861248970700068 0.23498825816906141 0 0.0095164699969590514 0.24170627934191891 0 0.012489683444158611 0.2356728175394589 0 0.016746840900060182 0.2431358424122595 0 0.0095164699969590514 0.24170627934191891 0 0.0145326299103883 0.23850958991908491 0 0.0095164699969590514 0.24170627934191891 0 0.0145326299103883 0.23850958991908491 0 0.012489683444158611 0.2356728175394589 0 0.018233885211615061 0.23637847974396561 0 0.0145326299103883 0.23850958991908491 0 0.012489683444158611 0.2356728175394589 0 0.0083861248970700068 0.23498825816906141 0 0.012489683444158611 0.2356728175394589 0 0.01748534810950314 0.23059518230861131 0 0.0083861248970700068 0.23498825816906141 0 0.0082060344569770162 0.2251746904843191 0 0.01384173667889055 0.22380470748943099 0 0.0083861248970700068 0.23498825816906141 0 0.01384173667889055 0.22380470748943099 0 0.023430501145200539 0.2158743164695992 0 0.0083861248970700068 0.23498825816906141 0 0.0042264113753839021 0.22557170674079849 0 0.0082060344569770162 0.2251746904843191 0 0.0083861248970700068 0.23498825816906141 0 0.0042264113753839021 0.22557170674079849 0 -0.001995617986719397 0.21148658785678021 0 0.0042264113753839021 0.22557170674079849 0 0.0082060344569770162 0.2251746904843191 0 0.01026167581153003 0.2219633733866602 0 0.01207432705084514 0.2176577664052623 0 0.0059741714213267776 0.21794943539077721 0 0.01026167581153003 0.2219633733866602 0 0.0082060344569770162 0.2251746904843191 0 0.0059741714213267776 0.21794943539077721 0 0.01026167581153003 0.2219633733866602 0 0.0082060344569770162 0.2251746904843191 0 0.01384173667889055 0.22380470748943099 0 0.01384173667889055 0.22380470748943099 0 0.01565416449831274 0.21717783595444329 0 0.01207432705084514 0.2176577664052623 0 0.01026167581153003 0.2219633733866602 0 0.01384173667889055 0.22380470748943099 0 0.01207432705084514 0.2176577664052623 0 0.0083861248970700068 0.23498825816906141 0 0.01748534810950314 0.23059518230861131 0 0.023430501145200539 0.2158743164695992 0 0.01748534810950314 0.23059518230861131 0 0.024205409536835469 0.23026648032777039 0 0.023430501145200539 0.2158743164695992 0 0.0083861248970700068 0.23498825816906141 0 0.023430501145200539 0.2158743164695992 0 0.01384173667889055 0.22380470748943099 0 0.023430501145200539 0.2158743164695992 0 0.01565416449831274 0.21717783595444329 0 0.018233885211615061 0.23637847974396561 0 0.012489683444158611 0.2356728175394589 0 0.01748534810950314 0.23059518230861131 0 0.018233885211615061 0.23637847974396561 0 0.01748534810950314 0.23059518230861131 0 0.024205409536835469 0.23026648032777039 0 0.024205409536835469 0.23026648032777039 0 0.032892283712545413 0.223848415845182 0 0.033235232253471178 0.23721147407568649 0 0.024205409536835469 0.23026648032777039 0 0.023430501145200539 0.2158743164695992 0 0.032892283712545413 0.223848415845182 0 0.023430501145200539 0.2158743164695992 0 0.038474877393331927 0.1967603747701378 0 0.023430501145200539 0.2158743164695992 0 0.023733502425670169 0.20043244585380829 0 0.038474877393331927 0.1967603747701378 0 0.017180798842676322 0.20609588884094729 0 0.023430501145200539 0.2158743164695992 0 0.023733502425670169 0.20043244585380829 0 0.017180798842676322 0.20609588884094729 0 0.023430501145200539 0.2158743164695992 0 0.013270093118314759 0.2113745534534808 0 0.023430501145200539 0.2158743164695992 0 0.01565416449831274 0.21717783595444329 0 0.013270093118314759 0.2113745534534808 0 0.01565416449831274 0.21717783595444329 0 0.01207432705084514 0.2176577664052623 0 0.013270093118314759 0.2113745534534808 0 0.01207432705084514 0.2176577664052623 0 0.013270093118314759 0.2113745534534808 0 0.0060582116715977826 0.21078561085429631 0 0.01207432705084514 0.2176577664052623 0 0.0059741714213267776 0.21794943539077721 0 0.0060582116715977826 0.21078561085429631 0 -0.001995617986719397 0.21148658785678021 0 0.0042264113753839021 0.22557170674079849 0 -0.001995617986719397 0.21148658785678021 0 0.0059741714213267776 0.21794943539077721 0 0.0060582116715977826 0.21078561085429631 0 -0.001995617986719397 0.21148658785678021 0 0.0082060344569770162 0.2251746904843191 0 0.0059741714213267776 0.21794943539077721 0 -0.001995617986719397 0.21148658785678021 0 0.0060582116715977826 0.21078561085429631 0 0.0063827717358030632 0.20264123217486221 0 0.010361175604988121 0.20574935193377161 0 0.0063827717358030632 0.20264123217486221 0 0.013270093118314759 0.2113745534534808 0 0.010361175604988121 0.20574935193377161 0 0.0063827717358030632 0.20264123217486221 0 0.013270093118314759 0.2113745534534808 0 0.0060582116715977826 0.21078561085429631 0 0.0063827717358030632 0.20264123217486221 0 0.013270093118314759 0.2113745534534808 0 0.0063827717358030632 0.20264123217486221 0 0.017180798842676322 0.20609588884094729 0 0.013270093118314759 0.2113745534534808 0 0.010361175604988121 0.20574935193377161 0 0.017180798842676322 0.20609588884094729 0 0.010361175604988121 0.20574935193377161 0 0.015208163269590919 0.1984775900704572 0 0.015208163269590919 0.1984775900704572 0 0.0063827717358030632 0.20264123217486221 0 0.0096382588945957519 0.1876603216572042 0 -0.0075829514464992621 0.1849322941617467 0 0.0063827717358030632 0.20264123217486221 0 0.0096382588945957519 0.1876603216572042 0 0.010361175604988121 0.20574935193377161 0 0.015208163269590919 0.1984775900704572 0 0.0063827717358030632 0.20264123217486221 0 0.015208163269590919 0.1984775900704572 0 0.0096382588945957519 0.1876603216572042 0 0.023973189061808679 0.18858396945722911 0 0.015208163269590919 0.1984775900704572 0 0.023733502425670169 0.20043244585380829 0 0.023973189061808679 0.18858396945722911 0 0.017180798842676322 0.20609588884094729 0 0.015208163269590919 0.1984775900704572 0 0.023733502425670169 0.20043244585380829 0 0.023733502425670169 0.20043244585380829 0 0.023973189061808679 0.18858396945722911 0 0.038474877393331927 0.1967603747701378 0 0.037487327326592032 0.1775165968982606 0 0.023973189061808679 0.18858396945722911 0 0.038474877393331927 0.1967603747701378 0 0.038474877393331927 0.1967603747701378 0 0.051848123906530687 0.2029335570645584 0 0.059836189728645253 0.19055847296930881 0 0.051848123906530687 0.2029335570645584 0 0.059836189728645253 0.19055847296930881 0 0.070154382756860173 0.20056643722313719 0 0.053519253641463357 0.17764643307067629 0 0.038474877393331927 0.1967603747701378 0 0.059836189728645253 0.19055847296930881 0 0.051848123906530687 0.2029335570645584 0 0.058094288872291247 0.21627287208308299 0 0.070154382756860173 0.20056643722313719 0 0.051848123906530687 0.2029335570645584 0 0.058094288872291247 0.21627287208308299 0 0.040457364493832117 0.21312399557350051 0 0.023430501145200539 0.2158743164695992 0 0.040457364493832117 0.21312399557350051 0 0.032892283712545413 0.223848415845182 0 0.023430501145200539 0.2158743164695992 0 0.038474877393331927 0.1967603747701378 0 0.040457364493832117 0.21312399557350051 0 0.038474877393331927 0.1967603747701378 0 0.051848123906530687 0.2029335570645584 0 0.040457364493832117 0.21312399557350051 0 0.032892283712545413 0.223848415845182 0 0.045651845260538733 0.22745538073943219 0 0.033235232253471178 0.23721147407568649 0 0.040457364493832117 0.21312399557350051 0 0.032892283712545413 0.223848415845182 0 0.045651845260538733 0.22745538073943219 0 0.058094288872291247 0.21627287208308299 0 0.040457364493832117 0.21312399557350051 0 0.045651845260538733 0.22745538073943219 0 0.058094288872291247 0.21627287208308299 0 0.045651845260538733 0.22745538073943219 0 0.067596297674863706 0.23364669691327439 0 0.046771584439008862 0.24508476616613351 0 0.067596297674863706 0.23364669691327439 0 0.061418524333565851 0.26130772548583059 0 0.046771584439008862 0.24508476616613351 0 0.067596297674863706 0.23364669691327439 0 0.045651845260538733 0.22745538073943219 0 0.046771584439008862 0.24508476616613351 0 0.067596297674863706 0.23364669691327439 0 0.045651845260538733 0.22745538073943219 0 0.046771584439008862 0.24508476616613351 0 0.033235232253471178 0.23721147407568649 0 0.046771584439008862 0.24508476616613351 0 0.033235232253471178 0.23721147407568649 0 0.025946871203154 0.25652283541899262 0 0.092993361860390117 0.24179254247101431 0 0.067596297674863706 0.23364669691327439 0 0.083768416296335579 0.26124594033034959 0 0.067596297674863706 0.23364669691327439 0 0.088421010910718578 0.2222086276604153 0 0.074658149019829798 0.21430608614050931 0 0.067596297674863706 0.23364669691327439 0 0.088421010910718578 0.2222086276604153 0 0.058094288872291247 0.21627287208308299 0 0.067596297674863706 0.23364669691327439 0 0.074658149019829798 0.21430608614050931 0 0.092993361860390117 0.24179254247101431 0 0.067596297674863706 0.23364669691327439 0 0.088421010910718578 0.2222086276604153 0 0.088421010910718578 0.2222086276604153 0 0.074658149019829798 0.21430608614050931 0 0.089024764884415353 0.19883579682263661 0 0.088421010910718578 0.2222086276604153 0 0.089024764884415353 0.19883579682263661 0 0.1002987826713785 0.20728606003710159 0 0.074658149019829798 0.21430608614050931 0 0.070154382756860173 0.20056643722313719 0 0.089024764884415353 0.19883579682263661 0 0.058094288872291247 0.21627287208308299 0 0.074658149019829798 0.21430608614050931 0 0.070154382756860173 0.20056643722313719 0 0.059836189728645253 0.19055847296930881 0 0.070154382756860173 0.20056643722313719 0 0.071191972316838673 0.18240371792659071 0 0.070154382756860173 0.20056643722313719 0 0.079818610975472923 0.18972880837414841 0 0.071191972316838673 0.18240371792659071 0 0.070154382756860173 0.20056643722313719 0 0.089024764884415353 0.19883579682263661 0 0.079818610975472923 0.18972880837414841 0 0.089024764884415353 0.19883579682263661 0 0.079818610975472923 0.18972880837414841 0 0.08771457935749577 0.17834722017163501 0 0.089024764884415353 0.19883579682263661 0 0.1092966068073026 0.196360861676983 0 0.1002987826713785 0.20728606003710159 0 0.089024764884415353 0.19883579682263661 0 0.1092966068073026 0.196360861676983 0 0.08771457935749577 0.17834722017163501 0 0.1092966068073026 0.196360861676983 0 0.1110338789392785 0.17958570344603231 0 0.1303668416208609 0.1930299377262959 0 0.1092966068073026 0.196360861676983 0 0.13087863425710941 0.21437450318233109 0 0.1303668416208609 0.1930299377262959 0 0.1092966068073026 0.196360861676983 0 0.13087863425710941 0.21437450318233109 0 0.1092966068073026 0.196360861676983 0 0.1125012722994063 0.21445683721024189 0 0.13087863425710941 0.21437450318233109 0 0.088421010910718578 0.2222086276604153 0 0.1125012722994063 0.21445683721024189 0 0.1002987826713785 0.20728606003710159 0 0.1092966068073026 0.196360861676983 0 0.1125012722994063 0.21445683721024189 0 0.1002987826713785 0.20728606003710159 0 0.092993361860390117 0.24179254247101431 0 0.088421010910718578 0.2222086276604153 0 0.1123330678616118 0.23283361382323059 0 0.088421010910718578 0.2222086276604153 0 0.1125012722994063 0.21445683721024189 0 0.1123330678616118 0.23283361382323059 0 0.1125012722994063 0.21445683721024189 0 0.1123330678616118 0.23283361382323059 0 0.13087863425710941 0.21437450318233109 0 0.1123330678616118 0.23283361382323059 0 0.13305648654768229 0.2393751701912748 0 0.112848016558421 0.25902783362780168 0 0.092993361860390117 0.24179254247101431 0 0.1123330678616118 0.23283361382323059 0 0.112848016558421 0.25902783362780168 0 0.087937984885119044 0.1509299796415276 0 0.086556394091245922 0.1353209991194336 0 0.072367953576113836 0.15269723488550491 0 0.086556394091245922 0.1353209991194336 0 0.072367953576113836 0.15269723488550491 0 0.087937984885119044 0.1509299796415276 0 0.086556394091245922 0.1353209991194336 0 0.1059994753982218 0.1468281271649389 0 0.10074483460637999 0.1179447633533638 0 0.086556394091245922 0.1353209991194336 0 0.083869890648835765 0.1198706839722407 0 0.086556394091245922 0.1353209991194336 0 0.071213420686855114 0.13589315490255621 0 0.067117147511190772 0.1197386390433379 0 0.052104316523673179 0.13860580521741961 0 0.071213420686855114 0.13589315490255621 0 0.083869890648835765 0.1198706839722407 0 0.067117147511190772 0.1197386390433379 0 0.071213420686855114 0.13589315490255621 0 0.086556394091245922 0.1353209991194336 0 0.071213420686855114 0.13589315490255621 0 0.072367953576113836 0.15269723488550491 0 0.052104316523673179 0.13860580521741961 0 0.071213420686855114 0.13589315490255621 0 0.072367953576113836 0.15269723488550491 0 0.066132551907688991 0.16033357866628689 0 0.08771457935749577 0.17834722017163501 0 0.066132551907688991 0.16033357866628689 0 0.08771457935749577 0.17834722017163501 0 0.079479000274748191 0.16437987572229851 0 0.072367953576113836 0.15269723488550491 0 0.066132551907688991 0.16033357866628689 0 0.061227004257408818 0.16634128278584351 0 0.066132551907688991 0.16033357866628689 0 0.061227004257408818 0.16634128278584351 0 0.066132551907688991 0.16033357866628689 0 0.062752553808442954 0.17566150180965709 0 0.072367953576113836 0.15269723488550491 0 0.066132551907688991 0.16033357866628689 0 0.079479000274748191 0.16437987572229851 0 0.066132551907688991 0.16033357866628689 0 0.071191972316838673 0.18240371792659071 0 0.08771457935749577 0.17834722017163501 0 0.066132551907688991 0.16033357866628689 0 0.062752553808442954 0.17566150180965709 0 0.071191972316838673 0.18240371792659071 0 0.059836189728645253 0.19055847296930881 0 0.062752553808442954 0.17566150180965709 0 0.071191972316838673 0.18240371792659071 0 0.079818610975472923 0.18972880837414841 0 0.071191972316838673 0.18240371792659071 0 0.08771457935749577 0.17834722017163501 0 0.087937984885119044 0.1509299796415276 0 0.072367953576113836 0.15269723488550491 0 0.091700916257696163 0.16614146916576869 0 0.072367953576113836 0.15269723488550491 0 0.091700916257696163 0.16614146916576869 0 0.072367953576113836 0.15269723488550491 0 0.079479000274748191 0.16437987572229851 0 0.091700916257696163 0.16614146916576869 0 0.08771457935749577 0.17834722017163501 0 0.079479000274748191 0.16437987572229851 0 0.091700916257696163 0.16614146916576869 0 0.087937984885119044 0.1509299796415276 0 0.091700916257696163 0.16614146916576869 0 0.098350431397109944 0.15673299264900051 0 0.091700916257696163 0.16614146916576869 0 0.1077633490474028 0.16303239462376681 0 0.1110338789392785 0.17958570344603231 0 0.091700916257696163 0.16614146916576869 0 0.098350431397109944 0.15673299264900051 0 0.1077633490474028 0.16303239462376681 0 0.1092966068073026 0.196360861676983 0 0.08771457935749577 0.17834722017163501 0 0.1110338789392785 0.17958570344603231 0 0.091700916257696163 0.16614146916576869 0 0.1110338789392785 0.17958570344603231 0 0.08771457935749577 0.17834722017163501 0 0.091700916257696163 0.16614146916576869 0 0.1110338789392785 0.17958570344603231 0 0.1092966068073026 0.196360861676983 0 0.08771457935749577 0.17834722017163501 0 0.1110338789392785 0.17958570344603231 0 0.1211601110354374 0.1691808506348145 0 0.1303668416208609 0.1930299377262959 0 0.1110338789392785 0.17958570344603231 0 0.1303668416208609 0.1930299377262959 0 0.1077633490474028 0.16303239462376681 0 0.1211601110354374 0.1691808506348145 0 0.11794964110360449 0.153156977269711 0 0.1077633490474028 0.16303239462376681 0 0.1110338789392785 0.17958570344603231 0 0.1211601110354374 0.1691808506348145 0 0.1211601110354374 0.1691808506348145 0 0.11794964110360449 0.153156977269711 0 0.13185579871384451 0.15157154659873509 0 0.11794964110360449 0.153156977269711 0 0.12141129518055099 0.13003920851435891 0 0.13185579871384451 0.15157154659873509 0 0.11794964110360449 0.153156977269711 0 0.1059994753982218 0.1468281271649389 0 0.12141129518055099 0.13003920851435891 0 0.1077633490474028 0.16303239462376681 0 0.11794964110360449 0.153156977269711 0 0.1059994753982218 0.1468281271649389 0 0.098350431397109944 0.15673299264900051 0 0.1077633490474028 0.16303239462376681 0 0.1059994753982218 0.1468281271649389 0 0.087937984885119044 0.1509299796415276 0 0.098350431397109944 0.15673299264900051 0 0.1059994753982218 0.1468281271649389 0 0.10074483460637999 0.1179447633533638 0 0.1036779998190997 0.1325332745380238 0 0.12141129518055099 0.13003920851435891 0 0.086556394091245922 0.1353209991194336 0 0.1059994753982218 0.1468281271649389 0 0.1036779998190997 0.1325332745380238 0 0.10074483460637999 0.1179447633533638 0 0.086556394091245922 0.1353209991194336 0 0.1036779998190997 0.1325332745380238 0 0.1059994753982218 0.1468281271649389 0 0.1036779998190997 0.1325332745380238 0 0.12141129518055099 0.13003920851435891 0 0.12141129518055099 0.13003920851435891 0 0.14471339593583199 0.13534457858400331 0 0.13185579871384451 0.15157154659873509 0 0.14471339593583199 0.13534457858400331 0 0.1549374545894944 0.15083175104174781 0 0.14398549810638411 0.16110189457449459 0 0.14471339593583199 0.13534457858400331 0 0.1549374545894944 0.15083175104174781 0 0.1629992657221141 0.13580989092211729 0 0.14471339593583199 0.13534457858400331 0 0.13185579871384451 0.15157154659873509 0 0.14398549810638411 0.16110189457449459 0 0.13185579871384451 0.15157154659873509 0 0.13498534572251991 0.17183796400667681 0 0.14398549810638411 0.16110189457449459 0 0.1211601110354374 0.1691808506348145 0 0.13185579871384451 0.15157154659873509 0 0.13498534572251991 0.17183796400667681 0 0.1211601110354374 0.1691808506348145 0 0.13498534572251991 0.17183796400667681 0 0.1303668416208609 0.1930299377262959 0 0.13498534572251991 0.17183796400667681 0 0.14476270295454691 0.1789565105530897 0 0.1303668416208609 0.1930299377262959 0 0.14476270295454691 0.1789565105530897 0 0.1303668416208609 0.1930299377262959 0 0.14661764689485249 0.19028372173339961 0 0.14476270295454691 0.1789565105530897 0 0.15619454576793559 0.17805739650617 0 0.1566387616154582 0.16639599055522389 0 0.15619454576793559 0.17805739650617 0 0.14661764689485249 0.19028372173339961 0 0.15986220133138229 0.18945677360309929 0 0.14476270295454691 0.1789565105530897 0 0.15619454576793559 0.17805739650617 0 0.14661764689485249 0.19028372173339961 0 0.14476270295454691 0.1789565105530897 0 0.14398549810638411 0.16110189457449459 0 0.1566387616154582 0.16639599055522389 0 0.13498534572251991 0.17183796400667681 0 0.14476270295454691 0.1789565105530897 0 0.14398549810638411 0.16110189457449459 0 0.1549374545894944 0.15083175104174781 0 0.14398549810638411 0.16110189457449459 0 0.1566387616154582 0.16639599055522389 0 0.1566387616154582 0.16639599055522389 0 0.167054970719238 0.1673462290624238 0 0.16561848593407741 0.15634818618439639 0 0.1549374545894944 0.15083175104174781 0 0.1566387616154582 0.16639599055522389 0 0.16561848593407741 0.15634818618439639 0 0.1566387616154582 0.16639599055522389 0 0.167054970719238 0.1673462290624238 0 0.16206405687381301 0.17195591504991831 0 0.167054970719238 0.1673462290624238 0 0.1683679493926202 0.17602404407585551 0 0.17250140734744479 0.1687509041015616 0 0.167054970719238 0.1673462290624238 0 0.16206405687381301 0.17195591504991831 0 0.1683679493926202 0.17602404407585551 0 0.167054970719238 0.1673462290624238 0 0.17328160825544531 0.16223662146150011 0 0.17250140734744479 0.1687509041015616 0 0.167054970719238 0.1673462290624238 0 0.16561848593407741 0.15634818618439639 0 0.17328160825544531 0.16223662146150011 0 0.1683679493926202 0.17602404407585551 0 0.17757300091329711 0.18709986984895821 0 0.15986220133138229 0.18945677360309929 0 0.15619454576793559 0.17805739650617 0 0.1683679493926202 0.17602404407585551 0 0.15986220133138229 0.18945677360309929 0 0.15619454576793559 0.17805739650617 0 0.1566387616154582 0.16639599055522389 0 0.16206405687381301 0.17195591504991831 0 0.15619454576793559 0.17805739650617 0 0.16206405687381301 0.17195591504991831 0 0.1683679493926202 0.17602404407585551 0 0.1683679493926202 0.17602404407585551 0 0.17757300091329711 0.18709986984895821 0 0.18130110102247571 0.16939672180646709 0 0.17757300091329711 0.18709986984895821 0 0.18130110102247571 0.16939672180646709 0 0.1933643889982091 0.17609830015544961 0 0.17757300091329711 0.18709986984895821 0 0.19029864825297629 0.19730697803585609 0 0.1933643889982091 0.17609830015544961 0 0.18130110102247571 0.16939672180646709 0 0.17816684441927211 0.15551100334015869 0 0.1933643889982091 0.17609830015544961 0 0.17816684441927211 0.15551100334015869 0 0.1933643889982091 0.17609830015544961 0 0.16561848593407741 0.15634818618439639 0 0.17328160825544531 0.16223662146150011 0 0.17816684441927211 0.15551100334015869 0 0.17328160825544531 0.16223662146150011 0 0.18130110102247571 0.16939672180646709 0 0.17816684441927211 0.15551100334015869 0 0.1683679493926202 0.17602404407585551 0 0.17250140734744479 0.1687509041015616 0 0.18130110102247571 0.16939672180646709 0 0.17328160825544531 0.16223662146150011 0 0.17250140734744479 0.1687509041015616 0 0.18130110102247571 0.16939672180646709 0 0.17816684441927211 0.15551100334015869 0 0.17964817570406791 0.13634462549232171 0 0.19722738995059499 0.1376374958770912 0 0.17816684441927211 0.15551100334015869 0 0.17964817570406791 0.13634462549232171 0 0.1629992657221141 0.13580989092211729 0 0.17964817570406791 0.13634462549232171 0 0.19722738995059499 0.1376374958770912 0 0.18524039599972891 0.11901872056247639 0 0.14471339593583199 0.13534457858400331 0 0.1629992657221141 0.13580989092211729 0 0.1676597366576156 0.1189750387536577 0 0.17964817570406791 0.13634462549232171 0 0.1629992657221141 0.13580989092211729 0 0.1676597366576156 0.1189750387536577 0 0.17816684441927211 0.15551100334015869 0 0.1629992657221141 0.13580989092211729 0 0.16561848593407741 0.15634818618439639 0 0.17816684441927211 0.15551100334015869 0 0.1629992657221141 0.13580989092211729 0 0.1549374545894944 0.15083175104174781 0 0.16561848593407741 0.15634818618439639 0 0.1629992657221141 0.13580989092211729 0 0.13305648654768229 0.2393751701912748 0 0.15246066170691619 0.2323881446876791 0 0.15276295273936141 0.25135955429551371 0 0.13305648654768229 0.2393751701912748 0 0.15276295273936141 0.25135955429551371 0 0.1390278087719011 0.25771973242997082 0 0.1123330678616118 0.23283361382323059 0 0.13305648654768229 0.2393751701912748 0 0.13087863425710941 0.21437450318233109 0 0.13305648654768229 0.2393751701912748 0 0.15246066170691619 0.2323881446876791 0 0.13087863425710941 0.21437450318233109 0 0.15246066170691619 0.2323881446876791 0 0.13087863425710941 0.21437450318233109 0 0.15246066170691619 0.2323881446876791 0 0.14969980430244331 0.20647417200655949 0 0.13087863425710941 0.21437450318233109 0 0.14969980430244331 0.20647417200655949 0 0.13087863425710941 0.21437450318233109 0 0.1303668416208609 0.1930299377262959 0 0.14969980430244331 0.20647417200655949 0 0.1303668416208609 0.1930299377262959 0 0.14969980430244331 0.20647417200655949 0 0.14661764689485249 0.19028372173339961 0 0.15986220133138229 0.18945677360309929 0 0.14969980430244331 0.20647417200655949 0 0.1303668416208609 0.1930299377262959 0 0.14661764689485249 0.19028372173339961 0 0.17757300091329711 0.18709986984895821 0 0.15986220133138229 0.18945677360309929 0 0.1726861107908432 0.21173403218071521 0 0.14969980430244331 0.20647417200655949 0 0.15986220133138229 0.18945677360309929 0 0.1726861107908432 0.21173403218071521 0 0.17757300091329711 0.18709986984895821 0 0.1726861107908432 0.21173403218071521 0 0.19029864825297629 0.19730697803585609 0 0.1726861107908432 0.21173403218071521 0 0.19704553014307921 0.21429559857908559 0 0.19029864825297629 0.19730697803585609 0 0.15246066170691619 0.2323881446876791 0 0.14969980430244331 0.20647417200655949 0 0.1726861107908432 0.21173403218071521 0 0.15246066170691619 0.2323881446876791 0 0.1726861107908432 0.21173403218071521 0 0.170560974883426 0.23251355370088561 0 0.1726861107908432 0.21173403218071521 0 0.18554410964990231 0.23234869238605521 0 0.19704553014307921 0.21429559857908559 0 0.1726861107908432 0.21173403218071521 0 0.170560974883426 0.23251355370088561 0 0.18554410964990231 0.23234869238605521 0 0.170560974883426 0.23251355370088561 0 0.18554410964990231 0.23234869238605521 0 0.17404268915672511 0.25040178619302461 0 0.18554410964990231 0.23234869238605521 0 0.18979826926286991 0.24914387649513439 0 0.17404268915672511 0.25040178619302461 0 0.18554410964990231 0.23234869238605521 0 0.17404268915672511 0.25040178619302461 0 0.15246066170691619 0.2323881446876791 0 0.170560974883426 0.23251355370088561 0 0.17404268915672511 0.25040178619302461 0 0.15246066170691619 0.2323881446876791 0 0.15276295273936141 0.25135955429551371 0 0.17404268915672511 0.25040178619302461 0 0.15246066170691619 0.2323881446876791 0 0.17404268915672511 0.25040178619302461 0 0.20402072125963189 0.24544228464806081 0 0.2124558855340474 0.22250182654272591 0 0.22100716546316321 0.24231306833135219 0 0.20402072125963189 0.24544228464806081 0 0.22100716546316321 0.24231306833135219 0 0.21732544452201211 0.25625544438720987 0 0.18554410964990231 0.23234869238605521 0 0.20402072125963189 0.24544228464806081 0 0.1993844392299764 0.2284759498431411 0 0.18554410964990231 0.23234869238605521 0 0.20402072125963189 0.24544228464806081 0 0.18979826926286991 0.24914387649513439 0 0.18554410964990231 0.23234869238605521 0 0.19704553014307921 0.21429559857908559 0 0.18554410964990231 0.23234869238605521 0 0.1993844392299764 0.2284759498431411 0 0.19704553014307921 0.21429559857908559 0 0.20402072125963189 0.24544228464806081 0 0.2124558855340474 0.22250182654272591 0 0.20402072125963189 0.24544228464806081 0 0.1993844392299764 0.2284759498431411 0 0.2124558855340474 0.22250182654272591 0 0.1993844392299764 0.2284759498431411 0 0.2124558855340474 0.22250182654272591 0 0.20772384479284389 0.21281550218770021 0 0.21778094232674519 0.20801968508260871 0 0.20772384479284389 0.21281550218770021 0 0.20854695063625631 0.19624250477211599 0 0.20772384479284389 0.21281550218770021 0 0.19704553014307921 0.21429559857908559 0 0.20854695063625631 0.19624250477211599 0 0.2124558855340474 0.22250182654272591 0 0.21778094232674519 0.20801968508260871 0 0.2124558855340474 0.22250182654272591 0 0.21778094232674519 0.20801968508260871 0 0.20772384479284389 0.21281550218770021 0 0.19704553014307921 0.21429559857908559 0 0.20854695063625631 0.19624250477211599 0 0.1993844392299764 0.2284759498431411 0 0.20772384479284389 0.21281550218770021 0 0.19704553014307921 0.21429559857908559 0 0.19704553014307921 0.21429559857908559 0 0.19029864825297629 0.19730697803585609 0 0.20854695063625631 0.19624250477211599 0 0.19029864825297629 0.19730697803585609 0 0.20854695063625631 0.19624250477211599 0 0.1933643889982091 0.17609830015544961 0 0.20854695063625631 0.19624250477211599 0 0.22089104980846291 0.19956136843739089 0 0.2188074915729438 0.18013714559929361 0 0.20854695063625631 0.19624250477211599 0 0.2188074915729438 0.18013714559929361 0 0.21778094232674519 0.20801968508260871 0 0.20854695063625631 0.19624250477211599 0 0.21778094232674519 0.20801968508260871 0 0.20854695063625631 0.19624250477211599 0 0.22089104980846291 0.19956136843739089 0 0.22089104980846291 0.19956136843739089 0 0.2293262140828784 0.17662091033205601 0 0.22089104980846291 0.19956136843739089 0 0.23437131496047539 0.19145310622656531 0 0.2293262140828784 0.17662091033205601 0 0.22089104980846291 0.19956136843739089 0 0.23437131496047539 0.19145310622656531 0 0.23454774240819409 0.20493815911600499 0 0.24382989837042801 0.19705337448612881 0 0.24420701379670881 0.18017269424908131 0 0.25519195231445568 0.18957530113497159 0 0.23437131496047539 0.19145310622656531 0 0.24382989837042801 0.19705337448612881 0 0.24420701379670881 0.18017269424908131 0 0.23437131496047539 0.19145310622656531 0 0.24382989837042801 0.19705337448612881 0 0.23454774240819409 0.20493815911600499 0 0.23454774240819409 0.20493815911600499 0 0.2428806973196492 0.20821005743970139 0 0.2391947199181188 0.2178480815829365 0 0.24382989837042801 0.19705337448612881 0 0.23454774240819409 0.20493815911600499 0 0.2428806973196492 0.20821005743970139 0 0.24382989837042801 0.19705337448612881 0 0.2428806973196492 0.20821005743970139 0 0.25366741894655059 0.21144992167050181 0 0.2391947199181188 0.2178480815829365 0 0.24565594326316759 0.22581587786517651 0 0.25366741894655059 0.21144992167050181 0 0.2428806973196492 0.20821005743970139 0 0.2391947199181188 0.2178480815829365 0 0.25366741894655059 0.21144992167050181 0 0.2124558855340474 0.22250182654272591 0 0.21778094232674519 0.20801968508260871 0 0.2282107178442736 0.21712812462959169 0 0.21778094232674519 0.20801968508260871 0 0.22089104980846291 0.19956136843739089 0 0.2282107178442736 0.21712812462959169 0 0.23454774240819409 0.20493815911600499 0 0.2391947199181188 0.2178480815829365 0 0.2282107178442736 0.21712812462959169 0 0.22089104980846291 0.19956136843739089 0 0.23454774240819409 0.20493815911600499 0 0.2282107178442736 0.21712812462959169 0 0.21778094232674519 0.20801968508260871 0 0.22089104980846291 0.19956136843739089 0 0.2124558855340474 0.22250182654272591 0 0.2282107178442736 0.21712812462959169 0 0.22647191178809331 0.2307264322008013 0 0.2124558855340474 0.22250182654272591 0 0.22647191178809331 0.2307264322008013 0 0.22100716546316321 0.24231306833135219 0 0.2282107178442736 0.21712812462959169 0 0.22647191178809331 0.2307264322008013 0 0.23664834127302059 0.22827385538552589 0 0.2391947199181188 0.2178480815829365 0 0.2282107178442736 0.21712812462959169 0 0.23664834127302059 0.22827385538552589 0 0.2391947199181188 0.2178480815829365 0 0.24565594326316759 0.22581587786517651 0 0.23664834127302059 0.22827385538552589 0 0.24565594326316759 0.22581587786517651 0 0.24370578642604121 0.23771377600570481 0 0.25219170164853438 0.2346690458950618 0 0.24565594326316759 0.22581587786517651 0 0.23664834127302059 0.22827385538552589 0 0.24370578642604121 0.23771377600570481 0 0.23664834127302059 0.22827385538552589 0 0.24370578642604121 0.23771377600570481 0 0.23531748857091911 0.24569614115830879 0 0.24370578642604121 0.23771377600570481 0 0.25033710606835441 0.24431151828744141 0 0.25219170164853438 0.2346690458950618 0 0.2432918864305601 0.24652199083231721 0 0.24445832253036559 0.2549088082697154 0 0.25033710606835441 0.24431151828744141 0 0.24370578642604121 0.23771377600570481 0 0.2432918864305601 0.24652199083231721 0 0.25033710606835441 0.24431151828744141 0 0.24370578642604121 0.23771377600570481 0 0.2432918864305601 0.24652199083231721 0 0.23531748857091911 0.24569614115830879 0 0.2432918864305601 0.24652199083231721 0 0.23531748857091911 0.24569614115830879 0 0.24445832253036559 0.2549088082697154 0 0.23531748857091911 0.24569614115830879 0 0.22100716546316321 0.24231306833135219 0 0.23020341775841399 0.25395228280595811 0 0.22647191178809331 0.2307264322008013 0 0.23664834127302059 0.22827385538552589 0 0.23531748857091911 0.24569614115830879 0 0.22647191178809331 0.2307264322008013 0 0.23531748857091911 0.24569614115830879 0 0.22100716546316321 0.24231306833135219 0 0.21287030294419071 0.14282299033041879 0 0.195728446695004 0.15513896596998111 0 0.2152172732838791 0.1582592678158378 0 0.21287030294419071 0.14282299033041879 0 0.2152172732838791 0.1582592678158378 0 0.22438627733182931 0.15054213089556689 0 0.21287030294419071 0.14282299033041879 0 0.22702465691960569 0.13672222032037229 0 0.21628793548191769 0.11976398841402359 0 0.19722738995059499 0.1376374958770912 0 0.21628793548191769 0.11976398841402359 0 0.21287030294419071 0.14282299033041879 0 0.19722738995059499 0.1376374958770912 0 0.21628793548191769 0.11976398841402359 0 0.21287030294419071 0.14282299033041879 0 0.19722738995059499 0.1376374958770912 0 0.195728446695004 0.15513896596998111 0 0.17816684441927211 0.15551100334015869 0 0.19722738995059499 0.1376374958770912 0 0.17816684441927211 0.15551100334015869 0 0.19722738995059499 0.1376374958770912 0 0.195728446695004 0.15513896596998111 0 0.17816684441927211 0.15551100334015869 0 0.195728446695004 0.15513896596998111 0 0.1933643889982091 0.17609830015544961 0 0.195728446695004 0.15513896596998111 0 0.1933643889982091 0.17609830015544961 0 0.20770832069920619 0.17090235195001671 0 0.20854695063625631 0.19624250477211599 0 0.1933643889982091 0.17609830015544961 0 0.20854695063625631 0.19624250477211599 0 0.1933643889982091 0.17609830015544961 0 0.20770832069920619 0.17090235195001671 0 0.20854695063625631 0.19624250477211599 0 0.20770832069920619 0.17090235195001671 0 0.2188074915729438 0.18013714559929361 0 0.20770832069920619 0.17090235195001671 0 0.22002341495861691 0.16942907989633779 0 0.2188074915729438 0.18013714559929361 0 0.195728446695004 0.15513896596998111 0 0.20770832069920619 0.17090235195001671 0 0.2152172732838791 0.1582592678158378 0 0.20770832069920619 0.17090235195001671 0 0.2152172732838791 0.1582592678158378 0 0.22002341495861691 0.16942907989633779 0 0.2293262140828784 0.17662091033205601 0 0.23776137835729369 0.1536804522267208 0 0.2152172732838791 0.1582592678158378 0 0.22534291160289949 0.16170636823330389 0 0.22438627733182931 0.15054213089556689 0 0.22534291160289949 0.16170636823330389 0 0.2293262140828784 0.17662091033205601 0 0.23776137835729369 0.1536804522267208 0 0.2152172732838791 0.1582592678158378 0 0.22534291160289949 0.16170636823330389 0 0.22002341495861691 0.16942907989633779 0 0.22534291160289949 0.16170636823330389 0 0.22002341495861691 0.16942907989633779 0 0.2293262140828784 0.17662091033205601 0 0.22089104980846291 0.19956136843739089 0 0.2188074915729438 0.18013714559929361 0 0.2293262140828784 0.17662091033205601 0 0.22002341495861691 0.16942907989633779 0 0.2188074915729438 0.18013714559929361 0 0.2293262140828784 0.17662091033205601 0 0.23437131496047539 0.19145310622656531 0 0.2293262140828784 0.17662091033205601 0 0.24420701379670881 0.18017269424908131 0 0.2293262140828784 0.17662091033205601 0 0.24420701379670881 0.18017269424908131 0 0.23903790090830779 0.1688404405002796 0 0.24420701379670881 0.18017269424908131 0 0.2448569973963507 0.16488770519326021 0 0.25945119012847401 0.17316462773615879 0 0.2293262140828784 0.17662091033205601 0 0.23903790090830779 0.1688404405002796 0 0.23776137835729369 0.1536804522267208 0 0.2448569973963507 0.16488770519326021 0 0.23776137835729369 0.1536804522267208 0 0.25732524618445352 0.15123328297560429 0 0.23903790090830779 0.1688404405002796 0 0.2448569973963507 0.16488770519326021 0 0.23776137835729369 0.1536804522267208 0 0.2448569973963507 0.16488770519326021 0 0.23776137835729369 0.1536804522267208 0 0.24420701379670881 0.18017269424908131 0 0.23903790090830779 0.1688404405002796 0 0.2448569973963507 0.16488770519326021 0 0.23776137835729369 0.1536804522267208 0 0.24525689464969749 0.13329548142001371 0 0.23776137835729369 0.1536804522267208 0 0.22702465691960569 0.13672222032037229 0 0.24525689464969749 0.13329548142001371 0 0.23776137835729369 0.1536804522267208 0 0.24525689464969749 0.13329548142001371 0 0.25732524618445352 0.15123328297560429 0 0.23776137835729369 0.1536804522267208 0 0.22438627733182931 0.15054213089556689 0 0.22702465691960569 0.13672222032037229 0 0.23776137835729369 0.1536804522267208 0 0.22702465691960569 0.13672222032037229 0 0.22534291160289949 0.16170636823330389 0 0.23776137835729369 0.1536804522267208 0 0.22438627733182931 0.15054213089556689 0 0.21287030294419071 0.14282299033041879 0 0.22438627733182931 0.15054213089556689 0 0.22702465691960569 0.13672222032037229 0 0.22702465691960569 0.13672222032037229 0 0.2355395767940669 0.1207238333845444 0 0.21628793548191769 0.11976398841402359 0 0.22702465691960569 0.13672222032037229 0 0.21628793548191769 0.11976398841402359 0 0.22702465691960569 0.13672222032037229 0 0.24525689464969749 0.13329548142001371 0 0.2355395767940669 0.1207238333845444 0 0.24525689464969749 0.13329548142001371 0 0.2527524109421011 0.1129105106133064 0 0.24525689464969749 0.13329548142001371 0 0.2355395767940669 0.1207238333845444 0 0.2527524109421011 0.1129105106133064 0 0.2355395767940669 0.1207238333845444 0 0.2363759859770124 0.1009269661550061 0 0.2527524109421011 0.1129105106133064 0 0.2363759859770124 0.1009269661550061 0 0.25090492674597259 0.097980981076254831 0 0.2527524109421011 0.1129105106133064 0 0.2363759859770124 0.1009269661550061 0 0.22038573902028991 0.099209806507870146 0 0.21628793548191769 0.11976398841402359 0 0.2363759859770124 0.1009269661550061 0 0.22038573902028991 0.099209806507870146 0 0.23276137935384339 0.089471234507965583 0 0.2363759859770124 0.1009269661550061 0 0.21628793548191769 0.11976398841402359 0 0.2355395767940669 0.1207238333845444 0 0.2363759859770124 0.1009269661550061 0 0.21628793548191769 0.11976398841402359 0 0.21628793548191769 0.11976398841402359 0 0.20726381473963351 0.1055107423754917 0 0.19988115605601989 0.1172489255671314 0 0.19722738995059499 0.1376374958770912 0 0.21628793548191769 0.11976398841402359 0 0.19988115605601989 0.1172489255671314 0 0.21628793548191769 0.11976398841402359 0 0.20726381473963351 0.1055107423754917 0 0.22038573902028991 0.099209806507870146 0 0.21628793548191769 0.11976398841402359 0 0.20726381473963351 0.1055107423754917 0 0.22038573902028991 0.099209806507870146 0 0.21119597549552929 0.095360012704558711 0 0.20726381473963351 0.1055107423754917 0 0.21119597549552929 0.095360012704558711 0 0.20726381473963351 0.1055107423754917 0 0.19823969399734881 0.091257496336960051 0 0.20726381473963351 0.1055107423754917 0 0.19219808977974101 0.10642290371309419 0 0.19823969399734881 0.091257496336960051 0 0.20726381473963351 0.1055107423754917 0 0.19823969399734881 0.091257496336960051 0 0.19219808977974101 0.10642290371309419 0 0.19988115605601989 0.1172489255671314 0 0.18524039599972891 0.11901872056247639 0 0.19722738995059499 0.1376374958770912 0 0.19988115605601989 0.1172489255671314 0 0.18524039599972891 0.11901872056247639 0 0.20726381473963351 0.1055107423754917 0 0.19219808977974101 0.10642290371309419 0 0.19988115605601989 0.1172489255671314 0 0.2066437270605736 0.081504641690739357 0 0.21568643282295361 0.072340831458466759 0 0.18584171845640179 0.071675378498397668 0 0.21568643282295361 0.072340831458466759 0 0.18584171845640179 0.071675378498397668 0 0.19972294057001819 0.065051568010613806 0 0.21568643282295361 0.072340831458466759 0 0.18584171845640179 0.071675378498397668 0 0.19972294057001819 0.065051568010613806 0 0.1896383726356527 0.061991394001463578 0 0.18584171845640179 0.071675378498397668 0 0.19823969399734881 0.091257496336960051 0 0.18584171845640179 0.071675378498397668 0 0.19823969399734881 0.091257496336960051 0 0.2066437270605736 0.081504641690739357 0 0.18584171845640179 0.071675378498397668 0 0.19823969399734881 0.091257496336960051 0 0.18151162710571561 0.085928846702270967 0 0.18584171845640179 0.071675378498397668 0 0.19823969399734881 0.091257496336960051 0 0.2066437270605736 0.081504641690739357 0 0.21889465422484511 0.085462005597912977 0 0.19823969399734881 0.091257496336960051 0 0.21889465422484511 0.085462005597912977 0 0.21119597549552929 0.095360012704558711 0 0.19823969399734881 0.091257496336960051 0 0.21889465422484511 0.085462005597912977 0 0.22038573902028991 0.099209806507870146 0 0.21119597549552929 0.095360012704558711 0 0.21889465422484511 0.085462005597912977 0 0.2066437270605736 0.081504641690739357 0 0.21568643282295361 0.072340831458466759 0 0.21889465422484511 0.085462005597912977 0 0.19972294057001819 0.065051568010613806 0 0.21568643282295361 0.072340831458466759 0 0.20937817562355349 0.06262621953075867 0 0.21568643282295361 0.072340831458466759 0 0.20937817562355349 0.06262621953075867 0 0.2197232601578325 0.064056685915457295 0 0.21568643282295361 0.072340831458466759 0 0.2395496144523408 0.079666514858863752 0 0.24553114718950539 0.073006284418535669 0 0.21568643282295361 0.072340831458466759 0 0.23071846361161591 0.067754836972908863 0 0.24553114718950539 0.073006284418535669 0 0.2197232601578325 0.064056685915457295 0 0.23071846361161591 0.067754836972908863 0 0.22590868136456019 0.059602045879981157 0 0.21568643282295361 0.072340831458466759 0 0.2197232601578325 0.064056685915457295 0 0.23071846361161591 0.067754836972908863 0 0.21568643282295361 0.072340831458466759 0 0.24553114718950539 0.073006284418535669 0 0.21889465422484511 0.085462005597912977 0 0.23276137935384339 0.089471234507965583 0 0.2395496144523408 0.079666514858863752 0 0.21568643282295361 0.072340831458466759 0 0.21889465422484511 0.085462005597912977 0 0.2395496144523408 0.079666514858863752 0 0.21889465422484511 0.085462005597912977 0 0.2395496144523408 0.079666514858863752 0 0.22038573902028991 0.099209806507870146 0 0.21889465422484511 0.085462005597912977 0 0.23276137935384339 0.089471234507965583 0 0.2363759859770124 0.1009269661550061 0 0.23276137935384339 0.089471234507965583 0 0.24425971994930409 0.083061467606559247 0 0.2363759859770124 0.1009269661550061 0 0.24425971994930409 0.083061467606559247 0 0.25646403647210669 0.082089943895988643 0 0.2363759859770124 0.1009269661550061 0 0.25646403647210669 0.082089943895988643 0 0.2363759859770124 0.1009269661550061 0 0.25646403647210669 0.082089943895988643 0 0.25090492674597259 0.097980981076254831 0 0.23276137935384339 0.089471234507965583 0 0.2395496144523408 0.079666514858863752 0 0.24425971994930409 0.083061467606559247 0 0.2395496144523408 0.079666514858863752 0 0.24425971994930409 0.083061467606559247 0 0.24553114718950539 0.073006284418535669 0 0.23071846361161591 0.067754836972908863 0 0.2406585804229264 0.06633629022597895 0 0.23800367704304229 0.059700222678326503 0 0.23071846361161591 0.067754836972908863 0 0.2406585804229264 0.06633629022597895 0 0.24553114718950539 0.073006284418535669 0 0.24425971994930409 0.083061467606559247 0 0.24553114718950539 0.073006284418535669 0 0.25487615625101567 0.07320786180299578 0 0.24553114718950539 0.073006284418535669 0 0.24838103384754201 0.064883816834144792 0 0.25487615625101567 0.07320786180299578 0 0.2406585804229264 0.06633629022597895 0 0.24553114718950539 0.073006284418535669 0 0.24838103384754201 0.064883816834144792 0 0.2406585804229264 0.06633629022597895 0 0.24838103384754201 0.064883816834144792 0 0.23800367704304229 0.059700222678326503 0 0.24838103384754201 0.064883816834144792 0 0.23800367704304229 0.059700222678326503 0 0.2490609562196687 0.053627545471776603 0 0.23952249438881551 0.050464886863935562 0 0.2331343022652258 0.044627727287091128 0 0.23190921822991631 0.052690819255530798 0 0.23800367704304229 0.059700222678326503 0 0.23952249438881551 0.050464886863935562 0 0.23190921822991631 0.052690819255530798 0 0.23952249438881551 0.050464886863935562 0 0.2490609562196687 0.053627545471776603 0 0.24510646900229111 0.042743339310185043 0 0.23800367704304229 0.059700222678326503 0 0.23952249438881551 0.050464886863935562 0 0.2490609562196687 0.053627545471776603 0 0.24510646900229111 0.042743339310185043 0 0.23475179501407209 0.035875899819888271 0 0.25372746045280348 0.0293196290751148 0 0.23952249438881551 0.050464886863935562 0 0.24510646900229111 0.042743339310185043 0 0.2331343022652258 0.044627727287091128 0 0.24510646900229111 0.042743339310185043 0 0.23475179501407209 0.035875899819888271 0 0.2331343022652258 0.044627727287091128 0 0.2331343022652258 0.044627727287091128 0 0.22463951850760849 0.039539964859206918 0 0.2219214804072116 0.049007980853557828 0 0.23475179501407209 0.035875899819888271 0 0.2331343022652258 0.044627727287091128 0 0.22463951850760849 0.039539964859206918 0 0.23475179501407209 0.035875899819888271 0 0.22527401947674411 0.033676045161578308 0 0.22713521018643401 0.02688010419225401 0 0.23475179501407209 0.035875899819888271 0 0.22527401947674411 0.033676045161578308 0 0.22463951850760849 0.039539964859206918 0 0.22527401947674411 0.033676045161578308 0 0.22463951850760849 0.039539964859206918 0 0.21601604858383339 0.033154117827553203 0 0.22463951850760849 0.039539964859206918 0 0.2219214804072116 0.049007980853557828 0 0.21249604175991779 0.041909779676309288 0 0.2219214804072116 0.049007980853557828 0 0.22590868136456019 0.059602045879981157 0 0.2169245473664794 0.057959495735171063 0 0.2197232601578325 0.064056685915457295 0 0.22590868136456019 0.059602045879981157 0 0.2169245473664794 0.057959495735171063 0 0.23071846361161591 0.067754836972908863 0 0.23800367704304229 0.059700222678326503 0 0.22590868136456019 0.059602045879981157 0 0.23800367704304229 0.059700222678326503 0 0.22590868136456019 0.059602045879981157 0 0.23190921822991631 0.052690819255530798 0 0.2219214804072116 0.049007980853557828 0 0.22590868136456019 0.059602045879981157 0 0.23190921822991631 0.052690819255530798 0 0.2331343022652258 0.044627727287091128 0 0.2219214804072116 0.049007980853557828 0 0.23190921822991631 0.052690819255530798 0 0.24504537028208631 0.012710625166811229 0 0.22920319979375789 0.013780610614135351 0 0.23161248302967111 0.001740318802090361 0 0.24397708060534851 0.00076903392350891183 0 0.24504537028208631 0.012710625166811229 0 0.23161248302967111 0.001740318802090361 0 0.24397708060534851 0.00076903392350891183 0 0.24504537028208631 0.012710625166811229 0 0.2592490732137257 0.0017951579894068591 0 0.24504537028208631 0.012710625166811229 0 0.23733844004822649 0.021100179017436538 0 0.25372746045280348 0.0293196290751148 0 0.24504537028208631 0.012710625166811229 0 0.23733844004822649 0.021100179017436538 0 0.22920319979375789 0.013780610614135351 0 0.23733844004822649 0.021100179017436538 0 0.22713521018643401 0.02688010419225401 0 0.25372746045280348 0.0293196290751148 0 0.22713521018643401 0.02688010419225401 0 0.25372746045280348 0.0293196290751148 0 0.23475179501407209 0.035875899819888271 0 0.22713521018643401 0.02688010419225401 0 0.25372746045280348 0.0293196290751148 0 0.22527401947674411 0.033676045161578308 0 0.22713521018643401 0.02688010419225401 0 0.21601604858383339 0.033154117827553203 0 0.22713521018643401 0.02688010419225401 0 0.22108053340980729 0.0249024600354735 0 0.22591850016292481 0.020347934250247911 0 0.22108053340980729 0.0249024600354735 0 0.22591850016292481 0.020347934250247911 0 0.2227088296869324 0.016085998619498769 0 0.22108053340980729 0.0249024600354735 0 0.2227088296869324 0.016085998619498769 0 0.21518714186955129 0.013535354408949551 0 0.22591850016292481 0.020347934250247911 0 0.2227088296869324 0.016085998619498769 0 0.22920319979375789 0.013780610614135351 0 0.23733844004822649 0.021100179017436538 0 0.22713521018643401 0.02688010419225401 0 0.22591850016292481 0.020347934250247911 0 0.23733844004822649 0.021100179017436538 0 0.22591850016292481 0.020347934250247911 0 0.22920319979375789 0.013780610614135351 0 0.2227088296869324 0.016085998619498769 0 0.22920319979375789 0.013780610614135351 0 0.22215477319862079 0.0078636337886875234 0 0.2227088296869324 0.016085998619498769 0 0.22215477319862079 0.0078636337886875234 0 0.21518714186955129 0.013535354408949551 0 0.22215477319862079 0.0078636337886875234 0 0.23161248302967111 0.001740318802090361 0 0.21656024508351429 -0.0014627478743725779 0 0.22920319979375789 0.013780610614135351 0 0.22215477319862079 0.0078636337886875234 0 0.23161248302967111 0.001740318802090361 0 0.20272455865576069 0.01059814930704531 0 0.21656024508351429 -0.0014627478743725779 0 0.20167340524385621 -0.0052805064801682402 0 0.21518714186955129 0.013535354408949551 0 0.20272455865576069 0.01059814930704531 0 0.21656024508351429 -0.0014627478743725779 0 0.22215477319862079 0.0078636337886875234 0 0.21518714186955129 0.013535354408949551 0 0.21656024508351429 -0.0014627478743725779 0 0.22108053340980729 0.0249024600354735 0 0.20272455865576069 0.01059814930704531 0 0.22713521018643401 0.02688010419225401 0 0.2005429599200643 0.024440579309393209 0 0.22713521018643401 0.02688010419225401 0 0.2005429599200643 0.024440579309393209 0 0.21601604858383339 0.033154117827553203 0 0.22108053340980729 0.0249024600354735 0 0.21518714186955129 0.013535354408949551 0 0.20272455865576069 0.01059814930704531 0 0.22108053340980729 0.0249024600354735 0 0.2005429599200643 0.024440579309393209 0 0.20272455865576069 0.01059814930704531 0 0.22713521018643401 0.02688010419225401 0 0.22108053340980729 0.0249024600354735 0 0.2005429599200643 0.024440579309393209 0 0.2005429599200643 0.024440579309393209 0 0.21601604858383339 0.033154117827553203 0 0.20378123177366869 0.035212178076319961 0 0.2005429599200643 0.024440579309393209 0 0.19136441614879809 0.033408010827566767 0 0.17395070965369469 0.02200105442653242 0 0.2005429599200643 0.024440579309393209 0 0.20378123177366869 0.035212178076319961 0 0.19136441614879809 0.033408010827566767 0 0.20272455865576069 0.01059814930704531 0 0.18436858390171409 -0.0037061614213828738 0 0.20272455865576069 0.01059814930704531 0 0.18436858390171409 -0.0037061614213828738 0 0.20167340524385621 -0.0052805064801682402 0 0.20272455865576069 0.01059814930704531 0 0.18724850204133181 0.01169453453732819 0 0.18436858390171409 -0.0037061614213828738 0 0.2005429599200643 0.024440579309393209 0 0.20272455865576069 0.01059814930704531 0 0.18724850204133181 0.01169453453732819 0 0.20937817562355349 0.06262621953075867 0 0.2078213248248364 0.051332457772106599 0 0.1980700033115291 0.056624016563982298 0 0.20937817562355349 0.06262621953075867 0 0.2197232601578325 0.064056685915457295 0 0.2169245473664794 0.057959495735171063 0 0.20937817562355349 0.06262621953075867 0 0.2078213248248364 0.051332457772106599 0 0.2169245473664794 0.057959495735171063 0 0.2219214804072116 0.049007980853557828 0 0.2078213248248364 0.051332457772106599 0 0.2169245473664794 0.057959495735171063 0 0.2219214804072116 0.049007980853557828 0 0.2078213248248364 0.051332457772106599 0 0.21249604175991779 0.041909779676309288 0 0.22463951850760849 0.039539964859206918 0 0.21249604175991779 0.041909779676309288 0 0.21601604858383339 0.033154117827553203 0 0.21249604175991779 0.041909779676309288 0 0.21601604858383339 0.033154117827553203 0 0.20378123177366869 0.035212178076319961 0 0.21249604175991779 0.041909779676309288 0 0.20378123177366869 0.035212178076319961 0 0.19776259313679689 0.043847078599275127 0 0.2078213248248364 0.051332457772106599 0 0.21249604175991779 0.041909779676309288 0 0.19776259313679689 0.043847078599275127 0 0.19776259313679689 0.043847078599275127 0 0.19136441614879809 0.033408010827566767 0 0.18078458625976571 0.041539163726313118 0 0.19776259313679689 0.043847078599275127 0 0.1872134482565217 0.053640886336966211 0 0.18078458625976571 0.041539163726313118 0 0.20378123177366869 0.035212178076319961 0 0.19776259313679689 0.043847078599275127 0 0.19136441614879809 0.033408010827566767 0 0.19776259313679689 0.043847078599275127 0 0.1980700033115291 0.056624016563982298 0 0.1872134482565217 0.053640886336966211 0 0.2078213248248364 0.051332457772106599 0 0.19776259313679689 0.043847078599275127 0 0.1980700033115291 0.056624016563982298 0 0.19972294057001819 0.065051568010613806 0 0.20937817562355349 0.06262621953075867 0 0.1980700033115291 0.056624016563982298 0 0.19972294057001819 0.065051568010613806 0 0.1980700033115291 0.056624016563982298 0 0.1896383726356527 0.061991394001463578 0 0.1980700033115291 0.056624016563982298 0 0.1896383726356527 0.061991394001463578 0 0.1872134482565217 0.053640886336966211 0 0.17675104137022371 0.053716587076001528 0 0.1872134482565217 0.053640886336966211 0 0.18026606342091109 0.06286884927339996 0 0.1896383726356527 0.061991394001463578 0 0.1872134482565217 0.053640886336966211 0 0.18026606342091109 0.06286884927339996 0 0.17675104137022371 0.053716587076001528 0 0.18026606342091109 0.06286884927339996 0 0.16744089006802651 0.062565665771268542 0 0.17675104137022371 0.053716587076001528 0 0.18078458625976571 0.041539163726313118 0 0.16805021884589341 0.047968370272059788 0 0.17675104137022371 0.053716587076001528 0 0.1872134482565217 0.053640886336966211 0 0.18078458625976571 0.041539163726313118 0 0.18078458625976571 0.041539163726313118 0 0.16859497173359961 0.036060072621793053 0 0.17395070965369469 0.02200105442653242 0 0.19136441614879809 0.033408010827566767 0 0.18078458625976571 0.041539163726313118 0 0.17395070965369469 0.02200105442653242 0 0.18078458625976571 0.041539163726313118 0 0.16859497173359961 0.036060072621793053 0 0.16805021884589341 0.047968370272059788 0 0.16859497173359961 0.036060072621793053 0 0.16805021884589341 0.047968370272059788 0 0.1561923672108986 0.040225890881455811 0 0.16859497173359961 0.036060072621793053 0 0.1585423034080877 0.030514933784532631 0 0.1561923672108986 0.040225890881455811 0 0.15748572359616911 0.054889646498847089 0 0.16805021884589341 0.047968370272059788 0 0.1561923672108986 0.040225890881455811 0 0.15748572359616911 0.054889646498847089 0 0.16805021884589341 0.047968370272059788 0 0.16744089006802651 0.062565665771268542 0 0.17675104137022371 0.053716587076001528 0 0.16805021884589341 0.047968370272059788 0 0.16744089006802651 0.062565665771268542 0 0.17474613889701679 0.0066209854137925604 0 0.18724850204133181 0.01169453453732819 0 0.18436858390171409 -0.0037061614213828738 0 0.17474613889701679 0.0066209854137925604 0 0.18724850204133181 0.01169453453732819 0 0.17395070965369469 0.02200105442653242 0 0.2005429599200643 0.024440579309393209 0 0.18724850204133181 0.01169453453732819 0 0.17395070965369469 0.02200105442653242 0 0.2005429599200643 0.024440579309393209 0 0.17395070965369469 0.02200105442653242 0 0.17395070965369469 0.02200105442653242 0 0.16157493590422931 0.0071784542262573166 0 0.14735845938732489 0.019561529543671619 0 0.17395070965369469 0.02200105442653242 0 0.1585423034080877 0.030514933784532631 0 0.14735845938732489 0.019561529543671619 0 0.17395070965369469 0.02200105442653242 0 0.14735845938732489 0.019561529543671619 0 0.16859497173359961 0.036060072621793053 0 0.17395070965369469 0.02200105442653242 0 0.1585423034080877 0.030514933784532631 0 0.17474613889701679 0.0066209854137925604 0 0.17395070965369469 0.02200105442653242 0 0.16157493590422931 0.0071784542262573166 0 0.17474613889701679 0.0066209854137925604 0 0.16157493590422931 0.0071784542262573166 0 0.16658796298411421 -0.0040629546997722581 0 0.14936446098576259 0.0064559420933095364 0 0.13948744810705679 0.01167495694034958 0 0.14381200007779371 -0.0019232760749363191 0 0.16157493590422931 0.0071784542262573166 0 0.14936446098576259 0.0064559420933095364 0 0.15458946145240851 -0.0042119541687945248 0 0.14936446098576259 0.0064559420933095364 0 0.15458946145240851 -0.0042119541687945248 0 0.14381200007779371 -0.0019232760749363191 0 0.16157493590422931 0.0071784542262573166 0 0.14936446098576259 0.0064559420933095364 0 0.14735845938732489 0.019561529543671619 0 0.14936446098576259 0.0064559420933095364 0 0.14735845938732489 0.019561529543671619 0 0.13948744810705679 0.01167495694034958 0 0.14735845938732489 0.019561529543671619 0 0.13948744810705679 0.01167495694034958 0 0.14547861878624191 0.035132173528778683 0 0.13948744810705679 0.01167495694034958 0 0.14547861878624191 0.035132173528778683 0 0.1585423034080877 0.030514933784532631 0 0.14735845938732489 0.019561529543671619 0 0.14547861878624191 0.035132173528778683 0 0.13609508058347411 0.025057517430325971 0 0.13948744810705679 0.01167495694034958 0 0.14547861878624191 0.035132173528778683 0 0.13609508058347411 0.025057517430325971 0 0.14547861878624191 0.035132173528778683 0 0.12768533588403691 0.032433832787434003 0 0.13609508058347411 0.025057517430325971 0 0.12927156724533451 0.018095418705272891 0 0.12768533588403691 0.032433832787434003 0 0.13609508058347411 0.025057517430325971 0 0.12927156724533451 0.018095418705272891 0 0.13948744810705679 0.01167495694034958 0 0.12497209006325551 0.0045335831921891464 0 0.13948744810705679 0.01167495694034958 0 0.13349627742787201 -0.01178225964807952 0 0.12497209006325551 0.0045335831921891464 0 0.12927156724533451 0.018095418705272891 0 0.13948744810705679 0.01167495694034958 0 0.15748572359616911 0.054889646498847089 0 0.1469854359149281 0.06019347364162482 0 0.1578188437632948 0.071050547424957644 0 0.14259357918962789 0.047229662822093399 0 0.1469854359149281 0.06019347364162482 0 0.1379378947682644 0.052239112610812669 0 0.1469854359149281 0.06019347364162482 0 0.1379378947682644 0.052239112610812669 0 0.13699867498588589 0.059204230891745403 0 0.15748572359616911 0.054889646498847089 0 0.14259357918962789 0.047229662822093399 0 0.1561923672108986 0.040225890881455811 0 0.15748572359616911 0.054889646498847089 0 0.14259357918962789 0.047229662822093399 0 0.1469854359149281 0.06019347364162482 0 0.1561923672108986 0.040225890881455811 0 0.14547861878624191 0.035132173528778683 0 0.12768533588403691 0.032433832787434003 0 0.14259357918962789 0.047229662822093399 0 0.1561923672108986 0.040225890881455811 0 0.12768533588403691 0.032433832787434003 0 0.1561923672108986 0.040225890881455811 0 0.12768533588403691 0.032433832787434003 0 0.1585423034080877 0.030514933784532631 0 0.1561923672108986 0.040225890881455811 0 0.14547861878624191 0.035132173528778683 0 0.14259357918962789 0.047229662822093399 0 0.12768533588403691 0.032433832787434003 0 0.1292747177634703 0.043396020512386058 0 0.11395658607786729 0.05515461165814188 0 0.1287406024342054 0.055097879708328808 0 0.13663884612325281 0.070578293211004964 0 0.1292747177634703 0.043396020512386058 0 0.1379378947682644 0.052239112610812669 0 0.1287406024342054 0.055097879708328808 0 0.14259357918962789 0.047229662822093399 0 0.1292747177634703 0.043396020512386058 0 0.1379378947682644 0.052239112610812669 0 0.1379378947682644 0.052239112610812669 0 0.13699867498588589 0.059204230891745403 0 0.1287406024342054 0.055097879708328808 0 0.13699867498588589 0.059204230891745403 0 0.1287406024342054 0.055097879708328808 0 0.13663884612325281 0.070578293211004964 0 0.11395658607786729 0.05515461165814188 0 0.13663884612325281 0.070578293211004964 0 0.11395658607786729 0.05515461165814188 0 0.12979596907018781 0.070425716351517467 0 0.13663884612325281 0.070578293211004964 0 0.1219325569799334 0.076800083693214879 0 0.12979596907018781 0.070425716351517467 0 0.13059448489163239 0.079799230740800212 0 0.12979596907018781 0.070425716351517467 0 0.13663884612325281 0.070578293211004964 0 0.14351607551234641 0.083803950435220445 0 0.12979596907018781 0.070425716351517467 0 0.14351607551234641 0.083803950435220445 0 0.13059448489163239 0.079799230740800212 0 0.12979596907018781 0.070425716351517467 0 0.13663884612325281 0.070578293211004964 0 0.1469854359149281 0.06019347364162482 0 0.13699867498588589 0.059204230891745403 0 0.13663884612325281 0.070578293211004964 0 0.13663884612325281 0.070578293211004964 0 0.1578188437632948 0.071050547424957644 0 0.1469854359149281 0.06019347364162482 0 0.13663884612325281 0.070578293211004964 0 0.1578188437632948 0.071050547424957644 0 0.13663884612325281 0.070578293211004964 0 0.14351607551234641 0.083803950435220445 0 0.1578188437632948 0.071050547424957644 0 0.14351607551234641 0.083803950435220445 0 0.13059448489163239 0.079799230740800212 0 0.1271333380040621 0.088167172483248069 0 0.14351607551234641 0.083803950435220445 0 0.1271333380040621 0.088167172483248069 0 0.14249108221459841 0.106899771109861 0 0.1219325569799334 0.076800083693214879 0 0.13059448489163239 0.079799230740800212 0 0.1271333380040621 0.088167172483248069 0 0.1149332751215142 0.100568527587294 0 0.1271333380040621 0.088167172483248069 0 0.14249108221459841 0.106899771109861 0 0.1149332751215142 0.100568527587294 0 0.12141129518055099 0.13003920851435891 0 0.14249108221459841 0.106899771109861 0 0.12141129518055099 0.13003920851435891 0 0.14471339593583199 0.13534457858400331 0 0.14249108221459841 0.106899771109861 0 0.14471339593583199 0.13534457858400331 0 0.14249108221459841 0.106899771109861 0 0.1676597366576156 0.1189750387536577 0 0.14351607551234641 0.083803950435220445 0 0.14249108221459841 0.106899771109861 0 0.17036538810597401 0.099078633723411552 0 0.14249108221459841 0.106899771109861 0 0.17036538810597401 0.099078633723411552 0 0.14249108221459841 0.106899771109861 0 0.17036538810597401 0.099078633723411552 0 0.1676597366576156 0.1189750387536577 0 0.17964817570406791 0.13634462549232171 0 0.1676597366576156 0.1189750387536577 0 0.18524039599972891 0.11901872056247639 0 0.17036538810597401 0.099078633723411552 0 0.1676597366576156 0.1189750387536577 0 0.18524039599972891 0.11901872056247639 0 0.19219808977974101 0.10642290371309419 0 0.19823969399734881 0.091257496336960051 0 0.17036538810597401 0.099078633723411552 0 0.19823969399734881 0.091257496336960051 0 0.17036538810597401 0.099078633723411552 0 0.19219808977974101 0.10642290371309419 0 0.17036538810597401 0.099078633723411552 0 0.18524039599972891 0.11901872056247639 0 0.19823969399734881 0.091257496336960051 0 0.17036538810597401 0.099078633723411552 0 0.18151162710571561 0.085928846702270967 0 0.17036538810597401 0.099078633723411552 0 0.18151162710571561 0.085928846702270967 0 0.17159970786313791 0.081703878250314541 0 0.18151162710571561 0.085928846702270967 0 0.18584171845640179 0.071675378498397668 0 0.17159970786313791 0.081703878250314541 0 0.18584171845640179 0.071675378498397668 0 0.18026606342091109 0.06286884927339996 0 0.16744089006802651 0.062565665771268542 0 0.1896383726356527 0.061991394001463578 0 0.18584171845640179 0.071675378498397668 0 0.18026606342091109 0.06286884927339996 0 0.18584171845640179 0.071675378498397668 0 0.18026606342091109 0.06286884927339996 0 0.18584171845640179 0.071675378498397668 0 0.1578188437632948 0.071050547424957644 0 0.17159970786313791 0.081703878250314541 0 0.15748572359616911 0.054889646498847089 0 0.1578188437632948 0.071050547424957644 0 0.16744089006802651 0.062565665771268542 0 0.18584171845640179 0.071675378498397668 0 0.1578188437632948 0.071050547424957644 0 0.18584171845640179 0.071675378498397668 0 0.1578188437632948 0.071050547424957644 0 0.16744089006802651 0.062565665771268542 0 0.14351607551234641 0.083803950435220445 0 0.1578188437632948 0.071050547424957644 0 0.17159970786313791 0.081703878250314541 0 0.14351607551234641 0.083803950435220445 0 0.17036538810597401 0.099078633723411552 0 0.17159970786313791 0.081703878250314541 0 0.098731448735246086 0.46075755354678799 0 0.088933064133239953 0.48417147621526119 0 0.1048616853919466 0.47521406301849989 0 0.098731448735246086 0.46075755354678799 0 0.088933064133239953 0.48417147621526119 0 0.1048616853919466 0.47521406301849989 0 0.1124605482431746 0.48786895242117778 0 0.088933064133239953 0.48417147621526119 0 0.10005414809993469 0.49103237156245649 0 0.1124605482431746 0.48786895242117778 0 0.088933064133239953 0.48417147621526119 0 0.10005414809993469 0.49103237156245649 0 0.1154916408857066 0.5 0 0.091406377294079078 0.5 0 0.1124605482431746 0.48786895242117778 0 0.088933064133239953 0.48417147621526119 0 0.10005414809993469 0.49103237156245649 0 0.091406377294079078 0.5 0 0.091604219850272631 0.49158210807808128 0 0.10005414809993469 0.49103237156245649 0 0.1124605482431746 0.48786895242117778 0 0.1154916408857066 0.5 0 0.1124605482431746 0.48786895242117778 0 0.1154916408857066 0.5 0 0.13598803235310941 0.49156642862709438 0 0.1124605482431746 0.48786895242117778 0 0.13598803235310941 0.49156642862709438 0 0.1124605482431746 0.48786895242117778 0 0.1145595044859606 0.47591181573921032 0 0.12546140466860231 0.47497018224559101 0 0.1124605482431746 0.48786895242117778 0 0.12546140466860231 0.47497018224559101 0 0.13141037284086901 0.48157786654320972 0 0.1048616853919466 0.47521406301849989 0 0.1124605482431746 0.48786895242117778 0 0.1145595044859606 0.47591181573921032 0 0.1048616853919466 0.47521406301849989 0 0.1145595044859606 0.47591181573921032 0 0.115454379640119 0.46559406527157249 0 0.1145595044859606 0.47591181573921032 0 0.115454379640119 0.46559406527157249 0 0.12546140466860231 0.47497018224559101 0 0.115454379640119 0.46559406527157249 0 0.1221638583408632 0.44949644160630903 0 0.13579788334447351 0.4616492523343031 0 0.115454379640119 0.46559406527157249 0 0.1221638583408632 0.44949644160630903 0 0.098731448735246086 0.46075755354678799 0 0.1221638583408632 0.44949644160630903 0 0.1085298333372527 0.43734363087831513 0 0.1281182232964162 0.43334209902361592 0 0.1221638583408632 0.44949644160630903 0 0.098731448735246086 0.46075755354678799 0 0.1085298333372527 0.43734363087831513 0 0.1221638583408632 0.44949644160630903 0 0.1085298333372527 0.43734363087831513 0 0.098731448735246086 0.46075755354678799 0 0.1085298333372527 0.43734363087831513 0 0.098731448735246086 0.46075755354678799 0 0.090524353502188348 0.44387650843612519 0 0.1085298333372527 0.43734363087831513 0 0.1048616853919466 0.47521406301849989 0 0.115454379640119 0.46559406527157249 0 0.098731448735246086 0.46075755354678799 0 0.098731448735246086 0.46075755354678799 0 0.090524353502188348 0.44387650843612519 0 0.077512864165930395 0.46359522717117052 0 0.090524353502188348 0.44387650843612519 0 0.072419996549793933 0.44006985274245303 0 0.077512864165930395 0.46359522717117052 0 0.072419996549793933 0.44006985274245303 0 0.077512864165930395 0.46359522717117052 0 0.060303021398497851 0.45635713599325739 0 0.077512864165930395 0.46359522717117052 0 0.059620239745578327 0.47956480130709178 0 0.060303021398497851 0.45635713599325739 0 0.077512864165930395 0.46359522717117052 0 0.088933064133239953 0.48417147621526119 0 0.059620239745578327 0.47956480130709178 0 0.088933064133239953 0.48417147621526119 0 0.059620239745578327 0.47956480130709178 0 0.098731448735246086 0.46075755354678799 0 0.077512864165930395 0.46359522717117052 0 0.088933064133239953 0.48417147621526119 0 0.088933064133239953 0.48417147621526119 0 0.086023289873836825 0.49112458453460761 0 0.059620239745578327 0.47956480130709178 0 0.091406377294079078 0.5 0 0.086023289873836825 0.49112458453460761 0 0.067321113702451585 0.49999999999996148 0 0.091406377294079078 0.5 0 0.091604219850272631 0.49158210807808128 0 0.086023289873836825 0.49112458453460761 0 0.10005414809993469 0.49103237156245649 0 0.088933064133239953 0.48417147621526119 0 0.091604219850272631 0.49158210807808128 0 0.088933064133239953 0.48417147621526119 0 0.086023289873836825 0.49112458453460761 0 0.088933064133239953 0.48417147621526119 0 0.091604219850272631 0.49158210807808128 0 0.086023289873836825 0.49112458453460761 0 0.086023289873836825 0.49112458453460761 0 0.067321113702451585 0.49999999999996148 0 0.059620239745578327 0.47956480130709178 0 0.067321113702451585 0.49999999999996148 0 0.04203813130035941 0.48646328886344431 0 0.067321113702451585 0.49999999999996148 0 0.059620239745578327 0.47956480130709178 0 0.04203813130035941 0.48646328886344431 0 0.067321113702451585 0.49999999999996148 0 0.039649723368078822 0.5 0 0.04203813130035941 0.48646328886344431 0 0.059620239745578327 0.47956480130709178 0 0.04203813130035941 0.48646328886344431 0 0.042199440962340663 0.46314186265036361 0 0.04203813130035941 0.48646328886344431 0 0.016755148898251301 0.47292657772695701 0 0.042199440962340663 0.46314186265036361 0 0.039649723368078822 0.5 0 0.04203813130035941 0.48646328886344431 0 0.024387621151555631 0.4888304343487524 0 0.039649723368078822 0.5 0 0.024387621151555631 0.4888304343487524 0 0.011978333033706099 0.5 0 0.024387621151555631 0.4888304343487524 0 0.01085883589353649 0.48393665629850152 0 0.011978333033706099 0.5 0 0.04203813130035941 0.48646328886344431 0 0.024387621151555631 0.4888304343487524 0 0.016755148898251301 0.47292657772695701 0 0.04203813130035941 0.48646328886344431 0 0.016755148898251301 0.47292657772695701 0 0.024387621151555631 0.4888304343487524 0 0.016755148898251301 0.47292657772695701 0 0.01085883589353649 0.48393665629850152 0 0.016755148898251301 0.47292657772695701 0 0.01085883589353649 0.48393665629850152 0 0.0043144432838517072 0.47310203204207069 0 -0.0015143242079153931 0.48653361892752911 0 0.01085883589353649 0.48393665629850152 0 0.0043144432838517072 0.47310203204207069 0 -0.0015143242079153931 0.48653361892752911 0 0.01085883589353649 0.48393665629850152 0 0.011978333033706099 0.5 0 -0.0085278335038570172 0.45938986659047037 0 0.022440761205716499 0.44963303363354978 0 0.0042112582666323298 0.43552065910684351 0 -0.0085278335038570172 0.45938986659047037 0 0.016755148898251301 0.47292657772695701 0 -0.0085278335038570172 0.45938986659047037 0 0.016755148898251301 0.47292657772695701 0 0.022440761205716499 0.44963303363354978 0 -0.0085278335038570172 0.45938986659047037 0 0.016755148898251301 0.47292657772695701 0 0.0043144432838517072 0.47310203204207069 0 0.016755148898251301 0.47292657772695701 0 0.022440761205716499 0.44963303363354978 0 0.042199440962340663 0.46314186265036361 0 0.022440761205716499 0.44963303363354978 0 0.030619912420313141 0.42974270137440751 0 0.0042112582666323298 0.43552065910684351 0 0.022440761205716499 0.44963303363354978 0 0.049186990568527288 0.43838736600854877 0 0.030619912420313141 0.42974270137440751 0 0.022440761205716499 0.44963303363354978 0 0.042199440962340663 0.46314186265036361 0 0.049186990568527288 0.43838736600854877 0 0.059620239745578327 0.47956480130709178 0 0.042199440962340663 0.46314186265036361 0 0.060303021398497851 0.45635713599325739 0 0.042199440962340663 0.46314186265036361 0 0.060303021398497851 0.45635713599325739 0 0.049186990568527288 0.43838736600854877 0 0.072419996549793933 0.44006985274245303 0 0.060303021398497851 0.45635713599325739 0 0.049186990568527288 0.43838736600854877 0 0.049186990568527288 0.43838736600854877 0 0.04974508763318948 0.41556550091792588 0 0.06758552576518026 0.42139275931652997 0 0.04974508763318948 0.41556550091792588 0 0.066955264666744646 0.40028576542648447 0 0.06758552576518026 0.42139275931652997 0 0.04974508763318948 0.41556550091792588 0 0.030619912420313141 0.42974270137440751 0 0.02751546442750015 0.40960694720516921 0 0.049186990568527288 0.43838736600854877 0 0.04974508763318948 0.41556550091792588 0 0.030619912420313141 0.42974270137440751 0 0.030619912420313141 0.42974270137440751 0 0.02751546442750015 0.40960694720516921 0 0.0042112582666323298 0.43552065910684351 0 -0.00015915912015578059 0.40515224490459789 0 0.02751546442750015 0.40960694720516921 0 0.0042112582666323298 0.43552065910684351 0 0.0035961909011746991 0.38454086690399292 0 0.018938748855813679 0.3900725367483186 0 0.018324682132475789 0.37135813651886318 0 -0.00015915912015578059 0.40515224490459789 0 0.02751546442750015 0.40960694720516921 0 0.018938748855813679 0.3900725367483186 0 -0.00015915912015578059 0.40515224490459789 0 0.0035961909011746991 0.38454086690399292 0 0.018938748855813679 0.3900725367483186 0 0.02751546442750015 0.40960694720516921 0 0.018938748855813679 0.3900725367483186 0 0.045416565938073507 0.37970448820897013 0 0.018938748855813679 0.3900725367483186 0 0.045416565938073507 0.37970448820897013 0 0.018324682132475789 0.37135813651886318 0 0.04974508763318948 0.41556550091792588 0 0.045416565938073507 0.37970448820897013 0 0.066955264666744646 0.40028576542648447 0 0.045416565938073507 0.37970448820897013 0 0.018324682132475789 0.37135813651886318 0 0.04974508763318948 0.41556550091792588 0 0.02751546442750015 0.40960694720516921 0 0.045416565938073507 0.37970448820897013 0 0.045416565938073507 0.37970448820897013 0 0.0704815404319106 0.38148610243286379 0 0.066955264666744646 0.40028576542648447 0 0.0704815404319106 0.38148610243286379 0 0.08480982928106065 0.39241453869179699 0 0.088886958088824811 0.37411585673860659 0 0.08480982928106065 0.39241453869179699 0 0.10334918592018411 0.39771614517130721 0 0.088886958088824811 0.37411585673860659 0 0.08480982928106065 0.39241453869179699 0 0.087742549001998779 0.41881469815239969 0 0.10334918592018411 0.39771614517130721 0 0.08480982928106065 0.39241453869179699 0 0.066955264666744646 0.40028576542648447 0 0.087742549001998779 0.41881469815239969 0 0.0704815404319106 0.38148610243286379 0 0.08480982928106065 0.39241453869179699 0 0.066955264666744646 0.40028576542648447 0 0.066955264666744646 0.40028576542648447 0 0.087742549001998779 0.41881469815239969 0 0.066955264666744646 0.40028576542648447 0 0.06758552576518026 0.42139275931652997 0 0.087742549001998779 0.41881469815239969 0 0.072419996549793933 0.44006985274245303 0 0.06758552576518026 0.42139275931652997 0 0.087742549001998779 0.41881469815239969 0 0.072419996549793933 0.44006985274245303 0 0.049186990568527288 0.43838736600854877 0 0.06758552576518026 0.42139275931652997 0 0.090524353502188348 0.44387650843612519 0 0.072419996549793933 0.44006985274245303 0 0.087742549001998779 0.41881469815239969 0 0.087742549001998779 0.41881469815239969 0 0.1172806665744727 0.41643290517981418 0 0.10334918592018411 0.39771614517130721 0 0.087742549001998779 0.41881469815239969 0 0.1085298333372527 0.43734363087831513 0 0.1172806665744727 0.41643290517981418 0 0.090524353502188348 0.44387650843612519 0 0.087742549001998779 0.41881469815239969 0 0.1085298333372527 0.43734363087831513 0 0.087742549001998779 0.41881469815239969 0 0.1085298333372527 0.43734363087831513 0 0.1085298333372527 0.43734363087831513 0 0.1172806665744727 0.41643290517981418 0 0.1281182232964162 0.43334209902361592 0 0.1085298333372527 0.43734363087831513 0 0.1172806665744727 0.41643290517981418 0 0.1172806665744727 0.41643290517981418 0 0.12603149981169259 0.39552217948131352 0 0.1172806665744727 0.41643290517981418 0 0.10334918592018411 0.39771614517130721 0 0.12603149981169259 0.39552217948131352 0 0.11445130505528391 0.37838962635402829 0 0.10334918592018411 0.39771614517130721 0 0.12603149981169259 0.39552217948131352 0 0.11445130505528391 0.37838962635402829 0 0.10334918592018411 0.39771614517130721 0 0.088886958088824811 0.37411585673860659 0 0.099943090884668295 0.3480910572835958 0 0.1033759720708407 0.3643053834019227 0 0.083929533695391745 0.35660337242028117 0 0.099943090884668295 0.3480910572835958 0 0.1033759720708407 0.3643053834019227 0 0.1200608100739773 0.35848588950134452 0 0.11445130505528391 0.37838962635402829 0 0.1033759720708407 0.3643053834019227 0 0.088886958088824811 0.37411585673860659 0 0.11445130505528391 0.37838962635402829 0 0.1200608100739773 0.35848588950134452 0 0.13478233304891271 0.37461145378281258 0 0.11445130505528391 0.37838962635402829 0 0.1033759720708407 0.3643053834019227 0 0.1200608100739773 0.35848588950134452 0 0.099943090884668295 0.3480910572835958 0 0.1200608100739773 0.35848588950134452 0 0.1209993840093774 0.33876876373920523 0 0.10399594204621029 0.32783557853821638 0 0.1079826185732996 0.30660210867172522 0 0.1259941940107622 0.31774478333183409 0 0.1209993840093774 0.33876876373920523 0 0.10399594204621029 0.32783557853821638 0 0.1259941940107622 0.31774478333183409 0 0.10399594204621029 0.32783557853821638 0 0.087611472085348627 0.31718056243021903 0 0.1079826185732996 0.30660210867172522 0 0.099943090884668295 0.3480910572835958 0 0.10399594204621029 0.32783557853821638 0 0.07924635150035915 0.33849435861404348 0 0.099943090884668295 0.3480910572835958 0 0.1209993840093774 0.33876876373920523 0 0.10399594204621029 0.32783557853821638 0 0.10399594204621029 0.32783557853821638 0 0.07924635150035915 0.33849435861404348 0 0.087611472085348627 0.31718056243021903 0 0.07924635150035915 0.33849435861404348 0 0.087611472085348627 0.31718056243021903 0 0.06576578281598279 0.31326873961317758 0 0.07924635150035915 0.33849435861404348 0 0.06576578281598279 0.31326873961317758 0 0.056489600926096173 0.33349352312583641 0 0.07924635150035915 0.33849435861404348 0 0.066339084184849378 0.36090986309846101 0 0.056489600926096173 0.33349352312583641 0 0.07924635150035915 0.33849435861404348 0 0.083929533695391745 0.35660337242028117 0 0.066339084184849378 0.36090986309846101 0 0.099943090884668295 0.3480910572835958 0 0.07924635150035915 0.33849435861404348 0 0.083929533695391745 0.35660337242028117 0 0.1033759720708407 0.3643053834019227 0 0.083929533695391745 0.35660337242028117 0 0.088886958088824811 0.37411585673860659 0 0.083929533695391745 0.35660337242028117 0 0.088886958088824811 0.37411585673860659 0 0.066339084184849378 0.36090986309846101 0 0.0704815404319106 0.38148610243286379 0 0.088886958088824811 0.37411585673860659 0 0.066339084184849378 0.36090986309846101 0 0.045416565938073507 0.37970448820897013 0 0.0704815404319106 0.38148610243286379 0 0.066339084184849378 0.36090986309846101 0 0.045416565938073507 0.37970448820897013 0 0.066339084184849378 0.36090986309846101 0 0.043737704263538603 0.34993835933068712 0 0.066339084184849378 0.36090986309846101 0 0.043737704263538603 0.34993835933068712 0 0.056489600926096173 0.33349352312583641 0 0.045416565938073507 0.37970448820897013 0 0.043737704263538603 0.34993835933068712 0 0.018324682132475789 0.37135813651886318 0 0.043737704263538603 0.34993835933068712 0 0.018324682132475789 0.37135813651886318 0 0.01526557131014524 0.34388807842494001 0 -0.008767201673121932 0.36301178482875629 0 0.0035961909011746991 0.38454086690399292 0 0.018324682132475789 0.37135813651886318 0 -0.008767201673121932 0.36301178482875629 0 0.018324682132475789 0.37135813651886318 0 -0.008767201673121932 0.36301178482875629 0 0.018324682132475789 0.37135813651886318 0 0.01526557131014524 0.34388807842494001 0 -0.0067385281896786284 0.30985562035238162 0 0.0017414686764784179 0.32714726761812218 0 0.017502252359425909 0.31468453226340859 0 -0.011358049858765529 0.34271416703683821 0 0.01526557131014524 0.34388807842494001 0 0.0017414686764784179 0.32714726761812218 0 0.01526557131014524 0.34388807842494001 0 0.0017414686764784179 0.32714726761812218 0 0.017502252359425909 0.31468453226340859 0 0.01526557131014524 0.34388807842494001 0 0.017502252359425909 0.31468453226340859 0 0.033860174052505972 0.33339398776435902 0 0.043737704263538603 0.34993835933068712 0 0.01526557131014524 0.34388807842494001 0 0.033860174052505972 0.33339398776435902 0 0.017502252359425909 0.31468453226340859 0 0.037524690385732883 0.31636502335383287 0 0.033860174052505972 0.33339398776435902 0 0.037524690385732883 0.31636502335383287 0 0.033860174052505972 0.33339398776435902 0 0.056489600926096173 0.33349352312583641 0 0.043737704263538603 0.34993835933068712 0 0.033860174052505972 0.33339398776435902 0 0.056489600926096173 0.33349352312583641 0 0.06576578281598279 0.31326873961317758 0 0.037524690385732883 0.31636502335383287 0 0.056489600926096173 0.33349352312583641 0 0.06576578281598279 0.31326873961317758 0 0.037524690385732883 0.31636502335383287 0 0.046922311036567903 0.29804725226847678 0 0.06576578281598279 0.31326873961317758 0 0.046922311036567903 0.29804725226847678 0 0.066101667862605351 0.29375783814199752 0 0.046922311036567903 0.29804725226847678 0 0.055562167721486262 0.28226846668378702 0 0.066101667862605351 0.29375783814199752 0 0.046922311036567903 0.29804725226847678 0 0.055562167721486262 0.28226846668378702 0 0.032645517543216832 0.2816001176645751 0 0.046922311036567903 0.29804725226847678 0 0.032645517543216832 0.2816001176645751 0 0.025202396726532222 0.29846564220055599 0 0.037524690385732883 0.31636502335383287 0 0.046922311036567903 0.29804725226847678 0 0.025202396726532222 0.29846564220055599 0 0.017502252359425909 0.31468453226340859 0 0.037524690385732883 0.31636502335383287 0 0.025202396726532222 0.29846564220055599 0 0.017502252359425909 0.31468453226340859 0 0.025202396726532222 0.29846564220055599 0 0.0067024598137256546 0.29774090349646121 0 0.032645517543216832 0.2816001176645751 0 0.025202396726532222 0.29846564220055599 0 0.01407717225868887 0.28115123895430522 0 -0.0094230267692259947 0.28411503643911262 0 0.0067024598137256546 0.29774090349646121 0 0.01407717225868887 0.28115123895430522 0 0.025202396726532222 0.29846564220055599 0 0.0067024598137256546 0.29774090349646121 0 0.01407717225868887 0.28115123895430522 0 -0.0067385281896786284 0.30985562035238162 0 0.017502252359425909 0.31468453226340859 0 0.0067024598137256546 0.29774090349646121 0 0.01094534689583296 0.25165583173153228 0 0.0051221579672991388 0.26796090467185169 0 0.025946871203154 0.25652283541899262 0 -0.0026056055883075658 0.24895329681263881 0 0.01094534689583296 0.25165583173153228 0 0.0051221579672991388 0.26796090467185169 0 0.0051221579672991388 0.26796090467185169 0 0.025946871203154 0.25652283541899262 0 0.0051221579672991388 0.26796090467185169 0 0.01407717225868887 0.28115123895430522 0 0.025946871203154 0.25652283541899262 0 -0.0094230267692259947 0.28411503643911262 0 0.0051221579672991388 0.26796090467185169 0 0.01407717225868887 0.28115123895430522 0 0.032645517543216832 0.2816001176645751 0 0.01407717225868887 0.28115123895430522 0 0.025946871203154 0.25652283541899262 0 0.016746840900060182 0.2431358424122595 0 0.01094534689583296 0.25165583173153228 0 0.025946871203154 0.25652283541899262 0 0.046771584439008862 0.24508476616613351 0 0.025946871203154 0.25652283541899262 0 0.046771584439008862 0.24508476616613351 0 0.025946871203154 0.25652283541899262 0 0.044468933048086363 0.26535678228386372 0 0.032645517543216832 0.2816001176645751 0 0.025946871203154 0.25652283541899262 0 0.044468933048086363 0.26535678228386372 0 0.055562167721486262 0.28226846668378702 0 0.032645517543216832 0.2816001176645751 0 0.044468933048086363 0.26535678228386372 0 0.055562167721486262 0.28226846668378702 0 0.044468933048086363 0.26535678228386372 0 0.061418524333565851 0.26130772548583059 0 0.046771584439008862 0.24508476616613351 0 0.044468933048086363 0.26535678228386372 0 0.061418524333565851 0.26130772548583059 0 0.067596297674863706 0.23364669691327439 0 0.061418524333565851 0.26130772548583059 0 0.083768416296335579 0.26124594033034959 0 0.083768416296335579 0.26124594033034959 0 0.093672696089705451 0.27710772592249011 0 0.074749505162729712 0.27899258868966481 0 0.061418524333565851 0.26130772548583059 0 0.083768416296335579 0.26124594033034959 0 0.074749505162729712 0.27899258868966481 0 0.055562167721486262 0.28226846668378702 0 0.061418524333565851 0.26130772548583059 0 0.074749505162729712 0.27899258868966481 0 0.074749505162729712 0.27899258868966481 0 0.066101667862605351 0.29375783814199752 0 0.087508572576260116 0.29621214345488139 0 0.055562167721486262 0.28226846668378702 0 0.074749505162729712 0.27899258868966481 0 0.066101667862605351 0.29375783814199752 0 0.06576578281598279 0.31326873961317758 0 0.066101667862605351 0.29375783814199752 0 0.087508572576260116 0.29621214345488139 0 0.087611472085348627 0.31718056243021903 0 0.06576578281598279 0.31326873961317758 0 0.087508572576260116 0.29621214345488139 0 0.093672696089705451 0.27710772592249011 0 0.074749505162729712 0.27899258868966481 0 0.087508572576260116 0.29621214345488139 0 0.087508572576260116 0.29621214345488139 0 0.1079826185732996 0.30660210867172522 0 0.1117530365091115 0.28504395650663239 0 0.093672696089705451 0.27710772592249011 0 0.087508572576260116 0.29621214345488139 0 0.1117530365091115 0.28504395650663239 0 0.087611472085348627 0.31718056243021903 0 0.087508572576260116 0.29621214345488139 0 0.1079826185732996 0.30660210867172522 0 0.1079826185732996 0.30660210867172522 0 0.1308212248675007 0.29632315628437261 0 0.1259941940107622 0.31774478333183409 0 0.1079826185732996 0.30660210867172522 0 0.1117530365091115 0.28504395650663239 0 0.1308212248675007 0.29632315628437261 0 0.1117530365091115 0.28504395650663239 0 0.112848016558421 0.25902783362780168 0 0.13572250499446459 0.27520570383352688 0 0.092993361860390117 0.24179254247101431 0 0.083768416296335579 0.26124594033034959 0 0.112848016558421 0.25902783362780168 0 0.093672696089705451 0.27710772592249011 0 0.1117530365091115 0.28504395650663239 0 0.112848016558421 0.25902783362780168 0 0.083768416296335579 0.26124594033034959 0 0.093672696089705451 0.27710772592249011 0 0.112848016558421 0.25902783362780168 0 0.15004699386833531 0.26498008233206272 0 0.13572250499446459 0.27520570383352688 0 0.15713357217172449 0.27694301866985999 0 0.15004699386833531 0.26498008233206272 0 0.1390278087719011 0.25771973242997082 0 0.13572250499446459 0.27520570383352688 0 0.13572250499446459 0.27520570383352688 0 0.14798843058692579 0.29082500400037742 0 0.15713357217172449 0.27694301866985999 0 0.15004699386833531 0.26498008233206272 0 0.15276295273936141 0.25135955429551371 0 0.16558813066422501 0.26367240243144241 0 0.15004699386833531 0.26498008233206272 0 0.15276295273936141 0.25135955429551371 0 0.1390278087719011 0.25771973242997082 0 0.13305648654768229 0.2393751701912748 0 0.112848016558421 0.25902783362780168 0 0.1390278087719011 0.25771973242997082 0 0.112848016558421 0.25902783362780168 0 0.1390278087719011 0.25771973242997082 0 0.13572250499446459 0.27520570383352688 0 0.13572250499446459 0.27520570383352688 0 0.1308212248675007 0.29632315628437261 0 0.14798843058692579 0.29082500400037742 0 0.1117530365091115 0.28504395650663239 0 0.13572250499446459 0.27520570383352688 0 0.1308212248675007 0.29632315628437261 0 0.1308212248675007 0.29632315628437261 0 0.1496961979673771 0.31215552550138831 0 0.1259941940107622 0.31774478333183409 0 0.1496961979673771 0.31215552550138831 0 0.14798843058692579 0.29082500400037742 0 0.16656865293356199 0.29349761571273891 0 0.1308212248675007 0.29632315628437261 0 0.1496961979673771 0.31215552550138831 0 0.14798843058692579 0.29082500400037742 0 0.16656865293356199 0.29349761571273891 0 0.17008587947959991 0.27577691975538748 0 0.15713357217172449 0.27694301866985999 0 0.14798843058692579 0.29082500400037742 0 0.16656865293356199 0.29349761571273891 0 0.15713357217172449 0.27694301866985999 0 0.1496961979673771 0.31215552550138831 0 0.16656865293356199 0.29349761571273891 0 0.17520763013880061 0.32380300036612347 0 0.18539659356200849 0.29609287155975961 0 0.17520763013880061 0.32380300036612347 0 0.16656865293356199 0.29349761571273891 0 0.18539659356200849 0.29609287155975961 0 0.17520763013880061 0.32380300036612347 0 0.16656865293356199 0.29349761571273891 0 0.1812658677642616 0.27958342564749289 0 0.17008587947959991 0.27577691975538748 0 0.18539659356200849 0.29609287155975961 0 0.1812658677642616 0.27958342564749289 0 0.1955855569852204 0.26838274275339707 0 0.16656865293356199 0.29349761571273891 0 0.18539659356200849 0.29609287155975961 0 0.1812658677642616 0.27958342564749289 0 0.1812658677642616 0.27958342564749289 0 0.1784829916698483 0.26728815843226528 0 0.1955855569852204 0.26838274275339707 0 0.1812658677642616 0.27958342564749289 0 0.1784829916698483 0.26728815843226528 0 0.17008587947959991 0.27577691975538748 0 0.17008587947959991 0.27577691975538748 0 0.15713357217172449 0.27694301866985999 0 0.16558813066422501 0.26367240243144241 0 0.1784829916698483 0.26728815843226528 0 0.17008587947959991 0.27577691975538748 0 0.16558813066422501 0.26367240243144241 0 0.15004699386833531 0.26498008233206272 0 0.15713357217172449 0.27694301866985999 0 0.16558813066422501 0.26367240243144241 0 0.15713357217172449 0.27694301866985999 0 0.16558813066422501 0.26367240243144241 0 0.15276295273936141 0.25135955429551371 0 0.16558813066422501 0.26367240243144241 0 0.17404268915672511 0.25040178619302461 0 0.16558813066422501 0.26367240243144241 0 0.17404268915672511 0.25040178619302461 0 0.17404268915672511 0.25040178619302461 0 0.1955855569852204 0.26838274275339707 0 0.1784829916698483 0.26728815843226528 0 0.16558813066422501 0.26367240243144241 0 0.17404268915672511 0.25040178619302461 0 0.1784829916698483 0.26728815843226528 0 0.17404268915672511 0.25040178619302461 0 0.1955855569852204 0.26838274275339707 0 0.18979826926286991 0.24914387649513439 0 0.17404268915672511 0.25040178619302461 0 0.1955855569852204 0.26838274275339707 0 0.20402072125963189 0.24544228464806081 0 0.1955855569852204 0.26838274275339707 0 0.20593710855916331 0.25924574061759159 0 0.20402072125963189 0.24544228464806081 0 0.18979826926286991 0.24914387649513439 0 0.1955855569852204 0.26838274275339707 0 0.20402072125963189 0.24544228464806081 0 0.1955855569852204 0.26838274275339707 0 0.1955855569852204 0.26838274275339707 0 0.20442060044334751 0.26801137068648062 0 0.20593710855916331 0.25924574061759159 0 0.18539659356200849 0.29609287155975961 0 0.1955855569852204 0.26838274275339707 0 0.19780057540760321 0.27023152864162298 0 0.1955855569852204 0.26838274275339707 0 0.19780057540760321 0.27023152864162298 0 0.20442060044334751 0.26801137068648062 0 0.1955855569852204 0.26838274275339707 0 0.19780057540760321 0.27023152864162298 0 0.19780057540760321 0.27023152864162298 0 0.20451542399702141 0.27291185282870872 0 0.20442060044334751 0.26801137068648062 0 0.19780057540760321 0.27023152864162298 0 0.20451542399702141 0.27291185282870872 0 0.20432413386200959 0.28143586390314812 0 0.20451542399702141 0.27291185282870872 0 0.2115163862751254 0.27196864808358318 0 0.20432413386200959 0.28143586390314812 0 0.20442060044334751 0.26801137068648062 0 0.2115163862751254 0.27196864808358318 0 0.21173913500918309 0.26413569389890162 0 0.20451542399702141 0.27291185282870872 0 0.20442060044334751 0.26801137068648062 0 0.2115163862751254 0.27196864808358318 0 0.2115163862751254 0.27196864808358318 0 0.21173913500918309 0.26413569389890162 0 0.21893201014849051 0.26486296487996119 0 0.21864022363273311 0.27221075524592447 0 0.2115163862751254 0.27196864808358318 0 0.21893201014849051 0.26486296487996119 0 0.2115163862751254 0.27196864808358318 0 0.21760435835962741 0.28053547440563131 0 0.20432413386200959 0.28143586390314812 0 0.21864022363273311 0.27221075524592447 0 0.2115163862751254 0.27196864808358318 0 0.21760435835962741 0.28053547440563131 0 0.20402072125963189 0.24544228464806081 0 0.20593710855916331 0.25924574061759159 0 0.21732544452201211 0.25625544438720987 0 0.20442060044334751 0.26801137068648062 0 0.20593710855916331 0.25924574061759159 0 0.21173913500918309 0.26413569389890162 0 0.20593710855916331 0.25924574061759159 0 0.21173913500918309 0.26413569389890162 0 0.21732544452201211 0.25625544438720987 0 0.21173913500918309 0.26413569389890162 0 0.21732544452201211 0.25625544438720987 0 0.21893201014849051 0.26486296487996119 0 0.22100716546316321 0.24231306833135219 0 0.21732544452201211 0.25625544438720987 0 0.23020341775841399 0.25395228280595811 0 0.22738918527966459 0.26345878176993348 0 0.23822371080382529 0.26954681149017151 0 0.2357229001843596 0.26108145291922907 0 0.23020341775841399 0.25395228280595811 0 0.22738918527966459 0.26345878176993348 0 0.2357229001843596 0.26108145291922907 0 0.21732544452201211 0.25625544438720987 0 0.23020341775841399 0.25395228280595811 0 0.22738918527966459 0.26345878176993348 0 0.21732544452201211 0.25625544438720987 0 0.22738918527966459 0.26345878176993348 0 0.21893201014849051 0.26486296487996119 0 0.21760435835962741 0.28053547440563131 0 0.2263699844037837 0.27290012999933039 0 0.22690195842692451 0.28915021565927368 0 0.22738918527966459 0.26345878176993348 0 0.21893201014849051 0.26486296487996119 0 0.2263699844037837 0.27290012999933039 0 0.21864022363273311 0.27221075524592447 0 0.21893201014849051 0.26486296487996119 0 0.2263699844037837 0.27290012999933039 0 0.2263699844037837 0.27290012999933039 0 0.23973458469507941 0.28034364266290562 0 0.22690195842692451 0.28915021565927368 0 0.21864022363273311 0.27221075524592447 0 0.21760435835962741 0.28053547440563131 0 0.2263699844037837 0.27290012999933039 0 0.22738918527966459 0.26345878176993348 0 0.2263699844037837 0.27290012999933039 0 0.23822371080382529 0.26954681149017151 0 0.23822371080382529 0.26954681149017151 0 0.23973458469507941 0.28034364266290562 0 0.24795174679602469 0.27353118177312358 0 0.2263699844037837 0.27290012999933039 0 0.23822371080382529 0.26954681149017151 0 0.23973458469507941 0.28034364266290562 0 0.23973458469507941 0.28034364266290562 0 0.24795174679602469 0.27353118177312358 0 0.25501703805890008 0.28225930281985478 0 0.23822371080382529 0.26954681149017151 0 0.24795174679602469 0.27353118177312358 0 0.2476054331824718 0.26498821268157913 0 0.2476054331824718 0.26498821268157913 0 0.24445832253036559 0.2549088082697154 0 0.2357229001843596 0.26108145291922907 0 0.2476054331824718 0.26498821268157913 0 0.24445832253036559 0.2549088082697154 0 0.25094309503396839 0.25878134349415549 0 0.24445832253036559 0.2549088082697154 0 0.25483074441246178 0.25133398368052728 0 0.25033710606835441 0.24431151828744141 0 0.23020341775841399 0.25395228280595811 0 0.24445832253036559 0.2549088082697154 0 0.2357229001843596 0.26108145291922907 0 0.23531748857091911 0.24569614115830879 0 0.23020341775841399 0.25395228280595811 0 0.24445832253036559 0.2549088082697154 0 0.23822371080382529 0.26954681149017151 0 0.2476054331824718 0.26498821268157913 0 0.2357229001843596 0.26108145291922907 0 0.24384714108046629 0.30842271566885621 0 0.24171361470842759 0.29422316205106069 0 0.22527577366848969 0.31104940328365388 0 0.24384714108046629 0.30842271566885621 0 0.24171361470842759 0.29422316205106069 0 0.25502997555209289 0.29580644501725317 0 0.23973458469507941 0.28034364266290562 0 0.24171361470842759 0.29422316205106069 0 0.25501703805890008 0.28225930281985478 0 0.23973458469507941 0.28034364266290562 0 0.24171361470842759 0.29422316205106069 0 0.22690195842692451 0.28915021565927368 0 0.24171361470842759 0.29422316205106069 0 0.22690195842692451 0.28915021565927368 0 0.22527577366848969 0.31104940328365388 0 0.22690195842692451 0.28915021565927368 0 0.22527577366848969 0.31104940328365388 0 0.209960682097557 0.29584222917936193 0 0.22527577366848969 0.31104940328365388 0 0.209960682097557 0.29584222917936193 0 0.2013052109432264 0.31772577640824279 0 0.21760435835962741 0.28053547440563131 0 0.22690195842692451 0.28915021565927368 0 0.209960682097557 0.29584222917936193 0 0.21760435835962741 0.28053547440563131 0 0.209960682097557 0.29584222917936193 0 0.20432413386200959 0.28143586390314812 0 0.18539659356200849 0.29609287155975961 0 0.209960682097557 0.29584222917936193 0 0.20432413386200959 0.28143586390314812 0 0.18539659356200849 0.29609287155975961 0 0.1955855569852204 0.26838274275339707 0 0.18539659356200849 0.29609287155975961 0 0.19780057540760321 0.27023152864162298 0 0.20432413386200959 0.28143586390314812 0 0.18539659356200849 0.29609287155975961 0 0.209960682097557 0.29584222917936193 0 0.2013052109432264 0.31772577640824279 0 0.2013052109432264 0.31772577640824279 0 0.19844454306868639 0.34415628761553779 0 0.17520763013880061 0.32380300036612347 0 0.2013052109432264 0.31772577640824279 0 0.22413627097955391 0.33643223304448622 0 0.19844454306868639 0.34415628761553779 0 0.22527577366848969 0.31104940328365388 0 0.2013052109432264 0.31772577640824279 0 0.22413627097955391 0.33643223304448622 0 0.22527577366848969 0.31104940328365388 0 0.22413627097955391 0.33643223304448622 0 0.2472860627765491 0.32357026084747492 0 0.22413627097955391 0.33643223304448622 0 0.2472860627765491 0.32357026084747492 0 0.25184518342483059 0.34378895946634142 0 0.24384714108046629 0.30842271566885621 0 0.22527577366848969 0.31104940328365388 0 0.2472860627765491 0.32357026084747492 0 0.2429583931954305 0.37069002009758723 0 0.23616731273964389 0.35630971138457113 0 0.26312502976955421 0.36038202802699942 0 0.22413627097955391 0.33643223304448622 0 0.23616731273964389 0.35630971138457113 0 0.25184518342483059 0.34378895946634142 0 0.22413627097955391 0.33643223304448622 0 0.23616731273964389 0.35630971138457113 0 0.2157557028504497 0.35837482551335781 0 0.23616731273964389 0.35630971138457113 0 0.2157557028504497 0.35837482551335781 0 0.22314290443422211 0.38026105912524311 0 0.2429583931954305 0.37069002009758723 0 0.23616731273964389 0.35630971138457113 0 0.22314290443422211 0.38026105912524311 0 0.2157557028504497 0.35837482551335781 0 0.19688748303014211 0.37471483639695058 0 0.22314290443422211 0.38026105912524311 0 0.22413627097955391 0.33643223304448622 0 0.2157557028504497 0.35837482551335781 0 0.19844454306868639 0.34415628761553779 0 0.2157557028504497 0.35837482551335781 0 0.19844454306868639 0.34415628761553779 0 0.19688748303014211 0.37471483639695058 0 0.19844454306868639 0.34415628761553779 0 0.19688748303014211 0.37471483639695058 0 0.18123807691585681 0.35267117344395138 0 0.19688748303014211 0.37471483639695058 0 0.17063206162606209 0.36916861366865872 0 0.18123807691585681 0.35267117344395138 0 0.19688748303014211 0.37471483639695058 0 0.17063206162606209 0.36916861366865872 0 0.19347689567975129 0.38103208848569492 0 0.19688748303014211 0.37471483639695058 0 0.17063206162606209 0.36916861366865872 0 0.17063206162606209 0.36916861366865872 0 0.1453464358500198 0.3638272515850014 0 0.155566026596833 0.377969292792111 0 0.17063206162606209 0.36916861366865872 0 0.16501866671559259 0.35151312917248728 0 0.15600030654555841 0.36157024558602679 0 0.17063206162606209 0.36916861366865872 0 0.1453464358500198 0.3638272515850014 0 0.17063206162606209 0.36916861366865872 0 0.1453464358500198 0.3638272515850014 0 0.15600030654555841 0.36157024558602679 0 0.17063206162606209 0.36916861366865872 0 0.15600030654555841 0.36157024558602679 0 0.16501866671559259 0.35151312917248728 0 0.15607251807828881 0.33388146262819252 0 0.15018102139080211 0.3495392324554869 0 0.16501866671559259 0.35151312917248728 0 0.15600030654555841 0.36157024558602679 0 0.15018102139080211 0.3495392324554869 0 0.17063206162606209 0.36916861366865872 0 0.16501866671559259 0.35151312917248728 0 0.18123807691585681 0.35267117344395138 0 0.19844454306868639 0.34415628761553779 0 0.18123807691585681 0.35267117344395138 0 0.17520763013880061 0.32380300036612347 0 0.16501866671559259 0.35151312917248728 0 0.18123807691585681 0.35267117344395138 0 0.17520763013880061 0.32380300036612347 0 0.18539659356200849 0.29609287155975961 0 0.2013052109432264 0.31772577640824279 0 0.17520763013880061 0.32380300036612347 0 0.1496961979673771 0.31215552550138831 0 0.17520763013880061 0.32380300036612347 0 0.15607251807828881 0.33388146262819252 0 0.16501866671559259 0.35151312917248728 0 0.17520763013880061 0.32380300036612347 0 0.16501866671559259 0.35151312917248728 0 0.17520763013880061 0.32380300036612347 0 0.15607251807828881 0.33388146262819252 0 0.15607251807828881 0.33388146262819252 0 0.1402590741788716 0.33239642564547628 0 0.15018102139080211 0.3495392324554869 0 0.1402590741788716 0.33239642564547628 0 0.1355319235171705 0.34878637665056839 0 0.15018102139080211 0.3495392324554869 0 0.1496961979673771 0.31215552550138831 0 0.15607251807828881 0.33388146262819252 0 0.1402590741788716 0.33239642564547628 0 0.1496961979673771 0.31215552550138831 0 0.1259941940107622 0.31774478333183409 0 0.1402590741788716 0.33239642564547628 0 0.1209993840093774 0.33876876373920523 0 0.1259941940107622 0.31774478333183409 0 0.1402590741788716 0.33239642564547628 0 0.1209993840093774 0.33876876373920523 0 0.1402590741788716 0.33239642564547628 0 0.1355319235171705 0.34878637665056839 0 0.1200608100739773 0.35848588950134452 0 0.1209993840093774 0.33876876373920523 0 0.1355319235171705 0.34878637665056839 0 0.1200608100739773 0.35848588950134452 0 0.1355319235171705 0.34878637665056839 0 0.1453464358500198 0.3638272515850014 0 0.1200608100739773 0.35848588950134452 0 0.1453464358500198 0.3638272515850014 0 0.1200608100739773 0.35848588950134452 0 0.13478233304891271 0.37461145378281258 0 0.1453464358500198 0.3638272515850014 0 0.13478233304891271 0.37461145378281258 0 0.1453464358500198 0.3638272515850014 0 0.14477675113470831 0.3759010681802315 0 0.1453464358500198 0.3638272515850014 0 0.155566026596833 0.377969292792111 0 0.14477675113470831 0.3759010681802315 0 0.1453464358500198 0.3638272515850014 0 0.15600030654555841 0.36157024558602679 0 0.15018102139080211 0.3495392324554869 0 0.1355319235171705 0.34878637665056839 0 0.1453464358500198 0.3638272515850014 0 0.15018102139080211 0.3495392324554869 0 0.14378417620653661 0.40077733470958282 0 0.1551710587387968 0.41162287532599029 0 0.15767779494385459 0.39458513727216338 0 0.14378417620653661 0.40077733470958282 0 0.1434122090430679 0.38719627456100092 0 0.15767779494385459 0.39458513727216338 0 0.155566026596833 0.377969292792111 0 0.1434122090430679 0.38719627456100092 0 0.15767779494385459 0.39458513727216338 0 0.13478233304891271 0.37461145378281258 0 0.14477675113470831 0.3759010681802315 0 0.1434122090430679 0.38719627456100092 0 0.155566026596833 0.377969292792111 0 0.14477675113470831 0.3759010681802315 0 0.1434122090430679 0.38719627456100092 0 0.11445130505528391 0.37838962635402829 0 0.13478233304891271 0.37461145378281258 0 0.12603149981169259 0.39552217948131352 0 0.13478233304891271 0.37461145378281258 0 0.1434122090430679 0.38719627456100092 0 0.12603149981169259 0.39552217948131352 0 0.13478233304891271 0.37461145378281258 0 0.12603149981169259 0.39552217948131352 0 0.14378417620653661 0.40077733470958282 0 0.1434122090430679 0.38719627456100092 0 0.12603149981169259 0.39552217948131352 0 0.14378417620653661 0.40077733470958282 0 0.12603149981169259 0.39552217948131352 0 0.13662831849527099 0.41496020690744628 0 0.1172806665744727 0.41643290517981418 0 0.12603149981169259 0.39552217948131352 0 0.13662831849527099 0.41496020690744628 0 0.1172806665744727 0.41643290517981418 0 0.13662831849527099 0.41496020690744628 0 0.1281182232964162 0.43334209902361592 0 0.13662831849527099 0.41496020690744628 0 0.1281182232964162 0.43334209902361592 0 0.14811772369231899 0.43410879161263483 0 0.13662831849527099 0.41496020690744628 0 0.14811772369231899 0.43410879161263483 0 0.1551710587387968 0.41162287532599029 0 0.14378417620653661 0.40077733470958282 0 0.13662831849527099 0.41496020690744628 0 0.1551710587387968 0.41162287532599029 0 0.1551710587387968 0.41162287532599029 0 0.16726089299479369 0.42321770356913341 0 0.17746104653016539 0.40221655297796699 0 0.14811772369231899 0.43410879161263483 0 0.1551710587387968 0.41162287532599029 0 0.16726089299479369 0.42321770356913341 0 0.14811772369231899 0.43410879161263483 0 0.16726089299479369 0.42321770356913341 0 0.1640653489828264 0.44124429264736198 0 0.16726089299479369 0.42321770356913341 0 0.17878673124147809 0.43597176529554837 0 0.1640653489828264 0.44124429264736198 0 0.16726089299479369 0.42321770356913341 0 0.17878673124147809 0.43597176529554837 0 0.19381621151011519 0.41968330511676039 0 0.16726089299479369 0.42321770356913341 0 0.17746104653016539 0.40221655297796699 0 0.19381621151011519 0.41968330511676039 0 0.1551710587387968 0.41162287532599029 0 0.17746104653016539 0.40221655297796699 0 0.15767779494385459 0.39458513727216338 0 0.17746104653016539 0.40221655297796699 0 0.15767779494385459 0.39458513727216338 0 0.1704160090158448 0.38609499218839138 0 0.17063206162606209 0.36916861366865872 0 0.155566026596833 0.377969292792111 0 0.1704160090158448 0.38609499218839138 0 0.155566026596833 0.377969292792111 0 0.15767779494385459 0.39458513727216338 0 0.1704160090158448 0.38609499218839138 0 0.17063206162606209 0.36916861366865872 0 0.1704160090158448 0.38609499218839138 0 0.19347689567975129 0.38103208848569492 0 0.17063206162606209 0.36916861366865872 0 0.19347689567975129 0.38103208848569492 0 0.17746104653016539 0.40221655297796699 0 0.1704160090158448 0.38609499218839138 0 0.19347689567975129 0.38103208848569492 0 0.19688748303014211 0.37471483639695058 0 0.19347689567975129 0.38103208848569492 0 0.21632172973344069 0.39289556330273051 0 0.19347689567975129 0.38103208848569492 0 0.19858318434926611 0.40093459763361189 0 0.21632172973344069 0.39289556330273051 0 0.17746104653016539 0.40221655297796699 0 0.19347689567975129 0.38103208848569492 0 0.19858318434926611 0.40093459763361189 0 0.19858318434926611 0.40093459763361189 0 0.21632172973344069 0.39289556330273051 0 0.2138074417487569 0.41238682576020869 0 0.19688748303014211 0.37471483639695058 0 0.22314290443422211 0.38026105912524311 0 0.19347689567975129 0.38103208848569492 0 0.21632172973344069 0.39289556330273051 0 0.19688748303014211 0.37471483639695058 0 0.21632172973344069 0.39289556330273051 0 0.22314290443422211 0.38026105912524311 0 0.21632172973344069 0.39289556330273051 0 0.22314290443422211 0.38026105912524311 0 0.23476818688298121 0.39014655829849298 0 0.21632172973344069 0.39289556330273051 0 0.23916656378713649 0.40475903811975378 0 0.23476818688298121 0.39014655829849298 0 0.21632172973344069 0.39289556330273051 0 0.23916656378713649 0.40475903811975378 0 0.21632172973344069 0.39289556330273051 0 0.23916656378713649 0.40475903811975378 0 0.2138074417487569 0.41238682576020869 0 0.23916656378713649 0.40475903811975378 0 0.23476818688298121 0.39014655829849298 0 0.2493983258383019 0.38580728185353569 0 0.23916656378713649 0.40475903811975378 0 0.25114807036015657 0.39331942424817662 0 0.2564460418808997 0.40016640571873618 0 0.23916656378713649 0.40475903811975378 0 0.2493983258383019 0.38580728185353569 0 0.25114807036015657 0.39331942424817662 0 0.23916656378713649 0.40475903811975378 0 0.25391694587654512 0.41241900999998071 0 0.2564460418808997 0.40016640571873618 0 0.23916656378713649 0.40475903811975378 0 0.2493983258383019 0.38580728185353569 0 0.22314290443422211 0.38026105912524311 0 0.23476818688298121 0.39014655829849298 0 0.2493983258383019 0.38580728185353569 0 0.22314290443422211 0.38026105912524311 0 0.2493983258383019 0.38580728185353569 0 0.2429583931954305 0.37069002009758723 0 0.22314290443422211 0.38026105912524311 0 0.2493983258383019 0.38580728185353569 0 0.24509904314710529 0.42490707984107301 0 0.22766447350595481 0.4260637567469957 0 0.23654065088067719 0.43849220043088721 0 0.24509904314710529 0.42490707984107301 0 0.23654065088067719 0.43849220043088721 0 0.25112011551340951 0.43762845203734652 0 0.23916656378713649 0.40475903811975378 0 0.24509904314710529 0.42490707984107301 0 0.22766447350595481 0.4260637567469957 0 0.23916656378713649 0.40475903811975378 0 0.24509904314710529 0.42490707984107301 0 0.25391694587654512 0.41241900999998071 0 0.23916656378713649 0.40475903811975378 0 0.25391694587654512 0.41241900999998071 0 0.23916656378713649 0.40475903811975378 0 0.22766447350595481 0.4260637567469957 0 0.23916656378713649 0.40475903811975378 0 0.22766447350595481 0.4260637567469957 0 0.2138074417487569 0.41238682576020869 0 0.22766447350595481 0.4260637567469957 0 0.2161623832247733 0.44736847537423768 0 0.22766447350595481 0.4260637567469957 0 0.2161623832247733 0.44736847537423768 0 0.23654065088067719 0.43849220043088721 0 0.22766447350595481 0.4260637567469957 0 0.20897283121626359 0.42929617073859733 0 0.2138074417487569 0.41238682576020869 0 0.22766447350595481 0.4260637567469957 0 0.20897283121626359 0.42929617073859733 0 0.2161623832247733 0.44736847537423768 0 0.20897283121626359 0.42929617073859733 0 0.2138074417487569 0.41238682576020869 0 0.19381621151011519 0.41968330511676039 0 0.19858318434926611 0.40093459763361189 0 0.2138074417487569 0.41238682576020869 0 0.19381621151011519 0.41968330511676039 0 0.17746104653016539 0.40221655297796699 0 0.19858318434926611 0.40093459763361189 0 0.19381621151011519 0.41968330511676039 0 0.17878673124147809 0.43597176529554837 0 0.19381621151011519 0.41968330511676039 0 0.19341364609171771 0.44097849069478418 0 0.20897283121626359 0.42929617073859733 0 0.19381621151011519 0.41968330511676039 0 0.19341364609171771 0.44097849069478418 0 0.19341364609171771 0.44097849069478418 0 0.19455577782923891 0.45704669870506082 0 0.2161623832247733 0.44736847537423768 0 0.19341364609171771 0.44097849069478418 0 0.19455577782923891 0.45704669870506082 0 0.17537755662793769 0.45473503444970242 0 0.19455577782923891 0.45704669870506082 0 0.20466029294359181 0.46867319400147978 0 0.18316501025817411 0.47347829900510019 0 0.20466029294359181 0.46867319400147978 0 0.22542351870468641 0.45787809466320439 0 0.22027943230701411 0.47459032658937123 0 0.19455577782923891 0.45704669870506082 0 0.20466029294359181 0.46867319400147978 0 0.2161623832247733 0.44736847537423768 0 0.20466029294359181 0.46867319400147978 0 0.2161623832247733 0.44736847537423768 0 0.22542351870468641 0.45787809466320439 0 0.20466029294359181 0.46867319400147978 0 0.2161623832247733 0.44736847537423768 0 0.20897283121626359 0.42929617073859733 0 0.19341364609171771 0.44097849069478418 0 0.2161623832247733 0.44736847537423768 0 0.2161623832247733 0.44736847537423768 0 0.22542351870468641 0.45787809466320439 0 0.23654065088067719 0.43849220043088721 0 0.22542351870468641 0.45787809466320439 0 0.23654065088067719 0.43849220043088721 0 0.2385539516073015 0.45149374772085971 0 0.22542351870468641 0.45787809466320439 0 0.23508279398225651 0.46856866799050528 0 0.2385539516073015 0.45149374772085971 0 0.22542351870468641 0.45787809466320439 0 0.23508279398225651 0.46856866799050528 0 0.22027943230701411 0.47459032658937123 0 0.23508279398225651 0.46856866799050528 0 0.2457842156422255 0.45965373450847707 0 0.2385539516073015 0.45149374772085971 0 0.23508279398225651 0.46856866799050528 0 0.2457842156422255 0.45965373450847707 0 0.24931202994806331 0.46984700064989932 0 0.2457842156422255 0.45965373450847707 0 0.24982990964186941 0.44903490227389509 0 0.2385539516073015 0.45149374772085971 0 0.24982990964186941 0.44903490227389509 0 0.23654065088067719 0.43849220043088721 0 0.25112011551340951 0.43762845203734652 0 0.24982990964186941 0.44903490227389509 0 0.23654065088067719 0.43849220043088721 0 0.2385539516073015 0.45149374772085971 0 0.24674937280290141 0.5 0 0.2409519778159773 0.49467719108119201 0 0.21724840223174541 0.5 0 0.2409519778159773 0.49467719108119201 0 0.2420673106971433 0.48206252910431419 0 0.23227625273221139 0.48811635827534339 0 0.2420673106971433 0.48206252910431419 0 0.2290306321765293 0.48339816106090161 0 0.23227625273221139 0.48811635827534339 0 0.2409519778159773 0.49467719108119201 0 0.2490708322414838 0.48724336808070379 0 0.25573586388865649 0.48982272674195521 0 0.2409519778159773 0.49467719108119201 0 0.2490708322414838 0.48724336808070379 0 0.2420673106971433 0.48206252910431419 0 0.2490708322414838 0.48724336808070379 0 0.2420673106971433 0.48206252910431419 0 0.25511973798261001 0.48042567510157669 0 0.24931202994806331 0.46984700064989932 0 0.2420673106971433 0.48206252910431419 0 0.25511973798261001 0.48042567510157669 0 0.23508279398225651 0.46856866799050528 0 0.24931202994806331 0.46984700064989932 0 0.2420673106971433 0.48206252910431419 0 0.23508279398225651 0.46856866799050528 0 0.2420673106971433 0.48206252910431419 0 0.2290306321765293 0.48339816106090161 0 0.23508279398225651 0.46856866799050528 0 0.2290306321765293 0.48339816106090161 0 0.22027943230701411 0.47459032658937123 0 0.2290306321765293 0.48339816106090161 0 0.22027943230701411 0.47459032658937123 0 0.21941123680090691 0.48309664450575979 0 0.2409519778159773 0.49467719108119201 0 0.21705509023919561 0.49232755185496557 0 0.2290306321765293 0.48339816106090161 0 0.21941123680090691 0.48309664450575979 0 0.21705509023919561 0.49232755185496557 0 0.2409519778159773 0.49467719108119201 0 0.21724840223174541 0.5 0 0.21705509023919561 0.49232755185496557 0 0.2290306321765293 0.48339816106090161 0 0.23227625273221139 0.48811635827534339 0 0.21705509023919561 0.49232755185496557 0 0.2409519778159773 0.49467719108119201 0 0.23227625273221139 0.48811635827534339 0 0.21705509023919561 0.49232755185496557 0 0.21724840223174541 0.5 0 0.21705509023919561 0.49232755185496557 0 0.19315820266241529 0.48997791262872448 0 0.21705509023919561 0.49232755185496557 0 0.19315820266241529 0.48997791262872448 0 0.21705509023919561 0.49232755185496557 0 0.2112797924808886 0.48207053851780068 0 0.19315820266241529 0.48997791262872448 0 0.21941123680090691 0.48309664450575979 0 0.21705509023919561 0.49232755185496557 0 0.2112797924808886 0.48207053851780068 0 0.20466029294359181 0.46867319400147978 0 0.22027943230701411 0.47459032658937123 0 0.2112797924808886 0.48207053851780068 0 0.22027943230701411 0.47459032658937123 0 0.21941123680090691 0.48309664450575979 0 0.2112797924808886 0.48207053851780068 0 0.20466029294359181 0.46867319400147978 0 0.19315820266241529 0.48997791262872448 0 0.18316501025817411 0.47347829900510019 0 0.20466029294359181 0.46867319400147978 0 0.2112797924808886 0.48207053851780068 0 0.19315820266241529 0.48997791262872448 0 0.20466029294359181 0.46867319400147978 0 0.19315820266241529 0.48997791262872448 0 0.21724840223174541 0.5 0 0.19315820266241529 0.48997791262872448 0 0.1877474316605893 0.49999999999999589 0 0.19315820266241529 0.48997791262872448 0 0.1877474316605893 0.49999999999999589 0 0.19315820266241529 0.48997791262872448 0 0.17014963767487809 0.48771561689419241 0 0.19315820266241529 0.48997791262872448 0 0.1877474316605893 0.49999999999999589 0 0.17014963767487809 0.48771561689419241 0 0.1877474316605893 0.49999999999999589 0 0.17014963767487809 0.48771561689419241 0 0.16366216806896169 0.5 0 0.17014963767487809 0.48771561689419241 0 0.1595155164630441 0.49526390483301103 0 0.16366216806896169 0.5 0 0.16055849779411269 0.48465766266326882 0 0.1595155164630441 0.49526390483301103 0 0.15519226557225321 0.4865820872431188 0 0.17014963767487809 0.48771561689419241 0 0.16055849779411269 0.48465766266326882 0 0.1595155164630441 0.49526390483301103 0 0.16561220080189901 0.47275626252147751 0 0.152072449632566 0.45788119261706361 0 0.15213854572413041 0.47798081030555178 0 0.16055849779411269 0.48465766266326882 0 0.16561220080189901 0.47275626252147751 0 0.15213854572413041 0.47798081030555178 0 0.17014963767487809 0.48771561689419241 0 0.16055849779411269 0.48465766266326882 0 0.16561220080189901 0.47275626252147751 0 0.19315820266241529 0.48997791262872448 0 0.17014963767487809 0.48771561689419241 0 0.18316501025817411 0.47347829900510019 0 0.17014963767487809 0.48771561689419241 0 0.16561220080189901 0.47275626252147751 0 0.18316501025817411 0.47347829900510019 0 0.19455577782923891 0.45704669870506082 0 0.18316501025817411 0.47347829900510019 0 0.17537755662793769 0.45473503444970242 0 0.16561220080189901 0.47275626252147751 0 0.18316501025817411 0.47347829900510019 0 0.17537755662793769 0.45473503444970242 0 0.17878673124147809 0.43597176529554837 0 0.19341364609171771 0.44097849069478418 0 0.17537755662793769 0.45473503444970242 0 0.17878673124147809 0.43597176529554837 0 0.17537755662793769 0.45473503444970242 0 0.1640653489828264 0.44124429264736198 0 0.17537755662793769 0.45473503444970242 0 0.1640653489828264 0.44124429264736198 0 0.152072449632566 0.45788119261706361 0 0.16561220080189901 0.47275626252147751 0 0.17537755662793769 0.45473503444970242 0 0.152072449632566 0.45788119261706361 0 0.152072449632566 0.45788119261706361 0 0.13579788334447351 0.4616492523343031 0 0.13980937514978059 0.47275959983803262 0 0.152072449632566 0.45788119261706361 0 0.13663439256434359 0.44749885136616052 0 0.13579788334447351 0.4616492523343031 0 0.14811772369231899 0.43410879161263483 0 0.152072449632566 0.45788119261706361 0 0.13663439256434359 0.44749885136616052 0 0.14811772369231899 0.43410879161263483 0 0.1640653489828264 0.44124429264736198 0 0.152072449632566 0.45788119261706361 0 0.1281182232964162 0.43334209902361592 0 0.14811772369231899 0.43410879161263483 0 0.13663439256434359 0.44749885136616052 0 0.1221638583408632 0.44949644160630903 0 0.1281182232964162 0.43334209902361592 0 0.13663439256434359 0.44749885136616052 0 0.1221638583408632 0.44949644160630903 0 0.13663439256434359 0.44749885136616052 0 0.13579788334447351 0.4616492523343031 0 0.115454379640119 0.46559406527157249 0 0.13579788334447351 0.4616492523343031 0 0.12546140466860231 0.47497018224559101 0 0.1221638583408632 0.44949644160630903 0 0.13579788334447351 0.4616492523343031 0 0.12546140466860231 0.47497018224559101 0 0.13980937514978059 0.47275959983803262 0 0.13141037284086901 0.48157786654320972 0 0.13579788334447351 0.4616492523343031 0 0.12546140466860231 0.47497018224559101 0 0.13980937514978059 0.47275959983803262 0 0.13980937514978059 0.47275959983803262 0 0.13141037284086901 0.48157786654320972 0 0.14197559468804261 0.48249829498247698 0 0.1124605482431746 0.48786895242117778 0 0.13141037284086901 0.48157786654320972 0 0.13598803235310941 0.49156642862709438 0 0.1154916408857066 0.5 0 0.1395769044773342 0.5 0 0.13598803235310941 0.49156642862709438 0 0.13141037284086901 0.48157786654320972 0 0.13598803235310941 0.49156642862709438 0 0.14197559468804261 0.48249829498247698 0 0.1595155164630441 0.49526390483301103 0 0.13598803235310941 0.49156642862709438 0 0.14855650230772571 0.48842597117064351 0 0.1595155164630441 0.49526390483301103 0 0.16366216806896169 0.5 0 0.1395769044773342 0.5 0 0.1595155164630441 0.49526390483301103 0 0.13598803235310941 0.49156642862709438 0 0.13598803235310941 0.49156642862709438 0 0.14855650230772571 0.48842597117064351 0 0.14197559468804261 0.48249829498247698 0 0.1595155164630441 0.49526390483301103 0 0.1395769044773342 0.5 0 0.13598803235310941 0.49156642862709438 0 0.1595155164630441 0.49526390483301103 0 0.14855650230772571 0.48842597117064351 0 0.15519226557225321 0.4865820872431188 0 0.152072449632566 0.45788119261706361 0 0.13980937514978059 0.47275959983803262 0 0.15213854572413041 0.47798081030555178 0 0.14855650230772571 0.48842597117064351 0 0.15519226557225321 0.4865820872431188 0 0.15213854572413041 0.47798081030555178 0 0.16055849779411269 0.48465766266326882 0 0.15519226557225321 0.4865820872431188 0 0.15213854572413041 0.47798081030555178 0 0.13980937514978059 0.47275959983803262 0 0.15213854572413041 0.47798081030555178 0 0.14197559468804261 0.48249829498247698 0 0.14855650230772571 0.48842597117064351 0 0.15213854572413041 0.47798081030555178 0 0.14197559468804261 0.48249829498247698 0 0.35237918780805128 0.48256915602069822 0 0.36840434104990488 0.47200193133536261 0 0.3398860423740569 0.46799544368854612 0 0.36840434104990488 0.47200193133536261 0 0.3398860423740569 0.46799544368854612 0 0.35237918780805128 0.48256915602069822 0 0.36475325508752549 0.5 0 0.33525228451636951 0.5 0 0.35237918780805128 0.48256915602069822 0 0.36475325508752549 0.5 0 0.36840434104990488 0.47200193133536261 0 0.36475325508752549 0.5 0 0.36840434104990488 0.47200193133536261 0 0.38092589942564797 0.48637339949993669 0 0.3694852693029117 0.46228335801629139 0 0.36854322034996051 0.44772295669939999 0 0.38115436387701829 0.45406741574037618 0 0.3694852693029117 0.46228335801629139 0 0.36854322034996051 0.44772295669939999 0 0.35688343284928842 0.45590140126778522 0 0.36854322034996051 0.44772295669939999 0 0.3713718276929816 0.43046730308967779 0 0.38181175801669409 0.43599445812934889 0 0.36854322034996051 0.44772295669939999 0 0.36236644267095602 0.43811221176157339 0 0.3713718276929816 0.43046730308967779 0 0.36854322034996051 0.44772295669939999 0 0.36236644267095602 0.43811221176157339 0 0.34958197107648659 0.44575383749702541 0 0.36854322034996051 0.44772295669939999 0 0.34958197107648659 0.44575383749702541 0 0.36854322034996051 0.44772295669939999 0 0.34958197107648659 0.44575383749702541 0 0.35688343284928842 0.45590140126778522 0 0.36236644267095602 0.43811221176157339 0 0.34958197107648659 0.44575383749702541 0 0.34578885657639702 0.43901451641134182 0 0.36236644267095602 0.43811221176157339 0 0.34958197107648659 0.44575383749702541 0 0.34958197107648659 0.44575383749702541 0 0.35688343284928842 0.45590140126778522 0 0.34498659253351083 0.45624010302292489 0 0.3694852693029117 0.46228335801629139 0 0.35688343284928842 0.45590140126778522 0 0.3398860423740569 0.46799544368854612 0 0.36840434104990488 0.47200193133536261 0 0.3694852693029117 0.46228335801629139 0 0.3398860423740569 0.46799544368854612 0 0.35688343284928842 0.45590140126778522 0 0.34498659253351083 0.45624010302292489 0 0.3398860423740569 0.46799544368854612 0 0.3694852693029117 0.46228335801629139 0 0.3398860423740569 0.46799544368854612 0 0.3398860423740569 0.46799544368854612 0 0.31760787659193629 0.46486562177966051 0 0.3398860423740569 0.46799544368854612 0 0.33359492383421152 0.45530972963834321 0 0.31760787659193629 0.46486562177966051 0 0.34498659253351083 0.45624010302292489 0 0.3398860423740569 0.46799544368854612 0 0.33359492383421152 0.45530972963834321 0 0.34958197107648659 0.44575383749702541 0 0.33359492383421152 0.45530972963834321 0 0.34958197107648659 0.44575383749702541 0 0.32558854750457711 0.44326212872801057 0 0.34958197107648659 0.44575383749702541 0 0.33359492383421152 0.45530972963834321 0 0.32558854750457711 0.44326212872801057 0 0.34958197107648659 0.44575383749702541 0 0.34498659253351083 0.45624010302292489 0 0.33359492383421152 0.45530972963834321 0 0.34958197107648659 0.44575383749702541 0 0.32558854750457711 0.44326212872801057 0 0.33482122300706518 0.43701286495206632 0 0.34958197107648659 0.44575383749702541 0 0.34578885657639702 0.43901451641134182 0 0.33482122300706518 0.43701286495206632 0 0.32558854750457711 0.44326212872801057 0 0.32555338181490551 0.43326535583136588 0 0.33482122300706518 0.43701286495206632 0 0.32558854750457711 0.44326212872801057 0 0.30159512393266752 0.44077041995899668 0 0.32558854750457711 0.44326212872801057 0 0.31262278920618242 0.45138964499873718 0 0.30159512393266752 0.44077041995899668 0 0.32558854750457711 0.44326212872801057 0 0.30159512393266752 0.44077041995899668 0 0.31494604169843538 0.42897621200502678 0 0.33359492383421152 0.45530972963834321 0 0.32558854750457711 0.44326212872801057 0 0.32235353428422681 0.45370678128618791 0 0.32558854750457711 0.44326212872801057 0 0.31262278920618242 0.45138964499873718 0 0.32235353428422681 0.45370678128618791 0 0.33359492383421152 0.45530972963834321 0 0.32235353428422681 0.45370678128618791 0 0.31760787659193629 0.46486562177966051 0 0.33359492383421152 0.45530972963834321 0 0.31760787659193629 0.46486562177966051 0 0.3398860423740569 0.46799544368854612 0 0.31760787659193629 0.46486562177966051 0 0.32127510102438639 0.47158700003851878 0 0.31262278920618242 0.45138964499873718 0 0.32235353428422681 0.45370678128618791 0 0.31760787659193629 0.46486562177966051 0 0.31760787659193629 0.46486562177966051 0 0.32127510102438639 0.47158700003851878 0 0.30369526094977861 0.47318156983844167 0 0.31552931981393278 0.47960711743359041 0 0.32127510102438639 0.47158700003851878 0 0.30266415967471588 0.47517855638849171 0 0.31552931981393278 0.47960711743359041 0 0.31587187885559193 0.48784995299173378 0 0.30787826615177177 0.48214324808748638 0 0.31552931981393278 0.47960711743359041 0 0.32127510102438639 0.47158700003851878 0 0.32995719336319779 0.48127682966172097 0 0.31552931981393278 0.47960711743359041 0 0.32995719336319779 0.48127682966172097 0 0.31587187885559193 0.48784995299173378 0 0.3398860423740569 0.46799544368854612 0 0.32127510102438639 0.47158700003851878 0 0.32995719336319779 0.48127682966172097 0 0.3398860423740569 0.46799544368854612 0 0.32127510102438639 0.47158700003851878 0 0.35237918780805128 0.48256915602069822 0 0.3398860423740569 0.46799544368854612 0 0.32995719336319779 0.48127682966172097 0 0.35237918780805128 0.48256915602069822 0 0.32995719336319779 0.48127682966172097 0 0.33525228451636951 0.5 0 0.32995719336319779 0.48127682966172097 0 0.33525228451636951 0.5 0 0.31587187885559193 0.48784995299173378 0 0.33525228451636951 0.5 0 0.31587187885559193 0.48784995299173378 0 0.30575131394521349 0.5 0 0.31587187885559193 0.48784995299173378 0 0.30474853765413867 0.48857654870146072 0 0.30787826615177177 0.48214324808748638 0 0.31587187885559193 0.48784995299173378 0 0.30575131394521349 0.5 0 0.30474853765413867 0.48857654870146072 0 0.30474853765413867 0.48857654870146072 0 0.30787826615177177 0.48214324808748638 0 0.29973357435759429 0.48381991580307121 0 0.30474853765413867 0.48857654870146072 0 0.29973357435759429 0.48381991580307121 0 0.29519355465535768 0.49060974830069198 0 0.30575131394521349 0.5 0 0.30474853765413867 0.48857654870146072 0 0.29519355465535768 0.49060974830069198 0 0.32127510102438639 0.47158700003851878 0 0.30369526094977861 0.47318156983844167 0 0.30266415967471588 0.47517855638849171 0 0.32127510102438639 0.47158700003851878 0 0.30266415967471588 0.47517855638849171 0 0.31760787659193629 0.46486562177966051 0 0.30369526094977861 0.47318156983844167 0 0.31552931981393278 0.47960711743359041 0 0.30787826615177177 0.48214324808748638 0 0.30266415967471588 0.47517855638849171 0 0.30787826615177177 0.48214324808748638 0 0.29973357435759429 0.48381991580307121 0 0.30266415967471588 0.47517855638849171 0 0.29973357435759429 0.48381991580307121 0 0.30266415967471588 0.47517855638849171 0 0.28978264530762121 0.48149751789722339 0 0.30369526094977861 0.47318156983844167 0 0.30266415967471588 0.47517855638849171 0 0.28978264530762121 0.48149751789722339 0 0.30369526094977861 0.47318156983844167 0 0.29309296209630931 0.47133070725024989 0 0.30229857001481958 0.4677597562329936 0 0.30369526094977861 0.47318156983844167 0 0.29309296209630931 0.47133070725024989 0 0.28978264530762121 0.48149751789722339 0 0.30369526094977861 0.47318156983844167 0 0.28978264530762121 0.48149751789722339 0 0.28978264530762121 0.48149751789722339 0 0.28251222310980179 0.47374385459692853 0 0.27502599182054582 0.48233566366478248 0 0.29309296209630931 0.47133070725024989 0 0.28978264530762121 0.48149751789722339 0 0.28251222310980179 0.47374385459692853 0 0.29309296209630931 0.47133070725024989 0 0.28251222310980179 0.47374385459692853 0 0.28204372400367311 0.46224964174277128 0 0.30575131394521349 0.5 0 0.29519355465535768 0.49060974830069198 0 0.28874575296954091 0.5 0 0.28978264530762121 0.48149751789722339 0 0.29519355465535768 0.49060974830069198 0 0.28239950369803818 0.49038803786875251 0 0.29973357435759429 0.48381991580307121 0 0.28978264530762121 0.48149751789722339 0 0.29519355465535768 0.49060974830069198 0 0.28978264530762121 0.48149751789722339 0 0.28239950369803818 0.49038803786875251 0 0.27502599182054582 0.48233566366478248 0 0.29519355465535768 0.49060974830069198 0 0.28239950369803818 0.49038803786875251 0 0.28874575296954091 0.5 0 0.28874575296954091 0.5 0 0.27625034337405741 0.5 0 0.26484886539275898 0.49702683030741851 0 0.28239950369803818 0.49038803786875251 0 0.27502599182054582 0.48233566366478248 0 0.26484886539275898 0.49702683030741851 0 0.28874575296954091 0.5 0 0.26484886539275898 0.49702683030741851 0 0.28239950369803818 0.49038803786875251 0 0.28874575296954091 0.5 0 0.26484886539275898 0.49702683030741851 0 0.27502599182054582 0.48233566366478248 0 0.26484886539275898 0.49702683030741851 0 0.26387102884735641 0.48576986855132981 0 0.28251222310980179 0.47374385459692853 0 0.27261579232085958 0.47130574242961509 0 0.28204372400367311 0.46224964174277128 0 0.28251222310980179 0.47374385459692853 0 0.27502599182054582 0.48233566366478248 0 0.27261579232085958 0.47130574242961509 0 0.27261579232085958 0.47130574242961509 0 0.26597980130942689 0.47750223905210648 0 0.26120465289778799 0.46984676728454999 0 0.27502599182054582 0.48233566366478248 0 0.27261579232085958 0.47130574242961509 0 0.26597980130942689 0.47750223905210648 0 0.27502599182054582 0.48233566366478248 0 0.26597980130942689 0.47750223905210648 0 0.26387102884735641 0.48576986855132981 0 0.26597980130942689 0.47750223905210648 0 0.25511973798261001 0.48042567510157669 0 0.26387102884735641 0.48576986855132981 0 0.26597980130942689 0.47750223905210648 0 0.26120465289778799 0.46984676728454999 0 0.25511973798261001 0.48042567510157669 0 0.24931202994806331 0.46984700064989932 0 0.26120465289778799 0.46984676728454999 0 0.25511973798261001 0.48042567510157669 0 0.2490708322414838 0.48724336808070379 0 0.25511973798261001 0.48042567510157669 0 0.25573586388865649 0.48982272674195521 0 0.24674937280290141 0.5 0 0.27625034337405741 0.5 0 0.26484886539275898 0.49702683030741851 0 0.2409519778159773 0.49467719108119201 0 0.26484886539275898 0.49702683030741851 0 0.24674937280290141 0.5 0 0.2409519778159773 0.49467719108119201 0 0.26484886539275898 0.49702683030741851 0 0.2409519778159773 0.49467719108119201 0 0.25573586388865649 0.48982272674195521 0 0.26484886539275898 0.49702683030741851 0 0.25573586388865649 0.48982272674195521 0 0.26484886539275898 0.49702683030741851 0 0.26387102884735641 0.48576986855132981 0 0.25511973798261001 0.48042567510157669 0 0.25573586388865649 0.48982272674195521 0 0.26387102884735641 0.48576986855132981 0 0.26102966536670852 0.44729216169936709 0 0.25112011551340951 0.43762845203734652 0 0.26211485037834242 0.43129311697913159 0 0.24982990964186941 0.44903490227389509 0 0.26102966536670852 0.44729216169936709 0 0.25112011551340951 0.43762845203734652 0 0.24982990964186941 0.44903490227389509 0 0.26102966536670852 0.44729216169936709 0 0.25614239303163649 0.45932435390722592 0 0.2457842156422255 0.45965373450847707 0 0.24982990964186941 0.44903490227389509 0 0.25614239303163649 0.45932435390722592 0 0.24931202994806331 0.46984700064989932 0 0.26120465289778799 0.46984676728454999 0 0.25614239303163649 0.45932435390722592 0 0.2457842156422255 0.45965373450847707 0 0.24931202994806331 0.46984700064989932 0 0.25614239303163649 0.45932435390722592 0 0.26120465289778799 0.46984676728454999 0 0.25614239303163649 0.45932435390722592 0 0.26786226911132238 0.45943053161673791 0 0.26102966536670852 0.44729216169936709 0 0.25614239303163649 0.45932435390722592 0 0.26786226911132238 0.45943053161673791 0 0.27261579232085958 0.47130574242961509 0 0.26120465289778799 0.46984676728454999 0 0.26786226911132238 0.45943053161673791 0 0.27261579232085958 0.47130574242961509 0 0.26786226911132238 0.45943053161673791 0 0.28204372400367311 0.46224964174277128 0 0.26786226911132238 0.45943053161673791 0 0.27464340864225228 0.44732003161764577 0 0.28204372400367311 0.46224964174277128 0 0.26102966536670852 0.44729216169936709 0 0.27464340864225228 0.44732003161764577 0 0.26211485037834242 0.43129311697913159 0 0.26102966536670852 0.44729216169936709 0 0.26786226911132238 0.45943053161673791 0 0.27464340864225228 0.44732003161764577 0 0.28714107136022599 0.44864082527862947 0 0.29479818042125439 0.46166112606362258 0 0.30159512393266752 0.44077041995899668 0 0.27464340864225228 0.44732003161764577 0 0.28714107136022599 0.44864082527862947 0 0.28262491980128279 0.43120290701011132 0 0.28714107136022599 0.44864082527862947 0 0.30159512393266752 0.44077041995899668 0 0.28262491980128279 0.43120290701011132 0 0.27464340864225228 0.44732003161764577 0 0.28714107136022599 0.44864082527862947 0 0.28204372400367311 0.46224964174277128 0 0.28714107136022599 0.44864082527862947 0 0.28204372400367311 0.46224964174277128 0 0.29479818042125439 0.46166112606362258 0 0.29309296209630931 0.47133070725024989 0 0.29479818042125439 0.46166112606362258 0 0.30229857001481958 0.4677597562329936 0 0.29309296209630931 0.47133070725024989 0 0.28204372400367311 0.46224964174277128 0 0.29479818042125439 0.46166112606362258 0 0.31760787659193629 0.46486562177966051 0 0.29479818042125439 0.46166112606362258 0 0.31262278920618242 0.45138964499873718 0 0.31760787659193629 0.46486562177966051 0 0.29479818042125439 0.46166112606362258 0 0.31760787659193629 0.46486562177966051 0 0.29479818042125439 0.46166112606362258 0 0.30229857001481958 0.4677597562329936 0 0.31760787659193629 0.46486562177966051 0 0.30369526094977861 0.47318156983844167 0 0.30229857001481958 0.4677597562329936 0 0.31262278920618242 0.45138964499873718 0 0.29479818042125439 0.46166112606362258 0 0.30159512393266752 0.44077041995899668 0 0.30159512393266752 0.44077041995899668 0 0.29633638546194008 0.4168266513126494 0 0.31494604169843538 0.42897621200502678 0 0.29633638546194008 0.4168266513126494 0 0.31010730848275858 0.40483639928157922 0 0.31494604169843538 0.42897621200502678 0 0.29633638546194008 0.4168266513126494 0 0.27929596584698468 0.40912980761102868 0 0.2888484027392324 0.39324963029683357 0 0.29633638546194008 0.4168266513126494 0 0.28262491980128279 0.43120290701011132 0 0.27929596584698468 0.40912980761102868 0 0.30159512393266752 0.44077041995899668 0 0.29633638546194008 0.4168266513126494 0 0.28262491980128279 0.43120290701011132 0 0.27464340864225228 0.44732003161764577 0 0.28262491980128279 0.43120290701011132 0 0.26211485037834242 0.43129311697913159 0 0.28262491980128279 0.43120290701011132 0 0.26866732796596021 0.42007898188019532 0 0.26211485037834242 0.43129311697913159 0 0.28262491980128279 0.43120290701011132 0 0.27929596584698468 0.40912980761102868 0 0.26866732796596021 0.42007898188019532 0 0.27929596584698468 0.40912980761102868 0 0.26866732796596021 0.42007898188019532 0 0.26545995749866752 0.40752230523633809 0 0.26866732796596021 0.42007898188019532 0 0.25391694587654512 0.41241900999998071 0 0.26211485037834242 0.43129311697913159 0 0.26866732796596021 0.42007898188019532 0 0.25391694587654512 0.41241900999998071 0 0.26866732796596021 0.42007898188019532 0 0.26545995749866752 0.40752230523633809 0 0.25391694587654512 0.41241900999998071 0 0.26545995749866752 0.40752230523633809 0 0.25391694587654512 0.41241900999998071 0 0.2564460418808997 0.40016640571873618 0 0.24509904314710529 0.42490707984107301 0 0.25112011551340951 0.43762845203734652 0 0.26211485037834242 0.43129311697913159 0 0.24509904314710529 0.42490707984107301 0 0.25391694587654512 0.41241900999998071 0 0.26211485037834242 0.43129311697913159 0 0.2493983258383019 0.38580728185353569 0 0.26033266318055459 0.38984620402649262 0 0.26741724589927229 0.37849095446831399 0 0.26033266318055459 0.38984620402649262 0 0.26897350592294761 0.39581732097174932 0 0.26741724589927229 0.37849095446831399 0 0.2493983258383019 0.38580728185353569 0 0.26033266318055459 0.38984620402649262 0 0.25114807036015657 0.39331942424817662 0 0.26033266318055459 0.38984620402649262 0 0.25114807036015657 0.39331942424817662 0 0.2564460418808997 0.40016640571873618 0 0.26545995749866752 0.40752230523633809 0 0.2564460418808997 0.40016640571873618 0 0.26897350592294761 0.39581732097174932 0 0.26033266318055459 0.38984620402649262 0 0.2564460418808997 0.40016640571873618 0 0.26897350592294761 0.39581732097174932 0 0.27929596584698468 0.40912980761102868 0 0.26897350592294761 0.39581732097174932 0 0.2888484027392324 0.39324963029683357 0 0.27929596584698468 0.40912980761102868 0 0.26545995749866752 0.40752230523633809 0 0.26897350592294761 0.39581732097174932 0 0.26897350592294761 0.39581732097174932 0 0.26741724589927229 0.37849095446831399 0 0.2888484027392324 0.39324963029683357 0 0.26741724589927229 0.37849095446831399 0 0.2888484027392324 0.39324963029683357 0 0.29185600882110613 0.36359972223718778 0 0.29633638546194008 0.4168266513126494 0 0.2888484027392324 0.39324963029683357 0 0.31010730848275858 0.40483639928157922 0 0.2888484027392324 0.39324963029683357 0 0.31010730848275858 0.40483639928157922 0 0.31363830557709849 0.38603598249629151 0 0.2888484027392324 0.39324963029683357 0 0.31363830557709849 0.38603598249629151 0 0.29185600882110613 0.36359972223718778 0 0.31363830557709849 0.38603598249629151 0 0.3371948537570989 0.37360791024434892 0 0.31801259252377329 0.36561672865928652 0 0.31363830557709849 0.38603598249629151 0 0.33502001545427518 0.3913074540039202 0 0.3371948537570989 0.37360791024434892 0 0.33502001545427518 0.3913074540039202 0 0.35299973274757163 0.37739831633641241 0 0.3371948537570989 0.37360791024434892 0 0.33502001545427518 0.3913074540039202 0 0.32822645515192372 0.40807003723369928 0 0.34669518778216951 0.40598335482370662 0 0.31010730848275858 0.40483639928157922 0 0.31363830557709849 0.38603598249629151 0 0.32822645515192372 0.40807003723369928 0 0.31363830557709849 0.38603598249629151 0 0.33502001545427518 0.3913074540039202 0 0.32822645515192372 0.40807003723369928 0 0.31010730848275858 0.40483639928157922 0 0.31494604169843538 0.42897621200502678 0 0.32822645515192372 0.40807003723369928 0 0.31494604169843538 0.42897621200502678 0 0.33068778485109812 0.42543778817577232 0 0.32822645515192372 0.40807003723369928 0 0.31494604169843538 0.42897621200502678 0 0.32555338181490551 0.43326535583136588 0 0.33068778485109812 0.42543778817577232 0 0.32558854750457711 0.44326212872801057 0 0.31494604169843538 0.42897621200502678 0 0.32555338181490551 0.43326535583136588 0 0.32555338181490551 0.43326535583136588 0 0.33482122300706518 0.43701286495206632 0 0.33068778485109812 0.42543778817577232 0 0.33482122300706518 0.43701286495206632 0 0.33068778485109812 0.42543778817577232 0 0.33979136288955403 0.42789924640307342 0 0.33979136288955403 0.42789924640307342 0 0.33881031234615377 0.41637839690813822 0 0.34887426805708599 0.42257897485089901 0 0.33068778485109812 0.42543778817577232 0 0.33979136288955403 0.42789924640307342 0 0.33881031234615377 0.41637839690813822 0 0.34578885657639702 0.43901451641134182 0 0.33482122300706518 0.43701286495206632 0 0.33979136288955403 0.42789924640307342 0 0.33068778485109812 0.42543778817577232 0 0.32822645515192372 0.40807003723369928 0 0.33881031234615377 0.41637839690813822 0 0.32822645515192372 0.40807003723369928 0 0.33881031234615377 0.41637839690813822 0 0.34669518778216951 0.40598335482370662 0 0.33881031234615377 0.41637839690813822 0 0.34887426805708599 0.42257897485089901 0 0.34669518778216951 0.40598335482370662 0 0.34887426805708599 0.42257897485089901 0 0.36543463872039578 0.42025498821496238 0 0.34669518778216951 0.40598335482370662 0 0.34578885657639702 0.43901451641134182 0 0.33979136288955403 0.42789924640307342 0 0.34887426805708599 0.42257897485089901 0 0.34578885657639702 0.43901451641134182 0 0.34887426805708599 0.42257897485089901 0 0.36543463872039578 0.42025498821496238 0 0.36236644267095602 0.43811221176157339 0 0.34578885657639702 0.43901451641134182 0 0.36543463872039578 0.42025498821496238 0 0.34578885657639702 0.43901451641134182 0 0.36543463872039578 0.42025498821496238 0 0.3713718276929816 0.43046730308967779 0 0.36543463872039578 0.42025498821496238 0 0.38344608944054259 0.41874495907396531 0 0.36236644267095602 0.43811221176157339 0 0.3713718276929816 0.43046730308967779 0 0.36543463872039578 0.42025498821496238 0 0.36543463872039578 0.42025498821496238 0 0.36718604533145338 0.40310501472764187 0 0.38508042086439331 0.40149546001858177 0 0.36543463872039578 0.42025498821496238 0 0.36718604533145338 0.40310501472764187 0 0.34669518778216951 0.40598335482370662 0 0.36718604533145338 0.40310501472764187 0 0.37221941422516369 0.38899224278270339 0 0.38508042086439331 0.40149546001858177 0 0.36718604533145338 0.40310501472764187 0 0.37221941422516369 0.38899224278270339 0 0.35805477257589141 0.39284525618158311 0 0.35299973274757163 0.37739831633641241 0 0.35805477257589141 0.39284525618158311 0 0.36779984685312661 0.37473894051485962 0 0.37221941422516369 0.38899224278270339 0 0.35805477257589141 0.39284525618158311 0 0.36779984685312661 0.37473894051485962 0 0.37221941422516369 0.38899224278270339 0 0.36779984685312661 0.37473894051485962 0 0.37607855043756638 0.38042158153032463 0 0.36779984685312661 0.37473894051485962 0 0.37836938959517319 0.3704419966924607 0 0.37607855043756638 0.38042158153032463 0 0.33502001545427518 0.3913074540039202 0 0.35299973274757163 0.37739831633641241 0 0.35805477257589141 0.39284525618158311 0 0.33502001545427518 0.3913074540039202 0 0.34669518778216951 0.40598335482370662 0 0.35805477257589141 0.39284525618158311 0 0.36718604533145338 0.40310501472764187 0 0.34669518778216951 0.40598335482370662 0 0.35805477257589141 0.39284525618158311 0 0.35508918662495292 0.3544050132690677 0 0.35197529038942282 0.33683811374526629 0 0.33513449618837532 0.35025620903250321 0 0.35299973274757163 0.37739831633641241 0 0.35508918662495292 0.3544050132690677 0 0.3371948537570989 0.37360791024434892 0 0.35299973274757163 0.37739831633641241 0 0.35508918662495292 0.3544050132690677 0 0.36779984685312661 0.37473894051485962 0 0.35508918662495292 0.3544050132690677 0 0.3371948537570989 0.37360791024434892 0 0.35508918662495292 0.3544050132690677 0 0.36779984685312661 0.37473894051485962 0 0.37241360004904622 0.36143213383377509 0 0.36779984685312661 0.37473894051485962 0 0.37241360004904622 0.36143213383377509 0 0.37836938959517319 0.3704419966924607 0 0.35508918662495292 0.3544050132690677 0 0.37298351949280723 0.33520211629378682 0 0.35508918662495292 0.3544050132690677 0 0.37241360004904622 0.36143213383377509 0 0.3771425128442546 0.349080970373077 0 0.35508918662495292 0.3544050132690677 0 0.37298351949280723 0.33520211629378682 0 0.3771425128442546 0.349080970373077 0 0.35508918662495292 0.3544050132690677 0 0.37298351949280723 0.33520211629378682 0 0.36676645207016201 0.33489229543793031 0 0.36676645207016201 0.33489229543793031 0 0.37214086289173293 0.32798967761859199 0 0.36317357569133568 0.32706684995046958 0 0.37298351949280723 0.33520211629378682 0 0.36676645207016201 0.33489229543793031 0 0.37214086289173293 0.32798967761859199 0 0.37298351949280723 0.33520211629378682 0 0.36676645207016201 0.33489229543793031 0 0.36676645207016201 0.33489229543793031 0 0.36317357569133568 0.32706684995046958 0 0.35197529038942282 0.33683811374526629 0 0.37197361706309467 0.3213463981502771 0 0.36427578867537991 0.31493875699122298 0 0.37641149964355303 0.31291697699893861 0 0.37197361706309467 0.3213463981502771 0 0.37214086289173293 0.32798967761859199 0 0.36317357569133568 0.32706684995046958 0 0.37197361706309467 0.3213463981502771 0 0.36317357569133568 0.32706684995046958 0 0.36427578867537991 0.31493875699122298 0 0.36317357569133568 0.32706684995046958 0 0.36427578867537991 0.31493875699122298 0 0.35390656844653362 0.32473127689989978 0 0.35390656844653362 0.32473127689989978 0 0.34915969763025101 0.31430859376410603 0 0.33782788090297378 0.32934681688736872 0 0.36427578867537991 0.31493875699122298 0 0.35390656844653362 0.32473127689989978 0 0.34915969763025101 0.31430859376410603 0 0.35508918662495292 0.3544050132690677 0 0.36676645207016201 0.33489229543793031 0 0.35197529038942282 0.33683811374526629 0 0.35390656844653362 0.32473127689989978 0 0.35197529038942282 0.33683811374526629 0 0.33782788090297378 0.32934681688736872 0 0.36317357569133568 0.32706684995046958 0 0.35390656844653362 0.32473127689989978 0 0.35197529038942282 0.33683811374526629 0 0.35197529038942282 0.33683811374526629 0 0.33782788090297378 0.32934681688736872 0 0.33513449618837532 0.35025620903250321 0 0.33782788090297378 0.32934681688736872 0 0.31612580431165938 0.32863354199789557 0 0.33513449618837532 0.35025620903250321 0 0.33782788090297378 0.32934681688736872 0 0.33376995993177477 0.31251109396329679 0 0.31612580431165938 0.32863354199789557 0 0.34915969763025101 0.31430859376410603 0 0.33782788090297378 0.32934681688736872 0 0.33376995993177477 0.31251109396329679 0 0.33376995993177477 0.31251109396329679 0 0.31612580431165938 0.32863354199789557 0 0.31750861536119768 0.30727449649866068 0 0.31612580431165938 0.32863354199789557 0 0.33513449618837532 0.35025620903250321 0 0.31002454842539667 0.35004296654545541 0 0.33513449618837532 0.35025620903250321 0 0.31801259252377329 0.36561672865928652 0 0.31002454842539667 0.35004296654545541 0 0.33513449618837532 0.35025620903250321 0 0.3371948537570989 0.37360791024434892 0 0.31801259252377329 0.36561672865928652 0 0.35508918662495292 0.3544050132690677 0 0.33513449618837532 0.35025620903250321 0 0.3371948537570989 0.37360791024434892 0 0.31363830557709849 0.38603598249629151 0 0.31801259252377329 0.36561672865928652 0 0.29185600882110613 0.36359972223718778 0 0.31801259252377329 0.36561672865928652 0 0.31002454842539667 0.35004296654545541 0 0.29185600882110613 0.36359972223718778 0 0.31002454842539667 0.35004296654545541 0 0.29185600882110613 0.36359972223718778 0 0.29708730657820531 0.33735290507098548 0 0.29185600882110613 0.36359972223718778 0 0.27685173370080618 0.33495677420046271 0 0.29708730657820531 0.33735290507098548 0 0.26741724589927229 0.37849095446831399 0 0.29185600882110613 0.36359972223718778 0 0.26312502976955421 0.36038202802699942 0 0.29185600882110613 0.36359972223718778 0 0.26312502976955421 0.36038202802699942 0 0.27685173370080618 0.33495677420046271 0 0.26312502976955421 0.36038202802699942 0 0.27685173370080618 0.33495677420046271 0 0.23616731273964389 0.35630971138457113 0 0.25184518342483059 0.34378895946634142 0 0.26312502976955421 0.36038202802699942 0 0.25184518342483059 0.34378895946634142 0 0.26312502976955421 0.36038202802699942 0 0.27685173370080618 0.33495677420046271 0 0.2429583931954305 0.37069002009758723 0 0.2493983258383019 0.38580728185353569 0 0.26312502976955421 0.36038202802699942 0 0.2493983258383019 0.38580728185353569 0 0.26312502976955421 0.36038202802699942 0 0.2493983258383019 0.38580728185353569 0 0.26741724589927229 0.37849095446831399 0 0.26312502976955421 0.36038202802699942 0 0.24384714108046629 0.30842271566885621 0 0.2472860627765491 0.32357026084747492 0 0.26306869392768201 0.31064106353348242 0 0.2472860627765491 0.32357026084747492 0 0.27685173370080618 0.33495677420046271 0 0.26306869392768201 0.31064106353348242 0 0.2472860627765491 0.32357026084747492 0 0.25184518342483059 0.34378895946634142 0 0.27685173370080618 0.33495677420046271 0 0.27685173370080618 0.33495677420046271 0 0.29057843763205821 0.30953152037392612 0 0.26306869392768201 0.31064106353348242 0 0.27685173370080618 0.33495677420046271 0 0.29057843763205821 0.30953152037392612 0 0.27685173370080618 0.33495677420046271 0 0.29708730657820531 0.33735290507098548 0 0.29057843763205821 0.30953152037392612 0 0.31612580431165938 0.32863354199789557 0 0.31002454842539667 0.35004296654545541 0 0.29708730657820531 0.33735290507098548 0 0.31612580431165938 0.32863354199789557 0 0.29057843763205821 0.30953152037392612 0 0.31750861536119768 0.30727449649866068 0 0.31612580431165938 0.32863354199789557 0 0.29708730657820531 0.33735290507098548 0 0.29057843763205821 0.30953152037392612 0 0.30841809373110229 0.29041014868786119 0 0.29057843763205821 0.30953152037392612 0 0.31750861536119768 0.30727449649866068 0 0.30841809373110229 0.29041014868786119 0 0.28913506119044557 0.28837746344188042 0 0.29710558010056448 0.27374024365221827 0 0.30841809373110229 0.29041014868786119 0 0.28913506119044557 0.28837746344188042 0 0.29057843763205821 0.30953152037392612 0 0.28913506119044557 0.28837746344188042 0 0.29057843763205821 0.30953152037392612 0 0.26997463598580562 0.29110571599244839 0 0.29057843763205821 0.30953152037392612 0 0.26997463598580562 0.29110571599244839 0 0.26306869392768201 0.31064106353348242 0 0.28913506119044557 0.28837746344188042 0 0.26997463598580562 0.29110571599244839 0 0.27771223627489922 0.27450185458176501 0 0.26997463598580562 0.29110571599244839 0 0.25501703805890008 0.28225930281985478 0 0.25502997555209289 0.29580644501725317 0 0.26997463598580562 0.29110571599244839 0 0.25501703805890008 0.28225930281985478 0 0.26575766037211829 0.2773682068123734 0 0.24171361470842759 0.29422316205106069 0 0.25501703805890008 0.28225930281985478 0 0.25502997555209289 0.29580644501725317 0 0.24384714108046629 0.30842271566885621 0 0.25502997555209289 0.29580644501725317 0 0.26306869392768201 0.31064106353348242 0 0.26997463598580562 0.29110571599244839 0 0.25502997555209289 0.29580644501725317 0 0.26306869392768201 0.31064106353348242 0 0.26530204180092959 0.25824751384918349 0 0.25774582371856131 0.25720337652780612 0 0.25721102393060058 0.26731680845573891 0 0.26530204180092959 0.25824751384918349 0 0.25721102393060058 0.26731680845573891 0 0.26643074785867099 0.26732308551238332 0 0.26530204180092959 0.25824751384918349 0 0.26125664841386997 0.25128184439603901 0 0.26635719388438878 0.24970722347080451 0 0.26125664841386997 0.25128184439603901 0 0.25774582371856131 0.25720337652780612 0 0.25483074441246178 0.25133398368052728 0 0.26530204180092959 0.25824751384918349 0 0.26125664841386997 0.25128184439603901 0 0.25774582371856131 0.25720337652780612 0 0.24445832253036559 0.2549088082697154 0 0.25483074441246178 0.25133398368052728 0 0.25094309503396839 0.25878134349415549 0 0.25774582371856131 0.25720337652780612 0 0.25483074441246178 0.25133398368052728 0 0.25094309503396839 0.25878134349415549 0 0.2476054331824718 0.26498821268157913 0 0.25094309503396839 0.25878134349415549 0 0.25721102393060058 0.26731680845573891 0 0.25774582371856131 0.25720337652780612 0 0.25094309503396839 0.25878134349415549 0 0.25721102393060058 0.26731680845573891 0 0.24795174679602469 0.27353118177312358 0 0.2476054331824718 0.26498821268157913 0 0.25721102393060058 0.26731680845573891 0 0.24795174679602469 0.27353118177312358 0 0.25501703805890008 0.28225930281985478 0 0.25721102393060058 0.26731680845573891 0 0.25501703805890008 0.28225930281985478 0 0.25721102393060058 0.26731680845573891 0 0.26575766037211829 0.2773682068123734 0 0.25721102393060058 0.26731680845573891 0 0.26643074785867099 0.26732308551238332 0 0.26575766037211829 0.2773682068123734 0 0.26643074785867099 0.26732308551238332 0 0.27771223627489922 0.27450185458176501 0 0.2739044837491042 0.2628202598905735 0 0.26643074785867099 0.26732308551238332 0 0.26575766037211829 0.2773682068123734 0 0.27771223627489922 0.27450185458176501 0 0.26997463598580562 0.29110571599244839 0 0.26575766037211829 0.2773682068123734 0 0.27771223627489922 0.27450185458176501 0 0.27771223627489922 0.27450185458176501 0 0.2739044837491042 0.2628202598905735 0 0.28562266236262468 0.25968955354036838 0 0.2739044837491042 0.2628202598905735 0 0.27445473044839669 0.25433929196916749 0 0.28562266236262468 0.25968955354036838 0 0.26530204180092959 0.25824751384918349 0 0.26643074785867099 0.26732308551238332 0 0.2739044837491042 0.2628202598905735 0 0.26530204180092959 0.25824751384918349 0 0.2739044837491042 0.2628202598905735 0 0.27445473044839669 0.25433929196916749 0 0.27445473044839669 0.25433929196916749 0 0.27491197862318911 0.2471457982826446 0 0.26635719388438878 0.24970722347080451 0 0.26530204180092959 0.25824751384918349 0 0.27445473044839669 0.25433929196916749 0 0.26635719388438878 0.24970722347080451 0 0.27445473044839669 0.25433929196916749 0 0.28272453419979049 0.25174505643774792 0 0.28562266236262468 0.25968955354036838 0 0.27445473044839669 0.25433929196916749 0 0.28272453419979049 0.25174505643774792 0 0.27491197862318911 0.2471457982826446 0 0.28562266236262468 0.25968955354036838 0 0.30671132716190053 0.25933573255542602 0 0.29590876536495159 0.2458055819588113 0 0.28562266236262468 0.25968955354036838 0 0.29710558010056448 0.27374024365221827 0 0.30671132716190053 0.25933573255542602 0 0.28272453419979049 0.25174505643774792 0 0.28562266236262468 0.25968955354036838 0 0.29590876536495159 0.2458055819588113 0 0.27771223627489922 0.27450185458176501 0 0.28562266236262468 0.25968955354036838 0 0.29710558010056448 0.27374024365221827 0 0.28913506119044557 0.28837746344188042 0 0.27771223627489922 0.27450185458176501 0 0.29710558010056448 0.27374024365221827 0 0.30841809373110229 0.29041014868786119 0 0.29710558010056448 0.27374024365221827 0 0.31783687216517592 0.27260157459142442 0 0.29710558010056448 0.27374024365221827 0 0.30671132716190053 0.25933573255542602 0 0.31783687216517592 0.27260157459142442 0 0.30671132716190053 0.25933573255542602 0 0.29590876536495159 0.2458055819588113 0 0.32472856934957328 0.24960624822409011 0 0.30671132716190053 0.25933573255542602 0 0.31783687216517592 0.27260157459142442 0 0.32472856934957328 0.24960624822409011 0 0.33448768125085532 0.26632799312407368 0 0.31783687216517592 0.27260157459142442 0 0.32472856934957328 0.24960624822409011 0 0.31783687216517592 0.27260157459142442 0 0.32472856934957328 0.24960624822409011 0 0.33448768125085532 0.26632799312407368 0 0.35343714747451482 0.25339224636834662 0 0.32472856934957328 0.24960624822409011 0 0.35343714747451482 0.25339224636834662 0 0.32472856934957328 0.24960624822409011 0 0.33448768125085532 0.26632799312407368 0 0.31783687216517592 0.27260157459142442 0 0.33228670475259192 0.28907421509215792 0 0.33448768125085532 0.26632799312407368 0 0.33228670475259192 0.28907421509215792 0 0.34844480575553177 0.27433257034789621 0 0.30841809373110229 0.29041014868786119 0 0.31750861536119768 0.30727449649866068 0 0.33228670475259192 0.28907421509215792 0 0.30841809373110229 0.29041014868786119 0 0.31783687216517592 0.27260157459142442 0 0.33228670475259192 0.28907421509215792 0 0.33376995993177477 0.31251109396329679 0 0.31750861536119768 0.30727449649866068 0 0.33228670475259192 0.28907421509215792 0 0.33376995993177477 0.31251109396329679 0 0.33228670475259192 0.28907421509215792 0 0.34529421264620458 0.30129236272746168 0 0.34915969763025101 0.31430859376410603 0 0.33376995993177477 0.31251109396329679 0 0.34529421264620458 0.30129236272746168 0 0.33228670475259192 0.28907421509215792 0 0.35441721402480608 0.28896236779833212 0 0.34844480575553177 0.27433257034789621 0 0.33228670475259192 0.28907421509215792 0 0.35441721402480608 0.28896236779833212 0 0.34529421264620458 0.30129236272746168 0 0.34915969763025101 0.31430859376410603 0 0.34529421264620458 0.30129236272746168 0 0.35886748026282522 0.30229632366552089 0 0.35441721402480608 0.28896236779833212 0 0.34529421264620458 0.30129236272746168 0 0.35886748026282522 0.30229632366552089 0 0.36427578867537991 0.31493875699122298 0 0.34915969763025101 0.31430859376410603 0 0.35886748026282522 0.30229632366552089 0 0.36427578867537991 0.31493875699122298 0 0.35886748026282522 0.30229632366552089 0 0.37330702077223438 0.30303904826571199 0 0.35886748026282522 0.30229632366552089 0 0.37330702077223438 0.30303904826571199 0 0.36898941367772692 0.29148207297057388 0 0.36427578867537991 0.31493875699122298 0 0.37330702077223438 0.30303904826571199 0 0.37641149964355303 0.31291697699893861 0 0.35441721402480608 0.28896236779833212 0 0.36898941367772692 0.29148207297057388 0 0.3726206670539568 0.27529666198638192 0 0.35441721402480608 0.28896236779833212 0 0.35886748026282522 0.30229632366552089 0 0.36898941367772692 0.29148207297057388 0 0.35343714747451482 0.25339224636834662 0 0.38214572559945648 0.25717824451260263 0 0.3726206670539568 0.27529666198638192 0 0.35343714747451482 0.25339224636834662 0 0.38214572559945648 0.25717824451260263 0 0.33448768125085532 0.26632799312407368 0 0.35343714747451482 0.25339224636834662 0 0.34844480575553177 0.27433257034789621 0 0.35441721402480608 0.28896236779833212 0 0.3726206670539568 0.27529666198638192 0 0.34844480575553177 0.27433257034789621 0 0.3726206670539568 0.27529666198638192 0 0.35343714747451482 0.25339224636834662 0 0.34844480575553177 0.27433257034789621 0 0.39618708598102881 0.27591598956791302 0 0.40487723684707189 0.27024472526459709 0 0.38214572559945648 0.25717824451260263 0 0.39618708598102881 0.27591598956791302 0 0.40487723684707189 0.27024472526459709 0 0.41011334355109241 0.28753573590057269 0 0.39618708598102881 0.27591598956791302 0 0.38676043225163292 0.27901208997086768 0 0.39588031874136859 0.28613082475803941 0 0.38214572559945648 0.25717824451260263 0 0.41085430372439791 0.26096424265685858 0 0.40220614802616023 0.2483237479691611 0 0.40487723684707189 0.27024472526459709 0 0.38214572559945648 0.25717824451260263 0 0.41085430372439791 0.26096424265685858 0 0.38214572559945648 0.25717824451260263 0 0.41085430372439791 0.26096424265685858 0 0.3726206670539568 0.27529666198638192 0 0.38214572559945648 0.25717824451260263 0 0.38676043225163292 0.27901208997086768 0 0.39618708598102881 0.27591598956791302 0 0.38214572559945648 0.25717824451260263 0 0.38676043225163292 0.27901208997086768 0 0.3726206670539568 0.27529666198638192 0 0.38676043225163292 0.27901208997086768 0 0.38575177165568558 0.2905373369685656 0 0.37330702077223438 0.30303904826571199 0 0.36898941367772692 0.29148207297057388 0 0.38575177165568558 0.2905373369685656 0 0.36898941367772692 0.29148207297057388 0 0.3726206670539568 0.27529666198638192 0 0.38575177165568558 0.2905373369685656 0 0.38676043225163292 0.27901208997086768 0 0.38575177165568558 0.2905373369685656 0 0.39588031874136859 0.28613082475803941 0 0.37330702077223438 0.30303904826571199 0 0.3857794608984752 0.30598903261453081 0 0.37641149964355303 0.31291697699893861 0 0.37330702077223438 0.30303904826571199 0 0.38575177165568558 0.2905373369685656 0 0.3857794608984752 0.30598903261453081 0 0.38575177165568558 0.2905373369685656 0 0.3857794608984752 0.30598903261453081 0 0.38575177165568558 0.2905373369685656 0 0.3857794608984752 0.30598903261453081 0 0.39396801734759651 0.30208480799261378 0 0.39546151416595271 0.31108036673726891 0 0.39396801734759651 0.30208480799261378 0 0.40520470548380388 0.30533504840031961 0 0.3857794608984752 0.30598903261453081 0 0.39546151416595271 0.31108036673726891 0 0.39396801734759651 0.30208480799261378 0 0.39396801734759651 0.30208480799261378 0 0.40520470548380388 0.30533504840031961 0 0.39867854645046741 0.29510916522736119 0 0.39546151416595271 0.31108036673726891 0 0.40520470548380388 0.30533504840031961 0 0.40776608346910059 0.31597371139158709 0 0.40520470548380388 0.30533504840031961 0 0.39867854645046741 0.29510916522736119 0 0.41011334355109241 0.28753573590057269 0 0.38575177165568558 0.2905373369685656 0 0.39396801734759651 0.30208480799261378 0 0.39867854645046741 0.29510916522736119 0 0.38575177165568558 0.2905373369685656 0 0.39588031874136859 0.28613082475803941 0 0.39867854645046741 0.29510916522736119 0 0.39588031874136859 0.28613082475803941 0 0.39867854645046741 0.29510916522736119 0 0.41011334355109241 0.28753573590057269 0 0.39618708598102881 0.27591598956791302 0 0.39588031874136859 0.28613082475803941 0 0.41011334355109241 0.28753573590057269 0 0.41011334355109241 0.28753573590057269 0 0.42013367421994441 0.30638569321367742 0 0.42537006817859802 0.29192678509844577 0 0.41011334355109241 0.28753573590057269 0 0.42537006817859802 0.29192678509844577 0 0.42807725364527183 0.27867946429412987 0 0.40520470548380388 0.30533504840031961 0 0.41011334355109241 0.28753573590057269 0 0.42013367421994441 0.30638569321367742 0 0.40520470548380388 0.30533504840031961 0 0.42013367421994441 0.30638569321367742 0 0.40776608346910059 0.31597371139158709 0 0.42013367421994441 0.30638569321367742 0 0.4370541574406881 0.29873137323873378 0 0.43807970232221061 0.31513763283615681 0 0.42013367421994441 0.30638569321367742 0 0.4370541574406881 0.29873137323873378 0 0.42537006817859802 0.29192678509844577 0 0.4370541574406881 0.29873137323873378 0 0.42537006817859802 0.29192678509844577 0 0.43716414233282791 0.28369909613072319 0 0.42537006817859802 0.29192678509844577 0 0.43716414233282791 0.28369909613072319 0 0.42807725364527183 0.27867946429412987 0 0.42807725364527183 0.27867946429412987 0 0.41498471356475503 0.27417839847027609 0 0.43956288184933923 0.26475024080111631 0 0.43716414233282791 0.28369909613072319 0 0.42807725364527183 0.27867946429412987 0 0.43767157800028877 0.27570487527769733 0 0.42807725364527183 0.27867946429412987 0 0.43956288184933923 0.26475024080111631 0 0.43767157800028877 0.27570487527769733 0 0.41011334355109241 0.28753573590057269 0 0.42807725364527183 0.27867946429412987 0 0.41498471356475503 0.27417839847027609 0 0.40487723684707189 0.27024472526459709 0 0.41011334355109241 0.28753573590057269 0 0.41498471356475503 0.27417839847027609 0 0.41498471356475503 0.27417839847027609 0 0.41085430372439791 0.26096424265685858 0 0.43956288184933923 0.26475024080111631 0 0.40487723684707189 0.27024472526459709 0 0.41498471356475503 0.27417839847027609 0 0.41085430372439791 0.26096424265685858 0 0.41085430372439791 0.26096424265685858 0 0.41601140868938158 0.2509022152590541 0 0.40220614802616023 0.2483237479691611 0 0.41085430372439791 0.26096424265685858 0 0.41601140868938158 0.2509022152590541 0 0.43956288184933923 0.26475024080111631 0 0.41085430372439791 0.26096424265685858 0 0.43956288184933923 0.26475024080111631 0 0.43956288184933923 0.26475024080111631 0 0.4281923492170836 0.2450642385278147 0 0.41601140868938158 0.2509022152590541 0 0.43956288184933923 0.26475024080111631 0 0.4281923492170836 0.2450642385278147 0 0.43956288184933923 0.26475024080111631 0 0.44588203417371652 0.27569069988482148 0 0.4633055895088094 0.26788135536719487 0 0.44588203417371652 0.27569069988482148 0 0.4633055895088094 0.26788135536719487 0 0.45017987347475091 0.28330636430296618 0 0.43956288184933923 0.26475024080111631 0 0.4633055895088094 0.26788135536719487 0 0.43716414233282791 0.28369909613072319 0 0.43767157800028877 0.27570487527769733 0 0.44588203417371652 0.27569069988482148 0 0.43716414233282791 0.28369909613072319 0 0.44588203417371652 0.27569069988482148 0 0.45017987347475091 0.28330636430296618 0 0.43956288184933923 0.26475024080111631 0 0.44588203417371652 0.27569069988482148 0 0.43956288184933923 0.26475024080111631 0 0.43767157800028877 0.27570487527769733 0 0.44588203417371652 0.27569069988482148 0 0.4633055895088094 0.26788135536719487 0 0.46622080713894409 0.28365910829049301 0 0.45017987347475091 0.28330636430296618 0 0.4633055895088094 0.26788135536719487 0 0.45017987347475091 0.28330636430296618 0 0.43956288184933923 0.26475024080111631 0 0.4633055895088094 0.26788135536719487 0 0.46229010975999352 0.24892346532678791 0 0.4633055895088094 0.26788135536719487 0 0.48088301881285778 0.27019941216667148 0 0.48116618200302957 0.24689203957624081 0 0.4633055895088094 0.26788135536719487 0 0.46229010975999352 0.24892346532678791 0 0.48116618200302957 0.24689203957624081 0 0.48088301881285778 0.27019941216667148 0 0.490280504995592 0.26224978573566882 0 0.48116618200302957 0.24689203957624081 0 0.4633055895088094 0.26788135536719487 0 0.48116618200302957 0.24689203957624081 0 0.48088301881285778 0.27019941216667148 0 0.48437260323590958 0.28544550323096601 0 0.46622080713894409 0.28365910829049301 0 0.4633055895088094 0.26788135536719487 0 0.48088301881285778 0.27019941216667148 0 0.46622080713894409 0.28365910829049301 0 0.4633055895088094 0.26788135536719487 0 0.48088301881285778 0.27019941216667148 0 0.48088301881285778 0.27019941216667148 0 0.49846044811690571 0.27251746896615131 0 0.490280504995592 0.26224978573566882 0 0.48088301881285778 0.27019941216667148 0 0.49846044811690571 0.27251746896615131 0 0.48088301881285778 0.27019941216667148 0 0.49846044811690571 0.27251746896615131 0 0.48437260323590958 0.28544550323096601 0 0.49846044811690571 0.27251746896615131 0 0.5 0.25684581679738833 0 0.5 0.28608186992090101 0 0.49846044811690571 0.27251746896615131 0 0.5 0.25684581679738833 0 0.490280504995592 0.26224978573566882 0 0.5 0.25684581679738833 0 0.490280504995592 0.26224978573566882 0 0.48116618200302957 0.24689203957624081 0 0.48451439793702511 0.29882999866182358 0 0.5 0.28608186992090101 0 0.5 0.31531792304441392 0 0.48451439793702511 0.29882999866182358 0 0.47025894034651677 0.31113352769335112 0 0.5 0.31531792304441392 0 0.48451439793702511 0.29882999866182358 0 0.5 0.28608186992090101 0 0.48437260323590958 0.28544550323096601 0 0.49846044811690571 0.27251746896615131 0 0.5 0.28608186992090101 0 0.48437260323590958 0.28544550323096601 0 0.48437260323590958 0.28544550323096601 0 0.47051056080085252 0.29566458175559313 0 0.46622080713894409 0.28365910829049301 0 0.48451439793702511 0.29882999866182358 0 0.48437260323590958 0.28544550323096601 0 0.47051056080085252 0.29566458175559313 0 0.48451439793702511 0.29882999866182358 0 0.47051056080085252 0.29566458175559313 0 0.47025894034651677 0.31113352769335112 0 0.47025894034651677 0.31113352769335112 0 0.45341049962866831 0.30283982892345879 0 0.45468933493058122 0.3203800836804353 0 0.47051056080085252 0.29566458175559313 0 0.47025894034651677 0.31113352769335112 0 0.45341049962866831 0.30283982892345879 0 0.46622080713894409 0.28365910829049301 0 0.46008043526080389 0.29136747081812769 0 0.45017987347475091 0.28330636430296618 0 0.47051056080085252 0.29566458175559313 0 0.45341049962866831 0.30283982892345879 0 0.46008043526080389 0.29136747081812769 0 0.45341049962866831 0.30283982892345879 0 0.46008043526080389 0.29136747081812769 0 0.45017987347475091 0.28330636430296618 0 0.47051056080085252 0.29566458175559313 0 0.46622080713894409 0.28365910829049301 0 0.46008043526080389 0.29136747081812769 0 0.4370541574406881 0.29873137323873378 0 0.45341049962866831 0.30283982892345879 0 0.45017987347475091 0.28330636430296618 0 0.4370541574406881 0.29873137323873378 0 0.45017987347475091 0.28330636430296618 0 0.4370541574406881 0.29873137323873378 0 0.43716414233282791 0.28369909613072319 0 0.45017987347475091 0.28330636430296618 0 0.4370541574406881 0.29873137323873378 0 0.45341049962866831 0.30283982892345879 0 0.43807970232221061 0.31513763283615681 0 0.43807970232221061 0.31513763283615681 0 0.44307788436410761 0.33869519343753163 0 0.45468933493058122 0.3203800836804353 0 0.45341049962866831 0.30283982892345879 0 0.43807970232221061 0.31513763283615681 0 0.45468933493058122 0.3203800836804353 0 0.44307788436410761 0.33869519343753163 0 0.45468933493058122 0.3203800836804353 0 0.4732327094433374 0.3308508051503582 0 0.44307788436410761 0.33869519343753163 0 0.4732327094433374 0.3308508051503582 0 0.47127453306582068 0.35745160055520642 0 0.47025894034651677 0.31113352769335112 0 0.45468933493058122 0.3203800836804353 0 0.4732327094433374 0.3308508051503582 0 0.47025894034651677 0.31113352769335112 0 0.4732327094433374 0.3308508051503582 0 0.5 0.31531792304441392 0 0.4732327094433374 0.3308508051503582 0 0.5 0.31531792304441392 0 0.5 0.3445539761679266 0 0.5 0.37379002929143917 0 0.5 0.3445539761679266 0 0.47127453306582068 0.35745160055520642 0 0.4732327094433374 0.3308508051503582 0 0.5 0.3445539761679266 0 0.47127453306582068 0.35745160055520642 0 0.5 0.37379002929143917 0 0.47127453306582068 0.35745160055520642 0 0.47834543722530548 0.38010382181053559 0 0.47127453306582068 0.35745160055520642 0 0.4578534462227723 0.37546050764655142 0 0.47834543722530548 0.38010382181053559 0 0.47127453306582068 0.35745160055520642 0 0.44678413475247297 0.36161994756700372 0 0.4578534462227723 0.37546050764655142 0 0.44307788436410761 0.33869519343753163 0 0.47127453306582068 0.35745160055520642 0 0.44678413475247297 0.36161994756700372 0 0.44307788436410761 0.33869519343753163 0 0.44678413475247297 0.36161994756700372 0 0.42650454823695633 0.357129637019237 0 0.44678413475247297 0.36161994756700372 0 0.43521026187270823 0.37936279917649229 0 0.4578534462227723 0.37546050764655142 0 0.44678413475247297 0.36161994756700372 0 0.42650454823695633 0.357129637019237 0 0.43521026187270823 0.37936279917649229 0 0.42650454823695633 0.357129637019237 0 0.41163897919555509 0.37613500248033283 0 0.43521026187270823 0.37936279917649229 0 0.41363902616027881 0.35310711034185099 0 0.40285462888696372 0.35986011986943378 0 0.41163897919555509 0.37613500248033283 0 0.41363902616027881 0.35310711034185099 0 0.42650454823695633 0.357129637019237 0 0.41163897919555509 0.37613500248033283 0 0.41363902616027881 0.35310711034185099 0 0.41445542110788491 0.33726882382306178 0 0.40365386639903428 0.3449653104626299 0 0.41363902616027881 0.35310711034185099 0 0.42650454823695633 0.357129637019237 0 0.41445542110788491 0.33726882382306178 0 0.41363902616027881 0.35310711034185099 0 0.40285462888696372 0.35986011986943378 0 0.40365386639903428 0.3449653104626299 0 0.44307788436410761 0.33869519343753163 0 0.42650454823695633 0.357129637019237 0 0.41445542110788491 0.33726882382306178 0 0.44307788436410761 0.33869519343753163 0 0.42075321954882161 0.32332449554443121 0 0.41445542110788491 0.33726882382306178 0 0.44307788436410761 0.33869519343753163 0 0.41445542110788491 0.33726882382306178 0 0.42013367421994441 0.30638569321367742 0 0.43807970232221061 0.31513763283615681 0 0.42075321954882161 0.32332449554443121 0 0.43807970232221061 0.31513763283615681 0 0.44307788436410761 0.33869519343753163 0 0.42075321954882161 0.32332449554443121 0 0.42013367421994441 0.30638569321367742 0 0.42075321954882161 0.32332449554443121 0 0.40776608346910059 0.31597371139158709 0 0.42075321954882161 0.32332449554443121 0 0.40776608346910059 0.31597371139158709 0 0.40100655180968148 0.32648591856457271 0 0.42075321954882161 0.32332449554443121 0 0.41445542110788491 0.33726882382306178 0 0.40100655180968148 0.32648591856457271 0 0.41445542110788491 0.33726882382306178 0 0.40100655180968148 0.32648591856457271 0 0.38583295785166222 0.33584245420859199 0 0.41445542110788491 0.33726882382306178 0 0.38583295785166222 0.33584245420859199 0 0.39071087252878012 0.34206903692652713 0 0.38583295785166222 0.33584245420859199 0 0.40365386639903428 0.3449653104626299 0 0.41445542110788491 0.33726882382306178 0 0.38583295785166222 0.33584245420859199 0 0.40365386639903428 0.3449653104626299 0 0.39546151416595271 0.31108036673726891 0 0.40776608346910059 0.31597371139158709 0 0.40100655180968148 0.32648591856457271 0 0.40100655180968148 0.32648591856457271 0 0.38580715014126499 0.32144072826049602 0 0.38583295785166222 0.33584245420859199 0 0.39546151416595271 0.31108036673726891 0 0.40100655180968148 0.32648591856457271 0 0.38580715014126499 0.32144072826049602 0 0.39546151416595271 0.31108036673726891 0 0.38580715014126499 0.32144072826049602 0 0.3857794608984752 0.30598903261453081 0 0.38580715014126499 0.32144072826049602 0 0.3857794608984752 0.30598903261453081 0 0.39546151416595271 0.31108036673726891 0 0.38580715014126499 0.32144072826049602 0 0.37197361706309467 0.3213463981502771 0 0.37214086289173293 0.32798967761859199 0 0.38580715014126499 0.32144072826049602 0 0.3857794608984752 0.30598903261453081 0 0.38580715014126499 0.32144072826049602 0 0.37641149964355303 0.31291697699893861 0 0.37197361706309467 0.3213463981502771 0 0.38580715014126499 0.32144072826049602 0 0.37641149964355303 0.31291697699893861 0 0.38580715014126499 0.32144072826049602 0 0.38583295785166222 0.33584245420859199 0 0.37298351949280723 0.33520211629378682 0 0.38583295785166222 0.33584245420859199 0 0.37298351949280723 0.33520211629378682 0 0.38580715014126499 0.32144072826049602 0 0.38583295785166222 0.33584245420859199 0 0.37298351949280723 0.33520211629378682 0 0.37214086289173293 0.32798967761859199 0 0.38580715014126499 0.32144072826049602 0 0.37298351949280723 0.33520211629378682 0 0.38580715014126499 0.32144072826049602 0 0.37298351949280723 0.33520211629378682 0 0.38583295785166222 0.33584245420859199 0 0.3771425128442546 0.349080970373077 0 0.39071087252878012 0.34206903692652713 0 0.38583295785166222 0.33584245420859199 0 0.38587925446423171 0.36167780016993351 0 0.38583295785166222 0.33584245420859199 0 0.38587925446423171 0.36167780016993351 0 0.39071087252878012 0.34206903692652713 0 0.38789564669658561 0.37178224847255431 0 0.38587925446423171 0.36167780016993351 0 0.38583295785166222 0.33584245420859199 0 0.3771425128442546 0.349080970373077 0 0.38587925446423171 0.36167780016993351 0 0.39071087252878012 0.34206903692652713 0 0.38789564669658561 0.37178224847255431 0 0.37241360004904622 0.36143213383377509 0 0.3771425128442546 0.349080970373077 0 0.38587925446423171 0.36167780016993351 0 0.37836938959517319 0.3704419966924607 0 0.38587925446423171 0.36167780016993351 0 0.38640093015575111 0.38755818668372649 0 0.38789564669658561 0.37178224847255431 0 0.38587925446423171 0.36167780016993351 0 0.38640093015575111 0.38755818668372649 0 0.37241360004904622 0.36143213383377509 0 0.37836938959517319 0.3704419966924607 0 0.38587925446423171 0.36167780016993351 0 0.38587925446423171 0.36167780016993351 0 0.38640093015575111 0.38755818668372649 0 0.39603991446313769 0.36355316231865131 0 0.40285462888696372 0.35986011986943378 0 0.39554808623818732 0.35524346836440629 0 0.38789564669658561 0.37178224847255431 0 0.39603991446313769 0.36355316231865131 0 0.39554808623818732 0.35524346836440629 0 0.39956854492259702 0.37033308068209281 0 0.40285462888696372 0.35986011986943378 0 0.41163897919555509 0.37613500248033283 0 0.38789564669658561 0.37178224847255431 0 0.39956854492259702 0.37033308068209281 0 0.39551127582011031 0.3801064591339216 0 0.38789564669658561 0.37178224847255431 0 0.39603991446313769 0.36355316231865131 0 0.39956854492259702 0.37033308068209281 0 0.39603991446313769 0.36355316231865131 0 0.39956854492259702 0.37033308068209281 0 0.40285462888696372 0.35986011986943378 0 0.40285462888696372 0.35986011986943378 0 0.40365386639903428 0.3449653104626299 0 0.39554808623818732 0.35524346836440629 0 0.39071087252878012 0.34206903692652713 0 0.38789564669658561 0.37178224847255431 0 0.39554808623818732 0.35524346836440629 0 0.39071087252878012 0.34206903692652713 0 0.40365386639903428 0.3449653104626299 0 0.39554808623818732 0.35524346836440629 0 0.39902052393869758 0.40527421395413132 0 0.39835970002997478 0.38881523124945788 0 0.38508042086439331 0.40149546001858177 0 0.39902052393869758 0.40527421395413132 0 0.39835970002997478 0.38881523124945788 0 0.41613585481277637 0.39645933726278942 0 0.39835970002997478 0.38881523124945788 0 0.38508042086439331 0.40149546001858177 0 0.39551127582011031 0.3801064591339216 0 0.39835970002997478 0.38881523124945788 0 0.41163897919555509 0.37613500248033283 0 0.39551127582011031 0.3801064591339216 0 0.39835970002997478 0.38881523124945788 0 0.38508042086439331 0.40149546001858177 0 0.39956854492259702 0.37033308068209281 0 0.39551127582011031 0.3801064591339216 0 0.41163897919555509 0.37613500248033283 0 0.39835970002997478 0.38881523124945788 0 0.41163897919555509 0.37613500248033283 0 0.37836938959517319 0.3704419966924607 0 0.38640093015575111 0.38755818668372649 0 0.37607855043756638 0.38042158153032463 0 0.38789564669658561 0.37178224847255431 0 0.39551127582011031 0.3801064591339216 0 0.38640093015575111 0.38755818668372649 0 0.38789564669658561 0.37178224847255431 0 0.38640093015575111 0.38755818668372649 0 0.39551127582011031 0.3801064591339216 0 0.38640093015575111 0.38755818668372649 0 0.38508042086439331 0.40149546001858177 0 0.37221941422516369 0.38899224278270339 0 0.38640093015575111 0.38755818668372649 0 0.37607855043756638 0.38042158153032463 0 0.37221941422516369 0.38899224278270339 0 0.38640093015575111 0.38755818668372649 0 0.38508042086439331 0.40149546001858177 0 0.38640093015575111 0.38755818668372649 0 0.38508042086439331 0.40149546001858177 0 0.39902052393869758 0.40527421395413132 0 0.38508042086439331 0.40149546001858177 0 0.38344608944054259 0.41874495907396531 0 0.36543463872039578 0.42025498821496238 0 0.38508042086439331 0.40149546001858177 0 0.38344608944054259 0.41874495907396531 0 0.38508042086439331 0.40149546001858177 0 0.38344608944054259 0.41874495907396531 0 0.36543463872039578 0.42025498821496238 0 0.38508042086439331 0.40149546001858177 0 0.38344608944054259 0.41874495907396531 0 0.38181175801669409 0.43599445812934889 0 0.3713718276929816 0.43046730308967779 0 0.38344608944054259 0.41874495907396531 0 0.38181175801669409 0.43599445812934889 0 0.38344608944054259 0.41874495907396531 0 0.38181175801669409 0.43599445812934889 0 0.39798921244547969 0.42389296841224211 0 0.38181175801669409 0.43599445812934889 0 0.39798921244547969 0.42389296841224211 0 0.40103701108156331 0.4390163063492728 0 0.39798921244547969 0.42389296841224211 0 0.41089898903430289 0.42758604668068712 0 0.40103701108156331 0.4390163063492728 0 0.39902052393869758 0.40527421395413132 0 0.38344608944054259 0.41874495907396531 0 0.39798921244547969 0.42389296841224211 0 0.39902052393869758 0.40527421395413132 0 0.39798921244547969 0.42389296841224211 0 0.41012765914510679 0.41335955581578671 0 0.41012765914510679 0.41335955581578671 0 0.42659500064744038 0.41788421511457008 0 0.41613585481277637 0.39645933726278942 0 0.41012765914510679 0.41335955581578671 0 0.41089898903430289 0.42758604668068712 0 0.42659500064744038 0.41788421511457008 0 0.39798921244547969 0.42389296841224211 0 0.41012765914510679 0.41335955581578671 0 0.41089898903430289 0.42758604668068712 0 0.41089898903430289 0.42758604668068712 0 0.42659500064744038 0.41788421511457008 0 0.41810415468897277 0.44324344104553048 0 0.41089898903430289 0.42758604668068712 0 0.41810415468897277 0.44324344104553048 0 0.40103701108156331 0.4390163063492728 0 0.42659500064744038 0.41788421511457008 0 0.44174474370207051 0.4288024000675571 0 0.41810415468897277 0.44324344104553048 0 0.44174474370207051 0.4288024000675571 0 0.41810415468897277 0.44324344104553048 0 0.42659500064744038 0.41788421511457008 0 0.43485523771497703 0.39859442771568698 0 0.4464619627885637 0.41062831791502569 0 0.43485523771497703 0.39859442771568698 0 0.41613585481277637 0.39645933726278942 0 0.43521026187270823 0.37936279917649229 0 0.42659500064744038 0.41788421511457008 0 0.43485523771497703 0.39859442771568698 0 0.41613585481277637 0.39645933726278942 0 0.39902052393869758 0.40527421395413132 0 0.41012765914510679 0.41335955581578671 0 0.41613585481277637 0.39645933726278942 0 0.41613585481277637 0.39645933726278942 0 0.41163897919555509 0.37613500248033283 0 0.43521026187270823 0.37936279917649229 0 0.39835970002997478 0.38881523124945788 0 0.41613585481277637 0.39645933726278942 0 0.41163897919555509 0.37613500248033283 0 0.43521026187270823 0.37936279917649229 0 0.45255240982862621 0.39398712978095601 0 0.4578534462227723 0.37546050764655142 0 0.43485523771497703 0.39859442771568698 0 0.43521026187270823 0.37936279917649229 0 0.45255240982862621 0.39398712978095601 0 0.43485523771497703 0.39859442771568698 0 0.45255240982862621 0.39398712978095601 0 0.4464619627885637 0.41062831791502569 0 0.45255240982862621 0.39398712978095601 0 0.4701163249949325 0.3952816072407116 0 0.46538533271516808 0.41436135908958388 0 0.45255240982862621 0.39398712978095601 0 0.4578534462227723 0.37546050764655142 0 0.4701163249949325 0.3952816072407116 0 0.4578534462227723 0.37546050764655142 0 0.47834543722530548 0.38010382181053559 0 0.4701163249949325 0.3952816072407116 0 0.47834543722530548 0.38010382181053559 0 0.4701163249949325 0.3952816072407116 0 0.48902592172826581 0.39992031811161061 0 0.4701163249949325 0.3952816072407116 0 0.48902592172826581 0.39992031811161061 0 0.46538533271516808 0.41436135908958388 0 0.5 0.37379002929143917 0 0.5 0.40302608241495191 0 0.48902592172826581 0.39992031811161061 0 0.5 0.37379002929143917 0 0.47834543722530548 0.38010382181053559 0 0.48902592172826581 0.39992031811161061 0 0.5 0.43226213553846449 0 0.48879845719806719 0.41763782542649391 0 0.47341248497113297 0.43852995529641092 0 0.5 0.40302608241495191 0 0.48902592172826581 0.39992031811161061 0 0.48879845719806719 0.41763782542649391 0 0.5 0.40302608241495191 0 0.5 0.43226213553846449 0 0.48879845719806719 0.41763782542649391 0 0.48902592172826581 0.39992031811161061 0 0.46538533271516808 0.41436135908958388 0 0.48902592172826581 0.39992031811161061 0 0.48879845719806719 0.41763782542649391 0 0.46538533271516808 0.41436135908958388 0 0.48879845719806719 0.41763782542649391 0 0.46538533271516808 0.41436135908958388 0 0.47341248497113297 0.43852995529641092 0 0.46538533271516808 0.41436135908958388 0 0.44174474370207051 0.4288024000675571 0 0.47341248497113297 0.43852995529641092 0 0.46538533271516808 0.41436135908958388 0 0.44174474370207051 0.4288024000675571 0 0.45255240982862621 0.39398712978095601 0 0.46538533271516808 0.41436135908958388 0 0.4464619627885637 0.41062831791502569 0 0.42659500064744038 0.41788421511457008 0 0.4464619627885637 0.41062831791502569 0 0.44174474370207051 0.4288024000675571 0 0.46538533271516808 0.41436135908958388 0 0.4464619627885637 0.41062831791502569 0 0.44174474370207051 0.4288024000675571 0 0.44174474370207051 0.4288024000675571 0 0.44736996457675138 0.45186605896041931 0 0.47341248497113297 0.43852995529641092 0 0.45265480389364537 0.47258635172075109 0 0.42898220584046831 0.46351240668838178 0 0.44736996457675138 0.45186605896041931 0 0.45265480389364537 0.47258635172075109 0 0.42898220584046831 0.46351240668838178 0 0.44736996457675138 0.45186605896041931 0 0.4699529310776705 0.46122817027853591 0 0.45265480389364537 0.47258635172075109 0 0.44736996457675138 0.45186605896041931 0 0.47341248497113297 0.43852995529641092 0 0.4699529310776705 0.46122817027853591 0 0.47341248497113297 0.43852995529641092 0 0.4699529310776705 0.46122817027853591 0 0.5 0.461498188661977 0 0.4699529310776705 0.46122817027853591 0 0.5 0.461498188661977 0 0.47632740194682249 0.4816602967531205 0 0.5 0.43226213553846449 0 0.47341248497113297 0.43852995529641092 0 0.5 0.461498188661977 0 0.5 0.5 0 0.47632740194682249 0.4816602967531205 0 0.45517015964660262 0.5 0 0.49999999999999972 0.49073424178548958 0 0.47632740194682249 0.4816602967531205 0 0.5 0.5 0 0.49999999999999972 0.49073424178548958 0 0.47632740194682249 0.4816602967531205 0 0.5 0.461498188661977 0 0.49999999999999972 0.49073424178548958 0 0.47632740194682249 0.4816602967531205 0 0.47632740194682249 0.4816602967531205 0 0.45517015964660262 0.5 0 0.45265480389364537 0.47258635172075109 0 0.4699529310776705 0.46122817027853591 0 0.47632740194682249 0.4816602967531205 0 0.45265480389364537 0.47258635172075109 0 0.47632740194682249 0.4816602967531205 0 0.45265480389364537 0.47258635172075109 0 0.45517015964660262 0.5 0 0.45265480389364537 0.47258635172075109 0 0.42563056550190242 0.48076969807903619 0 0.42563056550190242 0.48076969807903619 0 0.39425422565868162 0.49999999999999978 0 0.40481387115983147 0.47711704476726408 0 0.45517015964660262 0.5 0 0.42563056550190242 0.48076969807903619 0 0.39425422565868162 0.49999999999999978 0 0.41790812681218492 0.4714023852978203 0 0.42563056550190242 0.48076969807903619 0 0.40481387115983147 0.47711704476726408 0 0.41790812681218492 0.4714023852978203 0 0.40601619880861922 0.46620593115032383 0 0.40481387115983147 0.47711704476726408 0 0.41790812681218492 0.4714023852978203 0 0.42563056550190242 0.48076969807903619 0 0.42898220584046831 0.46351240668838178 0 0.45265480389364537 0.47258635172075109 0 0.42563056550190242 0.48076969807903619 0 0.42898220584046831 0.46351240668838178 0 0.44174474370207051 0.4288024000675571 0 0.44736996457675138 0.45186605896041931 0 0.41810415468897277 0.44324344104553048 0 0.44736996457675138 0.45186605896041931 0 0.42898220584046831 0.46351240668838178 0 0.41810415468897277 0.44324344104553048 0 0.41810415468897277 0.44324344104553048 0 0.40738889449321408 0.45496868203179941 0 0.40103701108156331 0.4390163063492728 0 0.41810415468897277 0.44324344104553048 0 0.41567991612869187 0.45986656924277108 0 0.40738889449321408 0.45496868203179941 0 0.42898220584046831 0.46351240668838178 0 0.41810415468897277 0.44324344104553048 0 0.41567991612869187 0.45986656924277108 0 0.41790812681218492 0.4714023852978203 0 0.42898220584046831 0.46351240668838178 0 0.41567991612869187 0.45986656924277108 0 0.41567991612869187 0.45986656924277108 0 0.40738889449321408 0.45496868203179941 0 0.40601619880861922 0.46620593115032383 0 0.41790812681218492 0.4714023852978203 0 0.41567991612869187 0.45986656924277108 0 0.40601619880861922 0.46620593115032383 0 0.40601619880861922 0.46620593115032383 0 0.39908449623176673 0.45657127234403788 0 0.39692263972575259 0.47600841898218088 0 0.39908449623176673 0.45657127234403788 0 0.39692263972575259 0.47600841898218088 0 0.40738889449321408 0.45496868203179941 0 0.40601619880861922 0.46620593115032383 0 0.39908449623176673 0.45657127234403788 0 0.40738889449321408 0.45496868203179941 0 0.39908449623176673 0.45657127234403788 0 0.40738889449321408 0.45496868203179941 0 0.39908449623176673 0.45657127234403788 0 0.40103701108156331 0.4390163063492728 0 0.39908449623176673 0.45657127234403788 0 0.40103701108156331 0.4390163063492728 0 0.39908449623176673 0.45657127234403788 0 0.40103701108156331 0.4390163063492728 0 0.38750446962343432 0.4496920759017754 0 0.36854322034996051 0.44772295669939999 0 0.38181175801669409 0.43599445812934889 0 0.38750446962343432 0.4496920759017754 0 0.36854322034996051 0.44772295669939999 0 0.38750446962343432 0.4496920759017754 0 0.38181175801669409 0.43599445812934889 0 0.40103701108156331 0.4390163063492728 0 0.38750446962343432 0.4496920759017754 0 0.36854322034996051 0.44772295669939999 0 0.38750446962343432 0.4496920759017754 0 0.38115436387701829 0.45406741574037618 0 0.3694852693029117 0.46228335801629139 0 0.39908449623176673 0.45657127234403788 0 0.39908449623176673 0.45657127234403788 0 0.38750446962343432 0.4496920759017754 0 0.38115436387701829 0.45406741574037618 0 0.3694852693029117 0.46228335801629139 0 0.39908449623176673 0.45657127234403788 0 0.38115436387701829 0.45406741574037618 0 0.3694852693029117 0.46228335801629139 0 0.39908449623176673 0.45657127234403788 0 0.39692263972575259 0.47600841898218088 0 0.36840434104990488 0.47200193133536261 0 0.38092589942564797 0.48637339949993669 0 0.39692263972575259 0.47600841898218088 0 0.36840434104990488 0.47200193133536261 0 0.3694852693029117 0.46228335801629139 0 0.39692263972575259 0.47600841898218088 0 0.36840434104990488 0.47200193133536261 0 0.39692263972575259 0.47600841898218088 0 0.36475325508752549 0.5 0 0.38092589942564797 0.48637339949993669 0 0.39425422565868162 0.49999999999999978 0 0.39425422565868162 0.49999999999999978 0 0.39692263972575259 0.47600841898218088 0 0.39425422565868162 0.49999999999999978 0 0.40481387115983147 0.47711704476726408 0 0.39692263972575259 0.47600841898218088 0 0.38092589942564797 0.48637339949993669 0 0.39425422565868162 0.49999999999999978 0 0.39692263972575259 0.47600841898218088 0 0.40481387115983147 0.47711704476726408 0 0.39692263972575259 0.47600841898218088 0 0.40601619880861922 0.46620593115032383 0 0.40481387115983147 0.47711704476726408 0 0.39692263972575259 0.47600841898218088 0 0.33463156896541391 0.09290114232479392 0 0.3416304009971336 0.077560914197807529 0 0.351985600573888 0.096337610417817049 0 0.33463156896541391 0.09290114232479392 0 0.3416304009971336 0.077560914197807529 0 0.32600865470297058 0.080186890368977956 0 0.3416304009971336 0.077560914197807529 0 0.34130595826985072 0.063758014003548122 0 0.32841860091023067 0.06610484180084919 0 0.3416304009971336 0.077560914197807529 0 0.32841860091023067 0.06610484180084919 0 0.32600865470297058 0.080186890368977956 0 0.32841860091023067 0.06610484180084919 0 0.31866294281158408 0.052583008213600631 0 0.31201348309264748 0.073904918128083363 0 0.32841860091023067 0.06610484180084919 0 0.32600865470297058 0.080186890368977956 0 0.31201348309264748 0.073904918128083363 0 0.32600865470297058 0.080186890368977956 0 0.31805362322103092 0.092293730336669016 0 0.31201348309264748 0.073904918128083363 0 0.33463156896541391 0.09290114232479392 0 0.32600865470297058 0.080186890368977956 0 0.31805362322103092 0.092293730336669016 0 0.33463156896541391 0.09290114232479392 0 0.31805362322103092 0.092293730336669016 0 0.32874339913688599 0.10632634052266091 0 0.31805362322103092 0.092293730336669016 0 0.31347166512416191 0.1068075599724968 0 0.32874339913688599 0.10632634052266091 0 0.31347166512416191 0.1068075599724968 0 0.30202837069255678 0.1184144632157345 0 0.32233939219712282 0.1252536490163268 0 0.31347166512416191 0.1068075599724968 0 0.32874339913688599 0.10632634052266091 0 0.32233939219712282 0.1252536490163268 0 0.34314971641399639 0.11940488142219589 0 0.32874339913688599 0.10632634052266091 0 0.32233939219712282 0.1252536490163268 0 0.34314971641399639 0.11940488142219589 0 0.32874339913688599 0.10632634052266091 0 0.34263241819896872 0.1049516775470932 0 0.33463156896541391 0.09290114232479392 0 0.34263241819896872 0.1049516775470932 0 0.351985600573888 0.096337610417817049 0 0.33463156896541391 0.09290114232479392 0 0.32874339913688599 0.10632634052266091 0 0.34263241819896872 0.1049516775470932 0 0.34263241819896872 0.1049516775470932 0 0.351985600573888 0.096337610417817049 0 0.35718117198144778 0.1102890319325226 0 0.351985600573888 0.096337610417817049 0 0.35718117198144778 0.1102890319325226 0 0.36507193476595812 0.098822152456019552 0 0.34314971641399639 0.11940488142219589 0 0.35718117198144778 0.1102890319325226 0 0.36512831101939303 0.12733801785880641 0 0.34314971641399639 0.11940488142219589 0 0.34263241819896872 0.1049516775470932 0 0.35718117198144778 0.1102890319325226 0 0.35718117198144778 0.1102890319325226 0 0.37140437679355942 0.11066459462832989 0 0.36512831101939303 0.12733801785880641 0 0.37140437679355942 0.11066459462832989 0 0.36512831101939303 0.12733801785880641 0 0.3824347748262375 0.1218121080201281 0 0.351985600573888 0.096337610417817049 0 0.36507193476595812 0.098822152456019552 0 0.36289125014550261 0.087288335761524546 0 0.35718117198144778 0.1102890319325226 0 0.37140437679355942 0.11066459462832989 0 0.36507193476595812 0.098822152456019552 0 0.37140437679355942 0.11066459462832989 0 0.36507193476595812 0.098822152456019552 0 0.37558135761635181 0.098927269493736772 0 0.36507193476595812 0.098822152456019552 0 0.3727935908830754 0.088620323026824294 0 0.37558135761635181 0.098927269493736772 0 0.3727935908830754 0.088620323026824294 0 0.36765193749087799 0.074354266857477411 0 0.3727935908830754 0.088620323026824294 0 0.36765193749087799 0.074354266857477411 0 0.37435547445834971 0.073810669538177553 0 0.3727935908830754 0.088620323026824294 0 0.36289125014550261 0.087288335761524546 0 0.36765193749087799 0.074354266857477411 0 0.36289125014550261 0.087288335761524546 0 0.35724794233628399 0.078212910552973844 0 0.36765193749087799 0.074354266857477411 0 0.36507193476595812 0.098822152456019552 0 0.3727935908830754 0.088620323026824294 0 0.36289125014550261 0.087288335761524546 0 0.351985600573888 0.096337610417817049 0 0.35724794233628399 0.078212910552973844 0 0.3416304009971336 0.077560914197807529 0 0.351985600573888 0.096337610417817049 0 0.35724794233628399 0.078212910552973844 0 0.351985600573888 0.096337610417817049 0 0.36289125014550261 0.087288335761524546 0 0.35724794233628399 0.078212910552973844 0 0.35724794233628399 0.078212910552973844 0 0.35167387455648508 0.066738913526584565 0 0.36251028409868019 0.06008821068813068 0 0.3416304009971336 0.077560914197807529 0 0.34130595826985072 0.063758014003548122 0 0.35167387455648508 0.066738913526584565 0 0.3416304009971336 0.077560914197807529 0 0.35724794233628399 0.078212910552973844 0 0.35167387455648508 0.066738913526584565 0 0.37435547445834971 0.073810669538177553 0 0.36430480548138172 0.061382034521124861 0 0.36414395259446042 0.054461485457880467 0 0.35724794233628399 0.078212910552973844 0 0.36765193749087799 0.074354266857477411 0 0.36251028409868019 0.06008821068813068 0 0.36765193749087799 0.074354266857477411 0 0.36251028409868019 0.06008821068813068 0 0.37435547445834971 0.073810669538177553 0 0.37297835566059462 0.059643584032000332 0 0.36414395259446042 0.054461485457880467 0 0.36765193749087799 0.074354266857477411 0 0.36430480548138172 0.061382034521124861 0 0.36251028409868019 0.06008821068813068 0 0.37435547445834971 0.073810669538177553 0 0.36414395259446042 0.054461485457880467 0 0.35724794233628399 0.078212910552973844 0 0.36251028409868019 0.06008821068813068 0 0.36765193749087799 0.074354266857477411 0 0.37435547445834971 0.073810669538177553 0 0.36430480548138172 0.061382034521124861 0 0.37297835566059462 0.059643584032000332 0 0.36414395259446042 0.054461485457880467 0 0.37598130368658822 0.050435933298893051 0 0.36251028409868019 0.06008821068813068 0 0.36327679279346231 0.052818357739976222 0 0.35783004013801328 0.042497641477024457 0 0.36430480548138172 0.061382034521124861 0 0.36366999875967942 0.056093890077926908 0 0.36430480548138172 0.061382034521124861 0 0.36366999875967942 0.056093890077926908 0 0.36251028409868019 0.06008821068813068 0 0.36430480548138172 0.061382034521124861 0 0.36366999875967942 0.056093890077926908 0 0.36414395259446042 0.054461485457880467 0 0.36366999875967942 0.056093890077926908 0 0.36414395259446042 0.054461485457880467 0 0.36366999875967942 0.056093890077926908 0 0.36251028409868019 0.06008821068813068 0 0.36327679279346231 0.052818357739976222 0 0.36366999875967942 0.056093890077926908 0 0.36251028409868019 0.06008821068813068 0 0.36327679279346231 0.052818357739976222 0 0.35783004013801328 0.042497641477024457 0 0.36414395259446042 0.054461485457880467 0 0.36838959595296961 0.039838525741348857 0 0.36327679279346231 0.052818357739976222 0 0.36414395259446042 0.054461485457880467 0 0.36838959595296961 0.039838525741348857 0 0.36366999875967942 0.056093890077926908 0 0.36327679279346231 0.052818357739976222 0 0.36414395259446042 0.054461485457880467 0 0.36366999875967942 0.056093890077926908 0 0.36327679279346231 0.052818357739976222 0 0.36327679279346231 0.052818357739976222 0 0.36414395259446042 0.054461485457880467 0 0.36414395259446042 0.054461485457880467 0 0.36838959595296961 0.039838525741348857 0 0.37598130368658822 0.050435933298893051 0 0.36838959595296961 0.039838525741348857 0 0.37353067451150118 0.022131483883895551 0 0.38269200821478189 0.032240620396001958 0 0.36838959595296961 0.039838525741348857 0 0.36164436767065422 0.039219730713836227 0 0.36596989591924911 0.030605272793842401 0 0.36327679279346231 0.052818357739976222 0 0.36164436767065422 0.039219730713836227 0 0.36327679279346231 0.052818357739976222 0 0.36838959595296961 0.039838525741348857 0 0.36164436767065422 0.039219730713836227 0 0.36327679279346231 0.052818357739976222 0 0.36164436767065422 0.039219730713836227 0 0.35783004013801328 0.042497641477024457 0 0.36838959595296961 0.039838525741348857 0 0.36164436767065422 0.039219730713836227 0 0.36164436767065422 0.039219730713836227 0 0.3547614671043503 0.038588305880299573 0 0.34880904964339221 0.022072699836085181 0 0.3547614671043503 0.038588305880299573 0 0.34880904964339221 0.022072699836085181 0 0.32994754830929129 0.03631192190619164 0 0.36164436767065422 0.039219730713836227 0 0.35783004013801328 0.042497641477024457 0 0.3547614671043503 0.038588305880299573 0 0.36164436767065422 0.039219730713836227 0 0.3547614671043503 0.038588305880299573 0 0.36251028409868019 0.06008821068813068 0 0.35783004013801328 0.042497641477024457 0 0.3547614671043503 0.038588305880299573 0 0.36251028409868019 0.06008821068813068 0 0.3547614671043503 0.038588305880299573 0 0.3502529696533499 0.052359555571510279 0 0.36251028409868019 0.06008821068813068 0 0.3547614671043503 0.038588305880299573 0 0.3547614671043503 0.038588305880299573 0 0.3502529696533499 0.052359555571510279 0 0.33618020850990349 0.050623718803669122 0 0.34130595826985072 0.063758014003548122 0 0.35167387455648508 0.066738913526584565 0 0.3502529696533499 0.052359555571510279 0 0.35167387455648508 0.066738913526584565 0 0.36251028409868019 0.06008821068813068 0 0.3502529696533499 0.052359555571510279 0 0.36073639883228298 0.010118916210872009 0 0.37598748480921401 -0.0085898363924484626 0 0.37114691521963322 0.01144195811656998 0 0.36073639883228298 0.010118916210872009 0 0.37598748480921401 -0.0085898363924484626 0 0.37114691521963322 0.01144195811656998 0 0.36477378524072662 0.01315615552935724 0 0.36073639883228298 0.010118916210872009 0 0.36137734848033087 0.01393092201916645 0 0.36178697791921399 0.0218196817334699 0 0.35821223192910012 0.01062893460296665 0 0.37114691521963322 0.01144195811656998 0 0.36477378524072662 0.01315615552935724 0 0.36178697791921399 0.0218196817334699 0 0.36073639883228298 0.010118916210872009 0 0.36137734848033087 0.01393092201916645 0 0.35821223192910012 0.01062893460296665 0 0.36477378524072662 0.01315615552935724 0 0.36073639883228298 0.010118916210872009 0 0.36137734848033087 0.01393092201916645 0 0.36838959595296961 0.039838525741348857 0 0.37353067451150118 0.022131483883895551 0 0.36596989591924911 0.030605272793842401 0 0.36838959595296961 0.039838525741348857 0 0.37353067451150118 0.022131483883895551 0 0.36164436767065422 0.039219730713836227 0 0.36178697791921399 0.0218196817334699 0 0.36596989591924911 0.030605272793842401 0 0.36164436767065422 0.039219730713836227 0 0.35821223192910012 0.01062893460296665 0 0.36164436767065422 0.039219730713836227 0 0.36178697791921399 0.0218196817334699 0 0.35821223192910012 0.01062893460296665 0 0.36477378524072662 0.01315615552935724 0 0.36137734848033087 0.01393092201916645 0 0.36178697791921399 0.0218196817334699 0 0.37114691521963322 0.01144195811656998 0 0.36178697791921399 0.0218196817334699 0 0.37353067451150118 0.022131483883895551 0 0.36178697791921399 0.0218196817334699 0 0.37353067451150118 0.022131483883895551 0 0.36596989591924911 0.030605272793842401 0 0.36164436767065422 0.039219730713836227 0 0.34880904964339221 0.022072699836085181 0 0.35821223192910012 0.01062893460296665 0 0.3547614671043503 0.038588305880299573 0 0.34880904964339221 0.022072699836085181 0 0.36073639883228298 0.010118916210872009 0 0.35821223192910012 0.01062893460296665 0 0.35478009618754641 -0.017961861507902788 0 0.34880904964339221 0.022072699836085181 0 0.3428566321824339 0.0055570937918707763 0 0.34880904964339221 0.022072699836085181 0 0.35821223192910012 0.01062893460296665 0 0.3428566321824339 0.0055570937918707763 0 0.34880904964339221 0.022072699836085181 0 0.3428566321824339 0.0055570937918707763 0 0.3276157426795453 0.018128909760567628 0 0.3428566321824339 0.0055570937918707763 0 0.3276157426795453 0.018128909760567628 0 0.325883089216841 0.00030087900974781837 0 0.34880904964339221 0.022072699836085181 0 0.3276157426795453 0.018128909760567628 0 0.32994754830929129 0.03631192190619164 0 0.3276157426795453 0.018128909760567628 0 0.32994754830929129 0.03631192190619164 0 0.30513362951423229 0.034035537932083623 0 0.3276157426795453 0.018128909760567628 0 0.30513362951423229 0.034035537932083623 0 0.31066440690112468 0.011913348701714319 0 0.325883089216841 0.00030087900974781837 0 0.31066440690112468 0.011913348701714319 0 0.30781928645641449 -0.0066575603602469554 0 0.3276157426795453 0.018128909760567628 0 0.325883089216841 0.00030087900974781837 0 0.31066440690112468 0.011913348701714319 0 0.34130595826985072 0.063758014003548122 0 0.32841860091023067 0.06610484180084919 0 0.33618020850990349 0.050623718803669122 0 0.34130595826985072 0.063758014003548122 0 0.3502529696533499 0.052359555571510279 0 0.33618020850990349 0.050623718803669122 0 0.33618020850990349 0.050623718803669122 0 0.32994754830929129 0.03631192190619164 0 0.31866294281158408 0.052583008213600631 0 0.3547614671043503 0.038588305880299573 0 0.32994754830929129 0.03631192190619164 0 0.3547614671043503 0.038588305880299573 0 0.33618020850990349 0.050623718803669122 0 0.32994754830929129 0.03631192190619164 0 0.32994754830929129 0.03631192190619164 0 0.31866294281158408 0.052583008213600631 0 0.30513362951423229 0.034035537932083623 0 0.32994754830929129 0.03631192190619164 0 0.30513362951423229 0.034035537932083623 0 0.32841860091023067 0.06610484180084919 0 0.33618020850990349 0.050623718803669122 0 0.31866294281158408 0.052583008213600631 0 0.31866294281158408 0.052583008213600631 0 0.30309976332105393 0.057447557221863628 0 0.30513362951423229 0.034035537932083623 0 0.31866294281158408 0.052583008213600631 0 0.30309976332105393 0.057447557221863628 0 0.31201348309264748 0.073904918128083363 0 0.30309976332105393 0.057447557221863628 0 0.30513362951423229 0.034035537932083623 0 0.28666949063532571 0.052824491931176457 0 0.28666949063532571 0.052824491931176457 0 0.28031971071917289 0.031759153957978493 0 0.30513362951423229 0.034035537932083623 0 0.28666949063532571 0.052824491931176457 0 0.28031971071917289 0.031759153957978493 0 0.30513362951423229 0.034035537932083623 0 0.28031971071917289 0.031759153957978493 0 0.30309976332105393 0.057447557221863628 0 0.28666949063532571 0.052824491931176457 0 0.29301927055147953 0.073889829904374121 0 0.31066440690112468 0.011913348701714319 0 0.2952835909861769 0.0053480230237554251 0 0.30781928645641449 -0.0066575603602469554 0 0.31066440690112468 0.011913348701714319 0 0.29350317658144359 0.0208308431522615 0 0.2952835909861769 0.0053480230237554251 0 0.30513362951423229 0.034035537932083623 0 0.31066440690112468 0.011913348701714319 0 0.29350317658144359 0.0208308431522615 0 0.29350317658144359 0.0208308431522615 0 0.27274633760651879 0.0066345565196794382 0 0.28031971071917289 0.031759153957978493 0 0.30513362951423229 0.034035537932083623 0 0.29350317658144359 0.0208308431522615 0 0.28031971071917289 0.031759153957978493 0 0.2952835909861769 0.0053480230237554251 0 0.27274633760651879 0.0066345565196794382 0 0.28918600301924502 -0.0059440216791364318 0 0.29350317658144359 0.0208308431522615 0 0.2952835909861769 0.0053480230237554251 0 0.27274633760651879 0.0066345565196794382 0 0.27274633760651879 0.0066345565196794382 0 0.28031971071917289 0.031759153957978493 0 0.25372746045280348 0.0293196290751148 0 0.28031971071917289 0.031759153957978493 0 0.27274633760651879 0.0066345565196794382 0 0.25372746045280348 0.0293196290751148 0 0.28031971071917289 0.031759153957978493 0 0.27274633760651879 0.0066345565196794382 0 0.25372746045280348 0.0293196290751148 0 0.2592490732137257 0.0017951579894068591 0 0.24504537028208631 0.012710625166811229 0 0.25372746045280348 0.0293196290751148 0 0.2592490732137257 0.0017951579894068591 0 0.28666949063532571 0.052824491931176457 0 0.26392630853769072 0.061533039248085258 0 0.27872933360083652 0.067065756610859673 0 0.28666949063532571 0.052824491931176457 0 0.26313506592782537 0.045301199832386098 0 0.26392630853769072 0.061533039248085258 0 0.25372746045280348 0.0293196290751148 0 0.28031971071917289 0.031759153957978493 0 0.26313506592782537 0.045301199832386098 0 0.28666949063532571 0.052824491931176457 0 0.28031971071917289 0.031759153957978493 0 0.26313506592782537 0.045301199832386098 0 0.24510646900229111 0.042743339310185043 0 0.25372746045280348 0.0293196290751148 0 0.26313506592782537 0.045301199832386098 0 0.2490609562196687 0.053627545471776603 0 0.26313506592782537 0.045301199832386098 0 0.26392630853769072 0.061533039248085258 0 0.2490609562196687 0.053627545471776603 0 0.24510646900229111 0.042743339310185043 0 0.26313506592782537 0.045301199832386098 0 0.24838103384754201 0.064883816834144792 0 0.2490609562196687 0.053627545471776603 0 0.26392630853769072 0.061533039248085258 0 0.24838103384754201 0.064883816834144792 0 0.26392630853769072 0.061533039248085258 0 0.25487615625101567 0.07320786180299578 0 0.25487615625101567 0.07320786180299578 0 0.26547973341567499 0.076536260411863954 0 0.25646403647210669 0.082089943895988643 0 0.26392630853769072 0.061533039248085258 0 0.25487615625101567 0.07320786180299578 0 0.26547973341567499 0.076536260411863954 0 0.26024792723450468 0.092525539806599166 0 0.25646403647210669 0.082089943895988643 0 0.25090492674597259 0.097980981076254831 0 0.26547973341567499 0.076536260411863954 0 0.26024792723450468 0.092525539806599166 0 0.25646403647210669 0.082089943895988643 0 0.24425971994930409 0.083061467606559247 0 0.25487615625101567 0.07320786180299578 0 0.25646403647210669 0.082089943895988643 0 0.26024792723450468 0.092525539806599166 0 0.27635954509939942 0.081785119298993639 0 0.27596927839335289 0.097886143762527897 0 0.26547973341567499 0.076536260411863954 0 0.26024792723450468 0.092525539806599166 0 0.27635954509939942 0.081785119298993639 0 0.26392630853769072 0.061533039248085258 0 0.26547973341567499 0.076536260411863954 0 0.27872933360083652 0.067065756610859673 0 0.26547973341567499 0.076536260411863954 0 0.27635954509939942 0.081785119298993639 0 0.27872933360083652 0.067065756610859673 0 0.27635954509939942 0.081785119298993639 0 0.27872933360083652 0.067065756610859673 0 0.29301927055147953 0.073889829904374121 0 0.28666949063532571 0.052824491931176457 0 0.29301927055147953 0.073889829904374121 0 0.28666949063532571 0.052824491931176457 0 0.27872933360083652 0.067065756610859673 0 0.29301927055147953 0.073889829904374121 0 0.27635954509939942 0.081785119298993639 0 0.29301927055147953 0.073889829904374121 0 0.29936905046763329 0.094955167877571758 0 0.27635954509939942 0.081785119298993639 0 0.29936905046763329 0.094955167877571758 0 0.27596927839335289 0.097886143762527897 0 0.29301927055147953 0.073889829904374121 0 0.29936905046763329 0.094955167877571758 0 0.29301927055147953 0.073889829904374121 0 0.31201348309264748 0.073904918128083363 0 0.29936905046763329 0.094955167877571758 0 0.31805362322103092 0.092293730336669016 0 0.31201348309264748 0.073904918128083363 0 0.29936905046763329 0.094955167877571758 0 0.30309976332105393 0.057447557221863628 0 0.29301927055147953 0.073889829904374121 0 0.31201348309264748 0.073904918128083363 0 0.31805362322103092 0.092293730336669016 0 0.31347166512416191 0.1068075599724968 0 0.29936905046763329 0.094955167877571758 0 0.31347166512416191 0.1068075599724968 0 0.30202837069255678 0.1184144632157345 0 0.29936905046763329 0.094955167877571758 0 0.29936905046763329 0.094955167877571758 0 0.27920787848159129 0.1144457798226072 0 0.27596927839335289 0.097886143762527897 0 0.30202837069255678 0.1184144632157345 0 0.29936905046763329 0.094955167877571758 0 0.27920787848159129 0.1144457798226072 0 0.30202837069255678 0.1184144632157345 0 0.27920787848159129 0.1144457798226072 0 0.29023495755665779 0.12868851336308981 0 0.27920787848159129 0.1144457798226072 0 0.26616844954373731 0.10880565392884781 0 0.26266475266713651 0.12626029563919849 0 0.26024792723450468 0.092525539806599166 0 0.27596927839335289 0.097886143762527897 0 0.26616844954373731 0.10880565392884781 0 0.27920787848159129 0.1144457798226072 0 0.27596927839335289 0.097886143762527897 0 0.26616844954373731 0.10880565392884781 0 0.26024792723450468 0.092525539806599166 0 0.2527524109421011 0.1129105106133064 0 0.26024792723450468 0.092525539806599166 0 0.26616844954373731 0.10880565392884781 0 0.2527524109421011 0.1129105106133064 0 0.26024792723450468 0.092525539806599166 0 0.25090492674597259 0.097980981076254831 0 0.2527524109421011 0.1129105106133064 0 0.26616844954373731 0.10880565392884781 0 0.2527524109421011 0.1129105106133064 0 0.26266475266713651 0.12626029563919849 0 0.24525689464969749 0.13329548142001371 0 0.2527524109421011 0.1129105106133064 0 0.26266475266713651 0.12626029563919849 0 0.26266475266713651 0.12626029563919849 0 0.27678409506133977 0.13995760699679219 0 0.25732524618445352 0.15123328297560429 0 0.24525689464969749 0.13329548142001371 0 0.26266475266713651 0.12626029563919849 0 0.25732524618445352 0.15123328297560429 0 0.27920787848159129 0.1144457798226072 0 0.26266475266713651 0.12626029563919849 0 0.27678409506133977 0.13995760699679219 0 0.27920787848159129 0.1144457798226072 0 0.27678409506133977 0.13995760699679219 0 0.27678409506133977 0.13995760699679219 0 0.27436031164108821 0.16546943417097729 0 0.29184258371457322 0.15729894391696689 0 0.27678409506133977 0.13995760699679219 0 0.25732524618445352 0.15123328297560429 0 0.27436031164108821 0.16546943417097729 0 0.27678409506133977 0.13995760699679219 0 0.27436031164108821 0.16546943417097729 0 0.25732524618445352 0.15123328297560429 0 0.25945119012847401 0.17316462773615879 0 0.27436031164108821 0.16546943417097729 0 0.2448569973963507 0.16488770519326021 0 0.25732524618445352 0.15123328297560429 0 0.25945119012847401 0.17316462773615879 0 0.25945119012847401 0.17316462773615879 0 0.25519195231445568 0.18957530113497159 0 0.27193652822083658 0.1909812613451623 0 0.24420701379670881 0.18017269424908131 0 0.25945119012847401 0.17316462773615879 0 0.25519195231445568 0.18957530113497159 0 0.27436031164108821 0.16546943417097729 0 0.29471981912753081 0.17631059048401809 0 0.27193652822083658 0.1909812613451623 0 0.25945119012847401 0.17316462773615879 0 0.27436031164108821 0.16546943417097729 0 0.27193652822083658 0.1909812613451623 0 0.27436031164108821 0.16546943417097729 0 0.27193652822083658 0.1909812613451623 0 0.27436031164108821 0.16546943417097729 0 0.29184258371457322 0.15729894391696689 0 0.29471981912753081 0.17631059048401809 0 0.29471981912753081 0.17631059048401809 0 0.31245705794954692 0.1621021407944466 0 0.32342986767621962 0.18244077346558529 0 0.29471981912753081 0.17631059048401809 0 0.30737795278317781 0.19369706184431129 0 0.32342986767621962 0.18244077346558529 0 0.29184258371457322 0.15729894391696689 0 0.29471981912753081 0.17631059048401809 0 0.31245705794954692 0.1621021407944466 0 0.29184258371457322 0.15729894391696689 0 0.31245705794954692 0.1621021407944466 0 0.30229176045607598 0.14109754578279349 0 0.31245705794954692 0.1621021407944466 0 0.30229176045607598 0.14109754578279349 0 0.3214805473301155 0.14630454846237961 0 0.30202837069255678 0.1184144632157345 0 0.30229176045607598 0.14109754578279349 0 0.32233939219712282 0.1252536490163268 0 0.30202837069255678 0.1184144632157345 0 0.30229176045607598 0.14109754578279349 0 0.29023495755665779 0.12868851336308981 0 0.27678409506133977 0.13995760699679219 0 0.30229176045607598 0.14109754578279349 0 0.29023495755665779 0.12868851336308981 0 0.27920787848159129 0.1144457798226072 0 0.27678409506133977 0.13995760699679219 0 0.29023495755665779 0.12868851336308981 0 0.27678409506133977 0.13995760699679219 0 0.29184258371457322 0.15729894391696689 0 0.30229176045607598 0.14109754578279349 0 0.27491197862318911 0.2471457982826446 0 0.26708896138033 0.24200491569353191 0 0.29590876536495159 0.2458055819588113 0 0.26708896138033 0.24200491569353191 0 0.26635719388438878 0.24970722347080451 0 0.26407683674264432 0.2454153958278609 0 0.27491197862318911 0.2471457982826446 0 0.26708896138033 0.24200491569353191 0 0.26635719388438878 0.24970722347080451 0 0.26708896138033 0.24200491569353191 0 0.26635719388438878 0.24970722347080451 0 0.26125664841386997 0.25128184439603901 0 0.26635719388438878 0.24970722347080451 0 0.26407683674264432 0.2454153958278609 0 0.26708896138033 0.24200491569353191 0 0.26281254846090679 0.24366374117729159 0 0.2615604087878014 0.24154382430742469 0 0.26407683674264432 0.2454153958278609 0 0.26281254846090679 0.24366374117729159 0 0.2592272499242344 0.24578357302005191 0 0.26708896138033 0.24200491569353191 0 0.26407683674264432 0.2454153958278609 0 0.26281254846090679 0.24366374117729159 0 0.2592272499242344 0.24578357302005191 0 0.25665146243984521 0.24031712309998701 0 0.2615604087878014 0.24154382430742469 0 0.26281254846090679 0.24366374117729159 0 0.2592272499242344 0.24578357302005191 0 0.2615604087878014 0.24154382430742469 0 0.26125664841386997 0.25128184439603901 0 0.25483074441246178 0.25133398368052728 0 0.2592272499242344 0.24578357302005191 0 0.26125664841386997 0.25128184439603901 0 0.26407683674264432 0.2454153958278609 0 0.2592272499242344 0.24578357302005191 0 0.25483074441246178 0.25133398368052728 0 0.2592272499242344 0.24578357302005191 0 0.25033710606835441 0.24431151828744141 0 0.2592272499242344 0.24578357302005191 0 0.25033710606835441 0.24431151828744141 0 0.25665146243984521 0.24031712309998701 0 0.25033710606835441 0.24431151828744141 0 0.25219170164853438 0.2346690458950618 0 0.25665146243984521 0.24031712309998701 0 0.25219170164853438 0.2346690458950618 0 0.25665146243984521 0.24031712309998701 0 0.26105525188354117 0.23477908672704911 0 0.25665146243984521 0.24031712309998701 0 0.26105525188354117 0.23477908672704911 0 0.2615604087878014 0.24154382430742469 0 0.26708896138033 0.24200491569353191 0 0.26105525188354117 0.23477908672704911 0 0.2615604087878014 0.24154382430742469 0 0.26105525188354117 0.23477908672704911 0 0.25574465981025701 0.22507689338501191 0 0.26951274480058512 0.21649308851934729 0 0.25219170164853438 0.2346690458950618 0 0.26105525188354117 0.23477908672704911 0 0.25574465981025701 0.22507689338501191 0 0.24565594326316759 0.22581587786517651 0 0.25219170164853438 0.2346690458950618 0 0.25574465981025701 0.22507689338501191 0 0.24565594326316759 0.22581587786517651 0 0.25574465981025701 0.22507689338501191 0 0.25366741894655059 0.21144992167050181 0 0.26708896138033 0.24200491569353191 0 0.26951274480058512 0.21649308851934729 0 0.26708896138033 0.24200491569353191 0 0.26951274480058512 0.21649308851934729 0 0.28590717934319659 0.22955625269857971 0 0.26708896138033 0.24200491569353191 0 0.26105525188354117 0.23477908672704911 0 0.26951274480058512 0.21649308851934729 0 0.26951274480058512 0.21649308851934729 0 0.27193652822083658 0.1909812613451623 0 0.26951274480058512 0.21649308851934729 0 0.27193652822083658 0.1909812613451623 0 0.29107764024272448 0.20721450619996851 0 0.25574465981025701 0.22507689338501191 0 0.26951274480058512 0.21649308851934729 0 0.25366741894655059 0.21144992167050181 0 0.26951274480058512 0.21649308851934729 0 0.25366741894655059 0.21144992167050181 0 0.27193652822083658 0.1909812613451623 0 0.24382989837042801 0.19705337448612881 0 0.25366741894655059 0.21144992167050181 0 0.25519195231445568 0.18957530113497159 0 0.25366741894655059 0.21144992167050181 0 0.25519195231445568 0.18957530113497159 0 0.27193652822083658 0.1909812613451623 0 0.29471981912753081 0.17631059048401809 0 0.27193652822083658 0.1909812613451623 0 0.29107764024272448 0.20721450619996851 0 0.29471981912753081 0.17631059048401809 0 0.30737795278317781 0.19369706184431129 0 0.29107764024272448 0.20721450619996851 0 0.30737795278317781 0.19369706184431129 0 0.29107764024272448 0.20721450619996851 0 0.32071054760130752 0.20884859457128979 0 0.29107764024272448 0.20721450619996851 0 0.30928432750564061 0.22634650109880911 0 0.32071054760130752 0.20884859457128979 0 0.26951274480058512 0.21649308851934729 0 0.29107764024272448 0.20721450619996851 0 0.28590717934319659 0.22955625269857971 0 0.29107764024272448 0.20721450619996851 0 0.28590717934319659 0.22955625269857971 0 0.30928432750564061 0.22634650109880911 0 0.28590717934319659 0.22955625269857971 0 0.30928432750564061 0.22634650109880911 0 0.28590717934319659 0.22955625269857971 0 0.30928432750564061 0.22634650109880911 0 0.29590876536495159 0.2458055819588113 0 0.30928432750564061 0.22634650109880911 0 0.29590876536495159 0.2458055819588113 0 0.32472856934957328 0.24960624822409011 0 0.29590876536495159 0.2458055819588113 0 0.32472856934957328 0.24960624822409011 0 0.26708896138033 0.24200491569353191 0 0.28590717934319659 0.22955625269857971 0 0.29590876536495159 0.2458055819588113 0 0.26708896138033 0.24200491569353191 0 0.29590876536495159 0.2458055819588113 0 0.28272453419979049 0.25174505643774792 0 0.27491197862318911 0.2471457982826446 0 0.29590876536495159 0.2458055819588113 0 0.32472856934957328 0.24960624822409011 0 0.33266147566808429 0.22313674949903919 0 0.34533202755854059 0.23669701555576109 0 0.32472856934957328 0.24960624822409011 0 0.33266147566808429 0.22313674949903919 0 0.35343714747451482 0.25339224636834662 0 0.32472856934957328 0.24960624822409011 0 0.34533202755854059 0.23669701555576109 0 0.30928432750564061 0.22634650109880911 0 0.33266147566808429 0.22313674949903919 0 0.32071054760130752 0.20884859457128979 0 0.30928432750564061 0.22634650109880911 0 0.32472856934957328 0.24960624822409011 0 0.33266147566808429 0.22313674949903919 0 0.30928432750564061 0.22634650109880911 0 0.33266147566808429 0.22313674949903919 0 0.33266147566808429 0.22313674949903919 0 0.35387885789696921 0.22022354015122261 0 0.33266147566808429 0.22313674949903919 0 0.33855001842988058 0.20348861943579491 0 0.35387885789696921 0.22022354015122261 0 0.33266147566808429 0.22313674949903919 0 0.33855001842988058 0.20348861943579491 0 0.33266147566808429 0.22313674949903919 0 0.33855001842988058 0.20348861943579491 0 0.32071054760130752 0.20884859457128979 0 0.33855001842988058 0.20348861943579491 0 0.32071054760130752 0.20884859457128979 0 0.32342986767621962 0.18244077346558529 0 0.30737795278317781 0.19369706184431129 0 0.32071054760130752 0.20884859457128979 0 0.32342986767621962 0.18244077346558529 0 0.33855001842988058 0.20348861943579491 0 0.32342986767621962 0.18244077346558529 0 0.34443856119167549 0.18384048937254999 0 0.33855001842988058 0.20348861943579491 0 0.34443856119167549 0.18384048937254999 0 0.35633364776154169 0.20258709417349621 0 0.34443856119167549 0.18384048937254999 0 0.36126051648038199 0.1770745969108255 0 0.33855001842988058 0.20348861943579491 0 0.35633364776154169 0.20258709417349621 0 0.34443856119167549 0.18384048937254999 0 0.35633364776154169 0.20258709417349621 0 0.37001438260974862 0.19118938764904431 0 0.36126051648038199 0.1770745969108255 0 0.35633364776154169 0.20258709417349621 0 0.35387885789696921 0.22022354015122261 0 0.37509624012585402 0.21731033080340681 0 0.35633364776154169 0.20258709417349621 0 0.37001438260974862 0.19118938764904431 0 0.37509624012585402 0.21731033080340681 0 0.33855001842988058 0.20348861943579491 0 0.35633364776154169 0.20258709417349621 0 0.35387885789696921 0.22022354015122261 0 0.33266147566808429 0.22313674949903919 0 0.35387885789696921 0.22022354015122261 0 0.34533202755854059 0.23669701555576109 0 0.35387885789696921 0.22022354015122261 0 0.36698900128256068 0.2369854232780913 0 0.34533202755854059 0.23669701555576109 0 0.35387885789696921 0.22022354015122261 0 0.36698900128256068 0.2369854232780913 0 0.37509624012585402 0.21731033080340681 0 0.35387885789696921 0.22022354015122261 0 0.37509624012585402 0.21731033080340681 0 0.35343714747451482 0.25339224636834662 0 0.38214572559945648 0.25717824451260263 0 0.36698900128256068 0.2369854232780913 0 0.35343714747451482 0.25339224636834662 0 0.36698900128256068 0.2369854232780913 0 0.34533202755854059 0.23669701555576109 0 0.34286934532295821 0.14164699652705101 0 0.33216895127259699 0.1617358163006363 0 0.35032710395347028 0.1641923593093052 0 0.34286934532295821 0.14164699652705101 0 0.3214805473301155 0.14630454846237961 0 0.33216895127259699 0.1617358163006363 0 0.34286934532295821 0.14164699652705101 0 0.32233939219712282 0.1252536490163268 0 0.3214805473301155 0.14630454846237961 0 0.34314971641399639 0.11940488142219589 0 0.34286934532295821 0.14164699652705101 0 0.32233939219712282 0.1252536490163268 0 0.30229176045607598 0.14109754578279349 0 0.32233939219712282 0.1252536490163268 0 0.3214805473301155 0.14630454846237961 0 0.31245705794954692 0.1621021407944466 0 0.3214805473301155 0.14630454846237961 0 0.33216895127259699 0.1617358163006363 0 0.31245705794954692 0.1621021407944466 0 0.32342986767621962 0.18244077346558529 0 0.33216895127259699 0.1617358163006363 0 0.32342986767621962 0.18244077346558529 0 0.33216895127259699 0.1617358163006363 0 0.34443856119167549 0.18384048937254999 0 0.33216895127259699 0.1617358163006363 0 0.35032710395347028 0.1641923593093052 0 0.34443856119167549 0.18384048937254999 0 0.35032710395347028 0.1641923593093052 0 0.36126051648038199 0.1770745969108255 0 0.36433393099354572 0.15314891760777671 0 0.35032710395347028 0.1641923593093052 0 0.34443856119167549 0.18384048937254999 0 0.36126051648038199 0.1770745969108255 0 0.35032710395347028 0.1641923593093052 0 0.34443856119167549 0.18384048937254999 0 0.37001438260974862 0.19118938764904431 0 0.36126051648038199 0.1770745969108255 0 0.38211547237231058 0.16748933335278091 0 0.36126051648038199 0.1770745969108255 0 0.36433393099354572 0.15314891760777671 0 0.38211547237231058 0.16748933335278091 0 0.34286934532295821 0.14164699652705101 0 0.35032710395347028 0.1641923593093052 0 0.36433393099354572 0.15314891760777671 0 0.34286934532295821 0.14164699652705101 0 0.36433393099354572 0.15314891760777671 0 0.36512831101939303 0.12733801785880641 0 0.34314971641399639 0.11940488142219589 0 0.34286934532295821 0.14164699652705101 0 0.36512831101939303 0.12733801785880641 0 0.36433393099354572 0.15314891760777671 0 0.36512831101939303 0.12733801785880641 0 0.38554625038635693 0.14042388460775099 0 0.36512831101939303 0.12733801785880641 0 0.38554625038635693 0.14042388460775099 0 0.3824347748262375 0.1218121080201281 0 0.38554625038635693 0.14042388460775099 0 0.402172221556236 0.1279043847394819 0 0.3824347748262375 0.1218121080201281 0 0.38554625038635693 0.14042388460775099 0 0.402172221556236 0.1279043847394819 0 0.40681331960734618 0.15411518846414371 0 0.38554625038635693 0.14042388460775099 0 0.38211547237231058 0.16748933335278091 0 0.40681331960734618 0.15411518846414371 0 0.36433393099354572 0.15314891760777671 0 0.38554625038635693 0.14042388460775099 0 0.38211547237231058 0.16748933335278091 0 0.38211547237231058 0.16748933335278091 0 0.40262593443870509 0.17911530782338581 0 0.38666554859438379 0.19718387425050179 0 0.37001438260974862 0.19118938764904431 0 0.38211547237231058 0.16748933335278091 0 0.38666554859438379 0.19718387425050179 0 0.38211547237231058 0.16748933335278091 0 0.40681331960734618 0.15411518846414371 0 0.38211547237231058 0.16748933335278091 0 0.40262593443870509 0.17911530782338581 0 0.40681331960734618 0.15411518846414371 0 0.40262593443870509 0.17911530782338581 0 0.4240972661394169 0.16815253428924609 0 0.40681331960734618 0.15411518846414371 0 0.40262593443870509 0.17911530782338581 0 0.41801603505575519 0.18509724154819279 0 0.40088206990110148 0.19778147367527471 0 0.40262593443870509 0.17911530782338581 0 0.41801603505575519 0.18509724154819279 0 0.4240972661394169 0.16815253428924609 0 0.41801603505575519 0.18509724154819279 0 0.43221646384281243 0.18606639712978579 0 0.4240972661394169 0.16815253428924609 0 0.43221646384281243 0.18606639712978579 0 0.4240972661394169 0.16815253428924609 0 0.44605670067371778 0.16446944856247439 0 0.4240972661394169 0.16815253428924609 0 0.43151116684238172 0.14074104357550651 0 0.44605670067371778 0.16446944856247439 0 0.43151116684238172 0.14074104357550651 0 0.42058930131912992 0.12292399737053181 0 0.43151116684238172 0.14074104357550651 0 0.43858264003960729 0.12494058717707909 0 0.42058930131912992 0.12292399737053181 0 0.43151116684238172 0.14074104357550651 0 0.41527150233127352 0.13642115353741599 0 0.42058930131912992 0.12292399737053181 0 0.402172221556236 0.1279043847394819 0 0.41527150233127352 0.13642115353741599 0 0.42058930131912992 0.12292399737053181 0 0.402172221556236 0.1279043847394819 0 0.41527150233127352 0.13642115353741599 0 0.40681331960734618 0.15411518846414371 0 0.43151116684238172 0.14074104357550651 0 0.41527150233127352 0.13642115353741599 0 0.40681331960734618 0.15411518846414371 0 0.43151116684238172 0.14074104357550651 0 0.40681331960734618 0.15411518846414371 0 0.4240972661394169 0.16815253428924609 0 0.43151116684238172 0.14074104357550651 0 0.40681331960734618 0.15411518846414371 0 0.38214572559945648 0.25717824451260263 0 0.39079005683772139 0.23620921682402859 0 0.40220614802616023 0.2483237479691611 0 0.39079005683772139 0.23620921682402859 0 0.40220614802616023 0.2483237479691611 0 0.40796636942323738 0.23674106726938371 0 0.38214572559945648 0.25717824451260263 0 0.36698900128256068 0.2369854232780913 0 0.39079005683772139 0.23620921682402859 0 0.36698900128256068 0.2369854232780913 0 0.39079005683772139 0.23620921682402859 0 0.37509624012585402 0.21731033080340681 0 0.39079005683772139 0.23620921682402859 0 0.39606104420998539 0.21852412893469891 0 0.37509624012585402 0.21731033080340681 0 0.39079005683772139 0.23620921682402859 0 0.39606104420998539 0.21852412893469891 0 0.40796636942323738 0.23674106726938371 0 0.39606104420998539 0.21852412893469891 0 0.41453720955909251 0.22142285610154469 0 0.40796636942323738 0.23674106726938371 0 0.39606104420998539 0.21852412893469891 0 0.40088206990110148 0.19778147367527471 0 0.41453720955909251 0.22142285610154469 0 0.39606104420998539 0.21852412893469891 0 0.38666554859438379 0.19718387425050179 0 0.40088206990110148 0.19778147367527471 0 0.39606104420998539 0.21852412893469891 0 0.37509624012585402 0.21731033080340681 0 0.38666554859438379 0.19718387425050179 0 0.37001438260974862 0.19118938764904431 0 0.37509624012585402 0.21731033080340681 0 0.38666554859438379 0.19718387425050179 0 0.40262593443870509 0.17911530782338581 0 0.38666554859438379 0.19718387425050179 0 0.40088206990110148 0.19778147367527471 0 0.41801603505575519 0.18509724154819279 0 0.40088206990110148 0.19778147367527471 0 0.42194294673006638 0.20169669824745229 0 0.43221646384281243 0.18606639712978579 0 0.42194294673006638 0.20169669824745229 0 0.43814733195446698 0.20316353646950339 0 0.41801603505575519 0.18509724154819279 0 0.43221646384281243 0.18606639712978579 0 0.42194294673006638 0.20169669824745229 0 0.42194294673006638 0.20169669824745229 0 0.43205288243367829 0.2157866489504586 0 0.43814733195446698 0.20316353646950339 0 0.42194294673006638 0.20169669824745229 0 0.43205288243367829 0.2157866489504586 0 0.41453720955909251 0.22142285610154469 0 0.40088206990110148 0.19778147367527471 0 0.42194294673006638 0.20169669824745229 0 0.41453720955909251 0.22142285610154469 0 0.40088206990110148 0.19778147367527471 0 0.41453720955909251 0.22142285610154469 0 0.41453720955909251 0.22142285610154469 0 0.4281923492170836 0.2450642385278147 0 0.41453720955909251 0.22142285610154469 0 0.43017562450127589 0.22537858926534671 0 0.42982923503418441 0.23683705864736451 0 0.43205288243367829 0.2157866489504586 0 0.41453720955909251 0.22142285610154469 0 0.43017562450127589 0.22537858926534671 0 0.43205288243367829 0.2157866489504586 0 0.43017562450127589 0.22537858926534671 0 0.44083633378111842 0.2236795971837881 0 0.43017562450127589 0.22537858926534671 0 0.42982923503418441 0.23683705864736451 0 0.44083633378111842 0.2236795971837881 0 0.41453720955909251 0.22142285610154469 0 0.42982923503418441 0.23683705864736451 0 0.4281923492170836 0.2450642385278147 0 0.42982923503418441 0.23683705864736451 0 0.4281923492170836 0.2450642385278147 0 0.44959669071027342 0.23480574926743489 0 0.41601140868938158 0.2509022152590541 0 0.4281923492170836 0.2450642385278147 0 0.41453720955909251 0.22142285610154469 0 0.4281923492170836 0.2450642385278147 0 0.40796636942323738 0.23674106726938371 0 0.41601140868938158 0.2509022152590541 0 0.4281923492170836 0.2450642385278147 0 0.40796636942323738 0.23674106726938371 0 0.41601140868938158 0.2509022152590541 0 0.40220614802616023 0.2483237479691611 0 0.40796636942323738 0.23674106726938371 0 0.46229010975999352 0.24892346532678791 0 0.44959669071027342 0.23480574926743489 0 0.47100103220346351 0.2245472600070553 0 0.4281923492170836 0.2450642385278147 0 0.44959669071027342 0.23480574926743489 0 0.43956288184933923 0.26475024080111631 0 0.46229010975999352 0.24892346532678791 0 0.44959669071027342 0.23480574926743489 0 0.43956288184933923 0.26475024080111631 0 0.4281923492170836 0.2450642385278147 0 0.44959669071027342 0.23480574926743489 0 0.42982923503418441 0.23683705864736451 0 0.44954347390826882 0.22731355248949681 0 0.44083633378111842 0.2236795971837881 0 0.42982923503418441 0.23683705864736451 0 0.44959669071027342 0.23480574926743489 0 0.44954347390826882 0.22731355248949681 0 0.42982923503418441 0.23683705864736451 0 0.44954347390826882 0.22731355248949681 0 0.44954347390826882 0.22731355248949681 0 0.45613860936639378 0.21865787463680561 0 0.44677953392715042 0.21632384854657269 0 0.44954347390826882 0.22731355248949681 0 0.44083633378111842 0.2236795971837881 0 0.44677953392715042 0.21632384854657269 0 0.44954347390826882 0.22731355248949681 0 0.45613860936639378 0.21865787463680561 0 0.46925771278235318 0.2177900463316291 0 0.44954347390826882 0.22731355248949681 0 0.46925771278235318 0.2177900463316291 0 0.47100103220346351 0.2245472600070553 0 0.44954347390826882 0.22731355248949681 0 0.46925771278235318 0.2177900463316291 0 0.44959669071027342 0.23480574926743489 0 0.44954347390826882 0.22731355248949681 0 0.47100103220346351 0.2245472600070553 0 0.44959669071027342 0.23480574926743489 0 0.47100103220346351 0.2245472600070553 0 0.46686116345661671 0.21240119288417331 0 0.45897371684780303 0.2132040511795239 0 0.46925771278235318 0.2177900463316291 0 0.45613860936639378 0.21865787463680561 0 0.45897371684780303 0.2132040511795239 0 0.46925771278235318 0.2177900463316291 0 0.46686116345661671 0.21240119288417331 0 0.46406545585992098 0.20668441548912969 0 0.4751477683363895 0.21192625853641051 0 0.46686116345661671 0.21240119288417331 0 0.46406545585992098 0.20668441548912969 0 0.45897371684780303 0.2132040511795239 0 0.46406545585992098 0.20668441548912969 0 0.45190189959491439 0.20575271609974419 0 0.45606336955545662 0.19853209726210971 0 0.46406545585992098 0.20668441548912969 0 0.45897371684780303 0.2132040511795239 0 0.45190189959491439 0.20575271609974419 0 0.45613860936639378 0.21865787463680561 0 0.45897371684780303 0.2132040511795239 0 0.44677953392715042 0.21632384854657269 0 0.45897371684780303 0.2132040511795239 0 0.44677953392715042 0.21632384854657269 0 0.45190189959491439 0.20575271609974419 0 0.43205288243367829 0.2157866489504586 0 0.44083633378111842 0.2236795971837881 0 0.44677953392715042 0.21632384854657269 0 0.43205288243367829 0.2157866489504586 0 0.44677953392715042 0.21632384854657269 0 0.43814733195446698 0.20316353646950339 0 0.44677953392715042 0.21632384854657269 0 0.43814733195446698 0.20316353646950339 0 0.45190189959491439 0.20575271609974419 0 0.43221646384281243 0.18606639712978579 0 0.43814733195446698 0.20316353646950339 0 0.44768388826193711 0.1934934039101224 0 0.45190189959491439 0.20575271609974419 0 0.44768388826193711 0.1934934039101224 0 0.45606336955545662 0.19853209726210971 0 0.43814733195446698 0.20316353646950339 0 0.45190189959491439 0.20575271609974419 0 0.44768388826193711 0.1934934039101224 0 0.46406545585992098 0.20668441548912969 0 0.46060223450505378 0.18819785354944249 0 0.45606336955545662 0.19853209726210971 0 0.46060223450505378 0.18819785354944249 0 0.4751477683363895 0.21192625853641051 0 0.44768388826193711 0.1934934039101224 0 0.46060223450505378 0.18819785354944249 0 0.45606336955545662 0.19853209726210971 0 0.46406545585992098 0.20668441548912969 0 0.46060223450505378 0.18819785354944249 0 0.4751477683363895 0.21192625853641051 0 0.48897195165643781 0.2082665401737617 0 0.47707802175754599 0.1874045583288074 0 0.49035065065022881 0.20371820686085701 0 0.47740359174074831 0.1812345082416687 0 0.46060223450505378 0.18819785354944249 0 0.47656891783460831 0.19922671565214009 0 0.47707802175754599 0.1874045583288074 0 0.47656891783460831 0.19922671565214009 0 0.48897195165643781 0.2082665401737617 0 0.47707802175754599 0.1874045583288074 0 0.46060223450505378 0.18819785354944249 0 0.47656891783460831 0.19922671565214009 0 0.4751477683363895 0.21192625853641051 0 0.49035065065022881 0.20371820686085701 0 0.47707802175754599 0.1874045583288074 0 0.47740359174074831 0.1812345082416687 0 0.49035065065022881 0.20371820686085701 0 0.48897195165643781 0.2082665401737617 0 0.47707802175754599 0.1874045583288074 0 0.49122963416302662 0.18869074153207749 0 0.49035065065022881 0.20371820686085701 0 0.47740359174074831 0.1812345082416687 0 0.49122963416302662 0.18869074153207749 0 0.49999999999999872 0.20293913763086049 0 0.5 0.17811775765533441 0 0.49122963416302662 0.18869074153207749 0 0.49999999999999872 0.20293913763086049 0 0.49035065065022881 0.20371820686085701 0 0.49999999999999872 0.20293913763086049 0 0.48897195165643781 0.2082665401737617 0 0.49534433133827271 0.209035832980765 0 0.49999999999999872 0.20293913763086049 0 0.48897195165643781 0.2082665401737617 0 0.49999999999999872 0.20293913763086049 0 0.49035065065022881 0.20371820686085701 0 0.48897195165643781 0.2082665401737617 0 0.48897195165643781 0.2082665401737617 0 0.49534433133827271 0.209035832980765 0 0.49240537369665333 0.21428877074667529 0 0.49999999999999872 0.20293913763086049 0 0.49534433133827271 0.209035832980765 0 0.49999999999999573 0.2106488833717628 0 0.49999999999999573 0.2106488833717628 0 0.49240537369665333 0.21428877074667529 0 0.49902677449724708 0.22590272378528431 0 0.49999999999999573 0.2106488833717628 0 0.49240537369665333 0.21428877074667529 0 0.49534433133827271 0.209035832980765 0 0.49999999999999573 0.2106488833717628 0 0.49240537369665333 0.21428877074667529 0 0.48897195165643781 0.2082665401737617 0 0.49240537369665333 0.21428877074667529 0 0.48897195165643781 0.2082665401737617 0 0.46925771278235318 0.2177900463316291 0 0.48897195165643781 0.2082665401737617 0 0.49240537369665333 0.21428877074667529 0 0.46925771278235318 0.2177900463316291 0 0.48897195165643781 0.2082665401737617 0 0.46925771278235318 0.2177900463316291 0 0.4751477683363895 0.21192625853641051 0 0.47656891783460831 0.19922671565214009 0 0.48897195165643781 0.2082665401737617 0 0.4751477683363895 0.21192625853641051 0 0.46686116345661671 0.21240119288417331 0 0.46925771278235318 0.2177900463316291 0 0.4751477683363895 0.21192625853641051 0 0.49240537369665333 0.21428877074667529 0 0.47100103220346351 0.2245472600070553 0 0.48496554333510389 0.22622488975146041 0 0.49240537369665333 0.21428877074667529 0 0.46925771278235318 0.2177900463316291 0 0.47100103220346351 0.2245472600070553 0 0.49240537369665333 0.21428877074667529 0 0.47100103220346351 0.2245472600070553 0 0.47100103220346351 0.2245472600070553 0 0.48496554333510389 0.22622488975146041 0 0.48116618200302957 0.24689203957624081 0 0.49240537369665333 0.21428877074667529 0 0.48496554333510389 0.22622488975146041 0 0.49902677449724708 0.22590272378528431 0 0.48496554333510389 0.22622488975146041 0 0.49902677449724708 0.22590272378528431 0 0.48116618200302957 0.24689203957624081 0 0.49902677449724708 0.22590272378528431 0 0.50000000000000111 0.2276097636738755 0 0.48116618200302957 0.24689203957624081 0 0.49240537369665333 0.21428877074667529 0 0.49902677449724708 0.22590272378528431 0 0.49902677449724708 0.22590272378528431 0 0.50000000000000111 0.2276097636738755 0 0.5 0.25684581679738833 0 0.50000000000000111 0.2276097636738755 0 0.48116618200302957 0.24689203957624081 0 0.49902677449724708 0.22590272378528431 0 0.48116618200302957 0.24689203957624081 0 0.46229010975999352 0.24892346532678791 0 0.47100103220346351 0.2245472600070553 0 0.48116618200302957 0.24689203957624081 0 0.46569484422534729 0.1438054516352901 0 0.45150947392178742 0.13626711100329239 0 0.46445653283126792 0.15875080962248059 0 0.45150947392178742 0.13626711100329239 0 0.46445653283126792 0.15875080962248059 0 0.45150947392178742 0.13626711100329239 0 0.45141210970922191 0.15143974103132701 0 0.46445653283126792 0.15875080962248059 0 0.46569484422534729 0.1438054516352901 0 0.46445653283126792 0.15875080962248059 0 0.47496673634231068 0.1522517213135865 0 0.46405457363538721 0.13326317075532329 0 0.45434077789492211 0.1283785682932567 0 0.47717038894746222 0.116016093011007 0 0.46569484422534729 0.1438054516352901 0 0.46405457363538721 0.13326317075532329 0 0.47348690439598312 0.13849444548176751 0 0.46405457363538721 0.13326317075532329 0 0.45434077789492211 0.1283785682932567 0 0.45150947392178742 0.13626711100329239 0 0.46569484422534729 0.1438054516352901 0 0.46405457363538721 0.13326317075532329 0 0.45150947392178742 0.13626711100329239 0 0.43151116684238172 0.14074104357550651 0 0.45434077789492211 0.1283785682932567 0 0.43151116684238172 0.14074104357550651 0 0.45434077789492211 0.1283785682932567 0 0.45150947392178742 0.13626711100329239 0 0.43151116684238172 0.14074104357550651 0 0.45434077789492211 0.1283785682932567 0 0.43858264003960729 0.12494058717707909 0 0.43151116684238172 0.14074104357550651 0 0.45141210970922191 0.15143974103132701 0 0.44605670067371778 0.16446944856247439 0 0.43151116684238172 0.14074104357550651 0 0.45150947392178742 0.13626711100329239 0 0.45141210970922191 0.15143974103132701 0 0.43151116684238172 0.14074104357550651 0 0.44605670067371778 0.16446944856247439 0 0.45141210970922191 0.15143974103132701 0 0.44605670067371778 0.16446944856247439 0 0.45646001107511219 0.16435802757736259 0 0.44768388826193711 0.1934934039101224 0 0.46060223450505378 0.18819785354944249 0 0.44605670067371778 0.16446944856247439 0 0.43221646384281243 0.18606639712978579 0 0.44768388826193711 0.1934934039101224 0 0.44605670067371778 0.16446944856247439 0 0.46060223450505378 0.18819785354944249 0 0.46518409185865839 0.16654257648385051 0 0.47707802175754599 0.1874045583288074 0 0.46060223450505378 0.18819785354944249 0 0.45646001107511219 0.16435802757736259 0 0.46518409185865839 0.16654257648385051 0 0.46060223450505378 0.18819785354944249 0 0.44605670067371778 0.16446944856247439 0 0.46060223450505378 0.18819785354944249 0 0.44605670067371778 0.16446944856247439 0 0.45646001107511219 0.16435802757736259 0 0.45141210970922191 0.15143974103132701 0 0.45646001107511219 0.16435802757736259 0 0.46445653283126792 0.15875080962248059 0 0.45646001107511219 0.16435802757736259 0 0.46518409185865839 0.16654257648385051 0 0.46445653283126792 0.15875080962248059 0 0.46445653283126792 0.15875080962248059 0 0.47579489543992642 0.16511201447627119 0 0.47496673634231068 0.1522517213135865 0 0.46518409185865839 0.16654257648385051 0 0.46445653283126792 0.15875080962248059 0 0.47740359174074831 0.1812345082416687 0 0.46445653283126792 0.15875080962248059 0 0.47579489543992642 0.16511201447627119 0 0.47740359174074831 0.1812345082416687 0 0.46445653283126792 0.15875080962248059 0 0.47740359174074831 0.1812345082416687 0 0.47579489543992642 0.16511201447627119 0 0.48112233575226382 0.17137958407680479 0 0.48658519705423797 0.16275455154595711 0 0.47579489543992642 0.16511201447627119 0 0.48658519705423797 0.16275455154595711 0 0.47496673634231068 0.1522517213135865 0 0.47579489543992642 0.16511201447627119 0 0.48112233575226382 0.17137958407680479 0 0.47740359174074831 0.1812345082416687 0 0.46518409185865839 0.16654257648385051 0 0.47707802175754599 0.1874045583288074 0 0.47740359174074831 0.1812345082416687 0 0.46518409185865839 0.16654257648385051 0 0.47707802175754599 0.1874045583288074 0 0.48112233575226382 0.17137958407680479 0 0.47740359174074831 0.1812345082416687 0 0.4874856170347408 0.17682281325289301 0 0.49122963416302662 0.18869074153207749 0 0.47740359174074831 0.1812345082416687 0 0.4874856170347408 0.17682281325289301 0 0.4874856170347408 0.17682281325289301 0 0.5 0.17811775765533441 0 0.48658519705423797 0.16275455154595711 0 0.49122963416302662 0.18869074153207749 0 0.4874856170347408 0.17682281325289301 0 0.5 0.17811775765533441 0 0.5 0.17811775765533441 0 0.48658519705423797 0.16275455154595711 0 0.5 0.1532963776798085 0 0.48112233575226382 0.17137958407680479 0 0.4874856170347408 0.17682281325289301 0 0.48658519705423797 0.16275455154595711 0 0.48658519705423797 0.16275455154595711 0 0.5 0.1532963776798085 0 0.48849152357626602 0.14164442197732049 0 0.5 0.1532963776798085 0 0.48849152357626602 0.14164442197732049 0 0.5 0.1284749977042825 0 0.48658519705423797 0.16275455154595711 0 0.48849152357626602 0.14164442197732049 0 0.47496673634231068 0.1522517213135865 0 0.48849152357626602 0.14164442197732049 0 0.47496673634231068 0.1522517213135865 0 0.47348690439598312 0.13849444548176751 0 0.46569484422534729 0.1438054516352901 0 0.47496673634231068 0.1522517213135865 0 0.47348690439598312 0.13849444548176751 0 0.48849152357626602 0.14164442197732049 0 0.47348690439598312 0.13849444548176751 0 0.47717038894746222 0.116016093011007 0 0.46405457363538721 0.13326317075532329 0 0.47348690439598312 0.13849444548176751 0 0.47717038894746222 0.116016093011007 0 0.48849152357626602 0.14164442197732049 0 0.5 0.1284749977042825 0 0.47717038894746222 0.116016093011007 0 0.5 0.1284749977042825 0 0.500000000000002 0.1036536177287565 0 0.47717038894746222 0.116016093011007 0 0.500000000000002 0.1036536177287565 0 0.47717038894746222 0.116016093011007 0 0.500000000000002 0.1036536177287565 0 0.47717038894746222 0.116016093011007 0 0.47998726119886931 0.088393182735662934 0 0.47717038894746222 0.116016093011007 0 0.47998726119886931 0.088393182735662934 0 0.46064328997151027 0.094713825582067729 0 0.5 0.077782921800391924 0 0.48173277133515041 0.06874188656583706 0 0.49999999999999578 0.051912225872027498 0 0.5 0.077782921800391924 0 0.47998726119886931 0.088393182735662934 0 0.48173277133515041 0.06874188656583706 0 0.500000000000002 0.1036536177287565 0 0.5 0.077782921800391924 0 0.47998726119886931 0.088393182735662934 0 0.48173277133515041 0.06874188656583706 0 0.46051487418812181 0.071102672103932688 0 0.47367791919059038 0.049497485845892322 0 0.47998726119886931 0.088393182735662934 0 0.48173277133515041 0.06874188656583706 0 0.46051487418812181 0.071102672103932688 0 0.46051487418812181 0.071102672103932688 0 0.44398295622867068 0.08277193224366064 0 0.46064328997151027 0.094713825582067729 0 0.47998726119886931 0.088393182735662934 0 0.46051487418812181 0.071102672103932688 0 0.46064328997151027 0.094713825582067729 0 0.44398295622867068 0.08277193224366064 0 0.46064328997151027 0.094713825582067729 0 0.44187796484287972 0.097615293758051808 0 0.46051487418812181 0.071102672103932688 0 0.44398295622867068 0.08277193224366064 0 0.43661232892175972 0.066164257387968009 0 0.45434077789492211 0.1283785682932567 0 0.47717038894746222 0.116016093011007 0 0.45589739024521758 0.1105003882942603 0 0.45434077789492211 0.1283785682932567 0 0.47717038894746222 0.116016093011007 0 0.47717038894746222 0.116016093011007 0 0.45589739024521758 0.1105003882942603 0 0.46064328997151027 0.094713825582067729 0 0.45589739024521758 0.1105003882942603 0 0.44187796484287972 0.097615293758051808 0 0.43933967800841572 0.1111423228156744 0 0.45589739024521758 0.1105003882942603 0 0.46064328997151027 0.094713825582067729 0 0.44187796484287972 0.097615293758051808 0 0.45434077789492211 0.1283785682932567 0 0.45589739024521758 0.1105003882942603 0 0.44726663309266351 0.1188695191683628 0 0.45589739024521758 0.1105003882942603 0 0.43933967800841572 0.1111423228156744 0 0.44726663309266351 0.1188695191683628 0 0.45434077789492211 0.1283785682932567 0 0.44726663309266351 0.1188695191683628 0 0.43858264003960729 0.12494058717707909 0 0.43933967800841572 0.1111423228156744 0 0.44726663309266351 0.1188695191683628 0 0.43858264003960729 0.12494058717707909 0 0.43933967800841572 0.1111423228156744 0 0.43858264003960729 0.12494058717707909 0 0.42058930131912992 0.12292399737053181 0 0.43933967800841572 0.1111423228156744 0 0.42058930131912992 0.12292399737053181 0 0.4254774692238556 0.1017475985673543 0 0.42058930131912992 0.12292399737053181 0 0.40966743579587772 0.1051069511655572 0 0.4254774692238556 0.1017475985673543 0 0.42058930131912992 0.12292399737053181 0 0.40966743579587772 0.1051069511655572 0 0.402172221556236 0.1279043847394819 0 0.42058930131912992 0.12292399737053181 0 0.40966743579587772 0.1051069511655572 0 0.40966743579587772 0.1051069511655572 0 0.4254774692238556 0.1017475985673543 0 0.41264983563792312 0.093428432331115946 0 0.40966743579587772 0.1051069511655572 0 0.41264983563792312 0.093428432331115946 0 0.39992312071890418 0.099105343908897359 0 0.44187796484287972 0.097615293758051808 0 0.43933967800841572 0.1111423228156744 0 0.4254774692238556 0.1017475985673543 0 0.44187796484287972 0.097615293758051808 0 0.4254774692238556 0.1017475985673543 0 0.42592700537960798 0.084815695045293515 0 0.44398295622867068 0.08277193224366064 0 0.44187796484287972 0.097615293758051808 0 0.42592700537960798 0.084815695045293515 0 0.42592700537960798 0.084815695045293515 0 0.43661232892175972 0.066164257387968009 0 0.41928830031972603 0.067907209073463426 0 0.44398295622867068 0.08277193224366064 0 0.42592700537960798 0.084815695045293515 0 0.43661232892175972 0.066164257387968009 0 0.42592700537960798 0.084815695045293515 0 0.41928830031972603 0.067907209073463426 0 0.41251328750235478 0.080586145551410693 0 0.41928830031972603 0.067907209073463426 0 0.41251328750235478 0.080586145551410693 0 0.40395403788060302 0.070559197766034018 0 0.41928830031972603 0.067907209073463426 0 0.40395403788060302 0.070559197766034018 0 0.40834312116342752 0.056640067588393871 0 0.4254774692238556 0.1017475985673543 0 0.42592700537960798 0.084815695045293515 0 0.41264983563792312 0.093428432331115946 0 0.42592700537960798 0.084815695045293515 0 0.41251328750235478 0.080586145551410693 0 0.41264983563792312 0.093428432331115946 0 0.41251328750235478 0.080586145551410693 0 0.41264983563792312 0.093428432331115946 0 0.40044209397899938 0.086176281396192114 0 0.41264983563792312 0.093428432331115946 0 0.40044209397899938 0.086176281396192114 0 0.39992312071890418 0.099105343908897359 0 0.40044209397899938 0.086176281396192114 0 0.39184637638881159 0.076584255572831217 0 0.38456699632223912 0.093159853618474578 0 0.40044209397899938 0.086176281396192114 0 0.38456699632223912 0.093159853618474578 0 0.39992312071890418 0.099105343908897359 0 0.41251328750235478 0.080586145551410693 0 0.40044209397899938 0.086176281396192114 0 0.40395403788060302 0.070559197766034018 0 0.40395403788060302 0.070559197766034018 0 0.39504618159550969 0.061215462021646523 0 0.40834312116342752 0.056640067588393871 0 0.40044209397899938 0.086176281396192114 0 0.40395403788060302 0.070559197766034018 0 0.39184637638881159 0.076584255572831217 0 0.40395403788060302 0.070559197766034018 0 0.39184637638881159 0.076584255572831217 0 0.39504618159550969 0.061215462021646523 0 0.39184637638881159 0.076584255572831217 0 0.38458709153501852 0.068042582432365842 0 0.39504618159550969 0.061215462021646523 0 0.39184637638881159 0.076584255572831217 0 0.38458709153501852 0.068042582432365842 0 0.38279433145414538 0.075695429615143167 0 0.37435547445834971 0.073810669538177553 0 0.38279433145414538 0.075695429615143167 0 0.37861571856630788 0.066879786913866646 0 0.38458709153501852 0.068042582432365842 0 0.38279433145414538 0.075695429615143167 0 0.37861571856630788 0.066879786913866646 0 0.38458709153501852 0.068042582432365842 0 0.37861571856630788 0.066879786913866646 0 0.38298601015286338 0.057872627485030033 0 0.37435547445834971 0.073810669538177553 0 0.37297835566059462 0.059643584032000332 0 0.37861571856630788 0.066879786913866646 0 0.39184637638881159 0.076584255572831217 0 0.38279433145414538 0.075695429615143167 0 0.38456699632223912 0.093159853618474578 0 0.37435547445834971 0.073810669538177553 0 0.38456699632223912 0.093159853618474578 0 0.37435547445834971 0.073810669538177553 0 0.38279433145414538 0.075695429615143167 0 0.38456699632223912 0.093159853618474578 0 0.3727935908830754 0.088620323026824294 0 0.37435547445834971 0.073810669538177553 0 0.38456699632223912 0.093159853618474578 0 0.3727935908830754 0.088620323026824294 0 0.38456699632223912 0.093159853618474578 0 0.37558135761635181 0.098927269493736772 0 0.38456699632223912 0.093159853618474578 0 0.38175320474890317 0.1074145726918882 0 0.39477851818612841 0.1125090376987716 0 0.38456699632223912 0.093159853618474578 0 0.39477851818612841 0.1125090376987716 0 0.38456699632223912 0.093159853618474578 0 0.37558135761635181 0.098927269493736772 0 0.38175320474890317 0.1074145726918882 0 0.37140437679355942 0.11066459462832989 0 0.37558135761635181 0.098927269493736772 0 0.38175320474890317 0.1074145726918882 0 0.37140437679355942 0.11066459462832989 0 0.38175320474890317 0.1074145726918882 0 0.3824347748262375 0.1218121080201281 0 0.38175320474890317 0.1074145726918882 0 0.3824347748262375 0.1218121080201281 0 0.39477851818612841 0.1125090376987716 0 0.402172221556236 0.1279043847394819 0 0.3824347748262375 0.1218121080201281 0 0.39477851818612841 0.1125090376987716 0 0.402172221556236 0.1279043847394819 0 0.40966743579587772 0.1051069511655572 0 0.39477851818612841 0.1125090376987716 0 0.40966743579587772 0.1051069511655572 0 0.39477851818612841 0.1125090376987716 0 0.39992312071890418 0.099105343908897359 0 0.38456699632223912 0.093159853618474578 0 0.39477851818612841 0.1125090376987716 0 0.39992312071890418 0.099105343908897359 0 0.39308068649001598 0.025120384208643549 0 0.39006617000486082 0.01001534773427367 0 0.40940779194324067 0.024376980532311739 0 0.39308068649001598 0.025120384208643549 0 0.39471167676237467 0.042253265767485657 0 0.40940779194324067 0.024376980532311739 0 0.39006617000486082 0.01001534773427367 0 0.40940779194324067 0.024376980532311739 0 0.4084350802165197 0.00091553982184491497 0 0.39006617000486082 0.01001534773427367 0 0.4084350802165197 0.00091553982184491497 0 0.39475890918382112 -0.0097235968367020888 0 0.37114691521963322 0.01144195811656998 0 0.37353067451150118 0.022131483883895551 0 0.39006617000486082 0.01001534773427367 0 0.37114691521963322 0.01144195811656998 0 0.39006617000486082 0.01001534773427367 0 0.37598748480921401 -0.0085898363924484626 0 0.37353067451150118 0.022131483883895551 0 0.39308068649001598 0.025120384208643549 0 0.38269200821478189 0.032240620396001958 0 0.37353067451150118 0.022131483883895551 0 0.39308068649001598 0.025120384208643549 0 0.39006617000486082 0.01001534773427367 0 0.36838959595296961 0.039838525741348857 0 0.39471167676237467 0.042253265767485657 0 0.36838959595296961 0.039838525741348857 0 0.37598130368658822 0.050435933298893051 0 0.39471167676237467 0.042253265767485657 0 0.36838959595296961 0.039838525741348857 0 0.38269200821478189 0.032240620396001958 0 0.39471167676237467 0.042253265767485657 0 0.39308068649001598 0.025120384208643549 0 0.38269200821478189 0.032240620396001958 0 0.39471167676237467 0.042253265767485657 0 0.37598130368658822 0.050435933298893051 0 0.38298601015286338 0.057872627485030033 0 0.39471167676237467 0.042253265767485657 0 0.37297835566059462 0.059643584032000332 0 0.37861571856630788 0.066879786913866646 0 0.38298601015286338 0.057872627485030033 0 0.37297835566059462 0.059643584032000332 0 0.37598130368658822 0.050435933298893051 0 0.38298601015286338 0.057872627485030033 0 0.38458709153501852 0.068042582432365842 0 0.38298601015286338 0.057872627485030033 0 0.39504618159550969 0.061215462021646523 0 0.38298601015286338 0.057872627485030033 0 0.39504618159550969 0.061215462021646523 0 0.39471167676237467 0.042253265767485657 0 0.39504618159550969 0.061215462021646523 0 0.39471167676237467 0.042253265767485657 0 0.40834312116342752 0.056640067588393871 0 0.39471167676237467 0.042253265767485657 0 0.42103375757177991 0.044668005793621207 0 0.39471167676237467 0.042253265767485657 0 0.42103375757177991 0.044668005793621207 0 0.40940779194324067 0.024376980532311739 0 0.41928830031972603 0.067907209073463426 0 0.42103375757177991 0.044668005793621207 0 0.40834312116342752 0.056640067588393871 0 0.39471167676237467 0.042253265767485657 0 0.42103375757177991 0.044668005793621207 0 0.40834312116342752 0.056640067588393871 0 0.43661232892175972 0.066164257387968009 0 0.42103375757177991 0.044668005793621207 0 0.44735583838118509 0.047082745819756758 0 0.43661232892175972 0.066164257387968009 0 0.41928830031972603 0.067907209073463426 0 0.42103375757177991 0.044668005793621207 0 0.42103375757177991 0.044668005793621207 0 0.43380977410013571 0.02192708218954386 0 0.44735583838118509 0.047082745819756758 0 0.42103375757177991 0.044668005793621207 0 0.44735583838118509 0.047082745819756758 0 0.42103375757177991 0.044668005793621207 0 0.43380977410013571 0.02192708218954386 0 0.40940779194324067 0.024376980532311739 0 0.43380977410013571 0.02192708218954386 0 0.40940779194324067 0.024376980532311739 0 0.4209415306681884 0.011482488601509459 0 0.40940779194324067 0.024376980532311739 0 0.4084350802165197 0.00091553982184491497 0 0.4084350802165197 0.00091553982184491497 0 0.4209415306681884 0.011482488601509459 0 0.43211347641285769 -0.001289648137662684 0 0.40940779194324067 0.024376980532311739 0 0.4084350802165197 0.00091553982184491497 0 0.4209415306681884 0.011482488601509459 0 0.43380977410013571 0.02192708218954386 0 0.4209415306681884 0.011482488601509459 0 0.43211347641285769 -0.001289648137662684 0 0.43380977410013571 0.02192708218954386 0 0.45266200201564288 -0.0022608496494835712 0 0.43211347641285769 -0.001289648137662684 0 0.43380977410013571 0.02192708218954386 0 0.45267436135227651 0.028784320841542789 0 0.45266200201564288 -0.0022608496494835712 0 0.45267436135227651 0.028784320841542789 0 0.46496757147857198 0.01422423746032267 0 0.47950924428356939 0.029475450573546679 0 0.45267436135227651 0.028784320841542789 0 0.46496757147857198 0.01422423746032267 0 0.45266200201564288 -0.0022608496494835712 0 0.46051487418812181 0.071102672103932688 0 0.43661232892175972 0.066164257387968009 0 0.44735583838118509 0.047082745819756758 0 0.43380977410013571 0.02192708218954386 0 0.45267436135227651 0.028784320841542789 0 0.44735583838118509 0.047082745819756758 0 0.45267436135227651 0.028784320841542789 0 0.44735583838118509 0.047082745819756758 0 0.47367791919059038 0.049497485845892322 0 0.45267436135227651 0.028784320841542789 0 0.47367791919059038 0.049497485845892322 0 0.47950924428356939 0.029475450573546679 0 0.44735583838118509 0.047082745819756758 0 0.47367791919059038 0.049497485845892322 0 0.46051487418812181 0.071102672103932688 0 0.44735583838118509 0.047082745819756758 0 0.47367791919059038 0.049497485845892322 0 0.47367791919059038 0.049497485845892322 0 0.49999999999999578 0.051912225872027498 0 0.47950924428356939 0.029475450573546679 0 0.49999999999999578 0.051912225872027498 0 0.47950924428356939 0.029475450573546679 0 0.5 0.023857573373981981 0 0.47367791919059038 0.049497485845892322 0 0.49999999999999578 0.051912225872027498 0 0.48173277133515041 0.06874188656583706 0 0.47367791919059038 0.049497485845892322 0 0.49999999999999578 0.051912225872027498 0 0.46496757147857198 0.01422423746032267 0 0.48486445824408331 0.0095409830035278372 0 0.47804489540914558 -0.019290770787677731 0 0.46496757147857198 0.01422423746032267 0 0.47950924428356939 0.029475450573546679 0 0.48486445824408331 0.0095409830035278372 0 0.47950924428356939 0.029475450573546679 0 0.5 0.023857573373981981 0 0.48486445824408331 0.0095409830035278372 0 0.5 0.023857573373981981 0 0.48486445824408331 0.0095409830035278372 0 0.5 -0.0041970791240638627 0 0.48486445824408331 0.0095409830035278372 0 0.5 -0.0041970791240638627 0 0.47804489540914558 -0.019290770787677731 0 0.47804489540914558 -0.019290770787677731 0 0.5 -0.032251731622109758 0 0.48542816877059058 -0.035781761513438037 0 0.5 -0.0041970791240638627 0 0.47804489540914558 -0.019290770787677731 0 0.5 -0.032251731622109758 0 0.5 -0.032251731622109758 0 0.5 -0.060306384120155647 0 0.49018794901713553 -0.047210445582032412 0 0.5 -0.032251731622109758 0 0.48542816877059058 -0.035781761513438037 0 0.49018794901713553 -0.047210445582032412 0 0.5 -0.060306384120155647 0 0.49018794901713553 -0.047210445582032412 0 0.49416300777769268 -0.06591632302406697 0 0.49018794901713553 -0.047210445582032412 0 0.47347983065608112 -0.044374098061932273 0 0.49416300777769268 -0.06591632302406697 0 0.4786494568836796 -0.05825427823669397 0 0.47347983065608112 -0.044374098061932273 0 0.49416300777769268 -0.06591632302406697 0 0.4786494568836796 -0.05825427823669397 0 0.47347983065608112 -0.044374098061932273 0 0.45708085503704982 -0.057219944393875538 0 0.47347983065608112 -0.044374098061932273 0 0.49416300777769268 -0.06591632302406697 0 0.48542816877059058 -0.035781761513438037 0 0.49018794901713553 -0.047210445582032412 0 0.47347983065608112 -0.044374098061932273 0 0.47804489540914558 -0.019290770787677731 0 0.48542816877059058 -0.035781761513438037 0 0.47347983065608112 -0.044374098061932273 0 0.47347983065608112 -0.044374098061932273 0 0.45279665353446941 -0.022831873099797478 0 0.47347983065608112 -0.044374098061932273 0 0.45691296044201218 -0.041001808234410117 0 0.45279665353446941 -0.022831873099797478 0 0.4786494568836796 -0.05825427823669397 0 0.45708085503704982 -0.057219944393875538 0 0.47347983065608112 -0.044374098061932273 0 0.45691296044201218 -0.041001808234410117 0 0.45708085503704982 -0.057219944393875538 0 0.4786494568836796 -0.05825427823669397 0 0.45708085503704982 -0.057219944393875538 0 0.46599695362343613 -0.071692537742209697 0 0.45708085503704982 -0.057219944393875538 0 0.44429450254044889 -0.039581317382035207 0 0.43551225319041997 -0.056185610551057107 0 0.45708085503704982 -0.057219944393875538 0 0.43551225319041997 -0.056185610551057107 0 0.45708085503704982 -0.057219944393875538 0 0.44333931019522038 -0.066669623599085195 0 0.43551225319041997 -0.056185610551057107 0 0.45691296044201218 -0.041001808234410117 0 0.44429450254044889 -0.039581317382035207 0 0.45279665353446941 -0.022831873099797478 0 0.45691296044201218 -0.041001808234410117 0 0.45708085503704982 -0.057219944393875538 0 0.44429450254044889 -0.039581317382035207 0 0.46496757147857198 0.01422423746032267 0 0.47804489540914558 -0.019290770787677731 0 0.45266200201564288 -0.0022608496494835712 0 0.44429450254044889 -0.039581317382035207 0 0.45279665353446941 -0.022831873099797478 0 0.42651786999510199 -0.021468859153920359 0 0.45279665353446941 -0.022831873099797478 0 0.43211347641285769 -0.001289648137662684 0 0.45279665353446941 -0.022831873099797478 0 0.45266200201564288 -0.0022608496494835712 0 0.43211347641285769 -0.001289648137662684 0 0.47804489540914558 -0.019290770787677731 0 0.45279665353446941 -0.022831873099797478 0 0.45266200201564288 -0.0022608496494835712 0 0.47804489540914558 -0.019290770787677731 0 0.47347983065608112 -0.044374098061932273 0 0.45279665353446941 -0.022831873099797478 0 0.47029572880651332 -0.12010731716521 0 0.5 -0.1164156891162474 0 0.48229349996368209 -0.13618114589043759 0 0.47029572880651332 -0.12010731716521 0 0.5 -0.1164156891162474 0 0.48361612345639671 -0.1028222463038939 0 0.5 -0.1164156891162474 0 0.48361612345639671 -0.1028222463038939 0 0.5 -0.088361036618201549 0 0.48361612345639671 -0.1028222463038939 0 0.4819850675120454 -0.087860655214388184 0 0.46842481298678251 -0.099183676454591252 0 0.47029572880651332 -0.12010731716521 0 0.48361612345639671 -0.1028222463038939 0 0.46842481298678251 -0.099183676454591252 0 0.4819850675120454 -0.087860655214388184 0 0.46854424713756632 -0.084192136890352764 0 0.46842481298678251 -0.099183676454591252 0 0.4819850675120454 -0.087860655214388184 0 0.48035046755194588 -0.073880155733056202 0 0.46854424713756632 -0.084192136890352764 0 0.4819850675120454 -0.087860655214388184 0 0.5 -0.088361036618201549 0 0.49234731337704052 -0.078369857625227565 0 0.48361612345639671 -0.1028222463038939 0 0.4819850675120454 -0.087860655214388184 0 0.5 -0.088361036618201549 0 0.4819850675120454 -0.087860655214388184 0 0.49234731337704052 -0.078369857625227565 0 0.48035046755194588 -0.073880155733056202 0 0.5 -0.060306384120155647 0 0.49234731337704052 -0.078369857625227565 0 0.49416300777769268 -0.06591632302406697 0 0.4786494568836796 -0.05825427823669397 0 0.49416300777769268 -0.06591632302406697 0 0.48035046755194588 -0.073880155733056202 0 0.49234731337704052 -0.078369857625227565 0 0.49416300777769268 -0.06591632302406697 0 0.48035046755194588 -0.073880155733056202 0 0.5 -0.060306384120155647 0 0.5 -0.088361036618201549 0 0.49234731337704052 -0.078369857625227565 0 0.4786494568836796 -0.05825427823669397 0 0.48035046755194588 -0.073880155733056202 0 0.46599695362343613 -0.071692537742209697 0 0.48035046755194588 -0.073880155733056202 0 0.46599695362343613 -0.071692537742209697 0 0.46854424713756632 -0.084192136890352764 0 0.45708085503704982 -0.057219944393875538 0 0.46599695362343613 -0.071692537742209697 0 0.45245829955714822 -0.073173603768702439 0 0.46599695362343613 -0.071692537742209697 0 0.45245829955714822 -0.073173603768702439 0 0.45911800548380272 -0.080993465422328936 0 0.45708085503704982 -0.057219944393875538 0 0.44333931019522038 -0.066669623599085195 0 0.45245829955714822 -0.073173603768702439 0 0.44333931019522038 -0.066669623599085195 0 0.44319132043437559 -0.076914329648998914 0 0.42789307016038242 -0.072263253258265506 0 0.44333931019522038 -0.066669623599085195 0 0.44319132043437559 -0.076914329648998914 0 0.45245829955714822 -0.073173603768702439 0 0.44319132043437559 -0.076914329648998914 0 0.44184248897697348 -0.089375229808293793 0 0.42789307016038242 -0.072263253258265506 0 0.44319132043437559 -0.076914329648998914 0 0.45245829955714822 -0.073173603768702439 0 0.4503687815264884 -0.084320324682392894 0 0.44319132043437559 -0.076914329648998914 0 0.4503687815264884 -0.084320324682392894 0 0.44184248897697348 -0.089375229808293793 0 0.4503687815264884 -0.084320324682392894 0 0.44184248897697348 -0.089375229808293793 0 0.45155623096785008 -0.092942871219248907 0 0.4503687815264884 -0.084320324682392894 0 0.45155623096785008 -0.092942871219248907 0 0.45822174557437412 -0.091588724027986845 0 0.45245829955714822 -0.073173603768702439 0 0.4503687815264884 -0.084320324682392894 0 0.45911800548380272 -0.080993465422328936 0 0.4503687815264884 -0.084320324682392894 0 0.45822174557437412 -0.091588724027986845 0 0.45911800548380272 -0.080993465422328936 0 0.45822174557437412 -0.091588724027986845 0 0.45911800548380272 -0.080993465422328936 0 0.46854424713756632 -0.084192136890352764 0 0.46599695362343613 -0.071692537742209697 0 0.45911800548380272 -0.080993465422328936 0 0.46854424713756632 -0.084192136890352764 0 0.45822174557437412 -0.091588724027986845 0 0.46854424713756632 -0.084192136890352764 0 0.46842481298678251 -0.099183676454591252 0 0.47029572880651332 -0.12010731716521 0 0.46842481298678251 -0.099183676454591252 0 0.45579190779356482 -0.1064872063583221 0 0.45822174557437412 -0.091588724027986845 0 0.46842481298678251 -0.099183676454591252 0 0.45579190779356482 -0.1064872063583221 0 0.45155623096785008 -0.092942871219248907 0 0.45822174557437412 -0.091588724027986845 0 0.45579190779356482 -0.1064872063583221 0 0.45579190779356482 -0.1064872063583221 0 0.44981896286643469 -0.1177136465756988 0 0.43629193371378322 -0.094427137821876256 0 0.44981896286643469 -0.1177136465756988 0 0.43629193371378322 -0.094427137821876256 0 0.44184248897697348 -0.089375229808293793 0 0.45579190779356482 -0.1064872063583221 0 0.43629193371378322 -0.094427137821876256 0 0.44981896286643469 -0.1177136465756988 0 0.43569510184134258 -0.1103459846475582 0 0.43629193371378322 -0.094427137821876256 0 0.44184248897697348 -0.089375229808293793 0 0.45579190779356482 -0.1064872063583221 0 0.44184248897697348 -0.089375229808293793 0 0.45155623096785008 -0.092942871219248907 0 0.45579190779356482 -0.1064872063583221 0 0.44981896286643469 -0.1177136465756988 0 0.43646568753982928 -0.12425530847447031 0 0.43569510184134258 -0.1103459846475582 0 0.47029572880651332 -0.12010731716521 0 0.45579190779356482 -0.1064872063583221 0 0.44981896286643469 -0.1177136465756988 0 0.4085314377512127 -0.110857654811143 0 0.42403659899646717 -0.1153760749698127 0 0.41009958438689392 -0.12717279801833431 0 0.43646568753982928 -0.12425530847447031 0 0.42403659899646717 -0.1153760749698127 0 0.42357325577169891 -0.13284155697646891 0 0.43646568753982928 -0.12425530847447031 0 0.43569510184134258 -0.1103459846475582 0 0.42403659899646717 -0.1153760749698127 0 0.43569510184134258 -0.1103459846475582 0 0.42403659899646717 -0.1153760749698127 0 0.42936023012427688 -0.10280683928260639 0 0.43569510184134258 -0.1103459846475582 0 0.42936023012427688 -0.10280683928260639 0 0.43629193371378322 -0.094427137821876256 0 0.42403659899646717 -0.1153760749698127 0 0.42936023012427688 -0.10280683928260639 0 0.41996121718847479 -0.1009153599582456 0 0.42936023012427688 -0.10280683928260639 0 0.43629193371378322 -0.094427137821876256 0 0.42761290899601467 -0.094187485618818678 0 0.42936023012427688 -0.10280683928260639 0 0.42761290899601467 -0.094187485618818678 0 0.41996121718847479 -0.1009153599582456 0 0.41996121718847479 -0.1009153599582456 0 0.41857751132002691 -0.084836718072217529 0 0.40439062760812389 -0.096635134721827942 0 0.4085314377512127 -0.110857654811143 0 0.42403659899646717 -0.1153760749698127 0 0.41996121718847479 -0.1009153599582456 0 0.4085314377512127 -0.110857654811143 0 0.41996121718847479 -0.1009153599582456 0 0.40439062760812389 -0.096635134721827942 0 0.41857751132002691 -0.084836718072217529 0 0.40523131920780869 -0.076357969781827767 0 0.40439062760812389 -0.096635134721827942 0 0.44184248897697348 -0.089375229808293793 0 0.43044358263343607 -0.087017964915894364 0 0.42789307016038242 -0.072263253258265506 0 0.42761290899601467 -0.094187485618818678 0 0.41857751132002691 -0.084836718072217529 0 0.43044358263343607 -0.087017964915894364 0 0.42761290899601467 -0.094187485618818678 0 0.41996121718847479 -0.1009153599582456 0 0.41857751132002691 -0.084836718072217529 0 0.44184248897697348 -0.089375229808293793 0 0.42789307016038242 -0.072263253258265506 0 0.44184248897697348 -0.089375229808293793 0 0.43629193371378322 -0.094427137821876256 0 0.43044358263343607 -0.087017964915894364 0 0.43629193371378322 -0.094427137821876256 0 0.42761290899601467 -0.094187485618818678 0 0.43044358263343607 -0.087017964915894364 0 0.41857751132002691 -0.084836718072217529 0 0.43044358263343607 -0.087017964915894364 0 0.42789307016038242 -0.072263253258265506 0 0.44333931019522038 -0.066669623599085195 0 0.42789307016038242 -0.072263253258265506 0 0.43551225319041997 -0.056185610551057107 0 0.41857751132002691 -0.084836718072217529 0 0.41278350506704992 -0.067067642009341372 0 0.40523131920780869 -0.076357969781827767 0 0.41278350506704992 -0.067067642009341372 0 0.40523131920780869 -0.076357969781827767 0 0.40607201080749522 -0.056080804841827703 0 0.42789307016038242 -0.072263253258265506 0 0.41394365134379019 -0.055151276708237933 0 0.41857751132002691 -0.084836718072217529 0 0.42789307016038242 -0.072263253258265506 0 0.41278350506704992 -0.067067642009341372 0 0.42789307016038242 -0.072263253258265506 0 0.41278350506704992 -0.067067642009341372 0 0.41394365134379019 -0.055151276708237933 0 0.39972306865802998 -0.06597358760739129 0 0.40523131920780869 -0.076357969781827767 0 0.40607201080749522 -0.056080804841827703 0 0.40523131920780869 -0.076357969781827767 0 0.40607201080749522 -0.056080804841827703 0 0.40523131920780869 -0.076357969781827767 0 0.39312496077783299 -0.069187285422390499 0 0.3866608432514681 -0.077520689991987163 0 0.39972306865802998 -0.06597358760739129 0 0.40523131920780869 -0.076357969781827767 0 0.39312496077783299 -0.069187285422390499 0 0.39972306865802998 -0.06597358760739129 0 0.39312496077783299 -0.069187285422390499 0 0.3906002361503586 -0.058560751152912108 0 0.39312496077783299 -0.069187285422390499 0 0.38340933662149962 -0.067523428577834152 0 0.3906002361503586 -0.058560751152912108 0 0.38340933662149962 -0.067523428577834152 0 0.37570313736119543 -0.075644342360900813 0 0.37512846149322182 -0.061040697463995909 0 0.38340933662149962 -0.067523428577834152 0 0.37570313736119543 -0.075644342360900813 0 0.3866608432514681 -0.077520689991987163 0 0.39312496077783299 -0.069187285422390499 0 0.38340933662149962 -0.067523428577834152 0 0.3866608432514681 -0.077520689991987163 0 0.37570313736119543 -0.075644342360900813 0 0.3866608432514681 -0.077520689991987163 0 0.37566053394977278 -0.089709090195245644 0 0.3866608432514681 -0.077520689991987163 0 0.37566053394977278 -0.089709090195245644 0 0.39040412944060682 -0.0916018455533847 0 0.40523131920780869 -0.076357969781827767 0 0.39040412944060682 -0.0916018455533847 0 0.40439062760812389 -0.096635134721827942 0 0.40523131920780869 -0.076357969781827767 0 0.3866608432514681 -0.077520689991987163 0 0.39040412944060682 -0.0916018455533847 0 0.40523131920780869 -0.076357969781827767 0 0.40439062760812389 -0.096635134721827942 0 0.4085314377512127 -0.110857654811143 0 0.40439062760812389 -0.096635134721827942 0 0.3930256082318892 -0.10626676041142211 0 0.39040412944060682 -0.0916018455533847 0 0.40439062760812389 -0.096635134721827942 0 0.3930256082318892 -0.10626676041142211 0 0.39040412944060682 -0.0916018455533847 0 0.3930256082318892 -0.10626676041142211 0 0.37621682752539481 -0.10491019466641099 0 0.37566053394977278 -0.089709090195245644 0 0.39040412944060682 -0.0916018455533847 0 0.37621682752539481 -0.10491019466641099 0 0.3930256082318892 -0.10626676041142211 0 0.38083013693261908 -0.123454079406251 0 0.39723402615958042 -0.1208073479532978 0 0.3930256082318892 -0.10626676041142211 0 0.37621682752539481 -0.10491019466641099 0 0.38083013693261908 -0.123454079406251 0 0.4085314377512127 -0.110857654811143 0 0.39723402615958042 -0.1208073479532978 0 0.41009958438689392 -0.12717279801833431 0 0.4085314377512127 -0.110857654811143 0 0.3930256082318892 -0.10626676041142211 0 0.39723402615958042 -0.1208073479532978 0 0.40746236848979878 -0.022545900888621979 0 0.42651786999510199 -0.021468859153920359 0 0.41660208887638023 -0.034279405896392737 0 0.4084350802165197 0.00091553982184491497 0 0.40746236848979878 -0.022545900888621979 0 0.42651786999510199 -0.021468859153920359 0 0.4084350802165197 0.00091553982184491497 0 0.40746236848979878 -0.022545900888621979 0 0.45279665353446941 -0.022831873099797478 0 0.43211347641285769 -0.001289648137662684 0 0.42651786999510199 -0.021468859153920359 0 0.4084350802165197 0.00091553982184491497 0 0.43211347641285769 -0.001289648137662684 0 0.42651786999510199 -0.021468859153920359 0 0.42748429278453359 -0.03853039015918918 0 0.43551225319041997 -0.056185610551057107 0 0.41955637656961742 -0.045741144319006943 0 0.42651786999510199 -0.021468859153920359 0 0.42748429278453359 -0.03853039015918918 0 0.41660208887638023 -0.034279405896392737 0 0.44429450254044889 -0.039581317382035207 0 0.42748429278453359 -0.03853039015918918 0 0.43551225319041997 -0.056185610551057107 0 0.44429450254044889 -0.039581317382035207 0 0.42651786999510199 -0.021468859153920359 0 0.42748429278453359 -0.03853039015918918 0 0.43551225319041997 -0.056185610551057107 0 0.41394365134379019 -0.055151276708237933 0 0.41955637656961742 -0.045741144319006943 0 0.42789307016038242 -0.072263253258265506 0 0.43551225319041997 -0.056185610551057107 0 0.41394365134379019 -0.055151276708237933 0 0.43551225319041997 -0.056185610551057107 0 0.41394365134379019 -0.055151276708237933 0 0.40971346471147979 -0.055650801231358307 0 0.40648965676307691 -0.046007341599088737 0 0.40607201080749522 -0.056080804841827703 0 0.41394365134379019 -0.055151276708237933 0 0.40648965676307691 -0.046007341599088737 0 0.41394365134379019 -0.055151276708237933 0 0.41955637656961742 -0.045741144319006943 0 0.40648965676307691 -0.046007341599088737 0 0.41394365134379019 -0.055151276708237933 0 0.40971346471147979 -0.055650801231358307 0 0.40648965676307691 -0.046007341599088737 0 0.40648965676307691 -0.046007341599088737 0 0.40607201080749522 -0.056080804841827703 0 0.41278350506704992 -0.067067642009341372 0 0.41394365134379019 -0.055151276708237933 0 0.40971346471147979 -0.055650801231358307 0 0.41278350506704992 -0.067067642009341372 0 0.40971346471147979 -0.055650801231358307 0 0.40607201080749522 -0.056080804841827703 0 0.41394365134379019 -0.055151276708237933 0 0.40971346471147979 -0.055650801231358307 0 0.40971346471147979 -0.055650801231358307 0 0.40607201080749522 -0.056080804841827703 0 0.40746236848979878 -0.022545900888621979 0 0.40648965676307691 -0.046007341599088737 0 0.40746236848979878 -0.022545900888621979 0 0.41660208887638023 -0.034279405896392737 0 0.40648965676307691 -0.046007341599088737 0 0.41660208887638023 -0.034279405896392737 0 0.41955637656961742 -0.045741144319006943 0 0.40648965676307691 -0.046007341599088737 0 0.42748429278453359 -0.03853039015918918 0 0.41660208887638023 -0.034279405896392737 0 0.41955637656961742 -0.045741144319006943 0 0.40648965676307691 -0.046007341599088737 0 0.39123857078614499 -0.027298588995769011 0 0.40746236848979878 -0.022545900888621979 0 0.40648965676307691 -0.046007341599088737 0 0.39123857078614499 -0.027298588995769011 0 0.40648965676307691 -0.046007341599088737 0 0.39378043508274918 -0.044557404490398217 0 0.39123857078614499 -0.027298588995769011 0 0.40648965676307691 -0.046007341599088737 0 0.39378043508274918 -0.044557404490398217 0 0.40053621309641879 -0.049904963532018447 0 0.39972306865802998 -0.06597358760739129 0 0.40607201080749522 -0.056080804841827703 0 0.3906002361503586 -0.058560751152912108 0 0.40607201080749522 -0.056080804841827703 0 0.39574866831771338 -0.054278726561168347 0 0.40607201080749522 -0.056080804841827703 0 0.40053621309641879 -0.049904963532018447 0 0.39574866831771338 -0.054278726561168347 0 0.40648965676307691 -0.046007341599088737 0 0.40607201080749522 -0.056080804841827703 0 0.40053621309641879 -0.049904963532018447 0 0.39574866831771338 -0.054278726561168347 0 0.3906002361503586 -0.058560751152912108 0 0.3901469031079155 -0.050481671763877189 0 0.39378043508274918 -0.044557404490398217 0 0.39574866831771338 -0.054278726561168347 0 0.3901469031079155 -0.050481671763877189 0 0.39378043508274918 -0.044557404490398217 0 0.40053621309641879 -0.049904963532018447 0 0.39574866831771338 -0.054278726561168347 0 0.40607201080749522 -0.056080804841827703 0 0.39574866831771338 -0.054278726561168347 0 0.3906002361503586 -0.058560751152912108 0 0.40607201080749522 -0.056080804841827703 0 0.3906002361503586 -0.058560751152912108 0 0.3906002361503586 -0.058560751152912108 0 0.37512846149322182 -0.061040697463995909 0 0.3906002361503586 -0.058560751152912108 0 0.3843965776152829 -0.05382719670346868 0 0.37771682036902582 -0.057872332679418818 0 0.38340933662149962 -0.067523428577834152 0 0.3906002361503586 -0.058560751152912108 0 0.37512846149322182 -0.061040697463995909 0 0.3906002361503586 -0.058560751152912108 0 0.3843965776152829 -0.05382719670346868 0 0.3901469031079155 -0.050481671763877189 0 0.39378043508274918 -0.044557404490398217 0 0.3901469031079155 -0.050481671763877189 0 0.38398296785422281 -0.046940536051995572 0 0.3843965776152829 -0.05382719670346868 0 0.3901469031079155 -0.050481671763877189 0 0.38398296785422281 -0.046940536051995572 0 0.38398296785422281 -0.046940536051995572 0 0.37948982929160763 -0.053382753885805087 0 0.37455305884360679 -0.050057248125451412 0 0.37948982929160763 -0.053382753885805087 0 0.37455305884360679 -0.050057248125451412 0 0.37438835498578937 -0.055980553087507053 0 0.3843965776152829 -0.05382719670346868 0 0.38398296785422281 -0.046940536051995572 0 0.37948982929160763 -0.053382753885805087 0 0.3906002361503586 -0.058560751152912108 0 0.37771682036902582 -0.057872332679418818 0 0.37512846149322182 -0.061040697463995909 0 0.3843965776152829 -0.05382719670346868 0 0.37948982929160763 -0.053382753885805087 0 0.37771682036902582 -0.057872332679418818 0 0.37948982929160763 -0.053382753885805087 0 0.37771682036902582 -0.057872332679418818 0 0.37438835498578937 -0.055980553087507053 0 0.37771682036902582 -0.057872332679418818 0 0.37512846149322182 -0.061040697463995909 0 0.37438835498578937 -0.055980553087507053 0 0.37771682036902582 -0.057872332679418818 0 0.37512846149322182 -0.061040697463995909 0 0.39378043508274918 -0.044557404490398217 0 0.38337427959007742 -0.038245411376754718 0 0.39123857078614499 -0.027298588995769011 0 0.38337427959007742 -0.038245411376754718 0 0.39123857078614499 -0.027298588995769011 0 0.37456672018055431 -0.03112731568379026 0 0.39378043508274918 -0.044557404490398217 0 0.38398296785422281 -0.046940536051995572 0 0.38337427959007742 -0.038245411376754718 0 0.38398296785422281 -0.046940536051995572 0 0.37358543110384429 -0.041497545266376439 0 0.37455305884360679 -0.050057248125451412 0 0.38398296785422281 -0.046940536051995572 0 0.38337427959007742 -0.038245411376754718 0 0.37358543110384429 -0.041497545266376439 0 0.38337427959007742 -0.038245411376754718 0 0.37456672018055431 -0.03112731568379026 0 0.37358543110384429 -0.041497545266376439 0 0.39123857078614499 -0.027298588995769011 0 0.37598748480921401 -0.0085898363924484626 0 0.39123857078614499 -0.027298588995769011 0 0.37598748480921401 -0.0085898363924484626 0 0.37456672018055431 -0.03112731568379026 0 0.40746236848979878 -0.022545900888621979 0 0.39123857078614499 -0.027298588995769011 0 0.39475890918382112 -0.0097235968367020888 0 0.4084350802165197 0.00091553982184491497 0 0.40746236848979878 -0.022545900888621979 0 0.39475890918382112 -0.0097235968367020888 0 0.39006617000486082 0.01001534773427367 0 0.39475890918382112 -0.0097235968367020888 0 0.37598748480921401 -0.0085898363924484626 0 0.39123857078614499 -0.027298588995769011 0 0.39475890918382112 -0.0097235968367020888 0 0.37598748480921401 -0.0085898363924484626 0 0.36073639883228298 0.010118916210872009 0 0.37598748480921401 -0.0085898363924484626 0 0.35478009618754641 -0.017961861507902788 0 0.37456672018055431 -0.03112731568379026 0 0.35478009618754641 -0.017961861507902788 0 0.36326250422900619 -0.038516729667013118 0 0.37598748480921401 -0.0085898363924484626 0 0.37456672018055431 -0.03112731568379026 0 0.35478009618754641 -0.017961861507902788 0 0.35478009618754641 -0.017961861507902788 0 0.33852940524291081 -0.011509137617495779 0 0.33864684001281142 -0.031257204727744757 0 0.35821223192910012 0.01062893460296665 0 0.35478009618754641 -0.017961861507902788 0 0.35821223192910012 0.01062893460296665 0 0.3428566321824339 0.0055570937918707763 0 0.35478009618754641 -0.017961861507902788 0 0.3428566321824339 0.0055570937918707763 0 0.35478009618754641 -0.017961861507902788 0 0.33852940524291081 -0.011509137617495779 0 0.325883089216841 0.00030087900974781837 0 0.33852940524291081 -0.011509137617495779 0 0.32514575506231191 -0.017070165782396261 0 0.3428566321824339 0.0055570937918707763 0 0.325883089216841 0.00030087900974781837 0 0.33852940524291081 -0.011509137617495779 0 0.33852940524291081 -0.011509137617495779 0 0.32514575506231191 -0.017070165782396261 0 0.33864684001281142 -0.031257204727744757 0 0.32514575506231191 -0.017070165782396261 0 0.32260775908014311 -0.032134217359134798 0 0.33864684001281142 -0.031257204727744757 0 0.32514575506231191 -0.017070165782396261 0 0.32260775908014311 -0.032134217359134798 0 0.31200993992300963 -0.02243836744084177 0 0.325883089216841 0.00030087900974781837 0 0.32514575506231191 -0.017070165782396261 0 0.30781928645641449 -0.0066575603602469554 0 0.32514575506231191 -0.017070165782396261 0 0.30781928645641449 -0.0066575603602469554 0 0.31200993992300963 -0.02243836744084177 0 0.32058169288092908 -0.064908920309156737 0 0.30810122446232602 -0.039908870372795308 0 0.32715394586750579 -0.047480112098639088 0 0.32727279023588612 -0.061611290597459817 0 0.32058169288092908 -0.064908920309156737 0 0.32715394586750579 -0.047480112098639088 0 0.32058169288092908 -0.064908920309156737 0 0.30810122446232602 -0.039908870372795308 0 0.32715394586750579 -0.047480112098639088 0 0.32260775908014311 -0.032134217359134798 0 0.30810122446232602 -0.039908870372795308 0 0.32260775908014311 -0.032134217359134798 0 0.31200993992300963 -0.02243836744084177 0 0.30810122446232602 -0.039908870372795308 0 0.32715394586750579 -0.047480112098639088 0 0.30810122446232602 -0.039908870372795308 0 0.32715394586750579 -0.047480112098639088 0 0.32260775908014311 -0.032134217359134798 0 0.33864684001281142 -0.031257204727744757 0 0.32715394586750579 -0.047480112098639088 0 0.33864684001281142 -0.031257204727744757 0 0.33917335343928851 -0.0449920820640273 0 0.33864684001281142 -0.031257204727744757 0 0.33917335343928851 -0.0449920820640273 0 0.3513479604459927 -0.046552657618772218 0 0.32715394586750579 -0.047480112098639088 0 0.33449163283192551 -0.059731541384776897 0 0.34620666727268568 -0.055051353824483042 0 0.32715394586750579 -0.047480112098639088 0 0.33917335343928851 -0.0449920820640273 0 0.34620666727268568 -0.055051353824483042 0 0.32715394586750579 -0.047480112098639088 0 0.34620666727268568 -0.055051353824483042 0 0.32715394586750579 -0.047480112098639088 0 0.32727279023588612 -0.061611290597459817 0 0.33449163283192551 -0.059731541384776897 0 0.33449163283192551 -0.059731541384776897 0 0.34620666727268568 -0.055051353824483042 0 0.34556254518854729 -0.065779771468010159 0 0.34620666727268568 -0.055051353824483042 0 0.36525938867786539 -0.062622595550326912 0 0.34620666727268568 -0.055051353824483042 0 0.35864615853603848 -0.053677692045545233 0 0.36525938867786539 -0.062622595550326912 0 0.34620666727268568 -0.055051353824483042 0 0.36525938867786539 -0.062622595550326912 0 0.34556254518854729 -0.065779771468010159 0 0.33917335343928851 -0.0449920820640273 0 0.34620666727268568 -0.055051353824483042 0 0.3513479604459927 -0.046552657618772218 0 0.34620666727268568 -0.055051353824483042 0 0.35864615853603848 -0.053677692045545233 0 0.3513479604459927 -0.046552657618772218 0 0.35864615853603848 -0.053677692045545233 0 0.3513479604459927 -0.046552657618772218 0 0.35996251559246401 -0.046539605062205142 0 0.35478009618754641 -0.017961861507902788 0 0.3513479604459927 -0.046552657618772218 0 0.35478009618754641 -0.017961861507902788 0 0.33864684001281142 -0.031257204727744757 0 0.3513479604459927 -0.046552657618772218 0 0.35478009618754641 -0.017961861507902788 0 0.3513479604459927 -0.046552657618772218 0 0.36326250422900619 -0.038516729667013118 0 0.3513479604459927 -0.046552657618772218 0 0.36326250422900619 -0.038516729667013118 0 0.35996251559246401 -0.046539605062205142 0 0.36326250422900619 -0.038516729667013118 0 0.35996251559246401 -0.046539605062205142 0 0.36659343915881881 -0.047411340917489997 0 0.36326250422900619 -0.038516729667013118 0 0.37358543110384429 -0.041497545266376439 0 0.36659343915881881 -0.047411340917489997 0 0.37358543110384429 -0.041497545266376439 0 0.36659343915881881 -0.047411340917489997 0 0.37455305884360679 -0.050057248125451412 0 0.37456672018055431 -0.03112731568379026 0 0.36326250422900619 -0.038516729667013118 0 0.37358543110384429 -0.041497545266376439 0 0.35864615853603848 -0.053677692045545233 0 0.36552272825880933 -0.055707863362626828 0 0.36525938867786539 -0.062622595550326912 0 0.36552272825880933 -0.055707863362626828 0 0.37009339960989479 -0.057867978968779633 0 0.36525938867786539 -0.062622595550326912 0 0.35864615853603848 -0.053677692045545233 0 0.36552272825880933 -0.055707863362626828 0 0.36659343915881881 -0.047411340917489997 0 0.35864615853603848 -0.053677692045545233 0 0.35996251559246401 -0.046539605062205142 0 0.36659343915881881 -0.047411340917489997 0 0.36552272825880933 -0.055707863362626828 0 0.36659343915881881 -0.047411340917489997 0 0.37016806463378821 -0.053988185379441479 0 0.36659343915881881 -0.047411340917489997 0 0.37016806463378821 -0.053988185379441479 0 0.37455305884360679 -0.050057248125451412 0 0.37016806463378821 -0.053988185379441479 0 0.37455305884360679 -0.050057248125451412 0 0.37438835498578937 -0.055980553087507053 0 0.37512846149322182 -0.061040697463995909 0 0.36525938867786539 -0.062622595550326912 0 0.37512846149322182 -0.061040697463995909 0 0.37009339960989479 -0.057867978968779633 0 0.36525938867786539 -0.062622595550326912 0 0.37512846149322182 -0.061040697463995909 0 0.37438835498578937 -0.055980553087507053 0 0.37009339960989479 -0.057867978968779633 0 0.37016806463378821 -0.053988185379441479 0 0.37438835498578937 -0.055980553087507053 0 0.37009339960989479 -0.057867978968779633 0 0.36552272825880933 -0.055707863362626828 0 0.37016806463378821 -0.053988185379441479 0 0.37009339960989479 -0.057867978968779633 0 0.37570313736119543 -0.075644342360900813 0 0.37512846149322182 -0.061040697463995909 0 0.37164596366831931 -0.065303562082163494 0 0.37512846149322182 -0.061040697463995909 0 0.37164596366831931 -0.065303562082163494 0 0.37164596366831931 -0.065303562082163494 0 0.35765651149001498 -0.08242780557544116 0 0.37570313736119543 -0.075644342360900813 0 0.37164596366831931 -0.065303562082163494 0 0.35765651149001498 -0.08242780557544116 0 0.37164596366831931 -0.065303562082163494 0 0.35765651149001498 -0.08242780557544116 0 0.35746841276791491 -0.070361955652925523 0 0.37512846149322182 -0.061040697463995909 0 0.37164596366831931 -0.065303562082163494 0 0.36525938867786539 -0.062622595550326912 0 0.37164596366831931 -0.065303562082163494 0 0.36525938867786539 -0.062622595550326912 0 0.37164596366831931 -0.065303562082163494 0 0.36525938867786539 -0.062622595550326912 0 0.35746841276791491 -0.070361955652925523 0 0.37566053394977278 -0.089709090195245644 0 0.35765651149001498 -0.08242780557544116 0 0.36190613433388491 -0.098756937380804793 0 0.37570313736119543 -0.075644342360900813 0 0.37566053394977278 -0.089709090195245644 0 0.35765651149001498 -0.08242780557544116 0 0.35765651149001498 -0.08242780557544116 0 0.34018456148680848 -0.1038149136868867 0 0.34313145450150939 -0.085862428112786091 0 0.35765651149001498 -0.08242780557544116 0 0.34018456148680848 -0.1038149136868867 0 0.35765651149001498 -0.08242780557544116 0 0.34857100332780289 -0.076344099867542092 0 0.34313145450150939 -0.085862428112786091 0 0.34857100332780289 -0.076344099867542092 0 0.34556254518854729 -0.065779771468010159 0 0.33903609269102758 -0.077288538528547515 0 0.36525938867786539 -0.062622595550326912 0 0.34556254518854729 -0.065779771468010159 0 0.36525938867786539 -0.062622595550326912 0 0.34556254518854729 -0.065779771468010159 0 0.35746841276791491 -0.070361955652925523 0 0.34857100332780289 -0.076344099867542092 0 0.34556254518854729 -0.065779771468010159 0 0.35746841276791491 -0.070361955652925523 0 0.35765651149001498 -0.08242780557544116 0 0.34857100332780289 -0.076344099867542092 0 0.35746841276791491 -0.070361955652925523 0 0.37621682752539481 -0.10491019466641099 0 0.38083013693261908 -0.123454079406251 0 0.35981223721743327 -0.1129226827800394 0 0.38083013693261908 -0.123454079406251 0 0.35981223721743327 -0.1129226827800394 0 0.36387019081085431 -0.13351501557918971 0 0.37621682752539481 -0.10491019466641099 0 0.35981223721743327 -0.1129226827800394 0 0.36190613433388491 -0.098756937380804793 0 0.37566053394977278 -0.089709090195245644 0 0.37621682752539481 -0.10491019466641099 0 0.36190613433388491 -0.098756937380804793 0 0.35765651149001498 -0.08242780557544116 0 0.36190613433388491 -0.098756937380804793 0 0.34018456148680848 -0.1038149136868867 0 0.35981223721743327 -0.1129226827800394 0 0.36190613433388491 -0.098756937380804793 0 0.34018456148680848 -0.1038149136868867 0 0.35981223721743327 -0.1129226827800394 0 0.34864541948755662 -0.12381602966498589 0 0.34018456148680848 -0.1038149136868867 0 0.35981223721743327 -0.1129226827800394 0 0.34864541948755662 -0.12381602966498589 0 0.36387019081085431 -0.13351501557918971 0 0.34864541948755662 -0.12381602966498589 0 0.34018456148680848 -0.1038149136868867 0 0.33507887105419493 -0.12733510376549989 0 0.34018456148680848 -0.1038149136868867 0 0.32271261148360197 -0.12520202179833231 0 0.33507887105419493 -0.12733510376549989 0 0.34018456148680848 -0.1038149136868867 0 0.32271261148360197 -0.12520202179833231 0 0.34018456148680848 -0.1038149136868867 0 0.32243306050858223 -0.1094673051798859 0 0.32271261148360197 -0.12520202179833231 0 0.34018456148680848 -0.1038149136868867 0 0.32204467667475939 -0.096537907484363361 0 0.33306216129953231 -0.089908970245518055 0 0.34018456148680848 -0.1038149136868867 0 0.32204467667475939 -0.096537907484363361 0 0.32243306050858223 -0.1094673051798859 0 0.32204467667475939 -0.096537907484363361 0 0.30728069887274673 -0.088451478314213933 0 0.31079090986695901 -0.1048291147777837 0 0.32204467667475939 -0.096537907484363361 0 0.32243306050858223 -0.1094673051798859 0 0.31079090986695901 -0.1048291147777837 0 0.32243306050858223 -0.1094673051798859 0 0.31285644190352868 -0.11802368689918979 0 0.32271261148360197 -0.12520202179833231 0 0.32243306050858223 -0.1094673051798859 0 0.31285644190352868 -0.11802368689918979 0 0.31079090986695901 -0.1048291147777837 0 0.34556254518854729 -0.065779771468010159 0 0.32586570169922918 -0.068936947385693476 0 0.33449163283192551 -0.059731541384776897 0 0.34556254518854729 -0.065779771468010159 0 0.32586570169922918 -0.068936947385693476 0 0.34556254518854729 -0.065779771468010159 0 0.33903609269102758 -0.077288538528547515 0 0.32586570169922918 -0.068936947385693476 0 0.32727279023588612 -0.061611290597459817 0 0.33449163283192551 -0.059731541384776897 0 0.32586570169922918 -0.068936947385693476 0 0.33903609269102758 -0.077288538528547515 0 0.34313145450150939 -0.085862428112786091 0 0.33306216129953231 -0.089908970245518055 0 0.34857100332780289 -0.076344099867542092 0 0.33903609269102758 -0.077288538528547515 0 0.34313145450150939 -0.085862428112786091 0 0.33903609269102758 -0.077288538528547515 0 0.33306216129953231 -0.089908970245518055 0 0.32586570169922918 -0.068936947385693476 0 0.34018456148680848 -0.1038149136868867 0 0.34313145450150939 -0.085862428112786091 0 0.33306216129953231 -0.089908970245518055 0 0.33306216129953231 -0.089908970245518055 0 0.31851666801392808 -0.082755662701891927 0 0.32058169288092908 -0.064908920309156737 0 0.32204467667475939 -0.096537907484363361 0 0.33306216129953231 -0.089908970245518055 0 0.31851666801392808 -0.082755662701891927 0 0.32204467667475939 -0.096537907484363361 0 0.31851666801392808 -0.082755662701891927 0 0.30728069887274673 -0.088451478314213933 0 0.31851666801392808 -0.082755662701891927 0 0.32058169288092908 -0.064908920309156737 0 0.30768220832094723 -0.072398522296300352 0 0.33306216129953231 -0.089908970245518055 0 0.32058169288092908 -0.064908920309156737 0 0.33306216129953231 -0.089908970245518055 0 0.32586570169922918 -0.068936947385693476 0 0.32058169288092908 -0.064908920309156737 0 0.32727279023588612 -0.061611290597459817 0 0.32586570169922918 -0.068936947385693476 0 0.32058169288092908 -0.064908920309156737 0 0.30768220832094723 -0.072398522296300352 0 0.2851151506863534 -0.072941393886813297 0 0.30065522064337802 -0.059241308152784708 0 0.32058169288092908 -0.064908920309156737 0 0.30768220832094723 -0.072398522296300352 0 0.30065522064337802 -0.059241308152784708 0 0.31851666801392808 -0.082755662701891927 0 0.30768220832094723 -0.072398522296300352 0 0.30728069887274673 -0.088451478314213933 0 0.30768220832094723 -0.072398522296300352 0 0.30728069887274673 -0.088451478314213933 0 0.28954304614624832 -0.09006197063998822 0 0.30768220832094723 -0.072398522296300352 0 0.28954304614624832 -0.09006197063998822 0 0.2851151506863534 -0.072941393886813297 0 0.28954304614624832 -0.09006197063998822 0 0.2851151506863534 -0.072941393886813297 0 0.2737595064001519 -0.098159995999437422 0 0.31285644190352868 -0.11802368689918979 0 0.29831263576156508 -0.1175630556000723 0 0.30312791298519309 -0.12982937227971381 0 0.31285644190352868 -0.11802368689918979 0 0.29831263576156508 -0.1175630556000723 0 0.31079090986695901 -0.1048291147777837 0 0.30728069887274673 -0.088451478314213933 0 0.31079090986695901 -0.1048291147777837 0 0.29374874525637179 -0.1036802551877623 0 0.29831263576156508 -0.1175630556000723 0 0.31079090986695901 -0.1048291147777837 0 0.29374874525637179 -0.1036802551877623 0 0.29374874525637179 -0.1036802551877623 0 0.2823481823627077 -0.1182979433102105 0 0.2737595064001519 -0.098159995999437422 0 0.30728069887274673 -0.088451478314213933 0 0.28954304614624832 -0.09006197063998822 0 0.29374874525637179 -0.1036802551877623 0 0.28954304614624832 -0.09006197063998822 0 0.29374874525637179 -0.1036802551877623 0 0.2737595064001519 -0.098159995999437422 0 0.29831263576156508 -0.1175630556000723 0 0.2823481823627077 -0.1182979433102105 0 0.29036178868452939 -0.1319241357976452 0 0.29831263576156508 -0.1175630556000723 0 0.29374874525637179 -0.1036802551877623 0 0.2823481823627077 -0.1182979433102105 0 0.2737595064001519 -0.098159995999437422 0 0.26240386211395028 -0.1233785981120616 0 0.2823481823627077 -0.1182979433102105 0 0.2737595064001519 -0.098159995999437422 0 0.26240386211395028 -0.1233785981120616 0 0.25957330455821948 -0.085320768534336511 0 0.24994483656663891 -0.1061256540670502 0 0.24245284515590679 -0.093863833233518226 0 0.2737595064001519 -0.098159995999437422 0 0.26240386211395028 -0.1233785981120616 0 0.24994483656663891 -0.1061256540670502 0 0.2737595064001519 -0.098159995999437422 0 0.25957330455821948 -0.085320768534336511 0 0.24994483656663891 -0.1061256540670502 0 0.26240386211395028 -0.1233785981120616 0 0.24994483656663891 -0.1061256540670502 0 0.24393906892098721 -0.1259442153439837 0 0.2851151506863534 -0.072941393886813297 0 0.25957330455821948 -0.085320768534336511 0 0.26819766443795701 -0.059938507515403062 0 0.2851151506863534 -0.072941393886813297 0 0.2737595064001519 -0.098159995999437422 0 0.2851151506863534 -0.072941393886813297 0 0.2737595064001519 -0.098159995999437422 0 0.25957330455821948 -0.085320768534336511 0 0.25957330455821948 -0.085320768534336511 0 0.25002621826855981 -0.068739235795218789 0 0.24245284515590679 -0.093863833233518226 0 0.25957330455821948 -0.085320768534336511 0 0.25002621826855981 -0.068739235795218789 0 0.26819766443795701 -0.059938507515403062 0 0.25002621826855981 -0.068739235795218789 0 0.25759959138121291 -0.043614638356919297 0 0.25002621826855981 -0.068739235795218789 0 0.26819766443795701 -0.059938507515403062 0 0.25759959138121291 -0.043614638356919297 0 0.2851151506863534 -0.072941393886813297 0 0.26819766443795701 -0.059938507515403062 0 0.28506567698571328 -0.049989187832047623 0 0.26819766443795701 -0.059938507515403062 0 0.27180604474768322 -0.039025820687082803 0 0.25759959138121291 -0.043614638356919297 0 0.26819766443795701 -0.059938507515403062 0 0.27180604474768322 -0.039025820687082803 0 0.28506567698571328 -0.049989187832047623 0 0.27180604474768322 -0.039025820687082803 0 0.28622264951810561 -0.031214680393475299 0 0.28506567698571328 -0.049989187832047623 0 0.25759959138121291 -0.043614638356919297 0 0.26399020841485221 -0.0224138236123936 0 0.25759959138121291 -0.043614638356919297 0 0.26399020841485221 -0.0224138236123936 0 0.24956736139890351 -0.030837517079297161 0 0.27180604474768322 -0.039025820687082803 0 0.25759959138121291 -0.043614638356919297 0 0.26399020841485221 -0.0224138236123936 0 0.25080229761055728 -0.017245066800580459 0 0.26517296449386579 -0.018490040918619919 0 0.24956736139890351 -0.030837517079297161 0 0.26517296449386579 -0.018490040918619919 0 0.26399020841485221 -0.0224138236123936 0 0.26517296449386579 -0.018490040918619919 0 0.26399020841485221 -0.0224138236123936 0 0.24956736139890351 -0.030837517079297161 0 0.2592490732137257 0.0017951579894068591 0 0.26517296449386579 -0.018490040918619919 0 0.25677534033299271 -0.01025090955497422 0 0.2592490732137257 0.0017951579894068591 0 0.25045753469988208 -0.0069632004254019291 0 0.25677534033299271 -0.01025090955497422 0 0.24397708060534851 0.00076903392350891183 0 0.2592490732137257 0.0017951579894068591 0 0.25045753469988208 -0.0069632004254019291 0 0.25080229761055728 -0.017245066800580459 0 0.26517296449386579 -0.018490040918619919 0 0.25677534033299271 -0.01025090955497422 0 0.25080229761055728 -0.017245066800580459 0 0.25045753469988208 -0.0069632004254019291 0 0.25677534033299271 -0.01025090955497422 0 0.27274633760651879 0.0066345565196794382 0 0.26517296449386579 -0.018490040918619919 0 0.28004840048999402 -0.01588228846309267 0 0.27274633760651879 0.0066345565196794382 0 0.26517296449386579 -0.018490040918619919 0 0.27274633760651879 0.0066345565196794382 0 0.28004840048999402 -0.01588228846309267 0 0.28918600301924502 -0.0059440216791364318 0 0.27274633760651879 0.0066345565196794382 0 0.2592490732137257 0.0017951579894068591 0 0.26517296449386579 -0.018490040918619919 0 0.26399020841485221 -0.0224138236123936 0 0.28622264951810561 -0.031214680393475299 0 0.26517296449386579 -0.018490040918619919 0 0.26399020841485221 -0.0224138236123936 0 0.28004840048999402 -0.01588228846309267 0 0.26399020841485221 -0.0224138236123936 0 0.28004840048999402 -0.01588228846309267 0 0.28622264951810561 -0.031214680393475299 0 0.27180604474768322 -0.039025820687082803 0 0.26399020841485221 -0.0224138236123936 0 0.28622264951810561 -0.031214680393475299 0 0.28004840048999402 -0.01588228846309267 0 0.29637567455385222 -0.016421023329635541 0 0.28622264951810561 -0.031214680393475299 0 0.28004840048999402 -0.01588228846309267 0 0.29637567455385222 -0.016421023329635541 0 0.28918600301924502 -0.0059440216791364318 0 0.29637567455385222 -0.016421023329635541 0 0.28918600301924502 -0.0059440216791364318 0 0.30781928645641449 -0.0066575603602469554 0 0.2952835909861769 0.0053480230237554251 0 0.28918600301924502 -0.0059440216791364318 0 0.30781928645641449 -0.0066575603602469554 0 0.29637567455385222 -0.016421023329635541 0 0.30781928645641449 -0.0066575603602469554 0 0.31200993992300963 -0.02243836744084177 0 0.29637567455385222 -0.016421023329635541 0 0.31200993992300963 -0.02243836744084177 0 0.30810122446232602 -0.039908870372795308 0 0.29637567455385222 -0.016421023329635541 0 0.28622264951810561 -0.031214680393475299 0 0.30810122446232602 -0.039908870372795308 0 0.29637567455385222 -0.016421023329635541 0 0.30810122446232602 -0.039908870372795308 0 0.28622264951810561 -0.031214680393475299 0 0.30810122446232602 -0.039908870372795308 0 0.32058169288092908 -0.064908920309156737 0 0.30810122446232602 -0.039908870372795308 0 0.30065522064337802 -0.059241308152784708 0 0.30810122446232602 -0.039908870372795308 0 0.30065522064337802 -0.059241308152784708 0 0.28506567698571328 -0.049989187832047623 0 0.2851151506863534 -0.072941393886813297 0 0.30065522064337802 -0.059241308152784708 0 0.28506567698571328 -0.049989187832047623 0 0.28622264951810561 -0.031214680393475299 0 0.30810122446232602 -0.039908870372795308 0 0.28506567698571328 -0.049989187832047623 0 0.29851028722249229 -0.20917098549780361 0 0.29282145459340558 -0.22417780122214781 0 0.27461149564146647 -0.2166202503021997 0 0.29851028722249229 -0.20917098549780361 0 0.27461149564146647 -0.2166202503021997 0 0.27577074333842139 -0.1982189816437516 0 0.29977654316022923 -0.19319302922005571 0 0.27577074333842139 -0.1982189816437516 0 0.28640400582559072 -0.18506526670647749 0 0.29977654316022923 -0.19319302922005571 0 0.29851028722249229 -0.20917098549780361 0 0.27577074333842139 -0.1982189816437516 0 0.29977654316022923 -0.19319302922005571 0 0.31359180440996148 -0.1831885983994091 0 0.31378344461284458 -0.2001709938187152 0 0.29977654316022923 -0.19319302922005571 0 0.29851028722249229 -0.20917098549780361 0 0.31378344461284458 -0.2001709938187152 0 0.29851028722249229 -0.20917098549780361 0 0.31397508481572789 -0.21715338923802119 0 0.31378344461284458 -0.2001709938187152 0 0.29851028722249229 -0.20917098549780361 0 0.30483762376102053 -0.22202322092240309 0 0.29282145459340558 -0.22417780122214781 0 0.29851028722249229 -0.20917098549780361 0 0.30483762376102053 -0.22202322092240309 0 0.31397508481572789 -0.21715338923802119 0 0.30483762376102053 -0.22202322092240309 0 0.31397508481572789 -0.21715338923802119 0 0.31682958347532952 -0.22575519173792849 0 0.30483762376102053 -0.22202322092240309 0 0.3020517086981469 -0.2338587369161147 0 0.31682958347532952 -0.22575519173792849 0 0.3020517086981469 -0.2338587369161147 0 0.30824050241637851 -0.24100260588389361 0 0.31682958347532952 -0.22575519173792849 0 0.30483762376102053 -0.22202322092240309 0 0.3020517086981469 -0.2338587369161147 0 0.29282145459340558 -0.22417780122214781 0 0.30824050241637851 -0.24100260588389361 0 0.30289524504637388 -0.25049155496679232 0 0.30942400473984011 -0.24791929280762351 0 0.30824050241637851 -0.24100260588389361 0 0.30289524504637388 -0.25049155496679232 0 0.30538363692865977 -0.24270375165789609 0 0.30824050241637851 -0.24100260588389361 0 0.30289524504637388 -0.25049155496679232 0 0.30942400473984011 -0.24791929280762351 0 0.31201165352040278 -0.2454240676837913 0 0.3147876720107684 -0.24864408783740111 0 0.30942400473984011 -0.24791929280762351 0 0.31201165352040278 -0.2454240676837913 0 0.30824050241637851 -0.24100260588389361 0 0.31201165352040278 -0.2454240676837913 0 0.30824050241637851 -0.24100260588389361 0 0.31559443491462458 -0.24413028420624711 0 0.3020517086981469 -0.2338587369161147 0 0.30538363692865977 -0.24270375165789609 0 0.30824050241637851 -0.24100260588389361 0 0.30538363692865977 -0.24270375165789609 0 0.30824050241637851 -0.24100260588389361 0 0.3020517086981469 -0.2338587369161147 0 0.30538363692865977 -0.24270375165789609 0 0.27968086461721231 -0.23917315918859991 0 0.30538363692865977 -0.24270375165789609 0 0.27968086461721231 -0.23917315918859991 0 0.30289524504637388 -0.25049155496679232 0 0.27968086461721231 -0.23917315918859991 0 0.30289524504637388 -0.25049155496679232 0 0.2834190991258092 -0.25674022588224432 0 0.27968086461721231 -0.23917315918859991 0 0.30289524504637388 -0.25049155496679232 0 0.3020517086981469 -0.2338587369161147 0 0.29282145459340558 -0.22417780122214781 0 0.27968086461721231 -0.23917315918859991 0 0.29282145459340558 -0.22417780122214781 0 0.27968086461721231 -0.23917315918859991 0 0.27461149564146647 -0.2166202503021997 0 0.27968086461721231 -0.23917315918859991 0 0.25646648418805063 -0.22785476341040739 0 0.27461149564146647 -0.2166202503021997 0 0.27968086461721231 -0.23917315918859991 0 0.25646648418805063 -0.22785476341040739 0 0.27968086461721231 -0.23917315918859991 0 0.25646648418805063 -0.22785476341040739 0 0.26171421693634811 -0.25738026262620378 0 0.25646648418805063 -0.22785476341040739 0 0.26171421693634811 -0.25738026262620378 0 0.24172280262944201 -0.23911909159452521 0 0.25646648418805063 -0.22785476341040739 0 0.27461149564146647 -0.2166202503021997 0 0.24867434555772169 -0.2037098839959397 0 0.27461149564146647 -0.2166202503021997 0 0.27577074333842139 -0.1982189816437516 0 0.24867434555772169 -0.2037098839959397 0 0.27577074333842139 -0.1982189816437516 0 0.25921620724121969 -0.18694193501354439 0 0.28640400582559072 -0.18506526670647749 0 0.27577074333842139 -0.1982189816437516 0 0.25921620724121969 -0.18694193501354439 0 0.24867434555772169 -0.2037098839959397 0 0.25921620724121969 -0.18694193501354439 0 0.26718749469795328 -0.16891192075951519 0 0.23969257354154719 -0.1738158023373102 0 0.26718749469795328 -0.16891192075951519 0 0.25104821782774878 -0.14859720022468589 0 0.23969257354154719 -0.1738158023373102 0 0.26718749469795328 -0.16891192075951519 0 0.2830414090678563 -0.15094674368400299 0 0.28484476135647868 -0.16753527692966899 0 0.25921620724121969 -0.18694193501354439 0 0.28640400582559072 -0.18506526670647749 0 0.26718749469795328 -0.16891192075951519 0 0.28640400582559072 -0.18506526670647749 0 0.28484476135647868 -0.16753527692966899 0 0.25921620724121969 -0.18694193501354439 0 0.26718749469795328 -0.16891192075951519 0 0.28640400582559072 -0.18506526670647749 0 0.25104821782774878 -0.14859720022468589 0 0.27431551028230677 -0.13475826563673929 0 0.2830414090678563 -0.15094674368400299 0 0.26718749469795328 -0.16891192075951519 0 0.25104821782774878 -0.14859720022468589 0 0.2830414090678563 -0.15094674368400299 0 0.26240386211395028 -0.1233785981120616 0 0.25104821782774878 -0.14859720022468589 0 0.24393906892098721 -0.1259442153439837 0 0.26240386211395028 -0.1233785981120616 0 0.25104821782774878 -0.14859720022468589 0 0.27431551028230677 -0.13475826563673929 0 0.26240386211395028 -0.1233785981120616 0 0.25104821782774878 -0.14859720022468589 0 0.2823481823627077 -0.1182979433102105 0 0.26240386211395028 -0.1233785981120616 0 0.27431551028230677 -0.13475826563673929 0 0.27431551028230677 -0.13475826563673929 0 0.29036178868452939 -0.1319241357976452 0 0.2830414090678563 -0.15094674368400299 0 0.2823481823627077 -0.1182979433102105 0 0.27431551028230677 -0.13475826563673929 0 0.29036178868452939 -0.1319241357976452 0 0.29036178868452939 -0.1319241357976452 0 0.2830414090678563 -0.15094674368400299 0 0.29811548668863708 -0.14197727406507391 0 0.2830414090678563 -0.15094674368400299 0 0.29811548668863708 -0.14197727406507391 0 0.29830294139863589 -0.1568525665541694 0 0.29811548668863708 -0.14197727406507391 0 0.29830294139863589 -0.1568525665541694 0 0.31310156273900619 -0.13974532406592949 0 0.29830294139863589 -0.1568525665541694 0 0.31334668357448381 -0.16146696123266929 0 0.31310156273900619 -0.13974532406592949 0 0.31285644190352868 -0.11802368689918979 0 0.30312791298519309 -0.12982937227971381 0 0.31310156273900619 -0.13974532406592949 0 0.29036178868452939 -0.1319241357976452 0 0.29811548668863708 -0.14197727406507391 0 0.30312791298519309 -0.12982937227971381 0 0.29811548668863708 -0.14197727406507391 0 0.30312791298519309 -0.12982937227971381 0 0.31310156273900619 -0.13974532406592949 0 0.29831263576156508 -0.1175630556000723 0 0.29036178868452939 -0.1319241357976452 0 0.30312791298519309 -0.12982937227971381 0 0.28640400582559072 -0.18506526670647749 0 0.28484476135647868 -0.16753527692966899 0 0.29907359797848593 -0.17093559389675919 0 0.2830414090678563 -0.15094674368400299 0 0.28484476135647868 -0.16753527692966899 0 0.29830294139863589 -0.1568525665541694 0 0.28484476135647868 -0.16753527692966899 0 0.29907359797848593 -0.17093559389675919 0 0.29830294139863589 -0.1568525665541694 0 0.29907359797848593 -0.17093559389675919 0 0.31359180440996148 -0.1831885983994091 0 0.31334668357448381 -0.16146696123266929 0 0.29907359797848593 -0.17093559389675919 0 0.29830294139863589 -0.1568525665541694 0 0.31334668357448381 -0.16146696123266929 0 0.28640400582559072 -0.18506526670647749 0 0.31359180440996148 -0.1831885983994091 0 0.28640400582559072 -0.18506526670647749 0 0.29907359797848593 -0.17093559389675919 0 0.31359180440996148 -0.1831885983994091 0 0.29977654316022923 -0.19319302922005571 0 0.28640400582559072 -0.18506526670647749 0 0.31359180440996148 -0.1831885983994091 0 0.31359180440996148 -0.1831885983994091 0 0.31334668357448381 -0.16146696123266929 0 0.31359180440996148 -0.1831885983994091 0 0.33043277964828321 -0.18202613118487021 0 0.32714697994219288 -0.1962272712742224 0 0.31359180440996148 -0.1831885983994091 0 0.33043277964828321 -0.18202613118487021 0 0.31359180440996148 -0.1831885983994091 0 0.32560992085217288 -0.1704147526337714 0 0.33043277964828321 -0.18202613118487021 0 0.31334668357448381 -0.16146696123266929 0 0.32560992085217288 -0.1704147526337714 0 0.33505908374227872 -0.1542291355988008 0 0.31359180440996148 -0.1831885983994091 0 0.31334668357448381 -0.16146696123266929 0 0.32560992085217288 -0.1704147526337714 0 0.32560992085217288 -0.1704147526337714 0 0.33826029771102922 -0.17248792872056759 0 0.33505908374227872 -0.1542291355988008 0 0.33826029771102922 -0.17248792872056759 0 0.33505908374227872 -0.1542291355988008 0 0.35424647183839209 -0.17556845619879541 0 0.33826029771102922 -0.17248792872056759 0 0.33043277964828321 -0.18202613118487021 0 0.34727375488660472 -0.18086366397032991 0 0.33043277964828321 -0.18202613118487021 0 0.34727375488660472 -0.18086366397032991 0 0.34054381442823339 -0.19291479994228569 0 0.33043277964828321 -0.18202613118487021 0 0.34727375488660472 -0.18086366397032991 0 0.32560992085217288 -0.1704147526337714 0 0.33826029771102922 -0.17248792872056759 0 0.33043277964828321 -0.18202613118487021 0 0.31285644190352868 -0.11802368689918979 0 0.31310156273900619 -0.13974532406592949 0 0.31285644190352868 -0.11802368689918979 0 0.31310156273900619 -0.13974532406592949 0 0.31587169564616502 -0.13288981499880609 0 0.32271261148360197 -0.12520202179833231 0 0.32604267408064969 -0.1311131883671447 0 0.31587169564616502 -0.13288981499880609 0 0.32271261148360197 -0.12520202179833231 0 0.32604267408064969 -0.1311131883671447 0 0.33507887105419493 -0.12733510376549989 0 0.31285644190352868 -0.11802368689918979 0 0.32271261148360197 -0.12520202179833231 0 0.31587169564616502 -0.13288981499880609 0 0.32604267408064969 -0.1311131883671447 0 0.31587169564616502 -0.13288981499880609 0 0.33050751813863671 -0.13902581290594071 0 0.31334668357448381 -0.16146696123266929 0 0.31310156273900619 -0.13974532406592949 0 0.33505908374227872 -0.1542291355988008 0 0.31587169564616502 -0.13288981499880609 0 0.33505908374227872 -0.1542291355988008 0 0.31587169564616502 -0.13288981499880609 0 0.33505908374227872 -0.1542291355988008 0 0.33050751813863671 -0.13902581290594071 0 0.31310156273900619 -0.13974532406592949 0 0.31587169564616502 -0.13288981499880609 0 0.33505908374227872 -0.1542291355988008 0 0.31334668357448381 -0.16146696123266929 0 0.31310156273900619 -0.13974532406592949 0 0.33505908374227872 -0.1542291355988008 0 0.33050751813863671 -0.13902581290594071 0 0.3441819985914823 -0.13870213399701439 0 0.33050751813863671 -0.13902581290594071 0 0.33507887105419493 -0.12733510376549989 0 0.3441819985914823 -0.13870213399701439 0 0.34864541948755662 -0.12381602966498589 0 0.33507887105419493 -0.12733510376549989 0 0.3441819985914823 -0.13870213399701439 0 0.32604267408064969 -0.1311131883671447 0 0.33050751813863671 -0.13902581290594071 0 0.33507887105419493 -0.12733510376549989 0 0.34864541948755662 -0.12381602966498589 0 0.3441819985914823 -0.13870213399701439 0 0.36387019081085431 -0.13351501557918971 0 0.3441819985914823 -0.13870213399701439 0 0.35304145072220738 -0.1489360498920699 0 0.36387019081085431 -0.13351501557918971 0 0.33505908374227872 -0.1542291355988008 0 0.35304145072220738 -0.1489360498920699 0 0.35565549677508229 -0.16278223933067781 0 0.33505908374227872 -0.1542291355988008 0 0.3441819985914823 -0.13870213399701439 0 0.35304145072220738 -0.1489360498920699 0 0.35304145072220738 -0.1489360498920699 0 0.3664404836913393 -0.155451724954667 0 0.35565549677508229 -0.16278223933067781 0 0.36387019081085431 -0.13351501557918971 0 0.38102211241345879 -0.14808921954086271 0 0.3664404836913393 -0.155451724954667 0 0.36387019081085431 -0.13351501557918971 0 0.38102211241345879 -0.14808921954086271 0 0.35304145072220738 -0.1489360498920699 0 0.3664404836913393 -0.155451724954667 0 0.36387019081085431 -0.13351501557918971 0 0.33826029771102922 -0.17248792872056759 0 0.35424647183839209 -0.17556845619879541 0 0.34727375488660472 -0.18086366397032991 0 0.35424647183839209 -0.17556845619879541 0 0.34727375488660472 -0.18086366397032991 0 0.35595146315862902 -0.19033805238942569 0 0.34727375488660472 -0.18086366397032991 0 0.35595146315862902 -0.19033805238942569 0 0.34838266846200822 -0.1904213447097598 0 0.33505908374227872 -0.1542291355988008 0 0.35424647183839209 -0.17556845619879541 0 0.33505908374227872 -0.1542291355988008 0 0.35424647183839209 -0.17556845619879541 0 0.35565549677508229 -0.16278223933067781 0 0.35424647183839209 -0.17556845619879541 0 0.35565549677508229 -0.16278223933067781 0 0.36670441013935667 -0.16966627542465909 0 0.3664404836913393 -0.155451724954667 0 0.35565549677508229 -0.16278223933067781 0 0.36670441013935667 -0.16966627542465909 0 0.3664404836913393 -0.155451724954667 0 0.36670441013935667 -0.16966627542465909 0 0.37989845420467988 -0.16450704621277851 0 0.36670441013935667 -0.16966627542465909 0 0.37989845420467988 -0.16450704621277851 0 0.37657552332670852 -0.175998148655827 0 0.37035930082265223 -0.18092589627150171 0 0.37343385993450562 -0.1969077767987901 0 0.38093382763989592 -0.18415834968052841 0 0.35424647183839209 -0.17556845619879541 0 0.37343385993450562 -0.1969077767987901 0 0.35424647183839209 -0.17556845619879541 0 0.36670441013935667 -0.16966627542465909 0 0.37035930082265223 -0.18092589627150171 0 0.35424647183839209 -0.17556845619879541 0 0.37035930082265223 -0.18092589627150171 0 0.37343385993450562 -0.1969077767987901 0 0.36670441013935667 -0.16966627542465909 0 0.37035930082265223 -0.18092589627150171 0 0.37657552332670852 -0.175998148655827 0 0.37343385993450562 -0.1969077767987901 0 0.36105416123982631 -0.19994342650100849 0 0.35595146315862902 -0.19033805238942569 0 0.35424647183839209 -0.17556845619879541 0 0.37343385993450562 -0.1969077767987901 0 0.35595146315862902 -0.19033805238942569 0 0.37343385993450562 -0.1969077767987901 0 0.37249177433775182 -0.20274361883208211 0 0.36105416123982631 -0.19994342650100849 0 0.37249177433775182 -0.20274361883208211 0 0.36868971880993961 -0.21568309685256579 0 0.35107468369729378 -0.21549661451601909 0 0.37249177433775182 -0.20274361883208211 0 0.36105416123982631 -0.19994342650100849 0 0.35107468369729378 -0.21549661451601909 0 0.37249177433775182 -0.20274361883208211 0 0.35107468369729378 -0.21549661451601909 0 0.37249177433775182 -0.20274361883208211 0 0.36868971880993961 -0.21568309685256579 0 0.37643109177108153 -0.2095412631371279 0 0.36105416123982631 -0.19994342650100849 0 0.35107468369729378 -0.21549661451601909 0 0.35146798425426201 -0.19839645674022041 0 0.35107468369729378 -0.21549661451601909 0 0.35146798425426201 -0.19839645674022041 0 0.33831558016545349 -0.20774415068905369 0 0.35595146315862902 -0.19033805238942569 0 0.35146798425426201 -0.19839645674022041 0 0.34838266846200822 -0.1904213447097598 0 0.36105416123982631 -0.19994342650100849 0 0.35595146315862902 -0.19033805238942569 0 0.35146798425426201 -0.19839645674022041 0 0.34727375488660472 -0.18086366397032991 0 0.34838266846200822 -0.1904213447097598 0 0.34054381442823339 -0.19291479994228569 0 0.35146798425426201 -0.19839645674022041 0 0.34838266846200822 -0.1904213447097598 0 0.34054381442823339 -0.19291479994228569 0 0.33043277964828321 -0.18202613118487021 0 0.34054381442823339 -0.19291479994228569 0 0.32714697994219288 -0.1962272712742224 0 0.34054381442823339 -0.19291479994228569 0 0.33831558016545349 -0.20774415068905369 0 0.32714697994219288 -0.1962272712742224 0 0.35146798425426201 -0.19839645674022041 0 0.34054381442823339 -0.19291479994228569 0 0.33831558016545349 -0.20774415068905369 0 0.35107468369729378 -0.21549661451601909 0 0.33831558016545349 -0.20774415068905369 0 0.32965759305683601 -0.22824961019995599 0 0.33831558016545349 -0.20774415068905369 0 0.32541866453427998 -0.21050777759196301 0 0.32965759305683601 -0.22824961019995599 0 0.33831558016545349 -0.20774415068905369 0 0.32541866453427998 -0.21050777759196301 0 0.32714697994219288 -0.1962272712742224 0 0.31397508481572789 -0.21715338923802119 0 0.31378344461284458 -0.2001709938187152 0 0.32541866453427998 -0.21050777759196301 0 0.31397508481572789 -0.21715338923802119 0 0.31378344461284458 -0.2001709938187152 0 0.32541866453427998 -0.21050777759196301 0 0.31682958347532952 -0.22575519173792849 0 0.32541866453427998 -0.21050777759196301 0 0.31397508481572789 -0.21715338923802119 0 0.31682958347532952 -0.22575519173792849 0 0.31359180440996148 -0.1831885983994091 0 0.31378344461284458 -0.2001709938187152 0 0.32714697994219288 -0.1962272712742224 0 0.31359180440996148 -0.1831885983994091 0 0.31378344461284458 -0.2001709938187152 0 0.32541866453427998 -0.21050777759196301 0 0.31378344461284458 -0.2001709938187152 0 0.32714697994219288 -0.1962272712742224 0 0.30824050241637851 -0.24100260588389361 0 0.32172800105484228 -0.2398313844626265 0 0.32965759305683601 -0.22824961019995599 0 0.30824050241637851 -0.24100260588389361 0 0.32965759305683601 -0.22824961019995599 0 0.32172800105484228 -0.2398313844626265 0 0.32965759305683601 -0.22824961019995599 0 0.33221271094653271 -0.23998158169291089 0 0.32267276988329452 -0.2467724474561564 0 0.33232483153245829 -0.24870480560670541 0 0.32467888858373561 -0.2537804604895571 0 0.32172800105484228 -0.2398313844626265 0 0.32267276988329452 -0.2467724474561564 0 0.33221271094653271 -0.23998158169291089 0 0.32172800105484228 -0.2398313844626265 0 0.32267276988329452 -0.2467724474561564 0 0.31559443491462458 -0.24413028420624711 0 0.32267276988329452 -0.2467724474561564 0 0.3147876720107684 -0.24864408783740111 0 0.3175488369447057 -0.25226417471789492 0 0.32267276988329452 -0.2467724474561564 0 0.3147876720107684 -0.24864408783740111 0 0.31559443491462458 -0.24413028420624711 0 0.31201165352040278 -0.2454240676837913 0 0.3147876720107684 -0.24864408783740111 0 0.31559443491462458 -0.24413028420624711 0 0.30824050241637851 -0.24100260588389361 0 0.32172800105484228 -0.2398313844626265 0 0.31559443491462458 -0.24413028420624711 0 0.30824050241637851 -0.24100260588389361 0 0.31682958347532952 -0.22575519173792849 0 0.32541866453427998 -0.21050777759196301 0 0.31682958347532952 -0.22575519173792849 0 0.32965759305683601 -0.22824961019995599 0 0.30824050241637851 -0.24100260588389361 0 0.31682958347532952 -0.22575519173792849 0 0.32965759305683601 -0.22824961019995599 0 0.35107468369729378 -0.21549661451601909 0 0.32965759305683601 -0.22824961019995599 0 0.32965759305683601 -0.22824961019995599 0 0.34314878673660087 -0.2326515984635345 0 0.33221271094653271 -0.23998158169291089 0 0.35107468369729378 -0.21549661451601909 0 0.32965759305683601 -0.22824961019995599 0 0.34314878673660087 -0.2326515984635345 0 0.34314878673660087 -0.2326515984635345 0 0.33221271094653271 -0.23998158169291089 0 0.34367348492505478 -0.24622148262240881 0 0.32267276988329452 -0.2467724474561564 0 0.33221271094653271 -0.23998158169291089 0 0.33232483153245829 -0.24870480560670541 0 0.33221271094653271 -0.23998158169291089 0 0.33232483153245829 -0.24870480560670541 0 0.34367348492505478 -0.24622148262240881 0 0.34314878673660087 -0.2326515984635345 0 0.34367348492505478 -0.24622148262240881 0 0.35912546105728749 -0.23330870328637779 0 0.34367348492505478 -0.24622148262240881 0 0.35912546105728749 -0.23330870328637779 0 0.35824633897630531 -0.25042917759838351 0 0.35107468369729378 -0.21549661451601909 0 0.34314878673660087 -0.2326515984635345 0 0.35912546105728749 -0.23330870328637779 0 0.36868971880993961 -0.21568309685256579 0 0.35107468369729378 -0.21549661451601909 0 0.35912546105728749 -0.23330870328637779 0 0.36868971880993961 -0.21568309685256579 0 0.35912546105728749 -0.23330870328637779 0 0.37367375136440822 -0.22752620526655951 0 0.36868971880993961 -0.21568309685256579 0 0.37367375136440822 -0.22752620526655951 0 0.38167093193415719 -0.21504420642239511 0 0.35912546105728749 -0.23330870328637779 0 0.37367375136440822 -0.22752620526655951 0 0.37531286046986467 -0.24987446479765299 0 0.35912546105728749 -0.23330870328637779 0 0.37531286046986467 -0.24987446479765299 0 0.35824633897630531 -0.25042917759838351 0 0.37367375136440822 -0.22752620526655951 0 0.37531286046986467 -0.24987446479765299 0 0.38727811107918031 -0.22887923213026401 0 0.37531286046986467 -0.24987446479765299 0 0.39715693684297432 -0.2385311994184042 0 0.38727811107918031 -0.22887923213026401 0 0.37531286046986467 -0.24987446479765299 0 0.39715693684297432 -0.2385311994184042 0 0.40055259905867779 -0.2555561427822598 0 0.39715693684297432 -0.2385311994184042 0 0.41273322572349902 -0.24247237689741061 0 0.40055259905867779 -0.2555561427822598 0 0.39715693684297432 -0.2385311994184042 0 0.41273322572349902 -0.24247237689741061 0 0.40777809784952462 -0.23123139934345149 0 0.39941474727470638 -0.227195264400539 0 0.39594688809473982 -0.21591471606109419 0 0.40738817039533298 -0.221265079051888 0 0.39715693684297432 -0.2385311994184042 0 0.39941474727470638 -0.227195264400539 0 0.40777809784952462 -0.23123139934345149 0 0.39941474727470638 -0.227195264400539 0 0.40777809784952462 -0.23123139934345149 0 0.40738817039533298 -0.221265079051888 0 0.39715693684297432 -0.2385311994184042 0 0.39941474727470638 -0.227195264400539 0 0.38727811107918031 -0.22887923213026401 0 0.39941474727470638 -0.227195264400539 0 0.38727811107918031 -0.22887923213026401 0 0.39594688809473982 -0.21591471606109419 0 0.38727811107918031 -0.22887923213026401 0 0.38167093193415719 -0.21504420642239511 0 0.39594688809473982 -0.21591471606109419 0 0.37367375136440822 -0.22752620526655951 0 0.38727811107918031 -0.22887923213026401 0 0.38167093193415719 -0.21504420642239511 0 0.36868971880993961 -0.21568309685256579 0 0.38167093193415719 -0.21504420642239511 0 0.37643109177108153 -0.2095412631371279 0 0.38167093193415719 -0.21504420642239511 0 0.37643109177108153 -0.2095412631371279 0 0.38287194200247737 -0.2046941304414687 0 0.37249177433775182 -0.20274361883208211 0 0.37643109177108153 -0.2095412631371279 0 0.38287194200247737 -0.2046941304414687 0 0.38167093193415719 -0.21504420642239511 0 0.38287194200247737 -0.2046941304414687 0 0.39084831199090231 -0.2061158773679182 0 0.38167093193415719 -0.21504420642239511 0 0.39594688809473982 -0.21591471606109419 0 0.39084831199090231 -0.2061158773679182 0 0.37249177433775182 -0.20274361883208211 0 0.39390886497820982 -0.1899906231481451 0 0.37343385993450562 -0.1969077767987901 0 0.39390886497820982 -0.1899906231481451 0 0.38093382763989592 -0.18415834968052841 0 0.38287194200247737 -0.2046941304414687 0 0.39390886497820982 -0.1899906231481451 0 0.39084831199090231 -0.2061158773679182 0 0.37249177433775182 -0.20274361883208211 0 0.38287194200247737 -0.2046941304414687 0 0.39390886497820982 -0.1899906231481451 0 0.37343385993450562 -0.1969077767987901 0 0.37249177433775182 -0.20274361883208211 0 0.39390886497820982 -0.1899906231481451 0 0.39390886497820982 -0.1899906231481451 0 0.39084831199090231 -0.2061158773679182 0 0.4014159412067827 -0.20464129984521551 0 0.39390886497820982 -0.1899906231481451 0 0.40919889728032449 -0.19657139376385621 0 0.41532595561866797 -0.1772376274642086 0 0.39390886497820982 -0.1899906231481451 0 0.4014159412067827 -0.20464129984521551 0 0.40919889728032449 -0.19657139376385621 0 0.39594688809473982 -0.21591471606109419 0 0.39084831199090231 -0.2061158773679182 0 0.4014159412067827 -0.20464129984521551 0 0.39594688809473982 -0.21591471606109419 0 0.4014159412067827 -0.20464129984521551 0 0.40609593720220222 -0.2122667403294444 0 0.39594688809473982 -0.21591471606109419 0 0.40609593720220222 -0.2122667403294444 0 0.40738817039533298 -0.221265079051888 0 0.40609593720220222 -0.2122667403294444 0 0.41380928006804563 -0.2160489254675711 0 0.41364980490690789 -0.20688484286283609 0 0.40609593720220222 -0.2122667403294444 0 0.41380928006804563 -0.2160489254675711 0 0.40738817039533298 -0.221265079051888 0 0.4014159412067827 -0.20464129984521551 0 0.40609593720220222 -0.2122667403294444 0 0.41364980490690789 -0.20688484286283609 0 0.41364980490690789 -0.20688484286283609 0 0.42155314714873782 -0.2136502927255706 0 0.42503603965730169 -0.20603003345428281 0 0.41364980490690789 -0.20688484286283609 0 0.4186727215154214 -0.20054300704706271 0 0.42503603965730169 -0.20603003345428281 0 0.41380928006804563 -0.2160489254675711 0 0.41364980490690789 -0.20688484286283609 0 0.42155314714873782 -0.2136502927255706 0 0.41380928006804563 -0.2160489254675711 0 0.42155314714873782 -0.2136502927255706 0 0.41914634478755058 -0.2263836849538288 0 0.40919889728032449 -0.19657139376385621 0 0.41912624702945239 -0.19291935859482459 0 0.41532595561866797 -0.1772376274642086 0 0.4014159412067827 -0.20464129984521551 0 0.41364980490690789 -0.20688484286283609 0 0.40919889728032449 -0.19657139376385621 0 0.41364980490690789 -0.20688484286283609 0 0.40919889728032449 -0.19657139376385621 0 0.4186727215154214 -0.20054300704706271 0 0.40919889728032449 -0.19657139376385621 0 0.4186727215154214 -0.20054300704706271 0 0.41912624702945239 -0.19291935859482459 0 0.4186727215154214 -0.20054300704706271 0 0.41912624702945239 -0.19291935859482459 0 0.42645159378485242 -0.1986460704126275 0 0.41912624702945239 -0.19291935859482459 0 0.42645159378485242 -0.1986460704126275 0 0.43661840620155229 -0.195330091085992 0 0.41912624702945239 -0.19291935859482459 0 0.43661840620155229 -0.195330091085992 0 0.41532595561866797 -0.1772376274642086 0 0.4186727215154214 -0.20054300704706271 0 0.42645159378485242 -0.1986460704126275 0 0.42503603965730169 -0.20603003345428281 0 0.42645159378485242 -0.1986460704126275 0 0.42916644013395933 -0.20249913848238379 0 0.42503603965730169 -0.20603003345428281 0 0.42645159378485242 -0.1986460704126275 0 0.43661840620155229 -0.195330091085992 0 0.43386846736381679 -0.19947876753716581 0 0.42916644013395933 -0.20249913848238379 0 0.43386846736381679 -0.19947876753716581 0 0.43140616900191059 -0.20664049251128749 0 0.42645159378485242 -0.1986460704126275 0 0.42916644013395933 -0.20249913848238379 0 0.43386846736381679 -0.19947876753716581 0 0.43661840620155229 -0.195330091085992 0 0.43057124228129828 -0.18143303994293389 0 0.43947239398530208 -0.18838836274480419 0 0.42155314714873782 -0.2136502927255706 0 0.42503603965730169 -0.20603003345428281 0 0.42984124560393783 -0.21570707036853401 0 0.42155314714873782 -0.2136502927255706 0 0.42984124560393783 -0.21570707036853401 0 0.41914634478755058 -0.2263836849538288 0 0.42503603965730169 -0.20603003345428281 0 0.43140616900191059 -0.20664049251128749 0 0.42984124560393783 -0.21570707036853401 0 0.42916644013395933 -0.20249913848238379 0 0.42503603965730169 -0.20603003345428281 0 0.43140616900191059 -0.20664049251128749 0 0.43386846736381679 -0.19947876753716581 0 0.43740876173415782 -0.21057522825023189 0 0.43140616900191059 -0.20664049251128749 0 0.43740876173415782 -0.21057522825023189 0 0.43140616900191059 -0.20664049251128749 0 0.42984124560393783 -0.21570707036853401 0 0.43740876173415782 -0.21057522825023189 0 0.42984124560393783 -0.21570707036853401 0 0.43980861725734999 -0.22014240615317271 0 0.42984124560393783 -0.21570707036853401 0 0.43147985480373813 -0.22806846182878621 0 0.43980861725734999 -0.22014240615317271 0 0.42984124560393783 -0.21570707036853401 0 0.43147985480373813 -0.22806846182878621 0 0.41914634478755058 -0.2263836849538288 0 0.43147985480373813 -0.22806846182878621 0 0.42736012153613578 -0.24200648542438441 0 0.41914634478755058 -0.2263836849538288 0 0.42736012153613578 -0.24200648542438441 0 0.41273322572349902 -0.24247237689741061 0 0.42579233764749091 -0.26123782076686652 0 0.42736012153613578 -0.24200648542438441 0 0.44124294483371601 -0.23610266224401111 0 0.4383833448491935 -0.25188456894210481 0 0.43147985480373813 -0.22806846182878621 0 0.42736012153613578 -0.24200648542438441 0 0.44124294483371601 -0.23610266224401111 0 0.42736012153613578 -0.24200648542438441 0 0.41273322572349902 -0.24247237689741061 0 0.41914634478755058 -0.2263836849538288 0 0.41273322572349902 -0.24247237689741061 0 0.40777809784952462 -0.23123139934345149 0 0.41914634478755058 -0.2263836849538288 0 0.41380928006804563 -0.2160489254675711 0 0.40738817039533298 -0.221265079051888 0 0.41914634478755058 -0.2263836849538288 0 0.40777809784952462 -0.23123139934345149 0 0.40738817039533298 -0.221265079051888 0 0.41914634478755058 -0.2263836849538288 0 0.39723402615958042 -0.1208073479532978 0 0.39557660390153798 -0.1377305915467498 0 0.41009958438689392 -0.12717279801833431 0 0.39557660390153798 -0.1377305915467498 0 0.41164558374086629 -0.14542356185253361 0 0.41009958438689392 -0.12717279801833431 0 0.38083013693261908 -0.123454079406251 0 0.39723402615958042 -0.1208073479532978 0 0.39557660390153798 -0.1377305915467498 0 0.38083013693261908 -0.123454079406251 0 0.39557660390153798 -0.1377305915467498 0 0.38102211241345879 -0.14808921954086271 0 0.38083013693261908 -0.123454079406251 0 0.36387019081085431 -0.13351501557918971 0 0.38102211241345879 -0.14808921954086271 0 0.3664404836913393 -0.155451724954667 0 0.38102211241345879 -0.14808921954086271 0 0.37989845420467988 -0.16450704621277851 0 0.38102211241345879 -0.14808921954086271 0 0.39817403401606333 -0.16266342350253571 0 0.39557660390153798 -0.1377305915467498 0 0.38102211241345879 -0.14808921954086271 0 0.39817403401606333 -0.16266342350253571 0 0.39557660390153798 -0.1377305915467498 0 0.39817403401606333 -0.16266342350253571 0 0.41164558374086629 -0.14542356185253361 0 0.39817403401606333 -0.16266342350253571 0 0.39047416164115301 -0.17517348519811951 0 0.41532595561866797 -0.1772376274642086 0 0.38102211241345879 -0.14808921954086271 0 0.39817403401606333 -0.16266342350253571 0 0.37989845420467988 -0.16450704621277851 0 0.39817403401606333 -0.16266342350253571 0 0.37989845420467988 -0.16450704621277851 0 0.39047416164115301 -0.17517348519811951 0 0.39047416164115301 -0.17517348519811951 0 0.37657552332670852 -0.175998148655827 0 0.38093382763989592 -0.18415834968052841 0 0.37989845420467988 -0.16450704621277851 0 0.39047416164115301 -0.17517348519811951 0 0.37657552332670852 -0.175998148655827 0 0.37035930082265223 -0.18092589627150171 0 0.37657552332670852 -0.175998148655827 0 0.38093382763989592 -0.18415834968052841 0 0.39390886497820982 -0.1899906231481451 0 0.39047416164115301 -0.17517348519811951 0 0.38093382763989592 -0.18415834968052841 0 0.39390886497820982 -0.1899906231481451 0 0.39047416164115301 -0.17517348519811951 0 0.41532595561866797 -0.1772376274642086 0 0.39390886497820982 -0.1899906231481451 0 0.41532595561866797 -0.1772376274642086 0 0.43661840620155229 -0.195330091085992 0 0.41532595561866797 -0.1772376274642086 0 0.43661840620155229 -0.195330091085992 0 0.41532595561866797 -0.1772376274642086 0 0.43057124228129828 -0.18143303994293389 0 0.43057124228129828 -0.18143303994293389 0 0.44000334141156489 -0.17986638724158779 0 0.43947239398530208 -0.18838836274480419 0 0.43057124228129828 -0.18143303994293389 0 0.42938642096764712 -0.16886519925162219 0 0.44000334141156489 -0.17986638724158779 0 0.41532595561866797 -0.1772376274642086 0 0.43057124228129828 -0.18143303994293389 0 0.42938642096764712 -0.16886519925162219 0 0.41532595561866797 -0.1772376274642086 0 0.42938642096764712 -0.16886519925162219 0 0.42938642096764712 -0.16886519925162219 0 0.41574447015531041 -0.16088175113154249 0 0.42976550184448947 -0.15028538233719291 0 0.42938642096764712 -0.16886519925162219 0 0.42976550184448947 -0.15028538233719291 0 0.44344688631662649 -0.16049277103903639 0 0.42938642096764712 -0.16886519925162219 0 0.44344688631662649 -0.16049277103903639 0 0.41532595561866797 -0.1772376274642086 0 0.42938642096764712 -0.16886519925162219 0 0.41574447015531041 -0.16088175113154249 0 0.39817403401606333 -0.16266342350253571 0 0.41532595561866797 -0.1772376274642086 0 0.39817403401606333 -0.16266342350253571 0 0.41574447015531041 -0.16088175113154249 0 0.41164558374086629 -0.14542356185253361 0 0.39817403401606333 -0.16266342350253571 0 0.41532595561866797 -0.1772376274642086 0 0.41574447015531041 -0.16088175113154249 0 0.41574447015531041 -0.16088175113154249 0 0.41164558374086629 -0.14542356185253361 0 0.42976550184448947 -0.15028538233719291 0 0.41164558374086629 -0.14542356185253361 0 0.42976550184448947 -0.15028538233719291 0 0.42357325577169891 -0.13284155697646891 0 0.42976550184448947 -0.15028538233719291 0 0.42357325577169891 -0.13284155697646891 0 0.43696231696260451 -0.13749311621280841 0 0.43646568753982928 -0.12425530847447031 0 0.42357325577169891 -0.13284155697646891 0 0.43696231696260451 -0.13749311621280841 0 0.42403659899646717 -0.1153760749698127 0 0.42357325577169891 -0.13284155697646891 0 0.41009958438689392 -0.12717279801833431 0 0.41164558374086629 -0.14542356185253361 0 0.42357325577169891 -0.13284155697646891 0 0.41009958438689392 -0.12717279801833431 0 0.44981896286643469 -0.1177136465756988 0 0.46334599201908638 -0.14100015532952151 0 0.44981896286643469 -0.1177136465756988 0 0.44678623049763339 -0.13351945244013411 0 0.46334599201908638 -0.14100015532952151 0 0.47029572880651332 -0.12010731716521 0 0.44981896286643469 -0.1177136465756988 0 0.46334599201908638 -0.14100015532952151 0 0.44981896286643469 -0.1177136465756988 0 0.43646568753982928 -0.12425530847447031 0 0.44678623049763339 -0.13351945244013411 0 0.44678623049763339 -0.13351945244013411 0 0.44733819310021228 -0.14713503560817121 0 0.46334599201908638 -0.14100015532952151 0 0.43646568753982928 -0.12425530847447031 0 0.43696231696260451 -0.13749311621280841 0 0.44678623049763339 -0.13351945244013411 0 0.43696231696260451 -0.13749311621280841 0 0.44678623049763339 -0.13351945244013411 0 0.44733819310021228 -0.14713503560817121 0 0.42976550184448947 -0.15028538233719291 0 0.44733819310021228 -0.14713503560817121 0 0.44344688631662649 -0.16049277103903639 0 0.42976550184448947 -0.15028538233719291 0 0.43696231696260451 -0.13749311621280841 0 0.44733819310021228 -0.14713503560817121 0 0.44733819310021228 -0.14713503560817121 0 0.46334599201908638 -0.14100015532952151 0 0.45722053477044239 -0.16380327660189251 0 0.45722053477044239 -0.16380327660189251 0 0.46947356241172722 -0.18240764200045509 0 0.47687302117173802 -0.16428666408334419 0 0.46334599201908638 -0.14100015532952151 0 0.45722053477044239 -0.16380327660189251 0 0.47687302117173802 -0.16428666408334419 0 0.44733819310021228 -0.14713503560817121 0 0.45722053477044239 -0.16380327660189251 0 0.44344688631662649 -0.16049277103903639 0 0.45722053477044239 -0.16380327660189251 0 0.44485513119688719 -0.17100498864697389 0 0.45297945635193348 -0.18044914163133699 0 0.42938642096764712 -0.16886519925162219 0 0.44344688631662649 -0.16049277103903639 0 0.44485513119688719 -0.17100498864697389 0 0.45722053477044239 -0.16380327660189251 0 0.44344688631662649 -0.16049277103903639 0 0.44485513119688719 -0.17100498864697389 0 0.44485513119688719 -0.17100498864697389 0 0.44000334141156489 -0.17986638724158779 0 0.45297945635193348 -0.18044914163133699 0 0.42938642096764712 -0.16886519925162219 0 0.44485513119688719 -0.17100498864697389 0 0.44000334141156489 -0.17986638724158779 0 0.44000334141156489 -0.17986638724158779 0 0.43947239398530208 -0.18838836274480419 0 0.44736642578164298 -0.1894569487700484 0 0.45297945635193348 -0.18044914163133699 0 0.44736642578164298 -0.1894569487700484 0 0.45759196281183151 -0.19195158273836821 0 0.44000334141156489 -0.17986638724158779 0 0.45297945635193348 -0.18044914163133699 0 0.44736642578164298 -0.1894569487700484 0 0.45722053477044239 -0.16380327660189251 0 0.45297945635193348 -0.18044914163133699 0 0.46947356241172722 -0.18240764200045509 0 0.45297945635193348 -0.18044914163133699 0 0.46947356241172722 -0.18240764200045509 0 0.45759196281183151 -0.19195158273836821 0 0.46947356241172722 -0.18240764200045509 0 0.48223453627631468 -0.17795390748283099 0 0.47687302117173802 -0.16428666408334419 0 0.46947356241172722 -0.18240764200045509 0 0.48223453627631468 -0.17795390748283099 0 0.48259156152179372 -0.1925963297351857 0 0.48223453627631468 -0.17795390748283099 0 0.5 -0.17252499411233921 0 0.48259156152179372 -0.1925963297351857 0 0.5 -0.17252499411233921 0 0.47687302117173802 -0.16428666408334419 0 0.5 -0.14447034161429331 0 0.48223453627631468 -0.17795390748283099 0 0.5 -0.17252499411233921 0 0.47687302117173802 -0.16428666408334419 0 0.46334599201908638 -0.14100015532952151 0 0.47687302117173802 -0.16428666408334419 0 0.48229349996368209 -0.13618114589043759 0 0.46334599201908638 -0.14100015532952151 0 0.47687302117173802 -0.16428666408334419 0 0.47687302117173802 -0.16428666408334419 0 0.5 -0.14447034161429331 0 0.48229349996368209 -0.13618114589043759 0 0.5 -0.1164156891162474 0 0.5 -0.14447034161429331 0 0.48229349996368209 -0.13618114589043759 0 0.47029572880651332 -0.12010731716521 0 0.46334599201908638 -0.14100015532952151 0 0.48229349996368209 -0.13618114589043759 0 0.46346229224816282 -0.22806580013153471 0 0.45791085678443683 -0.21342255470777521 0 0.47920330736732158 -0.23151501832955809 0 0.45791085678443683 -0.21342255470777521 0 0.47920330736732158 -0.23151501832955809 0 0.46346229224816282 -0.22806580013153471 0 0.45399306294212649 -0.2376114642946256 0 0.44945379579405648 -0.2273203103205404 0 0.46346229224816282 -0.22806580013153471 0 0.44945379579405648 -0.2273203103205404 0 0.44866537980598981 -0.21377228383435021 0 0.46346229224816282 -0.22806580013153471 0 0.44866537980598981 -0.21377228383435021 0 0.46346229224816282 -0.22806580013153471 0 0.46507092528668398 -0.24484935188560461 0 0.45399306294212649 -0.2376114642946256 0 0.46507092528668398 -0.24484935188560461 0 0.45399306294212649 -0.2376114642946256 0 0.45054199278213858 -0.24990532700142201 0 0.45399306294212649 -0.2376114642946256 0 0.45054199278213858 -0.24990532700142201 0 0.44124294483371601 -0.23610266224401111 0 0.45054199278213858 -0.24990532700142201 0 0.44124294483371601 -0.23610266224401111 0 0.4383833448491935 -0.25188456894210481 0 0.44124294483371601 -0.23610266224401111 0 0.44945379579405648 -0.2273203103205404 0 0.43980861725734999 -0.22014240615317271 0 0.43147985480373813 -0.22806846182878621 0 0.44124294483371601 -0.23610266224401111 0 0.43980861725734999 -0.22014240615317271 0 0.45399306294212649 -0.2376114642946256 0 0.44124294483371601 -0.23610266224401111 0 0.44945379579405648 -0.2273203103205404 0 0.44945379579405648 -0.2273203103205404 0 0.43980861725734999 -0.22014240615317271 0 0.44866537980598981 -0.21377228383435021 0 0.4529006527030765 -0.199190458453608 0 0.44677770763957347 -0.19711658072023161 0 0.45791085678443683 -0.21342255470777521 0 0.43740876173415782 -0.21057522825023189 0 0.43980861725734999 -0.22014240615317271 0 0.44866537980598981 -0.21377228383435021 0 0.43661840620155229 -0.195330091085992 0 0.44866537980598981 -0.21377228383435021 0 0.45791085678443683 -0.21342255470777521 0 0.43661840620155229 -0.195330091085992 0 0.45791085678443683 -0.21342255470777521 0 0.43386846736381679 -0.19947876753716581 0 0.43740876173415782 -0.21057522825023189 0 0.44866537980598981 -0.21377228383435021 0 0.43386846736381679 -0.19947876753716581 0 0.44866537980598981 -0.21377228383435021 0 0.43661840620155229 -0.195330091085992 0 0.43386846736381679 -0.19947876753716581 0 0.44866537980598981 -0.21377228383435021 0 0.43661840620155229 -0.195330091085992 0 0.44677770763957347 -0.19711658072023161 0 0.45791085678443683 -0.21342255470777521 0 0.43947239398530208 -0.18838836274480419 0 0.44677770763957347 -0.19711658072023161 0 0.44736642578164298 -0.1894569487700484 0 0.43661840620155229 -0.195330091085992 0 0.43947239398530208 -0.18838836274480419 0 0.44677770763957347 -0.19711658072023161 0 0.4529006527030765 -0.199190458453608 0 0.44736642578164298 -0.1894569487700484 0 0.45759196281183151 -0.19195158273836821 0 0.4529006527030765 -0.199190458453608 0 0.44677770763957347 -0.19711658072023161 0 0.44736642578164298 -0.1894569487700484 0 0.46947356241172722 -0.18240764200045509 0 0.45759196281183151 -0.19195158273836821 0 0.4656547940352892 -0.19857267421491959 0 0.45759196281183151 -0.19195158273836821 0 0.4656547940352892 -0.19857267421491959 0 0.45877782210954299 -0.20443056097512741 0 0.4529006527030765 -0.199190458453608 0 0.45759196281183151 -0.19195158273836821 0 0.45877782210954299 -0.20443056097512741 0 0.4656547940352892 -0.19857267421491959 0 0.45877782210954299 -0.20443056097512741 0 0.48090887649021702 -0.21192424663891121 0 0.45791085678443683 -0.21342255470777521 0 0.45877782210954299 -0.20443056097512741 0 0.48090887649021702 -0.21192424663891121 0 0.46346229224816282 -0.22806580013153471 0 0.44866537980598981 -0.21377228383435021 0 0.45791085678443683 -0.21342255470777521 0 0.4529006527030765 -0.199190458453608 0 0.45791085678443683 -0.21342255470777521 0 0.45877782210954299 -0.20443056097512741 0 0.4656547940352892 -0.19857267421491959 0 0.48090887649021702 -0.21192424663891121 0 0.48090887649021702 -0.21192424663891121 0 0.48259156152179372 -0.1925963297351857 0 0.4656547940352892 -0.19857267421491959 0 0.48090887649021702 -0.21192424663891121 0 0.48259156152179372 -0.1925963297351857 0 0.46947356241172722 -0.18240764200045509 0 0.4656547940352892 -0.19857267421491959 0 0.48259156152179372 -0.1925963297351857 0 0.48090887649021702 -0.21192424663891121 0 0.48259156152179372 -0.1925963297351857 0 0.5 -0.20057964661038519 0 0.5 -0.17252499411233921 0 0.48259156152179372 -0.1925963297351857 0 0.5 -0.20057964661038519 0 0.48090887649021702 -0.21192424663891121 0 0.5 -0.20057964661038519 0 0.49999999999999878 -0.228634299108431 0 0.48090887649021702 -0.21192424663891121 0 0.49999999999999878 -0.228634299108431 0 0.48090887649021702 -0.21192424663891121 0 0.49999999999999878 -0.228634299108431 0 0.48902825314382681 -0.22870759154089909 0 0.49999999999999878 -0.228634299108431 0 0.48902825314382681 -0.22870759154089909 0 0.50000000000000422 -0.23499914128452851 0 0.48902825314382681 -0.22870759154089909 0 0.48502908186159371 -0.2364652523430667 0 0.50000000000000422 -0.23499914128452851 0 0.48902825314382681 -0.22870759154089909 0 0.47920330736732158 -0.23151501832955809 0 0.48502908186159371 -0.2364652523430667 0 0.45791085678443683 -0.21342255470777521 0 0.48090887649021702 -0.21192424663891121 0 0.47920330736732158 -0.23151501832955809 0 0.48090887649021702 -0.21192424663891121 0 0.47920330736732158 -0.23151501832955809 0 0.48090887649021702 -0.21192424663891121 0 0.48902825314382681 -0.22870759154089909 0 0.47920330736732158 -0.23151501832955809 0 0.46346229224816282 -0.22806580013153471 0 0.47920330736732158 -0.23151501832955809 0 0.47825920469033539 -0.2423593164287195 0 0.47920330736732158 -0.23151501832955809 0 0.48502908186159371 -0.2364652523430667 0 0.46346229224816282 -0.22806580013153471 0 0.46507092528668398 -0.24484935188560461 0 0.47825920469033539 -0.2423593164287195 0 0.46507092528668398 -0.24484935188560461 0 0.47825920469033539 -0.2423593164287195 0 0.47763048707800582 -0.2495809898488548 0 0.46346229224816282 -0.22806580013153471 0 0.47825920469033539 -0.2423593164287195 0 0.47920330736732158 -0.23151501832955809 0 0.47825920469033539 -0.2423593164287195 0 0.48502908186159371 -0.2364652523430667 0 0.47825920469033539 -0.2423593164287195 0 0.48246964979815549 -0.2464265207189533 0 0.48502908186159371 -0.2364652523430667 0 0.47920330736732158 -0.23151501832955809 0 0.47825920469033539 -0.2423593164287195 0 0.47825920469033539 -0.2423593164287195 0 0.48246964979815549 -0.2464265207189533 0 0.47825920469033539 -0.2423593164287195 0 0.47763048707800582 -0.2495809898488548 0 0.47763048707800582 -0.2495809898488548 0 0.48246964979815549 -0.2464265207189533 0 0.47825920469033539 -0.2423593164287195 0 0.47763048707800582 -0.2495809898488548 0 0.48246964979815549 -0.2464265207189533 0 0.48246964979815549 -0.2464265207189533 0 0.50000000000000422 -0.23499914128452851 0 0.49090491179766732 -0.25457481215017108 0 0.48246964979815549 -0.2464265207189533 0 0.50000000000000422 -0.23499914128452851 0 0.48246964979815549 -0.2464265207189533 0 0.48502908186159371 -0.2364652523430667 0 0.50000000000000422 -0.23499914128452851 0 0.47763048707800582 -0.2495809898488548 0 0.49090491179766732 -0.25457481215017108 0 0.48637536087592131 -0.26805000157272979 0 0.50000000000000422 -0.23499914128452851 0 0.5 -0.26399207472948372 0 0.49090491179766732 -0.25457481215017108 0 0.5 -0.26399207472948372 0 0.49090491179766732 -0.25457481215017108 0 0.48637536087592131 -0.26805000157272979 0 0.48246964979815549 -0.2464265207189533 0 0.49090491179766732 -0.25457481215017108 0 0.48637536087592131 -0.26805000157272979 0 0.47525188551332392 -0.27690245080354842 0 0.5 -0.29298500817443868 0 0.5 -0.26399207472948372 0 0.48637536087592131 -0.26805000157272979 0 0.5 -0.29298500817443868 0 0.47763048707800582 -0.2495809898488548 0 0.47525188551332392 -0.27690245080354842 0 0.47763048707800582 -0.2495809898488548 0 0.47525188551332392 -0.27690245080354842 0 0.46433128165715498 -0.25825024430016452 0 0.47763048707800582 -0.2495809898488548 0 0.48637536087592131 -0.26805000157272979 0 0.47525188551332392 -0.27690245080354842 0 0.47763048707800582 -0.2495809898488548 0 0.48246964979815549 -0.2464265207189533 0 0.49090491179766732 -0.25457481215017108 0 0.47763048707800582 -0.2495809898488548 0 0.46433128165715498 -0.25825024430016452 0 0.46507092528668398 -0.24484935188560461 0 0.47763048707800582 -0.2495809898488548 0 0.46433128165715498 -0.25825024430016452 0 0.45054199278213858 -0.24990532700142201 0 0.46433128165715498 -0.25825024430016452 0 0.45103207623630392 -0.26691949875147392 0 0.46507092528668398 -0.24484935188560461 0 0.45054199278213858 -0.24990532700142201 0 0.46433128165715498 -0.25825024430016452 0 0.46433128165715498 -0.25825024430016452 0 0.45103207623630392 -0.26691949875147392 0 0.46433128165715498 -0.25825024430016452 0 0.45339798857049818 -0.26745208556790973 0 0.45103207623630392 -0.26691949875147392 0 0.47525188551332392 -0.27690245080354842 0 0.46433128165715498 -0.25825024430016452 0 0.46168963224324838 -0.27869831202780682 0 0.46433128165715498 -0.25825024430016452 0 0.46168963224324838 -0.27869831202780682 0 0.45339798857049818 -0.26745208556790973 0 0.46168963224324838 -0.27869831202780682 0 0.45339798857049818 -0.26745208556790973 0 0.44878612139655399 -0.28241805588387342 0 0.45103207623630392 -0.26691949875147392 0 0.44878612139655399 -0.28241805588387342 0 0.42766998268640732 -0.2821483734917527 0 0.45103207623630392 -0.26691949875147392 0 0.42766998268640732 -0.2821483734917527 0 0.45339798857049818 -0.26745208556790973 0 0.45103207623630392 -0.26691949875147392 0 0.45339798857049818 -0.26745208556790973 0 0.45103207623630392 -0.26691949875147392 0 0.44878612139655399 -0.28241805588387342 0 0.45103207623630392 -0.26691949875147392 0 0.42579233764749091 -0.26123782076686652 0 0.45054199278213858 -0.24990532700142201 0 0.45103207623630392 -0.26691949875147392 0 0.4383833448491935 -0.25188456894210481 0 0.45103207623630392 -0.26691949875147392 0 0.4383833448491935 -0.25188456894210481 0 0.42579233764749091 -0.26123782076686652 0 0.43864603100659971 -0.30488498370455719 0 0.45429552107753179 -0.29848217529690391 0 0.45043334638895699 -0.32311167589859641 0 0.43864603100659971 -0.30488498370455719 0 0.44878612139655399 -0.28241805588387342 0 0.45429552107753179 -0.29848217529690391 0 0.43864603100659971 -0.30488498370455719 0 0.44878612139655399 -0.28241805588387342 0 0.42766998268640732 -0.2821483734917527 0 0.46168963224324838 -0.27869831202780682 0 0.44878612139655399 -0.28241805588387342 0 0.45429552107753179 -0.29848217529690391 0 0.46168963224324838 -0.27869831202780682 0 0.45429552107753179 -0.29848217529690391 0 0.47454441604431691 -0.29563139627305901 0 0.45429552107753179 -0.29848217529690391 0 0.47454441604431691 -0.29563139627305901 0 0.46947875013014878 -0.31694662237443849 0 0.47454441604431691 -0.29563139627305901 0 0.48655070730164812 -0.30977380896121792 0 0.46947875013014878 -0.31694662237443849 0 0.47525188551332392 -0.27690245080354842 0 0.47454441604431691 -0.29563139627305901 0 0.5 -0.29298500817443868 0 0.47525188551332392 -0.27690245080354842 0 0.46168963224324838 -0.27869831202780682 0 0.47454441604431691 -0.29563139627305901 0 0.5 -0.29298500817443868 0 0.48655070730164812 -0.30977380896121792 0 0.5 -0.32197794161939369 0 0.47454441604431691 -0.29563139627305901 0 0.5 -0.29298500817443868 0 0.48655070730164812 -0.30977380896121792 0 0.48655070730164812 -0.30977380896121792 0 0.5 -0.32197794161939369 0 0.48267135142473189 -0.33292325463204248 0 0.5 -0.32197794161939369 0 0.48267135142473189 -0.33292325463204248 0 0.5 -0.35097087506434882 0 0.48267135142473189 -0.33292325463204248 0 0.47845042169819058 -0.35003817539357618 0 0.46346333526263522 -0.34151507736681641 0 0.48267135142473189 -0.33292325463204248 0 0.46947875013014878 -0.31694662237443849 0 0.46346333526263522 -0.34151507736681641 0 0.48655070730164812 -0.30977380896121792 0 0.48267135142473189 -0.33292325463204248 0 0.46947875013014878 -0.31694662237443849 0 0.5 -0.35097087506434882 0 0.47989172066504981 -0.36721893838852748 0 0.49999999999999623 -0.37996380850930378 0 0.5 -0.35097087506434882 0 0.47845042169819058 -0.35003817539357618 0 0.47989172066504981 -0.36721893838852748 0 0.48267135142473189 -0.33292325463204248 0 0.5 -0.35097087506434882 0 0.47845042169819058 -0.35003817539357618 0 0.47845042169819058 -0.35003817539357618 0 0.47989172066504981 -0.36721893838852748 0 0.45696496785498081 -0.36080499905346552 0 0.45696496785498081 -0.36080499905346552 0 0.45046660044732628 -0.38009492074011481 0 0.47989172066504981 -0.36721893838852748 0 0.45696496785498081 -0.36080499905346552 0 0.46551523231402669 -0.37442494489753242 0 0.45696496785498081 -0.36080499905346552 0 0.46551523231402669 -0.37442494489753242 0 0.45046660044732628 -0.38009492074011481 0 0.45696496785498081 -0.36080499905346552 0 0.46346333526263522 -0.34151507736681641 0 0.44503462300311369 -0.34372410383907942 0 0.45696496785498081 -0.36080499905346552 0 0.46346333526263522 -0.34151507736681641 0 0.47845042169819058 -0.35003817539357618 0 0.45696496785498081 -0.36080499905346552 0 0.46346333526263522 -0.34151507736681641 0 0.45696496785498081 -0.36080499905346552 0 0.43867486081849433 -0.36130934404729481 0 0.44503462300311369 -0.34372410383907942 0 0.43867486081849433 -0.36130934404729481 0 0.43173518279844469 -0.3729882115151803 0 0.45046660044732628 -0.38009492074011481 0 0.45696496785498081 -0.36080499905346552 0 0.43867486081849433 -0.36130934404729481 0 0.45046660044732628 -0.38009492074011481 0 0.45429552107753179 -0.29848217529690391 0 0.46947875013014878 -0.31694662237443849 0 0.45043334638895699 -0.32311167589859641 0 0.46947875013014878 -0.31694662237443849 0 0.46346333526263522 -0.34151507736681641 0 0.45043334638895699 -0.32311167589859641 0 0.46346333526263522 -0.34151507736681641 0 0.44503462300311369 -0.34372410383907942 0 0.45043334638895699 -0.32311167589859641 0 0.44503462300311369 -0.34372410383907942 0 0.45043334638895699 -0.32311167589859641 0 0.43310033380570268 -0.32698071435000869 0 0.43864603100659971 -0.30488498370455719 0 0.45043334638895699 -0.32311167589859641 0 0.43310033380570268 -0.32698071435000869 0 0.43310033380570268 -0.32698071435000869 0 0.41789705919946318 -0.33086643826843909 0 0.4183054650163075 -0.3134215896886472 0 0.43864603100659971 -0.30488498370455719 0 0.43310033380570268 -0.32698071435000869 0 0.4183054650163075 -0.3134215896886472 0 0.44503462300311369 -0.34372410383907942 0 0.43310033380570268 -0.32698071435000869 0 0.42828547821977492 -0.34587549470073298 0 0.43310033380570268 -0.32698071435000869 0 0.41789705919946318 -0.33086643826843909 0 0.42828547821977492 -0.34587549470073298 0 0.41789705919946318 -0.33086643826843909 0 0.41332717651963652 -0.34764120812526977 0 0.40489101440610192 -0.33704687198149319 0 0.41789705919946318 -0.33086643826843909 0 0.39834129906819221 -0.32434733485480299 0 0.40489101440610192 -0.33704687198149319 0 0.41789705919946318 -0.33086643826843909 0 0.42828547821977492 -0.34587549470073298 0 0.41332717651963652 -0.34764120812526977 0 0.41789705919946318 -0.33086643826843909 0 0.4183054650163075 -0.3134215896886472 0 0.39834129906819221 -0.32434733485480299 0 0.4183054650163075 -0.3134215896886472 0 0.39834129906819221 -0.32434733485480299 0 0.43867486081849433 -0.36130934404729481 0 0.43173518279844469 -0.3729882115151803 0 0.42232371983249373 -0.36099190521492541 0 0.43173518279844469 -0.3729882115151803 0 0.42232371983249373 -0.36099190521492541 0 0.41790081284247721 -0.37481342716703497 0 0.43867486081849433 -0.36130934404729481 0 0.42232371983249373 -0.36099190521492541 0 0.42828547821977492 -0.34587549470073298 0 0.43867486081849433 -0.36130934404729481 0 0.44503462300311369 -0.34372410383907942 0 0.42828547821977492 -0.34587549470073298 0 0.42232371983249373 -0.36099190521492541 0 0.41332717651963652 -0.34764120812526977 0 0.40597436352804778 -0.36214945792892128 0 0.42232371983249373 -0.36099190521492541 0 0.42828547821977492 -0.34587549470073298 0 0.41332717651963652 -0.34764120812526977 0 0.42232371983249373 -0.36099190521492541 0 0.41790081284247721 -0.37481342716703497 0 0.40597436352804778 -0.36214945792892128 0 0.41790081284247721 -0.37481342716703497 0 0.40450334126740922 -0.37448723813033052 0 0.40597436352804778 -0.36214945792892128 0 0.39647503679702178 -0.36904805118264111 0 0.40597436352804778 -0.36214945792892128 0 0.38954395803848663 -0.35764428883903637 0 0.39647503679702178 -0.36904805118264111 0 0.38552434399859797 -0.37047350847735822 0 0.39409008608124491 -0.38201818132998799 0 0.39647503679702178 -0.36904805118264111 0 0.40450334126740922 -0.37448723813033052 0 0.40597436352804778 -0.36214945792892128 0 0.41332717651963652 -0.34764120812526977 0 0.40597436352804778 -0.36214945792892128 0 0.39734715576104912 -0.34745843824937261 0 0.40597436352804778 -0.36214945792892128 0 0.39734715576104912 -0.34745843824937261 0 0.38954395803848663 -0.35764428883903637 0 0.41332717651963652 -0.34764120812526977 0 0.39734715576104912 -0.34745843824937261 0 0.40489101440610192 -0.33704687198149319 0 0.39734715576104912 -0.34745843824937261 0 0.385170819795005 -0.35044692747421052 0 0.38954395803848663 -0.35764428883903637 0 0.385170819795005 -0.35044692747421052 0 0.37555041745191192 -0.36021720696395498 0 0.3782417479285734 -0.33646777584448001 0 0.37555041745191192 -0.36021720696395498 0 0.3782417479285734 -0.33646777584448001 0 0.39734715576104912 -0.34745843824937261 0 0.385170819795005 -0.35044692747421052 0 0.3782417479285734 -0.33646777584448001 0 0.38954395803848663 -0.35764428883903637 0 0.37555041745191192 -0.36021720696395498 0 0.385170819795005 -0.35044692747421052 0 0.38954395803848663 -0.35764428883903637 0 0.37555041745191192 -0.36021720696395498 0 0.37555041745191192 -0.36021720696395498 0 0.38552434399859797 -0.37047350847735822 0 0.37272962845428481 -0.38510903447554901 0 0.38954395803848663 -0.35764428883903637 0 0.37555041745191192 -0.36021720696395498 0 0.38552434399859797 -0.37047350847735822 0 0.39647503679702178 -0.36904805118264111 0 0.38954395803848663 -0.35764428883903637 0 0.38552434399859797 -0.37047350847735822 0 0.39734715576104912 -0.34745843824937261 0 0.40489101440610192 -0.33704687198149319 0 0.39050436579935283 -0.33725237994194379 0 0.39834129906819221 -0.32434733485480299 0 0.40489101440610192 -0.33704687198149319 0 0.39050436579935283 -0.33725237994194379 0 0.39834129906819221 -0.32434733485480299 0 0.3782417479285734 -0.33646777584448001 0 0.39050436579935283 -0.33725237994194379 0 0.39734715576104912 -0.34745843824937261 0 0.3782417479285734 -0.33646777584448001 0 0.39050436579935283 -0.33725237994194379 0 0.39834129906819221 -0.32434733485480299 0 0.3782417479285734 -0.33646777584448001 0 0.39734715576104912 -0.34745843824937261 0 0.3782417479285734 -0.33646777584448001 0 0.3782417479285734 -0.33646777584448001 0 0.38094579558661268 -0.31260612297230789 0 0.39834129906819221 -0.32434733485480299 0 0.3782417479285734 -0.33646777584448001 0 0.38094579558661268 -0.31260612297230789 0 0.37623316835783699 -0.308743491446899 0 0.39580253272581362 -0.29343223163908982 0 0.38303886807504289 -0.29526880696839503 0 0.37623316835783699 -0.308743491446899 0 0.39580253272581362 -0.29343223163908982 0 0.37623316835783699 -0.308743491446899 0 0.38131906864075388 -0.30931220467985537 0 0.39580253272581362 -0.29343223163908982 0 0.38094579558661268 -0.31260612297230789 0 0.38131906864075388 -0.30931220467985537 0 0.40430788913651039 -0.29737724823203088 0 0.38094579558661268 -0.31260612297230789 0 0.37623316835783699 -0.308743491446899 0 0.38131906864075388 -0.30931220467985537 0 0.38094579558661268 -0.31260612297230789 0 0.38131906864075388 -0.30931220467985537 0 0.37623316835783699 -0.308743491446899 0 0.37615535161186081 -0.29925419429213179 0 0.38303886807504289 -0.29526880696839503 0 0.39834129906819221 -0.32434733485480299 0 0.38094579558661268 -0.31260612297230789 0 0.40430788913651039 -0.29737724823203088 0 0.38094579558661268 -0.31260612297230789 0 0.40430788913651039 -0.29737724823203088 0 0.38131906864075388 -0.30931220467985537 0 0.40430788913651039 -0.29737724823203088 0 0.39580253272581362 -0.29343223163908982 0 0.39580253272581362 -0.29343223163908982 0 0.41537189709379008 -0.27812097183128071 0 0.40430788913651039 -0.29737724823203088 0 0.39580253272581362 -0.29343223163908982 0 0.41537189709379008 -0.27812097183128071 0 0.39580253272581362 -0.29343223163908982 0 0.39967668719542759 -0.27863848705421168 0 0.41537189709379008 -0.27812097183128071 0 0.39580253272581362 -0.29343223163908982 0 0.38736669944971269 -0.28394952646088628 0 0.39967668719542759 -0.27863848705421168 0 0.39580253272581362 -0.29343223163908982 0 0.38736669944971269 -0.28394952646088628 0 0.38303886807504289 -0.29526880696839503 0 0.37615535161186081 -0.29925419429213179 0 0.38303886807504289 -0.29526880696839503 0 0.37768028602440051 -0.29043159680507991 0 0.38736669944971269 -0.28394952646088628 0 0.38303886807504289 -0.29526880696839503 0 0.37768028602440051 -0.29043159680507991 0 0.38736669944971269 -0.28394952646088628 0 0.37768028602440051 -0.29043159680507991 0 0.37545665948974949 -0.27586083033512948 0 0.38736669944971269 -0.28394952646088628 0 0.37545665948974949 -0.27586083033512948 0 0.39159378601419498 -0.2692213732594434 0 0.37531286046986467 -0.24987446479765299 0 0.40055259905867779 -0.2555561427822598 0 0.37531286046986467 -0.24987446479765299 0 0.40055259905867779 -0.2555561427822598 0 0.39159378601419498 -0.2692213732594434 0 0.37531286046986467 -0.24987446479765299 0 0.37545665948974949 -0.27586083033512948 0 0.39159378601419498 -0.2692213732594434 0 0.40055259905867779 -0.2555561427822598 0 0.39159378601419498 -0.2692213732594434 0 0.40659746140191633 -0.26855495913881239 0 0.38736669944971269 -0.28394952646088628 0 0.39159378601419498 -0.2692213732594434 0 0.39967668719542759 -0.27863848705421168 0 0.39159378601419498 -0.2692213732594434 0 0.39967668719542759 -0.27863848705421168 0 0.40659746140191633 -0.26855495913881239 0 0.39967668719542759 -0.27863848705421168 0 0.41537189709379008 -0.27812097183128071 0 0.40659746140191633 -0.26855495913881239 0 0.41537189709379008 -0.27812097183128071 0 0.40659746140191633 -0.26855495913881239 0 0.42579233764749091 -0.26123782076686652 0 0.40055259905867779 -0.2555561427822598 0 0.42579233764749091 -0.26123782076686652 0 0.40055259905867779 -0.2555561427822598 0 0.40659746140191633 -0.26855495913881239 0 0.42579233764749091 -0.26123782076686652 0 0.41273322572349902 -0.24247237689741061 0 0.40055259905867779 -0.2555561427822598 0 0.42579233764749091 -0.26123782076686652 0 0.42736012153613578 -0.24200648542438441 0 0.4383833448491935 -0.25188456894210481 0 0.42579233764749091 -0.26123782076686652 0 0.45103207623630392 -0.26691949875147392 0 0.42579233764749091 -0.26123782076686652 0 0.42766998268640732 -0.2821483734917527 0 0.41537189709379008 -0.27812097183128071 0 0.42579233764749091 -0.26123782076686652 0 0.42766998268640732 -0.2821483734917527 0 0.43864603100659971 -0.30488498370455719 0 0.4183054650163075 -0.3134215896886472 0 0.42766998268640732 -0.2821483734917527 0 0.4183054650163075 -0.3134215896886472 0 0.40430788913651039 -0.29737724823203088 0 0.42766998268640732 -0.2821483734917527 0 0.4183054650163075 -0.3134215896886472 0 0.39834129906819221 -0.32434733485480299 0 0.40430788913651039 -0.29737724823203088 0 0.40430788913651039 -0.29737724823203088 0 0.42766998268640732 -0.2821483734917527 0 0.40430788913651039 -0.29737724823203088 0 0.41537189709379008 -0.27812097183128071 0 0.42766998268640732 -0.2821483734917527 0 0.5 -0.5 0 0.46946994189670949 -0.47974363822268268 0 0.43099485396073822 -0.5 0 0.44108123307873898 -0.48040707992843379 0 0.46946994189670949 -0.47974363822268268 0 0.43099485396073822 -0.5 0 0.44108123307873898 -0.48040707992843379 0 0.45116761219673979 -0.46081415985686758 0 0.44108123307873898 -0.48040707992843379 0 0.46946994189670949 -0.47974363822268268 0 0.45116761219673979 -0.46081415985686758 0 0.5 -0.5 0 0.46946994189670949 -0.47974363822268268 0 0.5 -0.45272310867594578 0 0.46946994189670949 -0.47974363822268268 0 0.47130711774708511 -0.45324746024694962 0 0.5 -0.45272310867594578 0 0.47130711774708511 -0.45324746024694962 0 0.45726535642798483 -0.44241783221992348 0 0.47863267821399141 -0.43053856225932868 0 0.47130711774708511 -0.45324746024694962 0 0.5 -0.45272310867594578 0 0.47863267821399141 -0.43053856225932868 0 0.47130711774708511 -0.45324746024694962 0 0.45726535642798483 -0.44241783221992348 0 0.45116761219673979 -0.46081415985686758 0 0.46946994189670949 -0.47974363822268268 0 0.47130711774708511 -0.45324746024694962 0 0.45116761219673979 -0.46081415985686758 0 0.44108123307873898 -0.48040707992843379 0 0.45116761219673979 -0.46081415985686758 0 0.43472392571826168 -0.46474167674158218 0 0.45116761219673979 -0.46081415985686758 0 0.44218184856627007 -0.44792920286065152 0 0.43472392571826168 -0.46474167674158218 0 0.45726535642798483 -0.44241783221992348 0 0.45116761219673979 -0.46081415985686758 0 0.44218184856627007 -0.44792920286065152 0 0.45726535642798483 -0.44241783221992348 0 0.44218184856627007 -0.44792920286065152 0 0.43549445238738332 -0.42453863182007351 0 0.45726535642798483 -0.44241783221992348 0 0.46139193402962242 -0.41592326925758299 0 0.43549445238738332 -0.42453863182007351 0 0.46139193402962242 -0.41592326925758299 0 0.44396823303967081 -0.39938484242676348 0 0.43549445238738332 -0.42453863182007351 0 0.44396823303967081 -0.39938484242676348 0 0.43549445238738332 -0.42453863182007351 0 0.45726535642798483 -0.44241783221992348 0 0.46139193402962242 -0.41592326925758299 0 0.47863267821399141 -0.43053856225932868 0 0.45726535642798483 -0.44241783221992348 0 0.47863267821399141 -0.43053856225932868 0 0.5 -0.45272310867594578 0 0.47863267821399141 -0.43053856225932868 0 0.49999999999999822 -0.41865929229873478 0 0.47863267821399141 -0.43053856225932868 0 0.49999999999999822 -0.41865929229873478 0 0.49999999999999822 -0.41865929229873478 0 0.48100676758887018 -0.40898542135137639 0 0.5 -0.39931155040401928 0 0.47863267821399141 -0.43053856225932868 0 0.49999999999999822 -0.41865929229873478 0 0.48100676758887018 -0.40898542135137639 0 0.46139193402962242 -0.41592326925758299 0 0.47863267821399141 -0.43053856225932868 0 0.48100676758887018 -0.40898542135137639 0 0.46139193402962242 -0.41592326925758299 0 0.48100676758887018 -0.40898542135137639 0 0.47198411651983302 -0.38967432546803221 0 0.48100676758887018 -0.40898542135137639 0 0.5 -0.39931155040401928 0 0.47198411651983302 -0.38967432546803221 0 0.49999999999999623 -0.37996380850930378 0 0.47198411651983302 -0.38967432546803221 0 0.5 -0.39931155040401928 0 0.49999999999999623 -0.37996380850930378 0 0.47198411651983302 -0.38967432546803221 0 0.47989172066504981 -0.36721893838852748 0 0.46551523231402669 -0.37442494489753242 0 0.47198411651983302 -0.38967432546803221 0 0.47989172066504981 -0.36721893838852748 0 0.49999999999999623 -0.37996380850930378 0 0.47198411651983302 -0.38967432546803221 0 0.46551523231402669 -0.37442494489753242 0 0.47198411651983302 -0.38967432546803221 0 0.45046660044732628 -0.38009492074011481 0 0.47198411651983302 -0.38967432546803221 0 0.44396823303967081 -0.39938484242676348 0 0.45046660044732628 -0.38009492074011481 0 0.46139193402962242 -0.41592326925758299 0 0.47198411651983302 -0.38967432546803221 0 0.44396823303967081 -0.39938484242676348 0 0.47198411651983302 -0.38967432546803221 0 0.44396823303967081 -0.39938484242676348 0 0.44396823303967081 -0.39938484242676348 0 0.43471010249848929 -0.40259378044543698 0 0.44396823303967081 -0.39938484242676348 0 0.45046660044732628 -0.38009492074011481 0 0.44396823303967081 -0.39938484242676348 0 0.45046660044732628 -0.38009492074011481 0 0.43322103151525659 -0.38538288479629451 0 0.43173518279844469 -0.3729882115151803 0 0.45046660044732628 -0.38009492074011481 0 0.43322103151525659 -0.38538288479629451 0 0.41790081284247721 -0.37481342716703497 0 0.43322103151525659 -0.38538288479629451 0 0.41826863628524291 -0.39313149949957682 0 0.43173518279844469 -0.3729882115151803 0 0.41790081284247721 -0.37481342716703497 0 0.43322103151525659 -0.38538288479629451 0 0.44396823303967081 -0.39938484242676348 0 0.43322103151525659 -0.38538288479629451 0 0.4302515151033709 -0.39540893875082311 0 0.44396823303967081 -0.39938484242676348 0 0.43471010249848929 -0.40259378044543698 0 0.43023062423538039 -0.41374032809816891 0 0.44396823303967081 -0.39938484242676348 0 0.4302515151033709 -0.39540893875082311 0 0.43471010249848929 -0.40259378044543698 0 0.4302515151033709 -0.39540893875082311 0 0.43471010249848929 -0.40259378044543698 0 0.42575464060776053 -0.40259145205065477 0 0.4302515151033709 -0.39540893875082311 0 0.42575464060776053 -0.40259145205065477 0 0.41826863628524291 -0.39313149949957682 0 0.43322103151525659 -0.38538288479629451 0 0.4302515151033709 -0.39540893875082311 0 0.41826863628524291 -0.39313149949957682 0 0.41826863628524291 -0.39313149949957682 0 0.40288006789357411 -0.39911743788083343 0 0.41628421417247902 -0.40934099793106232 0 0.42575464060776053 -0.40259145205065477 0 0.41826863628524291 -0.39313149949957682 0 0.41628421417247902 -0.40934099793106232 0 0.41826863628524291 -0.39313149949957682 0 0.4080764070882541 -0.38440707304306693 0 0.40288006789357411 -0.39911743788083343 0 0.41790081284247721 -0.37481342716703497 0 0.41826863628524291 -0.39313149949957682 0 0.4080764070882541 -0.38440707304306693 0 0.41790081284247721 -0.37481342716703497 0 0.40450334126740922 -0.37448723813033052 0 0.4080764070882541 -0.38440707304306693 0 0.40450334126740922 -0.37448723813033052 0 0.4080764070882541 -0.38440707304306693 0 0.39409008608124491 -0.38201818132998799 0 0.4080764070882541 -0.38440707304306693 0 0.39409008608124491 -0.38201818132998799 0 0.40288006789357411 -0.39911743788083343 0 0.39647503679702178 -0.36904805118264111 0 0.40450334126740922 -0.37448723813033052 0 0.39409008608124491 -0.38201818132998799 0 0.38552434399859797 -0.37047350847735822 0 0.39409008608124491 -0.38201818132998799 0 0.37272962845428481 -0.38510903447554901 0 0.39409008608124491 -0.38201818132998799 0 0.38563917576358459 -0.39798095198727079 0 0.37272962845428481 -0.38510903447554901 0 0.38563917576358459 -0.39798095198727079 0 0.3699088394566572 -0.41000086198714292 0 0.37272962845428481 -0.38510903447554901 0 0.38563917576358459 -0.39798095198727079 0 0.40288006789357411 -0.39911743788083343 0 0.38858725693216212 -0.41365924426284062 0 0.39409008608124491 -0.38201818132998799 0 0.38563917576358459 -0.39798095198727079 0 0.40288006789357411 -0.39911743788083343 0 0.40413708174346868 -0.41620623344497332 0 0.38858725693216212 -0.41365924426284062 0 0.39643003017021661 -0.43138229417986451 0 0.40288006789357411 -0.39911743788083343 0 0.40413708174346868 -0.41620623344497332 0 0.38858725693216212 -0.41365924426284062 0 0.38858725693216212 -0.41365924426284062 0 0.38025077806538948 -0.4279530226802738 0 0.3699088394566572 -0.41000086198714292 0 0.38563917576358459 -0.39798095198727079 0 0.38858725693216212 -0.41365924426284062 0 0.3699088394566572 -0.41000086198714292 0 0.38858725693216212 -0.41365924426284062 0 0.38025077806538948 -0.4279530226802738 0 0.39643003017021661 -0.43138229417986451 0 0.38025077806538948 -0.4279530226802738 0 0.39643003017021661 -0.43138229417986451 0 0.38257496510000361 -0.44938266250838471 0 0.39643003017021661 -0.43138229417986451 0 0.4165038395489119 -0.42753119297026537 0 0.40578385876807871 -0.45116194898885142 0 0.40413708174346868 -0.41620623344497332 0 0.39643003017021661 -0.43138229417986451 0 0.4165038395489119 -0.42753119297026537 0 0.40288006789357411 -0.39911743788083343 0 0.40413708174346868 -0.41620623344497332 0 0.41628421417247902 -0.40934099793106232 0 0.40413708174346868 -0.41620623344497332 0 0.4165038395489119 -0.42753119297026537 0 0.41628421417247902 -0.40934099793106232 0 0.4165038395489119 -0.42753119297026537 0 0.41628421417247902 -0.40934099793106232 0 0.43023062423538039 -0.41374032809816891 0 0.44396823303967081 -0.39938484242676348 0 0.43023062423538039 -0.41374032809816891 0 0.43549445238738332 -0.42453863182007351 0 0.42575464060776053 -0.40259145205065477 0 0.41628421417247902 -0.40934099793106232 0 0.43023062423538039 -0.41374032809816891 0 0.43471010249848929 -0.40259378044543698 0 0.42575464060776053 -0.40259145205065477 0 0.43023062423538039 -0.41374032809816891 0 0.4165038395489119 -0.42753119297026537 0 0.43549445238738332 -0.42453863182007351 0 0.42702067173509478 -0.44969242121338321 0 0.43549445238738332 -0.42453863182007351 0 0.42702067173509478 -0.44969242121338321 0 0.4165038395489119 -0.42753119297026537 0 0.43023062423538039 -0.41374032809816891 0 0.43549445238738332 -0.42453863182007351 0 0.44218184856627007 -0.44792920286065152 0 0.43549445238738332 -0.42453863182007351 0 0.42702067173509478 -0.44969242121338321 0 0.42702067173509478 -0.44969242121338321 0 0.41854689108280629 -0.47484621060669291 0 0.44218184856627007 -0.44792920286065152 0 0.42702067173509478 -0.44969242121338321 0 0.43472392571826168 -0.46474167674158218 0 0.42702067173509478 -0.44969242121338321 0 0.43472392571826168 -0.46474167674158218 0 0.41854689108280629 -0.47484621060669291 0 0.42702067173509478 -0.44969242121338321 0 0.40578385876807871 -0.45116194898885142 0 0.41854689108280629 -0.47484621060669291 0 0.4165038395489119 -0.42753119297026537 0 0.42702067173509478 -0.44969242121338321 0 0.40578385876807871 -0.45116194898885142 0 0.39643003017021661 -0.43138229417986451 0 0.40578385876807871 -0.45116194898885142 0 0.38257496510000361 -0.44938266250838471 0 0.38025077806538948 -0.4279530226802738 0 0.38257496510000361 -0.44938266250838471 0 0.36375279866790811 -0.43534005046313651 0 0.38257496510000361 -0.44938266250838471 0 0.39362675497143917 -0.47413691245451828 0 0.36470375458899063 -0.47274790987875742 0 0.40578385876807871 -0.45116194898885142 0 0.39362675497143917 -0.47413691245451828 0 0.41854689108280629 -0.47484621060669291 0 0.40578385876807871 -0.45116194898885142 0 0.38257496510000361 -0.44938266250838471 0 0.39362675497143917 -0.47413691245451828 0 0.39362675497143917 -0.47413691245451828 0 0.38093311223710158 -0.5 0 0.36470375458899063 -0.47274790987875742 0 0.39362675497143917 -0.47413691245451828 0 0.38093311223710158 -0.5 0 0.4100731104305172 -0.50000000000000222 0 0.4100731104305172 -0.50000000000000222 0 0.41854689108280629 -0.47484621060669291 0 0.43099485396073822 -0.5 0 0.4100731104305172 -0.50000000000000222 0 0.41854689108280629 -0.47484621060669291 0 0.39362675497143917 -0.47413691245451828 0 0.4100731104305172 -0.50000000000000222 0 0.41854689108280629 -0.47484621060669291 0 0.44108123307873898 -0.48040707992843379 0 0.43472392571826168 -0.46474167674158218 0 0.41854689108280629 -0.47484621060669291 0 0.44108123307873898 -0.48040707992843379 0 0.41854689108280629 -0.47484621060669291 0 0.43099485396073822 -0.5 0 0.44108123307873898 -0.48040707992843379 0 0.43099485396073822 -0.5 0 0.32265311585027051 -0.5 0 0.31802578941731752 -0.47002029016630098 0 0.30805942879379578 -0.48705355360077629 0 0.32265311585027051 -0.5 0 0.31802578941731752 -0.47002029016630098 0 0.34123612231346218 -0.47918828874125491 0 0.32265311585027051 -0.5 0 0.34123612231346218 -0.47918828874125491 0 0.35179311404368607 -0.5 0 0.38093311223710158 -0.5 0 0.35179311404368607 -0.5 0 0.36470375458899063 -0.47274790987875742 0 0.34123612231346218 -0.47918828874125491 0 0.35179311404368607 -0.5 0 0.36470375458899063 -0.47274790987875742 0 0.34123612231346218 -0.47918828874125491 0 0.36470375458899063 -0.47274790987875742 0 0.34192578260407508 -0.45156733781982211 0 0.36470375458899063 -0.47274790987875742 0 0.36270136080347049 -0.45267629558364492 0 0.34192578260407508 -0.45156733781982211 0 0.38257496510000361 -0.44938266250838471 0 0.36470375458899063 -0.47274790987875742 0 0.36270136080347049 -0.45267629558364492 0 0.38257496510000361 -0.44938266250838471 0 0.36270136080347049 -0.45267629558364492 0 0.36375279866790811 -0.43534005046313651 0 0.36270136080347049 -0.45267629558364492 0 0.34192578260407508 -0.45156733781982211 0 0.36375279866790811 -0.43534005046313651 0 0.31802578941731752 -0.47002029016630098 0 0.34123612231346218 -0.47918828874125491 0 0.34192578260407508 -0.45156733781982211 0 0.31802578941731752 -0.47002029016630098 0 0.34192578260407508 -0.45156733781982211 0 0.31193004808088159 -0.44390924573674911 0 0.34192578260407508 -0.45156733781982211 0 0.32297699175637329 -0.42927996576477739 0 0.31193004808088159 -0.44390924573674911 0 0.34192578260407508 -0.45156733781982211 0 0.32297699175637329 -0.42927996576477739 0 0.34475298516792557 -0.41928742299709282 0 0.32297699175637329 -0.42927996576477739 0 0.31604890792913931 -0.41230785771802558 0 0.34475298516792557 -0.41928742299709282 0 0.31604890792913931 -0.41230785771802558 0 0.34475298516792557 -0.41928742299709282 0 0.33909502073574921 -0.40006910435061771 0 0.34192578260407508 -0.45156733781982211 0 0.36375279866790811 -0.43534005046313651 0 0.34475298516792557 -0.41928742299709282 0 0.38025077806538948 -0.4279530226802738 0 0.36375279866790811 -0.43534005046313651 0 0.3699088394566572 -0.41000086198714292 0 0.36375279866790811 -0.43534005046313651 0 0.3699088394566572 -0.41000086198714292 0 0.34475298516792557 -0.41928742299709282 0 0.3699088394566572 -0.41000086198714292 0 0.34475298516792557 -0.41928742299709282 0 0.355334561446213 -0.39940634791475149 0 0.34475298516792557 -0.41928742299709282 0 0.355334561446213 -0.39940634791475149 0 0.33909502073574921 -0.40006910435061771 0 0.355334561446213 -0.39940634791475149 0 0.35018633341644823 -0.38256531576335501 0 0.33909502073574921 -0.40006910435061771 0 0.3699088394566572 -0.41000086198714292 0 0.355334561446213 -0.39940634791475149 0 0.37272962845428481 -0.38510903447554901 0 0.3699088394566572 -0.41000086198714292 0 0.37272962845428481 -0.38510903447554901 0 0.37272962845428481 -0.38510903447554901 0 0.35018633341644823 -0.38256531576335501 0 0.36020787325972198 -0.36312398923595202 0 0.355334561446213 -0.39940634791475149 0 0.37272962845428481 -0.38510903447554901 0 0.35018633341644823 -0.38256531576335501 0 0.35018633341644823 -0.38256531576335501 0 0.32617447541743738 -0.38519783948064867 0 0.33551852810642863 -0.36768194365085621 0 0.35018633341644823 -0.38256531576335501 0 0.33909502073574921 -0.40006910435061771 0 0.32617447541743738 -0.38519783948064867 0 0.31604890792913931 -0.41230785771802558 0 0.33909502073574921 -0.40006910435061771 0 0.32617447541743738 -0.38519783948064867 0 0.31604890792913931 -0.41230785771802558 0 0.32617447541743738 -0.38519783948064867 0 0.3074279785970222 -0.39002723917202697 0 0.32617447541743738 -0.38519783948064867 0 0.33551852810642863 -0.36768194365085621 0 0.31082918295313522 -0.3722398980657603 0 0.32617447541743738 -0.38519783948064867 0 0.3074279785970222 -0.39002723917202697 0 0.31082918295313522 -0.3722398980657603 0 0.3074279785970222 -0.39002723917202697 0 0.28971279920416632 -0.38379621493226929 0 0.31082918295313522 -0.3722398980657603 0 0.28971279920416632 -0.38379621493226929 0 0.29755842198186622 -0.37468984249249881 0 0.31082918295313522 -0.3722398980657603 0 0.28971279920416632 -0.38379621493226929 0 0.31082918295313522 -0.3722398980657603 0 0.31604890792913931 -0.41230785771802558 0 0.3074279785970222 -0.39002723917202697 0 0.29523206036356098 -0.40049242940402291 0 0.3074279785970222 -0.39002723917202697 0 0.29523206036356098 -0.40049242940402291 0 0.28971279920416632 -0.38379621493226929 0 0.29523206036356098 -0.40049242940402291 0 0.27991584435091299 -0.39225126907960722 0 0.27949337492996501 -0.40895411137368087 0 0.29523206036356098 -0.40049242940402291 0 0.28971279920416632 -0.38379621493226929 0 0.27991584435091299 -0.39225126907960722 0 0.28971279920416632 -0.38379621493226929 0 0.28102208363028658 -0.37774265235553639 0 0.27991584435091299 -0.39225126907960722 0 0.28971279920416632 -0.38379621493226929 0 0.29755842198186622 -0.37468984249249881 0 0.2959256332917109 -0.37499127521064868 0 0.28971279920416632 -0.38379621493226929 0 0.28102208363028658 -0.37774265235553639 0 0.2959256332917109 -0.37499127521064868 0 0.28102208363028658 -0.37774265235553639 0 0.2959256332917109 -0.37499127521064868 0 0.28102208363028658 -0.37774265235553639 0 0.25308564744576267 -0.38290005940110028 0 0.28102208363028658 -0.37774265235553639 0 0.27154061719145839 -0.38392326559735268 0 0.25308564744576267 -0.38290005940110028 0 0.28102208363028658 -0.37774265235553639 0 0.27154061719145839 -0.38392326559735268 0 0.28102208363028658 -0.37774265235553639 0 0.27154061719145839 -0.38392326559735268 0 0.27991584435091299 -0.39225126907960722 0 0.27154061719145839 -0.38392326559735268 0 0.26601233881623598 -0.39398444742736149 0 0.27991584435091299 -0.39225126907960722 0 0.27154061719145839 -0.38392326559735268 0 0.25308564744576267 -0.38290005940110028 0 0.26601233881623598 -0.39398444742736149 0 0.25540763311385722 -0.40033834997336071 0 0.27133537286068121 -0.4026050184124691 0 0.2668903913377455 -0.41268165738231932 0 0.25540763311385722 -0.40033834997336071 0 0.27133537286068121 -0.4026050184124691 0 0.26601233881623598 -0.39398444742736149 0 0.25308564744576267 -0.38290005940110028 0 0.25540763311385722 -0.40033834997336071 0 0.26601233881623598 -0.39398444742736149 0 0.27133537286068121 -0.4026050184124691 0 0.27991584435091299 -0.39225126907960722 0 0.27949337492996501 -0.40895411137368087 0 0.27133537286068121 -0.4026050184124691 0 0.26601233881623598 -0.39398444742736149 0 0.27991584435091299 -0.39225126907960722 0 0.27949337492996501 -0.40895411137368087 0 0.2701723053546769 -0.4251893566985972 0 0.29311060664190808 -0.41874860720831142 0 0.27949337492996501 -0.40895411137368087 0 0.2668903913377455 -0.41268165738231932 0 0.2701723053546769 -0.4251893566985972 0 0.27133537286068121 -0.4026050184124691 0 0.27949337492996501 -0.40895411137368087 0 0.2668903913377455 -0.41268165738231932 0 0.25540763311385722 -0.40033834997336071 0 0.2668903913377455 -0.41268165738231932 0 0.25658566081208389 -0.41789106618104838 0 0.25540763311385722 -0.40033834997336071 0 0.25658566081208389 -0.41789106618104838 0 0.24358552477742609 -0.41039978551074952 0 0.2668903913377455 -0.41268165738231932 0 0.25658566081208389 -0.41789106618104838 0 0.2701723053546769 -0.4251893566985972 0 0.2701723053546769 -0.4251893566985972 0 0.26175929129889458 -0.43952028970600659 0 0.24723400406744539 -0.43163010618888198 0 0.2701723053546769 -0.4251893566985972 0 0.24723400406744539 -0.43163010618888198 0 0.25658566081208389 -0.41789106618104838 0 0.2701723053546769 -0.4251893566985972 0 0.24723400406744539 -0.43163010618888198 0 0.25658566081208389 -0.41789106618104838 0 0.24723400406744539 -0.43163010618888198 0 0.2701723053546769 -0.4251893566985972 0 0.27614531883197369 -0.43888508677143701 0 0.26175929129889458 -0.43952028970600659 0 0.2701723053546769 -0.4251893566985972 0 0.29311060664190808 -0.41874860720831142 0 0.27614531883197369 -0.43888508677143701 0 0.29311060664190808 -0.41874860720831142 0 0.29094887783846368 -0.44292062029092871 0 0.27614531883197369 -0.43888508677143701 0 0.2701723053546769 -0.4251893566985972 0 0.29311060664190808 -0.41874860720831142 0 0.29523206036356098 -0.40049242940402291 0 0.27949337492996501 -0.40895411137368087 0 0.29311060664190808 -0.41874860720831142 0 0.32297699175637329 -0.42927996576477739 0 0.31604890792913931 -0.41230785771802558 0 0.29311060664190808 -0.41874860720831142 0 0.31604890792913931 -0.41230785771802558 0 0.29311060664190808 -0.41874860720831142 0 0.31604890792913931 -0.41230785771802558 0 0.29523206036356098 -0.40049242940402291 0 0.29311060664190808 -0.41874860720831142 0 0.29311060664190808 -0.41874860720831142 0 0.31193004808088159 -0.44390924573674911 0 0.29094887783846368 -0.44292062029092871 0 0.32297699175637329 -0.42927996576477739 0 0.29311060664190808 -0.41874860720831142 0 0.31193004808088159 -0.44390924573674911 0 0.31193004808088159 -0.44390924573674911 0 0.29989319614301818 -0.45692279124334062 0 0.29094887783846368 -0.44292062029092871 0 0.31802578941731752 -0.47002029016630098 0 0.29989319614301818 -0.45692279124334062 0 0.29788044504340672 -0.47201329814424059 0 0.31802578941731752 -0.47002029016630098 0 0.31193004808088159 -0.44390924573674911 0 0.29989319614301818 -0.45692279124334062 0 0.29989319614301818 -0.45692279124334062 0 0.28260247713290082 -0.46015334445387018 0 0.29094887783846368 -0.44292062029092871 0 0.29989319614301818 -0.45692279124334062 0 0.28260247713290082 -0.46015334445387018 0 0.29788044504340672 -0.47201329814424059 0 0.28260247713290082 -0.46015334445387018 0 0.29094887783846368 -0.44292062029092871 0 0.27614531883197369 -0.43888508677143701 0 0.28260247713290082 -0.46015334445387018 0 0.27614531883197369 -0.43888508677143701 0 0.26575548640993091 -0.45352614212392622 0 0.27614531883197369 -0.43888508677143701 0 0.26175929129889458 -0.43952028970600659 0 0.26575548640993091 -0.45352614212392622 0 0.26175929129889458 -0.43952028970600659 0 0.25134090353478428 -0.44885081937071208 0 0.24723400406744539 -0.43163010618888198 0 0.26175929129889458 -0.43952028970600659 0 0.25134090353478428 -0.44885081937071208 0 0.26575548640993091 -0.45352614212392622 0 0.26575548640993091 -0.45352614212392622 0 0.26389973928161531 -0.47149079180755982 0 0.24930921450839641 -0.46710015992857101 0 0.25134090353478428 -0.44885081937071208 0 0.26575548640993091 -0.45352614212392622 0 0.24930921450839641 -0.46710015992857101 0 0.28260247713290082 -0.46015334445387018 0 0.26575548640993091 -0.45352614212392622 0 0.26389973928161531 -0.47149079180755982 0 0.28260247713290082 -0.46015334445387018 0 0.27655377351762539 -0.48009451981944218 0 0.26389973928161531 -0.47149079180755982 0 0.27655377351762539 -0.48009451981944218 0 0.25522710199184429 -0.48817574149464371 0 0.26389973928161531 -0.47149079180755982 0 0.25522710199184429 -0.48817574149464371 0 0.24930921450839641 -0.46710015992857101 0 0.27655377351762539 -0.48009451981944218 0 0.26389973928161531 -0.47149079180755982 0 0.25522710199184429 -0.48817574149464371 0 0.27655377351762539 -0.48009451981944218 0 0.26437311946343928 -0.5 0 0.25522710199184429 -0.48817574149464371 0 0.26437311946343928 -0.5 0 0.25522710199184429 -0.48817574149464371 0 0.23523312127002391 -0.49999999999999961 0 0.27655377351762539 -0.48009451981944218 0 0.26437311946343928 -0.5 0 0.29351311765685489 -0.5 0 0.27655377351762539 -0.48009451981944218 0 0.29351311765685489 -0.5 0 0.29788044504340672 -0.47201329814424059 0 0.28260247713290082 -0.46015334445387018 0 0.27655377351762539 -0.48009451981944218 0 0.29788044504340672 -0.47201329814424059 0 0.27655377351762539 -0.48009451981944218 0 0.29788044504340672 -0.47201329814424059 0 0.31802578941731752 -0.47002029016630098 0 0.29788044504340672 -0.47201329814424059 0 0.30805942879379578 -0.48705355360077629 0 0.29351311765685489 -0.5 0 0.29788044504340672 -0.47201329814424059 0 0.30805942879379578 -0.48705355360077629 0 0.32265311585027051 -0.5 0 0.29351311765685489 -0.5 0 0.30805942879379578 -0.48705355360077629 0 0.32937120455532798 -0.29356757227250257 0 0.34041984873491332 -0.28996303026128911 0 0.33354875531520328 -0.2812494184283757 0 0.32937120455532798 -0.29356757227250257 0 0.32156217263547748 -0.28348608452119728 0 0.33354875531520328 -0.2812494184283757 0 0.34041984873491332 -0.28996303026128911 0 0.33354875531520328 -0.2812494184283757 0 0.34629278056565138 -0.27841974742081899 0 0.34041984873491332 -0.28996303026128911 0 0.33858562350784971 -0.30049504549570588 0 0.34899064409903868 -0.29862490235308592 0 0.32937120455532798 -0.29356757227250257 0 0.34041984873491332 -0.28996303026128911 0 0.33858562350784971 -0.30049504549570588 0 0.32937120455532798 -0.29356757227250257 0 0.33858562350784971 -0.30049504549570588 0 0.33429617221114921 -0.31118744730430881 0 0.33858562350784971 -0.30049504549570588 0 0.33429617221114921 -0.31118744730430881 0 0.33858562350784971 -0.30049504549570588 0 0.33429617221114921 -0.31118744730430881 0 0.34901654471061161 -0.30920364754580409 0 0.33429617221114921 -0.31118744730430881 0 0.31499245952604837 -0.30008270716249469 0 0.33429617221114921 -0.31118744730430881 0 0.31499245952604837 -0.30008270716249469 0 0.31221287158476668 -0.31572509813431959 0 0.32937120455532798 -0.29356757227250257 0 0.33429617221114921 -0.31118744730430881 0 0.31499245952604837 -0.30008270716249469 0 0.32937120455532798 -0.29356757227250257 0 0.31499245952604837 -0.30008270716249469 0 0.32156217263547748 -0.28348608452119728 0 0.31499245952604837 -0.30008270716249469 0 0.32156217263547748 -0.28348608452119728 0 0.30877013162655897 -0.28856868190066992 0 0.32156217263547748 -0.28348608452119728 0 0.31827924158274079 -0.26886432033666879 0 0.30877013162655897 -0.28856868190066992 0 0.31827924158274079 -0.26886432033666879 0 0.32775662081121021 -0.27352008856778448 0 0.32721965822474391 -0.26235115795146768 0 0.32156217263547748 -0.28348608452119728 0 0.31827924158274079 -0.26886432033666879 0 0.32775662081121021 -0.27352008856778448 0 0.32156217263547748 -0.28348608452119728 0 0.32775662081121021 -0.27352008856778448 0 0.33354875531520328 -0.2812494184283757 0 0.30942400473984011 -0.24791929280762351 0 0.3147876720107684 -0.24864408783740111 0 0.31394678997725278 -0.25587984262193197 0 0.3175488369447057 -0.25226417471789492 0 0.31394678997725278 -0.25587984262193197 0 0.32467888858373561 -0.2537804604895571 0 0.3147876720107684 -0.24864408783740111 0 0.3175488369447057 -0.25226417471789492 0 0.31394678997725278 -0.25587984262193197 0 0.3175488369447057 -0.25226417471789492 0 0.31394678997725278 -0.25587984262193197 0 0.31827924158274079 -0.26886432033666879 0 0.31394678997725278 -0.25587984262193197 0 0.32721965822474391 -0.26235115795146768 0 0.31394678997725278 -0.25587984262193197 0 0.32721965822474391 -0.26235115795146768 0 0.31394678997725278 -0.25587984262193197 0 0.32721965822474391 -0.26235115795146768 0 0.32467888858373561 -0.2537804604895571 0 0.32267276988329452 -0.2467724474561564 0 0.3175488369447057 -0.25226417471789492 0 0.32467888858373561 -0.2537804604895571 0 0.34367348492505478 -0.24622148262240881 0 0.33697261501345538 -0.25788496782473391 0 0.34951652513538572 -0.26351092456393671 0 0.33232483153245829 -0.24870480560670541 0 0.32467888858373561 -0.2537804604895571 0 0.33697261501345538 -0.25788496782473391 0 0.32721965822474391 -0.26235115795146768 0 0.32467888858373561 -0.2537804604895571 0 0.33697261501345538 -0.25788496782473391 0 0.32721965822474391 -0.26235115795146768 0 0.33697261501345538 -0.25788496782473391 0 0.33725271645006838 -0.27010654911905108 0 0.33697261501345538 -0.25788496782473391 0 0.33725271645006838 -0.27010654911905108 0 0.34951652513538572 -0.26351092456393671 0 0.33232483153245829 -0.24870480560670541 0 0.34367348492505478 -0.24622148262240881 0 0.33697261501345538 -0.25788496782473391 0 0.32775662081121021 -0.27352008856778448 0 0.33354875531520328 -0.2812494184283757 0 0.33725271645006838 -0.27010654911905108 0 0.32775662081121021 -0.27352008856778448 0 0.32721965822474391 -0.26235115795146768 0 0.33725271645006838 -0.27010654911905108 0 0.33354875531520328 -0.2812494184283757 0 0.33725271645006838 -0.27010654911905108 0 0.34629278056565138 -0.27841974742081899 0 0.34629278056565138 -0.27841974742081899 0 0.35866721197891888 -0.27961099665276162 0 0.34951652513538572 -0.26351092456393671 0 0.35866721197891888 -0.27961099665276162 0 0.34951652513538572 -0.26351092456393671 0 0.36362775543106152 -0.26359006963865522 0 0.33725271645006838 -0.27010654911905108 0 0.34629278056565138 -0.27841974742081899 0 0.34951652513538572 -0.26351092456393671 0 0.34367348492505478 -0.24622148262240881 0 0.34951652513538572 -0.26351092456393671 0 0.35824633897630531 -0.25042917759838351 0 0.34951652513538572 -0.26351092456393671 0 0.35824633897630531 -0.25042917759838351 0 0.36362775543106152 -0.26359006963865522 0 0.37531286046986467 -0.24987446479765299 0 0.35824633897630531 -0.25042917759838351 0 0.36362775543106152 -0.26359006963865522 0 0.37531286046986467 -0.24987446479765299 0 0.37545665948974949 -0.27586083033512948 0 0.36362775543106152 -0.26359006963865522 0 0.37545665948974949 -0.27586083033512948 0 0.35866721197891888 -0.27961099665276162 0 0.36807010847064242 -0.28770010135952812 0 0.37545665948974949 -0.27586083033512948 0 0.35866721197891888 -0.27961099665276162 0 0.36362775543106152 -0.26359006963865522 0 0.37768028602440051 -0.29043159680507991 0 0.37545665948974949 -0.27586083033512948 0 0.36807010847064242 -0.28770010135952812 0 0.37768028602440051 -0.29043159680507991 0 0.36807010847064242 -0.28770010135952812 0 0.36920861138200428 -0.29746398913192079 0 0.37615535161186081 -0.29925419429213179 0 0.37768028602440051 -0.29043159680507991 0 0.36920861138200428 -0.29746398913192079 0 0.36807010847064242 -0.28770010135952812 0 0.35933777347813861 -0.2951330938727485 0 0.36920861138200428 -0.29746398913192079 0 0.35866721197891888 -0.27961099665276162 0 0.36807010847064242 -0.28770010135952812 0 0.35933777347813861 -0.2951330938727485 0 0.34629278056565138 -0.27841974742081899 0 0.35866721197891888 -0.27961099665276162 0 0.3505998515180333 -0.28862581529109799 0 0.35866721197891888 -0.27961099665276162 0 0.35933777347813861 -0.2951330938727485 0 0.3505998515180333 -0.28862581529109799 0 0.35933777347813861 -0.2951330938727485 0 0.3505998515180333 -0.28862581529109799 0 0.34899064409903868 -0.29862490235308592 0 0.34041984873491332 -0.28996303026128911 0 0.3505998515180333 -0.28862581529109799 0 0.34899064409903868 -0.29862490235308592 0 0.34041984873491332 -0.28996303026128911 0 0.34629278056565138 -0.27841974742081899 0 0.3505998515180333 -0.28862581529109799 0 0.33858562350784971 -0.30049504549570588 0 0.34901654471061161 -0.30920364754580409 0 0.34899064409903868 -0.29862490235308592 0 0.35933777347813861 -0.2951330938727485 0 0.34899064409903868 -0.29862490235308592 0 0.35728595272465619 -0.30492435676375601 0 0.34901654471061161 -0.30920364754580409 0 0.34899064409903868 -0.29862490235308592 0 0.35728595272465619 -0.30492435676375601 0 0.34901654471061161 -0.30920364754580409 0 0.35735131375917301 -0.31167178562650572 0 0.35728595272465619 -0.30492435676375601 0 0.35728595272465619 -0.30492435676375601 0 0.36643895361156348 -0.30850438694175508 0 0.36399210249426911 -0.30236625930259908 0 0.35735131375917301 -0.31167178562650572 0 0.35728595272465619 -0.30492435676375601 0 0.36643895361156348 -0.30850438694175508 0 0.36643895361156348 -0.30850438694175508 0 0.36399210249426911 -0.30236625930259908 0 0.37029698084284601 -0.30336802444625133 0 0.35933777347813861 -0.2951330938727485 0 0.36399210249426911 -0.30236625930259908 0 0.36920861138200428 -0.29746398913192079 0 0.35933777347813861 -0.2951330938727485 0 0.35728595272465619 -0.30492435676375601 0 0.36399210249426911 -0.30236625930259908 0 0.37623316835783699 -0.308743491446899 0 0.37615535161186081 -0.29925419429213179 0 0.37029698084284601 -0.30336802444625133 0 0.36399210249426911 -0.30236625930259908 0 0.36920861138200428 -0.29746398913192079 0 0.37029698084284601 -0.30336802444625133 0 0.37615535161186081 -0.29925419429213179 0 0.36920861138200428 -0.29746398913192079 0 0.37029698084284601 -0.30336802444625133 0 0.37623316835783699 -0.308743491446899 0 0.36643895361156348 -0.30850438694175508 0 0.37029698084284601 -0.30336802444625133 0 0.38094579558661268 -0.31260612297230789 0 0.37623316835783699 -0.308743491446899 0 0.36023302979724792 -0.3261080000646685 0 0.37623316835783699 -0.308743491446899 0 0.36023302979724792 -0.3261080000646685 0 0.35666380398986042 -0.32405475125470801 0 0.38094579558661268 -0.31260612297230789 0 0.36023302979724792 -0.3261080000646685 0 0.37623316835783699 -0.308743491446899 0 0.35666380398986042 -0.32405475125470801 0 0.3782417479285734 -0.33646777584448001 0 0.38094579558661268 -0.31260612297230789 0 0.36023302979724792 -0.3261080000646685 0 0.37623316835783699 -0.308743491446899 0 0.36643895361156348 -0.30850438694175508 0 0.35666380398986042 -0.32405475125470801 0 0.35735131375917301 -0.31167178562650572 0 0.36643895361156348 -0.30850438694175508 0 0.35666380398986042 -0.32405475125470801 0 0.3782417479285734 -0.33646777584448001 0 0.35521795617608221 -0.34794735182402842 0 0.3782417479285734 -0.33646777584448001 0 0.36023302979724792 -0.3261080000646685 0 0.35521795617608221 -0.34794735182402842 0 0.3782417479285734 -0.33646777584448001 0 0.36023302979724792 -0.3261080000646685 0 0.36023302979724792 -0.3261080000646685 0 0.35163659631293509 -0.32798808712611632 0 0.33861976612739458 -0.34019687803503817 0 0.36023302979724792 -0.3261080000646685 0 0.33861976612739458 -0.34019687803503817 0 0.36023302979724792 -0.3261080000646685 0 0.35521795617608221 -0.34794735182402842 0 0.33861976612739458 -0.34019687803503817 0 0.33429617221114921 -0.31118744730430881 0 0.35666380398986042 -0.32405475125470801 0 0.33429617221114921 -0.31118744730430881 0 0.35666380398986042 -0.32405475125470801 0 0.35163659631293509 -0.32798808712611632 0 0.33429617221114921 -0.31118744730430881 0 0.34901654471061161 -0.30920364754580409 0 0.35666380398986042 -0.32405475125470801 0 0.34901654471061161 -0.30920364754580409 0 0.35735131375917301 -0.31167178562650572 0 0.35666380398986042 -0.32405475125470801 0 0.36023302979724792 -0.3261080000646685 0 0.35666380398986042 -0.32405475125470801 0 0.35163659631293509 -0.32798808712611632 0 0.36023302979724792 -0.3261080000646685 0 0.35666380398986042 -0.32405475125470801 0 0.35666380398986042 -0.32405475125470801 0 0.35163659631293509 -0.32798808712611632 0 0.37555041745191192 -0.36021720696395498 0 0.37272962845428481 -0.38510903447554901 0 0.37555041745191192 -0.36021720696395498 0 0.37272962845428481 -0.38510903447554901 0 0.36020787325972198 -0.36312398923595202 0 0.37555041745191192 -0.36021720696395498 0 0.36020787325972198 -0.36312398923595202 0 0.3782417479285734 -0.33646777584448001 0 0.37112269218306859 -0.34768823986667591 0 0.35521795617608221 -0.34794735182402842 0 0.36020787325972198 -0.36312398923595202 0 0.37112269218306859 -0.34768823986667591 0 0.35521795617608221 -0.34794735182402842 0 0.37555041745191192 -0.36021720696395498 0 0.3782417479285734 -0.33646777584448001 0 0.37112269218306859 -0.34768823986667591 0 0.37555041745191192 -0.36021720696395498 0 0.36020787325972198 -0.36312398923595202 0 0.37112269218306859 -0.34768823986667591 0 0.35521795617608221 -0.34794735182402842 0 0.33319244651603291 -0.36000120402731173 0 0.35521795617608221 -0.34794735182402842 0 0.34690135254354199 -0.35966623125557751 0 0.33319244651603291 -0.36000120402731173 0 0.36020787325972198 -0.36312398923595202 0 0.35521795617608221 -0.34794735182402842 0 0.34690135254354199 -0.35966623125557751 0 0.35018633341644823 -0.38256531576335501 0 0.36020787325972198 -0.36312398923595202 0 0.33551852810642863 -0.36768194365085621 0 0.36020787325972198 -0.36312398923595202 0 0.34690135254354199 -0.35966623125557751 0 0.33551852810642863 -0.36768194365085621 0 0.36020787325972198 -0.36312398923595202 0 0.33551852810642863 -0.36768194365085621 0 0.34690135254354199 -0.35966623125557751 0 0.33551852810642863 -0.36768194365085621 0 0.33319244651603291 -0.36000120402731173 0 0.33319244651603291 -0.36000120402731173 0 0.31700650245753981 -0.35428575600540552 0 0.33861976612739458 -0.34019687803503817 0 0.35521795617608221 -0.34794735182402842 0 0.33319244651603291 -0.36000120402731173 0 0.33861976612739458 -0.34019687803503817 0 0.31700650245753981 -0.35428575600540552 0 0.33861976612739458 -0.34019687803503817 0 0.33319244651603291 -0.36000120402731173 0 0.31700650245753981 -0.35428575600540552 0 0.31082918295313522 -0.3722398980657603 0 0.33319244651603291 -0.36000120402731173 0 0.31082918295313522 -0.3722398980657603 0 0.33551852810642863 -0.36768194365085621 0 0.31082918295313522 -0.3722398980657603 0 0.31700650245753981 -0.35428575600540552 0 0.31082918295313522 -0.3722398980657603 0 0.33551852810642863 -0.36768194365085621 0 0.33319244651603291 -0.36000120402731173 0 0.31082918295313522 -0.3722398980657603 0 0.33429617221114921 -0.31118744730430881 0 0.33773245662390489 -0.32723455857193612 0 0.32565133733434293 -0.33273660165485658 0 0.33429617221114921 -0.31118744730430881 0 0.32565133733434293 -0.33273660165485658 0 0.33429617221114921 -0.31118744730430881 0 0.35163659631293509 -0.32798808712611632 0 0.33773245662390489 -0.32723455857193612 0 0.35163659631293509 -0.32798808712611632 0 0.33773245662390489 -0.32723455857193612 0 0.33861976612739458 -0.34019687803503817 0 0.33773245662390489 -0.32723455857193612 0 0.33861976612739458 -0.34019687803503817 0 0.32565133733434293 -0.33273660165485658 0 0.31700650245753981 -0.35428575600540552 0 0.33861976612739458 -0.34019687803503817 0 0.32565133733434293 -0.33273660165485658 0 0.31700650245753981 -0.35428575600540552 0 0.32565133733434293 -0.33273660165485658 0 0.31700650245753981 -0.35428575600540552 0 0.32565133733434293 -0.33273660165485658 0 0.30326292092262808 -0.33307717548401128 0 0.33429617221114921 -0.31118744730430881 0 0.32565133733434293 -0.33273660165485658 0 0.31221287158476668 -0.31572509813431959 0 0.32565133733434293 -0.33273660165485658 0 0.31221287158476668 -0.31572509813431959 0 0.30326292092262808 -0.33307717548401128 0 0.31221287158476668 -0.31572509813431959 0 0.30326292092262808 -0.33307717548401128 0 0.29561248410495011 -0.314543505935172 0 0.30326292092262808 -0.33307717548401128 0 0.29250755042199039 -0.33722441417245669 0 0.28959715963274468 -0.32694875488549369 0 0.29250755042199039 -0.33722441417245669 0 0.28206129021142451 -0.33678658675399059 0 0.29409358265851099 -0.34837315141010838 0 0.30326292092262808 -0.33307717548401128 0 0.29250755042199039 -0.33722441417245669 0 0.29409358265851099 -0.34837315141010838 0 0.28206129021142451 -0.33678658675399059 0 0.28959715963274468 -0.32694875488549369 0 0.27911965096449692 -0.32663957177979502 0 0.29250755042199039 -0.33722441417245669 0 0.28206129021142451 -0.33678658675399059 0 0.28959715963274468 -0.32694875488549369 0 0.28162770293759393 -0.31526865195757747 0 0.28959715963274468 -0.32694875488549369 0 0.27911965096449692 -0.32663957177979502 0 0.30326292092262808 -0.33307717548401128 0 0.29561248410495011 -0.314543505935172 0 0.28959715963274468 -0.32694875488549369 0 0.28162770293759393 -0.31526865195757747 0 0.29561248410495011 -0.314543505935172 0 0.28916141036947712 -0.30775901730778421 0 0.28162770293759393 -0.31526865195757747 0 0.29561248410495011 -0.314543505935172 0 0.28959715963274468 -0.32694875488549369 0 0.31700650245753981 -0.35428575600540552 0 0.31082918295313522 -0.3722398980657603 0 0.29901429304391319 -0.36601420418047098 0 0.31700650245753981 -0.35428575600540552 0 0.29901429304391319 -0.36601420418047098 0 0.29755842198186622 -0.37468984249249881 0 0.31082918295313522 -0.3722398980657603 0 0.29901429304391319 -0.36601420418047098 0 0.29755842198186622 -0.37468984249249881 0 0.29901429304391319 -0.36601420418047098 0 0.2959256332917109 -0.37499127521064868 0 0.29755842198186622 -0.37468984249249881 0 0.31082918295313522 -0.3722398980657603 0 0.31700650245753981 -0.35428575600540552 0 0.30326292092262808 -0.33307717548401128 0 0.29409358265851099 -0.34837315141010838 0 0.31700650245753981 -0.35428575600540552 0 0.29901429304391319 -0.36601420418047098 0 0.29409358265851099 -0.34837315141010838 0 0.29901429304391319 -0.36601420418047098 0 0.29409358265851099 -0.34837315141010838 0 0.2794576020296064 -0.35853764571196017 0 0.28206129021142451 -0.33678658675399059 0 0.29409358265851099 -0.34837315141010838 0 0.27383657503237518 -0.34610996619317091 0 0.29409358265851099 -0.34837315141010838 0 0.2794576020296064 -0.35853764571196017 0 0.27383657503237518 -0.34610996619317091 0 0.28102208363028658 -0.37774265235553639 0 0.29901429304391319 -0.36601420418047098 0 0.28102208363028658 -0.37774265235553639 0 0.29901429304391319 -0.36601420418047098 0 0.2794576020296064 -0.35853764571196017 0 0.28102208363028658 -0.37774265235553639 0 0.29901429304391319 -0.36601420418047098 0 0.2959256332917109 -0.37499127521064868 0 0.29755842198186622 -0.37468984249249881 0 0.2959256332917109 -0.37499127521064868 0 0.28102208363028658 -0.37774265235553639 0 0.2794576020296064 -0.35853764571196017 0 0.26222761477459888 -0.35882443552353022 0 0.2794576020296064 -0.35853764571196017 0 0.27383657503237518 -0.34610996619317091 0 0.26222761477459888 -0.35882443552353022 0 0.27383657503237518 -0.34610996619317091 0 0.26222761477459888 -0.35882443552353022 0 0.25702120292550462 -0.3423883390166238 0 0.26222761477459888 -0.35882443552353022 0 0.25702120292550462 -0.3423883390166238 0 0.24321093863438761 -0.35547977247107759 0 0.28102208363028658 -0.37774265235553639 0 0.25308564744576267 -0.38290005940110028 0 0.26222761477459888 -0.35882443552353022 0 0.25308564744576267 -0.38290005940110028 0 0.26222761477459888 -0.35882443552353022 0 0.24321093863438761 -0.35547977247107759 0 0.27015569815696949 -0.32212878514038462 0 0.27911965096449692 -0.32663957177979502 0 0.27063530361028892 -0.33352252450814052 0 0.27015569815696949 -0.32212878514038462 0 0.26591514460186921 -0.31671532719686052 0 0.26179254157286708 -0.32236541147893399 0 0.27015569815696949 -0.32212878514038462 0 0.26591514460186921 -0.31671532719686052 0 0.27319725409894269 -0.31338319332279863 0 0.28162770293759393 -0.31526865195757747 0 0.27015569815696949 -0.32212878514038462 0 0.27319725409894269 -0.31338319332279863 0 0.28162770293759393 -0.31526865195757747 0 0.27319725409894269 -0.31338319332279863 0 0.27753748929551919 -0.30994002779009611 0 0.28162770293759393 -0.31526865195757747 0 0.27015569815696949 -0.32212878514038462 0 0.27911965096449692 -0.32663957177979502 0 0.27383657503237518 -0.34610996619317091 0 0.27063530361028892 -0.33352252450814052 0 0.25702120292550462 -0.3423883390166238 0 0.28206129021142451 -0.33678658675399059 0 0.27911965096449692 -0.32663957177979502 0 0.27063530361028892 -0.33352252450814052 0 0.28206129021142451 -0.33678658675399059 0 0.27383657503237518 -0.34610996619317091 0 0.27063530361028892 -0.33352252450814052 0 0.27015569815696949 -0.32212878514038462 0 0.27063530361028892 -0.33352252450814052 0 0.25993173606879411 -0.32931543648993122 0 0.27063530361028892 -0.33352252450814052 0 0.25993173606879411 -0.32931543648993122 0 0.25702120292550462 -0.3423883390166238 0 0.25993173606879411 -0.32931543648993122 0 0.25702120292550462 -0.3423883390166238 0 0.2497284165054432 -0.3313123362121293 0 0.25993173606879411 -0.32931543648993122 0 0.25100228919179191 -0.3216466835579771 0 0.2497284165054432 -0.3313123362121293 0 0.25100228919179191 -0.3216466835579771 0 0.27342793998877479 -0.3040525624842077 0 0.25993173606879411 -0.32931543648993122 0 0.25100228919179191 -0.3216466835579771 0 0.26179254157286708 -0.32236541147893399 0 0.26591514460186921 -0.31671532719686052 0 0.25100228919179191 -0.3216466835579771 0 0.27342793998877479 -0.3040525624842077 0 0.25100228919179191 -0.3216466835579771 0 0.25681293132885469 -0.31322974972069573 0 0.27342793998877479 -0.3040525624842077 0 0.27015569815696949 -0.32212878514038462 0 0.25993173606879411 -0.32931543648993122 0 0.26179254157286708 -0.32236541147893399 0 0.26591514460186921 -0.31671532719686052 0 0.25100228919179191 -0.3216466835579771 0 0.26179254157286708 -0.32236541147893399 0 0.25100228919179191 -0.3216466835579771 0 0.25681293132885469 -0.31322974972069573 0 0.24385945988845451 -0.3133687848967831 0 0.25681293132885469 -0.31322974972069573 0 0.2523325281405242 -0.30016937343739369 0 0.24385945988845451 -0.3133687848967831 0 0.25681293132885469 -0.31322974972069573 0 0.2523325281405242 -0.30016937343739369 0 0.26011711575778018 -0.30228176581067051 0 0.26011711575778018 -0.30228176581067051 0 0.26226674435160169 -0.29478781569609241 0 0.26905625921014009 -0.30094012438850037 0 0.2523325281405242 -0.30016937343739369 0 0.26011711575778018 -0.30228176581067051 0 0.26226674435160169 -0.29478781569609241 0 0.25681293132885469 -0.31322974972069573 0 0.26011711575778018 -0.30228176581067051 0 0.26905625921014009 -0.30094012438850037 0 0.25681293132885469 -0.31322974972069573 0 0.26905625921014009 -0.30094012438850037 0 0.2523325281405242 -0.30016937343739369 0 0.26226674435160169 -0.29478781569609241 0 0.25817131849612163 -0.28271298682077362 0 0.26226674435160169 -0.29478781569609241 0 0.25817131849612163 -0.28271298682077362 0 0.26902137982127527 -0.28859723301488821 0 0.25817131849612163 -0.28271298682077362 0 0.26902137982127527 -0.28859723301488821 0 0.27389500375555642 -0.27249729697611169 0 0.26902137982127527 -0.28859723301488821 0 0.28136376402809421 -0.28871443422575183 0 0.27389500375555642 -0.27249729697611169 0 0.26226674435160169 -0.29478781569609241 0 0.26902137982127527 -0.28859723301488821 0 0.26905625921014009 -0.30094012438850037 0 0.26902137982127527 -0.28859723301488821 0 0.26905625921014009 -0.30094012438850037 0 0.28136376402809421 -0.28871443422575183 0 0.26905625921014009 -0.30094012438850037 0 0.28136376402809421 -0.28871443422575183 0 0.25681293132885469 -0.31322974972069573 0 0.27342793998877479 -0.3040525624842077 0 0.26905625921014009 -0.30094012438850037 0 0.26591514460186921 -0.31671532719686052 0 0.27319725409894269 -0.31338319332279863 0 0.27342793998877479 -0.3040525624842077 0 0.27342793998877479 -0.3040525624842077 0 0.26905625921014009 -0.30094012438850037 0 0.28136376402809421 -0.28871443422575183 0 0.28162770293759393 -0.31526865195757747 0 0.27753748929551919 -0.30994002779009611 0 0.28189706015676552 -0.30705570339580063 0 0.27319725409894269 -0.31338319332279863 0 0.27342793998877479 -0.3040525624842077 0 0.27753748929551919 -0.30994002779009611 0 0.27342793998877479 -0.3040525624842077 0 0.27753748929551919 -0.30994002779009611 0 0.28189706015676552 -0.30705570339580063 0 0.28162770293759393 -0.31526865195757747 0 0.28189706015676552 -0.30705570339580063 0 0.28916141036947712 -0.30775901730778421 0 0.27342793998877479 -0.3040525624842077 0 0.28189706015676552 -0.30705570339580063 0 0.2891656030791494 -0.2991136239856842 0 0.29561248410495011 -0.314543505935172 0 0.28916141036947712 -0.30775901730778421 0 0.29946185540948389 -0.30272315126507532 0 0.2891656030791494 -0.2991136239856842 0 0.29568874684094743 -0.2889779670206809 0 0.29946185540948389 -0.30272315126507532 0 0.28916141036947712 -0.30775901730778421 0 0.2891656030791494 -0.2991136239856842 0 0.29946185540948389 -0.30272315126507532 0 0.28189706015676552 -0.30705570339580063 0 0.28916141036947712 -0.30775901730778421 0 0.2891656030791494 -0.2991136239856842 0 0.27342793998877479 -0.3040525624842077 0 0.2891656030791494 -0.2991136239856842 0 0.29585359078575779 -0.2864584414104383 0 0.28136376402809421 -0.28871443422575183 0 0.29585359078575779 -0.2864584414104383 0 0.29762318853433922 -0.2722651708391185 0 0.27342793998877479 -0.3040525624842077 0 0.29585359078575779 -0.2864584414104383 0 0.27342793998877479 -0.3040525624842077 0 0.28136376402809421 -0.28871443422575183 0 0.29585359078575779 -0.2864584414104383 0 0.2891656030791494 -0.2991136239856842 0 0.29585359078575779 -0.2864584414104383 0 0.29568874684094743 -0.2889779670206809 0 0.31499245952604837 -0.30008270716249469 0 0.29568874684094743 -0.2889779670206809 0 0.31499245952604837 -0.30008270716249469 0 0.29568874684094743 -0.2889779670206809 0 0.30877013162655897 -0.28856868190066992 0 0.31827924158274079 -0.26886432033666879 0 0.29585359078575779 -0.2864584414104383 0 0.30877013162655897 -0.28856868190066992 0 0.29585359078575779 -0.2864584414104383 0 0.29568874684094743 -0.2889779670206809 0 0.30877013162655897 -0.28856868190066992 0 0.31499245952604837 -0.30008270716249469 0 0.31221287158476668 -0.31572509813431959 0 0.29946185540948389 -0.30272315126507532 0 0.31499245952604837 -0.30008270716249469 0 0.29568874684094743 -0.2889779670206809 0 0.29946185540948389 -0.30272315126507532 0 0.31221287158476668 -0.31572509813431959 0 0.29561248410495011 -0.314543505935172 0 0.29946185540948389 -0.30272315126507532 0 0.30289524504637388 -0.25049155496679232 0 0.29762318853433922 -0.2722651708391185 0 0.29212950453723341 -0.26960299459627168 0 0.31394678997725278 -0.25587984262193197 0 0.29762318853433922 -0.2722651708391185 0 0.31394678997725278 -0.25587984262193197 0 0.30289524504637388 -0.25049155496679232 0 0.29762318853433922 -0.2722651708391185 0 0.30289524504637388 -0.25049155496679232 0 0.29212950453723341 -0.26960299459627168 0 0.30942400473984011 -0.24791929280762351 0 0.31394678997725278 -0.25587984262193197 0 0.30289524504637388 -0.25049155496679232 0 0.31394678997725278 -0.25587984262193197 0 0.30289524504637388 -0.25049155496679232 0 0.31827924158274079 -0.26886432033666879 0 0.29585359078575779 -0.2864584414104383 0 0.29762318853433922 -0.2722651708391185 0 0.31827924158274079 -0.26886432033666879 0 0.29585359078575779 -0.2864584414104383 0 0.31827924158274079 -0.26886432033666879 0 0.31394678997725278 -0.25587984262193197 0 0.29762318853433922 -0.2722651708391185 0 0.28136376402809421 -0.28871443422575183 0 0.29212950453723341 -0.26960299459627168 0 0.28136376402809421 -0.28871443422575183 0 0.29212950453723341 -0.26960299459627168 0 0.27389500375555642 -0.27249729697611169 0 0.28136376402809421 -0.28871443422575183 0 0.29762318853433922 -0.2722651708391185 0 0.29212950453723341 -0.26960299459627168 0 0.28136376402809421 -0.28871443422575183 0 0.29762318853433922 -0.2722651708391185 0 0.29212950453723341 -0.26960299459627168 0 0.2834190991258092 -0.25674022588224432 0 0.27389500375555642 -0.27249729697611169 0 0.30289524504637388 -0.25049155496679232 0 0.29212950453723341 -0.26960299459627168 0 0.2834190991258092 -0.25674022588224432 0 0.2834190991258092 -0.25674022588224432 0 0.27389500375555642 -0.27249729697611169 0 0.26171421693634811 -0.25738026262620378 0 0.27968086461721231 -0.23917315918859991 0 0.2834190991258092 -0.25674022588224432 0 0.26171421693634811 -0.25738026262620378 0 0.25817131849612163 -0.28271298682077362 0 0.27389500375555642 -0.27249729697611169 0 0.26171421693634811 -0.25738026262620378 0 0.25817131849612163 -0.28271298682077362 0 0.26171421693634811 -0.25738026262620378 0 0.2381350454956182 -0.27675285790082932 0 0.26171421693634811 -0.25738026262620378 0 0.23617547327348351 -0.25594095147207307 0 0.2381350454956182 -0.27675285790082932 0 0.26171421693634811 -0.25738026262620378 0 0.23617547327348351 -0.25594095147207307 0 0.24172280262944201 -0.23911909159452521 0 0.2381350454956182 -0.27675285790082932 0 0.21820320670320331 -0.25994355100239708 0 0.21676342433312459 -0.27872832962805438 0 0.23617547327348351 -0.25594095147207307 0 0.2381350454956182 -0.27675285790082932 0 0.21820320670320331 -0.25994355100239708 0 0.23617547327348351 -0.25594095147207307 0 0.21820320670320331 -0.25994355100239708 0 0.2210057349904386 -0.23788311283172689 0 0.21820320670320331 -0.25994355100239708 0 0.21676342433312459 -0.27872832962805438 0 0.19204114114371271 -0.26754119123636239 0 0.21676342433312459 -0.27872832962805438 0 0.19204114114371271 -0.26754119123636239 0 0.2023048731906919 -0.29285785068472808 0 0.19204114114371271 -0.26754119123636239 0 0.17509037416051099 -0.25355722264805808 0 0.1984659880394421 -0.24764077805753781 0 0.21820320670320331 -0.25994355100239708 0 0.19204114114371271 -0.26754119123636239 0 0.1984659880394421 -0.24764077805753781 0 0.2023048731906919 -0.29285785068472808 0 0.2096039515251103 -0.31172852635506432 0 0.23388763501061591 -0.29722075658791891 0 0.21676342433312459 -0.27872832962805438 0 0.2023048731906919 -0.29285785068472808 0 0.23388763501061591 -0.29722075658791891 0 0.2023048731906919 -0.29285785068472808 0 0.2096039515251103 -0.31172852635506432 0 0.18647710675957699 -0.30452272423227872 0 0.19204114114371271 -0.26754119123636239 0 0.2023048731906919 -0.29285785068472808 0 0.18021168253197539 -0.28543397759148331 0 0.2023048731906919 -0.29285785068472808 0 0.18021168253197539 -0.28543397759148331 0 0.18647710675957699 -0.30452272423227872 0 0.2096039515251103 -0.31172852635506432 0 0.23388763501061591 -0.29722075658791891 0 0.2096039515251103 -0.31172852635506432 0 0.23388763501061591 -0.29722075658791891 0 0.22928511772155069 -0.32234590184858808 0 0.2381350454956182 -0.27675285790082932 0 0.21676342433312459 -0.27872832962805438 0 0.23388763501061591 -0.29722075658791891 0 0.25817131849612163 -0.28271298682077362 0 0.23388763501061591 -0.29722075658791891 0 0.2523325281405242 -0.30016937343739369 0 0.25817131849612163 -0.28271298682077362 0 0.23388763501061591 -0.29722075658791891 0 0.25817131849612163 -0.28271298682077362 0 0.2381350454956182 -0.27675285790082932 0 0.23388763501061591 -0.29722075658791891 0 0.23388763501061591 -0.29722075658791891 0 0.24385945988845451 -0.3133687848967831 0 0.22928511772155069 -0.32234590184858808 0 0.2523325281405242 -0.30016937343739369 0 0.23388763501061591 -0.29722075658791891 0 0.24385945988845451 -0.3133687848967831 0 0.25100228919179191 -0.3216466835579771 0 0.24385945988845451 -0.3133687848967831 0 0.2429451759421952 -0.32525693685669332 0 0.24385945988845451 -0.3133687848967831 0 0.2429451759421952 -0.32525693685669332 0 0.22928511772155069 -0.32234590184858808 0 0.25100228919179191 -0.3216466835579771 0 0.2429451759421952 -0.32525693685669332 0 0.2497284165054432 -0.3313123362121293 0 0.25702120292550462 -0.3423883390166238 0 0.2497284165054432 -0.3313123362121293 0 0.24085059640373579 -0.33761097776798898 0 0.2429451759421952 -0.32525693685669332 0 0.2497284165054432 -0.3313123362121293 0 0.24085059640373579 -0.33761097776798898 0 0.2429451759421952 -0.32525693685669332 0 0.24085059640373579 -0.33761097776798898 0 0.22928511772155069 -0.32234590184858808 0 0.24085059640373579 -0.33761097776798898 0 0.22928511772155069 -0.32234590184858808 0 0.2234832616151427 -0.34515366062779318 0 0.22928511772155069 -0.32234590184858808 0 0.2234832616151427 -0.34515366062779318 0 0.21495475217848339 -0.32962746807280968 0 0.25308564744576267 -0.38290005940110028 0 0.24321093863438761 -0.35547977247107759 0 0.22507445465726361 -0.3677740482547574 0 0.25702120292550462 -0.3423883390166238 0 0.24085059640373579 -0.33761097776798898 0 0.24321093863438761 -0.35547977247107759 0 0.24085059640373579 -0.33761097776798898 0 0.24321093863438761 -0.35547977247107759 0 0.2234832616151427 -0.34515366062779318 0 0.24321093863438761 -0.35547977247107759 0 0.2234832616151427 -0.34515366062779318 0 0.22507445465726361 -0.3677740482547574 0 0.22507445465726361 -0.3677740482547574 0 0.20237102257727271 -0.36113517763746428 0 0.20834781790869389 -0.37771272794701272 0 0.2234832616151427 -0.34515366062779318 0 0.20237102257727271 -0.36113517763746428 0 0.20202431217406441 -0.34209010834554221 0 0.2234832616151427 -0.34515366062779318 0 0.22507445465726361 -0.3677740482547574 0 0.20237102257727271 -0.36113517763746428 0 0.20237102257727271 -0.36113517763746428 0 0.20202431217406441 -0.34209010834554221 0 0.1839922564598182 -0.34829793926743419 0 0.20237102257727271 -0.36113517763746428 0 0.18109152196247469 -0.36571660373762083 0 0.1839922564598182 -0.34829793926743419 0 0.20237102257727271 -0.36113517763746428 0 0.20834781790869389 -0.37771272794701272 0 0.19193162597097979 -0.37838207390395151 0 0.20237102257727271 -0.36113517763746428 0 0.18109152196247469 -0.36571660373762083 0 0.19193162597097979 -0.37838207390395151 0 0.2096039515251103 -0.31172852635506432 0 0.22928511772155069 -0.32234590184858808 0 0.21495475217848339 -0.32962746807280968 0 0.2096039515251103 -0.31172852635506432 0 0.21495475217848339 -0.32962746807280968 0 0.1853202680396048 -0.32623629612220961 0 0.2234832616151427 -0.34515366062779318 0 0.21495475217848339 -0.32962746807280968 0 0.20202431217406441 -0.34209010834554221 0 0.20202431217406441 -0.34209010834554221 0 0.1853202680396048 -0.32623629612220961 0 0.1839922564598182 -0.34829793926743419 0 0.21495475217848339 -0.32962746807280968 0 0.20202431217406441 -0.34209010834554221 0 0.1853202680396048 -0.32623629612220961 0 0.2096039515251103 -0.31172852635506432 0 0.1853202680396048 -0.32623629612220961 0 0.18647710675957699 -0.30452272423227872 0 0.2096039515251103 -0.31172852635506432 0 0.1853202680396048 -0.32623629612220961 0 0.1853202680396048 -0.32623629612220961 0 0.16153460894358279 -0.32421354526659057 0 0.17175674089110049 -0.31196731881940082 0 0.1853202680396048 -0.32623629612220961 0 0.18647710675957699 -0.30452272423227872 0 0.17175674089110049 -0.31196731881940082 0 0.1853202680396048 -0.32623629612220961 0 0.16103658455409939 -0.34074406588935491 0 0.1853202680396048 -0.32623629612220961 0 0.16103658455409939 -0.34074406588935491 0 0.1839922564598182 -0.34829793926743419 0 0.16103658455409939 -0.34074406588935491 0 0.16153460894358279 -0.32421354526659057 0 0.1462544939662814 -0.33768554492969211 0 0.1853202680396048 -0.32623629612220961 0 0.16103658455409939 -0.34074406588935491 0 0.16153460894358279 -0.32421354526659057 0 0.16153460894358279 -0.32421354526659057 0 0.14815673439006721 -0.32271069154218729 0 0.1598166793326842 -0.31023870666465769 0 0.16153460894358279 -0.32421354526659057 0 0.17175674089110049 -0.31196731881940082 0 0.1598166793326842 -0.31023870666465769 0 0.18109152196247469 -0.36571660373762083 0 0.164196396971447 -0.37045614015311229 0 0.17546078574430801 -0.38135050424346489 0 0.18109152196247469 -0.36571660373762083 0 0.1839922564598182 -0.34829793926743419 0 0.16860971913238529 -0.35666678513893768 0 0.16103658455409939 -0.34074406588935491 0 0.16860971913238529 -0.35666678513893768 0 0.1552848557276395 -0.35972060421759061 0 0.16103658455409939 -0.34074406588935491 0 0.1839922564598182 -0.34829793926743419 0 0.16860971913238529 -0.35666678513893768 0 0.18109152196247469 -0.36571660373762083 0 0.16860971913238529 -0.35666678513893768 0 0.164196396971447 -0.37045614015311229 0 0.16860971913238529 -0.35666678513893768 0 0.164196396971447 -0.37045614015311229 0 0.1552848557276395 -0.35972060421759061 0 0.164196396971447 -0.37045614015311229 0 0.1552848557276395 -0.35972060421759061 0 0.14582867691167231 -0.37548419425004781 0 0.1552848557276395 -0.35972060421759061 0 0.13675290106859381 -0.3552518356565002 0 0.14582867691167231 -0.37548419425004781 0 0.16103658455409939 -0.34074406588935491 0 0.13675290106859381 -0.3552518356565002 0 0.1462544939662814 -0.33768554492969211 0 0.16103658455409939 -0.34074406588935491 0 0.1552848557276395 -0.35972060421759061 0 0.13675290106859381 -0.3552518356565002 0 0.16103658455409939 -0.34074406588935491 0 0.13675290106859381 -0.3552518356565002 0 0.13675290106859381 -0.3552518356565002 0 0.13025486328074379 -0.33383548688203268 0 0.1200697072631093 -0.35053784775465641 0 0.13675290106859381 -0.3552518356565002 0 0.12751598258885849 -0.37275489806000728 0 0.1124692175830892 -0.36975960542364711 0 0.13675290106859381 -0.3552518356565002 0 0.12751598258885849 -0.37275489806000728 0 0.14582867691167231 -0.37548419425004781 0 0.14815673439006721 -0.32271069154218729 0 0.1370240593699818 -0.31581174943848239 0 0.1483497233306916 -0.30923442543078927 0 0.16153460894358279 -0.32421354526659057 0 0.14815673439006721 -0.32271069154218729 0 0.1462544939662814 -0.33768554492969211 0 0.14815673439006721 -0.32271069154218729 0 0.1462544939662814 -0.33768554492969211 0 0.13025486328074379 -0.33383548688203268 0 0.13675290106859381 -0.3552518356565002 0 0.1462544939662814 -0.33768554492969211 0 0.13025486328074379 -0.33383548688203268 0 0.13025486328074379 -0.33383548688203268 0 0.1370240593699818 -0.31581174943848239 0 0.1239283851024847 -0.31562421082186892 0 0.14815673439006721 -0.32271069154218729 0 0.13025486328074379 -0.33383548688203268 0 0.1370240593699818 -0.31581174943848239 0 0.1370240593699818 -0.31581174943848239 0 0.13344425167931109 -0.3024641675786115 0 0.1239283851024847 -0.31562421082186892 0 0.13344425167931109 -0.3024641675786115 0 0.1179165457094245 -0.29941235917357728 0 0.1239283851024847 -0.31562421082186892 0 0.13344425167931109 -0.3024641675786115 0 0.1287513209415935 -0.29114423132653389 0 0.1179165457094245 -0.29941235917357728 0 0.1370240593699818 -0.31581174943848239 0 0.13344425167931109 -0.3024641675786115 0 0.1483497233306916 -0.30923442543078927 0 0.1483497233306916 -0.30923442543078927 0 0.15083897488497289 -0.29509076757563379 0 0.1420484110256722 -0.28796526442846071 0 0.14815673439006721 -0.32271069154218729 0 0.1483497233306916 -0.30923442543078927 0 0.15083897488497289 -0.29509076757563379 0 0.14815673439006721 -0.32271069154218729 0 0.15083897488497289 -0.29509076757563379 0 0.1598166793326842 -0.31023870666465769 0 0.1483497233306916 -0.30923442543078927 0 0.1420484110256722 -0.28796526442846071 0 0.13344425167931109 -0.3024641675786115 0 0.1483497233306916 -0.30923442543078927 0 0.1420484110256722 -0.28796526442846071 0 0.14815673439006721 -0.32271069154218729 0 0.15083897488497289 -0.29509076757563379 0 0.15083897488497289 -0.29509076757563379 0 0.15352121537987851 -0.26747084360908019 0 0.15083897488497289 -0.29509076757563379 0 0.1420484110256722 -0.28796526442846071 0 0.15352121537987851 -0.26747084360908019 0 0.1420484110256722 -0.28796526442846071 0 0.1287513209415935 -0.29114423132653389 0 0.1285665355501662 -0.27963149572183532 0 0.13344425167931109 -0.3024641675786115 0 0.1420484110256722 -0.28796526442846071 0 0.1287513209415935 -0.29114423132653389 0 0.13574709872065269 -0.26669610342613209 0 0.1285665355501662 -0.27963149572183532 0 0.1170682930768161 -0.26606450844549201 0 0.1420484110256722 -0.28796526442846071 0 0.13574709872065269 -0.26669610342613209 0 0.1285665355501662 -0.27963149572183532 0 0.1420484110256722 -0.28796526442846071 0 0.13574709872065269 -0.26669610342613209 0 0.13574709872065269 -0.26669610342613209 0 0.12944578641563309 -0.24542694242380381 0 0.13574709872065269 -0.26669610342613209 0 0.12944578641563309 -0.24542694242380381 0 0.13904891830873781 -0.24801723404172771 0 0.13574709872065269 -0.26669610342613209 0 0.1201509403983588 -0.25476415833570842 0 0.12944578641563309 -0.24542694242380381 0 0.13574709872065269 -0.26669610342613209 0 0.14646117842628659 -0.25326064310199847 0 0.13904891830873781 -0.24801723404172771 0 0.13574709872065269 -0.26669610342613209 0 0.14646117842628659 -0.25326064310199847 0 0.15352121537987851 -0.26747084360908019 0 0.15352121537987851 -0.26747084360908019 0 0.15620345587478421 -0.23985091964252669 0 0.14646117842628659 -0.25326064310199847 0 0.15352121537987851 -0.26747084360908019 0 0.15620345587478421 -0.23985091964252669 0 0.1420484110256722 -0.28796526442846071 0 0.13574709872065269 -0.26669610342613209 0 0.15352121537987851 -0.26747084360908019 0 0.15352121537987851 -0.26747084360908019 0 0.1718237790584915 -0.27038609488044701 0 0.16537820707203429 -0.2826105842126132 0 0.15352121537987851 -0.26747084360908019 0 0.17509037416051099 -0.25355722264805808 0 0.15620345587478421 -0.23985091964252669 0 0.15352121537987851 -0.26747084360908019 0 0.1718237790584915 -0.27038609488044701 0 0.17509037416051099 -0.25355722264805808 0 0.19204114114371271 -0.26754119123636239 0 0.1718237790584915 -0.27038609488044701 0 0.17509037416051099 -0.25355722264805808 0 0.19204114114371271 -0.26754119123636239 0 0.1718237790584915 -0.27038609488044701 0 0.18021168253197539 -0.28543397759148331 0 0.1718237790584915 -0.27038609488044701 0 0.18021168253197539 -0.28543397759148331 0 0.16537820707203429 -0.2826105842126132 0 0.18021168253197539 -0.28543397759148331 0 0.18647710675957699 -0.30452272423227872 0 0.16679633755369769 -0.29721121011947582 0 0.18647710675957699 -0.30452272423227872 0 0.16679633755369769 -0.29721121011947582 0 0.17175674089110049 -0.31196731881940082 0 0.15083897488497289 -0.29509076757563379 0 0.16679633755369769 -0.29721121011947582 0 0.1598166793326842 -0.31023870666465769 0 0.16679633755369769 -0.29721121011947582 0 0.17175674089110049 -0.31196731881940082 0 0.1598166793326842 -0.31023870666465769 0 0.15083897488497289 -0.29509076757563379 0 0.16679633755369769 -0.29721121011947582 0 0.16537820707203429 -0.2826105842126132 0 0.15083897488497289 -0.29509076757563379 0 0.15352121537987851 -0.26747084360908019 0 0.16537820707203429 -0.2826105842126132 0 0.18021168253197539 -0.28543397759148331 0 0.16679633755369769 -0.29721121011947582 0 0.16537820707203429 -0.2826105842126132 0 0.1890149509728547 -0.48567359102891411 0 0.2006971442705052 -0.50000000000000311 0 0.20662766443903879 -0.49128714236550791 0 0.1890149509728547 -0.48567359102891411 0 0.2006971442705052 -0.50000000000000311 0 0.17733275767520421 -0.5 0 0.1890149509728547 -0.48567359102891411 0 0.20360556166492941 -0.46800802981742101 0 0.18704310471501809 -0.46581793685797879 0 0.1890149509728547 -0.48567359102891411 0 0.20662766443903879 -0.49128714236550791 0 0.20360556166492941 -0.46800802981742101 0 0.20662766443903879 -0.49128714236550791 0 0.2204360351287892 -0.48914499600441269 0 0.2233721449311494 -0.46668689305424083 0 0.20662766443903879 -0.49128714236550791 0 0.2233721449311494 -0.46668689305424083 0 0.20360556166492941 -0.46800802981742101 0 0.20662766443903879 -0.49128714236550791 0 0.2233721449311494 -0.46668689305424083 0 0.20662766443903879 -0.49128714236550791 0 0.20360556166492941 -0.46800802981742101 0 0.20775877075476579 -0.50000000000000411 0 0.22610947390448741 -0.50000000000000111 0 0.2204360351287892 -0.48914499600441269 0 0.20662766443903879 -0.49128714236550791 0 0.20775877075476579 -0.50000000000000411 0 0.2006971442705052 -0.50000000000000311 0 0.20662766443903879 -0.49128714236550791 0 0.2006971442705052 -0.50000000000000311 0 0.20662766443903879 -0.49128714236550791 0 0.20775877075476579 -0.50000000000000411 0 0.20662766443903879 -0.49128714236550791 0 0.20775877075476579 -0.50000000000000411 0 0.2204360351287892 -0.48914499600441269 0 0.2204360351287892 -0.48914499600441269 0 0.2339004304660631 -0.4962569631698453 0 0.22863628769860569 -0.48147192811204331 0 0.2339004304660631 -0.4962569631698453 0 0.22863628769860569 -0.48147192811204331 0 0.22610947390448741 -0.50000000000000111 0 0.2339004304660631 -0.4962569631698453 0 0.23523312127002391 -0.49999999999999961 0 0.22610947390448741 -0.50000000000000111 0 0.2204360351287892 -0.48914499600441269 0 0.2339004304660631 -0.4962569631698453 0 0.22610947390448741 -0.50000000000000111 0 0.2339004304660631 -0.4962569631698453 0 0.25522710199184429 -0.48817574149464371 0 0.2339004304660631 -0.4962569631698453 0 0.25522710199184429 -0.48817574149464371 0 0.2339004304660631 -0.4962569631698453 0 0.24075714678967061 -0.48203478742193678 0 0.25522710199184429 -0.48817574149464371 0 0.2339004304660631 -0.4962569631698453 0 0.23523312127002391 -0.49999999999999961 0 0.2339004304660631 -0.4962569631698453 0 0.23523312127002391 -0.49999999999999961 0 0.2339004304660631 -0.4962569631698453 0 0.24075714678967061 -0.48203478742193678 0 0.22863628769860569 -0.48147192811204331 0 0.25522710199184429 -0.48817574149464371 0 0.24075714678967061 -0.48203478742193678 0 0.24930921450839641 -0.46710015992857101 0 0.24075714678967061 -0.48203478742193678 0 0.23547557368542379 -0.46929045362767069 0 0.22863628769860569 -0.48147192811204331 0 0.24075714678967061 -0.48203478742193678 0 0.23547557368542379 -0.46929045362767069 0 0.24930921450839641 -0.46710015992857101 0 0.23547557368542379 -0.46929045362767069 0 0.22863628769860569 -0.48147192811204331 0 0.2233721449311494 -0.46668689305424083 0 0.2204360351287892 -0.48914499600441269 0 0.22863628769860569 -0.48147192811204331 0 0.2233721449311494 -0.46668689305424083 0 0.22863628769860569 -0.48147192811204331 0 0.2233721449311494 -0.46668689305424083 0 0.2233721449311494 -0.46668689305424083 0 0.214193482313394 -0.44090741582839871 0 0.23547557368542379 -0.46929045362767069 0 0.2233721449311494 -0.46668689305424083 0 0.2353030744992976 -0.44915849962156151 0 0.2233721449311494 -0.46668689305424083 0 0.2353030744992976 -0.44915849962156151 0 0.22589561123356511 -0.44825539237821072 0 0.2233721449311494 -0.46668689305424083 0 0.2353030744992976 -0.44915849962156151 0 0.25134090353478428 -0.44885081937071208 0 0.24930921450839641 -0.46710015992857101 0 0.2353030744992976 -0.44915849962156151 0 0.23547557368542379 -0.46929045362767069 0 0.24930921450839641 -0.46710015992857101 0 0.2353030744992976 -0.44915849962156151 0 0.2353030744992976 -0.44915849962156151 0 0.23071374319042001 -0.43626876100864159 0 0.24723400406744539 -0.43163010618888198 0 0.2353030744992976 -0.44915849962156151 0 0.24723400406744539 -0.43163010618888198 0 0.25134090353478428 -0.44885081937071208 0 0.2353030744992976 -0.44915849962156151 0 0.24723400406744539 -0.43163010618888198 0 0.2233721449311494 -0.46668689305424083 0 0.22589561123356511 -0.44825539237821072 0 0.214193482313394 -0.44090741582839871 0 0.2353030744992976 -0.44915849962156151 0 0.22589561123356511 -0.44825539237821072 0 0.23071374319042001 -0.43626876100864159 0 0.22589561123356511 -0.44825539237821072 0 0.214193482313394 -0.44090741582839871 0 0.23071374319042001 -0.43626876100864159 0 0.214193482313394 -0.44090741582839871 0 0.23071374319042001 -0.43626876100864159 0 0.214193482313394 -0.44090741582839871 0 0.20058345889081891 -0.44472891726933428 0 0.214193482313394 -0.44090741582839871 0 0.19969554470779999 -0.43788935695502917 0 0.20058345889081891 -0.44472891726933428 0 0.214193482313394 -0.44090741582839871 0 0.21043866195007291 -0.45508281399234868 0 0.20058345889081891 -0.44472891726933428 0 0.2233721449311494 -0.46668689305424083 0 0.214193482313394 -0.44090741582839871 0 0.21043866195007291 -0.45508281399234868 0 0.20360556166492941 -0.46800802981742101 0 0.21043866195007291 -0.45508281399234868 0 0.20058345889081891 -0.44472891726933428 0 0.2233721449311494 -0.46668689305424083 0 0.20360556166492941 -0.46800802981742101 0 0.21043866195007291 -0.45508281399234868 0 0.20360556166492941 -0.46800802981742101 0 0.1937934162817696 -0.45698915397950751 0 0.18704310471501809 -0.46581793685797879 0 0.20360556166492941 -0.46800802981742101 0 0.1937934162817696 -0.45698915397950751 0 0.20058345889081891 -0.44472891726933428 0 0.1937934162817696 -0.45698915397950751 0 0.1839415398563114 -0.44940173197329603 0 0.18704310471501809 -0.46581793685797879 0 0.20360556166492941 -0.46800802981742101 0 0.20058345889081891 -0.44472891726933428 0 0.1937934162817696 -0.45698915397950751 0 0.20058345889081891 -0.44472891726933428 0 0.1839415398563114 -0.44940173197329603 0 0.19969554470779999 -0.43788935695502917 0 0.20058345889081891 -0.44472891726933428 0 0.1839415398563114 -0.44940173197329603 0 0.20058345889081891 -0.44472891726933428 0 0.1839415398563114 -0.44940173197329603 0 0.19969554470779999 -0.43788935695502917 0 0.18203385130386371 -0.42916436581642359 0 0.1839415398563114 -0.44940173197329603 0 0.19969554470779999 -0.43788935695502917 0 0.20058345889081891 -0.44472891726933428 0 0.19969554470779999 -0.43788935695502917 0 0.20641878621993981 -0.4190711626370725 0 0.18203385130386371 -0.42916436581642359 0 0.20641878621993981 -0.4190711626370725 0 0.18203385130386371 -0.42916436581642359 0 0.18956567557614409 -0.40933586212936413 0 0.20641878621993981 -0.4190711626370725 0 0.18203385130386371 -0.42916436581642359 0 0.18956567557614409 -0.40933586212936413 0 0.20641878621993981 -0.4190711626370725 0 0.19721277507671481 -0.39321487349222711 0 0.21798795251270189 -0.41173511607858798 0 0.2134335259370406 -0.42361274164068208 0 0.22169876536803559 -0.42746505199574908 0 0.20641878621993981 -0.4190711626370725 0 0.21798795251270189 -0.41173511607858798 0 0.19721277507671481 -0.39321487349222711 0 0.20641878621993981 -0.4190711626370725 0 0.21798795251270189 -0.41173511607858798 0 0.2134335259370406 -0.42361274164068208 0 0.214193482313394 -0.44090741582839871 0 0.20641878621993981 -0.4190711626370725 0 0.2134335259370406 -0.42361274164068208 0 0.214193482313394 -0.44090741582839871 0 0.20641878621993981 -0.4190711626370725 0 0.214193482313394 -0.44090741582839871 0 0.2134335259370406 -0.42361274164068208 0 0.22169876536803559 -0.42746505199574908 0 0.214193482313394 -0.44090741582839871 0 0.19969554470779999 -0.43788935695502917 0 0.20641878621993981 -0.4190711626370725 0 0.214193482313394 -0.44090741582839871 0 0.22169876536803559 -0.42746505199574908 0 0.23071374319042001 -0.43626876100864159 0 0.22169876536803559 -0.42746505199574908 0 0.23071374319042001 -0.43626876100864159 0 0.231833148457121 -0.42111861881150398 0 0.23071374319042001 -0.43626876100864159 0 0.24723400406744539 -0.43163010618888198 0 0.23071374319042001 -0.43626876100864159 0 0.24723400406744539 -0.43163010618888198 0 0.231833148457121 -0.42111861881150398 0 0.25658566081208389 -0.41789106618104838 0 0.24723400406744539 -0.43163010618888198 0 0.24358552477742609 -0.41039978551074952 0 0.24723400406744539 -0.43163010618888198 0 0.24358552477742609 -0.41039978551074952 0 0.231833148457121 -0.42111861881150398 0 0.24358552477742609 -0.41039978551074952 0 0.22977890082669791 -0.40921289208641443 0 0.231833148457121 -0.42111861881150398 0 0.21798795251270189 -0.41173511607858798 0 0.22169876536803559 -0.42746505199574908 0 0.231833148457121 -0.42111861881150398 0 0.21798795251270189 -0.41173511607858798 0 0.22977890082669791 -0.40921289208641443 0 0.231833148457121 -0.42111861881150398 0 0.21798795251270189 -0.41173511607858798 0 0.22977890082669791 -0.40921289208641443 0 0.22514921126123871 -0.38805746644666361 0 0.24358552477742609 -0.41039978551074952 0 0.22977890082669791 -0.40921289208641443 0 0.22514921126123871 -0.38805746644666361 0 0.25540763311385722 -0.40033834997336071 0 0.24358552477742609 -0.41039978551074952 0 0.22514921126123871 -0.38805746644666361 0 0.25308564744576267 -0.38290005940110028 0 0.25540763311385722 -0.40033834997336071 0 0.22514921126123871 -0.38805746644666361 0 0.25308564744576267 -0.38290005940110028 0 0.22514921126123871 -0.38805746644666361 0 0.25308564744576267 -0.38290005940110028 0 0.22507445465726361 -0.3677740482547574 0 0.22514921126123871 -0.38805746644666361 0 0.22507445465726361 -0.3677740482547574 0 0.22514921126123871 -0.38805746644666361 0 0.20834781790869389 -0.37771272794701272 0 0.22514921126123871 -0.38805746644666361 0 0.20834781790869389 -0.37771272794701272 0 0.19721277507671481 -0.39321487349222711 0 0.22514921126123871 -0.38805746644666361 0 0.19721277507671481 -0.39321487349222711 0 0.21798795251270189 -0.41173511607858798 0 0.22514921126123871 -0.38805746644666361 0 0.19721277507671481 -0.39321487349222711 0 0.20641878621993981 -0.4190711626370725 0 0.19721277507671481 -0.39321487349222711 0 0.18956567557614409 -0.40933586212936413 0 0.19721277507671481 -0.39321487349222711 0 0.1814694478859977 -0.39612128381735612 0 0.19721277507671481 -0.39321487349222711 0 0.1814694478859977 -0.39612128381735612 0 0.19721277507671481 -0.39321487349222711 0 0.19193162597097979 -0.37838207390395151 0 0.1814694478859977 -0.39612128381735612 0 0.19721277507671481 -0.39321487349222711 0 0.19193162597097979 -0.37838207390395151 0 0.20834781790869389 -0.37771272794701272 0 0.19721277507671481 -0.39321487349222711 0 0.19193162597097979 -0.37838207390395151 0 0.18109152196247469 -0.36571660373762083 0 0.19193162597097979 -0.37838207390395151 0 0.17546078574430801 -0.38135050424346489 0 0.19193162597097979 -0.37838207390395151 0 0.17546078574430801 -0.38135050424346489 0 0.1814694478859977 -0.39612128381735612 0 0.1814694478859977 -0.39612128381735612 0 0.1657261206952807 -0.39902769414248518 0 0.17546078574430801 -0.38135050424346489 0 0.1814694478859977 -0.39612128381735612 0 0.1657261206952807 -0.39902769414248518 0 0.1814694478859977 -0.39612128381735612 0 0.1657261206952807 -0.39902769414248518 0 0.17610857977614461 -0.41117486553223531 0 0.18956567557614409 -0.40933586212936413 0 0.1814694478859977 -0.39612128381735612 0 0.17610857977614461 -0.41117486553223531 0 0.1657261206952807 -0.39902769414248518 0 0.15999827051186599 -0.38349187099713311 0 0.1493802639997556 -0.39002019818709432 0 0.164196396971447 -0.37045614015311229 0 0.15999827051186599 -0.38349187099713311 0 0.14582867691167231 -0.37548419425004781 0 0.17546078574430801 -0.38135050424346489 0 0.1657261206952807 -0.39902769414248518 0 0.15999827051186599 -0.38349187099713311 0 0.164196396971447 -0.37045614015311229 0 0.17546078574430801 -0.38135050424346489 0 0.15999827051186599 -0.38349187099713311 0 0.1493802639997556 -0.39002019818709432 0 0.14582867691167231 -0.37548419425004781 0 0.12935657299154121 -0.38814703697060321 0 0.15999827051186599 -0.38349187099713311 0 0.1493802639997556 -0.39002019818709432 0 0.14582867691167231 -0.37548419425004781 0 0.12751598258885849 -0.37275489806000728 0 0.14582867691167231 -0.37548419425004781 0 0.12935657299154121 -0.38814703697060321 0 0.12935657299154121 -0.38814703697060321 0 0.14599167888841791 -0.40395019457520259 0 0.12935657299154121 -0.38814703697060321 0 0.14599167888841791 -0.40395019457520259 0 0.13003302182081761 -0.40806774761930892 0 0.1493802639997556 -0.39002019818709432 0 0.12935657299154121 -0.38814703697060321 0 0.14599167888841791 -0.40395019457520259 0 0.1657261206952807 -0.39902769414248518 0 0.1493802639997556 -0.39002019818709432 0 0.14599167888841791 -0.40395019457520259 0 0.14599167888841791 -0.40395019457520259 0 0.1437623558739968 -0.41857824074021438 0 0.16262678478529449 -0.41975335217980209 0 0.14599167888841791 -0.40395019457520259 0 0.16262678478529449 -0.41975335217980209 0 0.1437623558739968 -0.41857824074021438 0 0.13003302182081761 -0.40806774761930892 0 0.13177345360018561 -0.42915100639474552 0 0.14599167888841791 -0.40395019457520259 0 0.1437623558739968 -0.41857824074021438 0 0.13003302182081761 -0.40806774761930892 0 0.13003302182081761 -0.40806774761930892 0 0.13177345360018561 -0.42915100639474552 0 0.1174068315428666 -0.42034502386167738 0 0.13177345360018561 -0.42915100639474552 0 0.14838684027526841 -0.43196890293201268 0 0.12863294341545289 -0.44570643914324709 0 0.13177345360018561 -0.42915100639474552 0 0.1254919560232248 -0.43653501583723658 0 0.12863294341545289 -0.44570643914324709 0 0.14838684027526841 -0.43196890293201268 0 0.16262678478529449 -0.41975335217980209 0 0.15764891638778811 -0.43925756899577612 0 0.1437623558739968 -0.41857824074021438 0 0.14838684027526841 -0.43196890293201268 0 0.16262678478529449 -0.41975335217980209 0 0.1437623558739968 -0.41857824074021438 0 0.13177345360018561 -0.42915100639474552 0 0.14838684027526841 -0.43196890293201268 0 0.18203385130386371 -0.42916436581642359 0 0.15764891638778811 -0.43925756899577612 0 0.16262678478529449 -0.41975335217980209 0 0.18203385130386371 -0.42916436581642359 0 0.15764891638778811 -0.43925756899577612 0 0.1657261206952807 -0.39902769414248518 0 0.14599167888841791 -0.40395019457520259 0 0.16262678478529449 -0.41975335217980209 0 0.1657261206952807 -0.39902769414248518 0 0.16262678478529449 -0.41975335217980209 0 0.17610857977614461 -0.41117486553223531 0 0.18956567557614409 -0.40933586212936413 0 0.17610857977614461 -0.41117486553223531 0 0.18203385130386371 -0.42916436581642359 0 0.16262678478529449 -0.41975335217980209 0 0.17610857977614461 -0.41117486553223531 0 0.18203385130386371 -0.42916436581642359 0 0.18203385130386371 -0.42916436581642359 0 0.1839415398563114 -0.44940173197329603 0 0.167299620821804 -0.45407454667725777 0 0.1839415398563114 -0.44940173197329603 0 0.167299620821804 -0.45407454667725777 0 0.1839415398563114 -0.44940173197329603 0 0.18704310471501809 -0.46581793685797879 0 0.167299620821804 -0.45407454667725777 0 0.18704310471501809 -0.46581793685797879 0 0.167299620821804 -0.45407454667725777 0 0.17187415396981859 -0.4720284043410794 0 0.167299620821804 -0.45407454667725777 0 0.15010970901507911 -0.45471614632968099 0 0.15291923789505171 -0.46771583182405652 0 0.167299620821804 -0.45407454667725777 0 0.15291923789505171 -0.46771583182405652 0 0.17187415396981859 -0.4720284043410794 0 0.18203385130386371 -0.42916436581642359 0 0.167299620821804 -0.45407454667725777 0 0.15764891638778811 -0.43925756899577612 0 0.167299620821804 -0.45407454667725777 0 0.15764891638778811 -0.43925756899577612 0 0.15010970901507911 -0.45471614632968099 0 0.15764891638778811 -0.43925756899577612 0 0.13326398147171259 -0.44935077217512848 0 0.14838684027526841 -0.43196890293201268 0 0.15764891638778811 -0.43925756899577612 0 0.13326398147171259 -0.44935077217512848 0 0.15764891638778811 -0.43925756899577612 0 0.13326398147171259 -0.44935077217512848 0 0.15010970901507911 -0.45471614632968099 0 0.14838684027526841 -0.43196890293201268 0 0.12863294341545289 -0.44570643914324709 0 0.14838684027526841 -0.43196890293201268 0 0.13326398147171259 -0.44935077217512848 0 0.12863294341545289 -0.44570643914324709 0 0.13326398147171259 -0.44935077217512848 0 0.1342971884598364 -0.46650997067456518 0 0.1088790465556372 -0.45944397535448128 0 0.13326398147171259 -0.44935077217512848 0 0.1342971884598364 -0.46650997067456518 0 0.15010970901507911 -0.45471614632968099 0 0.1342971884598364 -0.46650997067456518 0 0.15010970901507911 -0.45471614632968099 0 0.15291923789505171 -0.46771583182405652 0 0.15291923789505171 -0.46771583182405652 0 0.14613297335921929 -0.48768677261065457 0 0.1630938554443645 -0.4868601153171897 0 0.15291923789505171 -0.46771583182405652 0 0.13007941789217581 -0.48385791591202681 0 0.14613297335921929 -0.48768677261065457 0 0.15291923789505171 -0.46771583182405652 0 0.13007941789217581 -0.48385791591202681 0 0.1342971884598364 -0.46650997067456518 0 0.13007941789217581 -0.48385791591202681 0 0.111855475902624 -0.47841169651686982 0 0.1342971884598364 -0.46650997067456518 0 0.15291923789505171 -0.46771583182405652 0 0.13007941789217581 -0.48385791591202681 0 0.13007941789217581 -0.48385791591202681 0 0.13060398448460159 -0.5 0 0.14613297335921929 -0.48768677261065457 0 0.13060398448460159 -0.5 0 0.15396837107990291 -0.5 0 0.14613297335921929 -0.48768677261065457 0 0.15396837107990291 -0.5 0 0.14613297335921929 -0.48768677261065457 0 0.1630938554443645 -0.4868601153171897 0 0.15396837107990291 -0.5 0 0.1630938554443645 -0.4868601153171897 0 0.17733275767520421 -0.5 0 0.15291923789505171 -0.46771583182405652 0 0.1630938554443645 -0.4868601153171897 0 0.17187415396981859 -0.4720284043410794 0 0.1890149509728547 -0.48567359102891411 0 0.1630938554443645 -0.4868601153171897 0 0.17187415396981859 -0.4720284043410794 0 0.1890149509728547 -0.48567359102891411 0 0.18704310471501809 -0.46581793685797879 0 0.17187415396981859 -0.4720284043410794 0 0.1890149509728547 -0.48567359102891411 0 0.1630938554443645 -0.4868601153171897 0 0.17733275767520421 -0.5 0 0.067627582565066041 -0.48813165578323298 0 0.080623405198305576 -0.49999999999999739 0 0.052391988833910268 -0.5 0 0.067627582565066041 -0.48813165578323298 0 0.086310027521358745 -0.47513924391013201 0 0.067627582565066041 -0.48813165578323298 0 0.065273610280148706 -0.47722180231078343 0 0.075204643097509918 -0.47338219570307422 0 0.067627582565066041 -0.48813165578323298 0 0.075204643097509918 -0.47338219570307422 0 0.086310027521358745 -0.47513924391013201 0 0.065273610280148706 -0.47722180231078343 0 0.075204643097509918 -0.47338219570307422 0 0.064952564462852636 -0.46183914970457451 0 0.075204643097509918 -0.47338219570307422 0 0.086310027521358745 -0.47513924391013201 0 0.087915352951952103 -0.46812108766418842 0 0.075204643097509918 -0.47338219570307422 0 0.087915352951952103 -0.46812108766418842 0 0.086310027521358745 -0.47513924391013201 0 0.087915352951952103 -0.46812108766418842 0 0.086310027521358745 -0.47513924391013201 0 0.080623405198305576 -0.49999999999999739 0 0.1072395978893005 -0.49999999999999828 0 0.067627582565066041 -0.48813165578323298 0 0.086310027521358745 -0.47513924391013201 0 0.080623405198305576 -0.49999999999999739 0 0.086310027521358745 -0.47513924391013201 0 0.080623405198305576 -0.49999999999999739 0 0.086310027521358745 -0.47513924391013201 0 0.1072395978893005 -0.49999999999999828 0 0.111855475902624 -0.47841169651686982 0 0.13007941789217581 -0.48385791591202681 0 0.1072395978893005 -0.49999999999999828 0 0.111855475902624 -0.47841169651686982 0 0.13007941789217581 -0.48385791591202681 0 0.13060398448460159 -0.5 0 0.1072395978893005 -0.49999999999999828 0 0.13007941789217581 -0.48385791591202681 0 0.1072395978893005 -0.49999999999999828 0 0.086310027521358745 -0.47513924391013201 0 0.111855475902624 -0.47841169651686982 0 0.1088790465556372 -0.45944397535448128 0 0.1088790465556372 -0.45944397535448128 0 0.1057511992397152 -0.44685649192661098 0 0.087915352951952103 -0.46812108766418842 0 0.086310027521358745 -0.47513924391013201 0 0.1088790465556372 -0.45944397535448128 0 0.087915352951952103 -0.46812108766418842 0 0.086310027521358745 -0.47513924391013201 0 0.1088790465556372 -0.45944397535448128 0 0.1088790465556372 -0.45944397535448128 0 0.087915352951952103 -0.46812108766418842 0 0.1342971884598364 -0.46650997067456518 0 0.111855475902624 -0.47841169651686982 0 0.1088790465556372 -0.45944397535448128 0 0.13326398147171259 -0.44935077217512848 0 0.1088790465556372 -0.45944397535448128 0 0.12863294341545289 -0.44570643914324709 0 0.1088790465556372 -0.45944397535448128 0 0.1197495137669671 -0.44434559610951452 0 0.12863294341545289 -0.44570643914324709 0 0.1088790465556372 -0.45944397535448128 0 0.1197495137669671 -0.44434559610951452 0 0.1057511992397152 -0.44685649192661098 0 0.1048145176555168 -0.42953619597632831 0 0.13326398147171259 -0.44935077217512848 0 0.12863294341545289 -0.44570643914324709 0 0.1088790465556372 -0.45944397535448128 0 0.1254919560232248 -0.43653501583723658 0 0.12863294341545289 -0.44570643914324709 0 0.1197495137669671 -0.44434559610951452 0 0.1088790465556372 -0.45944397535448128 0 0.1197495137669671 -0.44434559610951452 0 0.1057511992397152 -0.44685649192661098 0 0.094455505435067699 -0.43952887132970181 0 0.1057511992397152 -0.44685649192661098 0 0.087915352951952103 -0.46812108766418842 0 0.094455505435067699 -0.43952887132970181 0 0.1057511992397152 -0.44685649192661098 0 0.1048145176555168 -0.42953619597632831 0 0.094455505435067699 -0.43952887132970181 0 0.079458046923934947 -0.45842176706091248 0 0.074762168672292142 -0.44923753090302382 0 0.094455505435067699 -0.43952887132970181 0 0.074762168672292142 -0.44923753090302382 0 0.077348214346532801 -0.43734522841463352 0 0.094455505435067699 -0.43952887132970181 0 0.087915352951952103 -0.46812108766418842 0 0.094455505435067699 -0.43952887132970181 0 0.087915352951952103 -0.46812108766418842 0 0.079458046923934947 -0.45842176706091248 0 0.075204643097509918 -0.47338219570307422 0 0.087915352951952103 -0.46812108766418842 0 0.079458046923934947 -0.45842176706091248 0 0.079458046923934947 -0.45842176706091248 0 0.064952564462852636 -0.46183914970457451 0 0.074762168672292142 -0.44923753090302382 0 0.075204643097509918 -0.47338219570307422 0 0.079458046923934947 -0.45842176706091248 0 0.064952564462852636 -0.46183914970457451 0 0.064952564462852636 -0.46183914970457451 0 0.062511407303808803 -0.44912600376879169 0 0.074762168672292142 -0.44923753090302382 0 0.062511407303808803 -0.44912600376879169 0 0.068750312224201401 -0.44127500612742399 0 0.074762168672292142 -0.44923753090302382 0 0.062511407303808803 -0.44912600376879169 0 0.068750312224201401 -0.44127500612742399 0 0.059564034560094042 -0.43865010986556868 0 0.068750312224201401 -0.44127500612742399 0 0.074762168672292142 -0.44923753090302382 0 0.077348214346532801 -0.43734522841463352 0 0.068085011698278297 -0.42817774356758009 0 0.077598310781201635 -0.41475500260664461 0 0.081619073722795255 -0.42757741896453672 0 0.077348214346532801 -0.43734522841463352 0 0.068085011698278297 -0.42817774356758009 0 0.081619073722795255 -0.42757741896453672 0 0.068750312224201401 -0.44127500612742399 0 0.077348214346532801 -0.43734522841463352 0 0.068085011698278297 -0.42817774356758009 0 0.068750312224201401 -0.44127500612742399 0 0.068085011698278297 -0.42817774356758009 0 0.059564034560094042 -0.43865010986556868 0 0.068085011698278297 -0.42817774356758009 0 0.066845607495290699 -0.41411859226960213 0 0.056213092764164981 -0.41578749013636612 0 0.066845607495290699 -0.41411859226960213 0 0.069525304058633178 -0.40402446997438529 0 0.060478767855482687 -0.40935375713223399 0 0.066845607495290699 -0.41411859226960213 0 0.077598310781201635 -0.41475500260664461 0 0.069525304058633178 -0.40402446997438529 0 0.077598310781201635 -0.41475500260664461 0 0.077813459135410823 -0.40132848111743191 0 0.069525304058633178 -0.40402446997438529 0 0.068085011698278297 -0.42817774356758009 0 0.066845607495290699 -0.41411859226960213 0 0.077598310781201635 -0.41475500260664461 0 0.090608326352895854 -0.41808024890412299 0 0.1000048301140686 -0.40853203513971248 0 0.088112679797065441 -0.40172019105408763 0 0.090608326352895854 -0.41808024890412299 0 0.077813459135410823 -0.40132848111743191 0 0.077598310781201635 -0.41475500260664461 0 0.090608326352895854 -0.41808024890412299 0 0.077813459135410823 -0.40132848111743191 0 0.090608326352895854 -0.41808024890412299 0 0.088112679797065441 -0.40172019105408763 0 0.077813459135410823 -0.40132848111743191 0 0.077598310781201635 -0.41475500260664461 0 0.090608326352895854 -0.41808024890412299 0 0.081619073722795255 -0.42757741896453672 0 0.094455505435067699 -0.43952887132970181 0 0.077348214346532801 -0.43734522841463352 0 0.081619073722795255 -0.42757741896453672 0 0.094455505435067699 -0.43952887132970181 0 0.090608326352895854 -0.41808024890412299 0 0.081619073722795255 -0.42757741896453672 0 0.094455505435067699 -0.43952887132970181 0 0.090608326352895854 -0.41808024890412299 0 0.1048145176555168 -0.42953619597632831 0 0.1197495137669671 -0.44434559610951452 0 0.1174068315428666 -0.42034502386167738 0 0.1254919560232248 -0.43653501583723658 0 0.1197495137669671 -0.44434559610951452 0 0.1174068315428666 -0.42034502386167738 0 0.13177345360018561 -0.42915100639474552 0 0.1254919560232248 -0.43653501583723658 0 0.1174068315428666 -0.42034502386167738 0 0.1197495137669671 -0.44434559610951452 0 0.1048145176555168 -0.42953619597632831 0 0.1174068315428666 -0.42034502386167738 0 0.1174068315428666 -0.42034502386167738 0 0.1000048301140686 -0.40853203513971248 0 0.115064149318766 -0.39634445161384008 0 0.1174068315428666 -0.42034502386167738 0 0.115064149318766 -0.39634445161384008 0 0.13003302182081761 -0.40806774761930892 0 0.1174068315428666 -0.42034502386167738 0 0.115064149318766 -0.39634445161384008 0 0.090608326352895854 -0.41808024890412299 0 0.1048145176555168 -0.42953619597632831 0 0.1000048301140686 -0.40853203513971248 0 0.1048145176555168 -0.42953619597632831 0 0.1174068315428666 -0.42034502386167738 0 0.1000048301140686 -0.40853203513971248 0 0.1000048301140686 -0.40853203513971248 0 0.093711028591666259 -0.39804866565319819 0 0.088112679797065441 -0.40172019105408763 0 0.1000048301140686 -0.40853203513971248 0 0.10221934243117731 -0.39488749955123198 0 0.093711028591666259 -0.39804866565319819 0 0.094599480016091336 -0.39171823268954481 0 0.10221934243117731 -0.39488749955123198 0 0.098884252328858016 -0.38540256184206889 0 0.094599480016091336 -0.39171823268954481 0 0.10221934243117731 -0.39488749955123198 0 0.093711028591666259 -0.39804866565319819 0 0.10221934243117731 -0.39488749955123198 0 0.115064149318766 -0.39634445161384008 0 0.10885192808111049 -0.38585383841171061 0 0.1000048301140686 -0.40853203513971248 0 0.10221934243117731 -0.39488749955123198 0 0.115064149318766 -0.39634445161384008 0 0.12935657299154121 -0.38814703697060321 0 0.13003302182081761 -0.40806774761930892 0 0.115064149318766 -0.39634445161384008 0 0.115064149318766 -0.39634445161384008 0 0.112721467094665 -0.37234387936600299 0 0.115064149318766 -0.39634445161384008 0 0.10885192808111049 -0.38585383841171061 0 0.112721467094665 -0.37234387936600299 0 0.12935657299154121 -0.38814703697060321 0 0.112721467094665 -0.37234387936600299 0 0.12935657299154121 -0.38814703697060321 0 0.115064149318766 -0.39634445161384008 0 0.112721467094665 -0.37234387936600299 0 0.12751598258885849 -0.37275489806000728 0 0.12935657299154121 -0.38814703697060321 0 0.112721467094665 -0.37234387936600299 0 0.1067479676338712 -0.38013218090402401 0 0.10885192808111049 -0.38585383841171061 0 0.112721467094665 -0.37234387936600299 0 0.1067479676338712 -0.38013218090402401 0 0.112721467094665 -0.37234387936600299 0 0.10879199685857741 -0.37437886055054909 0 0.1067479676338712 -0.38013218090402401 0 0.098884252328858016 -0.38540256184206889 0 0.1001393812557064 -0.37693012658991332 0 0.1067479676338712 -0.38013218090402401 0 0.1047445308745272 -0.374374555060838 0 0.10879199685857741 -0.37437886055054909 0 0.1067479676338712 -0.38013218090402401 0 0.1001393812557064 -0.37693012658991332 0 0.1047445308745272 -0.374374555060838 0 0.1067479676338712 -0.38013218090402401 0 0.10885192808111049 -0.38585383841171061 0 0.098884252328858016 -0.38540256184206889 0 0.10221934243117731 -0.39488749955123198 0 0.10885192808111049 -0.38585383841171061 0 0.098884252328858016 -0.38540256184206889 0 0.094599480016091336 -0.39171823268954481 0 0.098884252328858016 -0.38540256184206889 0 0.090970176183881424 -0.38721690382629131 0 0.098884252328858016 -0.38540256184206889 0 0.092324477608098504 -0.37974768846178608 0 0.090970176183881424 -0.38721690382629131 0 0.098884252328858016 -0.38540256184206889 0 0.1001393812557064 -0.37693012658991332 0 0.092324477608098504 -0.37974768846178608 0 0.1001393812557064 -0.37693012658991332 0 0.092324477608098504 -0.37974768846178608 0 0.09589770983431084 -0.37120652805628168 0 0.082992153608590843 -0.38713290926782029 0 0.08686023546009547 -0.36929177575019018 0 0.082992153608590843 -0.38713290926782029 0 0.08686023546009547 -0.36929177575019018 0 0.077736662447614083 -0.3736880441050226 0 0.092324477608098504 -0.37974768846178608 0 0.082992153608590843 -0.38713290926782029 0 0.08686023546009547 -0.36929177575019018 0 0.082992153608590843 -0.38713290926782029 0 0.074376958208976093 -0.38324205621463592 0 0.077736662447614083 -0.3736880441050226 0 0.082992153608590843 -0.38713290926782029 0 0.087212600544873731 -0.3930355325749334 0 0.079325834043477442 -0.3912961829351268 0 0.082992153608590843 -0.38713290926782029 0 0.079325834043477442 -0.3912961829351268 0 0.074376958208976093 -0.38324205621463592 0 0.082992153608590843 -0.38713290926782029 0 0.090970176183881424 -0.38721690382629131 0 0.087212600544873731 -0.3930355325749334 0 0.092324477608098504 -0.37974768846178608 0 0.082992153608590843 -0.38713290926782029 0 0.090970176183881424 -0.38721690382629131 0 0.094599480016091336 -0.39171823268954481 0 0.090970176183881424 -0.38721690382629131 0 0.087212600544873731 -0.3930355325749334 0 0.094599480016091336 -0.39171823268954481 0 0.093711028591666259 -0.39804866565319819 0 0.087212600544873731 -0.3930355325749334 0 0.093711028591666259 -0.39804866565319819 0 0.087212600544873731 -0.3930355325749334 0 0.088112679797065441 -0.40172019105408763 0 0.088112679797065441 -0.40172019105408763 0 0.079325834043477442 -0.3912961829351268 0 0.077813459135410823 -0.40132848111743191 0 0.087212600544873731 -0.3930355325749334 0 0.088112679797065441 -0.40172019105408763 0 0.079325834043477442 -0.3912961829351268 0 0.077813459135410823 -0.40132848111743191 0 0.065018591917926249 -0.38457671333074039 0 0.077813459135410823 -0.40132848111743191 0 0.069525304058633178 -0.40402446997438529 0 0.065018591917926249 -0.38457671333074039 0 0.069525304058633178 -0.40402446997438529 0 0.056098993453862968 -0.38038757818948349 0 0.079325834043477442 -0.3912961829351268 0 0.077813459135410823 -0.40132848111743191 0 0.065018591917926249 -0.38457671333074039 0 0.069525304058633178 -0.40402446997438529 0 0.057983134201828317 -0.40317740330951141 0 0.060478767855482687 -0.40935375713223399 0 0.069525304058633178 -0.40402446997438529 0 0.065018591917926249 -0.38457671333074039 0 0.056098993453862968 -0.38038757818948349 0 0.065018591917926249 -0.38457671333074039 0 0.074376958208976093 -0.38324205621463592 0 0.067830570364931494 -0.3719444483839941 0 0.074376958208976093 -0.38324205621463592 0 0.067830570364931494 -0.3719444483839941 0 0.077736662447614083 -0.3736880441050226 0 0.079325834043477442 -0.3912961829351268 0 0.065018591917926249 -0.38457671333074039 0 0.079325834043477442 -0.3912961829351268 0 0.065018591917926249 -0.38457671333074039 0 0.074376958208976093 -0.38324205621463592 0 0.065018591917926249 -0.38457671333074039 0 0.052260529336356408 -0.36787313226641682 0 0.065018591917926249 -0.38457671333074039 0 0.056098993453862968 -0.38038757818948349 0 0.052260529336356408 -0.36787313226641682 0 0.056098993453862968 -0.38038757818948349 0 0.056628596194609672 -0.39565196527352098 0 0.049403395763143183 -0.3911505746403493 0 0.056098993453862968 -0.38038757818948349 0 0.049403395763143183 -0.3911505746403493 0 0.043132338927944082 -0.38131246161306648 0 0.065018591917926249 -0.38457671333074039 0 0.056098993453862968 -0.38038757818948349 0 0.069525304058633178 -0.40402446997438529 0 0.056098993453862968 -0.38038757818948349 0 0.056628596194609672 -0.39565196527352098 0 0.069525304058633178 -0.40402446997438529 0 0.056628596194609672 -0.39565196527352098 0 0.057983134201828317 -0.40317740330951141 0 0.056628596194609672 -0.39565196527352098 0 0.057983134201828317 -0.40317740330951141 0 0.050132153495580728 -0.39951980025387518 0 0.057983134201828317 -0.40317740330951141 0 0.050132153495580728 -0.39951980025387518 0 0.051826700757496243 -0.40966082997130532 0 0.050132153495580728 -0.39951980025387518 0 0.043773921860666053 -0.40426577011690251 0 0.051826700757496243 -0.40966082997130532 0 0.056628596194609672 -0.39565196527352098 0 0.050132153495580728 -0.39951980025387518 0 0.049403395763143183 -0.3911505746403493 0 0.049403395763143183 -0.3911505746403493 0 0.038014777442690433 -0.39593957207265967 0 0.036215956470599282 -0.38520074647902619 0 0.038014777442690433 -0.39593957207265967 0 0.036215956470599282 -0.38520074647902619 0 0.022360200033327469 -0.39146736763095957 0 0.050132153495580728 -0.39951980025387518 0 0.049403395763143183 -0.3911505746403493 0 0.038014777442690433 -0.39593957207265967 0 0.050132153495580728 -0.39951980025387518 0 0.043773921860666053 -0.40426577011690251 0 0.038014777442690433 -0.39593957207265967 0 0.043773921860666053 -0.40426577011690251 0 0.038014777442690433 -0.39593957207265967 0 0.036897371588361053 -0.40750393123775541 0 0.038014777442690433 -0.39593957207265967 0 0.030289388859859691 -0.40250085641702671 0 0.036897371588361053 -0.40750393123775541 0 0.056098993453862968 -0.38038757818948349 0 0.043132338927944082 -0.38131246161306648 0 0.030811010024170901 -0.36851094714340688 0 0.036215956470599282 -0.38520074647902619 0 0.043132338927944082 -0.38131246161306648 0 0.030811010024170901 -0.36851094714340688 0 0.049403395763143183 -0.3911505746403493 0 0.036215956470599282 -0.38520074647902619 0 0.043132338927944082 -0.38131246161306648 0 0.036215956470599282 -0.38520074647902619 0 0.024701261199978331 -0.38035413267665258 0 0.030811010024170901 -0.36851094714340688 0 0.024701261199978331 -0.38035413267665258 0 0.0094178782718157012 -0.37623746945321768 0 0.030811010024170901 -0.36851094714340688 0 0.036215956470599282 -0.38520074647902619 0 0.024701261199978331 -0.38035413267665258 0 0.022360200033327469 -0.39146736763095957 0 0.024701261199978331 -0.38035413267665258 0 0.0094178782718157012 -0.37623746945321768 0 0.022360200033327469 -0.39146736763095957 0 0.0094178782718157012 -0.37623746945321768 0 0.0026077901979910151 -0.3937155129803267 0 0.022360200033327469 -0.39146736763095957 0 0.0026077901979910151 -0.3937155129803267 0 0.011039794756536809 -0.40299079535917071 0 0.022360200033327469 -0.39146736763095957 0 -0.0021544753678095999 -0.40784943556256648 0 0.0026077901979910151 -0.3937155129803267 0 0.011039794756536809 -0.40299079535917071 0 0.038014777442690433 -0.39593957207265967 0 0.022360200033327469 -0.39146736763095957 0 0.030289388859859691 -0.40250085641702671 0 0.022360200033327469 -0.39146736763095957 0 0.030289388859859691 -0.40250085641702671 0 0.020867937515133151 -0.40777075659430911 0 0.011039794756536809 -0.40299079535917071 0 0.022360200033327469 -0.39146736763095957 0 0.020867937515133151 -0.40777075659430911 0 0.03011805919037502 -0.41455756803216892 0 0.019944034336731569 -0.41860592239319211 0 0.020867937515133151 -0.40777075659430911 0 0.030289388859859691 -0.40250085641702671 0 0.03011805919037502 -0.41455756803216892 0 0.020867937515133151 -0.40777075659430911 0 0.03011805919037502 -0.41455756803216892 0 0.019944034336731569 -0.41860592239319211 0 0.028176765302755081 -0.42305266484665133 0 0.019944034336731569 -0.41860592239319211 0 0.020867937515133151 -0.40777075659430911 0 0.0099498392384724903 -0.41488593289157782 0 0.011039794756536809 -0.40299079535917071 0 0.020867937515133151 -0.40777075659430911 0 0.0099498392384724903 -0.41488593289157782 0 0.019944034336731569 -0.41860592239319211 0 0.0099498392384724903 -0.41488593289157782 0 0.011717128083925169 -0.42758598836330908 0 -0.001601110338014082 -0.42097589615010578 0 -0.0021544753678095999 -0.40784943556256648 0 0.0099498392384724903 -0.41488593289157782 0 -0.001601110338014082 -0.42097589615010578 0 0.0099498392384724903 -0.41488593289157782 0 0.011717128083925169 -0.42758598836330908 0 -0.0021544753678095999 -0.40784943556256648 0 0.011039794756536809 -0.40299079535917071 0 0.0099498392384724903 -0.41488593289157782 0 -0.001601110338014082 -0.42097589615010578 0 0.00088915341899545048 -0.43615426505860788 0 0.011717128083925169 -0.42758598836330908 0 0.011717128083925169 -0.42758598836330908 0 0.020160644338872689 -0.43647731888139668 0 0.011077691900881179 -0.43839449497152611 0 0.00088915341899545048 -0.43615426505860788 0 0.011717128083925169 -0.42758598836330908 0 0.011077691900881179 -0.43839449497152611 0 0.011717128083925169 -0.42758598836330908 0 0.020160644338872689 -0.43647731888139668 0 0.022204008742439579 -0.42752473423561038 0 0.019944034336731569 -0.41860592239319211 0 0.011717128083925169 -0.42758598836330908 0 0.022204008742439579 -0.42752473423561038 0 0.022204008742439579 -0.42752473423561038 0 0.028176765302755081 -0.42305266484665133 0 0.031648965752706149 -0.43087248049252808 0 0.019944034336731569 -0.41860592239319211 0 0.022204008742439579 -0.42752473423561038 0 0.028176765302755081 -0.42305266484665133 0 0.020160644338872689 -0.43647731888139668 0 0.022204008742439579 -0.42752473423561038 0 0.031648965752706149 -0.43087248049252808 0 0.020160644338872689 -0.43647731888139668 0 0.031648965752706149 -0.43087248049252808 0 0.029759634357800421 -0.44114044959405929 0 0.031648965752706149 -0.43087248049252808 0 0.039218811862669033 -0.43720654145288701 0 0.029759634357800421 -0.44114044959405929 0 0.031648965752706149 -0.43087248049252808 0 0.039218811862669033 -0.43720654145288701 0 0.043142075504979387 -0.42844778646909221 0 0.039218811862669033 -0.43720654145288701 0 0.043142075504979387 -0.42844778646909221 0 0.049207555867558768 -0.43640604935561422 0 0.043142075504979387 -0.42844778646909221 0 0.035741374414386802 -0.42246703283890952 0 0.042370571461418857 -0.41563387690683268 0 0.043142075504979387 -0.42844778646909221 0 0.042370571461418857 -0.41563387690683268 0 0.049225907804521983 -0.42165130884641278 0 0.028176765302755081 -0.42305266484665133 0 0.031648965752706149 -0.43087248049252808 0 0.035741374414386802 -0.42246703283890952 0 0.031648965752706149 -0.43087248049252808 0 0.043142075504979387 -0.42844778646909221 0 0.035741374414386802 -0.42246703283890952 0 0.03011805919037502 -0.41455756803216892 0 0.035741374414386802 -0.42246703283890952 0 0.042370571461418857 -0.41563387690683268 0 0.03011805919037502 -0.41455756803216892 0 0.028176765302755081 -0.42305266484665133 0 0.035741374414386802 -0.42246703283890952 0 0.030289388859859691 -0.40250085641702671 0 0.03011805919037502 -0.41455756803216892 0 0.036897371588361053 -0.40750393123775541 0 0.03011805919037502 -0.41455756803216892 0 0.036897371588361053 -0.40750393123775541 0 0.042370571461418857 -0.41563387690683268 0 0.043773921860666053 -0.40426577011690251 0 0.036897371588361053 -0.40750393123775541 0 0.042370571461418857 -0.41563387690683268 0 0.043773921860666053 -0.40426577011690251 0 0.042370571461418857 -0.41563387690683268 0 0.051826700757496243 -0.40966082997130532 0 0.049225907804521983 -0.42165130884641278 0 0.051826700757496243 -0.40966082997130532 0 0.056213092764164981 -0.41578749013636612 0 0.042370571461418857 -0.41563387690683268 0 0.049225907804521983 -0.42165130884641278 0 0.051826700757496243 -0.40966082997130532 0 0.051826700757496243 -0.40966082997130532 0 0.060478767855482687 -0.40935375713223399 0 0.056213092764164981 -0.41578749013636612 0 0.057983134201828317 -0.40317740330951141 0 0.051826700757496243 -0.40966082997130532 0 0.060478767855482687 -0.40935375713223399 0 0.066845607495290699 -0.41411859226960213 0 0.060478767855482687 -0.40935375713223399 0 0.056213092764164981 -0.41578749013636612 0 0.068085011698278297 -0.42817774356758009 0 0.056213092764164981 -0.41578749013636612 0 0.055640848455399801 -0.42827436076878589 0 0.068085011698278297 -0.42817774356758009 0 0.055640848455399801 -0.42827436076878589 0 0.059564034560094042 -0.43865010986556868 0 0.055640848455399801 -0.42827436076878589 0 0.049207555867558768 -0.43640604935561422 0 0.059564034560094042 -0.43865010986556868 0 0.043142075504979387 -0.42844778646909221 0 0.055640848455399801 -0.42827436076878589 0 0.049207555867558768 -0.43640604935561422 0 0.043142075504979387 -0.42844778646909221 0 0.049225907804521983 -0.42165130884641278 0 0.055640848455399801 -0.42827436076878589 0 0.049225907804521983 -0.42165130884641278 0 0.056213092764164981 -0.41578749013636612 0 0.055640848455399801 -0.42827436076878589 0 0.05254291432310898 -0.4457952019000101 0 0.045582184866803682 -0.45166854288000069 0 0.044421213709540407 -0.443185910364439 0 0.05254291432310898 -0.4457952019000101 0 0.053971089630848172 -0.45573459516564652 0 0.045582184866803682 -0.45166854288000069 0 0.049207555867558768 -0.43640604935561422 0 0.05254291432310898 -0.4457952019000101 0 0.044421213709540407 -0.443185910364439 0 0.049207555867558768 -0.43640604935561422 0 0.05254291432310898 -0.4457952019000101 0 0.059564034560094042 -0.43865010986556868 0 0.062511407303808803 -0.44912600376879169 0 0.05254291432310898 -0.4457952019000101 0 0.059564034560094042 -0.43865010986556868 0 0.062511407303808803 -0.44912600376879169 0 0.05254291432310898 -0.4457952019000101 0 0.053971089630848172 -0.45573459516564652 0 0.064952564462852636 -0.46183914970457451 0 0.062511407303808803 -0.44912600376879169 0 0.053971089630848172 -0.45573459516564652 0 0.064952564462852636 -0.46183914970457451 0 0.055796426859872267 -0.46337306781983351 0 0.053971089630848172 -0.45573459516564652 0 0.064952564462852636 -0.46183914970457451 0 0.055796426859872267 -0.46337306781983351 0 0.057106320527649509 -0.47143906907577998 0 0.055796426859872267 -0.46337306781983351 0 0.047155732818138757 -0.46447945733333262 0 0.057106320527649509 -0.47143906907577998 0 0.055796426859872267 -0.46337306781983351 0 0.047155732818138757 -0.46447945733333262 0 0.053971089630848172 -0.45573459516564652 0 0.047155732818138757 -0.46447945733333262 0 0.053971089630848172 -0.45573459516564652 0 0.045582184866803682 -0.45166854288000069 0 0.047155732818138757 -0.46447945733333262 0 0.037162637683835827 -0.45665227522390978 0 0.045582184866803682 -0.45166854288000069 0 0.047155732818138757 -0.46447945733333262 0 0.036575273498175853 -0.46621016757558309 0 0.037162637683835827 -0.45665227522390978 0 0.036575273498175853 -0.46621016757558309 0 0.037162637683835827 -0.45665227522390978 0 0.02515061182248338 -0.45957462974103969 0 0.037339256081147278 -0.44671794053729058 0 0.029759634357800421 -0.44114044959405929 0 0.027891054006234341 -0.45045392370844861 0 0.037162637683835827 -0.45665227522390978 0 0.037339256081147278 -0.44671794053729058 0 0.027891054006234341 -0.45045392370844861 0 0.037162637683835827 -0.45665227522390978 0 0.037339256081147278 -0.44671794053729058 0 0.045582184866803682 -0.45166854288000069 0 0.037339256081147278 -0.44671794053729058 0 0.045582184866803682 -0.45166854288000069 0 0.044421213709540407 -0.443185910364439 0 0.039218811862669033 -0.43720654145288701 0 0.037339256081147278 -0.44671794053729058 0 0.044421213709540407 -0.443185910364439 0 0.039218811862669033 -0.43720654145288701 0 0.049207555867558768 -0.43640604935561422 0 0.044421213709540407 -0.443185910364439 0 0.039218811862669033 -0.43720654145288701 0 0.037339256081147278 -0.44671794053729058 0 0.029759634357800421 -0.44114044959405929 0 0.029759634357800421 -0.44114044959405929 0 0.027891054006234341 -0.45045392370844861 0 0.019370446241102159 -0.44582737684038048 0 0.019370446241102159 -0.44582737684038048 0 0.02092964513992094 -0.45234094673732939 0 0.01130646848986386 -0.45350785665944882 0 0.027891054006234341 -0.45045392370844861 0 0.019370446241102159 -0.44582737684038048 0 0.02092964513992094 -0.45234094673732939 0 0.020160644338872689 -0.43647731888139668 0 0.019370446241102159 -0.44582737684038048 0 0.011077691900881179 -0.43839449497152611 0 0.020160644338872689 -0.43647731888139668 0 0.029759634357800421 -0.44114044959405929 0 0.019370446241102159 -0.44582737684038048 0 0.019370446241102159 -0.44582737684038048 0 0.011077691900881179 -0.43839449497152611 0 0.0076953212378278717 -0.44595833397685369 0 0.019370446241102159 -0.44582737684038048 0 0.0076953212378278717 -0.44595833397685369 0 0.01130646848986386 -0.45350785665944882 0 -0.0026670013933727068 -0.44670431023323709 0 0.0076953212378278717 -0.44595833397685369 0 0.0021011584974573948 -0.45182517477826251 0 0.0076953212378278717 -0.44595833397685369 0 0.0021011584974573948 -0.45182517477826251 0 0.01130646848986386 -0.45350785665944882 0 0.00088915341899545048 -0.43615426505860788 0 0.011077691900881179 -0.43839449497152611 0 0.0076953212378278717 -0.44595833397685369 0 -0.0026670013933727068 -0.44670431023323709 0 0.00088915341899545048 -0.43615426505860788 0 0.0076953212378278717 -0.44595833397685369 0 -0.002347703866505482 -0.45999088199490612 0 0.02515061182248338 -0.45957462974103969 0 -0.002347703866505482 -0.45999088199490612 0 -0.0062631933699878028 -0.46411406759441309 0 0.01731963281551889 -0.46782100094005319 0 -0.002347703866505482 -0.45999088199490612 0 0.01130646848986386 -0.45350785665944882 0 0.02515061182248338 -0.45957462974103969 0 -0.0062631933699878028 -0.46411406759441309 0 0.01731963281551889 -0.46782100094005319 0 -0.002347703866505482 -0.45999088199490612 0 0.01731963281551889 -0.46782100094005319 0 0.02515061182248338 -0.45957462974103969 0 -0.0062631933699878028 -0.46411406759441309 0 0.01731963281551889 -0.46782100094005319 0 0.00103595329040903 -0.47221624115264649 0 -0.002347703866505482 -0.45999088199490612 0 0.0021011584974573948 -0.45182517477826251 0 0.01130646848986386 -0.45350785665944882 0 0.02092964513992094 -0.45234094673732939 0 0.01130646848986386 -0.45350785665944882 0 0.02515061182248338 -0.45957462974103969 0 0.027891054006234341 -0.45045392370844861 0 0.02092964513992094 -0.45234094673732939 0 0.02515061182248338 -0.45957462974103969 0 0.037162637683835827 -0.45665227522390978 0 0.027891054006234341 -0.45045392370844861 0 0.02515061182248338 -0.45957462974103969 0 0.01731963281551889 -0.46782100094005319 0 0.02515061182248338 -0.45957462974103969 0 0.028910650811243131 -0.47325516989017719 0 0.036575273498175853 -0.46621016757558309 0 0.02515061182248338 -0.45957462974103969 0 0.028910650811243131 -0.47325516989017719 0 0.01731963281551889 -0.46782100094005319 0 0.028910650811243131 -0.47325516989017719 0 0.019042301475282741 -0.4838582621845513 0 0.028910650811243131 -0.47325516989017719 0 0.019042301475282741 -0.4838582621845513 0 0.031532532016025072 -0.48477160350666598 0 0.01731963281551889 -0.46782100094005319 0 0.0099907723835669683 -0.47572689947752528 0 0.00103595329040903 -0.47221624115264649 0 0.019042301475282741 -0.4838582621845513 0 0.0099907723835669683 -0.47572689947752528 0 0.0030783257516484299 -0.48155330781822908 0 0.01731963281551889 -0.46782100094005319 0 0.019042301475282741 -0.4838582621845513 0 0.0099907723835669683 -0.47572689947752528 0 0.0099907723835669683 -0.47572689947752528 0 0.0030783257516484299 -0.48155330781822908 0 0.00103595329040903 -0.47221624115264649 0 -0.0040708438948800496 -0.5 0 0.019042301475282741 -0.4838582621845513 0 0.0030783257516484299 -0.48155330781822908 0 -0.0040708438948800496 -0.5 0 0.019042301475282741 -0.4838582621845513 0 0.024160572469515081 -0.5 0 0.019042301475282741 -0.4838582621845513 0 0.024160572469515081 -0.5 0 0.031532532016025072 -0.48477160350666598 0 0.024160572469515081 -0.5 0 0.040987272292012537 -0.48929835056440402 0 0.031532532016025072 -0.48477160350666598 0 0.024160572469515081 -0.5 0 0.040987272292012537 -0.48929835056440402 0 0.052391988833910268 -0.5 0 0.040987272292012537 -0.48929835056440402 0 0.031532532016025072 -0.48477160350666598 0 0.042416356866584841 -0.47733102668431121 0 0.028910650811243131 -0.47325516989017719 0 0.031532532016025072 -0.48477160350666598 0 0.042416356866584841 -0.47733102668431121 0 0.036575273498175853 -0.46621016757558309 0 0.028910650811243131 -0.47325516989017719 0 0.042416356866584841 -0.47733102668431121 0 0.047155732818138757 -0.46447945733333262 0 0.036575273498175853 -0.46621016757558309 0 0.042416356866584841 -0.47733102668431121 0 0.040987272292012537 -0.48929835056440402 0 0.042416356866584841 -0.47733102668431121 0 0.054434911274027373 -0.48438912263104261 0 0.042416356866584841 -0.47733102668431121 0 0.057106320527649509 -0.47143906907577998 0 0.054434911274027373 -0.48438912263104261 0 0.047155732818138757 -0.46447945733333262 0 0.042416356866584841 -0.47733102668431121 0 0.057106320527649509 -0.47143906907577998 0 0.065273610280148706 -0.47722180231078343 0 0.064952564462852636 -0.46183914970457451 0 0.057106320527649509 -0.47143906907577998 0 0.067627582565066041 -0.48813165578323298 0 0.065273610280148706 -0.47722180231078343 0 0.054434911274027373 -0.48438912263104261 0 0.065273610280148706 -0.47722180231078343 0 0.057106320527649509 -0.47143906907577998 0 0.054434911274027373 -0.48438912263104261 0 0.067627582565066041 -0.48813165578323298 0 0.052391988833910268 -0.5 0 0.054434911274027373 -0.48438912263104261 0 0.040987272292012537 -0.48929835056440402 0 0.052391988833910268 -0.5 0 0.054434911274027373 -0.48438912263104261 0 0.078700907048128613 -0.2855309486460314 0 0.085151576002749141 -0.31224921001815698 0 0.1005720009588518 -0.30604765413715179 0 0.078700907048128613 -0.2855309486460314 0 0.070017269913130703 -0.31008448998825838 0 0.078700907048128613 -0.2855309486460314 0 0.085151576002749141 -0.31224921001815698 0 0.070017269913130703 -0.31008448998825838 0 0.078700907048128613 -0.2855309486460314 0 0.070017269913130703 -0.31008448998825838 0 0.057595228312526628 -0.28723524166859832 0 0.078700907048128613 -0.2855309486460314 0 0.06791686840857486 -0.26511321518141978 0 0.08738454418312655 -0.26097740730380431 0 0.078700907048128613 -0.2855309486460314 0 0.06791686840857486 -0.26511321518141978 0 0.057595228312526628 -0.28723524166859832 0 0.06791686840857486 -0.26511321518141978 0 0.058239966685712588 -0.2449186303793702 0 0.076827087817202433 -0.2465148051290279 0 0.06791686840857486 -0.26511321518141978 0 0.08738454418312655 -0.26097740730380431 0 0.076827087817202433 -0.2465148051290279 0 0.078700907048128613 -0.2855309486460314 0 0.08738454418312655 -0.26097740730380431 0 0.10107609717776 -0.27391910474389353 0 0.078700907048128613 -0.2855309486460314 0 0.08738454418312655 -0.26097740730380431 0 0.08738454418312655 -0.26097740730380431 0 0.10107609717776 -0.27391910474389353 0 0.1057365399118136 -0.25470783319042251 0 0.10107609717776 -0.27391910474389353 0 0.1057365399118136 -0.25470783319042251 0 0.1170682930768161 -0.26606450844549201 0 0.08738454418312655 -0.26097740730380431 0 0.1057365399118136 -0.25470783319042251 0 0.096068181318124585 -0.2364238659615773 0 0.13574709872065269 -0.26669610342613209 0 0.1201509403983588 -0.25476415833570842 0 0.1170682930768161 -0.26606450844549201 0 0.1057365399118136 -0.25470783319042251 0 0.1201509403983588 -0.25476415833570842 0 0.1127569838668786 -0.24092540419269151 0 0.1057365399118136 -0.25470783319042251 0 0.1201509403983588 -0.25476415833570842 0 0.1170682930768161 -0.26606450844549201 0 0.10107609717776 -0.27391910474389353 0 0.1170682930768161 -0.26606450844549201 0 0.1166542472287994 -0.28632687223493031 0 0.1285665355501662 -0.27963149572183532 0 0.1170682930768161 -0.26606450844549201 0 0.1166542472287994 -0.28632687223493031 0 0.1287513209415935 -0.29114423132653389 0 0.1285665355501662 -0.27963149572183532 0 0.1166542472287994 -0.28632687223493031 0 0.1287513209415935 -0.29114423132653389 0 0.1166542472287994 -0.28632687223493031 0 0.1179165457094245 -0.29941235917357728 0 0.1166542472287994 -0.28632687223493031 0 0.10298395962459291 -0.29024738778711678 0 0.1179165457094245 -0.29941235917357728 0 0.078700907048128613 -0.2855309486460314 0 0.10298395962459291 -0.29024738778711678 0 0.1005720009588518 -0.30604765413715179 0 0.10107609717776 -0.27391910474389353 0 0.1166542472287994 -0.28632687223493031 0 0.10298395962459291 -0.29024738778711678 0 0.078700907048128613 -0.2855309486460314 0 0.10107609717776 -0.27391910474389353 0 0.10298395962459291 -0.29024738778711678 0 0.10298395962459291 -0.29024738778711678 0 0.1005720009588518 -0.30604765413715179 0 0.1179165457094245 -0.29941235917357728 0 0.1005720009588518 -0.30604765413715179 0 0.1179165457094245 -0.29941235917357728 0 0.1239283851024847 -0.31562421082186892 0 0.1005720009588518 -0.30604765413715179 0 0.1121708699519573 -0.32731793154861089 0 0.1239283851024847 -0.31562421082186892 0 0.13025486328074379 -0.33383548688203268 0 0.1121708699519573 -0.32731793154861089 0 0.1239283851024847 -0.31562421082186892 0 0.13025486328074379 -0.33383548688203268 0 0.1105488475755126 -0.3430534930588508 0 0.1200697072631093 -0.35053784775465641 0 0.13025486328074379 -0.33383548688203268 0 0.1121708699519573 -0.32731793154861089 0 0.1105488475755126 -0.3430534930588508 0 0.095650159135225996 -0.3287491481848559 0 0.099835625192429056 -0.3452102488395552 0 0.09072831731159911 -0.35145064223255978 0 0.1121708699519573 -0.32731793154861089 0 0.1105488475755126 -0.3430534930588508 0 0.095650159135225996 -0.3287491481848559 0 0.1105488475755126 -0.3430534930588508 0 0.095650159135225996 -0.3287491481848559 0 0.099835625192429056 -0.3452102488395552 0 0.1005720009588518 -0.30604765413715179 0 0.1121708699519573 -0.32731793154861089 0 0.095650159135225996 -0.3287491481848559 0 0.1005720009588518 -0.30604765413715179 0 0.095650159135225996 -0.3287491481848559 0 0.085151576002749141 -0.31224921001815698 0 0.1005720009588518 -0.30604765413715179 0 0.095650159135225996 -0.3287491481848559 0 0.13675290106859381 -0.3552518356565002 0 0.1124692175830892 -0.36975960542364711 0 0.11196350086204759 -0.36457858233159562 0 0.13675290106859381 -0.3552518356565002 0 0.1124692175830892 -0.36975960542364711 0 0.112721467094665 -0.37234387936600299 0 0.1109540218312476 -0.37066482687133029 0 0.10879199685857741 -0.37437886055054909 0 0.112721467094665 -0.37234387936600299 0 0.1109540218312476 -0.37066482687133029 0 0.1109540218312476 -0.37066482687133029 0 0.1124692175830892 -0.36975960542364711 0 0.1098848894615006 -0.3667804199578385 0 0.112721467094665 -0.37234387936600299 0 0.1124692175830892 -0.36975960542364711 0 0.112721467094665 -0.37234387936600299 0 0.1109540218312476 -0.37066482687133029 0 0.1124692175830892 -0.36975960542364711 0 0.1109540218312476 -0.37066482687133029 0 0.1124692175830892 -0.36975960542364711 0 0.12751598258885849 -0.37275489806000728 0 0.112721467094665 -0.37234387936600299 0 0.1124692175830892 -0.36975960542364711 0 0.11196350086204759 -0.36457858233159562 0 0.11082842352864861 -0.35596984084430261 0 0.10885856346752761 -0.36317617841100669 0 0.1124692175830892 -0.36975960542364711 0 0.11196350086204759 -0.36457858233159562 0 0.1124692175830892 -0.36975960542364711 0 0.11196350086204759 -0.36457858233159562 0 0.1098848894615006 -0.3667804199578385 0 0.11196350086204759 -0.36457858233159562 0 0.1098848894615006 -0.3667804199578385 0 0.10885856346752761 -0.36317617841100669 0 0.13675290106859381 -0.3552518356565002 0 0.11196350086204759 -0.36457858233159562 0 0.1200697072631093 -0.35053784775465641 0 0.11196350086204759 -0.36457858233159562 0 0.11082842352864861 -0.35596984084430261 0 0.1200697072631093 -0.35053784775465641 0 0.1105488475755126 -0.3430534930588508 0 0.11082842352864861 -0.35596984084430261 0 0.1200697072631093 -0.35053784775465641 0 0.1105488475755126 -0.3430534930588508 0 0.1047303436974153 -0.35151611454442261 0 0.099835625192429056 -0.3452102488395552 0 0.1105488475755126 -0.3430534930588508 0 0.11082842352864861 -0.35596984084430261 0 0.1047303436974153 -0.35151611454442261 0 0.099835625192429056 -0.3452102488395552 0 0.1001097826636534 -0.35252728919366583 0 0.09072831731159911 -0.35145064223255978 0 0.1047303436974153 -0.35151611454442261 0 0.099835625192429056 -0.3452102488395552 0 0.1001097826636534 -0.35252728919366583 0 0.1001097826636534 -0.35252728919366583 0 0.10514484445317029 -0.36193215115812538 0 0.09072831731159911 -0.35145064223255978 0 0.1047303436974153 -0.35151611454442261 0 0.1001097826636534 -0.35252728919366583 0 0.10514484445317029 -0.36193215115812538 0 0.11082842352864861 -0.35596984084430261 0 0.1047303436974153 -0.35151611454442261 0 0.10514484445317029 -0.36193215115812538 0 0.1109540218312476 -0.37066482687133029 0 0.09072831731159911 -0.35145064223255978 0 0.1109540218312476 -0.37066482687133029 0 0.10514484445317029 -0.36193215115812538 0 0.09072831731159911 -0.35145064223255978 0 0.1109540218312476 -0.37066482687133029 0 0.10014587352026399 -0.36479157967515519 0 0.09072831731159911 -0.35145064223255978 0 0.1109540218312476 -0.37066482687133029 0 0.1098848894615006 -0.3667804199578385 0 0.10514484445317029 -0.36193215115812538 0 0.11082842352864861 -0.35596984084430261 0 0.10885856346752761 -0.36317617841100669 0 0.10514484445317029 -0.36193215115812538 0 0.1098848894615006 -0.3667804199578385 0 0.10885856346752761 -0.36317617841100669 0 0.10514484445317029 -0.36193215115812538 0 0.095247110056738915 -0.36453230375379819 0 0.10014587352026399 -0.36479157967515519 0 0.09072831731159911 -0.35145064223255978 0 0.095247110056738915 -0.36453230375379819 0 0.10014587352026399 -0.36479157967515519 0 0.099865055451006102 -0.36795456978348251 0 0.10014587352026399 -0.36479157967515519 0 0.099865055451006102 -0.36795456978348251 0 0.1039348629507289 -0.36935555573460449 0 0.099865055451006102 -0.36795456978348251 0 0.09589770983431084 -0.37120652805628168 0 0.1009163080732559 -0.37196426704502411 0 0.095247110056738915 -0.36453230375379819 0 0.099865055451006102 -0.36795456978348251 0 0.09589770983431084 -0.37120652805628168 0 0.1001393812557064 -0.37693012658991332 0 0.09589770983431084 -0.37120652805628168 0 0.1009163080732559 -0.37196426704502411 0 0.1009163080732559 -0.37196426704502411 0 0.1047445308745272 -0.374374555060838 0 0.1039348629507289 -0.36935555573460449 0 0.1109540218312476 -0.37066482687133029 0 0.10014587352026399 -0.36479157967515519 0 0.1039348629507289 -0.36935555573460449 0 0.1001393812557064 -0.37693012658991332 0 0.1009163080732559 -0.37196426704502411 0 0.1047445308745272 -0.374374555060838 0 0.099865055451006102 -0.36795456978348251 0 0.1009163080732559 -0.37196426704502411 0 0.1039348629507289 -0.36935555573460449 0 0.1109540218312476 -0.37066482687133029 0 0.1047445308745272 -0.374374555060838 0 0.1109540218312476 -0.37066482687133029 0 0.1047445308745272 -0.374374555060838 0 0.1039348629507289 -0.36935555573460449 0 0.1109540218312476 -0.37066482687133029 0 0.1047445308745272 -0.374374555060838 0 0.10879199685857741 -0.37437886055054909 0 0.095247110056738915 -0.36453230375379819 0 0.08686023546009547 -0.36929177575019018 0 0.09072831731159911 -0.35145064223255978 0 0.08686023546009547 -0.36929177575019018 0 0.09072831731159911 -0.35145064223255978 0 0.08686023546009547 -0.36929177575019018 0 0.081935502762315898 -0.35831232748414571 0 0.09072831731159911 -0.35145064223255978 0 0.092324477608098504 -0.37974768846178608 0 0.09589770983431084 -0.37120652805628168 0 0.08686023546009547 -0.36929177575019018 0 0.095247110056738915 -0.36453230375379819 0 0.09589770983431084 -0.37120652805628168 0 0.08686023546009547 -0.36929177575019018 0 0.08686023546009547 -0.36929177575019018 0 0.081935502762315898 -0.35831232748414571 0 0.077736662447614083 -0.3736880441050226 0 0.081935502762315898 -0.35831232748414571 0 0.088337442652259568 -0.34917933904467718 0 0.076885191721637158 -0.35083362203140461 0 0.081935502762315898 -0.35831232748414571 0 0.088337442652259568 -0.34917933904467718 0 0.09072831731159911 -0.35145064223255978 0 0.088337442652259568 -0.34917933904467718 0 0.09072831731159911 -0.35145064223255978 0 0.088337442652259568 -0.34917933904467718 0 0.076885191721637158 -0.35083362203140461 0 0.077781346001603108 -0.33964525312194532 0 0.076885191721637158 -0.35083362203140461 0 0.067565489335660589 -0.3473574001249865 0 0.077781346001603108 -0.33964525312194532 0 0.067565489335660589 -0.3473574001249865 0 0.06880617785634667 -0.3596737903812684 0 0.056004342525166957 -0.35145473650200321 0 0.076885191721637158 -0.35083362203140461 0 0.067565489335660589 -0.3473574001249865 0 0.06880617785634667 -0.3596737903812684 0 0.081935502762315898 -0.35831232748414571 0 0.076885191721637158 -0.35083362203140461 0 0.06880617785634667 -0.3596737903812684 0 0.06880617785634667 -0.3596737903812684 0 0.067830570364931494 -0.3719444483839941 0 0.052260529336356408 -0.36787313226641682 0 0.081935502762315898 -0.35831232748414571 0 0.06880617785634667 -0.3596737903812684 0 0.077736662447614083 -0.3736880441050226 0 0.06880617785634667 -0.3596737903812684 0 0.067830570364931494 -0.3719444483839941 0 0.077736662447614083 -0.3736880441050226 0 0.085151576002749141 -0.31224921001815698 0 0.095650159135225996 -0.3287491481848559 0 0.078244137329099239 -0.32559691585653561 0 0.095650159135225996 -0.3287491481848559 0 0.088337442652259568 -0.34917933904467718 0 0.09072831731159911 -0.35145064223255978 0 0.095650159135225996 -0.3287491481848559 0 0.078244137329099239 -0.32559691585653561 0 0.077781346001603108 -0.33964525312194532 0 0.095650159135225996 -0.3287491481848559 0 0.09072831731159911 -0.35145064223255978 0 0.095650159135225996 -0.3287491481848559 0 0.088337442652259568 -0.34917933904467718 0 0.077781346001603108 -0.33964525312194532 0 0.078244137329099239 -0.32559691585653561 0 0.077781346001603108 -0.33964525312194532 0 0.061333632778132613 -0.33463803133048547 0 0.077781346001603108 -0.33964525312194532 0 0.064620458650362603 -0.34008043002506833 0 0.061333632778132613 -0.33463803133048547 0 0.077781346001603108 -0.33964525312194532 0 0.061333632778132613 -0.33463803133048547 0 0.067565489335660589 -0.3473574001249865 0 0.077781346001603108 -0.33964525312194532 0 0.064620458650362603 -0.34008043002506833 0 0.067565489335660589 -0.3473574001249865 0 0.064620458650362603 -0.34008043002506833 0 0.05936550726105598 -0.34362610865024412 0 0.070017269913130703 -0.31008448998825838 0 0.061333632778132613 -0.33463803133048547 0 0.070017269913130703 -0.31008448998825838 0 0.078244137329099239 -0.32559691585653561 0 0.061333632778132613 -0.33463803133048547 0 0.085151576002749141 -0.31224921001815698 0 0.070017269913130703 -0.31008448998825838 0 0.078244137329099239 -0.32559691585653561 0 0.055483720378909751 -0.31827277846887281 0 0.042459010857195563 -0.32889197916480672 0 0.045947798362827127 -0.31147361821639319 0 0.055483720378909751 -0.31827277846887281 0 0.061333632778132613 -0.33463803133048547 0 0.042459010857195563 -0.32889197916480672 0 0.070017269913130703 -0.31008448998825838 0 0.055483720378909751 -0.31827277846887281 0 0.061333632778132613 -0.33463803133048547 0 0.061333632778132613 -0.33463803133048547 0 0.0549104151153023 -0.33767262598263509 0 0.042459010857195563 -0.32889197916480672 0 0.061333632778132613 -0.33463803133048547 0 0.042459010857195563 -0.32889197916480672 0 0.064620458650362603 -0.34008043002506833 0 0.05936550726105598 -0.34362610865024412 0 0.060661351847276813 -0.33967800176680801 0 0.064620458650362603 -0.34008043002506833 0 0.061333632778132613 -0.33463803133048547 0 0.060661351847276813 -0.33967800176680801 0 0.061333632778132613 -0.33463803133048547 0 0.05948020610478956 -0.33688161105896719 0 0.060661351847276813 -0.33967800176680801 0 0.061333632778132613 -0.33463803133048547 0 0.05948020610478956 -0.33688161105896719 0 0.0549104151153023 -0.33767262598263509 0 0.05948020610478956 -0.33688161105896719 0 0.060661351847276813 -0.33967800176680801 0 0.0549104151153023 -0.33767262598263509 0 0.05936550726105598 -0.34362610865024412 0 0.060661351847276813 -0.33967800176680801 0 0.0549104151153023 -0.33767262598263509 0 0.0549104151153023 -0.33767262598263509 0 0.047349060729512588 -0.34181134475651259 0 0.042459010857195563 -0.32889197916480672 0 0.05936550726105598 -0.34362610865024412 0 0.0549104151153023 -0.33767262598263509 0 0.047349060729512588 -0.34181134475651259 0 0.047349060729512588 -0.34181134475651259 0 0.031543427845521659 -0.33715773910061292 0 0.039502466754787288 -0.35116955120209248 0 0.042459010857195563 -0.32889197916480672 0 0.031543427845521659 -0.33715773910061292 0 0.02358438893625708 -0.32314592699913269 0 0.047349060729512588 -0.34181134475651259 0 0.042459010857195563 -0.32889197916480672 0 0.031543427845521659 -0.33715773910061292 0 0.031543427845521659 -0.33715773910061292 0 0.039502466754787288 -0.35116955120209248 0 0.027969284363644039 -0.33606965294023661 0 0.039502466754787288 -0.35116955120209248 0 0.027969284363644039 -0.33606965294023661 0 0.042459010857195563 -0.32889197916480672 0 0.02358438893625708 -0.32314592699913269 0 0.042459010857195563 -0.32889197916480672 0 0.035582045419147397 -0.31708257223065961 0 0.02358438893625708 -0.32314592699913269 0 0.042459010857195563 -0.32889197916480672 0 0.035582045419147397 -0.31708257223065961 0 0.045947798362827127 -0.31147361821639319 0 0.065018591917926249 -0.38457671333074039 0 0.067830570364931494 -0.3719444483839941 0 0.052260529336356408 -0.36787313226641682 0 0.06880617785634667 -0.3596737903812684 0 0.052260529336356408 -0.36787313226641682 0 0.056004342525166957 -0.35145473650200321 0 0.056098993453862968 -0.38038757818948349 0 0.052260529336356408 -0.36787313226641682 0 0.047800730104325249 -0.36577856469578801 0 0.056098993453862968 -0.38038757818948349 0 0.047800730104325249 -0.36577856469578801 0 0.047349060729512588 -0.34181134475651259 0 0.056004342525166957 -0.35145473650200321 0 0.039502466754787288 -0.35116955120209248 0 0.052260529336356408 -0.36787313226641682 0 0.056004342525166957 -0.35145473650200321 0 0.039502466754787288 -0.35116955120209248 0 0.067565489335660589 -0.3473574001249865 0 0.05936550726105598 -0.34362610865024412 0 0.056004342525166957 -0.35145473650200321 0 0.05936550726105598 -0.34362610865024412 0 0.047349060729512588 -0.34181134475651259 0 0.056004342525166957 -0.35145473650200321 0 0.039502466754787288 -0.35116955120209248 0 0.030811010024170901 -0.36851094714340688 0 0.02354368559549163 -0.34944720955821951 0 0.031543427845521659 -0.33715773910061292 0 0.039502466754787288 -0.35116955120209248 0 0.047800730104325249 -0.36577856469578801 0 0.039502466754787288 -0.35116955120209248 0 0.052260529336356408 -0.36787313226641682 0 0.047800730104325249 -0.36577856469578801 0 0.039502466754787288 -0.35116955120209248 0 0.056098993453862968 -0.38038757818948349 0 0.047800730104325249 -0.36577856469578801 0 0.030811010024170901 -0.36851094714340688 0 0.047800730104325249 -0.36577856469578801 0 0.039502466754787288 -0.35116955120209248 0 0.030811010024170901 -0.36851094714340688 0 0.052260529336356408 -0.36787313226641682 0 0.039502466754787288 -0.35116955120209248 0 0.056098993453862968 -0.38038757818948349 0 0.030811010024170901 -0.36851094714340688 0 0.030811010024170901 -0.36851094714340688 0 0.0055230265944788276 -0.35663431609733032 0 0.030811010024170901 -0.36851094714340688 0 0.02354368559549163 -0.34944720955821951 0 0.0055230265944788276 -0.35663431609733032 0 0.039502466754787288 -0.35116955120209248 0 0.02354368559549163 -0.34944720955821951 0 0.027969284363644039 -0.33606965294023661 0 0.02354368559549163 -0.34944720955821951 0 0.0055230265944788276 -0.35663431609733032 0 0.01444439937210177 -0.33831562515446112 0 0.0094178782718157012 -0.37623746945321768 0 0.030811010024170901 -0.36851094714340688 0 0.0055230265944788276 -0.35663431609733032 0 -0.0073527707683874628 -0.36700998164504728 0 0.0094178782718157012 -0.37623746945321768 0 0.0055230265944788276 -0.35663431609733032 0 0.02358438893625708 -0.32314592699913269 0 0.012333226864937921 -0.30333836346491561 0 0.02358438893625708 -0.32314592699913269 0 0.01206532725406027 -0.31524728785737249 0 0.012333226864937921 -0.30333836346491561 0 0.016436101972501099 -0.32096975467838051 0 0.02358438893625708 -0.32314592699913269 0 0.027969284363644039 -0.33606965294023661 0 0.016436101972501099 -0.32096975467838051 0 0.02358438893625708 -0.32314592699913269 0 0.016436101972501099 -0.32096975467838051 0 0.02358438893625708 -0.32314592699913269 0 0.01206532725406027 -0.31524728785737249 0 0.035582045419147397 -0.31708257223065961 0 0.02358438893625708 -0.32314592699913269 0 0.02727622230281845 -0.30794963465423819 0 0.031543427845521659 -0.33715773910061292 0 0.02358438893625708 -0.32314592699913269 0 0.031543427845521659 -0.33715773910061292 0 0.02358438893625708 -0.32314592699913269 0 0.027969284363644039 -0.33606965294023661 0 0.016436101972501099 -0.32096975467838051 0 0.027969284363644039 -0.33606965294023661 0 0.01444439937210177 -0.33831562515446112 0 0.02354368559549163 -0.34944720955821951 0 0.027969284363644039 -0.33606965294023661 0 0.01444439937210177 -0.33831562515446112 0 0.016436101972501099 -0.32096975467838051 0 0.027969284363644039 -0.33606965294023661 0 -0.00018658340215797691 -0.33538528199099882 0 0.016436101972501099 -0.32096975467838051 0 0.01444439937210177 -0.33831562515446112 0 -0.00018658340215797691 -0.33538528199099882 0 0.0055230265944788276 -0.35663431609733032 0 0.01444439937210177 -0.33831562515446112 0 -0.0059567954907406356 -0.31415262438017377 0 0.016436101972501099 -0.32096975467838051 0 -0.0059567954907406356 -0.31415262438017377 0 -0.00018658340215797691 -0.33538528199099882 0 0.016436101972501099 -0.32096975467838051 0 -0.0059567954907406356 -0.31415262438017377 0 0.016436101972501099 -0.32096975467838051 0 0.01206532725406027 -0.31524728785737249 0 0.016436101972501099 -0.32096975467838051 0 0.01206532725406027 -0.31524728785737249 0 -0.0059567954907406356 -0.31415262438017377 0 0.01206532725406027 -0.31524728785737249 0 0.0041958668063563371 -0.307640622600581 0 -0.001658291402832203 -0.29782421469986192 0 0.0041958668063563371 -0.307640622600581 0 0.012333226864937921 -0.30333836346491561 0 0.01206532725406027 -0.31524728785737249 0 0.0041958668063563371 -0.307640622600581 0 0.012333226864937921 -0.30333836346491561 0 -0.001658291402832203 -0.29782421469986192 0 -0.0018933533600431129 -0.28046667749116883 0 0.0094319431288546855 -0.28913050344487629 0 -0.001658291402832203 -0.29782421469986192 0 0.012333226864937921 -0.30333836346491561 0 0.0094319431288546855 -0.28913050344487629 0 0.012333226864937921 -0.30333836346491561 0 0.0094319431288546855 -0.28913050344487629 0 0.024455993964840651 -0.29461435965771199 0 0.020813872692820579 -0.28170826773689189 0 0.024455993964840651 -0.29461435965771199 0 0.036815911879402703 -0.28410303829377709 0 0.0094319431288546855 -0.28913050344487629 0 0.020813872692820579 -0.28170826773689189 0 0.024455993964840651 -0.29461435965771199 0 0.02358438893625708 -0.32314592699913269 0 0.012333226864937921 -0.30333836346491561 0 0.02727622230281845 -0.30794963465423819 0 0.024455993964840651 -0.29461435965771199 0 0.02727622230281845 -0.30794963465423819 0 0.040275318537992738 -0.30111351400119452 0 0.012333226864937921 -0.30333836346491561 0 0.024455993964840651 -0.29461435965771199 0 0.02727622230281845 -0.30794963465423819 0 0.035582045419147397 -0.31708257223065961 0 0.045947798362827127 -0.31147361821639319 0 0.040275318537992738 -0.30111351400119452 0 0.035582045419147397 -0.31708257223065961 0 0.02727622230281845 -0.30794963465423819 0 0.040275318537992738 -0.30111351400119452 0 0.045947798362827127 -0.31147361821639319 0 0.040275318537992738 -0.30111351400119452 0 0.053863867101077392 -0.30563592846866339 0 0.040275318537992738 -0.30111351400119452 0 0.036815911879402703 -0.28410303829377709 0 0.057595228312526628 -0.28723524166859832 0 0.024455993964840651 -0.29461435965771199 0 0.040275318537992738 -0.30111351400119452 0 0.036815911879402703 -0.28410303829377709 0 0.070017269913130703 -0.31008448998825838 0 0.055483720378909751 -0.31827277846887281 0 0.053863867101077392 -0.30563592846866339 0 0.040275318537992738 -0.30111351400119452 0 0.057595228312526628 -0.28723524166859832 0 0.053863867101077392 -0.30563592846866339 0 0.070017269913130703 -0.31008448998825838 0 0.057595228312526628 -0.28723524166859832 0 0.053863867101077392 -0.30563592846866339 0 0.055483720378909751 -0.31827277846887281 0 0.045947798362827127 -0.31147361821639319 0 0.053863867101077392 -0.30563592846866339 0 0.06791686840857486 -0.26511321518141978 0 0.048753476404752381 -0.26550225796168692 0 0.058239966685712588 -0.2449186303793702 0 0.048753476404752381 -0.26550225796168692 0 0.037955064236187899 -0.25118774778527803 0 0.058239966685712588 -0.2449186303793702 0 0.06791686840857486 -0.26511321518141978 0 0.057595228312526628 -0.28723524166859832 0 0.048753476404752381 -0.26550225796168692 0 0.036815911879402703 -0.28410303829377709 0 0.057595228312526628 -0.28723524166859832 0 0.048753476404752381 -0.26550225796168692 0 0.036815911879402703 -0.28410303829377709 0 0.048753476404752381 -0.26550225796168692 0 0.032591061234039001 -0.26859936609716267 0 0.032591061234039001 -0.26859936609716267 0 0.037955064236187899 -0.25118774778527803 0 0.026269242157815152 -0.25951961293376941 0 0.048753476404752381 -0.26550225796168692 0 0.032591061234039001 -0.26859936609716267 0 0.037955064236187899 -0.25118774778527803 0 0.037955064236187899 -0.25118774778527803 0 0.026269242157815152 -0.25951961293376941 0 0.023051903495568269 -0.24790950880486909 0 0.026269242157815152 -0.25951961293376941 0 0.016448128385143521 -0.26000092398717117 0 0.021300053438137088 -0.26990051799436582 0 0.026269242157815152 -0.25951961293376941 0 0.016448128385143521 -0.26000092398717117 0 0.023051903495568269 -0.24790950880486909 0 0.016448128385143521 -0.26000092398717117 0 0.0085209550452993704 -0.2491140407910134 0 0.023051903495568269 -0.24790950880486909 0 0.020813872692820579 -0.28170826773689189 0 0.036815911879402703 -0.28410303829377709 0 0.032591061234039001 -0.26859936609716267 0 0.020813872692820579 -0.28170826773689189 0 0.032591061234039001 -0.26859936609716267 0 0.021300053438137088 -0.26990051799436582 0 0.032591061234039001 -0.26859936609716267 0 0.026269242157815152 -0.25951961293376941 0 0.021300053438137088 -0.26990051799436582 0 0.016448128385143521 -0.26000092398717117 0 0.021300053438137088 -0.26990051799436582 0 0.0099749681491097652 -0.27262588672955362 0 0.020813872692820579 -0.28170826773689189 0 0.021300053438137088 -0.26990051799436582 0 0.0099749681491097652 -0.27262588672955362 0 -0.0018933533600431129 -0.28046667749116883 0 0.0094319431288546855 -0.28913050344487629 0 0.0099749681491097652 -0.27262588672955362 0 0.0094319431288546855 -0.28913050344487629 0 0.020813872692820579 -0.28170826773689189 0 0.0099749681491097652 -0.27262588672955362 0 0.0099749681491097652 -0.27262588672955362 0 0.00043718057657325931 -0.27070861411802111 0 0.0072873538856892076 -0.26327591049339011 0 -0.0018933533600431129 -0.28046667749116883 0 0.0099749681491097652 -0.27262588672955362 0 0.00043718057657325931 -0.27070861411802111 0 0.016448128385143521 -0.26000092398717117 0 0.0072873538856892076 -0.26327591049339011 0 0.0085209550452993704 -0.2491140407910134 0 0.016448128385143521 -0.26000092398717117 0 0.0099749681491097652 -0.27262588672955362 0 0.0072873538856892076 -0.26327591049339011 0 -0.0023769070460768161 -0.25944029114748868 0 0.00043718057657325931 -0.27070861411802111 0 0.0072873538856892076 -0.26327591049339011 0 -0.0023769070460768161 -0.25944029114748868 0 -0.0050609087585187914 -0.24448965595804831 0 0.0085209550452993704 -0.2491140407910134 0 -0.0023769070460768161 -0.25944029114748868 0 0.0072873538856892076 -0.26327591049339011 0 0.0085209550452993704 -0.2491140407910134 0 -0.0050609087585187914 -0.24448965595804831 0 0.0085209550452993704 -0.2491140407910134 0 0.0043532972358198471 -0.23289883483909901 0 0.0085209550452993704 -0.2491140407910134 0 0.0043532972358198471 -0.23289883483909901 0 0.016013125080552911 -0.2347787977544811 0 -0.00046921512868739422 -0.22569995350716959 0 0.0043532972358198471 -0.23289883483909901 0 0.0091405715748848274 -0.2260720658487689 0 -0.00046921512868739422 -0.22569995350716959 0 0.0091405715748848274 -0.2260720658487689 0 0.0052132563045326416 -0.217943300132031 0 0.0091405715748848274 -0.2260720658487689 0 0.017230403323221059 -0.22254969322337581 0 0.0052132563045326416 -0.217943300132031 0 0.0091405715748848274 -0.2260720658487689 0 0.017230403323221059 -0.22254969322337581 0 0.016013125080552911 -0.2347787977544811 0 0.0043532972358198471 -0.23289883483909901 0 0.0091405715748848274 -0.2260720658487689 0 0.016013125080552911 -0.2347787977544811 0 0.017230403323221059 -0.22254969322337581 0 0.016013125080552911 -0.2347787977544811 0 0.032012317779818562 -0.2334114825923084 0 0.017230403323221059 -0.22254969322337581 0 0.029429419905672001 -0.21844912323838059 0 0.032012317779818562 -0.2334114825923084 0 0.023051903495568269 -0.24790950880486909 0 0.016013125080552911 -0.2347787977544811 0 0.032012317779818562 -0.2334114825923084 0 0.037955064236187899 -0.25118774778527803 0 0.023051903495568269 -0.24790950880486909 0 0.032012317779818562 -0.2334114825923084 0 0.0085209550452993704 -0.2491140407910134 0 0.023051903495568269 -0.24790950880486909 0 0.016013125080552911 -0.2347787977544811 0 -0.00051630681429407424 -0.19859453141270639 0 0.016357364450400352 -0.19205522290353819 0 0.0028164378603697019 -0.18575172484963451 0 -0.00051630681429407424 -0.19859453141270639 0 0.014403133177008301 -0.21080932795299359 0 0.016357364450400352 -0.19205522290353819 0 -0.0051387385167336562 -0.21108637924508611 0 -0.00051630681429407424 -0.19859453141270639 0 0.0072164994348546396 -0.21245754233064759 0 -0.00051630681429407424 -0.19859453141270639 0 0.014403133177008301 -0.21080932795299359 0 -0.00051630681429407424 -0.19859453141270639 0 0.014403133177008301 -0.21080932795299359 0 0.0072164994348546396 -0.21245754233064759 0 -0.0051387385167336562 -0.21108637924508611 0 0.0072164994348546396 -0.21245754233064759 0 0.0052132563045326416 -0.217943300132031 0 0.017230403323221059 -0.22254969322337581 0 0.0072164994348546396 -0.21245754233064759 0 0.0052132563045326416 -0.217943300132031 0 0.014403133177008301 -0.21080932795299359 0 0.0072164994348546396 -0.21245754233064759 0 0.029429419905672001 -0.21844912323838059 0 0.017230403323221059 -0.22254969322337581 0 0.0072164994348546396 -0.21245754233064759 0 0.029429419905672001 -0.21844912323838059 0 0.0072164994348546396 -0.21245754233064759 0 0.029429419905672001 -0.21844912323838059 0 0.014403133177008301 -0.21080932795299359 0 0.029429419905672001 -0.21844912323838059 0 0.02838487568919652 -0.20422502515148991 0 0.014403133177008301 -0.21080932795299359 0 0.02838487568919652 -0.20422502515148991 0 0.016357364450400352 -0.19205522290353819 0 0.02838487568919652 -0.20422502515148991 0 0.016357364450400352 -0.19205522290353819 0 0.036582621869690669 -0.1917410130999713 0 0.02838487568919652 -0.20422502515148991 0 0.036582621869690669 -0.1917410130999713 0 0.04515183904321126 -0.20807043856256599 0 0.029429419905672001 -0.21844912323838059 0 0.02838487568919652 -0.20422502515148991 0 0.04515183904321126 -0.20807043856256599 0 0.029429419905672001 -0.21844912323838059 0 0.04515183904321126 -0.20807043856256599 0 0.051642340376489369 -0.22444070414611339 0 0.04515183904321126 -0.20807043856256599 0 0.064127492937710681 -0.21421472538186431 0 0.065252116273661759 -0.1935999375650069 0 0.04515183904321126 -0.20807043856256599 0 0.051642340376489369 -0.22444070414611339 0 0.064127492937710681 -0.21421472538186431 0 0.036582621869690669 -0.1917410130999713 0 0.04515183904321126 -0.20807043856256599 0 0.065252116273661759 -0.1935999375650069 0 0.037955064236187899 -0.25118774778527803 0 0.044962422269552098 -0.23848964122576749 0 0.032012317779818562 -0.2334114825923084 0 0.029429419905672001 -0.21844912323838059 0 0.032012317779818562 -0.2334114825923084 0 0.051642340376489369 -0.22444070414611339 0 0.044962422269552098 -0.23848964122576749 0 0.032012317779818562 -0.2334114825923084 0 0.051642340376489369 -0.22444070414611339 0 0.029429419905672001 -0.21844912323838059 0 0.051642340376489369 -0.22444070414611339 0 0.051642340376489369 -0.22444070414611339 0 0.058239966685712588 -0.2449186303793702 0 0.073855260847306731 -0.2304322850538463 0 0.037955064236187899 -0.25118774778527803 0 0.044962422269552098 -0.23848964122576749 0 0.058239966685712588 -0.2449186303793702 0 0.044962422269552098 -0.23848964122576749 0 0.051642340376489369 -0.22444070414611339 0 0.058239966685712588 -0.2449186303793702 0 0.058239966685712588 -0.2449186303793702 0 0.076827087817202433 -0.2465148051290279 0 0.073855260847306731 -0.2304322850538463 0 0.076827087817202433 -0.2465148051290279 0 0.073855260847306731 -0.2304322850538463 0 0.096068181318124585 -0.2364238659615773 0 0.08738454418312655 -0.26097740730380431 0 0.096068181318124585 -0.2364238659615773 0 0.08738454418312655 -0.26097740730380431 0 0.076827087817202433 -0.2465148051290279 0 0.096068181318124585 -0.2364238659615773 0 0.092844814468846473 -0.22488418705838831 0 0.073855260847306731 -0.2304322850538463 0 0.085735826328305925 -0.21456173493339969 0 0.092844814468846473 -0.22488418705838831 0 0.073855260847306731 -0.2304322850538463 0 0.096068181318124585 -0.2364238659615773 0 0.073855260847306731 -0.2304322850538463 0 0.096068181318124585 -0.2364238659615773 0 0.051642340376489369 -0.22444070414611339 0 0.073855260847306731 -0.2304322850538463 0 0.064127492937710681 -0.21421472538186431 0 0.051642340376489369 -0.22444070414611339 0 0.073855260847306731 -0.2304322850538463 0 0.073855260847306731 -0.2304322850538463 0 0.064127492937710681 -0.21421472538186431 0 0.085735826328305925 -0.21456173493339969 0 0.064127492937710681 -0.21421472538186431 0 0.065252116273661759 -0.1935999375650069 0 0.085735826328305925 -0.21456173493339969 0 0.065252116273661759 -0.1935999375650069 0 0.085735826328305925 -0.21456173493339969 0 0.065252116273661759 -0.1935999375650069 0 0.085735826328305925 -0.21456173493339969 0 0.0943254936002446 -0.19659396527531331 0 0.065252116273661759 -0.1935999375650069 0 0.0943254936002446 -0.19659396527531331 0 0.086694012142380789 -0.18123868286261791 0 0.085735826328305925 -0.21456173493339969 0 0.1011380005573841 -0.21225814791517719 0 0.0943254936002446 -0.19659396527531331 0 0.092844814468846473 -0.22488418705838831 0 0.085735826328305925 -0.21456173493339969 0 0.1011380005573841 -0.21225814791517719 0 0.1011380005573841 -0.21225814791517719 0 0.10608831923890891 -0.20265911853720431 0 0.11700302096417151 -0.2088944707406378 0 0.1011380005573841 -0.21225814791517719 0 0.0943254936002446 -0.19659396527531331 0 0.10608831923890891 -0.20265911853720431 0 0.1011380005573841 -0.21225814791517719 0 0.11192616342336929 -0.2198594753164258 0 0.1025906440692519 -0.22376549647794511 0 0.0943254936002446 -0.19659396527531331 0 0.1118867618338352 -0.1928898902176889 0 0.1031683885755252 -0.17797428555611899 0 0.0943254936002446 -0.19659396527531331 0 0.10608831923890891 -0.20265911853720431 0 0.1118867618338352 -0.1928898902176889 0 0.1118867618338352 -0.1928898902176889 0 0.11700302096417151 -0.2088944707406378 0 0.13324399690201749 -0.1968848679071625 0 0.1118867618338352 -0.1928898902176889 0 0.11866445213751201 -0.1761215583406342 0 0.13324399690201749 -0.1968848679071625 0 0.10608831923890891 -0.20265911853720431 0 0.1118867618338352 -0.1928898902176889 0 0.11700302096417151 -0.2088944707406378 0 0.1011380005573841 -0.21225814791517719 0 0.11700302096417151 -0.2088944707406378 0 0.11192616342336929 -0.2198594753164258 0 0.11700302096417151 -0.2088944707406378 0 0.12198520600478829 -0.22024484094270749 0 0.11192616342336929 -0.2198594753164258 0 0.11700302096417151 -0.2088944707406378 0 0.12198520600478829 -0.22024484094270749 0 0.1323274781045381 -0.21950090468917591 0 0.12198520600478829 -0.22024484094270749 0 0.1160157298579563 -0.22511939314727361 0 0.11860561704638389 -0.23211821667625801 0 0.12198520600478829 -0.22024484094270749 0 0.11860561704638389 -0.23211821667625801 0 0.12944578641563309 -0.24542694242380381 0 0.12198520600478829 -0.22024484094270749 0 0.11192616342336929 -0.2198594753164258 0 0.1160157298579563 -0.22511939314727361 0 0.11192616342336929 -0.2198594753164258 0 0.1160157298579563 -0.22511939314727361 0 0.1115459329572836 -0.22825503965370289 0 0.1115459329572836 -0.22825503965370289 0 0.1127569838668786 -0.24092540419269151 0 0.1041285431808489 -0.2322466796588602 0 0.1115459329572836 -0.22825503965370289 0 0.11860561704638389 -0.23211821667625801 0 0.1127569838668786 -0.24092540419269151 0 0.1160157298579563 -0.22511939314727361 0 0.1115459329572836 -0.22825503965370289 0 0.11860561704638389 -0.23211821667625801 0 0.11860561704638389 -0.23211821667625801 0 0.1127569838668786 -0.24092540419269151 0 0.12944578641563309 -0.24542694242380381 0 0.1201509403983588 -0.25476415833570842 0 0.1127569838668786 -0.24092540419269151 0 0.12944578641563309 -0.24542694242380381 0 0.1127569838668786 -0.24092540419269151 0 0.12944578641563309 -0.24542694242380381 0 0.1127569838668786 -0.24092540419269151 0 0.096068181318124585 -0.2364238659615773 0 0.1041285431808489 -0.2322466796588602 0 0.1127569838668786 -0.24092540419269151 0 0.096068181318124585 -0.2364238659615773 0 0.1057365399118136 -0.25470783319042251 0 0.1127569838668786 -0.24092540419269151 0 0.096068181318124585 -0.2364238659615773 0 0.092844814468846473 -0.22488418705838831 0 0.096068181318124585 -0.2364238659615773 0 0.097680973692705717 -0.23186359200838441 0 0.096068181318124585 -0.2364238659615773 0 0.097680973692705717 -0.23186359200838441 0 0.096068181318124585 -0.2364238659615773 0 0.097680973692705717 -0.23186359200838441 0 0.1041285431808489 -0.2322466796588602 0 0.092844814468846473 -0.22488418705838831 0 0.097680973692705717 -0.23186359200838441 0 0.1025906440692519 -0.22376549647794511 0 0.097680973692705717 -0.23186359200838441 0 0.1025906440692519 -0.22376549647794511 0 0.1041285431808489 -0.2322466796588602 0 0.092844814468846473 -0.22488418705838831 0 0.1011380005573841 -0.21225814791517719 0 0.1025906440692519 -0.22376549647794511 0 0.11192616342336929 -0.2198594753164258 0 0.1115459329572836 -0.22825503965370289 0 0.1025906440692519 -0.22376549647794511 0 0.1115459329572836 -0.22825503965370289 0 0.1025906440692519 -0.22376549647794511 0 0.1041285431808489 -0.2322466796588602 0 0.099829395505855345 -0.13121997112818451 0 0.1107438507569779 -0.14958101692169351 0 0.088002301770600422 -0.150122231731183 0 0.1107438507569779 -0.14958101692169351 0 0.095954718573422193 -0.1641587369515527 0 0.088002301770600422 -0.150122231731183 0 0.099829395505855345 -0.13121997112818451 0 0.1194960029087308 -0.12911457695895751 0 0.1107438507569779 -0.14958101692169351 0 0.1194960029087308 -0.12911457695895751 0 0.1107438507569779 -0.14958101692169351 0 0.13519100098590339 -0.14884055490780301 0 0.1107438507569779 -0.14958101692169351 0 0.1216498976553972 -0.16278532909297319 0 0.13519100098590339 -0.14884055490780301 0 0.1107438507569779 -0.14958101692169351 0 0.1216498976553972 -0.16278532909297319 0 0.109880092156146 -0.16583575645744919 0 0.1216498976553972 -0.16278532909297319 0 0.11866445213751201 -0.1761215583406342 0 0.13416051569949869 -0.17426883112514921 0 0.1216498976553972 -0.16278532909297319 0 0.109880092156146 -0.16583575645744919 0 0.11866445213751201 -0.1761215583406342 0 0.1118867618338352 -0.1928898902176889 0 0.11866445213751201 -0.1761215583406342 0 0.1031683885755252 -0.17797428555611899 0 0.11866445213751201 -0.1761215583406342 0 0.1031683885755252 -0.17797428555611899 0 0.109880092156146 -0.16583575645744919 0 0.11866445213751201 -0.1761215583406342 0 0.1031683885755252 -0.17797428555611899 0 0.1031683885755252 -0.17797428555611899 0 0.095954718573422193 -0.1641587369515527 0 0.086694012142380789 -0.18123868286261791 0 0.0943254936002446 -0.19659396527531331 0 0.1031683885755252 -0.17797428555611899 0 0.086694012142380789 -0.18123868286261791 0 0.1107438507569779 -0.14958101692169351 0 0.109880092156146 -0.16583575645744919 0 0.095954718573422193 -0.1641587369515527 0 0.109880092156146 -0.16583575645744919 0 0.1031683885755252 -0.17797428555611899 0 0.095954718573422193 -0.1641587369515527 0 0.095954718573422193 -0.1641587369515527 0 0.076874624570068675 -0.1679869158900662 0 0.088002301770600422 -0.150122231731183 0 0.095954718573422193 -0.1641587369515527 0 0.086694012142380789 -0.18123868286261791 0 0.076874624570068675 -0.1679869158900662 0 0.065252116273661759 -0.1935999375650069 0 0.086694012142380789 -0.18123868286261791 0 0.076874624570068675 -0.1679869158900662 0 0.076874624570068675 -0.1679869158900662 0 0.064932441880032984 -0.15147763334507591 0 0.088002301770600422 -0.150122231731183 0 0.064932441880032984 -0.15147763334507591 0 0.088002301770600422 -0.150122231731183 0 0.079678779337245459 -0.13630911615052571 0 0.064932441880032984 -0.15147763334507591 0 0.079678779337245459 -0.13630911615052571 0 0.063541117044716836 -0.1363943602463244 0 0.099829395505855345 -0.13121997112818451 0 0.079678779337245459 -0.13630911615052571 0 0.086359778491213873 -0.1186116559357633 0 0.099829395505855345 -0.13121997112818451 0 0.088002301770600422 -0.150122231731183 0 0.079678779337245459 -0.13630911615052571 0 0.079678779337245459 -0.13630911615052571 0 0.086359778491213873 -0.1186116559357633 0 0.066105729429237411 -0.122347312065754 0 0.079678779337245459 -0.13630911615052571 0 0.063541117044716836 -0.1363943602463244 0 0.066105729429237411 -0.122347312065754 0 0.063541117044716836 -0.1363943602463244 0 0.050885683669062647 -0.12784531727048301 0 0.066105729429237411 -0.122347312065754 0 0.063541117044716836 -0.1363943602463244 0 0.050885683669062647 -0.12784531727048301 0 0.052121044778882568 -0.1429823469318304 0 0.064932441880032984 -0.15147763334507591 0 0.063541117044716836 -0.1363943602463244 0 0.052121044778882568 -0.1429823469318304 0 0.064932441880032984 -0.15147763334507591 0 0.052121044778882568 -0.1429823469318304 0 0.043404626828727047 -0.15392982238796421 0 0.043404626828727047 -0.15392982238796421 0 0.037025421602263971 -0.1388780798875737 0 0.024284696164373318 -0.15167634282822121 0 0.052121044778882568 -0.1429823469318304 0 0.043404626828727047 -0.15392982238796421 0 0.037025421602263971 -0.1388780798875737 0 0.050885683669062647 -0.12784531727048301 0 0.037025421602263971 -0.1388780798875737 0 0.03342922526907547 -0.1174165576600532 0 0.050885683669062647 -0.12784531727048301 0 0.052121044778882568 -0.1429823469318304 0 0.037025421602263971 -0.1388780798875737 0 0.076874624570068675 -0.1679869158900662 0 0.064932441880032984 -0.15147763334507591 0 0.044768406219017551 -0.17263814019661411 0 0.065252116273661759 -0.1935999375650069 0 0.076874624570068675 -0.1679869158900662 0 0.044768406219017551 -0.17263814019661411 0 0.036582621869690669 -0.1917410130999713 0 0.065252116273661759 -0.1935999375650069 0 0.044768406219017551 -0.17263814019661411 0 0.065252116273661759 -0.1935999375650069 0 0.044768406219017551 -0.17263814019661411 0 0.064932441880032984 -0.15147763334507591 0 0.043404626828727047 -0.15392982238796421 0 0.044768406219017551 -0.17263814019661411 0 0.043404626828727047 -0.15392982238796421 0 0.044768406219017551 -0.17263814019661411 0 0.024284696164373318 -0.15167634282822121 0 0.044768406219017551 -0.17263814019661411 0 0.024284696164373318 -0.15167634282822121 0 0.036582621869690669 -0.1917410130999713 0 0.044768406219017551 -0.17263814019661411 0 0.02355360116565728 -0.1758569133039101 0 0.016357364450400352 -0.19205522290353819 0 0.02355360116565728 -0.1758569133039101 0 0.01138521736531556 -0.1755803857176258 0 0.016357364450400352 -0.19205522290353819 0 0.036582621869690669 -0.1917410130999713 0 0.02355360116565728 -0.1758569133039101 0 0.02355360116565728 -0.1758569133039101 0 0.01424980654890767 -0.16543015493956861 0 0.01138521736531556 -0.1755803857176258 0 0.02355360116565728 -0.1758569133039101 0 0.01424980654890767 -0.16543015493956861 0 0.024284696164373318 -0.15167634282822121 0 0.044768406219017551 -0.17263814019661411 0 0.02355360116565728 -0.1758569133039101 0 0.024284696164373318 -0.15167634282822121 0 0.0081228045588438123 -0.15844939700383179 0 0.01424980654890767 -0.16543015493956861 0 0.024284696164373318 -0.15167634282822121 0 0.0081228045588438123 -0.15844939700383179 0 0.0039027134903483682 -0.1655877358442541 0 0.01424980654890767 -0.16543015493956861 0 0.0081228045588438123 -0.15844939700383179 0 0.0003014096489009662 -0.15827909213919711 0 0.0039027134903483682 -0.1655877358442541 0 0.0039027134903483682 -0.1655877358442541 0 0.01424980654890767 -0.16543015493956861 0 0.01138521736531556 -0.1755803857176258 0 0.016357364450400352 -0.19205522290353819 0 0.01138521736531556 -0.1755803857176258 0 0.0028164378603697019 -0.18575172484963451 0 0.0039027134903483682 -0.1655877358442541 0 0.01138521736531556 -0.1755803857176258 0 0.00066715547760964802 -0.17832489532098381 0 0.01138521736531556 -0.1755803857176258 0 0.00066715547760964802 -0.17832489532098381 0 0.0028164378603697019 -0.18575172484963451 0 0.022813063036778731 -0.13147217706671721 0 0.024284696164373318 -0.15167634282822121 0 0.003800986109728721 -0.1307145454598288 0 0.037025421602263971 -0.1388780798875737 0 0.022813063036778731 -0.13147217706671721 0 0.03342922526907547 -0.1174165576600532 0 0.037025421602263971 -0.1388780798875737 0 0.022813063036778731 -0.13147217706671721 0 0.024284696164373318 -0.15167634282822121 0 -0.00099965877895308438 -0.1488051650987488 0 0.0081228045588438123 -0.15844939700383179 0 0.003800986109728721 -0.1307145454598288 0 0.0081228045588438123 -0.15844939700383179 0 0.003800986109728721 -0.1307145454598288 0 0.024284696164373318 -0.15167634282822121 0 0.003800986109728721 -0.1307145454598288 0 0.0081228045588438123 -0.15844939700383179 0 0.024284696164373318 -0.15167634282822121 0 0.003800986109728721 -0.1307145454598288 0 -0.00099965877895308438 -0.1488051650987488 0 0.0081228045588438123 -0.15844939700383179 0 0.0003014096489009662 -0.15827909213919711 0 0.022813063036778731 -0.13147217706671721 0 0.003800986109728721 -0.1307145454598288 0 0.016484873284124721 -0.11638481488360281 0 -0.00050519907656484302 -0.1030800188666879 0 0.003800986109728721 -0.1307145454598288 0 -0.00050519907656484302 -0.1030800188666879 0 0.003800986109728721 -0.1307145454598288 0 0.016484873284124721 -0.11638481488360281 0 0.016484873284124721 -0.11638481488360281 0 0.020827633868130389 -0.10286555596041019 0 0.03342922526907547 -0.1174165576600532 0 0.022813063036778731 -0.13147217706671721 0 0.016484873284124721 -0.11638481488360281 0 0.03342922526907547 -0.1174165576600532 0 0.020827633868130389 -0.10286555596041019 0 0.012255484700806689 -0.092203595459533841 0 0.034315715551376448 -0.094416744931229812 0 0.020827633868130389 -0.10286555596041019 0 0.03342922526907547 -0.1174165576600532 0 0.034315715551376448 -0.094416744931229812 0 -0.00050519907656484302 -0.1030800188666879 0 0.016484873284124721 -0.11638481488360281 0 0.020827633868130389 -0.10286555596041019 0 -0.00050519907656484302 -0.1030800188666879 0 0.020827633868130389 -0.10286555596041019 0 0.012255484700806689 -0.092203595459533841 0 -0.0048113842628591426 -0.075445492273546855 0 -0.00050519907656484302 -0.1030800188666879 0 0.012255484700806689 -0.092203595459533841 0 -0.0048113842628591426 -0.075445492273546855 0 0.012255484700806689 -0.092203595459533841 0 0.023792571964919618 -0.075818819598628823 0 -0.0048113842628591426 -0.075445492273546855 0 0.023792571964919618 -0.075818819598628823 0 -0.0062574754781501464 -0.066165341881438272 0 -0.0048113842628591426 -0.075445492273546855 0 0.012523966587644019 -0.060924802511955839 0 -0.0048113842628591426 -0.075445492273546855 0 0.023792571964919618 -0.075818819598628823 0 0.012523966587644019 -0.060924802511955839 0 0.023792571964919618 -0.075818819598628823 0 0.012523966587644019 -0.060924802511955839 0 0.034068598804345811 -0.061224980386850383 0 0.023792571964919618 -0.075818819598628823 0 0.034068598804345811 -0.061224980386850383 0 0.012255484700806689 -0.092203595459533841 0 0.023792571964919618 -0.075818819598628823 0 0.012255484700806689 -0.092203595459533841 0 0.023792571964919618 -0.075818819598628823 0 0.034315715551376448 -0.094416744931229812 0 0.023792571964919618 -0.075818819598628823 0 0.043365508698569033 -0.076074277691790329 0 0.034315715551376448 -0.094416744931229812 0 0.043365508698569033 -0.076074277691790329 0 0.052692590721632758 -0.090027073011083564 0 0.034315715551376448 -0.094416744931229812 0 0.023792571964919618 -0.075818819598628823 0 0.043365508698569033 -0.076074277691790329 0 0.023792571964919618 -0.075818819598628823 0 0.043365508698569033 -0.076074277691790329 0 0.034068598804345811 -0.061224980386850383 0 0.043365508698569033 -0.076074277691790329 0 0.044365686142279391 -0.063173475522878025 0 0.034068598804345811 -0.061224980386850383 0 0.058140403903834827 -0.055091221850674332 0 0.062938445432218451 -0.076329735784950337 0 0.055684011422429028 -0.068763502837798252 0 0.058140403903834827 -0.055091221850674332 0 0.062938445432218451 -0.076329735784950337 0 0.043365508698569033 -0.076074277691790329 0 0.062938445432218451 -0.076329735784950337 0 0.043365508698569033 -0.076074277691790329 0 0.055684011422429028 -0.068763502837798252 0 0.062938445432218451 -0.076329735784950337 0 0.043365508698569033 -0.076074277691790329 0 0.044365686142279391 -0.063173475522878025 0 0.055684011422429028 -0.068763502837798252 0 0.043365508698569033 -0.076074277691790329 0 0.052692590721632758 -0.090027073011083564 0 0.062938445432218451 -0.076329735784950337 0 0.052692590721632758 -0.090027073011083564 0 0.067753668905437547 -0.097644305537539916 0 0.062938445432218451 -0.076329735784950337 0 0.052692590721632758 -0.090027073011083564 0 0.054003166360052708 -0.10866983401863151 0 0.034315715551376448 -0.094416744931229812 0 0.052692590721632758 -0.090027073011083564 0 0.054003166360052708 -0.10866983401863151 0 0.067753668905437547 -0.097644305537539916 0 0.050885683669062647 -0.12784531727048301 0 0.054003166360052708 -0.10866983401863151 0 0.066105729429237411 -0.122347312065754 0 0.050885683669062647 -0.12784531727048301 0 0.054003166360052708 -0.10866983401863151 0 0.03342922526907547 -0.1174165576600532 0 0.054003166360052708 -0.10866983401863151 0 0.03342922526907547 -0.1174165576600532 0 0.034315715551376448 -0.094416744931229812 0 0.0067200560687082156 0.00010385857572603739 0 0.02320130703148204 -0.0053633350158952308 0 0.0061510902218013946 -0.016732856684622179 0 0.02320130703148204 -0.0053633350158952308 0 0.0061510902218013946 -0.016732856684622179 0 -0.0078605566542857899 -0.00046063017767232288 0 0.0067200560687082156 0.00010385857572603739 0 0.0061510902218013946 -0.016732856684622179 0 0.0061510902218013946 -0.016732856684622179 0 0.015585866436716139 -0.03025484334809431 0 0.0044416444853491791 -0.042406610406893218 0 0.02320130703148204 -0.0053633350158952308 0 0.0061510902218013946 -0.016732856684622179 0 0.015585866436716139 -0.03025484334809431 0 0.02320130703148204 -0.0053633350158952308 0 0.033772966337629363 -0.02599723809548397 0 0.02320130703148204 -0.0053633350158952308 0 0.015585866436716139 -0.03025484334809431 0 0.033772966337629363 -0.02599723809548397 0 0.015585866436716139 -0.03025484334809431 0 0.0241229447159097 -0.04457326932072514 0 0.033772966337629363 -0.02599723809548397 0 0.015585866436716139 -0.03025484334809431 0 0.0241229447159097 -0.04457326932072514 0 0.0044416444853491791 -0.042406610406893218 0 -0.0062574754781501464 -0.066165341881438272 0 0.0044416444853491791 -0.042406610406893218 0 0.012523966587644019 -0.060924802511955839 0 0.0241229447159097 -0.04457326932072514 0 0.0044416444853491791 -0.042406610406893218 0 0.012523966587644019 -0.060924802511955839 0 0.0241229447159097 -0.04457326932072514 0 0.012523966587644019 -0.060924802511955839 0 0.034068598804345811 -0.061224980386850383 0 0.0241229447159097 -0.04457326932072514 0 0.034068598804345811 -0.061224980386850383 0 0.044344625643774643 -0.046631141175073797 0 0.044365686142279391 -0.063173475522878025 0 0.034068598804345811 -0.061224980386850383 0 0.044344625643774643 -0.046631141175073797 0 0.034068598804345811 -0.061224980386850383 0 0.044344625643774643 -0.046631141175073797 0 0.044365686142279391 -0.063173475522878025 0 0.055684011422429028 -0.068763502837798252 0 0.044344625643774643 -0.046631141175073797 0 0.055684011422429028 -0.068763502837798252 0 0.058140403903834827 -0.055091221850674332 0 0.044344625643774643 -0.046631141175073797 0 0.055684011422429028 -0.068763502837798252 0 0.044344625643774643 -0.046631141175073797 0 0.058140403903834827 -0.055091221850674332 0 0.053342362375449551 -0.03385270791639873 0 0.058140403903834827 -0.055091221850674332 0 0.053342362375449551 -0.03385270791639873 0 0.066924932148428706 -0.039757178670694678 0 0.053342362375449551 -0.03385270791639873 0 0.044344625643774643 -0.046631141175073797 0 0.04449970749090057 -0.027578173183486768 0 0.058140403903834827 -0.055091221850674332 0 0.053342362375449551 -0.03385270791639873 0 0.044344625643774643 -0.046631141175073797 0 0.053342362375449551 -0.03385270791639873 0 0.044344625643774643 -0.046631141175073797 0 0.053342362375449551 -0.03385270791639873 0 0.05726968036285477 -0.028275197450796749 0 0.066924932148428706 -0.039757178670694678 0 0.044344625643774643 -0.046631141175073797 0 0.033772966337629363 -0.02599723809548397 0 0.04449970749090057 -0.027578173183486768 0 0.0241229447159097 -0.04457326932072514 0 0.044344625643774643 -0.046631141175073797 0 0.033772966337629363 -0.02599723809548397 0 0.044344625643774643 -0.046631141175073797 0 0.033772966337629363 -0.02599723809548397 0 0.033772966337629363 -0.02599723809548397 0 0.04449970749090057 -0.027578173183486768 0 0.03716822413324683 -0.01269004698075875 0 0.04449970749090057 -0.027578173183486768 0 0.049786269337681308 -0.018111674603656799 0 0.03716822413324683 -0.01269004698075875 0 0.053342362375449551 -0.03385270791639873 0 0.049786269337681308 -0.018111674603656799 0 0.053342362375449551 -0.03385270791639873 0 0.04449970749090057 -0.027578173183486768 0 0.049786269337681308 -0.018111674603656799 0 0.053342362375449551 -0.03385270791639873 0 0.05726968036285477 -0.028275197450796749 0 0.049786269337681308 -0.018111674603656799 0 0.053342362375449551 -0.03385270791639873 0 0.05726968036285477 -0.028275197450796749 0 0.05726968036285477 -0.028275197450796749 0 0.061857832032224717 -0.024142170591418259 0 0.06659390878526858 -0.02818772640692959 0 0.05726968036285477 -0.028275197450796749 0 0.061857832032224717 -0.024142170591418259 0 0.05806479528536046 -0.019177792925473031 0 0.05726968036285477 -0.028275197450796749 0 0.05806479528536046 -0.019177792925473031 0 0.049786269337681308 -0.018111674603656799 0 0.05806479528536046 -0.019177792925473031 0 0.061413841351340627 -0.009215915785432946 0 0.065234971159484678 -0.018836295752778488 0 0.061857832032224717 -0.024142170591418259 0 0.05806479528536046 -0.019177792925473031 0 0.065234971159484678 -0.018836295752778488 0 0.05806479528536046 -0.019177792925473031 0 0.049786269337681308 -0.018111674603656799 0 0.054189438633633291 -0.010336858238583459 0 0.049786269337681308 -0.018111674603656799 0 0.04623017629991278 -0.0023706412909148891 0 0.049786269337681308 -0.018111674603656799 0 0.054189438633633291 -0.010336858238583459 0 0.04623017629991278 -0.0023706412909148891 0 0.05806479528536046 -0.019177792925473031 0 0.054189438633633291 -0.010336858238583459 0 0.061413841351340627 -0.009215915785432946 0 0.061757503530185887 0.0030345535022356859 0 0.061413841351340627 -0.009215915785432946 0 0.055452110893871268 -0.0028082665874396419 0 0.054189438633633291 -0.010336858238583459 0 0.061413841351340627 -0.009215915785432946 0 0.055452110893871268 -0.0028082665874396419 0 0.053802205276232327 0.003682353028027469 0 0.055452110893871268 -0.0028082665874396419 0 0.04623017629991278 -0.0023706412909148891 0 0.054189438633633291 -0.010336858238583459 0 0.055452110893871268 -0.0028082665874396419 0 0.04623017629991278 -0.0023706412909148891 0 0.049786269337681308 -0.018111674603656799 0 0.04623017629991278 -0.0023706412909148891 0 0.03716822413324683 -0.01269004698075875 0 0.02320130703148204 -0.0053633350158952308 0 0.033772966337629363 -0.02599723809548397 0 0.03716822413324683 -0.01269004698075875 0 0.02320130703148204 -0.0053633350158952308 0 0.04623017629991278 -0.0023706412909148891 0 0.03716822413324683 -0.01269004698075875 0 0.087361369612945494 -0.0080835094384430137 0 0.096101903732410079 -0.01233878904357345 0 0.09468229154267907 -0.001137269383548628 0 0.087389042276107873 0.0058380201399859666 0 0.087361369612945494 -0.0080835094384430137 0 0.09468229154267907 -0.001137269383548628 0 0.087361369612945494 -0.0080835094384430137 0 0.089938378811294267 -0.020232979707340441 0 0.096101903732410079 -0.01233878904357345 0 0.087361369612945494 -0.0080835094384430137 0 0.081525270058044663 -0.0162412611750394 0 0.089938378811294267 -0.020232979707340441 0 0.087361369612945494 -0.0080835094384430137 0 0.074874011010648875 -0.0094430718014662535 0 0.081525270058044663 -0.0162412611750394 0 0.087361369612945494 -0.0080835094384430137 0 0.079607049088793305 -0.0022136162043640468 0 0.074874011010648875 -0.0094430718014662535 0 0.087389042276107873 0.0058380201399859666 0 0.087361369612945494 -0.0080835094384430137 0 0.079607049088793305 -0.0022136162043640468 0 0.079607049088793305 -0.0022136162043640468 0 0.06795049627233557 -0.0023941361538292539 0 0.074874011010648875 -0.0094430718014662535 0 0.061757503530185887 0.0030345535022356859 0 0.061413841351340627 -0.009215915785432946 0 0.06795049627233557 -0.0023941361538292539 0 0.061413841351340627 -0.009215915785432946 0 0.06795049627233557 -0.0023941361538292539 0 0.067939131413757903 -0.012172473660509209 0 0.061413841351340627 -0.009215915785432946 0 0.067939131413757903 -0.012172473660509209 0 0.065234971159484678 -0.018836295752778488 0 0.06795049627233557 -0.0023941361538292539 0 0.067939131413757903 -0.012172473660509209 0 0.074874011010648875 -0.0094430718014662535 0 0.067939131413757903 -0.012172473660509209 0 0.074874011010648875 -0.0094430718014662535 0 0.073511372680515968 -0.019651222906146831 0 0.074874011010648875 -0.0094430718014662535 0 0.073511372680515968 -0.019651222906146831 0 0.081525270058044663 -0.0162412611750394 0 0.073511372680515968 -0.019651222906146831 0 0.065234971159484678 -0.018836295752778488 0 0.06659390878526858 -0.02818772640692959 0 0.067939131413757903 -0.012172473660509209 0 0.073511372680515968 -0.019651222906146831 0 0.065234971159484678 -0.018836295752778488 0 0.061857832032224717 -0.024142170591418259 0 0.065234971159484678 -0.018836295752778488 0 0.06659390878526858 -0.02818772640692959 0 0.073511372680515968 -0.019651222906146831 0 0.076327770296927847 -0.028214305691081468 0 0.081668660975933172 -0.023248570176194451 0 0.073511372680515968 -0.019651222906146831 0 0.06659390878526858 -0.02818772640692959 0 0.076327770296927847 -0.028214305691081468 0 0.06659390878526858 -0.02818772640692959 0 0.076327770296927847 -0.028214305691081468 0 0.072326566105478704 -0.033424530612457037 0 0.076327770296927847 -0.028214305691081468 0 0.085892760815879737 -0.029523912522753569 0 0.081668660975933172 -0.023248570176194451 0 0.085892760815879737 -0.029523912522753569 0 0.081668660975933172 -0.023248570176194451 0 0.089938378811294267 -0.020232979707340441 0 0.081525270058044663 -0.0162412611750394 0 0.081668660975933172 -0.023248570176194451 0 0.089938378811294267 -0.020232979707340441 0 0.073511372680515968 -0.019651222906146831 0 0.081525270058044663 -0.0162412611750394 0 0.081668660975933172 -0.023248570176194451 0 0.085892760815879737 -0.029523912522753569 0 0.089938378811294267 -0.020232979707340441 0 0.096549113809131698 -0.029184085720073489 0 0.085892760815879737 -0.029523912522753569 0 0.091259624040394033 -0.037198116495185389 0 0.096549113809131698 -0.029184085720073489 0 0.087174673772597772 -0.044362502957667457 0 0.092525386484717601 -0.05112222683527038 0 0.096385083014811329 -0.043171006784654388 0 0.091259624040394033 -0.037198116495185389 0 0.087174673772597772 -0.044362502957667457 0 0.096385083014811329 -0.043171006784654388 0 0.091259624040394033 -0.037198116495185389 0 0.087174673772597772 -0.044362502957667457 0 0.079459653191289725 -0.037538911681122403 0 0.087174673772597772 -0.044362502957667457 0 0.079459653191289725 -0.037538911681122403 0 0.079833555897829436 -0.049648424470065761 0 0.085892760815879737 -0.029523912522753569 0 0.091259624040394033 -0.037198116495185389 0 0.079459653191289725 -0.037538911681122403 0 0.076327770296927847 -0.028214305691081468 0 0.085892760815879737 -0.029523912522753569 0 0.079459653191289725 -0.037538911681122403 0 0.076327770296927847 -0.028214305691081468 0 0.079459653191289725 -0.037538911681122403 0 0.072326566105478704 -0.033424530612457037 0 0.079459653191289725 -0.037538911681122403 0 0.072326566105478704 -0.033424530612457037 0 0.066924932148428706 -0.039757178670694678 0 0.05726968036285477 -0.028275197450796749 0 0.06659390878526858 -0.02818772640692959 0 0.066924932148428706 -0.039757178670694678 0 0.06659390878526858 -0.02818772640692959 0 0.072326566105478704 -0.033424530612457037 0 0.066924932148428706 -0.039757178670694678 0 0.079459653191289725 -0.037538911681122403 0 0.066924932148428706 -0.039757178670694678 0 0.079833555897829436 -0.049648424470065761 0 0.066924932148428706 -0.039757178670694678 0 0.069677056294332851 -0.053723721274598762 0 0.079833555897829436 -0.049648424470065761 0 0.058140403903834827 -0.055091221850674332 0 0.066924932148428706 -0.039757178670694678 0 0.069677056294332851 -0.053723721274598762 0 0.058140403903834827 -0.055091221850674332 0 0.069677056294332851 -0.053723721274598762 0 0.068491296682106961 -0.064820628090086915 0 0.069677056294332851 -0.053723721274598762 0 0.068491296682106961 -0.064820628090086915 0 0.077696738226399914 -0.063312696948810282 0 0.069677056294332851 -0.053723721274598762 0 0.079833555897829436 -0.049648424470065761 0 0.077696738226399914 -0.063312696948810282 0 0.079833555897829436 -0.049648424470065761 0 0.088797973357899657 -0.060599509778072623 0 0.077696738226399914 -0.063312696948810282 0 0.079833555897829436 -0.049648424470065761 0 0.092525386484717601 -0.05112222683527038 0 0.088797973357899657 -0.060599509778072623 0 0.087174673772597772 -0.044362502957667457 0 0.079833555897829436 -0.049648424470065761 0 0.092525386484717601 -0.05112222683527038 0 0.092525386484717601 -0.05112222683527038 0 0.088797973357899657 -0.060599509778072623 0 0.1002271519690076 -0.059512395473830207 0 0.092525386484717601 -0.05112222683527038 0 0.10306697257808931 -0.049093251381909453 0 0.096385083014811329 -0.043171006784654388 0 0.092525386484717601 -0.05112222683527038 0 0.1002271519690076 -0.059512395473830207 0 0.10306697257808931 -0.049093251381909453 0 0.1002271519690076 -0.059512395473830207 0 0.10306697257808931 -0.049093251381909453 0 0.11004714739756991 -0.05306331529086037 0 0.10306697257808931 -0.049093251381909453 0 0.11004714739756991 -0.05306331529086037 0 0.1121815233964738 -0.043099784472150529 0 0.1002271519690076 -0.059512395473830207 0 0.11004714739756991 -0.05306331529086037 0 0.11011785867134689 -0.067162655692318926 0 0.1246422303729318 -0.04644848943409273 0 0.11952073278848541 -0.066500676982826079 0 0.1246422303729318 -0.04644848943409273 0 0.11011785867134689 -0.067162655692318926 0 0.11004714739756991 -0.05306331529086037 0 0.1246422303729318 -0.04644848943409273 0 0.11011785867134689 -0.067162655692318926 0 0.1246422303729318 -0.04644848943409273 0 0.11011785867134689 -0.067162655692318926 0 0.11952073278848541 -0.066500676982826079 0 0.11004714739756991 -0.05306331529086037 0 0.1121815233964738 -0.043099784472150529 0 0.1246422303729318 -0.04644848943409273 0 0.1246422303729318 -0.04644848943409273 0 0.1176900241437977 -0.033356834359231327 0 0.12906925390040211 -0.029115374541086179 0 0.1121815233964738 -0.043099784472150529 0 0.1246422303729318 -0.04644848943409273 0 0.1176900241437977 -0.033356834359231327 0 0.1176900241437977 -0.033356834359231327 0 0.1103300964374999 -0.03511403862689514 0 0.1082432026119507 -0.027141997460110281 0 0.1121815233964738 -0.043099784472150529 0 0.1176900241437977 -0.033356834359231327 0 0.1103300964374999 -0.03511403862689514 0 0.1121815233964738 -0.043099784472150529 0 0.1103300964374999 -0.03511403862689514 0 0.1027530237355215 -0.03778238122606109 0 0.1027530237355215 -0.03778238122606109 0 0.096549113809131698 -0.029184085720073489 0 0.1082432026119507 -0.027141997460110281 0 0.1103300964374999 -0.03511403862689514 0 0.1027530237355215 -0.03778238122606109 0 0.1082432026119507 -0.027141997460110281 0 0.10306697257808931 -0.049093251381909453 0 0.1121815233964738 -0.043099784472150529 0 0.1027530237355215 -0.03778238122606109 0 0.091259624040394033 -0.037198116495185389 0 0.1027530237355215 -0.03778238122606109 0 0.096385083014811329 -0.043171006784654388 0 0.10306697257808931 -0.049093251381909453 0 0.1027530237355215 -0.03778238122606109 0 0.096385083014811329 -0.043171006784654388 0 0.091259624040394033 -0.037198116495185389 0 0.1027530237355215 -0.03778238122606109 0 0.096549113809131698 -0.029184085720073489 0 0.089938378811294267 -0.020232979707340441 0 0.100912001033011 -0.020820389939287941 0 0.096101903732410079 -0.01233878904357345 0 0.089938378811294267 -0.020232979707340441 0 0.096549113809131698 -0.029184085720073489 0 0.100912001033011 -0.020820389939287941 0 0.100912001033011 -0.020820389939287941 0 0.1093543709643704 -0.015808325646878719 0 0.1082432026119507 -0.027141997460110281 0 0.100912001033011 -0.020820389939287941 0 0.1093543709643704 -0.015808325646878719 0 0.096101903732410079 -0.01233878904357345 0 0.096549113809131698 -0.029184085720073489 0 0.100912001033011 -0.020820389939287941 0 0.1082432026119507 -0.027141997460110281 0 0.1176900241437977 -0.033356834359231327 0 0.1082432026119507 -0.027141997460110281 0 0.1194802521896846 -0.0209186053009544 0 0.1176900241437977 -0.033356834359231327 0 0.1194802521896846 -0.0209186053009544 0 0.12906925390040211 -0.029115374541086179 0 0.1093543709643704 -0.015808325646878719 0 0.1082432026119507 -0.027141997460110281 0 0.1194802521896846 -0.0209186053009544 0 0.1093543709643704 -0.015808325646878719 0 0.1185004275877808 -0.0089099387401484452 0 0.1035045777476903 -0.0060376178322144964 0 0.1093543709643704 -0.015808325646878719 0 0.1194802521896846 -0.0209186053009544 0 0.1185004275877808 -0.0089099387401484452 0 0.1194802521896846 -0.0209186053009544 0 0.1185004275877808 -0.0089099387401484452 0 0.13349627742787201 -0.01178225964807952 0 0.12497209006325551 0.0045335831921891464 0 0.11278102560414061 0.0018115570737424059 0 0.1185004275877808 -0.0089099387401484452 0 0.1185004275877808 -0.0089099387401484452 0 0.1035045777476903 -0.0060376178322144964 0 0.11278102560414061 0.0018115570737424059 0 0.1185004275877808 -0.0089099387401484452 0 0.1035045777476903 -0.0060376178322144964 0 0.1093543709643704 -0.015808325646878719 0 0.1035045777476903 -0.0060376178322144964 0 0.096101903732410079 -0.01233878904357345 0 0.1035045777476903 -0.0060376178322144964 0 0.096101903732410079 -0.01233878904357345 0 0.09468229154267907 -0.001137269383548628 0 0.090182881643716961 -0.10209388408909351 0 0.07404894911388607 -0.1110422047047958 0 0.080758724348984581 -0.090152997810022353 0 0.090182881643716961 -0.10209388408909351 0 0.086359778491213873 -0.1186116559357633 0 0.07404894911388607 -0.1110422047047958 0 0.086359778491213873 -0.1186116559357633 0 0.07404894911388607 -0.1110422047047958 0 0.066105729429237411 -0.122347312065754 0 0.054003166360052708 -0.10866983401863151 0 0.07404894911388607 -0.1110422047047958 0 0.066105729429237411 -0.122347312065754 0 0.07404894911388607 -0.1110422047047958 0 0.067753668905437547 -0.097644305537539916 0 0.080758724348984581 -0.090152997810022353 0 0.054003166360052708 -0.10866983401863151 0 0.07404894911388607 -0.1110422047047958 0 0.067753668905437547 -0.097644305537539916 0 0.067753668905437547 -0.097644305537539916 0 0.062938445432218451 -0.076329735784950337 0 0.067753668905437547 -0.097644305537539916 0 0.074566682342692286 -0.076481502853346664 0 0.080758724348984581 -0.090152997810022353 0 0.067753668905437547 -0.097644305537539916 0 0.062938445432218451 -0.076329735784950337 0 0.074566682342692286 -0.076481502853346664 0 0.058140403903834827 -0.055091221850674332 0 0.068491296682106961 -0.064820628090086915 0 0.062938445432218451 -0.076329735784950337 0 0.068491296682106961 -0.064820628090086915 0 0.062938445432218451 -0.076329735784950337 0 0.074566682342692286 -0.076481502853346664 0 0.062938445432218451 -0.076329735784950337 0 0.074566682342692286 -0.076481502853346664 0 0.068491296682106961 -0.064820628090086915 0 0.074566682342692286 -0.076481502853346664 0 0.077696738226399914 -0.063312696948810282 0 0.085574668272897017 -0.074660925061055303 0 0.095593486969762567 -0.087876821950545539 0 0.096034404391643069 -0.069542021025534431 0 0.088797973357899657 -0.060599509778072623 0 0.077696738226399914 -0.063312696948810282 0 0.085574668272897017 -0.074660925061055303 0 0.074566682342692286 -0.076481502853346664 0 0.077696738226399914 -0.063312696948810282 0 0.085574668272897017 -0.074660925061055303 0 0.088797973357899657 -0.060599509778072623 0 0.085574668272897017 -0.074660925061055303 0 0.096034404391643069 -0.069542021025534431 0 0.074566682342692286 -0.076481502853346664 0 0.085574668272897017 -0.074660925061055303 0 0.080758724348984581 -0.090152997810022353 0 0.085574668272897017 -0.074660925061055303 0 0.080758724348984581 -0.090152997810022353 0 0.095593486969762567 -0.087876821950545539 0 0.090182881643716961 -0.10209388408909351 0 0.080758724348984581 -0.090152997810022353 0 0.095593486969762567 -0.087876821950545539 0 0.095593486969762567 -0.087876821950545539 0 0.11011785867134689 -0.067162655692318926 0 0.1143992352040384 -0.086552864531559248 0 0.095593486969762567 -0.087876821950545539 0 0.1143992352040384 -0.086552864531559248 0 0.10927773761959129 -0.1066050520802924 0 0.095593486969762567 -0.087876821950545539 0 0.11011785867134689 -0.067162655692318926 0 0.095593486969762567 -0.087876821950545539 0 0.096034404391643069 -0.069542021025534431 0 0.11011785867134689 -0.067162655692318926 0 0.088797973357899657 -0.060599509778072623 0 0.1002271519690076 -0.059512395473830207 0 0.096034404391643069 -0.069542021025534431 0 0.1002271519690076 -0.059512395473830207 0 0.096034404391643069 -0.069542021025534431 0 0.11011785867134689 -0.067162655692318926 0 0.11952073278848541 -0.066500676982826079 0 0.1143992352040384 -0.086552864531559248 0 0.1318965563483408 -0.076574972600390062 0 0.11011785867134689 -0.067162655692318926 0 0.11952073278848541 -0.066500676982826079 0 0.1143992352040384 -0.086552864531559248 0 0.11952073278848541 -0.066500676982826079 0 0.1143992352040384 -0.086552864531559248 0 0.1143992352040384 -0.086552864531559248 0 0.10927773761959129 -0.1066050520802924 0 0.13142029063853999 -0.098099261924585693 0 0.1143992352040384 -0.086552864531559248 0 0.10927773761959129 -0.1066050520802924 0 0.10927773761959129 -0.1066050520802924 0 0.1243973756391545 -0.1132901008285489 0 0.13142029063853999 -0.098099261924585693 0 0.090182881643716961 -0.10209388408909351 0 0.086359778491213873 -0.1186116559357633 0 0.10927773761959129 -0.1066050520802924 0 0.090182881643716961 -0.10209388408909351 0 0.095593486969762567 -0.087876821950545539 0 0.10927773761959129 -0.1066050520802924 0 0.099829395505855345 -0.13121997112818451 0 0.086359778491213873 -0.1186116559357633 0 0.10927773761959129 -0.1066050520802924 0 0.099829395505855345 -0.13121997112818451 0 0.1194960029087308 -0.12911457695895751 0 0.10927773761959129 -0.1066050520802924 0 0.1194960029087308 -0.12911457695895751 0 0.10927773761959129 -0.1066050520802924 0 0.1243973756391545 -0.1132901008285489 0 0.1194960029087308 -0.12911457695895751 0 0.1243973756391545 -0.1132901008285489 0 0.139669502064318 -0.1160510743186111 0 0.139669502064318 -0.1160510743186111 0 0.15749918273757721 -0.1023448504222616 0 0.15186406329806909 -0.13344742645604471 0 0.13142029063853999 -0.098099261924585693 0 0.145740942554792 -0.083877669973417807 0 0.15749918273757721 -0.1023448504222616 0 0.139669502064318 -0.1160510743186111 0 0.13142029063853999 -0.098099261924585693 0 0.15749918273757721 -0.1023448504222616 0 0.1243973756391545 -0.1132901008285489 0 0.139669502064318 -0.1160510743186111 0 0.13142029063853999 -0.098099261924585693 0 0.13142029063853999 -0.098099261924585693 0 0.1318965563483408 -0.076574972600390062 0 0.145740942554792 -0.083877669973417807 0 0.1143992352040384 -0.086552864531559248 0 0.13142029063853999 -0.098099261924585693 0 0.1318965563483408 -0.076574972600390062 0 0.1318965563483408 -0.076574972600390062 0 0.14348693188351769 -0.068088325236896119 0 0.145740942554792 -0.083877669973417807 0 0.11952073278848541 -0.066500676982826079 0 0.1318965563483408 -0.076574972600390062 0 0.13162971371761731 -0.062349246100101612 0 0.1318965563483408 -0.076574972600390062 0 0.14348693188351769 -0.068088325236896119 0 0.13162971371761731 -0.062349246100101612 0 0.14348693188351769 -0.068088325236896119 0 0.145740942554792 -0.083877669973417807 0 0.16183074994837079 -0.073272680569389959 0 0.14348693188351769 -0.068088325236896119 0 0.16183074994837079 -0.073272680569389959 0 0.1536054819185472 -0.054471776497714522 0 0.145740942554792 -0.083877669973417807 0 0.16183074994837079 -0.073272680569389959 0 0.15749918273757721 -0.1023448504222616 0 0.16183074994837079 -0.073272680569389959 0 0.17749694734942539 -0.090705731813508744 0 0.15749918273757721 -0.1023448504222616 0 0.18151906000102649 -0.064097594854467269 0 0.17749694734942539 -0.090705731813508744 0 0.19733586741137801 -0.070172022041258039 0 0.16183074994837079 -0.073272680569389959 0 0.18151906000102649 -0.064097594854467269 0 0.17749694734942539 -0.090705731813508744 0 0.18151906000102649 -0.064097594854467269 0 0.17749694734942539 -0.090705731813508744 0 0.17749694734942539 -0.090705731813508744 0 0.17347483469782421 -0.11731386877255021 0 0.19659745207935631 -0.1059476065056621 0 0.17749694734942539 -0.090705731813508744 0 0.17347483469782421 -0.11731386877255021 0 0.17347483469782421 -0.11731386877255021 0 0.19138583502893591 -0.1213435105547989 0 0.18424225032122571 -0.13274986993923751 0 0.17347483469782421 -0.11731386877255021 0 0.19138583502893591 -0.1213435105547989 0 0.19659745207935631 -0.1059476065056621 0 0.17347483469782421 -0.11731386877255021 0 0.15749918273757721 -0.1023448504222616 0 0.15186406329806909 -0.13344742645604471 0 0.17749694734942539 -0.090705731813508744 0 0.17347483469782421 -0.11731386877255021 0 0.15749918273757721 -0.1023448504222616 0 0.14975444328776941 -0.01489636589894632 0 0.13349627742787201 -0.01178225964807952 0 0.14570859857624119 -0.016404349667772308 0 0.14975444328776941 -0.01489636589894632 0 0.14273738575677031 -0.0089758206601970418 0 0.13349627742787201 -0.01178225964807952 0 0.14975444328776941 -0.01489636589894632 0 0.13349627742787201 -0.01178225964807952 0 0.15458946145240851 -0.0042119541687945248 0 0.1477914957536117 -0.0079479717677282766 0 0.14381200007779371 -0.0019232760749363191 0 0.15458946145240851 -0.0042119541687945248 0 0.1526154724792575 -0.0094557343963562121 0 0.1477914957536117 -0.0079479717677282766 0 0.15458946145240851 -0.0042119541687945248 0 0.1526154724792575 -0.0094557343963562121 0 0.1583264894232404 -0.010766645749955729 0 0.1526154724792575 -0.0094557343963562121 0 0.14975444328776941 -0.01489636589894632 0 0.1583264894232404 -0.010766645749955729 0 0.1526154724792575 -0.0094557343963562121 0 0.14975444328776941 -0.01489636589894632 0 0.1477914957536117 -0.0079479717677282766 0 0.14975444328776941 -0.01489636589894632 0 0.1477914957536117 -0.0079479717677282766 0 0.14273738575677031 -0.0089758206601970418 0 0.1477914957536117 -0.0079479717677282766 0 0.14273738575677031 -0.0089758206601970418 0 0.14381200007779371 -0.0019232760749363191 0 0.13948744810705679 0.01167495694034958 0 0.14381200007779371 -0.0019232760749363191 0 0.13349627742787201 -0.01178225964807952 0 0.13948744810705679 0.01167495694034958 0 0.13349627742787201 -0.01178225964807952 0 0.14273738575677031 -0.0089758206601970418 0 0.14381200007779371 -0.0019232760749363191 0 0.13349627742787201 -0.01178225964807952 0 0.12497209006325551 0.0045335831921891464 0 0.1185004275877808 -0.0089099387401484452 0 0.13349627742787201 -0.01178225964807952 0 0.1185004275877808 -0.0089099387401484452 0 0.13349627742787201 -0.01178225964807952 0 0.13349627742787201 -0.01178225964807952 0 0.13702693641443439 -0.021410733141016831 0 0.14570859857624119 -0.016404349667772308 0 0.13349627742787201 -0.01178225964807952 0 0.13369197055432361 -0.023433696720278709 0 0.12906925390040211 -0.029115374541086179 0 0.1194802521896846 -0.0209186053009544 0 0.13349627742787201 -0.01178225964807952 0 0.12906925390040211 -0.029115374541086179 0 0.13702693641443439 -0.021410733141016831 0 0.14570859857624119 -0.016404349667772308 0 0.13517541447458609 -0.031426419550932318 0 0.13349627742787201 -0.01178225964807952 0 0.12906925390040211 -0.029115374541086179 0 0.13349627742787201 -0.01178225964807952 0 0.13369197055432361 -0.023433696720278709 0 0.13702693641443439 -0.021410733141016831 0 0.13369197055432361 -0.023433696720278709 0 0.12906925390040211 -0.029115374541086179 0 0.13517541447458609 -0.031426419550932318 0 0.13369197055432361 -0.023433696720278709 0 0.13702693641443439 -0.021410733141016831 0 0.13517541447458609 -0.031426419550932318 0 0.14570859857624119 -0.016404349667772308 0 0.13517541447458609 -0.031426419550932318 0 0.1464355916752762 -0.02811797029184997 0 0.14570859857624119 -0.016404349667772308 0 0.13517541447458609 -0.031426419550932318 0 0.1464355916752762 -0.02811797029184997 0 0.14570859857624119 -0.016404349667772308 0 0.15010229663337599 -0.022011029915180651 0 0.14975444328776941 -0.01489636589894632 0 0.15010229663337599 -0.022011029915180651 0 0.15761714701633731 -0.024552826922271481 0 0.14975444328776941 -0.01489636589894632 0 0.14570859857624119 -0.016404349667772308 0 0.15010229663337599 -0.022011029915180651 0 0.1464355916752762 -0.02811797029184997 0 0.15010229663337599 -0.022011029915180651 0 0.15761714701633731 -0.024552826922271481 0 0.1464355916752762 -0.02811797029184997 0 0.1553061620882909 -0.036621993073423953 0 0.15761714701633731 -0.024552826922271481 0 0.1553061620882909 -0.036621993073423953 0 0.1445853453938947 -0.045537377974861418 0 0.1536054819185472 -0.054471776497714522 0 0.1553061620882909 -0.036621993073423953 0 0.1445853453938947 -0.045537377974861418 0 0.1429832893143945 -0.036140319684422301 0 0.1445853453938947 -0.045537377974861418 0 0.1429832893143945 -0.036140319684422301 0 0.13719767935012361 -0.042737274578122361 0 0.1464355916752762 -0.02811797029184997 0 0.1429832893143945 -0.036140319684422301 0 0.13517541447458609 -0.031426419550932318 0 0.1464355916752762 -0.02811797029184997 0 0.1553061620882909 -0.036621993073423953 0 0.1429832893143945 -0.036140319684422301 0 0.1246422303729318 -0.04644848943409273 0 0.12906925390040211 -0.029115374541086179 0 0.13517541447458609 -0.031426419550932318 0 0.1246422303729318 -0.04644848943409273 0 0.12906925390040211 -0.029115374541086179 0 0.1429832893143945 -0.036140319684422301 0 0.13517541447458609 -0.031426419550932318 0 0.13719767935012361 -0.042737274578122361 0 0.1246422303729318 -0.04644848943409273 0 0.13517541447458609 -0.031426419550932318 0 0.1246422303729318 -0.04644848943409273 0 0.13517541447458609 -0.031426419550932318 0 0.13719767935012361 -0.042737274578122361 0 0.1445853453938947 -0.045537377974861418 0 0.13719767935012361 -0.042737274578122361 0 0.1386021171948108 -0.054133766246303047 0 0.1246422303729318 -0.04644848943409273 0 0.11952073278848541 -0.066500676982826079 0 0.13162971371761731 -0.062349246100101612 0 0.1246422303729318 -0.04644848943409273 0 0.1386021171948108 -0.054133766246303047 0 0.13162971371761731 -0.062349246100101612 0 0.1246422303729318 -0.04644848943409273 0 0.13719767935012361 -0.042737274578122361 0 0.1386021171948108 -0.054133766246303047 0 0.14348693188351769 -0.068088325236896119 0 0.1386021171948108 -0.054133766246303047 0 0.13162971371761731 -0.062349246100101612 0 0.14348693188351769 -0.068088325236896119 0 0.1386021171948108 -0.054133766246303047 0 0.1536054819185472 -0.054471776497714522 0 0.1445853453938947 -0.045537377974861418 0 0.1386021171948108 -0.054133766246303047 0 0.1536054819185472 -0.054471776497714522 0 0.16183074994837079 -0.073272680569389959 0 0.18151906000102649 -0.064097594854467269 0 0.16971524277166161 -0.049346117852895742 0 0.16183074994837079 -0.073272680569389959 0 0.1536054819185472 -0.054471776497714522 0 0.16971524277166161 -0.049346117852895742 0 0.18151906000102649 -0.064097594854467269 0 0.16971524277166161 -0.049346117852895742 0 0.18554117265262771 -0.03748945789542589 0 0.18151906000102649 -0.064097594854467269 0 0.18554117265262771 -0.03748945789542589 0 0.19352384925607699 -0.052304189061076603 0 0.18151906000102649 -0.064097594854467269 0 0.18554117265262771 -0.03748945789542589 0 0.16971524277166161 -0.049346117852895742 0 0.18554117265262771 -0.03748945789542589 0 0.1702271600943045 -0.03121417077330476 0 0.1553061620882909 -0.036621993073423953 0 0.1536054819185472 -0.054471776497714522 0 0.16971524277166161 -0.049346117852895742 0 0.1553061620882909 -0.036621993073423953 0 0.16971524277166161 -0.049346117852895742 0 0.1702271600943045 -0.03121417077330476 0 0.14975444328776941 -0.01489636589894632 0 0.16601260914766719 -0.018010472149810611 0 0.14975444328776941 -0.01489636589894632 0 0.15761714701633731 -0.024552826922271481 0 0.16601260914766719 -0.018010472149810611 0 0.1553061620882909 -0.036621993073423953 0 0.15761714701633731 -0.024552826922271481 0 0.1702271600943045 -0.03121417077330476 0 0.15761714701633731 -0.024552826922271481 0 0.16601260914766719 -0.018010472149810611 0 0.15761714701633731 -0.024552826922271481 0 0.16601260914766719 -0.018010472149810611 0 0.1702271600943045 -0.03121417077330476 0 0.16601260914766719 -0.018010472149810611 0 0.1832557522809336 -0.02131324198735348 0 0.18554117265262771 -0.03748945789542589 0 0.1702271600943045 -0.03121417077330476 0 0.1832557522809336 -0.02131324198735348 0 0.16601260914766719 -0.018010472149810611 0 0.1702271600943045 -0.03121417077330476 0 0.1832557522809336 -0.02131324198735348 0 0.16601260914766719 -0.018010472149810611 0 0.18436858390171409 -0.0037061614213828738 0 0.16658796298411421 -0.0040629546997722581 0 0.17474613889701679 0.0066209854137925604 0 0.18436858390171409 -0.0037061614213828738 0 0.16658796298411421 -0.0040629546997722581 0 0.16601260914766719 -0.018010472149810611 0 0.1832557522809336 -0.02131324198735348 0 0.18436858390171409 -0.0037061614213828738 0 0.1832557522809336 -0.02131324198735348 0 0.18436858390171409 -0.0037061614213828738 0 0.1946986481728317 -0.01563160838894782 0 0.16601260914766719 -0.018010472149810611 0 0.18436858390171409 -0.0037061614213828738 0 0.14975444328776941 -0.01489636589894632 0 0.16601260914766719 -0.018010472149810611 0 0.1583264894232404 -0.010766645749955729 0 0.16601260914766719 -0.018010472149810611 0 0.16658796298411421 -0.0040629546997722581 0 0.1583264894232404 -0.010766645749955729 0 0.15458946145240851 -0.0042119541687945248 0 0.16658796298411421 -0.0040629546997722581 0 0.1583264894232404 -0.010766645749955729 0 0.16157493590422931 0.0071784542262573166 0 0.15458946145240851 -0.0042119541687945248 0 0.16658796298411421 -0.0040629546997722581 0 0.21656024508351429 -0.0014627478743725779 0 0.21039000402715999 -0.0160493812847111 0 0.2261694047138573 -0.013235765593690749 0 0.21656024508351429 -0.0014627478743725779 0 0.20167340524385621 -0.0052805064801682402 0 0.21039000402715999 -0.0160493812847111 0 0.20167340524385621 -0.0052805064801682402 0 0.1946986481728317 -0.01563160838894782 0 0.21039000402715999 -0.0160493812847111 0 0.18436858390171409 -0.0037061614213828738 0 0.20167340524385621 -0.0052805064801682402 0 0.1946986481728317 -0.01563160838894782 0 0.1832557522809336 -0.02131324198735348 0 0.19913368894760231 -0.029666429622911269 0 0.1946986481728317 -0.01563160838894782 0 0.18554117265262771 -0.03748945789542589 0 0.1832557522809336 -0.02131324198735348 0 0.19913368894760231 -0.029666429622911269 0 0.19913368894760231 -0.029666429622911269 0 0.1946986481728317 -0.01563160838894782 0 0.21039000402715999 -0.0160493812847111 0 0.19913368894760231 -0.029666429622911269 0 0.21039000402715999 -0.0160493812847111 0 0.22037954314699179 -0.032908021301097948 0 0.20972231959823259 -0.047742506932731688 0 0.2214731036851447 -0.054372167264227528 0 0.22037954314699179 -0.032908021301097948 0 0.19913368894760231 -0.029666429622911269 0 0.20972231959823259 -0.047742506932731688 0 0.22037954314699179 -0.032908021301097948 0 0.18554117265262771 -0.03748945789542589 0 0.19913368894760231 -0.029666429622911269 0 0.19352384925607699 -0.052304189061076603 0 0.19913368894760231 -0.029666429622911269 0 0.19352384925607699 -0.052304189061076603 0 0.20972231959823259 -0.047742506932731688 0 0.19352384925607699 -0.052304189061076603 0 0.20972231959823259 -0.047742506932731688 0 0.19733586741137801 -0.070172022041258039 0 0.18151906000102649 -0.064097594854467269 0 0.19352384925607699 -0.052304189061076603 0 0.19733586741137801 -0.070172022041258039 0 0.20972231959823259 -0.047742506932731688 0 0.2214731036851447 -0.054372167264227528 0 0.2137828767556553 -0.068931388751549777 0 0.20972231959823259 -0.047742506932731688 0 0.2137828767556553 -0.068931388751549777 0 0.20972231959823259 -0.047742506932731688 0 0.19733586741137801 -0.070172022041258039 0 0.2137828767556553 -0.068931388751549777 0 0.2352111771673594 -0.044763693073203513 0 0.23077544846840631 -0.066945512845197605 0 0.2214731036851447 -0.054372167264227528 0 0.2352111771673594 -0.044763693073203513 0 0.23077544846840631 -0.066945512845197605 0 0.24136188534573441 -0.05752807780087827 0 0.2352111771673594 -0.044763693073203513 0 0.23077544846840631 -0.066945512845197605 0 0.25002621826855981 -0.068739235795218789 0 0.25759959138121291 -0.043614638356919297 0 0.24136188534573441 -0.05752807780087827 0 0.25759959138121291 -0.043614638356919297 0 0.24136188534573441 -0.05752807780087827 0 0.2352111771673594 -0.044763693073203513 0 0.25759959138121291 -0.043614638356919297 0 0.2352111771673594 -0.044763693073203513 0 0.24956736139890351 -0.030837517079297161 0 0.2352111771673594 -0.044763693073203513 0 0.24956736139890351 -0.030837517079297161 0 0.2396469058663124 -0.022581873301209521 0 0.2352111771673594 -0.044763693073203513 0 0.2396469058663124 -0.022581873301209521 0 0.2214731036851447 -0.054372167264227528 0 0.2352111771673594 -0.044763693073203513 0 0.22037954314699179 -0.032908021301097948 0 0.2352111771673594 -0.044763693073203513 0 0.22037954314699179 -0.032908021301097948 0 0.2396469058663124 -0.022581873301209521 0 0.22037954314699179 -0.032908021301097948 0 0.2396469058663124 -0.022581873301209521 0 0.2261694047138573 -0.013235765593690749 0 0.21039000402715999 -0.0160493812847111 0 0.22037954314699179 -0.032908021301097948 0 0.2261694047138573 -0.013235765593690749 0 0.25080229761055728 -0.017245066800580459 0 0.24956736139890351 -0.030837517079297161 0 0.2396469058663124 -0.022581873301209521 0 0.25080229761055728 -0.017245066800580459 0 0.2396469058663124 -0.022581873301209521 0 0.24021195748739579 -0.0094468855104940328 0 0.2396469058663124 -0.022581873301209521 0 0.24021195748739579 -0.0094468855104940328 0 0.2261694047138573 -0.013235765593690749 0 0.25080229761055728 -0.017245066800580459 0 0.25045753469988208 -0.0069632004254019291 0 0.24021195748739579 -0.0094468855104940328 0 0.24397708060534851 0.00076903392350891183 0 0.25045753469988208 -0.0069632004254019291 0 0.24021195748739579 -0.0094468855104940328 0 0.24397708060534851 0.00076903392350891183 0 0.23161248302967111 0.001740318802090361 0 0.24021195748739579 -0.0094468855104940328 0 0.23161248302967111 0.001740318802090361 0 0.24021195748739579 -0.0094468855104940328 0 0.2261694047138573 -0.013235765593690749 0 0.23161248302967111 0.001740318802090361 0 0.21656024508351429 -0.0014627478743725779 0 0.2261694047138573 -0.013235765593690749 0 0.21570864099168621 -0.1053299941376815 0 0.21784343391307801 -0.090120270570367866 0 0.22190399107050041 -0.111309152389186 0 0.21013414248700249 -0.1011680807924706 0 0.21144397339837931 -0.1112518695313892 0 0.19659745207935631 -0.1059476065056621 0 0.21013414248700249 -0.1011680807924706 0 0.19659745207935631 -0.1059476065056621 0 0.2064773429243151 -0.092492151734124076 0 0.21013414248700249 -0.1011680807924706 0 0.2064773429243151 -0.092492151734124076 0 0.21784343391307801 -0.090120270570367866 0 0.21013414248700249 -0.1011680807924706 0 0.21570864099168621 -0.1053299941376815 0 0.21784343391307801 -0.090120270570367866 0 0.21013414248700249 -0.1011680807924706 0 0.21570864099168621 -0.1053299941376815 0 0.21144397339837931 -0.1112518695313892 0 0.21570864099168621 -0.1053299941376815 0 0.2166524563073573 -0.1122004373913431 0 0.22190399107050041 -0.111309152389186 0 0.2166524563073573 -0.1122004373913431 0 0.2132356293105617 -0.1171316282187321 0 0.22097004676565901 -0.11597954267972679 0 0.2166524563073573 -0.1122004373913431 0 0.2132356293105617 -0.1171316282187321 0 0.21144397339837931 -0.1112518695313892 0 0.21570864099168621 -0.1053299941376815 0 0.2166524563073573 -0.1122004373913431 0 0.21144397339837931 -0.1112518695313892 0 0.2132356293105617 -0.1171316282187321 0 0.22097004676565901 -0.11597954267972679 0 0.21255794736014069 -0.12663118270418269 0 0.2132356293105617 -0.1171316282187321 0 0.2039885149391589 -0.1189949487733676 0 0.21255794736014069 -0.12663118270418269 0 0.21144397339837931 -0.1112518695313892 0 0.2039885149391589 -0.1189949487733676 0 0.19659745207935631 -0.1059476065056621 0 0.2132356293105617 -0.1171316282187321 0 0.21144397339837931 -0.1112518695313892 0 0.2039885149391589 -0.1189949487733676 0 0.2039885149391589 -0.1189949487733676 0 0.19138583502893591 -0.1213435105547989 0 0.19659745207935631 -0.1059476065056621 0 0.2039885149391589 -0.1189949487733676 0 0.19138583502893591 -0.1213435105547989 0 0.19862612310711461 -0.1317112587831771 0 0.19659745207935631 -0.1059476065056621 0 0.19726309413592291 -0.087629407035175452 0 0.2064773429243151 -0.092492151734124076 0 0.17749694734942539 -0.090705731813508744 0 0.19659745207935631 -0.1059476065056621 0 0.19726309413592291 -0.087629407035175452 0 0.17749694734942539 -0.090705731813508744 0 0.19726309413592291 -0.087629407035175452 0 0.19733586741137801 -0.070172022041258039 0 0.19726309413592291 -0.087629407035175452 0 0.19733586741137801 -0.070172022041258039 0 0.20696978067242319 -0.081275987401866978 0 0.19733586741137801 -0.070172022041258039 0 0.2137828767556553 -0.068931388751549777 0 0.20696978067242319 -0.081275987401866978 0 0.2137828767556553 -0.068931388751549777 0 0.21784343391307801 -0.090120270570367866 0 0.2137828767556553 -0.068931388751549777 0 0.20696978067242319 -0.081275987401866978 0 0.21784343391307801 -0.090120270570367866 0 0.2137828767556553 -0.068931388751549777 0 0.21784343391307801 -0.090120270570367866 0 0.22333728634068531 -0.076992512677373268 0 0.2064773429243151 -0.092492151734124076 0 0.20696978067242319 -0.081275987401866978 0 0.21784343391307801 -0.090120270570367866 0 0.19726309413592291 -0.087629407035175452 0 0.2064773429243151 -0.092492151734124076 0 0.20696978067242319 -0.081275987401866978 0 0.22633971976945319 -0.089127332617191773 0 0.23077544846840631 -0.066945512845197605 0 0.2378088336772588 -0.079886407700366091 0 0.21784343391307801 -0.090120270570367866 0 0.22633971976945319 -0.089127332617191773 0 0.22333728634068531 -0.076992512677373268 0 0.22633971976945319 -0.089127332617191773 0 0.23431391704629939 -0.092515032310852063 0 0.2378088336772588 -0.079886407700366091 0 0.2214731036851447 -0.054372167264227528 0 0.2137828767556553 -0.068931388751549777 0 0.23077544846840631 -0.066945512845197605 0 0.2137828767556553 -0.068931388751549777 0 0.23077544846840631 -0.066945512845197605 0 0.22333728634068531 -0.076992512677373268 0 0.22633971976945319 -0.089127332617191773 0 0.23077544846840631 -0.066945512845197605 0 0.22333728634068531 -0.076992512677373268 0 0.22633971976945319 -0.089127332617191773 0 0.23077544846840631 -0.066945512845197605 0 0.25002621826855981 -0.068739235795218789 0 0.23077544846840631 -0.066945512845197605 0 0.2378088336772588 -0.079886407700366091 0 0.25002621826855981 -0.068739235795218789 0 0.24136188534573441 -0.05752807780087827 0 0.23077544846840631 -0.066945512845197605 0 0.25002621826855981 -0.068739235795218789 0 0.2378088336772588 -0.079886407700366091 0 0.24245284515590679 -0.093863833233518226 0 0.25002621826855981 -0.068739235795218789 0 0.24245284515590679 -0.093863833233518226 0 0.23431391704629939 -0.092515032310852063 0 0.2378088336772588 -0.079886407700366091 0 0.24245284515590679 -0.093863833233518226 0 0.24994483656663891 -0.1061256540670502 0 0.24245284515590679 -0.093863833233518226 0 0.2339780929486403 -0.1010322325967288 0 0.24994483656663891 -0.1061256540670502 0 0.2339780929486403 -0.1010322325967288 0 0.2335071758686158 -0.11517993464928521 0 0.23431391704629939 -0.092515032310852063 0 0.24245284515590679 -0.093863833233518226 0 0.2339780929486403 -0.1010322325967288 0 0.22633971976945319 -0.089127332617191773 0 0.22190399107050041 -0.111309152389186 0 0.22633971976945319 -0.089127332617191773 0 0.23431391704629939 -0.092515032310852063 0 0.2339780929486403 -0.1010322325967288 0 0.21784343391307801 -0.090120270570367866 0 0.22190399107050041 -0.111309152389186 0 0.21784343391307801 -0.090120270570367866 0 0.22633971976945319 -0.089127332617191773 0 0.22190399107050041 -0.111309152389186 0 0.22633971976945319 -0.089127332617191773 0 0.22893224491430239 -0.1041621630630979 0 0.22190399107050041 -0.111309152389186 0 0.22633971976945319 -0.089127332617191773 0 0.2339780929486403 -0.1010322325967288 0 0.22893224491430239 -0.1041621630630979 0 0.2339780929486403 -0.1010322325967288 0 0.22893224491430239 -0.1041621630630979 0 0.2335071758686158 -0.11517993464928521 0 0.22190399107050041 -0.111309152389186 0 0.2268981998881294 -0.13737003426146571 0 0.22190399107050041 -0.111309152389186 0 0.2335071758686158 -0.11517993464928521 0 0.2268981998881294 -0.13737003426146571 0 0.22097004676565901 -0.11597954267972679 0 0.22190399107050041 -0.111309152389186 0 0.2268981998881294 -0.13737003426146571 0 0.22097004676565901 -0.11597954267972679 0 0.22190399107050041 -0.111309152389186 0 0.2166524563073573 -0.1122004373913431 0 0.22097004676565901 -0.11597954267972679 0 0.22190399107050041 -0.111309152389186 0 0.22893224491430239 -0.1041621630630979 0 0.22190399107050041 -0.111309152389186 0 0.2335071758686158 -0.11517993464928521 0 0.24994483656663891 -0.1061256540670502 0 0.2335071758686158 -0.11517993464928521 0 0.24393906892098721 -0.1259442153439837 0 0.25104821782774878 -0.14859720022468589 0 0.24393906892098721 -0.1259442153439837 0 0.2268981998881294 -0.13737003426146571 0 0.2335071758686158 -0.11517993464928521 0 0.24393906892098721 -0.1259442153439837 0 0.2268981998881294 -0.13737003426146571 0 0.25104821782774878 -0.14859720022468589 0 0.2268981998881294 -0.13737003426146571 0 0.22588792112452069 -0.158261803707263 0 0.2268981998881294 -0.13737003426146571 0 0.21070140072767859 -0.14465742971993031 0 0.22588792112452069 -0.158261803707263 0 0.22097004676565901 -0.11597954267972679 0 0.2268981998881294 -0.13737003426146571 0 0.21255794736014069 -0.12663118270418269 0 0.21255794736014069 -0.12663118270418269 0 0.21070140072767859 -0.14465742971993031 0 0.19862612310711461 -0.1317112587831771 0 0.2268981998881294 -0.13737003426146571 0 0.21255794736014069 -0.12663118270418269 0 0.21070140072767859 -0.14465742971993031 0 0.2039885149391589 -0.1189949487733676 0 0.21255794736014069 -0.12663118270418269 0 0.19862612310711461 -0.1317112587831771 0 0.21070140072767859 -0.14465742971993031 0 0.20558619352398311 -0.16191365466849689 0 0.22588792112452069 -0.158261803707263 0 0.21070140072767859 -0.14465742971993031 0 0.18962019940288891 -0.15045128478814049 0 0.19862612310711461 -0.1317112587831771 0 0.21070140072767859 -0.14465742971993031 0 0.18962019940288891 -0.15045128478814049 0 0.20558619352398311 -0.16191365466849689 0 0.18962019940288891 -0.15045128478814049 0 0.19862612310711461 -0.1317112587831771 0 0.18424225032122571 -0.13274986993923751 0 0.19138583502893591 -0.1213435105547989 0 0.19862612310711461 -0.1317112587831771 0 0.18424225032122571 -0.13274986993923751 0 0.19844551481459011 -0.17766395994849291 0 0.204840610072478 -0.1906952716276783 0 0.18682334290056579 -0.1938995760758298 0 0.19844551481459011 -0.17766395994849291 0 0.18682334290056579 -0.1938995760758298 0 0.18622226823145849 -0.17654026285207799 0 0.19844551481459011 -0.17766395994849291 0 0.1918067818582877 -0.16709156701430419 0 0.18622226823145849 -0.17654026285207799 0 0.19844551481459011 -0.17766395994849291 0 0.1918067818582877 -0.16709156701430419 0 0.20558619352398311 -0.16191365466849689 0 0.18962019940288891 -0.15045128478814049 0 0.1918067818582877 -0.16709156701430419 0 0.20558619352398311 -0.16191365466849689 0 0.20558619352398311 -0.16191365466849689 0 0.21770793907096461 -0.1762863575797434 0 0.22588792112452069 -0.158261803707263 0 0.19844551481459011 -0.17766395994849291 0 0.21770793907096461 -0.1762863575797434 0 0.204840610072478 -0.1906952716276783 0 0.19844551481459011 -0.17766395994849291 0 0.20558619352398311 -0.16191365466849689 0 0.21770793907096461 -0.1762863575797434 0 0.21770793907096461 -0.1762863575797434 0 0.2320284086568489 -0.1888186033206114 0 0.204840610072478 -0.1906952716276783 0 0.21770793907096461 -0.1762863575797434 0 0.23969257354154719 -0.1738158023373102 0 0.2320284086568489 -0.1888186033206114 0 0.21770793907096461 -0.1762863575797434 0 0.22588792112452069 -0.158261803707263 0 0.23969257354154719 -0.1738158023373102 0 0.25104821782774878 -0.14859720022468589 0 0.22588792112452069 -0.158261803707263 0 0.23969257354154719 -0.1738158023373102 0 0.25104821782774878 -0.14859720022468589 0 0.23969257354154719 -0.1738158023373102 0 0.25921620724121969 -0.18694193501354439 0 0.23969257354154719 -0.1738158023373102 0 0.2320284086568489 -0.1888186033206114 0 0.25921620724121969 -0.18694193501354439 0 0.24867434555772169 -0.2037098839959397 0 0.2320284086568489 -0.1888186033206114 0 0.24867434555772169 -0.2037098839959397 0 0.22548881427983311 -0.20299321023550551 0 0.2320284086568489 -0.1888186033206114 0 0.25921620724121969 -0.18694193501354439 0 0.2320284086568489 -0.1888186033206114 0 0.25646648418805063 -0.22785476341040739 0 0.24867434555772169 -0.2037098839959397 0 0.23325210375888911 -0.21653636763221479 0 0.24867434555772169 -0.2037098839959397 0 0.23325210375888911 -0.21653636763221479 0 0.22548881427983311 -0.20299321023550551 0 0.23325210375888911 -0.21653636763221479 0 0.22548881427983311 -0.20299321023550551 0 0.21003772332972739 -0.20521797185402241 0 0.23325210375888911 -0.21653636763221479 0 0.21003772332972739 -0.20521797185402241 0 0.23325210375888911 -0.21653636763221479 0 0.21605597658921419 -0.2216184454327573 0 0.21003772332972739 -0.20521797185402241 0 0.22548881427983311 -0.20299321023550551 0 0.2320284086568489 -0.1888186033206114 0 0.204840610072478 -0.1906952716276783 0 0.25646648418805063 -0.22785476341040739 0 0.23325210375888911 -0.21653636763221479 0 0.25646648418805063 -0.22785476341040739 0 0.23325210375888911 -0.21653636763221479 0 0.24172280262944201 -0.23911909159452521 0 0.23325210375888911 -0.21653636763221479 0 0.2210057349904386 -0.23788311283172689 0 0.21605597658921419 -0.2216184454327573 0 0.23325210375888911 -0.21653636763221479 0 0.24172280262944201 -0.23911909159452521 0 0.2210057349904386 -0.23788311283172689 0 0.23617547327348351 -0.25594095147207307 0 0.24172280262944201 -0.23911909159452521 0 0.2210057349904386 -0.23788311283172689 0 0.21820320670320331 -0.25994355100239708 0 0.2210057349904386 -0.23788311283172689 0 0.1984659880394421 -0.24764077805753781 0 0.2210057349904386 -0.23788311283172689 0 0.1999283442778016 -0.22683632941306511 0 0.1984659880394421 -0.24764077805753781 0 0.2210057349904386 -0.23788311283172689 0 0.21605597658921419 -0.2216184454327573 0 0.1999283442778016 -0.22683632941306511 0 0.1999283442778016 -0.22683632941306511 0 0.1929626229280389 -0.2107736271758886 0 0.17713847726003351 -0.22089257044357671 0 0.1999283442778016 -0.22683632941306511 0 0.1984659880394421 -0.24764077805753781 0 0.18416516364632021 -0.23794677239095949 0 0.2320284086568489 -0.1888186033206114 0 0.204840610072478 -0.1906952716276783 0 0.22548881427983311 -0.20299321023550551 0 0.204840610072478 -0.1906952716276783 0 0.21003772332972739 -0.20521797185402241 0 0.21605597658921419 -0.2216184454327573 0 0.1999283442778016 -0.22683632941306511 0 0.21003772332972739 -0.20521797185402241 0 0.1999283442778016 -0.22683632941306511 0 0.21003772332972739 -0.20521797185402241 0 0.1929626229280389 -0.2107736271758886 0 0.21003772332972739 -0.20521797185402241 0 0.1929626229280389 -0.2107736271758886 0 0.18682334290056579 -0.1938995760758298 0 0.204840610072478 -0.1906952716276783 0 0.21003772332972739 -0.20521797185402241 0 0.18682334290056579 -0.1938995760758298 0 0.21003772332972739 -0.20521797185402241 0 0.18682334290056579 -0.1938995760758298 0 0.18682334290056579 -0.1938995760758298 0 0.16360896247140391 -0.18258118029763781 0 0.18682334290056579 -0.1938995760758298 0 0.17635844977043799 -0.20613222935960199 0 0.16152333926516629 -0.19637854320699821 0 0.1929626229280389 -0.2107736271758886 0 0.18682334290056579 -0.1938995760758298 0 0.17635844977043799 -0.20613222935960199 0 0.1929626229280389 -0.2107736271758886 0 0.17635844977043799 -0.20613222935960199 0 0.17713847726003351 -0.22089257044357671 0 0.17635844977043799 -0.20613222935960199 0 0.16363132769942099 -0.21152817818670319 0 0.17713847726003351 -0.22089257044357671 0 0.17635844977043799 -0.20613222935960199 0 0.16363132769942099 -0.21152817818670319 0 0.16152333926516629 -0.19637854320699821 0 0.16363132769942099 -0.21152817818670319 0 0.16152333926516629 -0.19637854320699821 0 0.148483735791789 -0.2069684000971887 0 0.18682334290056579 -0.1938995760758298 0 0.16152333926516629 -0.19637854320699821 0 0.16360896247140391 -0.18258118029763781 0 0.16152333926516629 -0.19637854320699821 0 0.15614274270559569 -0.1842089318231788 0 0.16360896247140391 -0.18258118029763781 0 0.16152333926516629 -0.19637854320699821 0 0.16360896247140391 -0.18258118029763781 0 0.17509037416051099 -0.25355722264805808 0 0.18416516364632021 -0.23794677239095949 0 0.17106436602920319 -0.23741014010495559 0 0.17509037416051099 -0.25355722264805808 0 0.1984659880394421 -0.24764077805753781 0 0.18416516364632021 -0.23794677239095949 0 0.18416516364632021 -0.23794677239095949 0 0.17713847726003351 -0.22089257044357671 0 0.17106436602920319 -0.23741014010495559 0 0.1999283442778016 -0.22683632941306511 0 0.18416516364632021 -0.23794677239095949 0 0.17713847726003351 -0.22089257044357671 0 0.16363132769942099 -0.21152817818670319 0 0.16444782227514751 -0.22800957282444989 0 0.15452460871643711 -0.21753498908677121 0 0.16363132769942099 -0.21152817818670319 0 0.17713847726003351 -0.22089257044357671 0 0.16444782227514751 -0.22800957282444989 0 0.17713847726003351 -0.22089257044357671 0 0.16444782227514751 -0.22800957282444989 0 0.17106436602920319 -0.23741014010495559 0 0.17509037416051099 -0.25355722264805808 0 0.17106436602920319 -0.23741014010495559 0 0.15620345587478421 -0.23985091964252669 0 0.16444782227514751 -0.22800957282444989 0 0.17106436602920319 -0.23741014010495559 0 0.15620345587478421 -0.23985091964252669 0 0.14646117842628659 -0.25326064310199847 0 0.14676453921249469 -0.243718526500803 0 0.13904891830873781 -0.24801723404172771 0 0.14676453921249469 -0.243718526500803 0 0.1402908058599289 -0.24141474322696449 0 0.13904891830873781 -0.24801723404172771 0 0.14646117842628659 -0.25326064310199847 0 0.14676453921249469 -0.243718526500803 0 0.15620345587478421 -0.23985091964252669 0 0.14676453921249469 -0.243718526500803 0 0.15620345587478421 -0.23985091964252669 0 0.14291814197653949 -0.2312566826044152 0 0.14676453921249469 -0.243718526500803 0 0.14291814197653949 -0.2312566826044152 0 0.1402908058599289 -0.24141474322696449 0 0.16444782227514751 -0.22800957282444989 0 0.15620345587478421 -0.23985091964252669 0 0.14291814197653949 -0.2312566826044152 0 0.16444782227514751 -0.22800957282444989 0 0.14291814197653949 -0.2312566826044152 0 0.15452460871643711 -0.21753498908677121 0 0.14291814197653949 -0.2312566826044152 0 0.14427676975492071 -0.2191623367736111 0 0.15452460871643711 -0.21753498908677121 0 0.12198520600478829 -0.22024484094270749 0 0.12944578641563309 -0.24542694242380381 0 0.14291814197653949 -0.2312566826044152 0 0.1323274781045381 -0.21950090468917591 0 0.13141095930705879 -0.2421169414711894 0 0.12198520600478829 -0.22024484094270749 0 0.1323274781045381 -0.21950090468917591 0 0.13141095930705879 -0.2421169414711894 0 0.1323274781045381 -0.21950090468917591 0 0.13141095930705879 -0.2421169414711894 0 0.14291814197653949 -0.2312566826044152 0 0.14427676975492071 -0.2191623367736111 0 0.1323274781045381 -0.21950090468917591 0 0.12198520600478829 -0.22024484094270749 0 0.13141095930705879 -0.2421169414711894 0 0.12944578641563309 -0.24542694242380381 0 0.14291814197653949 -0.2312566826044152 0 0.1402908058599289 -0.24141474322696449 0 0.13141095930705879 -0.2421169414711894 0 0.1402908058599289 -0.24141474322696449 0 0.13141095930705879 -0.2421169414711894 0 0.13904891830873781 -0.24801723404172771 0 0.13141095930705879 -0.2421169414711894 0 0.12944578641563309 -0.24542694242380381 0 0.13904891830873781 -0.24801723404172771 0 0.12944578641563309 -0.24542694242380381 0 0.13904891830873781 -0.24801723404172771 0 0.15086229478207111 -0.189732597485327 0 0.13324399690201749 -0.1968848679071625 0 0.1437807265885393 -0.18154660115605409 0 0.15086229478207111 -0.189732597485327 0 0.148483735791789 -0.2069684000971887 0 0.13324399690201749 -0.1968848679071625 0 0.16152333926516629 -0.19637854320699821 0 0.15086229478207111 -0.189732597485327 0 0.148483735791789 -0.2069684000971887 0 0.16152333926516629 -0.19637854320699821 0 0.15086229478207111 -0.189732597485327 0 0.15614274270559569 -0.1842089318231788 0 0.14427676975492071 -0.2191623367736111 0 0.1323274781045381 -0.21950090468917591 0 0.148483735791789 -0.2069684000971887 0 0.16363132769942099 -0.21152817818670319 0 0.148483735791789 -0.2069684000971887 0 0.15452460871643711 -0.21753498908677121 0 0.14427676975492071 -0.2191623367736111 0 0.148483735791789 -0.2069684000971887 0 0.15452460871643711 -0.21753498908677121 0 0.1323274781045381 -0.21950090468917591 0 0.148483735791789 -0.2069684000971887 0 0.13324399690201749 -0.1968848679071625 0 0.1323274781045381 -0.21950090468917591 0 0.13324399690201749 -0.1968848679071625 0 0.11700302096417151 -0.2088944707406378 0 0.1323274781045381 -0.21950090468917591 0 0.13324399690201749 -0.1968848679071625 0 0.11866445213751201 -0.1761215583406342 0 0.13324399690201749 -0.1968848679071625 0 0.13416051569949869 -0.17426883112514921 0 0.13324399690201749 -0.1968848679071625 0 0.13416051569949869 -0.17426883112514921 0 0.1437807265885393 -0.18154660115605409 0 0.13324399690201749 -0.1968848679071625 0 0.13416051569949869 -0.17426883112514921 0 0.11866445213751201 -0.1761215583406342 0 0.13416051569949869 -0.17426883112514921 0 0.14979556254706139 -0.17239948690789181 0 0.15282684090440429 -0.1773242526102376 0 0.16543060939462401 -0.17053014269063341 0 0.13416051569949869 -0.17426883112514921 0 0.1437807265885393 -0.18154660115605409 0 0.14979556254706139 -0.17239948690789181 0 0.13416051569949869 -0.17426883112514921 0 0.14979556254706139 -0.17239948690789181 0 0.1437807265885393 -0.18154660115605409 0 0.14979556254706139 -0.17239948690789181 0 0.15282684090440429 -0.1773242526102376 0 0.15086229478207111 -0.189732597485327 0 0.15282684090440429 -0.1773242526102376 0 0.15614274270559569 -0.1842089318231788 0 0.15086229478207111 -0.189732597485327 0 0.1437807265885393 -0.18154660115605409 0 0.15282684090440429 -0.1773242526102376 0 0.13416051569949869 -0.17426883112514921 0 0.14979556254706139 -0.17239948690789181 0 0.1457241762758418 -0.16178852969151719 0 0.1457241762758418 -0.16178852969151719 0 0.15181053025608951 -0.150469075799325 0 0.15645966279950771 -0.159865474643276 0 0.14979556254706139 -0.17239948690789181 0 0.1457241762758418 -0.16178852969151719 0 0.15645966279950771 -0.159865474643276 0 0.1216498976553972 -0.16278532909297319 0 0.13416051569949869 -0.17426883112514921 0 0.13519100098590339 -0.14884055490780301 0 0.13416051569949869 -0.17426883112514921 0 0.1457241762758418 -0.16178852969151719 0 0.13519100098590339 -0.14884055490780301 0 0.13416051569949869 -0.17426883112514921 0 0.13519100098590339 -0.14884055490780301 0 0.1194960029087308 -0.12911457695895751 0 0.139669502064318 -0.1160510743186111 0 0.15186406329806909 -0.13344742645604471 0 0.1194960029087308 -0.12911457695895751 0 0.13519100098590339 -0.14884055490780301 0 0.15186406329806909 -0.13344742645604471 0 0.1457241762758418 -0.16178852969151719 0 0.13519100098590339 -0.14884055490780301 0 0.15181053025608951 -0.150469075799325 0 0.13519100098590339 -0.14884055490780301 0 0.15186406329806909 -0.13344742645604471 0 0.15181053025608951 -0.150469075799325 0 0.15181053025608951 -0.150469075799325 0 0.16945272204622311 -0.1439220057315917 0 0.15645966279950771 -0.159865474643276 0 0.15186406329806909 -0.13344742645604471 0 0.15181053025608951 -0.150469075799325 0 0.16945272204622311 -0.1439220057315917 0 0.17347483469782421 -0.11731386877255021 0 0.16945272204622311 -0.1439220057315917 0 0.17347483469782421 -0.11731386877255021 0 0.15186406329806909 -0.13344742645604471 0 0.16945272204622311 -0.1439220057315917 0 0.17347483469782421 -0.11731386877255021 0 0.16945272204622311 -0.1439220057315917 0 0.18424225032122571 -0.13274986993923751 0 0.18962019940288891 -0.15045128478814049 0 0.16945272204622311 -0.1439220057315917 0 0.17915973331851801 -0.16888867281431269 0 0.18962019940288891 -0.15045128478814049 0 0.16945272204622311 -0.1439220057315917 0 0.18424225032122571 -0.13274986993923751 0 0.18962019940288891 -0.15045128478814049 0 0.1918067818582877 -0.16709156701430419 0 0.17915973331851801 -0.16888867281431269 0 0.17915973331851801 -0.16888867281431269 0 0.16543060939462401 -0.17053014269063341 0 0.1918067818582877 -0.16709156701430419 0 0.17915973331851801 -0.16888867281431269 0 0.18622226823145849 -0.17654026285207799 0 0.18682334290056579 -0.1938995760758298 0 0.17605273392950899 -0.17903882961346421 0 0.16360896247140391 -0.18258118029763781 0 0.17915973331851801 -0.16888867281431269 0 0.18622226823145849 -0.17654026285207799 0 0.17605273392950899 -0.17903882961346421 0 0.18682334290056579 -0.1938995760758298 0 0.18622226823145849 -0.17654026285207799 0 0.17605273392950899 -0.17903882961346421 0 0.17915973331851801 -0.16888867281431269 0 0.17605273392950899 -0.17903882961346421 0 0.16543060939462401 -0.17053014269063341 0 0.17605273392950899 -0.17903882961346421 0 0.16360896247140391 -0.18258118029763781 0 0.16543060939462401 -0.17053014269063341 0 0.16360896247140391 -0.18258118029763781 0 0.16543060939462401 -0.17053014269063341 0 0.15282684090440429 -0.1773242526102376 0 0.16360896247140391 -0.18258118029763781 0 0.15282684090440429 -0.1773242526102376 0 0.15614274270559569 -0.1842089318231788 0 0.16360896247140391 -0.18258118029763781 0 0.15282684090440429 -0.1773242526102376 0 0.16360896247140391 -0.18258118029763781 0 0.16543060939462401 -0.17053014269063341 0 0.16945272204622311 -0.1439220057315917 0 0.16543060939462401 -0.17053014269063341 0 0.14979556254706139 -0.17239948690789181 0 0.15645966279950771 -0.159865474643276 0 0.16543060939462401 -0.17053014269063341 0 0.16945272204622311 -0.1439220057315917 0 0.15645966279950771 -0.159865474643276 0 0.16543060939462401 -0.17053014269063341 0 0.14979556254706139 -0.17239948690789181 0 0.16543060939462401 -0.17053014269063341 0 0.16945272204622311 -0.1439220057315917 0 0.17915973331851801 -0.16888867281431269 0 0.16543060939462401 -0.17053014269063341 0 
</DataArray>
</Points>
<Cells>
<DataArray type="UInt32" Name="connectivity" format="ascii">
0 1 2 3 4 5 6 7 8 9 10 11 12 13 14 15 16 17 18 19 20 21 22 23 24 25 26 27 28 29 30 31 32 33 34 35 36 37 38 39 40 41 42 43 44 45 46 47 48 49 50 51 52 53 54 55 56 57 58 59 60 61 62 63 64 65 66 67 68 69 70 71 72 73 74 75 76 77 78 79 80 81 82 83 84 85 86 87 88 89 90 91 92 93 94 95 96 97 98 99 100 101 102 103 104 105 106 107 108 109 110 111 112 113 114 115 116 117 118 119 120 121 122 123 124 125 126 127 128 129 130 131 132 133 134 135 136 137 138 139 140 141 142 143 144 145 146 147 148 149 150 151 152 153 154 155 156 157 158 159 160 161 162 163 164 165 166 167 168 169 170 171 172 173 174 175 176 177 178 179 180 181 182 183 184 185 186 187 188 189 190 191 192 193 194 195 196 197 198 199 200 201 202 203 204 205 206 207 208 209 210 211 212 213 214 215 216 217 218 219 220 221 222 223 224 225 226 227 228 229 230 231 232 233 234 235 236 237 238 239 240 241 242 243 244 245 246 247 248 249 250 251 252 253 254 255 256 257 258 259 260 261 262 263 264 265 266 267 268 269 270 271 272 273 274 275 276 277 278 279 280 281 282 283 284 285 286 287 288 289 290 291 292 293 294 295 296 297 298 299 300 301 302 303 304 305 306 307 308 309 310 311 312 313 314 315 316 317 318 319 320 321 322 323 324 325 326 327 328 329 330 331 332 333 334 335 336 337 338 339 340 341 342 343 344 345 346 347 348 349 350 351 352 353 354 355 356 357 358 359 360 361 362 363 364 365 366 367 368 369 370 371 372 373 374 375 376 377 378 379 380 381 382 383 384 385 386 387 388 389 390 391 392 393 394 395 396 397 398 399 400 401 402 403 404 405 406 407 408 409 410 411 412 413 414 415 416 417 418 419 420 421 422 423 424 425 426 427 428 429 430 431 432 433 434 435 436 437 438 439 440 441 442 443 444 445 446 447 448 449 450 451 452 453 454 455 456 457 458 459 460 461 462 463 464 465 466 467 468 469 470 471 472 473 474 475 476 477 478 479 480 481 482 483 484 485 486 487 488 489 490 491 492 493 494 495 496 497 498 499 500 501 502 503 504 505 506 507 508 509 510 511 512 513 514 515 516 517 518 519 520 521 522 523 524 525 526 527 528 529 530 531 532 533 534 535 536 537 538 539 540 541 542 543 544 545 546 547 548 549 550 551 552 553 554 555 556 557 558 559 560 561 562 563 564 565 566 567 568 569 570 571 572 573 574 575 576 577 578 579 580 581 582 583 584 585 586 587 588 589 590 591 592 593 594 595 596 597 598 599 600 601 602 603 604 605 606 607 608 609 610 611 612 613 614 615 616 617 618 619 620 621 622 623 624 625 626 627 628 629 630 631 632 633 634 635 636 637 638 639 640 641 642 643 644 645 646 647 648 649 650 651 652 653 654 655 656 657 658 659 660 661 662 663 664 665 666 667 668 669 670 671 672 673 674 675 676 677 678 679 680 681 682 683 684 685 686 687 688 689 690 691 692 693 694 695 696 697 698 699 700 701 702 703 704 705 706 707 708 709 710 711 712 713 714 715 716 717 718 719 720 721 722 723 724 725 726 727 728 729 730 731 732 733 734 735 736 737 738 739 740 741 742 743 744 745 746 747 748 749 750 751 752 753 754 755 756 757 758 759 760 761 762 763 764 765 766 767 768 769 770 771 772 773 774 775 776 777 778 779 780 781 782 783 784 785 786 787 788 789 790 791 792 793 794 795 796 797 798 799 800 801 802 803 804 805 806 807 808 809 810 811 812 813 814 815 816 817 818 819 820 821 822 823 824 825 826 827 828 829 830 831 832 833 834 835 836 837 838 839 840 841 842 843 844 845 846 847 848 849 850 851 852 853 854 855 856 857 858 859 860 861 862 863 864 865 866 867 868 869 870 871 872 873 874 875 876 877 878 879 880 881 882 883 884 885 886 887 888 889 890 891 892 893 894 895 896 897 898 899 900 901 902 903 904 905 906 907 908 909 910 911 912 913 914 915 916 917 918 919 920 921 922 923 924 925 926 927 928 929 930 931 932 933 934 935 936 937 938 939 940 941 942 943 944 945 946 947 948 949 950 951 952 953 954 955 956 957 958 959 960 961 962 963 964 965 966 967 968 969 970 971 972 973 974 975 976 977 978 979 980 981 982 983 984 985 986 987 988 989 990 991 992 993 994 995 996 997 998 999 1000 1001 1002 1003 1004 1005 1006 1007 1008 1009 1010 1011 1012 1013 1014 1015 1016 1017 1018 1019 1020 1021 1022 1023 1024 1025 1026 1027 1028 1029 1030 1031 1032 1033 1034 1035 1036 1037 1038 1039 1040 1041 1042 1043 1044 1045 1046 1047 1048 1049 1050 1051 1052 1053 1054 1055 1056 1057 1058 1059 1060 1061 1062 1063 1064 1065 1066 1067 1068 1069 1070 1071 1072 1073 1074 1075 1076 1077 1078 1079 1080 1081 1082 1083 1084 1085 1086 1087 1088 1089 1090 1091 1092 1093 1094 1095 1096 1097 1098 1099 1100 1101 1102 1103 1104 1105 1106 1107 1108 1109 1110 1111 1112 1113 1114 1115 1116 1117 1118 1119 1120 1121 1122 1123 1124 1125 1126 1127 1128 1129 1130 1131 1132 1133 1134 1135 1136 1137 1138 1139 1140 1141 1142 1143 1144 1145 1146 1147 1148 1149 1150 1151 1152 1153 1154 1155 1156 1157 1158 1159 1160 1161 1162 1163 1164 1165 1166 1167 1168 1169 1170 1171 1172 1173 1174 1175 1176 1177 1178 1179 1180 1181 1182 1183 1184 1185 1186 1187 1188 1189 1190 1191 1192 1193 1194 1195 1196 1197 1198 1199 1200 1201 1202 1203 1204 1205 1206 1207 1208 1209 1210 1211 1212 1213 1214 1215 1216 1217 1218 1219 1220 1221 1222 1223 1224 1225 1226 1227 1228 1229 1230 1231 1232 1233 1234 1235 1236 1237 1238 1239 1240 1241 1242 1243 1244 1245 1246 1247 1248 1249 1250 1251 1252 1253 1254 1255 1256 1257 1258 1259 1260 1261 1262 1263 1264 1265 1266 1267 1268 1269 1270 1271 1272 1273 1274 1275 1276 1277 1278 1279 1280 1281 1282 1283 1284 1285 1286 1287 1288 1289 1290 1291 1292 1293 1294 1295 1296 1297 1298 1299 1300 1301 1302 1303 1304 1305 1306 1307 1308 1309 1310 1311 1312 1313 1314 1315 1316 1317 1318 1319 1320 1321 1322 1323 1324 1325 1326 1327 1328 1329 1330 1331 1332 1333 1334 1335 1336 1337 1338 1339 1340 1341 1342 1343 1344 1345 1346 1347 1348 1349 1350 1351 1352 1353 1354 1355 1356 1357 1358 1359 1360 1361 1362 1363 1364 1365 1366 1367 1368 1369 1370 1371 1372 1373 1374 1375 1376 1377 1378 1379 1380 1381 1382 1383 1384 1385 1386 1387 1388 1389 1390 1391 1392 1393 1394 1395 1396 1397 1398 1399 1400 1401 1402 1403 1404 1405 1406 1407 1408 1409 1410 1411 1412 1413 1414 1415 1416 1417 1418 1419 1420 1421 1422 1423 1424 1425 1426 1427 1428 1429 1430 1431 1432 1433 1434 1435 1436 1437 1438 1439 1440 1441 1442 1443 1444 1445 1446 1447 1448 1449 1450 1451 1452 1453 1454 1455 1456 1457 1458 1459 1460 1461 1462 1463 1464 1465 1466 1467 1468 1469 1470 1471 1472 1473 1474 1475 1476 1477 1478 1479 1480 1481 1482 1483 1484 1485 1486 1487 1488 1489 1490 1491 1492 1493 1494 1495 1496 1497 1498 1499 1500 1501 1502 1503 1504 1505 1506 1507 1508 1509 1510 1511 1512 1513 1514 1515 1516 1517 1518 1519 1520 1521 1522 1523 1524 1525 1526 1527 1528 1529 1530 1531 1532 1533 1534 1535 1536 1537 1538 1539 1540 1541 1542 1543 1544 1545 1546 1547 1548 1549 1550 1551 1552 1553 1554 1555 1556 1557 1558 1559 1560 1561 1562 1563 1564 1565 1566 1567 1568 1569 1570 1571 1572 1573 1574 1575 1576 1577 1578 1579 1580 1581 1582 1583 1584 1585 1586 1587 1588 1589 1590 1591 1592 1593 1594 1595 1596 1597 1598 1599 1600 1601 1602 1603 1604 1605 1606 1607 1608 1609 1610 1611 1612 1613 1614 1615 1616 1617 1618 1619 1620 1621 1622 1623 1624 1625 1626 1627 1628 1629 1630 1631 1632 1633 1634 1635 1636 1637 1638 1639 1640 1641 1642 1643 1644 1645 1646 1647 1648 1649 1650 1651 1652 1653 1654 1655 1656 1657 1658 1659 1660 1661 1662 1663 1664 1665 1666 1667 1668 1669 1670 1671 1672 1673 1674 1675 1676 1677 1678 1679 1680 1681 1682 1683 1684 1685 1686 1687 1688 1689 1690 1691 1692 1693 1694 1695 1696 1697 1698 1699 1700 1701 1702 1703 1704 1705 1706 1707 1708 1709 1710 1711 1712 1713 1714 1715 1716 1717 1718 1719 1720 1721 1722 1723 1724 1725 1726 1727 1728 1729 1730 1731 1732 1733 1734 1735 1736 1737 1738 1739 1740 1741 1742 1743 1744 1745 1746 1747 1748 1749 1750 1751 1752 1753 1754 1755 1756 1757 1758 1759 1760 1761 1762 1763 1764 1765 1766 1767 1768 1769 1770 1771 1772 1773 1774 1775 1776 1777 1778 1779 1780 1781 1782 1783 1784 1785 1786 1787 1788 1789 1790 1791 1792 1793 1794 1795 1796 1797 1798 1799 1800 1801 1802 1803 1804 1805 1806 1807 1808 1809 1810 1811 1812 1813 1814 1815 1816 1817 1818 1819 1820 1821 1822 1823 1824 1825 1826 1827 1828 1829 1830 1831 1832 1833 1834 1835 1836 1837 1838 1839 1840 1841 1842 1843 1844 1845 1846 1847 1848 1849 1850 1851 1852 1853 1854 1855 1856 1857 1858 1859 1860 1861 1862 1863 1864 1865 1866 1867 1868 1869 1870 1871 1872 1873 1874 1875 1876 1877 1878 1879 1880 1881 1882 1883 1884 1885 1886 1887 1888 1889 1890 1891 1892 1893 1894 1895 1896 1897 1898 1899 1900 1901 1902 1903 1904 1905 1906 1907 1908 1909 1910 1911 1912 1913 1914 1915 1916 1917 1918 1919 1920 1921 1922 1923 1924 1925 1926 1927 1928 1929 1930 1931 1932 1933 1934 1935 1936 1937 1938 1939 1940 1941 1942 1943 1944 1945 1946 1947 1948 1949 1950 1951 1952 1953 1954 1955 1956 1957 1958 1959 1960 1961 1962 1963 1964 1965 1966 1967 1968 1969 1970 1971 1972 1973 1974 1975 1976 1977 1978 1979 1980 1981 1982 1983 1984 1985 1986 1987 1988 1989 1990 1991 1992 1993 1994 1995 1996 1997 1998 1999 2000 2001 2002 2003 2004 2005 2006 2007 2008 2009 2010 2011 2012 2013 2014 2015 2016 2017 2018 2019 2020 2021 2022 2023 2024 2025 2026 2027 2028 2029 2030 2031 2032 2033 2034 2035 2036 2037 2038 2039 2040 2041 2042 2043 2044 2045 2046 2047 2048 2049 2050 2051 2052 2053 2054 2055 2056 2057 2058 2059 2060 2061 2062 2063 2064 2065 2066 2067 2068 2069 2070 2071 2072 2073 2074 2075 2076 2077 2078 2079 2080 2081 2082 2083 2084 2085 2086 2087 2088 2089 2090 2091 2092 2093 2094 2095 2096 2097 2098 2099 2100 2101 2102 2103 2104 2105 2106 2107 2108 2109 2110 2111 2112 2113 2114 2115 2116 2117 2118 2119 2120 2121 2122 2123 2124 2125 2126 2127 2128 2129 2130 2131 2132 2133 2134 2135 2136 2137 2138 2139 2140 2141 2142 2143 2144 2145 2146 2147 2148 2149 2150 2151 2152 2153 2154 2155 2156 2157 2158 2159 2160 2161 2162 2163 2164 2165 2166 2167 2168 2169 2170 2171 2172 2173 2174 2175 2176 2177 2178 2179 2180 2181 2182 2183 2184 2185 2186 2187 2188 2189 2190 2191 2192 2193 2194 2195 2196 2197 2198 2199 2200 2201 2202 2203 2204 2205 2206 2207 2208 2209 2210 2211 2212 2213 2214 2215 2216 2217 2218 2219 2220 2221 2222 2223 2224 2225 2226 2227 2228 2229 2230 2231 2232 2233 2234 2235 2236 2237 2238 2239 2240 2241 2242 2243 2244 2245 2246 2247 2248 2249 2250 2251 2252 2253 2254 2255 2256 2257 2258 2259 2260 2261 2262 2263 2264 2265 2266 2267 2268 2269 2270 2271 2272 2273 2274 2275 2276 2277 2278 2279 2280 2281 2282 2283 2284 2285 2286 2287 2288 2289 2290 2291 2292 2293 2294 2295 2296 2297 2298 2299 2300 2301 2302 2303 2304 2305 2306 2307 2308 2309 2310 2311 2312 2313 2314 2315 2316 2317 2318 2319 2320 2321 2322 2323 2324 2325 2326 2327 2328 2329 2330 2331 2332 2333 2334 2335 2336 2337 2338 2339 2340 2341 2342 2343 2344 2345 2346 2347 2348 2349 2350 2351 2352 2353 2354 2355 2356 2357 2358 2359 2360 2361 2362 2363 2364 2365 2366 2367 2368 2369 2370 2371 2372 2373 2374 2375 2376 2377 2378 2379 2380 2381 2382 2383 2384 2385 2386 2387 2388 2389 2390 2391 2392 2393 2394 2395 2396 2397 2398 2399 2400 2401 2402 2403 2404 2405 2406 2407 2408 2409 2410 2411 2412 2413 2414 2415 2416 2417 2418 2419 2420 2421 2422 2423 2424 2425 2426 2427 2428 2429 2430 2431 2432 2433 2434 2435 2436 2437 2438 2439 2440 2441 2442 2443 2444 2445 2446 2447 2448 2449 2450 2451 2452 2453 2454 2455 2456 2457 2458 2459 2460 2461 2462 2463 2464 2465 2466 2467 2468 2469 2470 2471 2472 2473 2474 2475 2476 2477 2478 2479 2480 2481 2482 2483 2484 2485 2486 2487 2488 2489 2490 2491 2492 2493 2494 2495 2496 2497 2498 2499 2500 2501 2502 2503 2504 2505 2506 2507 2508 2509 2510 2511 2512 2513 2514 2515 2516 2517 2518 2519 2520 2521 2522 2523 2524 2525 2526 2527 2528 2529 2530 2531 2532 2533 2534 2535 2536 2537 2538 2539 2540 2541 2542 2543 2544 2545 2546 2547 2548 2549 2550 2551 2552 2553 2554 2555 2556 2557 2558 2559 2560 2561 2562 2563 2564 2565 2566 2567 2568 2569 2570 2571 2572 2573 2574 2575 2576 2577 2578 2579 2580 2581 2582 2583 2584 2585 2586 2587 2588 2589 2590 2591 2592 2593 2594 2595 2596 2597 2598 2599 2600 2601 2602 2603 2604 2605 2606 2607 2608 2609 2610 2611 2612 2613 2614 2615 2616 2617 2618 2619 2620 2621 2622 2623 2624 2625 2626 2627 2628 2629 2630 2631 2632 2633 2634 2635 2636 2637 2638 2639 2640 2641 2642 2643 2644 2645 2646 2647 2648 2649 2650 2651 2652 2653 2654 2655 2656 2657 2658 2659 2660 2661 2662 2663 2664 2665 2666 2667 2668 2669 2670 2671 2672 2673 2674 2675 2676 2677 2678 2679 2680 2681 2682 2683 2684 2685 2686 2687 2688 2689 2690 2691 2692 2693 2694 2695 2696 2697 2698 2699 2700 2701 2702 2703 2704 2705 2706 2707 2708 2709 2710 2711 2712 2713 2714 2715 2716 2717 2718 2719 2720 2721 2722 2723 2724 2725 2726 2727 2728 2729 2730 2731 2732 2733 2734 2735 2736 2737 2738 2739 2740 2741 2742 2743 2744 2745 2746 2747 2748 2749 2750 2751 2752 2753 2754 2755 2756 2757 2758 2759 2760 2761 2762 2763 2764 2765 2766 2767 2768 2769 2770 2771 2772 2773 2774 2775 2776 2777 2778 2779 2780 2781 2782 2783 2784 2785 2786 2787 2788 2789 2790 2791 2792 2793 2794 2795 2796 2797 2798 2799 2800 2801 2802 2803 2804 2805 2806 2807 2808 2809 2810 2811 2812 2813 2814 2815 2816 2817 2818 2819 2820 2821 2822 2823 2824 2825 2826 2827 2828 2829 2830 2831 2832 2833 2834 2835 2836 2837 2838 2839 2840 2841 2842 2843 2844 2845 2846 2847 2848 2849 2850 2851 2852 2853 2854 2855 2856 2857 2858 2859 2860 2861 2862 2863 2864 2865 2866 2867 2868 2869 2870 2871 2872 2873 2874 2875 2876 2877 2878 2879 2880 2881 2882 2883 2884 2885 2886 2887 2888 2889 2890 2891 2892 2893 2894 2895 2896 2897 2898 2899 2900 2901 2902 2903 2904 2905 2906 2907 2908 2909 2910 2911 2912 2913 2914 2915 2916 2917 2918 2919 2920 2921 2922 2923 2924 2925 2926 2927 2928 2929 2930 2931 2932 2933 2934 2935 2936 2937 2938 2939 2940 2941 2942 2943 2944 2945 2946 2947 2948 2949 2950 2951 2952 2953 2954 2955 2956 2957 2958 2959 2960 2961 2962 2963 2964 2965 2966 2967 2968 2969 2970 2971 2972 2973 2974 2975 2976 2977 2978 2979 2980 2981 2982 2983 2984 2985 2986 2987 2988 2989 2990 2991 2992 2993 2994 2995 2996 2997 2998 2999 3000 3001 3002 3003 3004 3005 3006 3007 3008 3009 3010 3011 3012 3013 3014 3015 3016 3017 3018 3019 3020 3021 3022 3023 3024 3025 3026 3027 3028 3029 3030 3031 3032 3033 3034 3035 3036 3037 3038 3039 3040 3041 3042 3043 3044 3045 3046 3047 3048 3049 3050 3051 3052 3053 3054 3055 3056 3057 3058 3059 3060 3061 3062 3063 3064 3065 3066 3067 3068 3069 3070 3071 3072 3073 3074 3075 3076 3077 3078 3079 3080 3081 3082 3083 3084 3085 3086 3087 3088 3089 3090 3091 3092 3093 3094 3095 3096 3097 3098 3099 3100 3101 3102 3103 3104 3105 3106 3107 3108 3109 3110 3111 3112 3113 3114 3115 3116 3117 3118 3119 3120 3121 3122 3123 3124 3125 3126 3127 3128 3129 3130 3131 3132 3133 3134 3135 3136 3137 3138 3139 3140 3141 3142 3143 3144 3145 3146 3147 3148 3149 3150 3151 3152 3153 3154 3155 3156 3157 3158 3159 3160 3161 3162 3163 3164 3165 3166 3167 3168 3169 3170 3171 3172 3173 3174 3175 3176 3177 3178 3179 3180 3181 3182 3183 3184 3185 3186 3187 3188 3189 3190 3191 3192 3193 3194 3195 3196 3197 3198 3199 3200 3201 3202 3203 3204 3205 3206 3207 3208 3209 3210 3211 3212 3213 3214 3215 3216 3217 3218 3219 3220 3221 3222 3223 3224 3225 3226 3227 3228 3229 3230 3231 3232 3233 3234 3235 3236 3237 3238 3239 3240 3241 3242 3243 3244 3245 3246 3247 3248 3249 3250 3251 3252 3253 3254 3255 3256 3257 3258 3259 3260 3261 3262 3263 3264 3265 3266 3267 3268 3269 3270 3271 3272 3273 3274 3275 3276 3277 3278 3279 3280 3281 3282 3283 3284 3285 3286 3287 3288 3289 3290 3291 3292 3293 3294 3295 3296 3297 3298 3299 3300 3301 3302 3303 3304 3305 3306 3307 3308 3309 3310 3311 3312 3313 3314 3315 3316 3317 3318 3319 3320 3321 3322 3323 3324 3325 3326 3327 3328 3329 3330 3331 3332 3333 3334 3335 3336 3337 3338 3339 3340 3341 3342 3343 3344 3345 3346 3347 3348 3349 3350 3351 3352 3353 3354 3355 3356 3357 3358 3359 3360 3361 3362 3363 3364 3365 3366 3367 3368 3369 3370 3371 3372 3373 3374 3375 3376 3377 3378 3379 3380 3381 3382 3383 3384 3385 3386 3387 3388 3389 3390 3391 3392 3393 3394 3395 3396 3397 3398 3399 3400 3401 3402 3403 3404 3405 3406 3407 3408 3409 3410 3411 3412 3413 3414 3415 3416 3417 3418 3419 3420 3421 3422 3423 3424 3425 3426 3427 3428 3429 3430 3431 3432 3433 3434 3435 3436 3437 3438 3439 3440 3441 3442 3443 3444 3445 3446 3447 3448 3449 3450 3451 3452 3453 3454 3455 3456 3457 3458 3459 3460 3461 3462 3463 3464 3465 3466 3467 3468 3469 3470 3471 3472 3473 3474 3475 3476 3477 3478 3479 3480 3481 3482 3483 3484 3485 3486 3487 3488 3489 3490 3491 3492 3493 3494 3495 3496 3497 3498 3499 3500 3501 3502 3503 3504 3505 3506 3507 3508 3509 3510 3511 3512 3513 3514 3515 3516 3517 3518 3519 3520 3521 3522 3523 3524 3525 3526 3527 3528 3529 3530 3531 3532 3533 3534 3535 3536 3537 3538 3539 3540 3541 3542 3543 3544 3545 3546 3547 3548 3549 3550 3551 3552 3553 3554 3555 3556 3557 3558 3559 3560 3561 3562 3563 3564 3565 3566 3567 3568 3569 3570 3571 3572 3573 3574 3575 3576 3577 3578 3579 3580 3581 3582 3583 3584 3585 3586 3587 3588 3589 3590 3591 3592 3593 3594 3595 3596 3597 3598 3599 3600 3601 3602 3603 3604 3605 3606 3607 3608 3609 3610 3611 3612 3613 3614 3615 3616 3617 3618 3619 3620 3621 3622 3623 3624 3625 3626 3627 3628 3629 3630 3631 3632 3633 3634 3635 3636 3637 3638 3639 3640 3641 3642 3643 3644 3645 3646 3647 3648 3649 3650 3651 3652 3653 3654 3655 3656 3657 3658 3659 3660 3661 3662 3663 3664 3665 3666 3667 3668 3669 3670 3671 3672 3673 3674 3675 3676 3677 3678 3679 3680 3681 3682 3683 3684 3685 3686 3687 3688 3689 3690 3691 3692 3693 3694 3695 3696 3697 3698 3699 3700 3701 3702 3703 3704 3705 3706 3707 3708 3709 3710 3711 3712 3713 3714 3715 3716 3717 3718 3719 3720 3721 3722 3723 3724 3725 3726 3727 3728 3729 3730 3731 3732 3733 3734 3735 3736 3737 3738 3739 3740 3741 3742 3743 3744 3745 3746 3747 3748 3749 3750 3751 3752 3753 3754 3755 3756 3757 3758 3759 3760 3761 3762 3763 3764 3765 3766 3767 3768 3769 3770 3771 3772 3773 3774 3775 3776 3777 3778 3779 3780 3781 3782 3783 3784 3785 3786 3787 3788 3789 3790 3791 3792 3793 3794 3795 3796 3797 3798 3799 3800 3801 3802 3803 3804 3805 3806 3807 3808 3809 3810 3811 3812 3813 3814 3815 3816 3817 3818 3819 3820 3821 3822 3823 3824 3825 3826 3827 3828 3829 3830 3831 3832 3833 3834 3835 3836 3837 3838 3839 3840 3841 3842 3843 3844 3845 3846 3847 3848 3849 3850 3851 3852 3853 3854 3855 3856 3857 3858 3859 3860 3861 3862 3863 3864 3865 3866 3867 3868 3869 3870 3871 3872 3873 3874 3875 3876 3877 3878 3879 3880 3881 3882 3883 3884 3885 3886 3887 3888 3889 3890 3891 3892 3893 3894 3895 3896 3897 3898 3899 3900 3901 3902 3903 3904 3905 3906 3907 3908 3909 3910 3911 3912 3913 3914 3915 3916 3917 3918 3919 3920 3921 3922 3923 3924 3925 3926 3927 3928 3929 3930 3931 3932 3933 3934 3935 3936 3937 3938 3939 3940 3941 3942 3943 3944 3945 3946 3947 3948 3949 3950 3951 3952 3953 3954 3955 3956 3957 3958 3959 3960 3961 3962 3963 3964 3965 3966 3967 3968 3969 3970 3971 3972 3973 3974 3975 3976 3977 3978 3979 3980 3981 3982 3983 3984 3985 3986 3987 3988 3989 3990 3991 3992 3993 3994 3995 3996 3997 3998 3999 4000 4001 4002 4003 4004 4005 4006 4007 4008 4009 4010 4011 4012 4013 4014 4015 4016 4017 4018 4019 4020 4021 4022 4023 4024 4025 4026 4027 4028 4029 4030 4031 4032 4033 4034 4035 4036 4037 4038 4039 4040 4041 4042 4043 4044 4045 4046 4047 4048 4049 4050 4051 4052 4053 4054 4055 4056 4057 4058 4059 4060 4061 4062 4063 4064 4065 4066 4067 4068 4069 4070 4071 4072 4073 4074 4075 4076 4077 4078 4079 4080 4081 4082 4083 4084 4085 4086 4087 4088 4089 4090 4091 4092 4093 4094 4095 4096 4097 4098 4099 4100 4101 4102 4103 4104 4105 4106 4107 4108 4109 4110 4111 4112 4113 4114 4115 4116 4117 4118 4119 4120 4121 4122 4123 4124 4125 4126 4127 4128 4129 4130 4131 4132 4133 4134 4135 4136 4137 4138 4139 4140 4141 4142 4143 4144 4145 4146 4147 4148 4149 4150 4151 4152 4153 4154 4155 4156 4157 4158 4159 4160 4161 4162 4163 4164 4165 4166 4167 4168 4169 4170 4171 4172 4173 4174 4175 4176 4177 4178 4179 4180 4181 4182 4183 4184 4185 4186 4187 4188 4189 4190 4191 4192 4193 4194 4195 4196 4197 4198 4199 4200 4201 4202 4203 4204 4205 4206 4207 4208 4209 4210 4211 4212 4213 4214 4215 4216 4217 4218 4219 4220 4221 4222 4223 4224 4225 4226 4227 4228 4229 4230 4231 4232 4233 4234 4235 4236 4237 4238 4239 4240 4241 4242 4243 4244 4245 4246 4247 4248 4249 4250 4251 4252 4253 4254 4255 4256 4257 4258 4259 4260 4261 4262 4263 4264 4265 4266 4267 4268 4269 4270 4271 4272 4273 4274 4275 4276 4277 4278 4279 4280 4281 4282 4283 4284 4285 4286 4287 4288 4289 4290 4291 4292 4293 4294 4295 4296 4297 4298 4299 4300 4301 4302 4303 4304 4305 4306 4307 4308 4309 4310 4311 4312 4313 4314 4315 4316 4317 4318 4319 4320 4321 4322 4323 4324 4325 4326 4327 4328 4329 4330 4331 4332 4333 4334 4335 4336 4337 4338 4339 4340 4341 4342 4343 4344 4345 4346 4347 4348 4349 4350 4351 4352 4353 4354 4355 4356 4357 4358 4359 4360 4361 4362 4363 4364 4365 4366 4367 4368 4369 4370 4371 4372 4373 4374 4375 4376 4377 4378 4379 4380 4381 4382 4383 4384 4385 4386 4387 4388 4389 4390 4391 4392 4393 4394 4395 4396 4397 4398 4399 4400 4401 4402 4403 4404 4405 4406 4407 4408 4409 4410 4411 4412 4413 4414 4415 4416 4417 4418 4419 4420 4421 4422 4423 4424 4425 4426 4427 4428 4429 4430 4431 4432 4433 4434 4435 4436 4437 4438 4439 4440 4441 4442 4443 4444 4445 4446 4447 4448 4449 4450 4451 4452 4453 4454 4455 4456 4457 4458 4459 4460 4461 4462 4463 4464 4465 4466 4467 4468 4469 4470 4471 4472 4473 4474 4475 4476 4477 4478 4479 4480 4481 4482 4483 4484 4485 4486 4487 4488 4489 4490 4491 4492 4493 4494 4495 4496 4497 4498 4499 4500 4501 4502 4503 4504 4505 4506 4507 4508 4509 4510 4511 4512 4513 4514 4515 4516 4517 4518 4519 4520 4521 4522 4523 4524 4525 4526 4527 4528 4529 4530 4531 4532 4533 4534 4535 4536 4537 4538 4539 4540 4541 4542 4543 4544 4545 4546 4547 4548 4549 4550 4551 4552 4553 4554 4555 4556 4557 4558 4559 4560 4561 4562 4563 4564 4565 4566 4567 4568 4569 4570 4571 4572 4573 4574 4575 4576 4577 4578 4579 4580 4581 4582 4583 4584 4585 4586 4587 4588 4589 4590 4591 4592 4593 4594 4595 4596 4597 4598 4599 4600 4601 4602 4603 4604 4605 4606 4607 4608 4609 4610 4611 4612 4613 4614 4615 4616 4617 4618 4619 4620 4621 4622 4623 4624 4625 4626 4627 4628 4629 4630 4631 4632 4633 4634 4635 4636 4637 4638 4639 4640 4641 4642 4643 4644 4645 4646 4647 4648 4649 4650 4651 4652 4653 4654 4655 4656 4657 4658 4659 4660 4661 4662 4663 4664 4665 4666 4667 4668 4669 4670 4671 4672 4673 4674 4675 4676 4677 4678 4679 4680 4681 4682 4683 4684 4685 4686 4687 4688 4689 4690 4691 4692 4693 4694 4695 4696 4697 4698 4699 4700 4701 4702 4703 4704 4705 4706 4707 4708 4709 4710 4711 4712 4713 4714 4715 4716 4717 4718 4719 4720 4721 4722 4723 4724 4725 4726 4727 4728 4729 4730 4731 4732 4733 4734 4735 4736 4737 4738 4739 4740 4741 4742 4743 4744 4745 4746 4747 4748 4749 4750 4751 4752 4753 4754 4755 4756 4757 4758 4759 4760 4761 4762 4763 4764 4765 4766 4767 4768 4769 4770 4771 4772 4773 4774 4775 4776 4777 4778 4779 4780 4781 4782 4783 4784 4785 4786 4787 4788 4789 4790 4791 4792 4793 4794 4795 4796 4797 4798 4799 4800 4801 4802 4803 4804 4805 4806 4807 4808 4809 4810 4811 4812 4813 4814 4815 4816 4817 4818 4819 4820 4821 4822 4823 4824 4825 4826 4827 4828 4829 4830 4831 4832 4833 4834 4835 4836 4837 4838 4839 4840 4841 4842 4843 4844 4845 4846 4847 4848 4849 4850 4851 4852 4853 4854 4855 4856 4857 4858 4859 4860 4861 4862 4863 4864 4865 4866 4867 4868 4869 4870 4871 4872 4873 4874 4875 4876 4877 4878 4879 4880 4881 4882 4883 4884 4885 4886 4887 4888 4889 4890 4891 4892 4893 4894 4895 4896 4897 4898 4899 4900 4901 4902 4903 4904 4905 4906 4907 4908 4909 4910 4911 4912 4913 4914 4915 4916 4917 4918 4919 4920 4921 4922 4923 4924 4925 4926 4927 4928 4929 4930 4931 4932 4933 4934 4935 4936 4937 4938 4939 4940 4941 4942 4943 4944 4945 4946 4947 4948 4949 4950 4951 4952 4953 4954 4955 4956 4957 4958 4959 4960 4961 4962 4963 4964 4965 4966 4967 4968 4969 4970 4971 4972 4973 4974 4975 4976 4977 4978 4979 4980 4981 4982 4983 4984 4985 4986 4987 4988 4989 4990 4991 4992 4993 4994 4995 4996 4997 4998 4999 5000 5001 5002 5003 5004 5005 5006 5007 5008 5009 5010 5011 5012 5013 5014 5015 5016 5017 5018 5019 5020 5021 5022 5023 5024 5025 5026 5027 5028 5029 5030 5031 5032 5033 5034 5035 5036 5037 5038 5039 5040 5041 5042 5043 5044 5045 5046 5047 5048 5049 5050 5051 5052 5053 5054 5055 5056 5057 5058 5059 5060 5061 5062 5063 5064 5065 5066 5067 5068 5069 5070 5071 5072 5073 5074 5075 5076 5077 5078 5079 5080 5081 5082 5083 5084 5085 5086 5087 5088 5089 5090 5091 5092 5093 5094 5095 5096 5097 5098 5099 5100 5101 5102 5103 5104 5105 5106 5107 5108 5109 5110 5111 5112 5113 5114 5115 5116 5117 5118 5119 5120 5121 5122 5123 5124 5125 5126 5127 5128 5129 5130 5131 5132 5133 5134 5135 5136 5137 5138 5139 5140 5141 5142 5143 5144 5145 5146 5147 5148 5149 5150 5151 5152 5153 5154 5155 5156 5157 5158 5159 5160 5161 5162 5163 5164 5165 5166 5167 5168 5169 5170 5171 5172 5173 5174 5175 5176 5177 5178 5179 5180 5181 5182 5183 5184 5185 5186 5187 5188 5189 5190 5191 5192 5193 5194 5195 5196 5197 5198 5199 5200 5201 5202 5203 5204 5205 5206 5207 5208 5209 5210 5211 5212 5213 5214 5215 5216 5217 5218 5219 5220 5221 5222 5223 5224 5225 5226 5227 5228 5229 5230 5231 5232 5233 5234 5235 5236 5237 5238 5239 5240 5241 5242 5243 5244 5245 5246 5247 5248 5249 5250 5251 5252 5253 5254 5255 5256 5257 5258 5259 5260 5261 5262 5263 5264 5265 5266 5267 5268 5269 5270 5271 5272 5273 5274 5275 5276 5277 5278 5279 5280 5281 5282 5283 5284 5285 5286 5287 5288 5289 5290 5291 5292 5293 5294 5295 5296 5297 5298 5299 5300 5301 5302 5303 5304 5305 5306 5307 5308 5309 5310 5311 5312 5313 5314 5315 5316 5317 5318 5319 5320 5321 5322 5323 5324 5325 5326 5327 5328 5329 5330 5331 5332 5333 5334 5335 5336 5337 5338 5339 5340 5341 5342 5343 5344 5345 5346 5347 5348 5349 5350 5351 5352 5353 5354 5355 5356 5357 5358 5359 5360 5361 5362 5363 5364 5365 5366 5367 5368 5369 5370 5371 5372 5373 5374 5375 5376 5377 5378 5379 5380 5381 5382 5383 5384 5385 5386 5387 5388 5389 5390 5391 5392 5393 5394 5395 5396 5397 5398 5399 5400 5401 5402 5403 5404 5405 5406 5407 5408 5409 5410 5411 5412 5413 5414 5415 5416 5417 5418 5419 5420 5421 5422 5423 5424 5425 5426 5427 5428 5429 5430 5431 5432 5433 5434 5435 5436 5437 5438 5439 5440 5441 5442 5443 5444 5445 5446 5447 5448 5449 5450 5451 5452 5453 5454 5455 5456 5457 5458 5459 5460 5461 5462 5463 5464 5465 5466 5467 5468 5469 5470 5471 5472 5473 5474 5475 5476 5477 5478 5479 5480 5481 5482 5483 5484 5485 5486 5487 5488 5489 5490 5491 5492 5493 5494 5495 5496 5497 5498 5499 5500 5501 5502 5503 5504 5505 5506 5507 5508 5509 5510 5511 5512 5513 5514 5515 5516 5517 5518 5519 5520 5521 5522 5523 5524 5525 5526 5527 5528 5529 5530 5531 5532 5533 5534 5535 5536 5537 5538 5539 5540 5541 5542 5543 5544 5545 5546 5547 5548 5549 5550 5551 5552 5553 5554 5555 5556 5557 5558 5559 5560 5561 5562 5563 5564 5565 5566 5567 5568 5569 5570 5571 5572 5573 5574 5575 5576 5577 5578 5579 5580 5581 5582 5583 5584 5585 5586 5587 5588 5589 5590 5591 5592 5593 5594 5595 5596 5597 5598 5599 5600 5601 5602 5603 5604 5605 5606 5607 5608 5609 5610 5611 5612 5613 5614 5615 5616 5617 5618 5619 5620 5621 5622 5623 5624 5625 5626 5627 5628 5629 5630 5631 5632 5633 5634 5635 5636 5637 5638 5639 5640 5641 5642 5643 5644 5645 5646 5647 5648 5649 5650 5651 5652 5653 5654 5655 5656 5657 5658 5659 5660 5661 5662 5663 5664 5665 5666 5667 5668 5669 5670 5671 5672 5673 5674 5675 5676 5677 5678 5679 5680 5681 5682 5683 5684 5685 5686 5687 5688 5689 5690 5691 5692 5693 5694 5695 5696 5697 5698 5699 5700 5701 5702 5703 5704 5705 5706 5707 5708 5709 5710 5711 5712 5713 5714 5715 5716 5717 5718 5719 5720 5721 5722 5723 5724 5725 5726 5727 5728 5729 5730 5731 5732 5733 5734 5735 5736 5737 5738 5739 5740 5741 5742 5743 5744 5745 5746 5747 5748 5749 5750 5751 5752 5753 5754 5755 5756 5757 5758 5759 5760 5761 5762 5763 5764 5765 5766 5767 5768 5769 5770 5771 5772 5773 5774 5775 5776 5777 5778 5779 5780 5781 5782 5783 5784 5785 5786 5787 5788 5789 5790 5791 5792 5793 5794 5795 5796 5797 5798 5799 5800 5801 5802 5803 5804 5805 5806 5807 5808 5809 5810 5811 5812 5813 5814 5815 5816 5817 5818 5819 5820 5821 5822 5823 5824 5825 5826 5827 5828 5829 5830 5831 5832 5833 5834 5835 5836 5837 5838 5839 5840 5841 5842 5843 5844 5845 5846 5847 5848 5849 5850 5851 5852 5853 5854 5855 5856 5857 5858 5859 5860 5861 5862 5863 5864 5865 5866 5867 5868 5869 5870 5871 5872 5873 5874 5875 5876 5877 5878 5879 5880 5881 5882 5883 5884 5885 5886 5887 5888 5889 5890 5891 5892 5893 5894 5895 5896 5897 5898 5899 5900 5901 5902 5903 5904 5905 5906 5907 5908 5909 5910 5911 5912 5913 5914 5915 5916 5917 5918 5919 5920 5921 5922 5923 5924 5925 5926 5927 5928 5929 5930 5931 5932 5933 5934 5935 5936 5937 5938 5939 5940 5941 5942 5943 5944 5945 5946 5947 5948 5949 5950 5951 5952 5953 5954 5955 5956 5957 5958 5959 5960 5961 5962 5963 5964 5965 5966 5967 5968 5969 5970 5971 5972 5973 5974 5975 5976 5977 5978 5979 5980 5981 5982 5983 5984 5985 5986 5987 5988 5989 5990 5991 5992 5993 5994 5995 5996 5997 5998 5999 6000 6001 6002 6003 6004 6005 6006 6007 6008 6009 6010 6011 6012 6013 6014 6015 6016 6017 6018 6019 6020 6021 6022 6023 6024 6025 6026 6027 6028 6029 6030 6031 6032 6033 6034 6035 6036 6037 6038 6039 6040 6041 6042 6043 6044 6045 6046 6047 6048 6049 6050 6051 6052 6053 6054 6055 6056 6057 6058 6059 6060 6061 6062 6063 6064 6065 6066 6067 6068 6069 6070 6071 6072 6073 6074 6075 6076 6077 6078 6079 6080 6081 6082 6083 6084 6085 6086 6087 6088 6089 6090 6091 6092 6093 6094 6095 6096 6097 6098 6099 6100 6101 6102 6103 6104 6105 6106 6107 6108 6109 6110 6111 6112 6113 6114 6115 6116 6117 6118 6119 6120 6121 6122 6123 6124 6125 6126 6127 6128 6129 6130 6131 6132 6133 6134 6135 6136 6137 6138 6139 6140 6141 6142 6143 6144 6145 6146 6147 6148 6149 6150 6151 6152 6153 6154 6155 6156 6157 6158 6159 6160 6161 6162 6163 6164 6165 6166 6167 6168 6169 6170 6171 6172 6173 6174 6175 6176 6177 6178 6179 6180 6181 6182 6183 6184 6185 6186 6187 6188 6189 6190 6191 6192 6193 6194 6195 6196 6197 6198 6199 6200 6201 6202 6203 6204 6205 6206 6207 6208 6209 6210 6211 6212 6213 6214 6215 6216 6217 6218 6219 6220 6221 6222 6223 6224 6225 6226 6227 6228 6229 6230 6231 6232 6233 6234 6235 6236 6237 6238 6239 6240 6241 6242 6243 6244 6245 6246 6247 6248 6249 6250 6251 6252 6253 6254 6255 6256 6257 6258 6259 6260 6261 6262 6263 6264 6265 6266 6267 6268 6269 6270 6271 6272 6273 6274 6275 6276 6277 6278 6279 6280 6281 6282 6283 6284 6285 6286 6287 6288 6289 6290 6291 6292 6293 6294 6295 6296 6297 6298 6299 6300 6301 6302 6303 6304 6305 6306 6307 6308 6309 6310 6311 6312 6313 6314 6315 6316 6317 6318 6319 6320 6321 6322 6323 6324 6325 6326 6327 6328 6329 6330 6331 6332 6333 6334 6335 6336 6337 6338 6339 6340 6341 6342 6343 6344 6345 6346 6347 6348 6349 6350 6351 6352 6353 6354 6355 6356 6357 6358 6359 6360 6361 6362 6363 6364 6365 6366 6367 6368 6369 6370 6371 6372 6373 6374 6375 6376 6377 6378 6379 6380 6381 6382 6383 6384 6385 6386 6387 6388 6389 6390 6391 6392 6393 6394 6395 6396 6397 6398 6399 6400 6401 6402 6403 6404 6405 6406 6407 6408 6409 6410 6411 6412 6413 6414 6415 6416 6417 6418 6419 6420 6421 6422 6423 6424 6425 6426 6427 6428 6429 6430 6431 6432 6433 6434 6435 6436 6437 6438 6439 6440 6441 6442 6443 6444 6445 6446 6447 6448 6449 6450 6451 6452 6453 6454 6455 6456 6457 6458 6459 6460 6461 6462 6463 6464 6465 6466 6467 6468 6469 6470 6471 6472 6473 6474 6475 6476 6477 6478 6479 6480 6481 6482 6483 6484 6485 6486 6487 6488 6489 6490 6491 6492 6493 6494 6495 6496 6497 6498 6499 6500 6501 6502 6503 6504 6505 6506 6507 6508 6509 6510 6511 6512 6513 6514 6515 6516 6517 6518 6519 6520 6521 6522 6523 6524 6525 6526 6527 6528 6529 6530 6531 6532 6533 6534 6535 6536 6537 6538 6539 6540 6541 6542 6543 6544 6545 6546 6547 6548 6549 6550 6551 6552 6553 6554 6555 6556 6557 6558 6559 6560 6561 6562 6563 6564 6565 6566 6567 6568 6569 6570 6571 6572 6573 6574 6575 6576 6577 6578 6579 6580 6581 6582 6583 6584 6585 6586 6587 6588 6589 6590 6591 6592 6593 6594 6595 6596 6597 6598 6599 6600 6601 6602 6603 6604 6605 6606 6607 6608 6609 6610 6611 6612 6613 6614 6615 6616 6617 6618 6619 6620 6621 6622 6623 6624 6625 6626 6627 6628 6629 6630 6631 6632 6633 6634 6635 6636 6637 6638 6639 6640 6641 6642 6643 6644 6645 6646 6647 6648 6649 6650 6651 6652 6653 6654 6655 6656 6657 6658 6659 6660 6661 6662 6663 6664 6665 6666 6667 6668 6669 6670 6671 6672 6673 6674 6675 6676 6677 6678 6679 6680 6681 6682 6683 6684 6685 6686 6687 6688 6689 6690 6691 6692 6693 6694 6695 6696 6697 6698 6699 6700 6701 6702 6703 6704 6705 6706 6707 6708 6709 6710 6711 6712 6713 6714 6715 6716 6717 6718 6719 6720 6721 6722 6723 6724 6725 6726 6727 6728 6729 6730 6731 6732 6733 6734 6735 6736 6737 6738 6739 6740 6741 6742 6743 6744 6745 6746 6747 6748 6749 6750 6751 6752 6753 6754 6755 6756 6757 6758 6759 6760 6761 6762 6763 6764 6765 6766 6767 6768 6769 6770 6771 6772 6773 6774 6775 6776 6777 6778 6779 6780 6781 6782 6783 6784 6785 6786 6787 6788 6789 6790 6791 6792 6793 6794 6795 6796 6797 6798 6799 6800 6801 6802 6803 6804 6805 6806 6807 6808 6809 6810 6811 6812 6813 6814 6815 6816 6817 6818 6819 6820 6821 6822 6823 6824 6825 6826 6827 6828 6829 6830 6831 6832 6833 6834 6835 6836 6837 6838 6839 6840 6841 6842 6843 6844 6845 6846 6847 6848 6849 6850 6851 6852 6853 6854 6855 6856 6857 6858 6859 6860 6861 6862 6863 6864 6865 6866 6867 6868 6869 6870 6871 6872 6873 6874 6875 6876 6877 6878 6879 6880 6881 6882 6883 6884 6885 6886 6887 6888 6889 6890 6891 6892 6893 6894 6895 6896 6897 6898 6899 6900 6901 6902 6903 6904 6905 6906 6907 6908 6909 6910 6911 6912 6913 6914 6915 6916 6917 6918 6919 6920 6921 6922 6923 6924 6925 6926 6927 6928 6929 6930 6931 6932 6933 6934 6935 6936 6937 6938 6939 6940 6941 6942 6943 6944 6945 6946 6947 6948 6949 6950 6951 6952 6953 6954 6955 6956 6957 6958 6959 6960 6961 6962 6963 6964 6965 6966 6967 6968 6969 6970 6971 6972 6973 6974 6975 6976 6977 6978 6979 6980 6981 6982 6983 6984 6985 6986 6987 6988 6989 6990 6991 6992 6993 6994 6995 6996 6997 6998 6999 7000 7001 7002 7003 7004 7005 7006 7007 7008 7009 7010 7011 7012 7013 7014 7015 7016 7017 7018 7019 7020 7021 7022 7023 7024 7025 7026 7027 7028 7029 7030 7031 7032 7033 7034 7035 7036 7037 7038 7039 7040 7041 7042 7043 7044 7045 7046 7047 7048 7049 7050 7051 7052 7053 7054 7055 7056 7057 7058 7059 7060 7061 7062 7063 7064 7065 7066 7067 7068 7069 7070 7071 7072 7073 7074 7075 7076 7077 7078 7079 7080 7081 7082 7083 7084 7085 7086 7087 7088 7089 7090 7091 7092 7093 7094 7095 7096 7097 7098 7099 7100 7101 7102 7103 7104 7105 7106 7107 7108 7109 7110 7111 7112 7113 7114 7115 7116 7117 7118 7119 7120 7121 7122 7123 7124 7125 7126 7127 7128 7129 7130 7131 7132 7133 7134 7135 7136 7137 7138 7139 7140 7141 7142 7143 7144 7145 7146 7147 7148 7149 7150 7151 7152 7153 7154 7155 7156 7157 7158 7159 7160 7161 7162 7163 7164 7165 7166 7167 7168 7169 7170 7171 7172 7173 7174 7175 7176 7177 7178 7179 7180 7181 7182 7183 7184 7185 7186 7187 7188 7189 7190 7191 7192 7193 7194 7195 7196 7197 7198 7199 7200 7201 7202 7203 7204 7205 7206 7207 7208 7209 7210 7211 7212 7213 7214 7215 7216 7217 7218 7219 7220 7221 7222 7223 7224 7225 7226 7227 7228 7229 7230 7231 7232 7233 7234 7235 7236 7237 7238 7239 7240 7241 7242 7243 7244 7245 7246 7247 7248 7249 7250 7251 7252 7253 7254 7255 7256 7257 7258 7259 7260 7261 7262 7263 7264 7265 7266 7267 7268 7269 7270 7271 7272 7273 7274 7275 7276 7277 7278 7279 7280 7281 7282 7283 7284 7285 7286 7287 7288 7289 7290 7291 7292 7293 7294 7295 7296 7297 7298 7299 7300 7301 7302 7303 7304 7305 7306 7307 7308 7309 7310 7311 7312 7313 7314 7315 7316 7317 7318 7319 7320 7321 7322 7323 7324 7325 7326 7327 7328 7329 7330 7331 7332 7333 7334 7335 7336 7337 7338 7339 7340 7341 7342 7343 7344 7345 7346 7347 7348 7349 7350 7351 7352 7353 7354 7355 7356 7357 7358 7359 7360 7361 7362 7363 7364 7365 7366 7367 7368 7369 7370 7371 7372 7373 7374 7375 7376 7377 7378 7379 7380 7381 7382 7383 7384 7385 7386 7387 7388 7389 7390 7391 7392 7393 7394 7395 7396 7397 7398 7399 7400 7401 7402 7403 7404 7405 7406 7407 7408 7409 7410 7411 7412 7413 7414 7415 7416 7417 7418 7419 7420 7421 7422 7423 7424 7425 7426 7427 7428 7429 7430 7431 7432 7433 7434 7435 7436 7437 7438 7439 7440 7441 7442 7443 7444 7445 7446 7447 7448 7449 7450 7451 7452 7453 7454 7455 7456 7457 7458 7459 7460 7461 7462 7463 7464 7465 7466 7467 7468 7469 7470 7471 7472 7473 7474 7475 7476 7477 7478 7479 7480 7481 7482 7483 7484 7485 7486 7487 7488 7489 7490 7491 7492 7493 7494 7495 7496 7497 7498 7499 7500 7501 7502 7503 7504 7505 7506 7507 7508 7509 7510 7511 7512 7513 7514 7515 7516 7517 7518 7519 7520 7521 7522 7523 7524 7525 7526 7527 7528 7529 7530 7531 7532 7533 7534 7535 7536 7537 7538 7539 7540 7541 7542 7543 7544 7545 7546 7547 7548 7549 7550 7551 7552 7553 7554 7555 7556 7557 7558 7559 7560 7561 7562 7563 7564 7565 7566 7567 7568 7569 7570 7571 7572 7573 7574 7575 7576 7577 7578 7579 7580 7581 7582 7583 7584 7585 7586 7587 7588 7589 7590 7591 7592 7593 7594 7595 7596 7597 7598 7599 7600 7601 7602 7603 7604 7605 7606 7607 7608 7609 7610 7611 7612 7613 7614 7615 7616 7617 7618 7619 7620 7621 7622 7623 7624 7625 7626 7627 7628 7629 7630 7631 7632 7633 7634 7635 7636 7637 7638 7639 7640 7641 7642 7643 7644 7645 7646 7647 7648 7649 7650 7651 7652 7653 7654 7655 7656 7657 7658 7659 7660 7661 7662 7663 7664 7665 7666 7667 7668 7669 7670 7671 7672 7673 7674 7675 7676 7677 7678 7679 7680 7681 7682 7683 7684 7685 7686 7687 7688 7689 7690 7691 7692 7693 7694 7695 7696 7697 7698 7699 7700 7701 7702 7703 7704 7705 7706 7707 7708 7709 7710 7711 7712 7713 7714 7715 7716 7717 7718 7719 7720 7721 7722 7723 7724 7725 7726 7727 7728 7729 7730 7731 7732 7733 7734 7735 7736 7737 7738 7739 7740 7741 7742 7743 7744 7745 7746 7747 7748 7749 7750 7751 7752 7753 7754 7755 7756 7757 7758 7759 7760 7761 7762 7763 7764 7765 7766 7767 7768 7769 7770 7771 7772 7773 7774 7775 7776 7777 7778 7779 7780 7781 7782 7783 7784 7785 7786 7787 7788 7789 7790 7791 7792 7793 7794 7795 7796 7797 7798 7799 7800 7801 7802 7803 7804 7805 7806 7807 7808 7809 7810 7811 7812 7813 7814 7815 7816 7817 7818 7819 7820 7821 7822 7823 7824 7825 7826 7827 7828 7829 7830 7831 7832 7833 7834 7835 7836 7837 7838 7839 7840 7841 7842 7843 7844 7845 7846 7847 7848 7849 7850 7851 7852 7853 7854 7855 7856 7857 7858 7859 7860 7861 7862 7863 7864 7865 7866 7867 7868 7869 7870 7871 7872 7873 7874 7875 7876 7877 7878 7879 7880 7881 7882 7883 7884 7885 7886 7887 7888 7889 7890 7891 7892 7893 7894 7895 7896 7897 7898 7899 7900 7901 7902 7903 7904 7905 7906 7907 7908 7909 7910 7911 7912 7913 7914 7915 7916 7917 7918 7919 7920 7921 7922 7923 7924 7925 7926 7927 7928 7929 7930 7931 7932 7933 7934 7935 7936 7937 7938 7939 7940 7941 7942 7943 7944 7945 7946 7947 7948 7949 7950 7951 7952 7953 7954 7955 7956 7957 7958 7959 7960 7961 7962 7963 7964 7965 7966 7967 7968 7969 7970 7971 7972 7973 7974 7975 7976 7977 7978 7979 7980 7981 7982 7983 7984 7985 7986 7987 7988 7989 7990 7991 7992 7993 7994 7995 7996 7997 7998 7999 8000 8001 8002 8003 8004 8005 8006 8007 8008 8009 8010 8011 8012 8013 8014 8015 8016 8017 8018 8019 8020 8021 8022 8023 8024 8025 8026 8027 8028 8029 8030 8031 8032 8033 8034 8035 8036 8037 8038 8039 8040 8041 8042 8043 8044 8045 8046 8047 8048 8049 8050 8051 8052 8053 8054 8055 8056 8057 8058 8059 8060 8061 8062 8063 8064 8065 8066 8067 8068 8069 8070 8071 8072 8073 8074 8075 8076 8077 8078 8079 8080 8081 8082 8083 8084 8085 8086 8087 8088 8089 8090 8091 8092 8093 8094 8095 8096 8097 8098 8099 8100 8101 8102 8103 8104 8105 8106 8107 8108 8109 8110 8111 8112 8113 8114 8115 8116 8117 8118 8119 8120 8121 8122 8123 8124 8125 8126 8127 8128 8129 8130 8131 8132 8133 8134 8135 8136 8137 8138 8139 8140 8141 8142 8143 8144 8145 8146 8147 8148 8149 8150 8151 8152 8153 8154 8155 8156 8157 8158 8159 8160 8161 8162 8163 8164 8165 8166 8167 8168 8169 8170 8171 8172 8173 8174 8175 8176 8177 8178 8179 8180 8181 8182 8183 8184 8185 8186 8187 8188 8189 8190 8191 8192 8193 8194 8195 8196 8197 8198 8199 8200 8201 8202 8203 8204 8205 8206 8207 8208 8209 8210 8211 8212 8213 8214 8215 8216 8217 8218 8219 8220 8221 8222 8223 8224 8225 8226 8227 8228 8229 8230 8231 8232 8233 8234 8235 8236 8237 8238 8239 8240 8241 8242 8243 8244 8245 8246 8247 8248 8249 8250 8251 8252 8253 8254 8255 8256 8257 8258 8259 8260 8261 8262 8263 8264 8265 8266 8267 8268 8269 8270 8271 8272 8273 8274 8275 8276 8277 8278 8279 8280 8281 8282 8283 8284 8285 8286 8287 8288 8289 8290 8291 8292 8293 8294 8295 8296 8297 8298 8299 8300 8301 8302 8303 8304 8305 8306 8307 8308 8309 8310 8311 8312 8313 8314 8315 8316 8317 8318 8319 8320 8321 8322 8323 8324 8325 8326 8327 8328 8329 8330 8331 8332 8333 8334 8335 8336 8337 8338 8339 8340 8341 8342 8343 8344 8345 8346 8347 8348 8349 8350 8351 8352 8353 8354 8355 8356 8357 8358 8359 8360 8361 8362 8363 8364 8365 8366 8367 8368 8369 8370 8371 8372 8373 8374 8375 8376 8377 8378 8379 8380 8381 8382 8383 8384 8385 8386 8387 8388 8389 8390 8391 8392 8393 8394 8395 8396 8397 8398 8399 8400 8401 8402 8403 8404 8405 8406 8407 8408 8409 8410 8411 8412 8413 8414 8415 8416 8417 8418 8419 8420 8421 8422 8423 8424 8425 8426 8427 8428 8429 8430 8431 8432 8433 8434 8435 8436 8437 8438 8439 8440 8441 8442 8443 8444 8445 8446 8447 8448 8449 8450 8451 8452 8453 8454 8455 8456 8457 8458 8459 8460 8461 8462 8463 8464 8465 8466 8467 8468 8469 8470 8471 8472 8473 8474 8475 8476 8477 8478 8479 8480 8481 8482 8483 8484 8485 8486 8487 8488 8489 8490 8491 8492 8493 8494 8495 8496 8497 8498 8499 8500 8501 8502 8503 8504 8505 8506 8507 8508 8509 8510 8511 8512 8513 8514 8515 8516 8517 8518 8519 8520 8521 8522 8523 8524 8525 8526 8527 8528 8529 8530 8531 8532 8533 8534 8535 8536 8537 8538 8539 8540 8541 8542 8543 8544 8545 8546 8547 8548 8549 8550 8551 8552 8553 8554 8555 8556 8557 8558 8559 8560 8561 8562 8563 8564 8565 8566 8567 8568 8569 8570 8571 8572 8573 8574 8575 8576 8577 8578 8579 8580 8581 8582 8583 8584 8585 8586 8587 8588 8589 8590 8591 8592 8593 8594 8595 8596 8597 8598 8599 8600 8601 8602 8603 8604 8605 8606 8607 8608 8609 8610 8611 8612 8613 8614 8615 8616 8617 8618 8619 8620 8621 8622 8623 8624 8625 8626 8627 8628 8629 8630 8631 8632 8633 8634 8635 8636 8637 8638 8639 8640 8641 8642 8643 8644 8645 8646 8647 8648 8649 8650 8651 8652 8653 8654 8655 8656 8657 8658 8659 8660 8661 8662 8663 8664 8665 8666 8667 8668 8669 8670 8671 8672 8673 8674 8675 8676 8677 8678 8679 8680 8681 8682 8683 8684 8685 8686 8687 8688 8689 8690 8691 8692 8693 8694 8695 8696 8697 8698 8699 8700 8701 8702 8703 8704 8705 8706 8707 8708 8709 8710 8711 8712 8713 8714 8715 8716 8717 8718 8719 8720 8721 8722 8723 8724 8725 8726 8727 8728 8729 8730 8731 8732 8733 8734 8735 8736 8737 8738 8739 8740 8741 8742 8743 8744 8745 8746 8747 8748 8749 8750 8751 8752 8753 8754 8755 8756 8757 8758 8759 8760 8761 8762 8763 8764 8765 8766 8767 8768 8769 8770 8771 8772 8773 8774 8775 8776 8777 8778 8779 8780 8781 8782 8783 8784 8785 8786 8787 8788 8789 8790 8791 8792 8793 8794 8795 8796 8797 8798 8799 8800 8801 8802 8803 8804 8805 8806 8807 8808 8809 8810 8811 8812 8813 8814 8815 8816 8817 8818 8819 8820 8821 8822 8823 8824 8825 8826 8827 8828 8829 8830 8831 8832 8833 8834 8835 8836 8837 8838 8839 8840 8841 8842 8843 8844 8845 8846 8847 8848 8849 8850 8851 8852 8853 8854 8855 8856 8857 8858 8859 8860 8861 8862 8863 8864 8865 8866 8867 8868 8869 8870 8871 8872 8873 8874 8875 8876 8877 8878 8879 8880 8881 8882 8883 8884 8885 8886 8887 8888 8889 8890 8891 8892 8893 8894 8895 8896 8897 8898 8899 8900 8901 8902 8903 8904 8905 8906 8907 8908 8909 8910 8911 8912 8913 8914 8915 8916 8917 8918 8919 8920 8921 8922 8923 8924 8925 8926 8927 8928 8929 8930 8931 8932 8933 8934 8935 8936 8937 8938 8939 8940 8941 8942 8943 8944 8945 8946 8947 8948 8949 8950 8951 8952 8953 8954 8955 8956 8957 8958 8959 8960 8961 8962 8963 8964 8965 8966 8967 8968 8969 8970 8971 8972 8973 8974 8975 8976 8977 8978 8979 8980 8981 8982 8983 8984 8985 8986 8987 8988 8989 8990 8991 8992 8993 8994 8995 8996 8997 8998 8999 9000 9001 9002 9003 9004 9005 9006 9007 9008 9009 9010 9011 9012 9013 9014 9015 9016 9017 9018 9019 9020 9021 9022 9023 9024 9025 9026 9027 9028 9029 9030 9031 9032 9033 9034 9035 9036 9037 9038 9039 9040 9041 9042 9043 9044 9045 9046 9047 9048 9049 9050 9051 9052 9053 9054 9055 9056 9057 9058 9059 9060 9061 9062 9063 9064 9065 9066 9067 9068 9069 9070 9071 9072 9073 9074 9075 9076 9077 9078 9079 9080 9081 9082 9083 9084 9085 9086 9087 9088 9089 9090 9091 9092 9093 9094 9095 9096 9097 9098 9099 9100 9101 9102 9103 9104 9105 9106 9107 9108 9109 9110 9111 9112 9113 9114 9115 9116 9117 9118 9119 9120 9121 9122 9123 9124 9125 9126 9127 9128 9129 9130 9131 9132 9133 9134 9135 9136 9137 9138 9139 9140 9141 9142 9143 9144 9145 9146 9147 9148 9149 9150 9151 9152 9153 9154 9155 9156 9157 9158 9159 9160 9161 9162 9163 9164 9165 9166 9167 9168 9169 9170 9171 9172 9173 9174 9175 9176 9177 9178 9179 9180 9181 9182 9183 9184 9185 9186 9187 9188 9189 9190 9191 9192 9193 9194 9195 9196 9197 9198 9199 9200 9201 9202 9203 9204 9205 9206 9207 9208 9209 9210 9211 9212 9213 9214 9215 9216 9217 9218 9219 9220 9221 9222 9223 9224 9225 9226 9227 9228 9229 9230 9231 9232 9233 9234 9235 9236 9237 9238 9239 9240 9241 9242 9243 9244 9245 9246 9247 9248 9249 9250 9251 9252 9253 9254 9255 9256 9257 9258 9259 9260 9261 9262 9263 9264 9265 9266 9267 9268 9269 9270 9271 9272 9273 9274 9275 9276 9277 9278 9279 9280 9281 9282 9283 9284 9285 9286 9287 9288 9289 9290 9291 9292 9293 9294 9295 9296 9297 9298 9299 9300 9301 9302 9303 9304 9305 9306 9307 9308 9309 9310 9311 9312 9313 9314 9315 9316 9317 9318 9319 9320 9321 9322 9323 9324 9325 9326 9327 9328 9329 9330 9331 9332 9333 9334 9335 9336 9337 9338 9339 9340 9341 9342 9343 9344 9345 9346 9347 9348 9349 9350 9351 9352 9353 9354 9355 9356 9357 9358 9359 9360 9361 9362 9363 9364 9365 9366 9367 9368 9369 9370 9371 9372 9373 9374 9375 9376 9377 9378 9379 9380 9381 9382 9383 9384 9385 9386 9387 9388 9389 9390 9391 9392 9393 9394 9395 9396 9397 9398 9399 9400 9401 9402 9403 9404 9405 9406 9407 9408 9409 9410 9411 9412 9413 9414 9415 9416 9417 9418 9419 9420 9421 9422 9423 9424 9425 9426 9427 9428 9429 9430 9431 9432 9433 9434 9435 9436 9437 9438 9439 9440 9441 9442 9443 9444 9445 9446 9447 9448 9449 9450 9451 9452 9453 9454 9455 9456 9457 9458 9459 9460 9461 9462 9463 9464 9465 9466 9467 9468 9469 9470 9471 9472 9473 9474 9475 9476 9477 9478 9479 9480 9481 9482 9483 9484 9485 9486 9487 9488 9489 9490 9491 9492 9493 9494 9495 9496 9497 9498 9499 9500 9501 9502 9503 9504 9505 9506 9507 9508 9509 9510 9511 9512 9513 9514 9515 9516 9517 9518 9519 9520 9521 9522 9523 9524 9525 9526 9527 9528 9529 9530 9531 9532 9533 9534 9535 9536 9537 9538 9539 9540 9541 9542 9543 9544 9545 9546 9547 9548 9549 9550 9551 9552 9553 9554 9555 9556 9557 9558 9559 9560 9561 9562 9563 9564 9565 9566 9567 9568 9569 9570 9571 9572 9573 9574 9575 9576 9577 9578 9579 9580 9581 9582 9583 9584 9585 9586 9587 9588 9589 9590 9591 9592 9593 9594 9595 9596 9597 9598 9599 9600 9601 9602 9603 9604 9605 9606 9607 9608 9609 9610 9611 9612 9613 9614 9615 9616 9617 9618 9619 9620 9621 9622 9623 9624 9625 9626 9627 9628 9629 9630 9631 9632 9633 9634 9635 9636 9637 9638 9639 9640 9641 9642 9643 9644 9645 9646 9647 9648 9649 9650 9651 9652 9653 9654 9655 9656 9657 9658 9659 9660 9661 9662 9663 9664 9665 9666 9667 9668 9669 9670 9671 9672 9673 9674 9675 9676 9677 9678 9679 9680 9681 9682 9683 9684 9685 9686 9687 9688 9689 9690 9691 9692 9693 9694 9695 9696 9697 9698 9699 9700 9701 9702 9703 9704 9705 9706 9707 9708 9709 9710 9711 9712 9713 9714 9715 9716 9717 9718 9719 9720 9721 9722 9723 9724 9725 9726 9727 9728 9729 9730 9731 9732 9733 9734 9735 9736 9737 9738 9739 9740 9741 9742 9743 9744 9745 9746 9747 9748 9749 9750 9751 9752 9753 9754 9755 9756 9757 9758 9759 9760 9761 9762 9763 9764 9765 9766 9767 9768 9769 9770 9771 9772 9773 9774 9775 9776 9777 9778 9779 9780 9781 9782 9783 9784 9785 9786 9787 9788 9789 9790 9791 9792 9793 9794 9795 9796 9797 9798 9799 9800 9801 9802 9803 9804 9805 9806 9807 9808 9809 9810 9811 9812 9813 9814 9815 9816 9817 9818 9819 9820 9821 9822 9823 9824 9825 9826 9827 9828 9829 9830 9831 9832 9833 9834 9835 9836 9837 9838 9839 9840 9841 9842 9843 9844 9845 9846 9847 9848 9849 9850 9851 9852 9853 9854 9855 9856 9857 9858 9859 9860 9861 9862 9863 9864 9865 9866 9867 9868 9869 9870 9871 9872 9873 9874 9875 9876 9877 9878 9879 9880 9881 9882 9883 9884 9885 9886 9887 9888 9889 9890 9891 9892 9893 9894 9895 9896 9897 9898 9899 9900 9901 9902 9903 9904 9905 9906 9907 9908 9909 9910 9911 9912 9913 9914 9915 9916 9917 9918 9919 9920 9921 9922 9923 9924 9925 9926 9927 9928 9929 9930 9931 9932 9933 9934 9935 9936 9937 9938 9939 9940 9941 9942 9943 9944 9945 9946 9947 9948 9949 9950 9951 9952 9953 9954 9955 9956 9957 9958 9959 9960 9961 9962 9963 9964 9965 9966 9967 9968 9969 9970 9971 9972 9973 9974 9975 9976 9977 9978 9979 9980 9981 9982 9983 9984 9985 9986 9987 9988 9989 9990 9991 9992 9993 9994 9995 9996 9997 9998 9999 10000 10001 10002 10003 10004 10005 10006 10007 10008 10009 10010 10011 10012 10013 10014 10015 10016 10017 10018 10019 10020 10021 10022 10023 10024 10025 10026 10027 10028 10029 10030 10031 10032 10033 10034 10035 10036 10037 10038 10039 10040 10041 10042 10043 10044 10045 10046 10047 10048 10049 10050 10051 10052 10053 10054 10055 10056 10057 10058 10059 10060 10061 10062 10063 10064 10065 10066 10067 10068 10069 10070 10071 10072 10073 10074 10075 10076 10077 10078 10079 10080 10081 10082 10083 10084 10085 10086 10087 10088 10089 10090 10091 10092 10093 10094 10095 10096 10097 10098 10099 10100 10101 10102 10103 10104 10105 10106 10107 10108 10109 10110 10111 10112 10113 10114 10115 10116 10117 10118 10119 10120 10121 10122 10123 10124 10125 10126 10127 10128 10129 10130 10131 10132 10133 10134 10135 10136 10137 10138 10139 10140 10141 10142 10143 10144 10145 10146 10147 10148 10149 10150 10151 10152 10153 10154 10155 10156 10157 10158 10159 10160 10161 10162 10163 10164 10165 10166 10167 10168 10169 10170 10171 10172 10173 10174 10175 10176 10177 10178 10179 10180 10181 10182 10183 10184 10185 10186 10187 10188 10189 10190 10191 10192 10193 10194 10195 10196 10197 10198 10199 10200 10201 10202 10203 10204 10205 10206 10207 10208 10209 10210 10211 10212 10213 10214 10215 10216 10217 10218 10219 10220 10221 10222 10223 10224 10225 10226 10227 10228 10229 10230 10231 10232 10233 10234 10235 10236 10237 10238 10239 10240 10241 10242 10243 10244 10245 10246 10247 10248 10249 10250 10251 10252 10253 10254 10255 10256 10257 10258 10259 10260 10261 10262 10263 10264 10265 10266 10267 10268 10269 10270 10271 10272 10273 10274 10275 10276 10277 10278 10279 10280 10281 10282 10283 10284 10285 10286 10287 10288 10289 10290 10291 10292 10293 10294 10295 10296 10297 10298 10299 10300 10301 10302 10303 10304 10305 10306 10307 10308 10309 10310 10311 10312 10313 10314 10315 10316 10317 10318 10319 10320 10321 10322 10323 10324 10325 10326 10327 10328 10329 10330 10331 10332 10333 10334 10335 10336 10337 10338 10339 10340 10341 10342 10343 10344 10345 10346 10347 10348 10349 10350 10351 10352 10353 10354 10355 10356 10357 10358 10359 10360 10361 10362 10363 10364 10365 10366 10367 10368 10369 10370 10371 10372 10373 10374 10375 10376 10377 10378 10379 10380 10381 10382 10383 10384 10385 10386 10387 10388 10389 10390 10391 10392 10393 10394 10395 10396 10397 10398 10399 10400 10401 10402 10403 10404 10405 10406 10407 10408 10409 10410 10411 10412 10413 10414 10415 10416 10417 10418 10419 10420 10421 10422 10423 10424 10425 10426 10427 10428 10429 10430 10431 10432 10433 10434 10435 10436 10437 10438 10439 10440 10441 10442 10443 10444 10445 10446 10447 10448 10449 10450 10451 10452 10453 10454 10455 10456 10457 10458 10459 10460 10461 10462 10463 10464 10465 10466 10467 10468 10469 10470 10471 10472 10473 10474 10475 10476 10477 10478 10479 10480 10481 10482 10483 10484 10485 10486 10487 10488 10489 10490 10491 10492 10493 10494 10495 10496 10497 10498 10499 10500 10501 10502 10503 10504 10505 10506 10507 10508 10509 10510 10511 10512 10513 10514 10515 10516 10517 10518 10519 10520 10521 10522 10523 10524 10525 10526 10527 10528 10529 10530 10531 10532 10533 10534 10535 10536 10537 10538 10539 10540 10541 10542 10543 10544 10545 10546 10547 10548 10549 10550 10551 10552 10553 10554 10555 10556 10557 10558 10559 10560 10561 10562 10563 10564 10565 10566 10567 10568 10569 10570 10571 10572 10573 10574 10575 10576 10577 10578 10579 10580 10581 10582 10583 10584 10585 10586 10587 10588 10589 10590 10591 10592 10593 10594 10595 10596 10597 10598 10599 10600 10601 10602 10603 10604 10605 10606 10607 10608 10609 10610 10611 10612 10613 10614 10615 10616 10617 10618 10619 10620 10621 10622 10623 10624 10625 10626 10627 10628 10629 10630 10631 10632 10633 10634 10635 10636 10637 10638 10639 10640 10641 10642 10643 10644 10645 10646 10647 10648 10649 10650 10651 10652 10653 10654 10655 10656 10657 10658 10659 10660 10661 10662 10663 10664 10665 10666 10667 10668 10669 10670 10671 10672 10673 10674 10675 10676 10677 10678 10679 10680 10681 10682 10683 10684 10685 10686 10687 10688 10689 10690 10691 10692 10693 10694 10695 10696 10697 10698 10699 10700 10701 10702 10703 10704 10705 10706 10707 10708 10709 10710 10711 10712 10713 10714 10715 10716 10717 10718 10719 10720 10721 10722 10723 10724 10725 10726 10727 10728 10729 10730 10731 10732 10733 10734 10735 10736 10737 10738 10739 10740 10741 10742 10743 10744 10745 10746 10747 10748 10749 10750 10751 10752 10753 10754 10755 10756 10757 10758 10759 10760 10761 10762 10763 10764 10765 10766 10767 10768 10769 10770 10771 10772 10773 10774 10775 10776 10777 10778 10779 10780 10781 10782 10783 10784 10785 10786 10787 10788 10789 10790 10791 10792 10793 10794 10795 10796 10797 10798 10799 10800 10801 10802 10803 10804 10805 10806 10807 10808 10809 10810 10811 10812 10813 10814 10815 10816 10817 10818 10819 10820 10821 10822 10823 10824 10825 10826 10827 10828 10829 10830 10831 10832 10833 10834 10835 10836 10837 10838 10839 10840 10841 10842 10843 10844 10845 10846 10847 10848 10849 10850 10851 10852 10853 10854 10855 10856 10857 10858 10859 10860 10861 10862 10863 10864 10865 10866 10867 10868 10869 10870 10871 10872 10873 10874 10875 10876 10877 10878 10879 10880 10881 10882 10883 10884 10885 10886 10887 10888 10889 10890 10891 10892 10893 10894 10895 10896 10897 10898 10899 10900 10901 10902 10903 10904 10905 10906 10907 10908 10909 10910 10911 10912 10913 10914 10915 10916 10917 10918 10919 10920 10921 10922 10923 10924 10925 10926 10927 10928 10929 10930 10931 10932 10933 10934 10935 10936 10937 10938 10939 10940 10941 10942 10943 10944 10945 10946 10947 10948 10949 10950 10951 10952 10953 10954 10955 10956 10957 10958 10959 10960 10961 10962 10963 10964 10965 10966 10967 10968 10969 10970 10971 10972 10973 10974 10975 10976 10977 10978 10979 10980 10981 10982 10983 10984 10985 10986 10987 10988 10989 10990 10991 10992 10993 10994 10995 10996 10997 10998 10999 11000 11001 11002 11003 11004 11005 11006 11007 11008 11009 11010 11011 11012 11013 11014 11015 11016 11017 11018 11019 11020 11021 11022 11023 11024 11025 11026 11027 11028 11029 11030 11031 11032 11033 11034 11035 11036 11037 11038 11039 11040 11041 11042 11043 11044 11045 11046 11047 11048 11049 11050 11051 11052 11053 11054 11055 11056 11057 11058 11059 11060 11061 11062 11063 11064 11065 11066 11067 11068 11069 11070 11071 11072 11073 11074 11075 11076 11077 11078 11079 11080 11081 11082 11083 11084 11085 11086 11087 11088 11089 11090 11091 11092 11093 11094 11095 11096 11097 11098 11099 11100 11101 11102 11103 11104 11105 11106 11107 11108 11109 11110 11111 11112 11113 11114 11115 11116 11117 11118 11119 11120 11121 11122 11123 11124 11125 11126 11127 11128 11129 11130 11131 11132 11133 11134 11135 11136 11137 11138 11139 11140 11141 11142 11143 11144 11145 11146 11147 11148 11149 11150 11151 11152 11153 11154 11155 11156 11157 11158 11159 11160 11161 11162 11163 11164 11165 11166 11167 11168 11169 11170 11171 11172 11173 11174 11175 11176 11177 11178 11179 11180 11181 11182 11183 11184 11185 11186 11187 11188 11189 11190 11191 11192 11193 11194 11195 11196 11197 11198 11199 11200 11201 11202 11203 11204 11205 11206 11207 11208 11209 11210 11211 11212 11213 11214 11215 11216 11217 11218 11219 11220 11221 11222 11223 11224 11225 11226 11227 11228 11229 11230 11231 11232 11233 11234 11235 11236 11237 11238 11239 11240 11241 11242 11243 11244 11245 11246 11247 11248 11249 11250 11251 11252 11253 11254 11255 11256 11257 11258 11259 11260 11261 11262 11263 11264 11265 11266 11267 11268 11269 11270 11271 11272 11273 11274 11275 11276 11277 11278 11279 11280 11281 11282 11283 11284 11285 11286 11287 11288 11289 11290 11291 11292 11293 11294 11295 11296 11297 11298 11299 11300 11301 11302 11303 11304 11305 11306 11307 11308 11309 11310 11311 11312 11313 11314 11315 11316 11317 11318 11319 11320 11321 11322 11323 11324 11325 11326 11327 11328 11329 11330 11331 11332 11333 11334 11335 11336 11337 11338 11339 11340 11341 11342 11343 11344 11345 11346 11347 11348 11349 11350 11351 11352 11353 11354 11355 11356 11357 11358 11359 11360 11361 11362 11363 11364 11365 11366 11367 11368 11369 11370 11371 11372 11373 11374 11375 11376 11377 11378 11379 11380 11381 11382 11383 11384 11385 11386 11387 11388 11389 11390 11391 11392 11393 11394 11395 11396 11397 11398 11399 11400 11401 11402 11403 11404 11405 11406 11407 11408 11409 11410 11411 11412 11413 11414 11415 11416 11417 11418 11419 11420 11421 11422 11423 11424 11425 11426 11427 11428 11429 11430 11431 11432 11433 11434 11435 11436 11437 11438 11439 11440 11441 11442 11443 11444 11445 11446 11447 11448 11449 11450 11451 11452 11453 11454 11455 11456 11457 11458 11459 11460 11461 11462 11463 11464 11465 11466 11467 11468 11469 11470 11471 11472 11473 11474 11475 11476 11477 11478 11479 11480 11481 11482 11483 11484 11485 11486 11487 11488 11489 11490 11491 11492 11493 11494 11495 11496 11497 11498 11499 11500 11501 11502 11503 11504 11505 11506 11507 11508 11509 11510 11511 11512 11513 11514 11515 11516 11517 11518 11519 11520 11521 11522 11523 11524 11525 11526 11527 11528 11529 11530 11531 11532 11533 11534 11535 11536 11537 11538 11539 11540 11541 11542 11543 11544 11545 11546 11547 11548 11549 11550 11551 11552 11553 11554 11555 11556 11557 11558 11559 11560 11561 11562 11563 11564 11565 11566 11567 11568 11569 11570 11571 11572 11573 11574 11575 11576 11577 11578 11579 11580 11581 11582 11583 11584 11585 11586 11587 11588 11589 11590 11591 11592 11593 11594 11595 11596 11597 11598 11599 11600 11601 11602 11603 11604 11605 11606 11607 11608 11609 11610 11611 11612 11613 11614 11615 11616 11617 11618 11619 11620 11621 11622 11623 11624 11625 11626 11627 11628 11629 11630 11631 11632 11633 11634 11635 11636 11637 11638 11639 11640 11641 11642 11643 11644 11645 11646 11647 11648 11649 11650 11651 11652 11653 11654 11655 11656 11657 11658 11659 11660 11661 11662 11663 11664 11665 11666 11667 11668 11669 11670 11671 11672 11673 11674 11675 11676 11677 11678 11679 11680 11681 11682 11683 11684 11685 11686 11687 11688 11689 11690 11691 11692 11693 11694 11695 11696 11697 11698 11699 11700 11701 11702 11703 11704 11705 11706 11707 11708 11709 11710 11711 11712 11713 11714 11715 11716 11717 11718 11719 11720 11721 11722 11723 11724 11725 11726 11727 11728 11729 11730 11731 11732 11733 11734 11735 11736 11737 11738 11739 11740 11741 11742 11743 11744 11745 11746 11747 11748 11749 11750 11751 11752 11753 11754 11755 11756 11757 11758 11759 11760 11761 11762 11763 11764 11765 11766 11767 11768 11769 11770 11771 11772 11773 11774 11775 11776 11777 11778 11779 11780 11781 11782 11783 11784 11785 11786 11787 11788 11789 11790 11791 11792 11793 11794 11795 11796 11797 11798 11799 11800 11801 11802 11803 11804 11805 11806 11807 11808 11809 11810 11811 11812 11813 11814 11815 11816 11817 11818 11819 11820 11821 11822 11823 11824 11825 11826 11827 11828 11829 11830 11831 11832 11833 11834 11835 11836 11837 11838 11839 11840 11841 11842 11843 11844 11845 11846 11847 11848 11849 11850 11851 11852 11853 11854 11855 11856 11857 11858 11859 11860 11861 11862 11863 11864 11865 11866 11867 11868 11869 11870 11871 11872 11873 11874 11875 11876 11877 11878 11879 11880 11881 11882 11883 11884 11885 11886 11887 11888 11889 11890 11891 11892 11893 11894 11895 11896 11897 11898 11899 11900 11901 11902 11903 11904 11905 11906 11907 11908 11909 11910 11911 11912 11913 11914 11915 11916 11917 11918 11919 11920 11921 11922 11923 11924 11925 11926 11927 11928 11929 11930 11931 11932 11933 11934 11935 11936 11937 11938 11939 11940 11941 11942 11943 11944 11945 11946 11947 11948 11949 11950 11951 11952 11953 11954 11955 11956 11957 11958 11959 11960 11961 11962 11963 11964 11965 11966 11967 11968 11969 11970 11971 11972 11973 11974 11975 11976 11977 11978 11979 11980 11981 11982 11983 11984 11985 11986 11987 11988 11989 11990 11991 11992 11993 11994 11995 11996 11997 11998 11999 12000 12001 12002 12003 12004 12005 12006 12007 12008 12009 12010 12011 12012 12013 12014 12015 12016 12017 12018 12019 12020 12021 12022 12023 12024 12025 12026 12027 12028 12029 12030 12031 12032 12033 12034 12035 12036 12037 12038 12039 12040 12041 12042 12043 12044 12045 12046 12047 12048 12049 12050 12051 12052 12053 12054 12055 12056 12057 12058 12059 12060 12061 12062 12063 12064 12065 12066 12067 12068 12069 12070 12071 12072 12073 12074 12075 12076 12077 12078 12079 12080 12081 12082 12083 12084 12085 12086 12087 12088 12089 12090 12091 12092 12093 12094 12095 12096 12097 12098 12099 12100 12101 12102 12103 12104 12105 12106 12107 12108 12109 12110 12111 12112 12113 12114 12115 12116 12117 12118 12119 12120 12121 12122 12123 12124 12125 12126 12127 12128 12129 12130 12131 12132 12133 12134 12135 12136 12137 12138 12139 12140 12141 12142 12143 12144 12145 12146 12147 12148 12149 12150 12151 12152 12153 12154 12155 12156 12157 12158 12159 12160 12161 12162 12163 12164 12165 12166 12167 12168 12169 12170 12171 12172 12173 12174 12175 12176 12177 12178 12179 12180 12181 12182 12183 12184 12185 12186 12187 12188 12189 12190 12191 12192 12193 12194 12195 12196 12197 12198 12199 12200 12201 12202 12203 12204 12205 12206 12207 12208 12209 12210 12211 12212 12213 12214 12215 12216 12217 12218 12219 12220 12221 12222 12223 12224 12225 12226 12227 12228 12229 12230 12231 12232 12233 12234 12235 12236 12237 12238 12239 12240 12241 12242 12243 12244 12245 12246 12247 12248 12249 12250 12251 12252 12253 12254 12255 12256 12257 12258 12259 12260 12261 12262 12263 12264 12265 12266 12267 12268 12269 12270 12271 12272 12273 12274 12275 12276 12277 12278 12279 12280 12281 12282 12283 12284 12285 12286 12287 12288 12289 12290 12291 12292 12293 12294 12295 12296 12297 12298 12299 12300 12301 12302 12303 12304 12305 12306 12307 12308 12309 12310 12311 12312 12313 12314 12315 12316 12317 12318 12319 12320 12321 12322 12323 12324 12325 12326 12327 12328 12329 12330 12331 12332 12333 12334 12335 12336 12337 12338 12339 12340 12341 12342 12343 12344 12345 12346 12347 12348 12349 12350 12351 12352 12353 12354 12355 12356 12357 12358 12359 12360 12361 12362 12363 12364 12365 12366 12367 12368 12369 12370 12371 12372 12373 12374 12375 12376 12377 12378 12379 12380 12381 12382 12383 12384 12385 12386 12387 12388 12389 12390 12391 12392 12393 12394 12395 12396 12397 12398 12399 12400 12401 12402 12403 12404 12405 12406 12407 12408 12409 12410 12411 12412 12413 12414 12415 12416 12417 12418 12419 12420 12421 12422 12423 12424 12425 12426 12427 12428 12429 12430 12431 12432 12433 12434 12435 12436 12437 12438 12439 12440 12441 12442 12443 12444 12445 12446 12447 12448 12449 12450 12451 12452 12453 12454 12455 12456 12457 12458 12459 12460 12461 12462 12463 12464 12465 12466 12467 12468 12469 12470 12471 12472 12473 12474 12475 12476 12477 12478 12479 12480 12481 12482 12483 12484 12485 12486 12487 12488 12489 12490 12491 12492 12493 12494 12495 12496 12497 12498 12499 12500 12501 12502 12503 12504 12505 12506 12507 12508 12509 12510 12511 12512 12513 12514 12515 12516 12517 12518 12519 12520 12521 12522 12523 12524 12525 12526 12527 12528 12529 12530 12531 12532 12533 12534 12535 12536 12537 12538 12539 12540 12541 12542 12543 12544 12545 12546 12547 12548 12549 12550 12551 12552 12553 12554 12555 12556 12557 12558 12559 12560 12561 12562 12563 12564 12565 12566 12567 12568 12569 12570 12571 12572 12573 12574 12575 12576 12577 12578 12579 12580 12581 12582 12583 12584 12585 12586 12587 12588 12589 12590 12591 12592 12593 12594 12595 12596 12597 12598 12599 12600 12601 12602 12603 12604 12605 12606 12607 12608 12609 12610 12611 12612 12613 12614 12615 12616 12617 12618 12619 12620 12621 12622 12623 12624 12625 12626 12627 12628 12629 12630 12631 12632 12633 12634 12635 12636 12637 12638 12639 12640 12641 12642 12643 12644 12645 12646 12647 12648 12649 12650 12651 12652 12653 12654 12655 12656 12657 12658 12659 12660 12661 12662 12663 12664 12665 12666 12667 12668 12669 12670 12671 12672 12673 12674 12675 12676 12677 12678 12679 12680 12681 12682 12683 12684 12685 12686 12687 12688 12689 12690 12691 12692 12693 12694 12695 12696 12697 12698 12699 12700 12701 12702 12703 12704 12705 12706 12707 12708 12709 12710 12711 12712 12713 12714 12715 12716 12717 12718 12719 12720 12721 12722 12723 12724 12725 12726 12727 12728 12729 12730 12731 12732 12733 12734 12735 12736 12737 12738 12739 12740 12741 12742 12743 12744 12745 12746 12747 12748 12749 12750 12751 12752 12753 12754 12755 12756 12757 12758 12759 12760 12761 12762 12763 12764 12765 12766 12767 12768 12769 12770 12771 12772 12773 12774 12775 12776 12777 12778 12779 12780 12781 12782 12783 12784 12785 12786 12787 12788 12789 12790 12791 12792 12793 12794 12795 12796 12797 12798 12799 12800 12801 12802 12803 12804 12805 12806 12807 12808 12809 12810 12811 12812 12813 12814 12815 12816 12817 12818 12819 12820 12821 12822 12823 12824 12825 12826 12827 12828 12829 12830 12831 12832 12833 12834 12835 12836 12837 12838 12839 12840 12841 12842 12843 12844 12845 12846 12847 12848 12849 12850 12851 12852 12853 12854 12855 12856 12857 12858 12859 12860 12861 12862 12863 12864 12865 12866 12867 12868 12869 12870 12871 12872 12873 12874 12875 12876 12877 12878 12879 12880 12881 12882 12883 12884 12885 12886 12887 12888 12889 12890 12891 12892 12893 12894 12895 12896 12897 12898 12899 12900 12901 12902 12903 12904 12905 12906 12907 12908 12909 12910 12911 12912 12913 12914 12915 12916 12917 12918 12919 12920 12921 12922 12923 12924 12925 12926 12927 12928 12929 12930 12931 12932 12933 12934 12935 12936 12937 12938 12939 12940 12941 12942 12943 12944 12945 12946 12947 12948 12949 12950 12951 12952 12953 12954 12955 12956 12957 12958 12959 12960 12961 12962 12963 12964 12965 12966 12967 12968 12969 12970 12971 12972 12973 12974 12975 12976 12977 12978 12979 12980 12981 12982 12983 12984 12985 12986 12987 12988 12989 12990 12991 12992 12993 12994 12995 12996 12997 12998 12999 13000 13001 13002 13003 13004 13005 13006 13007 13008 13009 13010 13011 13012 13013 13014 13015 13016 13017 13018 13019 13020 13021 13022 13023 13024 13025 13026 13027 13028 13029 13030 13031 13032 13033 13034 13035 13036 13037 13038 13039 13040 13041 13042 13043 13044 13045 13046 13047 13048 13049 13050 13051 13052 13053 13054 13055 13056 13057 13058 13059 13060 13061 13062 13063 13064 13065 13066 13067 13068 13069 13070 13071 13072 13073 13074 13075 13076 13077 13078 13079 13080 13081 13082 13083 13084 13085 13086 13087 13088 13089 13090 13091 13092 13093 13094 13095 13096 13097 13098 13099 13100 13101 13102 13103 13104 13105 13106 13107 13108 13109 13110 13111 13112 13113 13114 13115 13116 13117 13118 13119 13120 13121 13122 13123 13124 13125 13126 13127 13128 13129 13130 13131 13132 13133 13134 13135 13136 13137 13138 13139 13140 13141 13142 13143 13144 13145 13146 13147 13148 13149 13150 13151 13152 13153 13154 13155 13156 13157 13158 13159 13160 13161 13162 13163 13164 13165 13166 13167 13168 13169 13170 13171 13172 13173 13174 13175 13176 13177 13178 13179 13180 13181 13182 13183 13184 13185 13186 13187 13188 13189 13190 13191 13192 13193 13194 13195 13196 13197 13198 13199 13200 13201 13202 13203 13204 13205 13206 13207 13208 13209 13210 13211 13212 13213 13214 13215 13216 13217 13218 13219 13220 13221 13222 13223 13224 13225 13226 13227 13228 13229 13230 13231 13232 13233 13234 13235 13236 13237 13238 13239 13240 13241 13242 13243 13244 13245 13246 13247 13248 13249 13250 13251 13252 13253 13254 13255 13256 13257 13258 13259 13260 13261 13262 13263 13264 13265 13266 13267 13268 13269 13270 13271 13272 13273 13274 13275 13276 13277 13278 13279 13280 13281 13282 13283 13284 13285 13286 13287 13288 13289 13290 13291 13292 13293 13294 13295 13296 13297 13298 13299 13300 13301 13302 13303 13304 13305 13306 13307 13308 13309 13310 13311 13312 13313 13314 13315 13316 13317 13318 13319 13320 13321 13322 13323 13324 13325 13326 13327 13328 13329 13330 13331 13332 13333 13334 13335 13336 13337 13338 13339 13340 13341 13342 13343 13344 13345 13346 13347 13348 13349 13350 13351 13352 13353 13354 13355 13356 13357 13358 13359 13360 13361 13362 13363 13364 13365 13366 13367 13368 13369 13370 13371 13372 13373 13374 13375 13376 13377 13378 13379 13380 13381 13382 13383 13384 13385 13386 13387 13388 13389 13390 13391 13392 13393 13394 13395 13396 13397 13398 13399 13400 13401 13402 13403 13404 13405 13406 13407 13408 13409 13410 13411 13412 13413 13414 13415 13416 13417 13418 13419 13420 13421 13422 13423 13424 13425 13426 13427 13428 13429 13430 13431 13432 13433 13434 13435 13436 13437 13438 13439 13440 13441 13442 13443 13444 13445 13446 13447 13448 13449 13450 13451 13452 13453 13454 13455 13456 13457 13458 13459 13460 13461 13462 13463 13464 13465 13466 13467 13468 13469 13470 13471 13472 13473 13474 13475 13476 13477 13478 13479 13480 13481 13482 13483 13484 13485 13486 13487 13488 13489 13490 13491 13492 13493 13494 13495 13496 13497 13498 13499 13500 13501 13502 13503 13504 13505 13506 13507 13508 13509 13510 13511 13512 13513 13514 13515 13516 13517 13518 13519 13520 13521 13522 13523 13524 13525 13526 13527 13528 13529 13530 13531 13532 13533 13534 13535 13536 13537 13538 13539 13540 13541 13542 13543 13544 13545 13546 13547 13548 13549 13550 13551 13552 13553 13554 13555 13556 13557 13558 13559 13560 13561 13562 13563 13564 13565 13566 13567 13568 13569 13570 13571 13572 13573 13574 13575 13576 13577 13578 13579 13580 13581 13582 13583 13584 13585 13586 13587 13588 13589 13590 13591 13592 13593 13594 13595 13596 13597 13598 13599 13600 13601 13602 13603 13604 13605 13606 13607 13608 13609 13610 13611 13612 13613 13614 13615 13616 13617 13618 13619 13620 13621 13622 13623 13624 13625 13626 13627 13628 13629 13630 13631 13632 13633 13634 13635 13636 13637 13638 13639 13640 13641 13642 13643 13644 13645 13646 13647 13648 13649 13650 13651 13652 13653 13654 13655 13656 13657 13658 13659 13660 13661 13662 13663 13664 13665 13666 13667 13668 13669 13670 13671 13672 13673 13674 13675 13676 13677 13678 13679 13680 13681 13682 13683 13684 13685 13686 13687 13688 13689 13690 13691 13692 13693 13694 13695 13696 13697 13698 13699 13700 13701 13702 13703 13704 13705 13706 13707 13708 13709 13710 13711 13712 13713 13714 13715 13716 13717 13718 13719 13720 13721 13722 13723 13724 13725 13726 13727 13728 13729 13730 13731 13732 13733 13734 13735 13736 13737 13738 13739 13740 13741 13742 13743 13744 13745 13746 13747 13748 13749 13750 13751 13752 13753 13754 13755 13756 13757 13758 13759 13760 13761 13762 13763 13764 13765 13766 13767 13768 13769 13770 13771 13772 13773 13774 13775 13776 13777 13778 13779 13780 13781 13782 13783 13784 13785 13786 13787 13788 13789 13790 13791 13792 13793 13794 13795 13796 13797 13798 13799 13800 13801 13802 13803 13804 13805 13806 13807 13808 13809 13810 13811 13812 13813 13814 13815 13816 13817 13818 13819 13820 13821 13822 13823 13824 13825 13826 13827 13828 13829 13830 13831 13832 13833 13834 13835 13836 13837 13838 13839 13840 13841 13842 13843 13844 13845 13846 13847 13848 13849 13850 13851 13852 13853 13854 13855 13856 13857 13858 13859 13860 13861 13862 13863 13864 13865 13866 13867 13868 13869 13870 13871 13872 13873 13874 13875 13876 13877 13878 13879 13880 13881 13882 13883 13884 13885 13886 13887 13888 13889 13890 13891 13892 13893 13894 13895 13896 13897 13898 13899 13900 13901 13902 13903 13904 13905 13906 13907 13908 13909 13910 13911 13912 13913 13914 13915 13916 13917 13918 13919 13920 13921 13922 13923 13924 13925 13926 13927 13928 13929 13930 13931 13932 13933 13934 13935 13936 13937 13938 13939 13940 13941 13942 13943 13944 13945 13946 13947 13948 13949 13950 13951 13952 13953 13954 13955 13956 13957 13958 13959 13960 13961 13962 13963 13964 13965 13966 13967 13968 13969 13970 13971 13972 13973 13974 13975 13976 13977 13978 13979 13980 13981 13982 13983 13984 13985 13986 13987 13988 13989 13990 13991 13992 13993 13994 13995 13996 13997 13998 13999 14000 14001 14002 14003 14004 14005 14006 14007 14008 14009 14010 14011 14012 14013 14014 14015 14016 14017 14018 14019 14020 14021 14022 14023 14024 14025 14026 14027 14028 14029 14030 14031 14032 14033 14034 14035 14036 14037 14038 14039 14040 14041 14042 14043 14044 14045 14046 14047 14048 14049 14050 14051 14052 14053 14054 14055 14056 14057 14058 14059 14060 14061 14062 14063 14064 14065 14066 14067 14068 14069 14070 14071 14072 14073 14074 14075 14076 14077 14078 14079 14080 14081 14082 14083 14084 14085 14086 14087 14088 14089 14090 14091 14092 14093 14094 14095 14096 14097 14098 14099 14100 14101 14102 14103 14104 14105 14106 14107 14108 14109 14110 14111 14112 14113 14114 14115 14116 14117 14118 14119 14120 14121 14122 14123 14124 14125 14126 14127 14128 14129 14130 14131 14132 14133 14134 14135 14136 14137 14138 14139 14140 14141 14142 14143 14144 14145 14146 14147 14148 14149 14150 14151 14152 14153 14154 14155 14156 14157 14158 14159 14160 14161 14162 14163 14164 14165 14166 14167 14168 14169 14170 14171 14172 14173 14174 14175 14176 14177 14178 14179 14180 14181 14182 14183 14184 14185 14186 14187 14188 14189 14190 14191 14192 14193 14194 14195 14196 14197 14198 14199 14200 14201 14202 14203 14204 14205 14206 14207 14208 14209 14210 14211 14212 14213 14214 14215 14216 14217 14218 14219 14220 14221 14222 14223 14224 14225 14226 14227 14228 14229 14230 14231 14232 14233 14234 14235 14236 14237 14238 14239 14240 14241 14242 14243 14244 14245 14246 14247 14248 14249 14250 14251 14252 14253 14254 14255 14256 14257 14258 14259 14260 14261 14262 14263 14264 14265 14266 14267 14268 14269 14270 14271 14272 14273 14274 14275 14276 14277 14278 14279 14280 14281 14282 14283 14284 14285 14286 14287 14288 14289 14290 14291 14292 14293 14294 14295 14296 14297 14298 14299 14300 14301 14302 14303 14304 14305 14306 14307 14308 14309 14310 14311 14312 14313 14314 14315 14316 14317 14318 14319 14320 14321 14322 14323 14324 14325 14326 14327 14328 14329 14330 14331 14332 14333 14334 14335 14336 14337 14338 14339 14340 14341 14342 14343 14344 14345 14346 14347 14348 14349 14350 14351 14352 14353 14354 14355 14356 14357 14358 14359 14360 14361 14362 14363 14364 14365 14366 14367 14368 14369 14370 14371 14372 14373 14374 14375 14376 14377 14378 14379 14380 14381 14382 14383 14384 14385 14386 14387 14388 14389 14390 14391 14392 14393 14394 14395 14396 14397 14398 14399 14400 14401 14402 14403 14404 14405 14406 14407 14408 14409 14410 14411 14412 14413 14414 14415 14416 14417 14418 14419 14420 14421 14422 14423 14424 14425 14426 14427 14428 14429 14430 14431 14432 14433 14434 14435 14436 14437 14438 14439 14440 14441 14442 14443 14444 14445 14446 14447 14448 14449 14450 14451 14452 14453 14454 14455 14456 14457 14458 14459 14460 14461 14462 14463 14464 14465 14466 14467 14468 14469 14470 14471 14472 14473 14474 14475 14476 14477 14478 14479 14480 14481 14482 14483 14484 14485 14486 14487 14488 14489 14490 14491 14492 14493 14494 14495 14496 14497 14498 14499 14500 14501 14502 14503 14504 14505 14506 14507 14508 14509 14510 14511 14512 14513 14514 14515 14516 14517 14518 14519 14520 14521 14522 14523 14524 14525 14526 14527 14528 14529 14530 14531 14532 14533 14534 14535 14536 14537 14538 14539 14540 14541 14542 14543 14544 14545 14546 14547 14548 14549 14550 14551 14552 14553 14554 14555 14556 14557 14558 14559 14560 14561 14562 14563 14564 14565 14566 14567 14568 14569 14570 14571 14572 14573 14574 14575 14576 14577 14578 14579 14580 14581 14582 14583 14584 14585 14586 14587 14588 14589 14590 14591 14592 14593 14594 14595 14596 14597 14598 14599 14600 14601 14602 14603 14604 14605 14606 14607 14608 14609 14610 14611 14612 14613 14614 14615 14616 14617 14618 14619 14620 14621 14622 14623 14624 14625 14626 14627 14628 14629 14630 14631 14632 14633 14634 14635 14636 14637 14638 14639 14640 14641 14642 14643 14644 14645 14646 14647 14648 14649 14650 14651 14652 14653 14654 14655 14656 14657 14658 14659 14660 14661 14662 14663 14664 14665 14666 14667 14668 14669 14670 14671 14672 14673 14674 14675 14676 14677 14678 14679 14680 14681 14682 14683 14684 14685 14686 14687 14688 14689 14690 14691 14692 14693 14694 14695 14696 14697 14698 14699 14700 14701 14702 14703 14704 14705 14706 14707 14708 14709 14710 14711 14712 14713 14714 14715 14716 14717 14718 14719 14720 14721 14722 14723 14724 14725 14726 14727 14728 14729 14730 14731 14732 14733 14734 14735 14736 14737 14738 14739 14740 14741 14742 14743 14744 14745 14746 14747 14748 14749 14750 14751 14752 14753 14754 14755 14756 14757 14758 14759 14760 14761 14762 14763 14764 14765 14766 14767 14768 14769 14770 14771 14772 14773 14774 14775 14776 14777 14778 14779 14780 14781 14782 14783 14784 14785 14786 14787 14788 14789 14790 14791 14792 14793 14794 14795 14796 14797 14798 14799 14800 14801 14802 14803 14804 14805 14806 14807 14808 14809 14810 14811 14812 14813 14814 14815 14816 14817 14818 14819 14820 14821 14822 14823 14824 14825 14826 14827 14828 14829 14830 14831 14832 14833 14834 14835 14836 14837 14838 14839 14840 14841 14842 14843 14844 14845 14846 14847 14848 14849 14850 14851 14852 14853 14854 14855 14856 14857 14858 14859 14860 14861 14862 14863 14864 14865 14866 14867 14868 14869 14870 14871 14872 14873 14874 14875 14876 14877 14878 14879 14880 14881 14882 14883 14884 14885 14886 14887 14888 14889 14890 14891 14892 14893 14894 14895 14896 14897 14898 14899 14900 14901 14902 14903 14904 14905 14906 14907 14908 14909 14910 14911 14912 14913 14914 14915 14916 14917 14918 14919 14920 14921 14922 14923 14924 14925 14926 14927 14928 14929 14930 14931 14932 14933 14934 14935 14936 14937 14938 14939 14940 14941 14942 14943 14944 14945 14946 14947 14948 14949 14950 14951 14952 14953 14954 14955 14956 14957 14958 14959 14960 14961 14962 14963 14964 14965 14966 14967 14968 14969 14970 14971 14972 14973 14974 14975 14976 14977 14978 14979 14980 14981 14982 14983 14984 14985 14986 14987 14988 14989 14990 14991 14992 14993 14994 14995 14996 14997 14998 14999 15000 15001 15002 15003 15004 15005 15006 15007 15008 15009 15010 15011 15012 15013 15014 15015 15016 15017 15018 15019 15020 15021 15022 15023 15024 15025 15026 15027 15028 15029 15030 15031 15032 15033 15034 15035 15036 15037 15038 15039 15040 15041 15042 15043 15044 15045 15046 15047 15048 15049 15050 15051 15052 15053 15054 15055 15056 15057 15058 15059 15060 15061 15062 15063 15064 15065 15066 15067 15068 15069 15070 15071 15072 15073 15074 15075 15076 15077 15078 15079 15080 15081 15082 15083 15084 15085 15086 15087 15088 15089 15090 15091 15092 15093 15094 15095 15096 15097 15098 15099 15100 15101 15102 15103 15104 15105 15106 15107 15108 15109 15110 15111 15112 15113 15114 15115 15116 15117 15118 15119 15120 15121 15122 15123 15124 15125 15126 15127 15128 15129 15130 15131 15132 15133 15134 15135 15136 15137 15138 15139 15140 15141 15142 15143 15144 15145 15146 15147 15148 15149 15150 15151 15152 15153 15154 15155 15156 15157 15158 15159 15160 15161 15162 15163 15164 15165 15166 15167 15168 15169 15170 15171 15172 15173 15174 15175 15176 15177 15178 15179 15180 15181 15182 15183 15184 15185 15186 15187 15188 15189 15190 15191 15192 15193 15194 15195 15196 15197 15198 15199 15200 15201 15202 15203 15204 15205 15206 15207 15208 15209 15210 15211 15212 15213 15214 15215 15216 15217 15218 15219 15220 15221 15222 15223 15224 15225 15226 15227 15228 15229 15230 15231 15232 15233 15234 15235 15236 15237 15238 15239 15240 15241 15242 15243 15244 15245 15246 15247 15248 15249 15250 15251 15252 15253 15254 15255 15256 15257 15258 15259 15260 15261 15262 15263 15264 15265 15266 15267 15268 15269 15270 15271 15272 15273 15274 15275 15276 15277 15278 15279 15280 15281 15282 15283 15284 15285 15286 15287 15288 15289 15290 15291 15292 15293 15294 15295 15296 15297 15298 15299 15300 15301 15302 15303 15304 15305 15306 15307 15308 15309 15310 15311 15312 15313 15314 15315 15316 15317 15318 15319 15320 15321 15322 15323 15324 15325 15326 15327 15328 15329 15330 15331 15332 15333 15334 15335 15336 15337 15338 15339 15340 15341 15342 15343 15344 15345 15346 15347 15348 15349 15350 15351 15352 15353 15354 15355 15356 15357 15358 15359 15360 15361 15362 15363 15364 15365 15366 15367 15368 15369 15370 15371 15372 15373 15374 15375 15376 15377 15378 15379 15380 15381 15382 15383 15384 15385 15386 15387 15388 15389 15390 15391 15392 15393 15394 15395 15396 15397 15398 15399 15400 15401 15402 15403 15404 15405 15406 15407 15408 15409 15410 15411 15412 15413 15414 15415 15416 15417 15418 15419 15420 15421 15422 15423 15424 15425 15426 15427 15428 15429 15430 15431 15432 15433 15434 15435 15436 15437 15438 15439 15440 15441 15442 15443 15444 15445 15446 15447 15448 15449 15450 15451 15452 15453 15454 15455 15456 15457 15458 15459 15460 15461 15462 15463 15464 15465 15466 15467 15468 15469 15470 15471 15472 15473 15474 15475 15476 15477 15478 15479 15480 15481 15482 15483 15484 15485 15486 15487 15488 15489 15490 15491 15492 15493 15494 15495 15496 15497 15498 15499 15500 15501 15502 15503 15504 15505 15506 15507 15508 15509 15510 15511 15512 15513 15514 15515 15516 15517 15518 15519 15520 15521 15522 15523 15524 15525 15526 15527 15528 15529 15530 15531 15532 15533 15534 15535 15536 15537 15538 15539 15540 15541 15542 15543 15544 15545 15546 15547 15548 15549 15550 15551 15552 15553 15554 15555 15556 15557 15558 15559 15560 15561 15562 15563 15564 15565 15566 15567 15568 15569 15570 15571 15572 15573 15574 15575 15576 15577 15578 15579 15580 15581 15582 15583 15584 15585 15586 15587 15588 15589 15590 15591 15592 15593 15594 15595 15596 15597 15598 15599 15600 15601 15602 15603 15604 15605 15606 15607 15608 15609 15610 15611 15612 15613 15614 15615 15616 15617 15618 15619 15620 15621 15622 15623 15624 15625 15626 15627 15628 15629 15630 15631 15632 15633 15634 15635 15636 15637 15638 15639 15640 15641 15642 15643 15644 15645 15646 15647 15648 15649 15650 15651 15652 15653 15654 15655 15656 15657 15658 15659 15660 15661 15662 15663 15664 15665 15666 15667 15668 15669 15670 15671 15672 15673 15674 15675 15676 15677 15678 15679 15680 15681 15682 15683 15684 15685 15686 15687 15688 15689 15690 15691 15692 15693 15694 15695 15696 15697 15698 15699 15700 15701 15702 15703 15704 15705 15706 15707 15708 15709 15710 15711 15712 15713 15714 15715 15716 15717 15718 15719 15720 15721 15722 15723 15724 15725 15726 15727 15728 15729 15730 15731 15732 15733 15734 15735 15736 15737 15738 15739 15740 15741 15742 15743 15744 15745 15746 15747 15748 15749 15750 15751 15752 15753 15754 15755 15756 15757 15758 15759 15760 15761 15762 15763 15764 15765 15766 15767 15768 15769 15770 15771 15772 15773 15774 15775 15776 15777 15778 15779 15780 15781 15782 15783 15784 15785 15786 15787 15788 15789 15790 15791 15792 15793 15794 15795 15796 15797 15798 15799 15800 15801 15802 15803 15804 15805 15806 15807 15808 15809 15810 15811 15812 15813 15814 15815 15816 15817 15818 15819 15820 15821 15822 15823 15824 15825 15826 15827 15828 15829 15830 15831 15832 15833 15834 15835 15836 15837 15838 15839 15840 15841 15842 15843 15844 15845 15846 15847 15848 15849 15850 15851 15852 15853 15854 15855 15856 15857 15858 15859 15860 15861 15862 15863 15864 15865 15866 15867 15868 15869 15870 15871 15872 15873 15874 15875 15876 15877 15878 15879 15880 15881 15882 15883 15884 15885 15886 15887 15888 15889 15890 15891 15892 15893 15894 15895 15896 15897 15898 15899 15900 15901 15902 15903 15904 15905 15906 15907 15908 15909 15910 15911 15912 15913 15914 15915 15916 15917 15918 15919 15920 15921 15922 15923 15924 15925 15926 15927 15928 15929 15930 15931 15932 15933 15934 15935 15936 15937 15938 15939 15940 15941 15942 15943 15944 15945 15946 15947 15948 15949 15950 15951 15952 15953 15954 15955 15956 15957 15958 15959 15960 15961 15962 15963 15964 15965 15966 15967 15968 15969 15970 15971 15972 15973 15974 15975 15976 15977 15978 15979 15980 15981 15982 15983 15984 15985 15986 15987 15988 15989 15990 15991 15992 15993 15994 15995 15996 15997 15998 15999 16000 16001 16002 16003 16004 16005 16006 16007 16008 16009 16010 16011 16012 16013 16014 16015 16016 16017 16018 16019 16020 16021 16022 16023 16024 16025 16026 16027 16028 16029 16030 16031 16032 16033 16034 16035 16036 16037 16038 16039 16040 16041 16042 16043 16044 16045 16046 16047 16048 16049 16050 16051 16052 16053 16054 16055 16056 16057 16058 16059 16060 16061 16062 16063 16064 16065 16066 16067 16068 16069 16070 16071 16072 16073 16074 16075 16076 16077 16078 16079 16080 16081 16082 16083 16084 16085 16086 16087 16088 16089 16090 16091 16092 16093 16094 16095 16096 16097 16098 16099 16100 16101 16102 16103 16104 16105 16106 16107 16108 16109 16110 16111 16112 16113 16114 16115 16116 16117 16118 16119 16120 16121 16122 16123 16124 16125 16126 16127 16128 16129 16130 16131 16132 16133 16134 16135 16136 16137 16138 16139 16140 16141 16142 16143 16144 16145 16146 16147 16148 16149 16150 16151 16152 16153 16154 16155 16156 16157 16158 16159 16160 16161 16162 16163 16164 16165 16166 16167 16168 16169 16170 16171 16172 16173 16174 16175 16176 16177 16178 16179 16180 16181 16182 16183 16184 16185 16186 16187 16188 16189 16190 16191 16192 16193 16194 16195 16196 16197 16198 16199 16200 16201 16202 16203 16204 16205 16206 16207 16208 16209 16210 16211 16212 16213 16214 16215 16216 16217 16218 16219 16220 16221 16222 16223 16224 16225 16226 16227 16228 16229 16230 16231 16232 16233 16234 16235 16236 16237 16238 16239 16240 16241 16242 16243 16244 16245 16246 16247 16248 16249 16250 16251 16252 16253 16254 16255 16256 16257 16258 16259 16260 16261 16262 16263 16264 16265 16266 16267 16268 16269 16270 16271 16272 16273 16274 16275 16276 16277 16278 16279 16280 16281 16282 16283 16284 16285 16286 16287 16288 16289 16290 16291 16292 16293 16294 16295 16296 16297 16298 16299 16300 16301 16302 16303 16304 16305 16306 16307 16308 16309 16310 16311 16312 16313 16314 16315 16316 16317 16318 16319 16320 16321 16322 16323 16324 16325 16326 16327 16328 16329 16330 16331 16332 16333 16334 16335 16336 16337 16338 16339 16340 16341 16342 16343 16344 16345 16346 16347 16348 16349 16350 16351 16352 16353 16354 16355 16356 16357 16358 16359 16360 16361 16362 16363 16364 16365 16366 16367 16368 16369 16370 16371 16372 16373 16374 16375 16376 16377 16378 16379 16380 16381 16382 16383 16384 16385 16386 16387 16388 16389 16390 16391 16392 16393 16394 16395 16396 16397 16398 16399 16400 16401 16402 16403 16404 16405 16406 16407 16408 16409 16410 16411 16412 16413 16414 16415 16416 16417 16418 16419 16420 16421 16422 16423 16424 16425 16426 16427 16428 16429 16430 16431 16432 16433 16434 16435 16436 16437 16438 16439 16440 16441 16442 16443 16444 16445 16446 16447 16448 16449 16450 16451 16452 16453 16454 16455 16456 16457 16458 16459 16460 16461 16462 16463 16464 16465 16466 16467 16468 16469 16470 16471 16472 16473 16474 16475 16476 16477 16478 16479 16480 16481 16482 16483 16484 16485 16486 16487 16488 16489 16490 16491 16492 16493 16494 16495 16496 16497 16498 16499 16500 16501 16502 16503 16504 16505 16506 16507 16508 16509 16510 16511 16512 16513 16514 16515 16516 16517 16518 16519 16520 16521 16522 16523 16524 16525 16526 16527 16528 16529 16530 16531 16532 16533 16534 16535 16536 16537 16538 16539 16540 16541 16542 16543 16544 16545 16546 16547 16548 16549 16550 16551 16552 16553 16554 16555 16556 16557 16558 16559 16560 16561 16562 16563 16564 16565 16566 16567 16568 16569 16570 16571 16572 16573 16574 16575 16576 16577 16578 16579 16580 16581 16582 16583 16584 16585 16586 16587 16588 16589 16590 16591 16592 16593 16594 16595 16596 16597 16598 16599 16600 16601 16602 16603 16604 16605 16606 16607 16608 16609 16610 16611 16612 16613 16614 16615 16616 16617 16618 16619 16620 16621 16622 16623 16624 16625 16626 16627 16628 16629 16630 16631 16632 16633 16634 16635 16636 16637 16638 16639 16640 16641 16642 16643 16644 16645 16646 16647 16648 16649 16650 16651 16652 16653 16654 16655 16656 16657 16658 16659 16660 16661 16662 16663 16664 16665 16666 16667 16668 16669 16670 16671 16672 16673 16674 16675 16676 16677 16678 16679 16680 16681 16682 16683 16684 16685 16686 16687 16688 16689 16690 16691 16692 16693 16694 16695 16696 16697 16698 16699 16700 16701 16702 16703 16704 16705 16706 16707 16708 16709 16710 16711 16712 16713 16714 16715 16716 16717 16718 16719 16720 16721 16722 16723 16724 16725 16726 16727 16728 16729 16730 16731 16732 16733 16734 16735 16736 16737 16738 16739 16740 16741 16742 16743 16744 16745 16746 16747 16748 16749 16750 16751 16752 16753 16754 16755 16756 16757 16758 16759 16760 16761 16762 16763 16764 16765 16766 16767 16768 16769 16770 16771 16772 16773 16774 16775 16776 16777 16778 16779 16780 16781 16782 16783 16784 16785 16786 16787 16788 16789 16790 16791 16792 16793 16794 16795 16796 16797 16798 16799 16800 16801 16802 16803 16804 16805 16806 16807 16808 16809 16810 16811 16812 16813 16814 16815 16816 16817 16818 16819 16820 16821 16822 16823 16824 16825 16826 16827 16828 16829 16830 16831 16832 16833 16834 16835 16836 16837 16838 16839 16840 16841 16842 16843 16844 16845 16846 16847 16848 16849 16850 16851 16852 16853 16854 16855 16856 16857 16858 16859 16860 16861 16862 16863 16864 16865 16866 16867 16868 16869 16870 16871 16872 16873 16874 16875 16876 16877 16878 16879 16880 16881 16882 16883 16884 16885 16886 16887 16888 16889 16890 16891 16892 16893 16894 16895 16896 16897 16898 16899 16900 16901 16902 16903 16904 16905 16906 16907 16908 16909 16910 16911 16912 16913 16914 16915 16916 16917 16918 16919 16920 16921 16922 16923 16924 16925 16926 16927 16928 16929 16930 16931 16932 16933 16934 16935 16936 16937 16938 16939 16940 16941 16942 16943 16944 16945 16946 16947 16948 16949 16950 16951 16952 16953 16954 16955 16956 16957 16958 16959 16960 16961 16962 16963 16964 16965 16966 16967 16968 16969 16970 16971 16972 16973 16974 16975 16976 16977 16978 16979 16980 16981 16982 16983 16984 16985 16986 16987 16988 16989 16990 16991 16992 16993 16994 16995 16996 16997 16998 16999 17000 17001 17002 17003 17004 17005 17006 17007 17008 17009 17010 17011 17012 17013 17014 17015 17016 17017 17018 17019 17020 17021 17022 17023 17024 17025 17026 17027 17028 17029 17030 17031 17032 17033 17034 17035 17036 17037 17038 17039 17040 17041 17042 17043 17044 17045 17046 17047 17048 17049 17050 17051 17052 17053 17054 17055 17056 17057 17058 17059 17060 17061 17062 17063 17064 17065 17066 17067 17068 17069 17070 17071 17072 17073 17074 17075 17076 17077 17078 17079 17080 17081 17082 17083 17084 17085 17086 17087 17088 17089 17090 17091 17092 17093 17094 17095 17096 17097 17098 17099 17100 17101 17102 17103 17104 17105 17106 17107 17108 17109 17110 17111 17112 17113 17114 17115 17116 17117 17118 17119 17120 17121 17122 17123 17124 17125 17126 17127 17128 17129 17130 17131 17132 17133 17134 17135 17136 17137 17138 17139 17140 17141 17142 17143 17144 17145 17146 17147 17148 17149 17150 17151 17152 17153 17154 17155 17156 17157 17158 17159 17160 17161 17162 17163 17164 17165 17166 17167 17168 17169 17170 17171 17172 17173 17174 17175 17176 17177 17178 17179 17180 17181 17182 17183 17184 17185 17186 17187 17188 17189 17190 17191 17192 17193 17194 17195 17196 17197 17198 17199 17200 17201 17202 17203 17204 17205 17206 17207 17208 17209 17210 17211 17212 17213 17214 17215 17216 17217 17218 17219 17220 17221 17222 17223 17224 17225 17226 17227 17228 17229 17230 17231 17232 17233 17234 17235 17236 17237 17238 17239 17240 17241 17242 17243 17244 17245 17246 17247 17248 17249 17250 17251 17252 17253 17254 17255 17256 17257 17258 17259 17260 17261 17262 17263 17264 17265 17266 17267 17268 17269 17270 17271 17272 17273 17274 17275 17276 17277 17278 17279 17280 17281 17282 17283 17284 17285 17286 17287 17288 17289 17290 17291 17292 17293 17294 17295 17296 17297 17298 17299 17300 17301 17302 17303 17304 17305 17306 17307 17308 17309 17310 17311 17312 17313 17314 17315 17316 17317 17318 17319 17320 17321 17322 17323 17324 17325 17326 17327 17328 17329 17330 17331 17332 17333 17334 17335 17336 17337 17338 17339 17340 17341 17342 17343 17344 17345 17346 17347 17348 17349 17350 17351 17352 17353 17354 17355 17356 17357 17358 17359 17360 17361 17362 17363 17364 17365 17366 17367 17368 17369 17370 17371 17372 17373 17374 17375 17376 17377 17378 17379 17380 17381 17382 17383 17384 17385 17386 17387 17388 17389 17390 17391 17392 17393 17394 17395 17396 17397 17398 17399 17400 17401 17402 17403 17404 17405 17406 17407 17408 17409 17410 17411 17412 17413 17414 17415 17416 17417 17418 17419 17420 17421 17422 17423 17424 17425 17426 17427 17428 17429 17430 17431 17432 17433 17434 17435 17436 17437 17438 17439 17440 17441 17442 17443 17444 17445 17446 17447 17448 17449 17450 17451 17452 17453 17454 17455 17456 17457 17458 17459 17460 17461 17462 17463 17464 17465 17466 17467 17468 17469 17470 17471 17472 17473 17474 17475 17476 17477 17478 17479 17480 17481 17482 17483 17484 17485 17486 17487 17488 17489 17490 17491 17492 17493 17494 17495 17496 17497 17498 17499 17500 17501 17502 17503 17504 17505 17506 17507 17508 17509 17510 17511 17512 17513 17514 17515 17516 17517 17518 17519 17520 17521 17522 17523 17524 17525 17526 17527 17528 17529 17530 17531 17532 17533 17534 17535 17536 17537 17538 17539 17540 17541 17542 17543 17544 17545 17546 17547 17548 17549 17550 17551 17552 17553 17554 17555 17556 17557 17558 17559 17560 17561 17562 17563 17564 17565 17566 17567 17568 17569 17570 17571 17572 17573 17574 17575 17576 17577 17578 17579 17580 17581 17582 17583 17584 17585 17586 17587 17588 17589 17590 17591 17592 17593 17594 17595 17596 17597 17598 17599 17600 17601 17602 17603 17604 17605 17606 17607 17608 17609 17610 17611 17612 17613 17614 17615 17616 17617 17618 17619 17620 17621 17622 17623 17624 17625 17626 17627 17628 17629 17630 17631 17632 17633 17634 17635 17636 17637 17638 17639 17640 17641 17642 17643 17644 17645 17646 17647 17648 17649 17650 17651 17652 17653 17654 17655 17656 17657 17658 17659 17660 17661 17662 17663 17664 17665 17666 17667 17668 17669 17670 17671 17672 17673 17674 17675 17676 17677 17678 17679 17680 17681 17682 17683 17684 17685 17686 17687 17688 17689 17690 17691 17692 17693 17694 17695 17696 17697 17698 17699 17700 17701 17702 17703 17704 17705 17706 17707 17708 17709 17710 17711 17712 17713 17714 17715 17716 17717 17718 17719 17720 17721 17722 17723 17724 17725 17726 17727 17728 17729 17730 17731 17732 17733 17734 17735 17736 17737 17738 17739 17740 17741 17742 17743 17744 17745 17746 17747 17748 17749 17750 17751 17752 17753 17754 17755 17756 17757 17758 17759 17760 17761 17762 17763 17764 17765 17766 17767 17768 17769 17770 17771 17772 17773 17774 17775 17776 17777 17778 17779 17780 17781 17782 17783 17784 17785 17786 17787 17788 17789 17790 17791 17792 17793 17794 17795 17796 17797 17798 17799 17800 17801 17802 17803 17804 17805 17806 17807 17808 17809 17810 17811 17812 17813 17814 17815 17816 17817 17818 17819 17820 17821 17822 17823 17824 17825 17826 17827 17828 17829 17830 17831 17832 17833 17834 17835 17836 17837 17838 17839 17840 17841 17842 17843 17844 17845 17846 17847 17848 17849 17850 17851 17852 17853 17854 17855 17856 17857 17858 17859 17860 17861 17862 17863 17864 17865 17866 17867 17868 17869 17870 17871 17872 17873 17874 17875 17876 17877 17878 17879 17880 17881 17882 17883 17884 17885 17886 17887 17888 17889 17890 17891 17892 17893 17894 17895 17896 17897 17898 17899 17900 17901 17902 17903 17904 17905 17906 17907 17908 17909 17910 17911 17912 17913 17914 17915 17916 17917 17918 17919 17920 17921 17922 17923 17924 17925 17926 17927 17928 17929 17930 17931 17932 17933 17934 17935 17936 17937 17938 17939 17940 17941 17942 17943 17944 17945 17946 17947 17948 17949 17950 17951 17952 17953 17954 17955 17956 17957 17958 17959 17960 17961 17962 17963 17964 17965 17966 17967 17968 17969 17970 17971 17972 17973 17974 17975 17976 17977 17978 17979 17980 17981 17982 17983 17984 17985 17986 17987 17988 17989 17990 17991 17992 17993 17994 17995 17996 17997 17998 17999 18000 18001 18002 18003 18004 18005 18006 18007 18008 18009 18010 18011 18012 18013 18014 18015 18016 18017 18018 18019 18020 18021 18022 18023 18024 18025 18026 18027 18028 18029 18030 18031 18032 18033 18034 18035 18036 18037 18038 18039 18040 18041 18042 18043 18044 18045 18046 18047 18048 18049 18050 18051 18052 18053 18054 18055 18056 18057 18058 18059 18060 18061 18062 18063 18064 18065 18066 18067 18068 18069 18070 18071 18072 18073 18074 18075 18076 18077 18078 18079 18080 18081 18082 18083 18084 18085 18086 18087 18088 18089 18090 18091 18092 18093 18094 18095 18096 18097 18098 18099 18100 18101 18102 18103 18104 18105 18106 18107 18108 18109 18110 18111 18112 18113 18114 18115 18116 18117 18118 18119 18120 18121 18122 18123 18124 18125 18126 18127 18128 18129 18130 18131 18132 18133 18134 18135 18136 18137 18138 18139 18140 18141 18142 18143 18144 18145 18146 18147 18148 18149 18150 18151 18152 18153 18154 18155 18156 18157 18158 18159 18160 18161 18162 18163 18164 18165 18166 18167 18168 18169 18170 18171 18172 18173 18174 18175 18176 18177 18178 18179 18180 18181 18182 18183 18184 18185 18186 18187 18188 18189 18190 18191 18192 18193 18194 18195 18196 18197 18198 18199 18200 18201 18202 18203 18204 18205 18206 18207 18208 18209 18210 18211 18212 18213 18214 18215 18216 18217 18218 18219 18220 18221 18222 18223 18224 18225 18226 18227 18228 18229 18230 18231 18232 18233 18234 18235 18236 18237 18238 18239 18240 18241 18242 18243 18244 18245 18246 18247 18248 18249 18250 18251 18252 18253 18254 18255 18256 18257 18258 18259 18260 18261 18262 18263 18264 18265 18266 18267 18268 18269 18270 18271 18272 18273 18274 18275 18276 18277 18278 18279 18280 18281 18282 18283 18284 18285 18286 18287 18288 18289 18290 18291 18292 18293 18294 18295 18296 18297 18298 18299 18300 18301 18302 18303 18304 18305 18306 18307 18308 18309 18310 18311 18312 18313 18314 18315 18316 18317 18318 18319 18320 18321 18322 18323 18324 18325 18326 18327 18328 18329 18330 18331 18332 18333 18334 18335 18336 18337 18338 18339 18340 18341 18342 18343 18344 18345 18346 18347 18348 18349 18350 18351 18352 18353 18354 18355 18356 18357 18358 18359 18360 18361 18362 18363 18364 18365 18366 18367 18368 18369 18370 18371 18372 18373 18374 18375 18376 18377 18378 18379 18380 18381 18382 18383 18384 18385 18386 18387 18388 18389 18390 18391 18392 18393 18394 18395 18396 18397 18398 18399 18400 18401 18402 18403 18404 18405 18406 18407 18408 18409 18410 18411 18412 18413 18414 18415 18416 18417 18418 18419 18420 18421 18422 18423 18424 18425 18426 18427 18428 18429 18430 18431 18432 18433 18434 18435 18436 18437 18438 18439 18440 18441 18442 18443 18444 18445 18446 18447 18448 18449 18450 18451 18452 18453 18454 18455 18456 18457 18458 18459 18460 18461 18462 18463 18464 18465 18466 18467 18468 18469 18470 18471 18472 18473 18474 18475 18476 18477 18478 18479 18480 18481 18482 18483 18484 18485 18486 18487 18488 18489 18490 18491 18492 18493 18494 18495 18496 18497 18498 18499 18500 18501 18502 18503 18504 18505 18506 18507 18508 18509 18510 18511 18512 18513 18514 18515 18516 18517 18518 18519 18520 18521 18522 18523 18524 18525 18526 18527 18528 18529 18530 18531 18532 18533 18534 18535 18536 18537 18538 18539 18540 18541 18542 18543 18544 18545 18546 18547 18548 18549 18550 18551 18552 18553 18554 18555 18556 18557 18558 18559 18560 18561 18562 18563 18564 18565 18566 18567 18568 18569 18570 18571 18572 18573 18574 18575 18576 18577 18578 18579 18580 18581 18582 18583 18584 18585 18586 18587 18588 18589 18590 18591 18592 18593 18594 18595 18596 18597 18598 18599 18600 18601 18602 18603 18604 18605 18606 18607 18608 18609 18610 18611 18612 18613 18614 18615 18616 18617 18618 18619 18620 18621 18622 18623 18624 18625 18626 18627 18628 18629 18630 18631 18632 18633 18634 18635 18636 18637 18638 18639 18640 18641 18642 18643 18644 18645 18646 18647 18648 18649 18650 18651 18652 18653 18654 18655 18656 18657 18658 18659 18660 18661 18662 18663 18664 18665 18666 18667 18668 18669 18670 18671 18672 18673 18674 18675 18676 18677 18678 18679 18680 18681 18682 18683 18684 18685 18686 18687 18688 18689 18690 18691 18692 18693 18694 18695 18696 18697 18698 18699 18700 18701 18702 18703 18704 18705 18706 18707 18708 18709 18710 18711 18712 18713 18714 18715 18716 18717 18718 18719 18720 18721 18722 18723 18724 18725 18726 18727 18728 18729 18730 18731 18732 18733 18734 18735 18736 18737 18738 18739 18740 18741 18742 18743 18744 18745 18746 18747 18748 18749 18750 18751 18752 18753 18754 18755 18756 18757 18758 18759 18760 18761 18762 18763 18764 18765 18766 18767 18768 18769 18770 18771 18772 18773 18774 18775 18776 18777 18778 18779 18780 18781 18782 18783 18784 18785 18786 18787 18788 18789 18790 18791 18792 18793 18794 18795 18796 18797 18798 18799 18800 18801 18802 18803 18804 18805 18806 18807 18808 18809 18810 18811 18812 18813 18814 18815 18816 18817 18818 18819 18820 18821 18822 18823 18824 18825 18826 18827 18828 18829 18830 18831 18832 18833 18834 18835 18836 18837 18838 18839 18840 18841 18842 18843 18844 18845 18846 18847 18848 18849 18850 18851 18852 18853 18854 18855 18856 18857 18858 18859 18860 18861 18862 18863 18864 18865 18866 18867 18868 18869 18870 18871 18872 18873 18874 18875 18876 18877 18878 18879 18880 18881 18882 18883 18884 18885 18886 18887 18888 18889 18890 18891 18892 18893 18894 18895 18896 18897 18898 18899 18900 18901 18902 18903 18904 18905 18906 18907 18908 18909 18910 18911 18912 18913 18914 18915 18916 18917 18918 18919 18920 18921 18922 18923 18924 18925 18926 18927 18928 18929 18930 18931 18932 18933 18934 18935 18936 18937 18938 18939 18940 18941 18942 18943 18944 18945 18946 18947 18948 18949 18950 18951 18952 18953 18954 18955 18956 18957 18958 18959 18960 18961 18962 18963 18964 18965 18966 18967 18968 18969 18970 18971 18972 18973 18974 18975 18976 18977 18978 18979 18980 18981 18982 18983 18984 18985 18986 18987 18988 18989 18990 18991 18992 18993 18994 18995 18996 18997 18998 18999 19000 19001 19002 19003 19004 19005 19006 19007 19008 19009 19010 19011 19012 19013 19014 19015 19016 19017 19018 19019 19020 19021 19022 19023 19024 19025 19026 19027 19028 19029 19030 19031 19032 19033 19034 19035 19036 19037 19038 19039 19040 19041 19042 19043 19044 19045 19046 19047 19048 19049 19050 19051 19052 19053 19054 19055 19056 19057 19058 19059 19060 19061 19062 19063 19064 19065 19066 19067 19068 19069 19070 19071 19072 19073 19074 19075 19076 19077 19078 19079 19080 19081 19082 19083 19084 19085 19086 19087 19088 19089 19090 19091 19092 19093 19094 19095 19096 19097 19098 19099 19100 19101 19102 19103 19104 19105 19106 19107 19108 19109 19110 19111 19112 19113 19114 19115 19116 19117 19118 19119 19120 19121 19122 19123 19124 19125 19126 19127 19128 19129 19130 19131 19132 19133 19134 19135 19136 19137 19138 19139 19140 19141 19142 19143 19144 19145 19146 19147 19148 19149 19150 19151 19152 19153 19154 19155 19156 19157 19158 19159 19160 19161 19162 19163 19164 19165 19166 19167 19168 19169 19170 19171 19172 19173 19174 19175 19176 19177 19178 19179 19180 19181 19182 19183 19184 19185 19186 19187 19188 19189 19190 19191 19192 19193 19194 19195 19196 19197 19198 19199 19200 19201 19202 19203 19204 19205 19206 19207 19208 19209 19210 19211 19212 19213 19214 19215 19216 19217 19218 19219 19220 19221 19222 19223 19224 19225 19226 19227 19228 19229 19230 19231 19232 19233 19234 19235 19236 19237 19238 19239 19240 19241 19242 19243 19244 19245 19246 19247 19248 19249 19250 19251 19252 19253 19254 19255 19256 19257 19258 19259 19260 19261 19262 19263 19264 19265 19266 19267 19268 19269 19270 19271 19272 19273 19274 19275 19276 19277 19278 19279 19280 19281 19282 19283 19284 19285 19286 19287 19288 19289 19290 19291 19292 19293 19294 19295 19296 19297 19298 19299 19300 19301 19302 19303 19304 19305 19306 19307 19308 19309 19310 19311 19312 19313 19314 19315 19316 19317 19318 19319 19320 19321 19322 19323 19324 19325 19326 19327 19328 19329 19330 19331 19332 19333 19334 19335 19336 19337 19338 19339 19340 19341 19342 19343 19344 19345 19346 19347 19348 19349 19350 19351 19352 19353 19354 19355 19356 19357 19358 19359 19360 19361 19362 19363 19364 19365 19366 19367 19368 19369 19370 19371 19372 19373 19374 19375 19376 19377 19378 19379 19380 19381 19382 19383 19384 19385 19386 19387 19388 19389 19390 19391 19392 19393 19394 19395 19396 19397 19398 19399 19400 19401 19402 19403 19404 19405 19406 19407 19408 19409 19410 19411 19412 19413 19414 19415 19416 19417 19418 19419 19420 19421 19422 19423 19424 19425 19426 19427 19428 19429 19430 19431 19432 19433 19434 19435 19436 19437 19438 19439 19440 19441 19442 19443 19444 19445 19446 19447 19448 19449 19450 19451 19452 19453 19454 19455 19456 19457 19458 19459 19460 19461 19462 19463 19464 19465 19466 19467 19468 19469 19470 19471 19472 19473 19474 19475 19476 19477 19478 19479 19480 19481 19482 19483 19484 19485 19486 19487 19488 19489 19490 19491 19492 19493 19494 19495 19496 19497 19498 19499 19500 19501 19502 19503 19504 19505 19506 19507 19508 19509 19510 19511 19512 19513 19514 19515 19516 19517 19518 19519 19520 19521 19522 19523 19524 19525 19526 19527 19528 19529 19530 19531 19532 19533 19534 19535 19536 19537 19538 19539 19540 19541 19542 19543 19544 19545 19546 19547 19548 19549 19550 19551 19552 19553 19554 19555 19556 19557 19558 19559 19560 19561 19562 19563 19564 19565 19566 19567 19568 19569 19570 19571 19572 19573 19574 19575 19576 19577 19578 19579 19580 19581 19582 19583 19584 19585 19586 19587 19588 19589 19590 19591 19592 19593 19594 19595 19596 19597 19598 19599 19600 19601 19602 19603 19604 19605 19606 19607 19608 19609 19610 19611 19612 19613 19614 19615 19616 19617 19618 19619 19620 19621 19622 19623 19624 19625 19626 19627 19628 19629 19630 19631 19632 19633 19634 19635 19636 19637 19638 19639 19640 19641 19642 19643 19644 19645 19646 19647 19648 19649 19650 19651 19652 19653 19654 19655 19656 19657 19658 19659 19660 19661 19662 19663 19664 19665 19666 19667 19668 19669 19670 19671 19672 19673 19674 19675 19676 19677 19678 19679 19680 19681 19682 19683 19684 19685 19686 19687 19688 19689 19690 19691 19692 19693 19694 19695 19696 19697 19698 19699 19700 19701 19702 19703 19704 19705 19706 19707 19708 19709 19710 19711 19712 19713 19714 19715 19716 19717 19718 19719 19720 19721 19722 19723 19724 19725 19726 19727 19728 19729 19730 19731 19732 19733 19734 19735 19736 19737 19738 19739 19740 19741 19742 19743 19744 19745 19746 19747 19748 19749 19750 19751 19752 19753 19754 19755 19756 19757 19758 19759 19760 19761 19762 19763 19764 19765 19766 19767 19768 19769 19770 19771 19772 19773 19774 19775 19776 19777 19778 19779 19780 19781 19782 19783 19784 19785 19786 19787 19788 19789 19790 19791 19792 19793 19794 19795 19796 19797 19798 19799 19800 19801 19802 19803 19804 19805 19806 19807 19808 19809 19810 19811 19812 19813 19814 19815 19816 19817 19818 19819 19820 19821 19822 19823 19824 19825 19826 19827 19828 19829 19830 19831 19832 19833 19834 19835 19836 19837 19838 19839 19840 19841 19842 19843 19844 19845 19846 19847 19848 19849 19850 19851 19852 19853 19854 19855 19856 19857 19858 19859 19860 19861 19862 19863 19864 19865 19866 19867 19868 19869 19870 19871 19872 19873 19874 19875 19876 19877 19878 19879 19880 19881 19882 19883 19884 19885 19886 19887 19888 19889 19890 19891 19892 19893 19894 19895 19896 19897 19898 19899 19900 19901 19902 19903 19904 19905 19906 19907 19908 19909 19910 19911 19912 19913 19914 19915 19916 19917 19918 19919 19920 19921 19922 19923 19924 19925 19926 19927 19928 19929 19930 19931 19932 19933 19934 19935 19936 19937 19938 19939 19940 19941 19942 19943 19944 19945 19946 19947 19948 19949 19950 19951 19952 19953 19954 19955 19956 19957 19958 19959 19960 19961 19962 19963 19964 19965 19966 19967 19968 19969 19970 19971 19972 19973 19974 19975 19976 19977 19978 19979 19980 19981 19982 19983 19984 19985 19986 19987 19988 19989 19990 19991 19992 19993 19994 19995 19996 19997 19998 19999 20000 20001 20002 20003 20004 20005 20006 20007 20008 20009 20010 20011 20012 20013 20014 20015 20016 20017 20018 20019 20020 20021 20022 20023 20024 20025 20026 20027 20028 20029 20030 20031 20032 20033 20034 20035 20036 20037 20038 20039 20040 20041 20042 20043 20044 20045 20046 20047 20048 20049 20050 20051 20052 20053 20054 20055 20056 20057 20058 20059 20060 20061 20062 20063 20064 20065 20066 20067 20068 20069 20070 20071 20072 20073 20074 20075 20076 20077 20078 20079 20080 20081 20082 20083 20084 20085 20086 20087 20088 20089 20090 20091 20092 20093 20094 20095 20096 20097 20098 20099 20100 20101 20102 20103 20104 20105 20106 20107 20108 20109 20110 20111 20112 20113 20114 20115 20116 20117 20118 20119 20120 20121 20122 20123 20124 20125 20126 20127 20128 20129 20130 20131 20132 20133 20134 20135 20136 20137 20138 20139 20140 20141 20142 20143 20144 20145 20146 20147 20148 20149 20150 20151 20152 20153 20154 20155 20156 20157 20158 20159 20160 20161 20162 20163 20164 20165 20166 20167 20168 20169 20170 20171 20172 20173 20174 20175 20176 20177 20178 20179 20180 20181 20182 20183 20184 20185 20186 20187 20188 20189 20190 20191 20192 20193 20194 20195 20196 20197 20198 20199 20200 20201 20202 20203 20204 20205 20206 20207 20208 20209 20210 20211 20212 20213 20214 20215 20216 20217 20218 20219 20220 20221 20222 20223 20224 20225 20226 20227 20228 20229 20230 20231 20232 20233 20234 20235 20236 20237 20238 20239 20240 20241 20242 20243 20244 20245 20246 20247 20248 20249 20250 20251 20252 20253 20254 20255 20256 20257 20258 20259 20260 20261 20262 20263 20264 20265 20266 20267 20268 20269 20270 20271 20272 20273 20274 20275 20276 20277 20278 20279 20280 20281 20282 20283 20284 20285 20286 20287 20288 20289 20290 20291 20292 20293 20294 20295 20296 20297 20298 20299 20300 20301 20302 20303 20304 20305 20306 20307 20308 20309 20310 20311 20312 20313 20314 20315 20316 20317 20318 20319 20320 20321 20322 20323 20324 20325 20326 20327 20328 20329 20330 20331 20332 20333 20334 20335 20336 20337 20338 20339 20340 20341 20342 20343 20344 20345 20346 20347 20348 20349 20350 20351 20352 20353 20354 20355 20356 20357 20358 20359 20360 20361 20362 20363 20364 20365 20366 20367 20368 20369 20370 20371 20372 20373 20374 20375 20376 20377 20378 20379 20380 20381 20382 20383 20384 20385 20386 20387 20388 20389 20390 20391 20392 20393 20394 20395 20396 20397 20398 20399 20400 20401 20402 20403 20404 20405 20406 20407 20408 20409 20410 20411 20412 20413 20414 20415 20416 20417 20418 20419 20420 20421 20422 20423 20424 20425 20426 20427 20428 20429 20430 20431 20432 20433 20434 20435 20436 20437 20438 20439 20440 20441 20442 20443 20444 20445 20446 20447 20448 20449 20450 20451 20452 20453 20454 20455 20456 20457 20458 20459 20460 20461 20462 20463 20464 20465 20466 20467 20468 20469 20470 20471 20472 20473 20474 20475 20476 20477 20478 20479 20480 20481 20482 20483 20484 20485 20486 20487 20488 20489 20490 20491 20492 20493 20494 20495 20496 20497 20498 20499 20500 20501 20502 20503 20504 20505 20506 20507 20508 20509 20510 20511 20512 20513 20514 20515 20516 20517 20518 20519 20520 20521 20522 20523 20524 20525 20526 20527 20528 20529 20530 20531 20532 20533 20534 20535 20536 20537 20538 20539 20540 20541 20542 20543 20544 20545 20546 20547 20548 20549 20550 20551 20552 20553 20554 20555 20556 20557 20558 20559 20560 20561 20562 20563 20564 20565 20566 20567 20568 20569 20570 20571 20572 20573 20574 20575 20576 20577 20578 20579 20580 20581 20582 20583 20584 20585 20586 20587 20588 20589 20590 20591 20592 20593 20594 20595 20596 20597 20598 20599 20600 20601 20602 20603 20604 20605 20606 20607 20608 20609 20610 20611 20612 20613 20614 20615 20616 20617 20618 20619 20620 20621 20622 20623 20624 20625 20626 20627 20628 20629 20630 20631 20632 20633 20634 20635 20636 20637 20638 20639 20640 20641 20642 20643 20644 20645 20646 20647 20648 20649 20650 20651 20652 20653 20654 20655 20656 20657 20658 20659 20660 20661 20662 20663 20664 20665 20666 20667 20668 20669 20670 20671 20672 20673 20674 20675 20676 20677 20678 20679 20680 20681 20682 20683 20684 20685 20686 20687 20688 20689 20690 20691 20692 20693 20694 20695 20696 20697 20698 20699 20700 20701 20702 20703 20704 20705 20706 20707 20708 20709 20710 20711 20712 20713 20714 20715 20716 20717 20718 20719 20720 20721 20722 20723 20724 20725 20726 20727 20728 20729 20730 20731 20732 20733 20734 20735 20736 20737 20738 20739 20740 20741 20742 20743 20744 20745 20746 20747 20748 20749 20750 20751 20752 20753 20754 20755 20756 20757 20758 20759 20760 20761 20762 20763 20764 20765 20766 20767 20768 20769 20770 20771 20772 20773 20774 20775 20776 20777 20778 20779 20780 20781 20782 20783 20784 20785 20786 20787 20788 20789 20790 20791 20792 20793 20794 20795 20796 20797 20798 20799 20800 20801 20802 20803 20804 20805 20806 20807 20808 20809 20810 20811 20812 20813 20814 20815 20816 20817 20818 20819 20820 20821 20822 20823 20824 20825 20826 20827 20828 20829 20830 20831 20832 20833 20834 20835 20836 20837 20838 20839 20840 20841 20842 20843 20844 20845 20846 20847 20848 20849 20850 20851 20852 20853 20854 20855 20856 20857 20858 20859 20860 20861 20862 20863 20864 20865 20866 20867 20868 20869 20870 20871 20872 20873 20874 20875 20876 20877 20878 20879 20880 20881 20882 20883 20884 20885 20886 20887 20888 20889 20890 20891 20892 20893 20894 20895 20896 20897 20898 20899 20900 20901 20902 20903 20904 20905 20906 20907 20908 20909 20910 20911 20912 20913 20914 20915 20916 20917 20918 20919 20920 20921 20922 20923 20924 20925 20926 20927 20928 20929 20930 20931 20932 20933 20934 20935 20936 20937 20938 20939 20940 20941 20942 20943 20944 20945 20946 20947 20948 20949 20950 20951 20952 20953 20954 20955 20956 20957 20958 20959 20960 20961 20962 20963 20964 20965 20966 20967 20968 20969 20970 20971 20972 20973 20974 20975 20976 20977 20978 20979 20980 20981 20982 20983 20984 20985 20986 20987 20988 20989 20990 20991 20992 20993 20994 20995 20996 20997 20998 20999 21000 21001 21002 21003 21004 21005 21006 21007 21008 21009 21010 21011 21012 21013 21014 21015 21016 21017 21018 21019 21020 21021 21022 21023 21024 21025 21026 21027 21028 21029 21030 21031 21032 21033 21034 21035 21036 21037 21038 21039 21040 21041 21042 21043 21044 21045 21046 21047 21048 21049 21050 21051 21052 21053 21054 21055 21056 21057 21058 21059 21060 21061 21062 21063 21064 21065 21066 21067 21068 21069 21070 21071 21072 21073 21074 21075 21076 21077 21078 21079 21080 21081 21082 21083 21084 21085 21086 21087 21088 21089 21090 21091 21092 21093 21094 21095 21096 21097 21098 21099 21100 21101 21102 21103 21104 21105 21106 21107 21108 21109 21110 21111 21112 21113 21114 21115 21116 21117 21118 21119 21120 21121 21122 21123 21124 21125 21126 21127 21128 21129 21130 21131 21132 21133 21134 21135 21136 21137 21138 21139 21140 21141 21142 21143 21144 21145 21146 21147 21148 21149 21150 21151 21152 21153 21154 21155 21156 21157 21158 21159 21160 21161 21162 21163 21164 21165 21166 21167 21168 21169 21170 21171 21172 21173 21174 21175 21176 21177 21178 21179 21180 21181 21182 21183 21184 21185 21186 21187 21188 21189 21190 21191 21192 21193 21194 21195 21196 21197 21198 21199 21200 21201 21202 21203 21204 21205 21206 21207 21208 21209 21210 21211 21212 21213 21214 21215 21216 21217 21218 21219 21220 21221 21222 21223 21224 21225 21226 21227 21228 21229 21230 21231 21232 21233 21234 21235 21236 21237 21238 21239 21240 21241 21242 21243 21244 21245 21246 21247 21248 21249 21250 21251 21252 21253 21254 21255 21256 21257 21258 21259 21260 21261 21262 21263 21264 21265 21266 21267 21268 21269 21270 21271 21272 21273 21274 21275 21276 21277 21278 21279 21280 21281 21282 21283 21284 21285 21286 21287 21288 21289 21290 21291 21292 21293 21294 21295 21296 21297 21298 21299 21300 21301 21302 21303 21304 21305 21306 21307 21308 21309 21310 21311 21312 21313 21314 21315 21316 21317 21318 21319 21320 21321 21322 21323 21324 21325 21326 21327 21328 21329 21330 21331 21332 21333 21334 21335 21336 21337 21338 21339 21340 21341 21342 21343 21344 21345 21346 21347 21348 21349 21350 21351 21352 21353 21354 21355 21356 21357 21358 21359 21360 21361 21362 21363 21364 21365 21366 21367 21368 21369 21370 21371 21372 21373 21374 21375 21376 21377 21378 21379 21380 21381 21382 21383 21384 21385 21386 21387 21388 21389 21390 21391 21392 21393 21394 21395 21396 21397 21398 21399 21400 21401 21402 21403 21404 21405 21406 21407 21408 21409 21410 21411 21412 21413 21414 21415 21416 21417 21418 21419 21420 21421 21422 21423 21424 21425 21426 21427 21428 21429 21430 21431 21432 21433 21434 21435 21436 21437 21438 21439 21440 21441 21442 21443 21444 21445 21446 21447 21448 21449 21450 21451 21452 21453 21454 21455 21456 21457 21458 21459 21460 21461 21462 21463 21464 21465 21466 21467 21468 21469 21470 21471 21472 21473 21474 21475 21476 21477 21478 21479 21480 21481 21482 21483 21484 21485 21486 21487 21488 21489 21490 21491 21492 21493 21494 21495 21496 21497 21498 21499 21500 21501 21502 21503 21504 21505 21506 21507 21508 21509 21510 21511 21512 21513 21514 21515 21516 21517 21518 21519 21520 21521 21522 21523 21524 21525 21526 21527 21528 21529 21530 21531 21532 21533 21534 21535 21536 21537 21538 21539 21540 21541 21542 21543 21544 21545 21546 21547 21548 21549 21550 21551 21552 21553 21554 21555 21556 21557 21558 21559 21560 21561 21562 21563 21564 21565 21566 21567 21568 21569 21570 21571 21572 21573 21574 21575 21576 21577 21578 21579 21580 21581 21582 21583 21584 21585 21586 21587 21588 21589 21590 21591 21592 21593 21594 21595 21596 21597 21598 21599 21600 21601 21602 21603 21604 21605 21606 21607 21608 21609 21610 21611 21612 21613 21614 21615 21616 21617 21618 21619 21620 21621 21622 21623 21624 21625 21626 21627 21628 21629 21630 21631 21632 21633 21634 21635 21636 21637 21638 21639 21640 21641 21642 21643 21644 21645 21646 21647 21648 21649 21650 21651 21652 21653 21654 21655 21656 21657 21658 21659 21660 21661 21662 21663 21664 21665 21666 21667 21668 21669 21670 21671 21672 21673 21674 21675 21676 21677 21678 21679 21680 21681 21682 21683 21684 21685 21686 21687 21688 21689 21690 21691 21692 21693 21694 21695 21696 21697 21698 21699 21700 21701 21702 21703 21704 21705 21706 21707 21708 21709 21710 21711 21712 21713 21714 21715 21716 21717 21718 21719 21720 21721 21722 21723 21724 21725 21726 21727 21728 21729 21730 21731 21732 21733 21734 21735 21736 21737 21738 21739 21740 21741 21742 21743 21744 21745 21746 21747 21748 21749 21750 21751 21752 21753 21754 21755 21756 21757 21758 21759 21760 21761 21762 21763 21764 21765 21766 21767 21768 21769 21770 21771 21772 21773 21774 21775 21776 21777 21778 21779 21780 21781 21782 21783 21784 21785 21786 21787 21788 21789 21790 21791 21792 21793 21794 21795 21796 21797 21798 21799 21800 21801 21802 21803 21804 21805 21806 21807 21808 21809 21810 21811 21812 21813 21814 21815 21816 21817 21818 21819 21820 21821 21822 21823 21824 21825 21826 21827 21828 21829 21830 21831 21832 21833 21834 21835 21836 21837 21838 21839 21840 21841 21842 21843 21844 21845 21846 21847 21848 21849 21850 21851 21852 21853 21854 21855 21856 21857 21858 21859 21860 21861 21862 21863 21864 21865 21866 21867 21868 21869 21870 21871 21872 21873 21874 21875 21876 21877 21878 21879 21880 21881 21882 21883 21884 21885 21886 21887 21888 21889 21890 21891 21892 21893 21894 21895 21896 21897 21898 21899 21900 21901 21902 21903 21904 21905 21906 21907 21908 21909 21910 21911 21912 21913 21914 21915 21916 21917 21918 21919 21920 21921 21922 21923 21924 21925 21926 21927 21928 21929 21930 21931 21932 21933 21934 21935 21936 21937 21938 21939 21940 21941 21942 21943 21944 21945 21946 21947 21948 21949 21950 21951 21952 21953 21954 21955 21956 21957 21958 21959 21960 21961 21962 21963 21964 21965 21966 21967 21968 21969 21970 21971 21972 21973 21974 21975 21976 21977 21978 21979 21980 21981 21982 21983 21984 21985 21986 21987 21988 21989 21990 21991 21992 21993 21994 21995 21996 21997 21998 21999 22000 22001 22002 22003 22004 22005 22006 22007 22008 22009 22010 22011 22012 22013 22014 22015 22016 22017 22018 22019 22020 22021 22022 22023 22024 22025 22026 22027 22028 22029 22030 22031 22032 22033 22034 22035 22036 22037 22038 22039 22040 22041 22042 22043 22044 22045 22046 22047 22048 22049 22050 22051 22052 22053 22054 22055 22056 22057 22058 22059 22060 22061 22062 22063 22064 22065 22066 22067 22068 22069 22070 22071 22072 22073 22074 22075 22076 22077 22078 22079 22080 22081 22082 22083 22084 22085 22086 22087 22088 22089 22090 22091 22092 22093 22094 22095 22096 22097 22098 22099 22100 22101 22102 22103 22104 22105 22106 22107 22108 22109 22110 22111 22112 22113 22114 22115 22116 22117 22118 22119 22120 22121 22122 22123 22124 22125 22126 22127 22128 22129 22130 22131 22132 22133 22134 22135 22136 22137 22138 22139 22140 22141 22142 22143 22144 22145 22146 22147 22148 22149 22150 22151 22152 22153 22154 22155 22156 22157 22158 22159 22160 22161 22162 22163 22164 22165 22166 22167 22168 22169 22170 22171 22172 22173 22174 22175 22176 22177 22178 22179 22180 22181 22182 22183 22184 22185 22186 22187 22188 22189 22190 22191 22192 22193 22194 22195 22196 22197 22198 22199 22200 22201 22202 22203 22204 22205 22206 22207 22208 22209 22210 22211 22212 22213 22214 22215 22216 22217 22218 22219 22220 22221 22222 22223 22224 22225 22226 22227 22228 22229 22230 22231 22232 22233 22234 22235 22236 22237 22238 22239 22240 22241 22242 22243 22244 22245 22246 22247 22248 22249 22250 22251 22252 22253 22254 22255 22256 22257 22258 22259 22260 22261 22262 22263 22264 22265 22266 22267 22268 22269 22270 22271 22272 22273 22274 22275 22276 22277 22278 22279 22280 22281 22282 22283 22284 22285 22286 22287 22288 22289 22290 22291 22292 22293 22294 22295 22296 22297 22298 22299 22300 22301 22302 22303 22304 22305 22306 22307 22308 22309 22310 22311 22312 22313 22314 22315 22316 22317 22318 22319 22320 22321 22322 22323 22324 22325 22326 22327 22328 22329 22330 22331 22332 22333 22334 22335 22336 22337 22338 22339 22340 22341 22342 22343 22344 22345 22346 22347 22348 22349 22350 22351 22352 22353 22354 22355 22356 22357 22358 22359 22360 22361 22362 22363 22364 22365 22366 22367 22368 22369 22370 22371 22372 22373 22374 22375 22376 22377 22378 22379 22380 22381 22382 22383 22384 22385 22386 22387 22388 22389 22390 22391 22392 22393 22394 22395 22396 22397 22398 22399 22400 22401 22402 22403 22404 22405 22406 22407 22408 22409 22410 22411 22412 22413 22414 22415 22416 22417 22418 22419 22420 22421 22422 22423 22424 22425 22426 22427 22428 22429 22430 22431 22432 22433 22434 22435 22436 22437 22438 22439 22440 22441 22442 22443 22444 22445 22446 22447 22448 22449 22450 22451 22452 22453 22454 22455 22456 22457 22458 22459 22460 22461 22462 22463 22464 22465 22466 22467 22468 22469 22470 22471 22472 22473 22474 22475 22476 22477 22478 22479 22480 22481 22482 22483 22484 22485 22486 22487 22488 22489 22490 22491 22492 22493 22494 22495 22496 22497 22498 22499 22500 22501 22502 22503 22504 22505 22506 22507 22508 22509 22510 22511 22512 22513 22514 22515 22516 22517 22518 22519 22520 22521 22522 22523 22524 22525 22526 22527 22528 22529 22530 22531 22532 22533 22534 22535 22536 22537 22538 22539 22540 22541 22542 22543 22544 22545 22546 22547 22548 22549 22550 22551 22552 22553 22554 22555 22556 22557 22558 22559 22560 22561 22562 22563 22564 22565 22566 22567 22568 22569 22570 22571 22572 22573 22574 22575 22576 22577 22578 22579 22580 22581 22582 22583 22584 22585 22586 22587 22588 22589 22590 22591 22592 22593 22594 22595 22596 22597 22598 22599 22600 22601 22602 22603 22604 22605 22606 22607 22608 22609 22610 22611 22612 22613 22614 22615 22616 22617 22618 22619 22620 22621 22622 22623 22624 22625 22626 22627 22628 22629 22630 22631 22632 22633 22634 22635 22636 22637 22638 22639 22640 22641 22642 22643 22644 22645 22646 22647 22648 22649 22650 22651 22652 22653 22654 22655 22656 22657 22658 22659 22660 22661 22662 22663 22664 22665 22666 22667 22668 22669 22670 22671 22672 22673 22674 22675 22676 22677 22678 22679 22680 22681 22682 22683 22684 22685 22686 22687 22688 22689 22690 22691 22692 22693 22694 22695 22696 22697 22698 22699 22700 22701 22702 22703 22704 22705 22706 22707 22708 22709 22710 22711 22712 22713 22714 22715 22716 22717 22718 22719 22720 22721 22722 22723 22724 22725 22726 22727 22728 22729 22730 22731 22732 22733 22734 22735 22736 22737 22738 22739 22740 22741 22742 22743 22744 22745 22746 22747 22748 22749 22750 22751 22752 22753 22754 22755 22756 22757 22758 22759 22760 22761 22762 22763 22764 22765 22766 22767 22768 22769 22770 22771 22772 22773 22774 22775 22776 22777 22778 22779 22780 22781 22782 22783 22784 22785 22786 22787 22788 22789 22790 22791 22792 22793 22794 22795 22796 22797 22798 22799 22800 22801 22802 22803 22804 22805 22806 22807 22808 22809 22810 22811 22812 22813 22814 22815 22816 22817 22818 22819 22820 22821 22822 22823 22824 22825 22826 22827 22828 22829 22830 22831 22832 22833 22834 22835 22836 22837 22838 22839 22840 22841 22842 22843 22844 22845 22846 22847 22848 22849 22850 22851 22852 22853 22854 22855 22856 22857 22858 22859 22860 22861 22862 22863 22864 22865 22866 22867 22868 22869 22870 22871 22872 22873 22874 22875 22876 22877 22878 22879 22880 22881 22882 22883 22884 22885 22886 22887 22888 22889 22890 22891 22892 22893 22894 22895 22896 22897 22898 22899 22900 22901 22902 22903 22904 22905 22906 22907 22908 22909 22910 22911 22912 22913 22914 22915 22916 22917 22918 22919 22920 22921 22922 22923 22924 22925 22926 22927 22928 22929 22930 22931 22932 22933 22934 22935 22936 22937 22938 22939 22940 22941 22942 22943 22944 22945 22946 22947 22948 22949 22950 22951 22952 22953 22954 22955 22956 22957 22958 22959 22960 22961 22962 22963 22964 22965 22966 22967 22968 22969 22970 22971 22972 22973 22974 22975 22976 22977 22978 22979 22980 22981 22982 22983 22984 22985 22986 22987 22988 22989 22990 22991 22992 22993 22994 22995 22996 22997 22998 22999 23000 23001 23002 23003 23004 23005 23006 23007 23008 23009 23010 23011 23012 23013 23014 23015 23016 23017 23018 23019 23020 23021 23022 23023 23024 23025 23026 23027 23028 23029 23030 23031 23032 23033 23034 23035 23036 23037 23038 23039 23040 23041 23042 23043 23044 23045 23046 23047 23048 23049 23050 23051 23052 23053 23054 23055 23056 23057 23058 23059 23060 23061 23062 23063 23064 23065 23066 23067 23068 23069 23070 23071 23072 23073 23074 23075 23076 23077 23078 23079 23080 23081 23082 23083 23084 23085 23086 23087 23088 23089 23090 23091 23092 23093 23094 23095 23096 23097 23098 23099 23100 23101 23102 23103 23104 23105 23106 23107 23108 23109 23110 23111 23112 23113 23114 23115 23116 23117 23118 23119 23120 23121 23122 23123 23124 23125 23126 23127 23128 23129 23130 23131 23132 23133 23134 23135 23136 23137 23138 23139 23140 23141 23142 23143 23144 23145 23146 23147 23148 23149 23150 23151 23152 23153 23154 23155 23156 23157 23158 23159 23160 23161 23162 23163 23164 23165 23166 23167 23168 23169 23170 23171 23172 23173 23174 23175 23176 23177 23178 23179 23180 23181 23182 23183 23184 23185 23186 23187 23188 23189 23190 23191 23192 23193 23194 23195 23196 23197 23198 23199 23200 23201 23202 23203 23204 23205 23206 23207 23208 23209 23210 23211 23212 23213 23214 23215 23216 23217 23218 23219 23220 23221 23222 23223 23224 23225 23226 23227 23228 23229 23230 23231 23232 23233 23234 23235 23236 23237 23238 23239 23240 23241 23242 23243 23244 23245 23246 23247 23248 23249 23250 23251 23252 23253 23254 23255 23256 23257 23258 23259 23260 23261 23262 23263 23264 23265 23266 23267 23268 23269 23270 23271 23272 23273 23274 23275 23276 23277 23278 23279 23280 23281 23282 23283 23284 23285 23286 23287 23288 23289 23290 23291 23292 23293 23294 23295 23296 23297 23298 23299 23300 23301 23302 23303 23304 23305 23306 23307 23308 23309 23310 23311 23312 23313 23314 23315 23316 23317 23318 23319 23320 23321 23322 23323 23324 23325 23326 23327 23328 23329 23330 23331 23332 23333 23334 23335 23336 23337 23338 23339 23340 23341 23342 23343 23344 23345 23346 23347 23348 23349 23350 23351 23352 23353 23354 23355 23356 23357 23358 23359 23360 23361 23362 23363 23364 23365 23366 23367 23368 23369 23370 23371 23372 23373 23374 23375 23376 23377 23378 23379 23380 23381 23382 23383 23384 23385 23386 23387 23388 23389 23390 23391 23392 23393 23394 23395 23396 23397 23398 23399 23400 23401 23402 23403 23404 23405 23406 23407 23408 23409 23410 23411 23412 23413 23414 23415 23416 23417 23418 23419 23420 23421 23422 23423 23424 23425 23426 23427 23428 23429 23430 23431 23432 23433 23434 23435 23436 23437 23438 23439 23440 23441 23442 23443 23444 23445 23446 23447 23448 23449 23450 23451 23452 23453 23454 23455 23456 23457 23458 23459 23460 23461 23462 23463 23464 23465 23466 23467 23468 23469 23470 23471 23472 23473 23474 23475 23476 23477 23478 23479 23480 23481 23482 23483 23484 23485 23486 23487 23488 23489 23490 23491 23492 23493 23494 23495 23496 23497 23498 23499 23500 23501 23502 23503 23504 23505 23506 23507 23508 23509 23510 23511 23512 23513 23514 23515 23516 23517 23518 23519 23520 23521 23522 23523 23524 23525 23526 23527 23528 23529 23530 23531 23532 23533 23534 23535 23536 23537 23538 23539 23540 23541 23542 23543 23544 23545 23546 23547 23548 23549 23550 23551 23552 23553 23554 23555 23556 23557 23558 23559 23560 23561 23562 23563 23564 23565 23566 23567 23568 23569 23570 23571 23572 23573 23574 23575 23576 23577 23578 23579 23580 23581 23582 23583 23584 23585 23586 23587 23588 23589 23590 23591 23592 23593 23594 23595 23596 23597 23598 23599 23600 23601 23602 23603 23604 23605 23606 23607 23608 23609 23610 23611 23612 23613 23614 23615 23616 23617 23618 23619 23620 23621 23622 23623 23624 23625 23626 23627 23628 23629 23630 23631 23632 23633 23634 23635 23636 23637 23638 23639 23640 23641 23642 23643 23644 23645 23646 23647 23648 23649 23650 23651 23652 23653 23654 23655 23656 23657 23658 23659 23660 23661 23662 23663 23664 23665 23666 23667 23668 23669 23670 23671 23672 23673 23674 23675 23676 23677 23678 23679 23680 23681 23682 23683 23684 23685 23686 23687 23688 23689 23690 23691 23692 23693 23694 23695 23696 23697 23698 23699 23700 23701 23702 23703 23704 23705 23706 23707 23708 23709 23710 23711 23712 23713 23714 23715 23716 23717 23718 23719 23720 23721 23722 23723 23724 23725 23726 23727 23728 23729 23730 23731 23732 23733 23734 23735 23736 23737 23738 23739 23740 23741 23742 23743 23744 23745 23746 23747 23748 23749 23750 23751 23752 23753 23754 23755 23756 23757 23758 23759 23760 23761 23762 23763 23764 23765 23766 23767 23768 23769 23770 23771 23772 23773 23774 23775 23776 23777 23778 23779 23780 23781 23782 23783 23784 23785 23786 23787 23788 23789 23790 23791 23792 23793 23794 23795 23796 23797 23798 23799 23800 23801 23802 23803 23804 23805 23806 23807 23808 23809 23810 23811 23812 23813 23814 23815 23816 23817 23818 23819 23820 23821 23822 23823 23824 23825 23826 23827 23828 23829 23830 23831 23832 23833 23834 23835 23836 23837 23838 23839 23840 23841 23842 23843 23844 23845 23846 23847 23848 23849 23850 23851 23852 23853 23854 23855 23856 23857 23858 23859 23860 23861 23862 23863 23864 23865 23866 23867 23868 23869 23870 23871 23872 23873 23874 23875 23876 23877 23878 23879 23880 23881 23882 23883 23884 23885 23886 23887 23888 23889 23890 23891 23892 23893 23894 23895 23896 23897 23898 23899 23900 23901 23902 23903 23904 23905 23906 23907 23908 23909 23910 23911 23912 23913 23914 23915 23916 23917 23918 23919 23920 23921 23922 23923 23924 23925 23926 23927 23928 23929 23930 23931 23932 23933 23934 23935 23936 23937 23938 23939 23940 23941 23942 23943 23944 23945 23946 23947 23948 23949 23950 23951 23952 23953 23954 23955 23956 23957 23958 23959 23960 23961 23962 23963 23964 23965 23966 23967 23968 23969 23970 23971 23972 23973 23974 23975 23976 23977 23978 23979 23980 23981 23982 23983 23984 23985 23986 23987 23988 23989 23990 23991 23992 23993 23994 23995 23996 23997 23998 23999 24000 24001 24002 24003 24004 24005 24006 24007 24008 24009 24010 24011 24012 24013 24014 24015 24016 24017 24018 24019 24020 24021 24022 24023 24024 24025 24026 24027 24028 24029 24030 24031 24032 24033 24034 24035 24036 24037 24038 24039 24040 24041 24042 24043 24044 24045 24046 24047 24048 24049 24050 24051 24052 24053 24054 24055 24056 24057 24058 24059 24060 24061 24062 24063 24064 24065 24066 24067 24068 24069 24070 24071 24072 24073 24074 24075 24076 24077 24078 24079 24080 24081 24082 24083 24084 24085 24086 24087 24088 24089 24090 24091 24092 24093 24094 24095 24096 24097 24098 24099 24100 24101 24102 24103 24104 24105 24106 24107 24108 24109 24110 24111 24112 24113 24114 24115 24116 24117 24118 24119 24120 24121 24122 24123 24124 24125 24126 24127 24128 24129 24130 24131 24132 24133 24134 24135 24136 24137 24138 24139 24140 24141 24142 24143 24144 24145 24146 24147 24148 24149 24150 24151 24152 24153 24154 24155 24156 24157 24158 24159 24160 24161 24162 24163 24164 24165 24166 24167 24168 24169 24170 24171 24172 24173 24174 24175 24176 24177 24178 24179 24180 24181 24182 24183 24184 24185 24186 24187 24188 24189 24190 24191 24192 24193 24194 24195 24196 24197 24198 24199 24200 24201 24202 24203 24204 24205 24206 24207 24208 24209 24210 24211 24212 24213 24214 24215 24216 24217 24218 24219 24220 24221 24222 24223 24224 24225 24226 24227 24228 24229 24230 24231 24232 24233 24234 24235 24236 24237 24238 24239 24240 24241 24242 24243 24244 24245 24246 24247 24248 24249 24250 24251 24252 24253 24254 24255 24256 24257 24258 24259 24260 24261 24262 24263 24264 24265 24266 24267 24268 24269 24270 24271 24272 24273 24274 24275 24276 24277 24278 24279 24280 24281 24282 24283 24284 24285 24286 24287 24288 24289 24290 24291 24292 24293 24294 24295 24296 24297 24298 24299 24300 24301 24302 24303 24304 24305 24306 24307 24308 24309 24310 24311 24312 24313 24314 24315 24316 24317 24318 24319 24320 24321 24322 24323 24324 24325 24326 24327 24328 24329 24330 24331 24332 24333 24334 24335 24336 24337 24338 24339 24340 24341 24342 24343 24344 24345 24346 24347 24348 24349 24350 24351 24352 24353 24354 24355 24356 24357 24358 24359 24360 24361 24362 24363 24364 24365 24366 24367 24368 24369 24370 24371 24372 24373 24374 24375 24376 24377 24378 24379 24380 24381 24382 24383 24384 24385 24386 24387 24388 24389 24390 24391 24392 24393 24394 24395 24396 24397 24398 24399 24400 24401 24402 24403 24404 24405 24406 24407 24408 24409 24410 24411 24412 24413 24414 24415 24416 24417 24418 24419 24420 24421 24422 24423 24424 24425 24426 24427 24428 24429 24430 24431 24432 24433 24434 24435 24436 24437 24438 24439 24440 24441 24442 24443 24444 24445 24446 24447 24448 24449 24450 24451 24452 24453 24454 24455 24456 24457 24458 24459 24460 24461 24462 24463 24464 24465 24466 24467 24468 24469 24470 24471 24472 24473 24474 24475 24476 24477 24478 24479 24480 24481 24482 24483 24484 24485 24486 24487 24488 24489 24490 24491 24492 24493 24494 24495 24496 24497 24498 24499 24500 24501 24502 24503 24504 24505 24506 24507 24508 24509 24510 24511 24512 24513 24514 24515 24516 24517 24518 24519 24520 24521 24522 24523 24524 24525 24526 24527 24528 24529 24530 24531 24532 24533 24534 24535 24536 24537 24538 24539 24540 24541 24542 24543 24544 24545 24546 24547 24548 24549 24550 24551 24552 24553 24554 24555 24556 24557 24558 24559 24560 24561 24562 24563 24564 24565 24566 24567 24568 24569 24570 24571 24572 24573 24574 24575 24576 24577 24578 24579 24580 24581 24582 24583 24584 24585 24586 24587 24588 24589 24590 24591 24592 24593 24594 24595 24596 24597 24598 24599 24600 24601 24602 24603 24604 24605 24606 24607 24608 24609 24610 24611 24612 24613 24614 24615 24616 24617 24618 24619 24620 24621 24622 24623 24624 24625 24626 24627 24628 24629 24630 24631 24632 24633 24634 24635 24636 24637 24638 24639 24640 24641 24642 24643 24644 24645 24646 24647 24648 24649 24650 24651 24652 24653 24654 24655 24656 24657 24658 24659 24660 24661 24662 24663 24664 24665 24666 24667 24668 24669 24670 24671 24672 24673 24674 24675 24676 24677 24678 24679 24680 24681 24682 24683 24684 24685 24686 24687 24688 24689 24690 24691 24692 24693 24694 24695 24696 24697 24698 24699 24700 24701 24702 24703 24704 24705 24706 24707 24708 24709 24710 24711 24712 24713 24714 24715 24716 24717 24718 24719 24720 24721 24722 24723 24724 24725 24726 24727 24728 24729 24730 24731 24732 24733 24734 24735 24736 24737 24738 24739 24740 24741 24742 24743 24744 24745 24746 24747 24748 24749 24750 24751 24752 24753 24754 24755 24756 24757 24758 24759 24760 24761 24762 24763 24764 24765 24766 24767 24768 24769 24770 24771 24772 24773 24774 24775 24776 24777 24778 24779 24780 24781 24782 24783 24784 24785 24786 24787 24788 24789 24790 24791 24792 24793 24794 24795 24796 24797 24798 24799 24800 24801 24802 24803 24804 24805 24806 24807 24808 24809 24810 24811 24812 24813 24814 24815 24816 24817 24818 24819 24820 24821 24822 24823 24824 24825 24826 24827 24828 24829 24830 24831 24832 24833 24834 24835 24836 24837 24838 24839 24840 24841 24842 24843 24844 24845 24846 24847 24848 24849 24850 24851 24852 24853 24854 24855 24856 24857 24858 24859 24860 24861 24862 24863 24864 24865 24866 24867 24868 24869 24870 24871 24872 24873 24874 24875 24876 24877 24878 24879 24880 24881 24882 24883 24884 24885 24886 24887 24888 24889 24890 24891 24892 24893 24894 24895 24896 24897 24898 24899 24900 24901 24902 24903 24904 24905 24906 24907 24908 24909 24910 24911 24912 24913 24914 24915 24916 24917 24918 24919 24920 24921 24922 24923 24924 24925 24926 24927 24928 24929 24930 24931 24932 24933 24934 24935 24936 24937 24938 24939 24940 24941 24942 24943 24944 24945 24946 24947 24948 24949 24950 24951 24952 24953 24954 24955 24956 24957 24958 24959 24960 24961 24962 24963 24964 24965 24966 24967 24968 24969 24970 24971 24972 24973 24974 24975 24976 24977 24978 24979 24980 24981 24982 24983 24984 24985 24986 24987 24988 24989 24990 24991 24992 24993 24994 24995 24996 24997 24998 24999 25000 25001 25002 25003 25004 25005 25006 25007 25008 25009 25010 25011 25012 25013 25014 25015 25016 25017 25018 25019 25020 25021 25022 25023 25024 25025 25026 25027 25028 25029 25030 25031 25032 25033 25034 25035 25036 25037 25038 25039 25040 25041 25042 25043 25044 25045 25046 25047 25048 25049 25050 25051 25052 25053 25054 25055 25056 25057 25058 25059 25060 25061 25062 25063 25064 25065 25066 25067 25068 25069 25070 25071 25072 25073 25074 25075 25076 25077 25078 25079 25080 25081 25082 25083 25084 25085 25086 25087 25088 25089 25090 25091 25092 25093 25094 25095 25096 25097 25098 25099 25100 25101 25102 25103 25104 25105 25106 25107 25108 25109 25110 25111 25112 25113 25114 25115 25116 25117 25118 25119 25120 25121 25122 25123 25124 25125 25126 25127 25128 25129 25130 25131 25132 25133 25134 25135 25136 25137 25138 25139 25140 25141 25142 25143 25144 25145 25146 25147 25148 25149 25150 25151 25152 25153 25154 25155 25156 25157 25158 25159 25160 25161 25162 25163 25164 25165 25166 25167 25168 25169 25170 25171 25172 25173 25174 25175 25176 25177 25178 25179 25180 25181 25182 25183 25184 25185 25186 25187 25188 25189 25190 25191 25192 25193 25194 25195 25196 25197 25198 25199 25200 25201 25202 25203 25204 25205 25206 25207 25208 25209 25210 25211 25212 25213 25214 25215 25216 25217 25218 25219 25220 25221 25222 25223 25224 25225 25226 25227 25228 25229 25230 25231 25232 25233 25234 25235 25236 25237 25238 25239 25240 25241 25242 25243 25244 25245 25246 25247 25248 25249 25250 25251 25252 25253 25254 25255 25256 25257 25258 25259 25260 25261 25262 25263 25264 25265 25266 25267 25268 25269 25270 25271 25272 25273 25274 25275 25276 25277 25278 25279 25280 25281 25282 25283 25284 25285 25286 25287 25288 25289 25290 25291 25292 25293 25294 25295 25296 25297 25298 25299 25300 25301 25302 25303 25304 25305 25306 25307 25308 25309 25310 25311 25312 25313 25314 25315 25316 25317 25318 25319 25320 25321 25322 25323 25324 25325 25326 25327 25328 25329 25330 25331 25332 25333 25334 25335 25336 25337 25338 25339 25340 25341 25342 25343 25344 25345 25346 25347 25348 25349 25350 25351 25352 25353 25354 25355 25356 25357 25358 25359 25360 25361 25362 25363 25364 25365 25366 25367 25368 25369 25370 25371 25372 25373 25374 25375 25376 25377 25378 25379 25380 25381 25382 25383 25384 25385 25386 25387 25388 25389 25390 25391 25392 25393 25394 25395 25396 25397 25398 25399 25400 25401 25402 25403 25404 25405 25406 25407 25408 25409 25410 25411 25412 25413 25414 25415 25416 25417 25418 25419 25420 25421 25422 25423 25424 25425 25426 25427 25428 25429 25430 25431 25432 25433 25434 25435 25436 25437 25438 25439 25440 25441 25442 25443 25444 25445 25446 25447 25448 25449 25450 25451 25452 25453 25454 25455 25456 25457 25458 25459 25460 25461 25462 25463 25464 25465 25466 25467 25468 25469 25470 25471 25472 25473 25474 25475 25476 25477 25478 25479 25480 25481 25482 25483 25484 25485 25486 25487 25488 25489 25490 25491 25492 25493 25494 25495 25496 25497 25498 25499 25500 25501 25502 25503 25504 25505 25506 25507 25508 25509 25510 25511 25512 25513 25514 25515 25516 25517 25518 25519 25520 25521 25522 25523 25524 25525 25526 25527 25528 25529 25530 25531 25532 25533 25534 25535 25536 25537 25538 25539 25540 25541 25542 25543 25544 25545 25546 25547 25548 25549 25550 25551 25552 25553 25554 25555 25556 25557 25558 25559 25560 25561 25562 25563 25564 25565 25566 25567 25568 25569 25570 25571 25572 25573 25574 25575 25576 25577 25578 25579 25580 25581 25582 25583 25584 25585 25586 25587 25588 25589 25590 25591 25592 25593 25594 25595 25596 25597 25598 25599 25600 25601 25602 25603 25604 25605 25606 25607 25608 25609 25610 25611 25612 25613 25614 25615 25616 25617 25618 25619 25620 25621 25622 25623 25624 25625 25626 25627 25628 25629 25630 25631 25632 25633 25634 25635 25636 25637 25638 25639 25640 25641 25642 25643 25644 25645 25646 25647 25648 25649 25650 25651 25652 25653 25654 25655 25656 25657 25658 25659 25660 25661 25662 25663 25664 25665 25666 25667 25668 25669 25670 25671 25672 25673 25674 25675 25676 25677 25678 25679 25680 25681 25682 25683 25684 25685 25686 25687 25688 25689 25690 25691 25692 25693 25694 25695 25696 25697 25698 25699 25700 25701 25702 25703 25704 25705 25706 25707 25708 25709 25710 25711 25712 25713 25714 25715 25716 25717 25718 25719 25720 25721 25722 25723 25724 25725 25726 25727 25728 25729 25730 25731 25732 25733 25734 25735 25736 25737 25738 25739 25740 25741 25742 25743 25744 25745 25746 25747 25748 25749 25750 25751 25752 25753 25754 25755 25756 25757 25758 25759 25760 25761 25762 25763 25764 25765 25766 25767 25768 25769 25770 25771 25772 25773 25774 25775 25776 25777 25778 25779 25780 25781 25782 25783 25784 25785 25786 25787 25788 25789 25790 25791 25792 25793 25794 25795 25796 25797 25798 25799 25800 25801 25802 25803 25804 25805 25806 25807 25808 25809 25810 25811 25812 25813 25814 25815 25816 25817 25818 25819 25820 25821 25822 25823 25824 25825 25826 25827 25828 25829 25830 25831 25832 25833 25834 25835 25836 25837 25838 25839 25840 25841 25842 25843 25844 25845 25846 25847 25848 25849 25850 25851 25852 25853 25854 25855 25856 25857 25858 25859 25860 25861 25862 25863 25864 25865 25866 25867 25868 25869 25870 25871 25872 25873 25874 25875 25876 25877 25878 25879 25880 25881 25882 25883 25884 25885 25886 25887 25888 25889 25890 25891 25892 25893 25894 25895 25896 25897 25898 25899 25900 25901 25902 25903 25904 25905 25906 25907 25908 25909 25910 25911 25912 25913 25914 25915 25916 25917 25918 25919 25920 25921 25922 25923 25924 25925 25926 25927 25928 25929 25930 25931 25932 25933 25934 25935 25936 25937 25938 25939 25940 25941 25942 25943 25944 25945 25946 25947 25948 25949 25950 25951 25952 25953 25954 25955 25956 25957 25958 25959 25960 25961 25962 25963 25964 25965 25966 25967 25968 25969 25970 25971 25972 25973 25974 25975 25976 25977 25978 25979 25980 25981 25982 25983 25984 25985 25986 25987 25988 25989 25990 25991 25992 25993 25994 25995 25996 25997 25998 25999 26000 26001 26002 26003 26004 26005 26006 26007 26008 26009 26010 26011 26012 26013 26014 26015 26016 26017 26018 26019 26020 26021 26022 26023 26024 26025 26026 26027 26028 26029 26030 26031 26032 26033 26034 26035 26036 26037 26038 26039 26040 26041 26042 26043 26044 26045 26046 26047 26048 26049 26050 26051 26052 26053 26054 26055 26056 26057 26058 26059 26060 26061 26062 26063 26064 26065 26066 26067 26068 26069 26070 26071 26072 26073 26074 26075 26076 26077 26078 26079 26080 26081 26082 26083 26084 26085 26086 26087 26088 26089 26090 26091 26092 26093 26094 26095 26096 26097 26098 26099 26100 26101 26102 26103 26104 26105 26106 26107 26108 26109 26110 26111 26112 26113 26114 26115 26116 26117 26118 26119 26120 26121 26122 26123 26124 26125 26126 26127 26128 26129 26130 26131 26132 26133 26134 26135 26136 26137 26138 26139 26140 26141 26142 26143 26144 26145 26146 26147 26148 26149 26150 26151 26152 26153 26154 26155 26156 26157 26158 26159 26160 26161 26162 26163 26164 26165 26166 26167 26168 26169 26170 26171 26172 26173 26174 26175 26176 26177 26178 26179 26180 26181 26182 26183 26184 26185 26186 26187 26188 26189 26190 26191 26192 26193 26194 26195 26196 26197 26198 26199 26200 26201 26202 26203 26204 26205 26206 26207 26208 26209 26210 26211 26212 26213 26214 26215 26216 26217 26218 26219 26220 26221 26222 26223 26224 26225 26226 26227 26228 26229 26230 26231 26232 26233 26234 26235 26236 26237 26238 26239 26240 26241 26242 26243 26244 26245 26246 26247 26248 26249 26250 26251 26252 26253 26254 26255 26256 26257 26258 26259 26260 26261 26262 26263 26264 26265 26266 26267 26268 26269 26270 26271 26272 26273 26274 26275 26276 26277 26278 26279 26280 26281 26282 26283 26284 26285 26286 26287 26288 26289 26290 26291 26292 26293 26294 26295 26296 26297 26298 26299 26300 26301 26302 26303 26304 26305 26306 26307 26308 26309 26310 26311 26312 26313 26314 26315 26316 26317 26318 26319 26320 26321 26322 26323 26324 26325 26326 26327 26328 26329 26330 26331 26332 26333 26334 26335 26336 26337 26338 26339 26340 26341 26342 26343 26344 26345 26346 26347 26348 26349 26350 26351 26352 26353 26354 26355 26356 26357 26358 26359 26360 26361 26362 26363 26364 26365 26366 26367 26368 26369 26370 26371 26372 26373 26374 26375 26376 26377 26378 26379 26380 26381 26382 26383 26384 26385 26386 26387 26388 26389 26390 26391 26392 26393 26394 26395 26396 26397 26398 26399 26400 26401 26402 26403 26404 26405 26406 26407 26408 26409 26410 26411 26412 26413 26414 26415 26416 26417 26418 26419 26420 26421 26422 26423 26424 26425 26426 26427 26428 26429 26430 26431 26432 26433 26434 26435 26436 26437 26438 26439 26440 26441 26442 26443 26444 26445 26446 26447 26448 26449 26450 26451 26452 26453 26454 26455 26456 26457 26458 26459 26460 26461 26462 26463 26464 26465 26466 26467 26468 26469 26470 26471 26472 26473 26474 26475 26476 26477 26478 26479 26480 26481 26482 26483 26484 26485 26486 26487 26488 26489 26490 26491 26492 26493 26494 26495 26496 26497 26498 26499 26500 26501 26502 26503 26504 26505 26506 26507 26508 26509 26510 26511 26512 26513 26514 26515 26516 26517 26518 26519 26520 26521 26522 26523 26524 26525 26526 26527 26528 26529 26530 26531 26532 26533 26534 26535 26536 26537 26538 26539 26540 26541 26542 26543 26544 26545 26546 26547 26548 26549 26550 26551 26552 26553 26554 26555 26556 26557 26558 26559 26560 26561 26562 26563 26564 26565 26566 26567 26568 26569 26570 26571 26572 26573 26574 26575 26576 26577 26578 26579 26580 26581 26582 26583 26584 26585 26586 26587 26588 26589 26590 26591 26592 26593 26594 26595 26596 26597 26598 26599 26600 26601 26602 26603 26604 26605 26606 26607 26608 26609 26610 26611 26612 26613 26614 26615 26616 26617 26618 26619 26620 26621 26622 26623 26624 26625 26626 26627 26628 26629 26630 26631 26632 26633 26634 26635 26636 26637 26638 26639 26640 26641 26642 26643 26644 26645 26646 26647 26648 26649 26650 26651 26652 26653 26654 26655 26656 26657 26658 26659 26660 26661 26662 26663 26664 26665 26666 26667 26668 26669 26670 26671 26672 26673 26674 26675 26676 26677 26678 26679 26680 26681 26682 26683 26684 26685 26686 26687 26688 26689 26690 26691 26692 26693 26694 26695 26696 26697 26698 26699 26700 26701 26702 26703 26704 26705 26706 26707 26708 26709 26710 26711 26712 26713 26714 26715 26716 26717 26718 26719 26720 26721 26722 26723 26724 26725 26726 26727 26728 26729 26730 26731 26732 26733 26734 26735 26736 26737 26738 26739 26740 26741 26742 26743 26744 26745 26746 26747 26748 26749 26750 26751 26752 26753 26754 26755 26756 26757 26758 26759 26760 26761 26762 26763 26764 26765 26766 26767 26768 26769 26770 26771 26772 26773 26774 26775 26776 26777 26778 26779 26780 26781 26782 26783 26784 26785 26786 26787 26788 26789 26790 26791 26792 26793 26794 26795 26796 26797 26798 26799 26800 26801 26802 26803 26804 26805 26806 26807 26808 26809 26810 26811 26812 26813 26814 26815 26816 26817 26818 26819 26820 26821 26822 26823 26824 26825 26826 26827 26828 26829 26830 26831 26832 26833 26834 26835 26836 26837 26838 26839 26840 26841 26842 26843 26844 26845 26846 26847 26848 26849 26850 26851 26852 26853 26854 26855 26856 26857 26858 26859 26860 26861 26862 26863 26864 26865 26866 26867 26868 26869 26870 26871 26872 26873 26874 26875 26876 26877 26878 26879 26880 26881 26882 26883 26884 26885 26886 26887 26888 26889 26890 26891 26892 26893 26894 26895 26896 26897 26898 26899 26900 26901 26902 26903 26904 26905 26906 26907 26908 26909 26910 26911 26912 26913 26914 26915 26916 26917 26918 26919 26920 26921 26922 26923 26924 26925 26926 26927 26928 26929 26930 26931 26932 26933 26934 26935 26936 26937 26938 26939 26940 26941 26942 26943 26944 26945 26946 26947 26948 26949 26950 26951 26952 26953 26954 26955 26956 26957 26958 26959 26960 26961 26962 26963 26964 26965 26966 26967 26968 26969 26970 26971 26972 26973 26974 26975 26976 26977 26978 26979 26980 26981 26982 26983 26984 26985 26986 26987 26988 26989 26990 26991 26992 26993 26994 26995 26996 26997 26998 26999 27000 27001 27002 27003 27004 27005 27006 27007 27008 27009 27010 27011 27012 27013 27014 27015 27016 27017 27018 27019 27020 27021 27022 27023 27024 27025 27026 27027 27028 27029 27030 27031 27032 27033 27034 27035 27036 27037 27038 27039 27040 27041 27042 27043 27044 27045 27046 27047 27048 27049 27050 27051 27052 27053 27054 27055 27056 27057 27058 27059 27060 27061 27062 27063 27064 27065 27066 27067 27068 27069 27070 27071 27072 27073 27074 27075 27076 27077 27078 27079 27080 27081 27082 27083 27084 27085 27086 27087 27088 27089 27090 27091 27092 27093 27094 27095 27096 27097 27098 27099 27100 27101 27102 27103 27104 27105 27106 27107 27108 27109 27110 27111 27112 27113 27114 27115 27116 27117 27118 27119 27120 27121 27122 27123 27124 27125 27126 27127 27128 27129 27130 27131 27132 27133 27134 27135 27136 27137 27138 27139 27140 27141 27142 27143 27144 27145 27146 27147 27148 27149 27150 27151 27152 27153 27154 27155 27156 27157 27158 27159 27160 27161 27162 27163 27164 27165 27166 27167 27168 27169 27170 27171 27172 27173 27174 27175 27176 27177 27178 27179 27180 27181 27182 27183 27184 27185 27186 27187 27188 27189 27190 27191 27192 27193 27194 27195 27196 27197 27198 27199 27200 27201 27202 27203 27204 27205 27206 27207 27208 27209 27210 27211 27212 27213 27214 27215 27216 27217 27218 27219 27220 27221 27222 27223 27224 27225 27226 27227 27228 27229 27230 27231 27232 27233 27234 27235 27236 27237 27238 27239 27240 27241 27242 27243 27244 27245 27246 27247 27248 27249 27250 27251 27252 27253 27254 27255 27256 27257 27258 27259 27260 27261 27262 27263 27264 27265 27266 27267 27268 27269 27270 27271 27272 27273 27274 27275 27276 27277 27278 27279 27280 27281 27282 27283 27284 27285 27286 27287 27288 27289 27290 27291 27292 27293 27294 27295 27296 27297 27298 27299 27300 27301 27302 27303 27304 27305 27306 27307 27308 27309 27310 27311 27312 27313 27314 27315 27316 27317 27318 27319 27320 27321 27322 27323 27324 27325 27326 27327 27328 27329 27330 27331 27332 27333 27334 27335 27336 27337 27338 27339 27340 27341 27342 27343 27344 27345 27346 27347 27348 27349 27350 27351 27352 27353 27354 27355 27356 27357 27358 27359 27360 27361 27362 27363 27364 27365 27366 27367 27368 27369 27370 27371 27372 27373 27374 27375 27376 27377 27378 27379 27380 27381 27382 27383 27384 27385 27386 27387 27388 27389 27390 27391 27392 27393 27394 27395 27396 27397 27398 27399 27400 27401 27402 27403 27404 27405 27406 27407 27408 27409 27410 27411 27412 27413 27414 27415 27416 27417 27418 27419 27420 27421 27422 27423 27424 27425 27426 27427 27428 27429 27430 27431 27432 27433 27434 27435 27436 27437 27438 27439 27440 27441 27442 27443 27444 27445 27446 27447 27448 27449 27450 27451 27452 27453 27454 27455 27456 27457 27458 27459 27460 27461 27462 27463 27464 27465 27466 27467 27468 27469 27470 27471 27472 27473 27474 27475 27476 27477 27478 27479 27480 27481 27482 27483 27484 27485 27486 27487 27488 27489 27490 27491 27492 27493 27494 27495 27496 27497 27498 27499 27500 27501 27502 27503 27504 27505 27506 27507 27508 27509 27510 27511 27512 27513 27514 27515 27516 27517 27518 27519 27520 27521 27522 27523 27524 27525 27526 27527 27528 27529 27530 27531 27532 27533 27534 27535 27536 27537 27538 27539 27540 27541 27542 27543 27544 27545 27546 27547 27548 27549 27550 27551 27552 27553 27554 27555 27556 27557 27558 27559 27560 27561 27562 27563 27564 27565 27566 27567 27568 27569 27570 27571 27572 27573 27574 27575 27576 27577 27578 27579 27580 27581 27582 27583 27584 27585 27586 27587 27588 27589 27590 27591 27592 27593 27594 27595 27596 27597 27598 27599 27600 27601 27602 27603 27604 27605 27606 27607 27608 27609 27610 27611 27612 27613 27614 27615 27616 27617 27618 27619 27620 27621 27622 27623 27624 27625 27626 27627 27628 27629 27630 27631 27632 27633 27634 27635 27636 27637 27638 27639 27640 27641 27642 27643 27644 27645 27646 27647 27648 27649 27650 27651 27652 27653 27654 27655 27656 27657 27658 27659 27660 27661 27662 27663 27664 27665 27666 27667 27668 27669 27670 27671 27672 27673 27674 27675 27676 27677 27678 27679 27680 27681 27682 27683 27684 27685 27686 27687 27688 27689 27690 27691 27692 27693 27694 27695 27696 27697 27698 27699 27700 27701 27702 27703 27704 27705 27706 27707 27708 27709 27710 27711 27712 27713 27714 27715 27716 27717 27718 27719 27720 27721 27722 27723 27724 27725 27726 27727 27728 27729 27730 27731 27732 27733 27734 27735 27736 27737 27738 27739 27740 27741 27742 27743 27744 27745 27746 27747 27748 27749 27750 27751 27752 27753 27754 27755 27756 27757 27758 27759 27760 27761 27762 27763 27764 27765 27766 27767 27768 27769 27770 27771 27772 27773 27774 27775 27776 27777 27778 27779 27780 27781 27782 27783 27784 27785 27786 27787 27788 27789 27790 27791 27792 27793 27794 27795 27796 27797 27798 27799 27800 27801 27802 27803 27804 27805 27806 27807 27808 27809 27810 27811 27812 27813 27814 27815 27816 27817 27818 27819 27820 27821 27822 27823 27824 27825 27826 27827 27828 27829 27830 27831 27832 27833 27834 27835 27836 27837 27838 27839 27840 27841 27842 27843 27844 27845 27846 27847 27848 27849 27850 27851 27852 27853 27854 27855 27856 27857 27858 27859 27860 27861 27862 27863 27864 27865 27866 27867 27868 27869 27870 27871 27872 27873 27874 27875 27876 27877 27878 27879 27880 27881 27882 27883 27884 27885 27886 27887 27888 27889 27890 27891 27892 27893 27894 27895 27896 27897 27898 27899 27900 27901 27902 27903 27904 27905 27906 27907 27908 27909 27910 27911 27912 27913 27914 27915 27916 27917 27918 27919 27920 27921 27922 27923 27924 27925 27926 27927 27928 27929 27930 27931 27932 27933 27934 27935 27936 27937 27938 27939 27940 27941 27942 27943 27944 27945 27946 27947 27948 27949 27950 27951 27952 27953 27954 27955 27956 27957 27958 27959 27960 27961 27962 27963 27964 27965 27966 27967 27968 27969 27970 27971 27972 27973 27974 27975 27976 27977 27978 27979 27980 27981 27982 27983 27984 27985 27986 27987 27988 27989 27990 27991 27992 27993 27994 27995 27996 27997 27998 27999 28000 28001 28002 28003 28004 28005 28006 28007 28008 28009 28010 28011 28012 28013 28014 28015 28016 28017 28018 28019 28020 28021 28022 28023 28024 28025 28026 28027 28028 28029 28030 28031 28032 28033 28034 28035 28036 28037 28038 28039 28040 28041 28042 28043 28044 28045 28046 28047 28048 28049 28050 28051 28052 28053 28054 28055 28056 28057 28058 28059 28060 28061 28062 28063 28064 28065 28066 28067 28068 28069 28070 28071 28072 28073 28074 28075 28076 28077 28078 28079 28080 28081 28082 28083 28084 28085 28086 28087 28088 28089 28090 28091 28092 28093 28094 28095 28096 28097 28098 28099 28100 28101 28102 28103 28104 28105 28106 28107 28108 28109 28110 28111 28112 28113 28114 28115 28116 28117 28118 28119 28120 28121 28122 28123 28124 28125 28126 28127 28128 28129 28130 28131 28132 28133 28134 28135 28136 28137 28138 28139 28140 28141 28142 28143 28144 28145 28146 28147 28148 28149 28150 28151 28152 28153 28154 28155 28156 28157 28158 28159 28160 28161 28162 28163 28164 28165 28166 28167 28168 28169 28170 28171 28172 28173 28174 28175 28176 28177 28178 28179 28180 28181 28182 28183 28184 28185 28186 28187 28188 28189 28190 28191 28192 28193 28194 28195 28196 28197 28198 28199 28200 28201 28202 28203 28204 28205 28206 28207 28208 28209 28210 28211 28212 28213 28214 28215 28216 28217 28218 28219 28220 28221 28222 28223 28224 28225 28226 28227 28228 28229 28230 28231 28232 28233 28234 28235 28236 28237 28238 28239 28240 28241 28242 28243 28244 28245 28246 28247 28248 28249 28250 28251 28252 28253 28254 28255 28256 28257 28258 28259 28260 28261 28262 28263 28264 28265 28266 28267 28268 28269 28270 28271 28272 28273 28274 28275 28276 28277 28278 28279 28280 28281 28282 28283 28284 28285 28286 28287 28288 28289 28290 28291 28292 28293 28294 28295 28296 28297 28298 28299 28300 28301 28302 28303 28304 28305 28306 28307 28308 28309 28310 28311 28312 28313 28314 28315 28316 28317 28318 28319 28320 28321 28322 28323 28324 28325 28326 28327 28328 28329 28330 28331 28332 28333 28334 28335 28336 28337 28338 28339 28340 28341 28342 28343 28344 28345 28346 28347 28348 28349 28350 28351 28352 28353 28354 28355 28356 28357 28358 28359 28360 28361 28362 28363 28364 28365 28366 28367 28368 28369 28370 28371 28372 28373 28374 28375 28376 28377 28378 28379 28380 28381 28382 28383 28384 28385 28386 28387 28388 28389 28390 28391 28392 28393 28394 28395 28396 28397 28398 28399 28400 28401 28402 28403 28404 28405 28406 28407 28408 28409 28410 28411 28412 28413 28414 28415 28416 28417 28418 28419 28420 28421 28422 28423 28424 28425 28426 28427 28428 28429 28430 28431 28432 28433 28434 28435 28436 28437 28438 28439 28440 28441 28442 28443 28444 28445 28446 28447 28448 28449 28450 28451 28452 28453 28454 28455 28456 28457 28458 28459 28460 28461 28462 28463 28464 28465 28466 28467 28468 28469 28470 28471 28472 28473 28474 28475 28476 28477 28478 28479 28480 28481 28482 28483 28484 28485 28486 28487 28488 28489 28490 28491 28492 28493 28494 28495 28496 28497 28498 28499 28500 28501 28502 28503 28504 28505 28506 28507 28508 28509 28510 28511 28512 28513 28514 28515 28516 28517 28518 28519 28520 28521 28522 28523 28524 28525 28526 28527 28528 28529 28530 28531 28532 28533 28534 28535 28536 28537 28538 28539 28540 28541 28542 28543 28544 28545 28546 28547 28548 28549 28550 28551 28552 28553 28554 28555 28556 28557 28558 28559 28560 28561 28562 28563 28564 28565 28566 28567 28568 28569 28570 28571 28572 28573 28574 28575 28576 28577 28578 28579 28580 28581 28582 28583 28584 28585 28586 28587 28588 28589 28590 28591 28592 28593 28594 28595 28596 28597 28598 28599 28600 28601 28602 28603 28604 28605 28606 28607 28608 28609 28610 28611 28612 28613 28614 28615 28616 28617 28618 28619 28620 28621 28622 28623 28624 28625 28626 28627 28628 28629 28630 28631 28632 28633 28634 28635 28636 28637 28638 28639 28640 28641 28642 28643 28644 28645 28646 28647 28648 28649 28650 28651 28652 28653 28654 28655 28656 28657 28658 28659 28660 28661 28662 28663 28664 28665 28666 28667 28668 28669 28670 28671 28672 28673 28674 28675 28676 28677 28678 28679 28680 28681 28682 28683 28684 28685 28686 28687 28688 28689 28690 28691 28692 28693 28694 28695 28696 28697 28698 28699 28700 28701 28702 28703 28704 28705 28706 28707 28708 28709 28710 28711 28712 28713 28714 28715 28716 28717 28718 28719 28720 28721 28722 28723 28724 28725 28726 28727 28728 28729 28730 28731 28732 28733 28734 28735 28736 28737 28738 28739 28740 28741 28742 28743 28744 28745 28746 28747 28748 28749 28750 28751 28752 28753 28754 28755 28756 28757 28758 28759 28760 28761 28762 28763 28764 28765 28766 28767 28768 28769 28770 28771 28772 28773 28774 28775 28776 28777 28778 28779 28780 28781 28782 28783 28784 28785 28786 28787 28788 28789 28790 28791 28792 28793 28794 28795 28796 28797 28798 28799 28800 28801 28802 28803 28804 28805 28806 28807 28808 28809 28810 28811 28812 28813 28814 28815 28816 28817 28818 28819 28820 28821 28822 28823 28824 28825 28826 28827 28828 28829 28830 28831 28832 28833 28834 28835 28836 28837 28838 28839 28840 28841 28842 28843 28844 28845 28846 28847 28848 28849 28850 28851 28852 28853 28854 28855 28856 28857 28858 28859 28860 28861 28862 28863 28864 28865 28866 28867 28868 28869 28870 28871 28872 28873 28874 28875 28876 28877 28878 28879 28880 28881 28882 28883 28884 28885 28886 28887 28888 28889 28890 28891 28892 28893 28894 28895 28896 28897 28898 28899 28900 28901 28902 28903 28904 28905 28906 28907 28908 28909 28910 28911 28912 28913 28914 28915 28916 28917 28918 28919 28920 28921 28922 28923 28924 28925 28926 28927 28928 28929 28930 28931 28932 28933 28934 28935 28936 28937 28938 28939 28940 28941 28942 28943 28944 28945 28946 28947 28948 28949 28950 28951 28952 28953 28954 28955 28956 28957 28958 28959 28960 28961 28962 28963 28964 28965 28966 28967 28968 28969 28970 28971 28972 28973 28974 28975 28976 28977 28978 28979 28980 28981 28982 28983 28984 28985 28986 28987 28988 28989 28990 28991 28992 28993 28994 28995 28996 28997 28998 28999 29000 29001 29002 29003 29004 29005 29006 29007 29008 29009 29010 29011 29012 29013 29014 29015 29016 29017 29018 29019 29020 29021 29022 29023 29024 29025 29026 29027 29028 29029 29030 29031 29032 29033 29034 29035 29036 29037 29038 29039 29040 29041 29042 29043 29044 29045 29046 29047 29048 29049 29050 29051 29052 29053 29054 29055 29056 29057 29058 29059 29060 29061 29062 29063 29064 29065 29066 29067 29068 29069 29070 29071 29072 29073 29074 29075 29076 29077 29078 29079 29080 29081 29082 29083 29084 29085 29086 29087 29088 29089 29090 29091 29092 29093 29094 29095 29096 29097 29098 29099 29100 29101 29102 29103 29104 29105 29106 29107 29108 29109 29110 29111 29112 29113 29114 29115 29116 29117 29118 29119 29120 29121 29122 29123 29124 29125 29126 29127 29128 29129 29130 29131 29132 29133 29134 29135 29136 29137 29138 29139 29140 29141 29142 29143 29144 29145 29146 29147 29148 29149 29150 29151 29152 29153 29154 29155 29156 29157 29158 29159 29160 29161 29162 29163 29164 29165 29166 29167 29168 29169 29170 29171 29172 29173 29174 29175 29176 29177 29178 29179 29180 29181 29182 29183 29184 29185 29186 29187 29188 29189 29190 29191 29192 29193 29194 29195 29196 29197 29198 29199 29200 29201 29202 29203 29204 29205 29206 29207 29208 29209 29210 29211 29212 29213 29214 29215 29216 29217 29218 29219 29220 29221 29222 29223 29224 29225 29226 29227 29228 29229 29230 29231 29232 29233 29234 29235 29236 29237 29238 29239 29240 29241 29242 29243 29244 29245 29246 29247 29248 29249 29250 29251 29252 29253 29254 29255 29256 29257 29258 29259 29260 29261 29262 29263 29264 29265 29266 29267 29268 29269 29270 29271 29272 29273 29274 29275 29276 29277 29278 29279 29280 29281 29282 29283 29284 29285 29286 29287 29288 29289 29290 29291 29292 29293 29294 29295 29296 29297 29298 29299 29300 29301 29302 29303 29304 29305 29306 29307 29308 29309 29310 29311 29312 29313 29314 29315 29316 29317 29318 29319 29320 29321 29322 29323 29324 29325 29326 29327 29328 29329 29330 29331 29332 29333 29334 29335 29336 29337 29338 29339 29340 29341 29342 29343 29344 29345 29346 29347 29348 29349 29350 29351 29352 29353 29354 29355 29356 29357 29358 29359 29360 29361 29362 29363 29364 29365 29366 29367 29368 29369 29370 29371 29372 29373 29374 29375 29376 29377 29378 29379 29380 29381 29382 29383 29384 29385 29386 29387 29388 29389 29390 29391 29392 29393 29394 29395 29396 29397 29398 29399 29400 29401 29402 29403 29404 29405 29406 29407 29408 29409 29410 29411 29412 29413 29414 29415 29416 29417 29418 29419 29420 29421 29422 29423 29424 29425 29426 29427 29428 29429 29430 29431 29432 29433 29434 29435 29436 29437 29438 29439 29440 29441 29442 29443 29444 29445 29446 29447 29448 29449 29450 29451 29452 29453 29454 29455 29456 29457 29458 29459 29460 29461 29462 29463 29464 29465 29466 29467 29468 29469 29470 29471 29472 29473 29474 29475 29476 29477 29478 29479 29480 29481 29482 29483 29484 29485 29486 29487 29488 29489 29490 29491 29492 29493 29494 29495 29496 29497 29498 29499 29500 29501 29502 29503 29504 29505 29506 29507 29508 29509 29510 29511 29512 29513 29514 29515 29516 29517 29518 29519 29520 29521 29522 29523 29524 29525 29526 29527 29528 29529 29530 29531 29532 29533 29534 29535 29536 29537 29538 29539 29540 29541 29542 29543 29544 29545 29546 29547 29548 29549 29550 29551 29552 29553 29554 29555 29556 29557 29558 29559 29560 29561 29562 29563 29564 29565 29566 29567 29568 29569 29570 29571 29572 29573 29574 29575 29576 29577 29578 29579 29580 29581 29582 29583 29584 29585 29586 29587 29588 29589 29590 29591 29592 29593 29594 29595 29596 29597 29598 29599 29600 29601 29602 29603 29604 29605 29606 29607 29608 29609 29610 29611 29612 29613 29614 29615 29616 29617 29618 29619 29620 29621 29622 29623 29624 29625 29626 29627 29628 29629 29630 29631 29632 29633 29634 29635 29636 29637 29638 29639 29640 29641 29642 29643 29644 29645 29646 29647 29648 29649 29650 29651 29652 29653 29654 29655 29656 29657 29658 29659 29660 29661 29662 29663 29664 29665 29666 29667 29668 29669 29670 29671 29672 29673 29674 29675 29676 29677 29678 29679 29680 29681 29682 29683 29684 29685 29686 29687 29688 29689 29690 29691 29692 29693 29694 29695 29696 29697 29698 29699 29700 29701 29702 29703 29704 29705 29706 29707 29708 29709 29710 29711 29712 29713 29714 29715 29716 29717 29718 29719 29720 29721 29722 29723 29724 29725 29726 29727 29728 29729 29730 29731 29732 29733 29734 29735 29736 29737 29738 29739 29740 29741 29742 29743 29744 29745 29746 29747 29748 29749 29750 29751 29752 29753 29754 29755 29756 29757 29758 29759 29760 29761 29762 29763 29764 29765 29766 29767 29768 29769 29770 29771 29772 29773 29774 29775 29776 29777 29778 29779 29780 29781 29782 29783 29784 29785 29786 29787 29788 29789 29790 29791 29792 29793 29794 29795 29796 29797 29798 29799 29800 29801 29802 29803 29804 29805 29806 29807 29808 29809 29810 29811 29812 29813 29814 29815 29816 29817 29818 29819 29820 29821 29822 29823 29824 29825 29826 29827 29828 29829 29830 29831 29832 29833 29834 29835 29836 29837 29838 29839 29840 29841 29842 29843 29844 29845 29846 29847 29848 29849 29850 29851 29852 29853 29854 29855 29856 29857 29858 29859 29860 29861 29862 29863 29864 29865 29866 29867 29868 29869 29870 29871 29872 29873 29874 29875 29876 29877 29878 29879 29880 29881 29882 29883 29884 29885 29886 29887 29888 29889 29890 29891 29892 29893 29894 29895 29896 29897 29898 29899 29900 29901 29902 29903 29904 29905 29906 29907 29908 29909 29910 29911 29912 29913 29914 29915 29916 29917 29918 29919 29920 29921 29922 29923 29924 29925 29926 29927 29928 29929 29930 29931 29932 29933 29934 29935 29936 29937 29938 29939 29940 29941 29942 29943 29944 29945 29946 29947 29948 29949 29950 29951 29952 29953 29954 29955 29956 29957 29958 29959 29960 29961 29962 29963 29964 29965 29966 29967 29968 29969 29970 29971 29972 29973 29974 29975 29976 29977 29978 29979 29980 29981 29982 29983 29984 29985 29986 29987 29988 29989 29990 29991 29992 29993 29994 29995 29996 29997 29998 29999 30000 30001 30002 30003 30004 30005 30006 30007 30008 30009 30010 30011 30012 30013 30014 30015 30016 30017 30018 30019 30020 30021 30022 30023 30024 30025 30026 30027 30028 30029 30030 30031 30032 30033 30034 30035 30036 30037 30038 30039 30040 30041 30042 30043 30044 30045 30046 30047 30048 30049 30050 30051 30052 30053 30054 30055 30056 30057 30058 30059 30060 30061 30062 30063 30064 30065 30066 30067 30068 30069 30070 30071 30072 30073 30074 30075 30076 30077 30078 30079 30080 30081 30082 30083 30084 30085 30086 30087 30088 30089 30090 30091 30092 30093 30094 30095 30096 30097 30098 30099 30100 30101 30102 30103 30104 30105 30106 30107 30108 30109 30110 30111 30112 30113 30114 30115 30116 30117 30118 30119 30120 30121 30122 30123 30124 30125 30126 30127 30128 30129 30130 30131 30132 30133 30134 30135 30136 30137 30138 30139 30140 30141 30142 30143 30144 30145 30146 30147 30148 30149 30150 30151 30152 30153 30154 30155 30156 30157 30158 30159 30160 30161 30162 30163 30164 30165 30166 30167 30168 30169 30170 30171 30172 30173 30174 30175 30176 30177 30178 30179 30180 30181 30182 30183 30184 30185 30186 30187 30188 30189 30190 30191 30192 30193 30194 30195 30196 30197 30198 30199 30200 30201 30202 30203 30204 30205 30206 30207 30208 30209 30210 30211 30212 30213 30214 30215 30216 30217 30218 30219 30220 30221 30222 30223 30224 30225 30226 30227 30228 30229 30230 30231 30232 30233 30234 30235 30236 30237 30238 30239 30240 30241 30242 30243 30244 30245 30246 30247 30248 30249 30250 30251 30252 30253 30254 30255 30256 30257 30258 30259 30260 30261 30262 30263 30264 30265 30266 30267 30268 30269 30270 30271 30272 30273 30274 30275 30276 30277 30278 30279 30280 30281 30282 30283 30284 30285 30286 30287 30288 30289 30290 30291 30292 30293 30294 30295 30296 30297 30298 30299 30300 30301 30302 30303 30304 30305 30306 30307 30308 30309 30310 30311 30312 30313 30314 30315 30316 30317 30318 30319 30320 30321 30322 30323 30324 30325 30326 30327 30328 30329 30330 30331 30332 30333 30334 30335 30336 30337 30338 30339 30340 30341 30342 30343 30344 30345 30346 30347 30348 30349 30350 30351 30352 30353 30354 30355 30356 30357 30358 30359 30360 30361 30362 30363 30364 30365 30366 30367 30368 30369 30370 30371 30372 30373 30374 30375 30376 30377 30378 30379 30380 30381 30382 30383 30384 30385 30386 30387 30388 30389 30390 30391 30392 30393 30394 30395 30396 30397 30398 30399 30400 30401 30402 30403 30404 30405 30406 30407 30408 30409 30410 30411 30412 30413 30414 30415 30416 30417 30418 30419 30420 30421 30422 30423 30424 30425 30426 30427 30428 30429 30430 30431 30432 30433 30434 30435 30436 30437 30438 30439 30440 30441 30442 30443 30444 30445 30446 30447 30448 30449 30450 30451 30452 30453 30454 30455 30456 30457 30458 30459 30460 30461 30462 30463 30464 30465 30466 30467 30468 30469 30470 30471 30472 30473 30474 30475 30476 30477 30478 30479 30480 30481 30482 30483 30484 30485 30486 30487 30488 30489 30490 30491 30492 30493 30494 30495 30496 30497 30498 30499 30500 30501 30502 30503 30504 30505 30506 30507 30508 30509 30510 30511 30512 30513 30514 30515 30516 30517 30518 30519 30520 30521 30522 30523 30524 30525 30526 30527 30528 30529 30530 30531 30532 30533 30534 30535 30536 30537 30538 30539 30540 30541 30542 30543 30544 30545 30546 30547 30548 30549 30550 30551 30552 30553 30554 30555 30556 30557 30558 30559 30560 30561 30562 30563 30564 30565 30566 30567 30568 30569 30570 30571 30572 30573 30574 30575 30576 30577 30578 30579 30580 30581 30582 30583 30584 30585 30586 30587 30588 30589 30590 30591 30592 30593 30594 30595 30596 30597 30598 30599 30600 30601 30602 30603 30604 30605 30606 30607 30608 30609 30610 30611 30612 30613 30614 30615 30616 30617 30618 30619 30620 30621 30622 30623 30624 30625 30626 30627 30628 30629 30630 30631 30632 30633 30634 30635 30636 30637 30638 30639 30640 30641 30642 30643 30644 30645 30646 30647 30648 30649 30650 30651 30652 30653 30654 30655 30656 30657 30658 30659 30660 30661 30662 30663 30664 30665 30666 30667 30668 30669 30670 30671 30672 30673 30674 30675 30676 30677 30678 30679 30680 30681 30682 30683 30684 30685 30686 30687 30688 30689 30690 30691 30692 30693 30694 30695 30696 30697 30698 30699 30700 30701 30702 30703 30704 30705 30706 30707 30708 30709 30710 30711 30712 30713 30714 30715 30716 30717 30718 30719 30720 30721 30722 30723 30724 30725 30726 30727 30728 30729 30730 30731 30732 30733 30734 30735 30736 30737 30738 30739 30740 30741 30742 30743 30744 30745 30746 30747 30748 30749 30750 30751 30752 30753 30754 30755 30756 30757 30758 30759 30760 30761 30762 30763 30764 30765 30766 30767 30768 30769 30770 30771 30772 30773 30774 30775 30776 30777 30778 30779 30780 30781 30782 30783 30784 30785 30786 30787 30788 30789 30790 30791 30792 30793 30794 30795 30796 30797 30798 30799 30800 30801 30802 30803 30804 30805 30806 30807 30808 30809 30810 30811 30812 30813 30814 30815 30816 30817 30818 30819 30820 30821 30822 30823 30824 30825 30826 30827 30828 30829 30830 30831 30832 30833 30834 30835 30836 30837 30838 30839 30840 30841 30842 30843 30844 30845 30846 30847 30848 30849 30850 30851 30852 30853 30854 30855 30856 30857 30858 30859 30860 30861 30862 30863 30864 30865 30866 30867 30868 30869 30870 30871 30872 30873 30874 30875 30876 30877 30878 30879 30880 30881 30882 30883 30884 30885 30886 30887 30888 30889 30890 30891 30892 30893 30894 30895 30896 30897 30898 30899 30900 30901 30902 30903 30904 30905 30906 30907 30908 30909 30910 30911 30912 30913 30914 30915 30916 30917 30918 30919 30920 30921 30922 30923 30924 30925 30926 30927 30928 30929 30930 30931 30932 30933 30934 30935 30936 30937 30938 30939 30940 30941 30942 30943 30944 30945 30946 30947 30948 30949 30950 30951 30952 30953 30954 30955 30956 30957 30958 30959 30960 30961 30962 30963 30964 30965 30966 30967 30968 30969 30970 30971 
</DataArray>
<DataArray type="UInt32" Name="offsets" format="ascii">
3 6 9 12 15 18 21 24 26 29 32 35 38 40 42 44 47 50 53 56 59 61 64 66 69 72 75 78 81 84 87 90 92 95 98 101 104 106 109 112 115 118 121 124 127 130 133 136 139 141 144 147 150 152 155 158 160 163 165 168 171 173 176 179 182 184 186 189 191 193 196 198 201 204 207 210 213 216 219 222 224 227 230 232 235 237 240 243 246 249 252 254 257 260 262 265 268 270 273 276 279 282 285 288 291 294 297 300 302 305 308 311 314 316 319 322 325 328 331 333 336 338 341 344 347 349 351 353 356 359 362 365 367 370 373 376 379 381 384 387 390 393 396 399 402 404 407 410 413 416 419 421 424 427 430 433 436 439 442 445 448 451 454 457 460 463 466 469 472 475 478 480 482 485 488 491 494 497 500 503 506 509 512 515 518 521 524 526 529 532 535 538 541 543 546 549 552 555 558 561 563 566 569 572 575 578 581 584 587 589 592 595 598 601 603 606 609 612 615 618 620 623 626 629 631 634 637 640 643 646 649 652 654 657 660 663 665 667 670 673 676 679 682 685 688 690 693 696 698 701 704 707 710 713 716 719 722 725 728 730 733 736 739 742 745 747 750 752 755 758 760 763 766 769 772 775 778 781 784 786 789 792 794 797 800 803 805 808 810 813 816 819 822 825 827 830 832 834 837 840 843 846 849 852 854 857 860 863 866 869 872 875 878 881 884 887 890 893 896 899 902 905 908 911 914 917 920 923 926 929 932 934 937 940 942 945 948 951 954 957 960 963 966 969 972 975 978 981 984 987 990 992 995 998 1001 1004 1007 1010 1013 1015 1018 1021 1024 1027 1030 1033 1036 1039 1042 1045 1048 1051 1054 1057 1060 1063 1066 1069 1072 1074 1077 1080 1083 1086 1089 1092 1094 1097 1100 1103 1106 1109 1112 1115 1118 1121 1124 1127 1130 1133 1136 1139 1142 1145 1147 1149 1152 1155 1158 1161 1164 1167 1170 1173 1175 1178 1181 1183 1186 1189 1191 1194 1197 1200 1203 1206 1208 1211 1214 1217 1220 1222 1225 1228 1231 1234 1237 1240 1242 1245 1248 1251 1254 1257 1260 1263 1266 1269 1272 1274 1277 1280 1283 1285 1288 1291 1294 1297 1300 1302 1305 1308 1311 1314 1316 1319 1322 1325 1328 1331 1334 1337 1339 1342 1345 1348 1351 1354 1357 1359 1362 1365 1367 1370 1373 1376 1379 1382 1385 1388 1391 1394 1397 1400 1403 1406 1408 1411 1414 1417 1420 1422 1425 1428 1431 1434 1436 1439 1442 1444 1447 1449 1452 1455 1458 1460 1463 1466 1469 1472 1475 1477 1480 1483 1486 1489 1492 1495 1497 1500 1503 1506 1509 1512 1515 1518 1521 1523 1526 1529 1531 1534 1537 1539 1542 1545 1547 1550 1553 1555 1558 1561 1564 1567 1569 1572 1575 1578 1581 1584 1587 1590 1592 1595 1598 1600 1603 1606 1609 1612 1614 1617 1620 1623 1626 1629 1632 1634 1636 1638 1641 1644 1647 1650 1653 1656 1658 1661 1664 1667 1670 1673 1676 1679 1682 1685 1688 1691 1694 1697 1700 1703 1706 1709 1712 1715 1718 1721 1724 1727 1730 1733 1736 1739 1742 1745 1748 1751 1754 1757 1760 1762 1765 1768 1771 1774 1777 1780 1783 1785 1788 1791 1794 1797 1799 1802 1805 1808 1811 1814 1817 1820 1823 1826 1829 1832 1835 1838 1841 1844 1847 1850 1853 1856 1859 1862 1865 1867 1870 1873 1875 1878 1881 1884 1887 1890 1892 1895 1898 1900 1903 1906 1908 1911 1913 1916 1919 1922 1925 1928 1930 1933 1936 1939 1942 1944 1947 1950 1953 1956 1959 1962 1965 1968 1970 1973 1976 1979 1981 1983 1985 1987 1990 1993 1996 1999 2002 2005 2008 2011 2014 2017 2019 2022 2024 2027 2030 2032 2035 2038 2041 2044 2047 2050 2053 2056 2059 2062 2065 2068 2071 2074 2076 2078 2080 2083 2086 2088 2091 2094 2096 2098 2101 2104 2107 2110 2112 2115 2118 2120 2123 2126 2128 2131 2134 2137 2140 2143 2146 2149 2152 2155 2158 2161 2164 2166 2169 2172 2175 2178 2181 2183 2186 2188 2191 2194 2196 2198 2201 2204 2207 2210 2213 2215 2218 2221 2223 2226 2229 2231 2234 2237 2239 2242 2245 2247 2249 2252 2255 2257 2260 2263 2265 2268 2270 2272 2275 2278 2281 2284 2286 2289 2292 2295 2297 2300 2302 2305 2308 2311 2313 2316 2319 2322 2324 2327 2330 2333 2335 2338 2341 2343 2345 2348 2351 2354 2356 2359 2362 2365 2368 2370 2373 2375 2378 2381 2384 2386 2389 2391 2394 2397 2400 2403 2406 2409 2412 2415 2418 2421 2424 2427 2430 2433 2436 2439 2442 2444 2447 2450 2453 2456 2459 2462 2465 2467 2470 2473 2476 2479 2482 2485 2488 2491 2494 2497 2500 2503 2506 2509 2512 2515 2518 2521 2524 2527 2530 2533 2536 2539 2542 2545 2548 2551 2554 2557 2560 2563 2566 2569 2572 2575 2578 2581 2583 2586 2589 2592 2595 2598 2601 2604 2607 2610 2613 2616 2619 2622 2625 2628 2631 2634 2637 2640 2643 2646 2649 2652 2655 2658 2661 2664 2667 2670 2673 2676 2679 2682 2685 2688 2691 2694 2697 2700 2703 2706 2708 2711 2714 2716 2719 2721 2724 2727 2730 2733 2736 2738 2740 2742 2745 2748 2751 2754 2757 2760 2763 2766 2768 2771 2774 2777 2780 2783 2786 2789 2792 2795 2798 2800 2803 2806 2809 2812 2815 2817 2820 2823 2826 2829 2832 2835 2837 2840 2843 2846 2849 2852 2854 2856 2859 2862 2865 2868 2871 2874 2877 2880 2883 2886 2889 2892 2894 2896 2899 2902 2905 2908 2911 2914 2917 2920 2922 2925 2928 2931 2934 2937 2940 2942 2945 2948 2951 2954 2957 2960 2963 2966 2969 2972 2975 2978 2981 2984 2987 2990 2993 2996 2999 3002 3005 3008 3011 3014 3017 3020 3023 3026 3029 3032 3035 3037 3040 3043 3046 3049 3052 3055 3057 3060 3063 3066 3069 3072 3074 3077 3080 3083 3086 3088 3091 3093 3096 3099 3102 3105 3107 3110 3113 3116 3119 3122 3124 3127 3130 3133 3136 3139 3141 3144 3147 3150 3152 3155 3158 3161 3163 3166 3169 3172 3175 3178 3181 3184 3187 3190 3193 3196 3199 3202 3205 3208 3211 3213 3216 3218 3221 3224 3227 3230 3232 3235 3238 3241 3243 3246 3249 3251 3254 3257 3260 3262 3264 3267 3270 3273 3276 3279 3282 3285 3288 3291 3294 3297 3300 3303 3306 3309 3312 3315 3318 3321 3324 3326 3329 3332 3334 3337 3340 3343 3346 3348 3351 3354 3357 3359 3362 3365 3368 3371 3373 3376 3379 3382 3385 3388 3391 3394 3397 3400 3403 3406 3409 3412 3415 3418 3421 3424 3427 3430 3433 3436 3439 3442 3444 3447 3450 3453 3456 3459 3462 3465 3468 3471 3474 3477 3480 3483 3486 3489 3492 3495 3498 3501 3504 3507 3510 3513 3516 3519 3521 3523 3526 3529 3532 3535 3538 3541 3544 3547 3550 3553 3556 3559 3562 3565 3568 3571 3574 3577 3580 3583 3586 3589 3592 3595 3598 3601 3603 3606 3609 3612 3615 3618 3621 3624 3627 3630 3633 3636 3639 3642 3645 3648 3651 3654 3657 3660 3663 3666 3669 3672 3675 3678 3681 3684 3686 3689 3692 3695 3698 3701 3704 3707 3709 3712 3715 3718 3721 3724 3727 3730 3733 3736 3739 3742 3745 3748 3751 3754 3757 3760 3763 3766 3769 3771 3773 3776 3779 3782 3785 3788 3791 3794 3797 3800 3803 3806 3809 3812 3815 3818 3821 3824 3827 3829 3831 3834 3837 3839 3842 3845 3848 3851 3854 3857 3860 3863 3866 3868 3870 3872 3875 3878 3881 3884 3886 3889 3892 3894 3897 3900 3903 3906 3908 3911 3914 3917 3920 3923 3926 3929 3931 3934 3937 3940 3943 3946 3949 3951 3953 3955 3958 3961 3964 3967 3970 3973 3976 3979 3982 3985 3988 3991 3994 3997 4000 4002 4005 4008 4011 4014 4017 4020 4022 4025 4028 4031 4034 4037 4040 4043 4046 4049 4052 4055 4057 4059 4062 4065 4068 4071 4073 4076 4079 4082 4084 4087 4090 4093 4096 4099 4102 4105 4108 4111 4114 4117 4120 4123 4126 4129 4132 4134 4136 4139 4141 4143 4146 4149 4152 4154 4157 4159 4162 4165 4168 4171 4174 4176 4179 4182 4185 4188 4191 4194 4197 4200 4203 4205 4208 4211 4214 4217 4220 4222 4225 4228 4231 4233 4236 4238 4241 4244 4247 4250 4252 4255 4257 4260 4263 4266 4269 4272 4274 4277 4280 4283 4286 4289 4292 4295 4298 4301 4304 4307 4310 4313 4316 4319 4321 4324 4327 4330 4333 4335 4338 4341 4344 4347 4350 4353 4356 4359 4362 4365 4368 4371 4374 4377 4380 4383 4386 4389 4392 4395 4398 4401 4404 4407 4410 4413 4416 4419 4422 4425 4428 4431 4434 4437 4440 4443 4446 4449 4452 4455 4458 4461 4464 4466 4469 4471 4474 4476 4479 4482 4485 4488 4491 4494 4497 4499 4502 4505 4508 4510 4513 4516 4519 4522 4525 4528 4531 4534 4536 4539 4542 4545 4548 4551 4554 4557 4560 4562 4565 4568 4571 4574 4577 4580 4583 4586 4589 4592 4595 4598 4601 4604 4607 4610 4613 4616 4619 4622 4625 4628 4631 4634 4637 4640 4643 4646 4649 4652 4655 4658 4661 4664 4667 4670 4673 4676 4679 4682 4685 4688 4691 4694 4697 4700 4703 4706 4709 4712 4715 4718 4721 4724 4727 4730 4733 4735 4738 4741 4744 4747 4750 4753 4756 4759 4762 4764 4767 4770 4772 4775 4778 4780 4783 4786 4789 4791 4793 4796 4798 4800 4803 4806 4809 4811 4814 4817 4819 4822 4825 4828 4831 4834 4837 4839 4842 4845 4848 4851 4854 4857 4860 4863 4866 4869 4872 4875 4878 4880 4882 4885 4888 4891 4893 4896 4899 4902 4905 4908 4910 4913 4916 4919 4922 4924 4927 4930 4932 4935 4937 4940 4942 4945 4947 4950 4952 4955 4957 4960 4963 4966 4969 4972 4975 4978 4981 4983 4985 4988 4991 4994 4997 5000 5003 5006 5009 5012 5015 5018 5021 5024 5027 5030 5033 5036 5039 5042 5045 5048 5051 5054 5057 5060 5063 5066 5069 5072 5075 5078 5080 5083 5086 5089 5092 5095 5098 5100 5103 5106 5109 5112 5115 5118 5120 5123 5126 5129 5132 5134 5137 5139 5142 5145 5148 5151 5154 5157 5160 5163 5166 5169 5171 5174 5177 5180 5182 5185 5188 5191 5194 5197 5200 5203 5206 5209 5212 5215 5217 5220 5223 5226 5229 5232 5235 5238 5241 5244 5247 5250 5253 5256 5259 5261 5264 5267 5270 5272 5274 5277 5279 5282 5285 5287 5290 5293 5296 5298 5300 5303 5306 5309 5312 5315 5317 5320 5323 5325 5328 5331 5333 5336 5339 5342 5345 5347 5350 5353 5356 5359 5362 5365 5368 5371 5374 5377 5380 5383 5386 5389 5392 5394 5397 5400 5403 5406 5409 5412 5415 5417 5420 5423 5426 5429 5432 5435 5438 5440 5443 5446 5449 5452 5455 5458 5461 5464 5467 5470 5473 5476 5479 5482 5485 5488 5491 5494 5497 5500 5503 5505 5508 5511 5514 5517 5520 5522 5525 5528 5530 5533 5536 5538 5541 5544 5547 5550 5553 5556 5559 5562 5565 5568 5571 5574 5577 5580 5583 5586 5589 5592 5595 5598 5601 5604 5607 5610 5613 5616 5619 5622 5625 5628 5631 5634 5637 5640 5643 5646 5649 5652 5655 5658 5661 5664 5667 5670 5673 5676 5679 5682 5685 5688 5690 5693 5696 5698 5701 5704 5707 5709 5712 5715 5718 5721 5724 5727 5730 5733 5736 5739 5742 5745 5748 5750 5753 5756 5759 5762 5765 5768 5770 5773 5776 5779 5781 5784 5787 5790 5792 5795 5798 5800 5803 5806 5809 5812 5814 5817 5820 5823 5826 5829 5832 5835 5838 5840 5843 5846 5849 5852 5855 5858 5861 5864 5867 5870 5873 5875 5878 5881 5884 5887 5890 5893 5896 5899 5902 5905 5907 5910 5913 5916 5918 5921 5924 5927 5930 5933 5936 5939 5942 5945 5948 5951 5953 5956 5958 5961 5964 5967 5969 5972 5975 5978 5981 5984 5987 5990 5993 5995 5998 6001 6004 6007 6010 6013 6016 6018 6021 6024 6027 6030 6032 6035 6037 6040 6043 6046 6049 6051 6054 6057 6060 6063 6066 6069 6071 6074 6077 6080 6083 6086 6089 6092 6095 6098 6101 6104 6107 6110 6112 6115 6118 6121 6124 6126 6129 6132 6135 6138 6141 6143 6146 6149 6152 6155 6158 6161 6164 6167 6170 6173 6176 6179 6182 6184 6187 6190 6192 6195 6198 6201 6204 6207 6210 6213 6216 6219 6222 6225 6228 6231 6234 6236 6238 6241 6244 6247 6250 6253 6256 6259 6262 6265 6268 6271 6274 6277 6280 6283 6286 6289 6292 6295 6298 6301 6304 6307 6310 6312 6315 6318 6321 6324 6327 6329 6332 6335 6338 6341 6344 6347 6350 6353 6355 6358 6361 6364 6367 6369 6372 6375 6378 6381 6384 6387 6390 6393 6396 6399 6402 6405 6408 6411 6414 6417 6420 6423 6426 6429 6431 6434 6437 6439 6442 6444 6447 6450 6453 6456 6459 6462 6465 6468 6471 6474 6477 6480 6483 6486 6489 6492 6495 6498 6501 6504 6507 6510 6513 6516 6518 6521 6524 6527 6530 6533 6536 6539 6542 6545 6548 6551 6553 6556 6559 6562 6565 6568 6570 6573 6576 6579 6582 6585 6588 6591 6594 6597 6600 6603 6606 6609 6612 6615 6618 6621 6624 6627 6630 6633 6636 6639 6642 6645 6648 6651 6654 6657 6660 6663 6666 6669 6672 6675 6678 6681 6684 6687 6690 6692 6695 6698 6701 6704 6707 6710 6713 6716 6719 6722 6725 6727 6730 6733 6735 6738 6741 6744 6746 6749 6752 6755 6758 6761 6764 6767 6770 6773 6776 6779 6782 6785 6788 6791 6794 6797 6800 6803 6806 6809 6812 6815 6818 6821 6824 6827 6830 6833 6836 6839 6842 6845 6847 6850 6853 6856 6858 6861 6863 6866 6869 6872 6874 6877 6880 6883 6886 6888 6891 6894 6897 6900 6903 6906 6909 6912 6915 6918 6920 6923 6926 6929 6932 6935 6938 6940 6942 6945 6948 6951 6954 6956 6959 6962 6965 6968 6970 6973 6976 6979 6982 6985 6988 6991 6994 6997 6999 7002 7005 7008 7011 7014 7017 7020 7022 7025 7028 7030 7032 7035 7038 7041 7044 7047 7050 7053 7056 7059 7062 7065 7067 7070 7072 7075 7077 7080 7083 7086 7089 7091 7094 7097 7100 7103 7106 7108 7111 7113 7116 7118 7121 7124 7127 7130 7133 7136 7139 7142 7145 7148 7150 7153 7155 7158 7161 7163 7166 7168 7171 7174 7177 7180 7182 7185 7188 7191 7194 7197 7200 7203 7206 7209 7212 7215 7218 7221 7223 7226 7229 7232 7235 7238 7241 7243 7246 7249 7251 7254 7257 7260 7263 7266 7269 7272 7275 7278 7280 7283 7286 7289 7292 7295 7298 7301 7303 7306 7309 7312 7315 7318 7320 7323 7326 7329 7332 7335 7338 7341 7344 7347 7350 7353 7356 7358 7361 7364 7366 7369 7372 7375 7378 7380 7383 7386 7389 7392 7395 7398 7401 7404 7407 7410 7413 7416 7419 7422 7425 7428 7431 7434 7437 7440 7443 7446 7449 7452 7455 7458 7461 7464 7467 7470 7473 7476 7479 7482 7485 7488 7491 7494 7496 7498 7501 7504 7507 7510 7513 7516 7519 7522 7525 7528 7531 7534 7537 7539 7542 7545 7548 7551 7554 7557 7560 7563 7566 7569 7572 7575 7578 7580 7583 7586 7589 7592 7595 7598 7601 7604 7607 7610 7613 7616 7619 7622 7625 7627 7630 7633 7636 7639 7642 7645 7648 7651 7654 7656 7659 7661 7664 7667 7670 7672 7675 7678 7680 7683 7686 7689 7692 7695 7698 7701 7704 7707 7710 7713 7716 7719 7722 7725 7728 7731 7734 7737 7740 7742 7745 7747 7750 7753 7755 7758 7761 7764 7767 7770 7773 7776 7779 7782 7785 7787 7789 7792 7795 7797 7800 7803 7806 7809 7812 7815 7818 7821 7823 7826 7829 7832 7834 7837 7840 7843 7845 7848 7850 7853 7855 7858 7860 7863 7866 7869 7872 7875 7878 7881 7884 7887 7890 7893 7896 7899 7902 7905 7907 7910 7913 7916 7919 7922 7925 7928 7931 7934 7937 7940 7943 7946 7949 7952 7955 7958 7961 7964 7966 7969 7972 7975 7978 7981 7984 7987 7990 7993 7995 7998 8001 8004 8007 8010 8012 8015 8018 8021 8024 8027 8030 8033 8036 8039 8042 8044 8047 8049 8052 8055 8058 8061 8063 8065 8068 8071 8074 8077 8080 8083 8086 8089 8092 8095 8098 8101 8104 8107 8110 8112 8115 8118 8121 8124 8127 8129 8132 8135 8138 8141 8144 8147 8150 8153 8156 8159 8162 8165 8167 8170 8173 8176 8179 8181 8184 8187 8190 8193 8196 8199 8202 8204 8206 8209 8212 8215 8217 8220 8223 8226 8229 8232 8235 8238 8241 8244 8247 8250 8252 8255 8257 8260 8263 8266 8269 8271 8274 8277 8280 8283 8286 8289 8291 8294 8297 8300 8303 8306 8309 8311 8314 8317 8320 8323 8326 8329 8331 8334 8337 8339 8342 8345 8348 8351 8354 8357 8360 8363 8366 8369 8372 8375 8378 8381 8384 8387 8389 8392 8395 8398 8401 8404 8407 8410 8413 8416 8418 8421 8424 8427 8430 8433 8436 8439 8442 8445 8448 8451 8454 8457 8460 8463 8466 8469 8472 8475 8478 8481 8483 8486 8489 8491 8494 8497 8500 8502 8505 8508 8510 8513 8515 8518 8521 8524 8527 8530 8533 8536 8538 8541 8544 8547 8550 8553 8556 8559 8562 8565 8568 8571 8574 8576 8578 8581 8584 8587 8590 8593 8595 8598 8601 8603 8606 8609 8611 8614 8617 8620 8623 8626 8628 8631 8633 8636 8639 8642 8645 8647 8650 8653 8656 8659 8662 8665 8668 8671 8673 8676 8678 8680 8683 8686 8689 8692 8694 8697 8699 8702 8705 8707 8710 8713 8716 8718 8721 8724 8726 8729 8731 8734 8737 8739 8742 8744 8746 8749 8751 8754 8757 8760 8762 8765 8767 8770 8773 8776 8778 8780 8783 8786 8789 8792 8795 8797 8800 8803 8805 8808 8810 8813 8816 8819 8822 8824 8827 8829 8832 8835 8837 8840 8842 8845 8848 8851 8853 8856 8859 8861 8863 8866 8868 8870 8873 8876 8879 8881 8884 8886 8889 8892 8894 8897 8900 8903 8905 8907 8909 8912 8914 8917 8920 8922 8924 8927 8930 8932 8935 8938 8941 8944 8946 8949 8951 8954 8957 8960 8963 8965 8968 8971 8974 8977 8980 8983 8986 8989 8991 8994 8996 8999 9001 9004 9007 9010 9013 9016 9018 9020 9023 9025 9028 9031 9034 9037 9040 9043 9046 9049 9052 9055 9057 9059 9061 9064 9067 9070 9073 9076 9079 9082 9085 9088 9091 9093 9096 9098 9101 9104 9106 9108 9111 9114 9117 9120 9122 9125 9128 9131 9134 9137 9140 9143 9146 9149 9152 9155 9157 9160 9163 9166 9169 9172 9174 9177 9180 9183 9186 9189 9191 9194 9197 9200 9203 9205 9208 9210 9213 9215 9218 9221 9223 9226 9229 9231 9234 9237 9240 9243 9246 9249 9252 9254 9257 9260 9263 9266 9269 9272 9275 9278 9281 9284 9287 9290 9293 9296 9299 9302 9305 9308 9311 9314 9317 9319 9322 9325 9328 9331 9334 9336 9339 9342 9345 9347 9349 9352 9355 9358 9361 9364 9367 9370 9373 9376 9379 9382 9385 9387 9390 9393 9396 9399 9402 9405 9408 9410 9413 9416 9419 9422 9425 9428 9431 9434 9437 9439 9442 9444 9447 9450 9452 9454 9456 9459 9462 9464 9467 9470 9473 9476 9479 9482 9485 9488 9490 9493 9496 9499 9502 9505 9508 9511 9513 9516 9518 9521 9523 9526 9529 9532 9535 9538 9541 9543 9545 9548 9551 9553 9556 9559 9562 9565 9568 9571 9574 9577 9580 9583 9586 9589 9592 9594 9597 9600 9603 9605 9608 9611 9614 9617 9620 9623 9626 9629 9632 9635 9638 9641 9644 9647 9650 9653 9656 9659 9662 9665 9668 9671 9674 9677 9680 9683 9686 9689 9692 9695 9698 9701 9704 9706 9709 9712 9714 9717 9720 9723 9726 9729 9732 9735 9738 9741 9744 9746 9749 9752 9755 9758 9761 9764 9767 9770 9773 9776 9779 9782 9785 9787 9790 9792 9795 9798 9801 9803 9806 9809 9812 9815 9817 9820 9823 9826 9829 9832 9835 9838 9841 9844 9847 9850 9852 9855 9858 9861 9864 9867 9870 9873 9876 9879 9882 9885 9888 9891 9894 9896 9898 9901 9904 9907 9910 9912 9915 9918 9921 9924 9927 9930 9933 9935 9938 9941 9944 9946 9949 9952 9955 9958 9961 9964 9967 9970 9973 9976 9979 9982 9985 9988 9991 9994 9996 9999 10002 10005 10008 10010 10013 10015 10018 10021 10024 10027 10030 10033 10036 10038 10041 10044 10047 10050 10053 10056 10059 10062 10065 10068 10071 10074 10077 10080 10083 10086 10089 10092 10095 10098 10101 10104 10107 10110 10112 10115 10117 10119 10122 10125 10128 10131 10134 10137 10140 10143 10146 10149 10152 10155 10158 10160 10163 10166 10169 10172 10175 10178 10180 10183 10186 10189 10191 10194 10197 10200 10203 10206 10209 10212 10215 10217 10220 10223 10226 10229 10231 10233 10235 10238 10240 10243 10246 10249 10252 10255 10257 10260 10263 10266 10269 10272 10275 10278 10280 10283 10286 10289 10292 10295 10298 10301 10304 10307 10309 10311 10314 10317 10320 10323 10326 10329 10332 10335 10338 10341 10344 10347 10350 10353 10356 10359 10362 10365 10368 10371 10374 10377 10380 10382 10385 10388 10391 10394 10397 10400 10402 10404 10407 10410 10413 10416 10418 10421 10423 10426 10429 10431 10434 10437 10440 10443 10445 10448 10451 10454 10456 10459 10462 10465 10468 10471 10474 10477 10480 10482 10485 10487 10489 10492 10495 10498 10501 10504 10507 10510 10512 10515 10518 10521 10524 10526 10529 10532 10535 10538 10541 10544 10547 10550 10553 10556 10559 10562 10565 10568 10571 10574 10576 10578 10581 10583 10586 10588 10591 10593 10596 10599 10602 10605 10608 10611 10614 10616 10619 10622 10625 10628 10631 10634 10637 10640 10643 10646 10649 10652 10655 10658 10661 10664 10667 10670 10673 10676 10679 10682 10685 10688 10691 10694 10696 10699 10701 10704 10707 10710 10712 10715 10717 10720 10723 10726 10729 10732 10735 10738 10741 10744 10747 10750 10753 10756 10759 10762 10765 10768 10771 10774 10777 10780 10783 10786 10789 10792 10794 10796 10799 10802 10804 10807 10809 10812 10815 10818 10821 10824 10827 10830 10833 10835 10838 10841 10844 10847 10849 10852 10854 10857 10860 10863 10866 10869 10872 10875 10877 10880 10883 10885 10888 10891 10894 10897 10900 10903 10906 10909 10912 10915 10918 10921 10924 10927 10930 10933 10936 10939 10942 10945 10948 10951 10954 10957 10960 10963 10966 10969 10972 10975 10977 10980 10982 10985 10988 10991 10994 10997 11000 11002 11004 11007 11010 11013 11016 11018 11021 11024 11027 11030 11032 11034 11037 11039 11042 11045 11048 11051 11053 11056 11059 11062 11065 11068 11070 11072 11075 11078 11080 11083 11086 11089 11091 11094 11097 11099 11102 11105 11108 11111 11114 11117 11120 11123 11126 11129 11131 11134 11137 11140 11142 11145 11147 11150 11153 11155 11158 11161 11164 11167 11170 11172 11175 11177 11180 11183 11185 11187 11190 11193 11196 11198 11200 11203 11206 11208 11210 11213 11215 11218 11221 11224 11226 11228 11230 11233 11235 11238 11241 11243 11246 11249 11252 11255 11258 11261 11264 11267 11270 11272 11274 11277 11280 11283 11285 11288 11291 11293 11295 11297 11299 11302 11305 11308 11310 11312 11315 11318 11321 11324 11327 11329 11332 11335 11338 11341 11344 11347 11350 11353 11356 11359 11362 11365 11368 11370 11373 11376 11379 11381 11384 11387 11390 11392 11395 11398 11401 11404 11407 11410 11412 11415 11418 11421 11424 11427 11430 11433 11436 11439 11442 11445 11448 11451 11453 11456 11458 11461 11464 11467 11470 11473 11475 11478 11481 11484 11487 11490 11493 11495 11498 11500 11503 11506 11509 11512 11515 11518 11521 11524 11527 11530 11533 11536 11539 11541 11544 11547 11550 11553 11556 11559 11562 11565 11568 11571 11574 11577 11580 11583 11586 11589 11592 11594 11597 11600 11603 11605 11608 11611 11614 11617 11620 11623 11626 11629 11632 11635 11638 11641 11644 11646 11649 11652 11654 11656 11659 11661 11664 11667 11669 11672 11675 11678 11681 11684 11687 11690 11693 11696 11699 11702 11705 11708 11711 11714 11717 11720 11723 11726 11729 11731 11734 11737 11740 11743 11746 11749 11752 11755 11758 11761 11764 11767 11770 11773 11776 11778 11781 11783 11786 11789 11792 11795 11797 11800 11803 11805 11808 11810 11813 11816 11819 11822 11825 11828 11831 11833 11836 11839 11842 11845 11848 11850 11853 11856 11859 11862 11865 11868 11871 11874 11877 11880 11883 11886 11889 11892 11895 11898 11901 11904 11907 11910 11913 11916 11919 11922 11924 11927 11930 11933 11936 11939 11941 11944 11947 11950 11953 11956 11959 11962 11965 11968 11971 11974 11977 11980 11983 11986 11989 11992 11995 11998 12001 12004 12007 12010 12013 12016 12019 12022 12025 12028 12031 12034 12037 12040 12043 12046 12049 12052 12055 12058 12061 12064 12067 12070 12073 12076 12079 12081 12084 12087 12090 12093 12095 12098 12100 12103 12106 12109 12111 12114 12117 12120 12123 12126 12129 12131 12134 12137 12139 12142 12145 12148 12151 12154 12157 12160 12162 12165 12168 12171 12174 12177 12180 12183 12186 12189 12192 12195 12198 12201 12204 12207 12210 12213 12216 12219 12222 12225 12228 12231 12234 12237 12240 12243 12246 12249 12252 12255 12258 12261 12264 12267 12270 12273 12276 12279 12282 12285 12288 12290 12293 12296 12298 12301 12304 12307 12310 12313 12316 12318 12321 12324 12327 12330 12332 12335 12337 12340 12343 12345 12348 12351 12353 12356 12359 12362 12365 12368 12371 12374 12376 12379 12382 12385 12388 12391 12394 12397 12400 12403 12406 12409 12411 12414 12417 12420 12423 12425 12428 12431 12434 12436 12438 12441 12444 12446 12449 12452 12455 12457 12460 12463 12465 12468 12471 12474 12477 12480 12483 12486 12489 12491 12494 12497 12499 12502 12505 12507 12510 12513 12516 12518 12521 12524 12527 12529 12532 12535 12538 12541 12544 12546 12549 12552 12555 12558 12561 12563 12566 12569 12572 12575 12578 12581 12584 12587 12590 12592 12595 12598 12601 12604 12606 12609 12612 12615 12618 12621 12624 12627 12630 12632 12635 12637 12640 12643 12646 12649 12652 12655 12658 12661 12664 12667 12669 12672 12675 12678 12681 12684 12687 12689 12692 12695 12697 12700 12703 12705 12708 12711 12714 12717 12720 12723 12726 12729 12732 12734 12737 12740 12743 12746 12749 12752 12754 12757 12760 12762 12765 12768 12771 12774 12777 12780 12783 12786 12789 12792 12794 12796 12799 12802 12805 12807 12809 12812 12815 12818 12821 12823 12826 12829 12831 12833 12836 12839 12841 12844 12847 12850 12852 12855 12858 12860 12862 12865 12868 12871 12874 12877 12880 12883 12885 12888 12891 12894 12897 12900 12903 12906 12909 12912 12915 12918 12921 12924 12927 12930 12932 12935 12938 12941 12944 12947 12950 12953 12955 12958 12961 12963 12965 12968 12970 12973 12975 12978 12981 12983 12986 12989 12992 12994 12996 12999 13002 13005 13008 13010 13013 13016 13018 13021 13024 13026 13029 13032 13034 13037 13040 13043 13046 13048 13050 13053 13056 13059 13061 13064 13067 13070 13073 13076 13079 13082 13085 13088 13091 13094 13097 13100 13103 13106 13109 13112 13115 13118 13121 13124 13127 13130 13133 13136 13139 13142 13145 13148 13151 13154 13157 13160 13163 13166 13169 13172 13175 13178 13181 13184 13187 13190 13193 13196 13199 13202 13205 13207 13210 13213 13216 13219 13221 13224 13227 13230 13233 13236 13239 13241 13244 13247 13250 13253 13255 13257 13260 13263 13266 13269 13272 13275 13278 13281 13284 13287 13290 13293 13296 13299 13302 13305 13308 13311 13314 13317 13320 13323 13325 13328 13331 13334 13337 13340 13343 13346 13349 13352 13355 13358 13361 13364 13367 13370 13373 13375 13378 13381 13384 13387 13389 13392 13395 13398 13401 13404 13407 13410 13413 13415 13418 13421 13424 13427 13430 13433 13436 13439 13441 13444 13447 13450 13453 13455 13458 13460 13463 13466 13469 13472 13475 13478 13481 13484 13487 13490 13493 13496 13499 13502 13505 13508 13511 13514 13517 13520 13523 13526 13529 13532 13535 13538 13541 13543 13546 13549 13552 13555 13558 13561 13564 13566 13569 13572 13575 13578 13581 13584 13587 13590 13593 13596 13599 13601 13604 13607 13610 13613 13616 13619 13622 13625 13627 13630 13633 13636 13639 13642 13645 13648 13651 13654 13657 13659 13662 13664 13667 13670 13673 13676 13678 13681 13684 13687 13690 13692 13695 13698 13700 13703 13706 13709 13712 13715 13718 13720 13723 13726 13729 13732 13735 13738 13741 13744 13747 13749 13752 13755 13758 13760 13763 13765 13768 13771 13773 13776 13778 13781 13784 13786 13789 13792 13795 13798 13801 13804 13807 13809 13812 13815 13818 13821 13824 13826 13829 13832 13835 13838 13841 13844 13847 13850 13853 13856 13859 13862 13864 13867 13870 13873 13875 13878 13881 13884 13887 13889 13892 13895 13898 13901 13904 13906 13909 13912 13914 13917 13920 13923 13925 13928 13931 13934 13937 13939 13942 13945 13947 13949 13952 13955 13958 13961 13964 13967 13970 13973 13976 13979 13982 13984 13987 13990 13993 13996 13999 14002 14005 14008 14011 14014 14017 14020 14023 14026 14028 14031 14033 14036 14039 14042 14045 14048 14051 14054 14057 14060 14063 14066 14069 14072 14075 14078 14081 14084 14087 14090 14093 14096 14099 14102 14104 14107 14110 14113 14116 14119 14122 14125 14128 14131 14134 14137 14140 14143 14146 14148 14151 14154 14157 14160 14163 14166 14169 14172 14175 14178 14181 14184 14187 14190 14193 14196 14199 14202 14205 14208 14211 14214 14217 14220 14223 14226 14229 14232 14235 14238 14241 14244 14247 14250 14253 14256 14259 14262 14265 14268 14270 14273 14276 14279 14282 14285 14288 14291 14294 14297 14300 14302 14305 14307 14310 14313 14316 14319 14322 14324 14327 14330 14333 14336 14339 14342 14345 14348 14351 14354 14356 14359 14362 14364 14367 14370 14372 14375 14378 14381 14384 14387 14389 14392 14395 14398 14400 14402 14405 14408 14410 14413 14416 14419 14422 14425 14428 14431 14433 14435 14438 14440 14443 14446 14449 14452 14455 14457 14460 14463 14466 14469 14472 14475 14478 14481 14484 14487 14490 14493 14496 14499 14501 14504 14507 14510 14512 14515 14517 14520 14523 14526 14529 14532 14534 14537 14540 14543 14546 14549 14552 14555 14558 14561 14564 14567 14570 14573 14576 14578 14581 14584 14587 14589 14592 14595 14598 14601 14604 14606 14609 14612 14615 14617 14619 14622 14625 14628 14631 14634 14637 14640 14643 14646 14649 14652 14655 14658 14661 14664 14667 14669 14671 14674 14677 14680 14682 14685 14688 14690 14693 14695 14698 14700 14703 14706 14709 14711 14714 14716 14719 14722 14725 14728 14731 14734 14736 14739 14742 14745 14748 14751 14754 14757 14760 14762 14765 14768 14771 14774 14777 14779 14782 14784 14787 14790 14793 14796 14799 14802 14805 14808 14811 14813 14816 14818 14821 14824 14827 14830 14833 14836 14839 14842 14845 14848 14851 14854 14857 14860 14863 14866 14868 14871 14874 14877 14880 14883 14886 14889 14892 14895 14897 14900 14903 14906 14909 14912 14915 14918 14921 14924 14927 14930 14932 14935 14938 14941 14944 14947 14950 14953 14956 14958 14961 14964 14967 14970 14973 14976 14978 14981 14984 14987 14990 14993 14996 14999 15002 15005 15008 15011 15014 15017 15019 15022 15025 15028 15031 15034 15037 15040 15043 15046 15049 15052 15055 15058 15061 15064 15067 15070 15072 15075 15078 15081 15084 15087 15090 15093 15096 15099 15102 15105 15108 15111 15114 15117 15120 15123 15126 15129 15132 15135 15138 15141 15144 15147 15150 15153 15156 15159 15162 15164 15167 15170 15173 15176 15179 15182 15185 15188 15191 15194 15197 15200 15202 15205 15207 15210 15213 15216 15219 15222 15225 15228 15231 15234 15237 15239 15242 15245 15248 15251 15254 15257 15260 15263 15266 15269 15272 15274 15277 15279 15281 15284 15287 15289 15292 15295 15297 15299 15302 15305 15307 15310 15313 15315 15318 15321 15324 15327 15330 15333 15336 15339 15341 15344 15347 15350 15353 15356 15359 15362 15365 15368 15370 15373 15376 15379 15382 15385 15388 15391 15393 15395 15398 15400 15403 15406 15409 15411 15414 15417 15420 15423 15426 15428 15431 15434 15437 15440 15443 15446 15448 15451 15454 15457 15460 15463 15466 15468 15471 15474 15476 15479 15482 15485 15488 15491 15493 15496 15498 15501 15503 15506 15509 15512 15515 15518 15521 15524 15527 15530 15533 15535 15538 15540 15543 15546 15548 15551 15554 15557 15559 15561 15564 15567 15570 15573 15575 15578 15580 15583 15586 15588 15591 15594 15597 15600 15603 15606 15609 15612 15615 15618 15621 15624 15627 15630 15633 15636 15639 15642 15645 15648 15651 15654 15657 15660 15662 15665 15668 15671 15674 15677 15680 15683 15685 15688 15691 15694 15697 15699 15702 15705 15708 15710 15713 15716 15718 15721 15723 15726 15729 15732 15735 15738 15741 15744 15747 15749 15752 15755 15758 15760 15763 15766 15769 15772 15774 15777 15779 15782 15785 15788 15791 15794 15797 15799 15802 15805 15808 15810 15813 15816 15818 15821 15824 15827 15830 15833 15835 15838 15841 15844 15847 15850 15852 15854 15857 15860 15863 15866 15869 15872 15875 15878 15881 15884 15887 15890 15893 15896 15899 15902 15905 15908 15911 15914 15917 15920 15923 15926 15929 15932 15935 15938 15941 15944 15947 15950 15953 15956 15959 15962 15965 15968 15971 15974 15977 15980 15983 15986 15989 15992 15995 15997 16000 16003 16006 16009 16012 16015 16018 16021 16024 16027 16030 16033 16036 16039 16042 16045 16048 16051 16053 16056 16059 16062 16065 16068 16071 16074 16076 16079 16082 16085 16088 16090 16093 16096 16099 16102 16105 16108 16111 16114 16117 16120 16123 16125 16128 16131 16134 16137 16140 16143 16145 16148 16151 16153 16156 16158 16160 16162 16165 16168 16171 16174 16177 16180 16183 16186 16189 16192 16195 16198 16201 16204 16207 16210 16213 16216 16219 16222 16225 16228 16231 16234 16237 16240 16243 16246 16249 16252 16255 16258 16261 16264 16267 16270 16273 16276 16279 16282 16285 16288 16291 16294 16297 16300 16303 16306 16309 16312 16315 16318 16321 16324 16327 16330 16332 16335 16338 16341 16343 16346 16348 16351 16354 16357 16360 16363 16366 16369 16372 16375 16378 16381 16383 16386 16389 16392 16394 16397 16399 16402 16404 16407 16410 16413 16416 16419 16422 16425 16428 16431 16434 16437 16440 16443 16446 16449 16452 16455 16458 16461 16464 16467 16470 16472 16475 16478 16481 16484 16487 16490 16493 16496 16499 16502 16505 16508 16511 16514 16517 16519 16522 16525 16528 16531 16533 16535 16538 16541 16543 16546 16549 16552 16555 16557 16560 16562 16565 16567 16570 16573 16576 16578 16581 16583 16586 16589 16592 16595 16598 16601 16604 16607 16609 16612 16615 16618 16620 16623 16626 16629 16631 16634 16637 16640 16643 16646 16649 16652 16655 16658 16661 16664 16667 16670 16673 16676 16679 16682 16685 16688 16690 16693 16696 16699 16702 16705 16708 16711 16714 16717 16720 16723 16726 16729 16732 16735 16738 16740 16743 16746 16749 16751 16754 16757 16760 16763 16766 16769 16771 16774 16777 16780 16783 16786 16789 16792 16795 16798 16801 16803 16806 16809 16812 16815 16818 16821 16824 16827 16830 16833 16836 16839 16842 16845 16848 16851 16854 16857 16860 16863 16866 16869 16872 16875 16878 16881 16884 16887 16890 16892 16895 16898 16901 16904 16906 16908 16911 16914 16917 16919 16922 16925 16928 16931 16934 16937 16940 16942 16945 16948 16951 16953 16956 16959 16962 16965 16967 16970 16972 16974 16977 16980 16982 16985 16988 16991 16994 16997 16999 17002 17004 17007 17010 17012 17015 17017 17019 17022 17025 17027 17029 17032 17035 17038 17041 17043 17046 17048 17051 17054 17057 17059 17061 17064 17067 17070 17073 17076 17078 17081 17084 17087 17089 17092 17095 17098 17101 17104 17106 17109 17112 17115 17118 17121 17124 17126 17129 17132 17135 17138 17141 17144 17147 17150 17152 17154 17156 17159 17161 17164 17167 17169 17172 17175 17178 17181 17184 17187 17190 17193 17196 17199 17202 17204 17207 17210 17213 17216 17219 17222 17225 17228 17231 17233 17236 17239 17242 17245 17248 17251 17254 17257 17259 17262 17265 17268 17271 17274 17276 17279 17282 17285 17288 17291 17294 17297 17299 17302 17305 17308 17310 17313 17316 17318 17321 17324 17327 17330 17333 17336 17339 17342 17345 17348 17351 17354 17357 17360 17363 17366 17369 17372 17375 17378 17381 17384 17387 17389 17392 17395 17398 17401 17404 17406 17409 17412 17415 17418 17421 17424 17427 17430 17433 17436 17439 17442 17445 17448 17450 17453 17456 17459 17462 17465 17468 17471 17474 17477 17479 17482 17484 17487 17490 17493 17496 17499 17501 17504 17506 17508 17511 17514 17517 17520 17523 17526 17529 17531 17534 17537 17540 17543 17546 17549 17551 17554 17556 17559 17561 17564 17567 17570 17573 17576 17579 17582 17585 17588 17591 17594 17597 17600 17603 17606 17609 17612 17615 17618 17621 17624 17627 17630 17633 17636 17639 17642 17645 17648 17651 17654 17657 17660 17663 17666 17669 17672 17675 17678 17681 17684 17687 17689 17692 17695 17698 17701 17704 17707 17710 17713 17716 17718 17721 17724 17727 17730 17733 17736 17738 17741 17744 17746 17749 17752 17755 17758 17761 17764 17767 17770 17773 17776 17779 17782 17784 17787 17790 17792 17795 17798 17801 17804 17806 17809 17811 17814 17817 17820 17823 17825 17828 17830 17833 17836 17839 17842 17844 17846 17849 17851 17854 17857 17860 17863 17866 17869 17872 17875 17878 17881 17884 17887 17890 17893 17895 17898 17901 17904 17907 17910 17913 17916 17919 17922 17925 17928 17931 17934 17937 17940 17943 17946 17949 17952 17954 17957 17960 17962 17965 17968 17971 17973 17976 17979 17982 17985 17988 17990 17993 17996 17999 18002 18005 18008 18011 18014 18017 18020 18023 18026 18028 18031 18033 18036 18039 18042 18044 18047 18050 18053 18055 18058 18060 18063 18066 18069 18072 18075 18077 18080 18083 18086 18088 18091 18094 18097 18100 18102 18105 18108 18111 18114 18116 18119 18122 18124 18127 18130 18133 18135 18138 18141 18144 18147 18150 18153 18156 18159 18162 18164 18167 18170 18172 18175 18178 18181 18183 18186 18189 18192 18195 18198 18201 18204 18207 18210 18213 18216 18219 18222 18225 18228 18231 18234 18237 18240 18243 18246 18249 18252 18255 18258 18261 18264 18267 18270 18273 18276 18279 18282 18285 18288 18290 18293 18296 18299 18302 18305 18308 18311 18314 18317 18320 18323 18326 18329 18332 18335 18337 18339 18342 18345 18348 18351 18354 18357 18360 18362 18365 18368 18371 18374 18377 18380 18383 18386 18389 18392 18395 18398 18401 18404 18407 18410 18413 18416 18419 18422 18425 18428 18431 18434 18437 18440 18443 18446 18449 18452 18455 18458 18461 18464 18467 18470 18472 18475 18478 18480 18483 18486 18489 18492 18495 18498 18501 18504 18507 18509 18512 18515 18518 18521 18524 18527 18530 18533 18536 18539 18542 18545 18548 18551 18553 18556 18559 18562 18565 18568 18571 18574 18576 18579 18582 18585 18588 18590 18593 18595 18598 18601 18604 18607 18610 18613 18616 18619 18622 18625 18627 18630 18633 18636 18639 18641 18644 18647 18650 18653 18656 18659 18661 18664 18667 18669 18672 18675 18678 18680 18683 18686 18689 18692 18694 18697 18700 18703 18705 18708 18711 18714 18717 18720 18723 18726 18729 18732 18734 18736 18739 18742 18745 18748 18751 18754 18757 18759 18762 18765 18768 18771 18774 18776 18779 18782 18784 18787 18790 18793 18796 18799 18802 18805 18808 18810 18813 18816 18819 18822 18825 18827 18830 18833 18836 18839 18842 18845 18848 18851 18854 18857 18860 18863 18866 18869 18872 18875 18878 18881 18884 18887 18890 18892 18895 18898 18901 18904 18907 18910 18913 18915 18918 18921 18924 18927 18930 18933 18936 18938 18941 18943 18945 18948 18951 18954 18957 18960 18963 18966 18969 18972 18975 18978 18981 18984 18987 18990 18993 18996 18999 19002 19005 19008 19011 19014 19017 19020 19023 19026 19029 19032 19034 19037 19040 19043 19046 19049 19052 19055 19058 19061 19064 19067 19070 19073 19076 19079 19082 19085 19088 19091 19094 19097 19100 19103 19106 19108 19111 19114 19117 19120 19122 19125 19128 19131 19134 19137 19140 19143 19146 19149 19152 19155 19158 19161 19164 19167 19170 19173 19176 19179 19182 19185 19188 19191 19194 19197 19200 19203 19206 19209 19212 19215 19218 19221 19224 19227 19230 19233 19236 19238 19241 19244 19247 19250 19253 19256 19259 19262 19265 19267 19270 19272 19274 19277 19280 19283 19286 19289 19291 19294 19297 19300 19302 19305 19308 19311 19314 19317 19320 19323 19326 19329 19332 19335 19338 19341 19344 19347 19350 19353 19356 19359 19362 19365 19368 19371 19374 19377 19380 19383 19386 19389 19392 19395 19398 19401 19404 19407 19410 19413 19416 19419 19422 19425 19428 19431 19434 19436 19439 19442 19445 19448 19451 19454 19457 19460 19463 19466 19469 19472 19475 19478 19481 19484 19487 19490 19493 19495 19498 19501 19503 19506 19508 19511 19514 19517 19520 19523 19526 19529 19531 19534 19537 19540 19543 19546 19549 19552 19555 19558 19560 19563 19566 19569 19572 19575 19578 19581 19584 19587 19590 19593 19596 19598 19601 19604 19607 19610 19613 19616 19619 19622 19625 19628 19631 19634 19637 19640 19643 19646 19649 19652 19654 19657 19660 19663 19666 19669 19671 19673 19676 19679 19682 19684 19687 19690 19693 19696 19699 19701 19704 19706 19709 19712 19715 19718 19721 19723 19725 19728 19730 19733 19736 19739 19742 19745 19748 19751 19754 19757 19760 19763 19766 19769 19772 19774 19777 19780 19783 19786 19789 19792 19795 19798 19801 19804 19807 19810 19813 19816 19819 19822 19825 19828 19831 19834 19837 19839 19842 19845 19848 19851 19854 19856 19859 19862 19865 19868 19871 19874 19876 19879 19881 19883 19886 19889 19892 19895 19898 19901 19904 19907 19910 19913 19916 19919 19922 19925 19928 19931 19934 19937 19940 19943 19946 19949 19952 19955 19957 19960 19963 19966 19969 19972 19975 19978 19981 19983 19986 19989 19992 19995 19998 20001 20004 20007 20010 20012 20015 20018 20021 20024 20027 20030 20033 20036 20038 20041 20044 20046 20049 20052 20055 20058 20060 20062 20065 20068 20070 20072 20075 20078 20081 20084 20087 20089 20092 20095 20098 20101 20104 20106 20109 20112 20115 20118 20121 20124 20127 20130 20132 20135 20138 20141 20144 20147 20150 20153 20156 20159 20162 20164 20166 20169 20172 20175 20178 20181 20184 20186 20189 20192 20195 20198 20201 20204 20207 20210 20213 20216 20218 20221 20224 20227 20230 20233 20236 20239 20242 20245 20248 20251 20254 20256 20259 20262 20265 20268 20271 20274 20277 20280 20283 20286 20289 20292 20295 20298 20301 20304 20307 20310 20313 20316 20319 20322 20325 20328 20330 20333 20336 20339 20342 20345 20348 20351 20354 20357 20360 20363 20366 20369 20372 20374 20377 20380 20383 20386 20389 20392 20395 20398 20401 20404 20407 20410 20413 20416 20419 20422 20425 20428 20431 20434 20437 20440 20443 20446 20449 20452 20455 20458 20461 20464 20467 20470 20473 20476 20479 20482 20485 20488 20491 20493 20496 20499 20502 20505 20508 20511 20514 20517 20520 20523 20526 20529 20532 20535 20538 20541 20543 20546 20549 20551 20554 20557 20560 20563 20566 20568 20571 20574 20577 20580 20583 20586 20589 20592 20595 20598 20601 20604 20607 20610 20613 20616 20619 20622 20625 20628 20631 20634 20637 20640 20643 20645 20648 20651 20654 20656 20659 20662 20665 20668 20671 20673 20676 20679 20682 20685 20688 20691 20694 20697 20700 20703 20706 20709 20712 20715 20718 20721 20724 20727 20730 20733 20736 20739 20742 20745 20748 20751 20754 20757 20760 20763 20766 20769 20772 20775 20778 20781 20784 20787 20790 20793 20796 20799 20802 20805 20808 20811 20814 20817 20820 20822 20825 20827 20830 20833 20836 20839 20842 20845 20848 20851 20854 20857 20860 20863 20866 20869 20872 20875 20878 20880 20883 20886 20889 20892 20895 20898 20901 20904 20907 20909 20912 20915 20918 20921 20924 20927 20930 20933 20935 20938 20941 20944 20947 20950 20953 20956 20959 20962 20965 20968 20971 20974 20977 20980 20983 20986 20989 20992 20995 20998 21001 21004 21007 21010 21013 21016 21018 21020 21023 21026 21029 21031 21034 21037 21039 21042 21045 21047 21050 21053 21056 21059 21061 21064 21067 21069 21072 21074 21077 21080 21083 21086 21089 21092 21095 21098 21101 21104 21107 21110 21113 21116 21119 21122 21125 21128 21130 21133 21136 21139 21142 21145 21148 21151 21154 21157 21160 21163 21166 21169 21172 21175 21178 21181 21184 21187 21190 21193 21196 21199 21202 21205 21208 21210 21213 21216 21219 21222 21225 21228 21230 21233 21236 21239 21242 21245 21247 21249 21252 21255 21258 21261 21263 21265 21268 21271 21273 21276 21279 21281 21284 21287 21289 21292 21295 21298 21301 21303 21306 21309 21312 21315 21318 21321 21324 21327 21330 21333 21336 21338 21341 21344 21347 21349 21352 21355 21357 21360 21363 21366 21368 21371 21374 21376 21378 21380 21383 21386 21389 21392 21395 21398 21401 21404 21407 21410 21413 21416 21418 21421 21424 21427 21430 21433 21436 21439 21442 21445 21448 21451 21454 21457 21460 21463 21466 21469 21472 21475 21477 21480 21483 21486 21488 21491 21494 21497 21500 21502 21505 21508 21511 21514 21517 21520 21523 21525 21528 21531 21534 21537 21539 21542 21545 21548 21551 21554 21557 21560 21563 21566 21569 21572 21575 21578 21581 21584 21587 21589 21592 21594 21597 21599 21602 21605 21607 21610 21613 21615 21618 21621 21624 21627 21630 21632 21635 21637 21640 21643 21645 21648 21651 21654 21657 21660 21663 21666 21669 21672 21675 21678 21681 21684 21687 21690 21693 21696 21699 21702 21705 21708 21711 21714 21717 21720 21723 21726 21728 21731 21734 21737 21740 21742 21745 21748 21751 21754 21757 21760 21763 21765 21768 21771 21773 21775 21778 21781 21784 21786 21789 21792 21794 21797 21799 21801 21803 21806 21809 21811 21813 21816 21819 21822 21824 21827 21830 21832 21835 21838 21841 21843 21846 21849 21851 21854 21857 21860 21862 21865 21868 21871 21874 21877 21880 21883 21885 21888 21890 21893 21896 21899 21902 21905 21907 21910 21912 21915 21918 21921 21924 21927 21930 21933 21936 21939 21942 21945 21947 21950 21953 21955 21958 21961 21964 21967 21969 21972 21974 21977 21980 21983 21986 21989 21992 21995 21998 22000 22002 22005 22008 22011 22014 22017 22020 22023 22026 22029 22032 22035 22038 22041 22044 22047 22050 22053 22056 22059 22062 22065 22068 22070 22073 22076 22079 22081 22084 22087 22090 22093 22096 22099 22102 22105 22108 22111 22114 22116 22119 22122 22125 22128 22131 22134 22137 22139 22142 22145 22147 22150 22153 22156 22159 22162 22165 22167 22170 22173 22176 22179 22182 22185 22188 22191 22194 22197 22200 22203 22206 22209 22211 22214 22217 22220 22223 22226 22229 22232 22235 22238 22241 22244 22247 22250 22253 22256 22259 22262 22265 22267 22270 22273 22275 22278 22281 22284 22287 22290 22293 22296 22299 22302 22305 22308 22310 22313 22316 22318 22321 22323 22326 22329 22331 22334 22337 22340 22342 22344 22347 22349 22352 22355 22358 22361 22363 22366 22369 22372 22375 22378 22381 22384 22387 22390 22392 22395 22398 22401 22404 22407 22410 22413 22416 22419 22422 22425 22428 22431 22433 22436 22439 22442 22445 22448 22451 22454 22457 22460 22463 22466 22469 22472 22474 22477 22480 22483 22486 22489 22492 22495 22497 22500 22503 22506 22509 22512 22514 22517 22520 22523 22526 22529 22532 22535 22538 22541 22544 22547 22550 22553 22556 22559 22562 22565 22568 22571 22573 22575 22578 22581 22584 22587 22590 22593 22595 22598 22601 22604 22607 22609 22612 22615 22618 22621 22623 22626 22629 22632 22635 22637 22640 22642 22645 22648 22651 22654 22657 22660 22663 22666 22669 22672 22675 22678 22681 22684 22687 22689 22692 22695 22697 22699 22702 22705 22708 22711 22714 22717 22720 22723 22726 22728 22731 22734 22737 22740 22742 22745 22747 22749 22752 22755 22758 22761 22764 22767 22769 22772 22775 22778 22781 22783 22785 22788 22790 22793 22796 22798 22801 22804 22807 22810 22813 22816 22818 22821 22824 22827 22830 22832 22835 22838 22841 22844 22847 22849 22852 22855 22858 22861 22864 22867 22869 22872 22875 22878 22881 22883 22886 22889 22892 22895 22898 22901 22904 22907 22910 22913 22916 22919 22922 22925 22928 22930 22933 22936 22939 22942 22945 22948 22951 22954 22957 22960 22963 22966 22968 22971 22974 22977 22980 22983 22986 22989 22992 22995 22998 23000 23003 23006 23009 23012 23015 23018 23021 23024 23027 23030 23033 23036 23039 23042 23045 23048 23051 23054 23057 23060 23063 23066 23069 23072 23075 23078 23081 23084 23086 23089 23092 23095 23098 23100 23103 23106 23109 23112 23115 23118 23121 23124 23127 23130 23133 23136 23139 23142 23145 23148 23150 23153 23156 23159 23162 23165 23168 23171 23174 23177 23179 23182 23185 23188 23191 23194 23197 23199 23202 23205 23207 23210 23213 23216 23219 23222 23225 23228 23231 23234 23237 23240 23242 23245 23248 23251 23253 23256 23259 23262 23265 23268 23271 23274 23277 23280 23283 23286 23289 23292 23295 23297 23300 23303 23305 23308 23310 23313 23316 23319 23321 23324 23327 23330 23333 23336 23338 23341 23344 23347 23350 23353 23356 23359 23362 23365 23368 23371 23374 23377 23380 23383 23386 23389 23392 23395 23398 23401 23404 23407 23410 23413 23416 23419 23422 23425 23428 23431 23434 23437 23440 23443 23446 23449 23452 23454 23457 23460 23462 23465 23468 23471 23474 23477 23480 23483 23486 23489 23492 23495 23498 23501 23504 23507 23510 23513 23516 23518 23521 23524 23527 23530 23533 23536 23538 23541 23544 23547 23549 23552 23555 23558 23561 23564 23567 23570 23573 23576 23579 23582 23584 23587 23590 23593 23596 23599 23602 23605 23608 23611 23614 23616 23619 23622 23625 23628 23631 23634 23637 23640 23642 23645 23647 23650 23653 23655 23658 23661 23663 23665 23667 23670 23673 23676 23678 23681 23684 23687 23690 23692 23695 23698 23701 23704 23707 23710 23712 23714 23717 23720 23723 23726 23729 23732 23735 23738 23741 23744 23747 23750 23752 23755 23758 23761 23764 23767 23770 23772 23775 23778 23781 23784 23787 23790 23793 23796 23799 23801 23804 23807 23810 23813 23816 23819 23822 23825 23828 23830 23833 23836 23839 23842 23844 23847 23850 23853 23856 23859 23861 23864 23867 23869 23872 23875 23878 23881 23884 23886 23889 23892 23895 23898 23901 23904 23907 23910 23913 23916 23919 23922 23925 23928 23930 23933 23936 23939 23942 23945 23947 23949 23952 23955 23958 23960 23963 23966 23969 23972 23974 23977 23980 23982 23985 23988 23991 23994 23997 24000 24003 24006 24009 24012 24015 24018 24021 24023 24026 24029 24032 24035 24038 24041 24044 24046 24049 24052 24055 24058 24061 24064 24067 24070 24073 24076 24079 24081 24084 24087 24090 24093 24096 24099 24102 24105 24108 24111 24114 24117 24120 24123 24126 24129 24132 24134 24137 24140 24143 24146 24149 24152 24154 24157 24160 24163 24165 24168 24171 24174 24177 24180 24182 24185 24188 24191 24193 24196 24199 24202 24205 24208 24211 24214 24216 24219 24222 24224 24227 24230 24233 24236 24239 24242 24245 24248 24251 24254 24256 24258 24261 24264 24267 24270 24273 24276 24279 24282 24285 24288 24291 24294 24297 24300 24303 24306 24309 24311 24314 24317 24320 24323 24326 24329 24331 24334 24337 24340 24342 24345 24348 24351 24353 24356 24359 24362 24365 24368 24371 24374 24377 24380 24382 24385 24388 24391 24394 24397 24400 24402 24405 24408 24411 24414 24417 24420 24423 24426 24429 24432 24435 24438 24441 24444 24447 24450 24452 24455 24458 24460 24463 24465 24468 24471 24474 24477 24480 24483 24486 24488 24491 24493 24496 24499 24502 24505 24508 24511 24513 24516 24519 24521 24524 24527 24530 24533 24536 24539 24542 24545 24548 24550 24553 24556 24559 24562 24565 24567 24570 24573 24576 24579 24582 24585 24587 24590 24593 24596 24599 24602 24605 24608 24611 24613 24616 24619 24622 24625 24628 24631 24634 24637 24640 24643 24646 24649 24652 24654 24657 24659 24662 24665 24667 24670 24673 24675 24678 24681 24684 24687 24690 24693 24696 24699 24701 24704 24707 24709 24712 24715 24718 24721 24724 24727 24730 24733 24736 24739 24742 24745 24748 24751 24754 24757 24760 24763 24766 24769 24772 24775 24778 24781 24784 24787 24790 24793 24796 24799 24801 24804 24807 24810 24813 24816 24819 24822 24825 24828 24831 24834 24837 24840 24843 24846 24849 24852 24855 24858 24861 24864 24867 24870 24873 24876 24879 24882 24885 24888 24891 24894 24897 24900 24903 24906 24909 24912 24915 24918 24921 24924 24927 24930 24933 24936 24939 24942 24945 24948 24951 24954 24957 24960 24962 24965 24968 24971 24974 24977 24980 24983 24986 24989 24992 24994 24996 24999 25002 25005 25008 25010 25013 25016 25018 25021 25023 25026 25029 25032 25035 25038 25041 25044 25047 25049 25052 25055 25058 25061 25064 25067 25070 25073 25076 25079 25082 25085 25088 25091 25094 25097 25100 25103 25106 25109 25112 25115 25118 25121 25124 25127 25130 25133 25135 25138 25141 25144 25147 25149 25152 25155 25157 25160 25163 25166 25169 25172 25175 25178 25181 25184 25187 25190 25192 25195 25197 25200 25203 25206 25209 25212 25215 25218 25221 25224 25227 25230 25233 25236 25238 25240 25243 25246 25249 25252 25255 25257 25260 25263 25266 25269 25272 25274 25277 25280 25282 25285 25288 25290 25293 25296 25298 25300 25302 25304 25307 25310 25312 25315 25318 25321 25324 25326 25329 25332 25334 25337 25340 25343 25345 25348 25351 25354 25356 25359 25362 25365 25368 25371 25373 25375 25378 25380 25383 25386 25389 25392 25395 25398 25401 25404 25407 25410 25413 25416 25419 25422 25425 25428 25431 25434 25437 25440 25443 25446 25448 25451 25454 25457 25459 25462 25465 25468 25471 25474 25477 25480 25483 25486 25489 25492 25495 25498 25501 25504 25507 25510 25512 25515 25518 25521 25524 25527 25530 25533 25536 25539 25542 25545 25548 25551 25554 25557 25560 25562 25565 25567 25570 25573 25576 25579 25582 25585 25588 25591 25593 25595 25597 25600 25603 25605 25608 25611 25614 25616 25619 25622 25624 25627 25629 25632 25635 25638 25641 25644 25647 25650 25653 25655 25658 25661 25664 25667 25670 25673 25676 25678 25681 25684 25687 25690 25693 25696 25699 25702 25704 25707 25710 25713 25715 25718 25721 25724 25727 25730 25733 25736 25739 25742 25745 25748 25751 25754 25756 25759 25761 25764 25766 25769 25772 25775 25778 25781 25783 25786 25789 25792 25795 25798 25801 25803 25805 25807 25810 25813 25816 25819 25822 25825 25828 25831 25834 25837 25840 25843 25846 25849 25852 25855 25858 25861 25864 25867 25870 25873 25876 25879 25882 25885 25888 25891 25894 25897 25900 25903 25906 25909 25912 25915 25918 25921 25923 25926 25929 25931 25934 25937 25940 25943 25946 25949 25952 25955 25958 25961 25964 25967 25969 25972 25975 25978 25980 25983 25986 25989 25992 25995 25998 26001 26004 26007 26010 26013 26016 26019 26022 26025 26028 26031 26034 26037 26040 26043 26046 26049 26051 26054 26057 26060 26063 26066 26069 26072 26075 26078 26081 26083 26086 26089 26092 26095 26098 26101 26104 26106 26108 26111 26113 26116 26119 26122 26125 26128 26131 26134 26137 26140 26143 26146 26149 26152 26155 26158 26160 26163 26165 26168 26171 26174 26176 26179 26182 26184 26187 26190 26193 26196 26199 26202 26205 26208 26211 26214 26217 26220 26223 26226 26229 26232 26235 26237 26240 26243 26246 26249 26252 26255 26258 26260 26263 26266 26269 26272 26275 26278 26281 26284 26287 26289 26292 26294 26297 26300 26303 26306 26309 26312 26315 26318 26321 26324 26327 26329 26332 26334 26337 26340 26343 26346 26349 26352 26355 26358 26361 26364 26367 26370 26373 26376 26379 26382 26385 26388 26391 26394 26397 26400 26403 26406 26409 26412 26415 26418 26421 26424 26427 26430 26433 26436 26439 26442 26445 26448 26451 26454 26457 26460 26463 26466 26469 26471 26473 26476 26479 26482 26484 26487 26489 26492 26494 26497 26499 26502 26505 26508 26511 26513 26515 26517 26520 26522 26525 26528 26531 26534 26536 26539 26542 26545 26548 26550 26553 26556 26559 26561 26564 26566 26568 26570 26573 26576 26578 26581 26584 26587 26590 26592 26595 26598 26601 26604 26607 26610 26613 26616 26619 26622 26625 26628 26631 26634 26636 26639 26642 26644 26647 26650 26653 26656 26659 26661 26664 26667 26669 26672 26675 26678 26681 26684 26687 26690 26693 26696 26699 26702 26705 26708 26711 26714 26717 26720 26723 26726 26728 26731 26734 26737 26740 26743 26746 26749 26752 26755 26758 26761 26763 26766 26769 26772 26775 26778 26781 26783 26786 26789 26792 26795 26798 26801 26804 26807 26810 26813 26816 26819 26822 26825 26827 26830 26833 26835 26838 26841 26844 26847 26850 26853 26856 26858 26861 26863 26866 26868 26871 26873 26876 26878 26881 26884 26886 26889 26892 26895 26898 26901 26904 26907 26910 26913 26916 26919 26922 26925 26928 26931 26934 26937 26940 26943 26946 26948 26951 26954 26956 26959 26962 26965 26968 26971 26974 26977 26980 26983 26986 26989 26992 26995 26998 27001 27004 27007 27010 27013 27016 27019 27022 27025 27028 27031 27034 27037 27040 27043 27045 27048 27051 27053 27056 27059 27062 27065 27068 27071 27074 27077 27080 27083 27086 27089 27092 27095 27098 27100 27103 27106 27109 27112 27115 27118 27121 27124 27127 27130 27133 27136 27139 27142 27145 27148 27150 27153 27155 27157 27160 27163 27166 27169 27172 27174 27176 27179 27182 27185 27188 27190 27193 27196 27199 27202 27205 27208 27211 27214 27217 27220 27223 27226 27229 27232 27235 27238 27241 27244 27247 27250 27253 27255 27257 27260 27262 27264 27267 27270 27273 27275 27278 27281 27283 27285 27288 27291 27293 27296 27299 27302 27305 27308 27311 27313 27315 27318 27321 27323 27326 27329 27332 27334 27337 27340 27343 27346 27348 27350 27353 27356 27359 27362 27365 27368 27371 27374 27376 27379 27382 27384 27387 27389 27392 27394 27397 27400 27403 27406 27409 27412 27414 27417 27420 27423 27426 27428 27431 27434 27437 27440 27443 27446 27449 27452 27455 27458 27460 27463 27466 27469 27471 27474 27476 27479 27481 27484 27486 27489 27492 27495 27497 27500 27503 27506 27509 27512 27515 27518 27521 27524 27527 27529 27532 27535 27538 27541 27543 27546 27549 27552 27555 27558 27561 27564 27567 27569 27572 27575 27578 27581 27584 27587 27589 27592 27595 27598 27601 27604 27607 27609 27612 27615 27617 27620 27623 27626 27629 27632 27635 27637 27640 27643 27646 27649 27652 27655 27658 27661 27664 27667 27670 27672 27675 27678 27681 27684 27686 27688 27691 27694 27696 27699 27702 27705 27707 27710 27713 27716 27718 27720 27723 27725 27728 27730 27733 27736 27739 27742 27745 27748 27751 27754 27756 27759 27762 27765 27768 27771 27774 27777 27780 27783 27786 27789 27792 27795 27798 27801 27804 27807 27810 27812 27815 27818 27821 27824 27827 27830 27832 27835 27838 27841 27844 27846 27849 27852 27855 27858 27861 27864 27867 27870 27873 27876 27878 27881 27883 27886 27889 27892 27895 27898 27901 27904 27907 27910 27913 27916 27919 27922 27924 27927 27930 27933 27936 27939 27942 27945 27948 27951 27954 27957 27960 27962 27965 27967 27970 27973 27976 27979 27982 27984 27987 27989 27992 27995 27998 28000 28003 28006 28009 28012 28015 28018 28021 28024 28027 28030 28033 28036 28039 28042 28045 28048 28051 28054 28057 28060 28063 28066 28069 28072 28075 28078 28081 28084 28087 28090 28093 28096 28099 28102 28105 28108 28111 28114 28117 28120 28123 28126 28129 28132 28135 28138 28141 28144 28147 28150 28153 28156 28159 28162 28165 28168 28171 28174 28177 28180 28183 28186 28189 28192 28195 28198 28201 28204 28207 28210 28213 28216 28219 28222 28225 28228 28231 28234 28237 28240 28243 28246 28249 28252 28255 28258 28261 28264 28267 28270 28273 28276 28279 28282 28285 28288 28291 28294 28297 28300 28302 28305 28308 28310 28313 28316 28319 28322 28325 28328 28331 28334 28337 28340 28343 28346 28349 28352 28355 28358 28361 28364 28367 28370 28373 28376 28379 28382 28385 28388 28391 28394 28397 28400 28403 28406 28408 28411 28414 28417 28420 28423 28426 28429 28431 28434 28437 28440 28443 28446 28449 28452 28455 28458 28461 28464 28467 28470 28473 28476 28479 28482 28485 28488 28491 28494 28497 28500 28503 28505 28508 28511 28513 28516 28518 28521 28523 28526 28528 28531 28534 28536 28539 28542 28545 28548 28551 28554 28557 28560 28563 28566 28569 28572 28574 28577 28580 28583 28586 28589 28592 28595 28598 28601 28604 28607 28610 28613 28616 28619 28621 28624 28627 28630 28632 28635 28638 28641 28644 28647 28650 28652 28655 28658 28661 28664 28667 28670 28673 28676 28679 28682 28685 28687 28690 28693 28696 28698 28701 28704 28706 28709 28712 28715 28718 28721 28724 28726 28729 28732 28735 28738 28741 28744 28747 28750 28753 28756 28759 28762 28764 28766 28769 28772 28775 28778 28781 28783 28786 28789 28792 28795 28798 28800 28802 28805 28808 28811 28813 28815 28817 28820 28823 28826 28829 28832 28834 28837 28840 28842 28845 28848 28850 28853 28856 28859 28861 28864 28867 28869 28872 28875 28877 28880 28883 28886 28889 28892 28895 28898 28901 28904 28907 28910 28913 28916 28919 28922 28925 28928 28931 28934 28937 28940 28943 28946 28949 28952 28955 28958 28961 28964 28967 28970 28973 28976 28979 28982 28985 28988 28991 28994 28997 29000 29003 29006 29009 29012 29015 29018 29021 29024 29027 29030 29033 29036 29039 29042 29045 29048 29051 29054 29057 29059 29062 29065 29068 29071 29074 29076 29079 29082 29085 29088 29091 29094 29097 29100 29103 29106 29109 29112 29114 29117 29120 29123 29126 29129 29131 29134 29137 29140 29142 29145 29147 29150 29153 29155 29158 29161 29164 29167 29170 29173 29176 29179 29182 29185 29188 29191 29194 29197 29200 29203 29206 29209 29212 29215 29218 29221 29224 29227 29229 29232 29234 29237 29240 29242 29245 29248 29251 29254 29257 29260 29263 29266 29269 29272 29275 29278 29281 29284 29287 29289 29292 29295 29298 29301 29304 29307 29310 29313 29316 29319 29322 29325 29328 29331 29334 29337 29340 29343 29346 29349 29352 29355 29358 29361 29364 29367 29369 29372 29375 29377 29380 29383 29386 29389 29392 29395 29398 29401 29404 29407 29410 29413 29416 29419 29422 29425 29428 29430 29432 29435 29438 29441 29443 29446 29449 29452 29455 29458 29461 29464 29467 29470 29472 29475 29478 29481 29483 29485 29488 29491 29494 29496 29499 29502 29504 29507 29509 29512 29515 29518 29521 29524 29527 29530 29533 29536 29539 29541 29544 29547 29550 29552 29555 29558 29561 29564 29567 29570 29573 29576 29578 29581 29584 29586 29588 29591 29594 29597 29599 29602 29605 29608 29610 29613 29616 29618 29621 29624 29626 29629 29632 29635 29638 29641 29644 29646 29649 29652 29655 29658 29661 29664 29667 29670 29673 29676 29679 29682 29685 29688 29691 29694 29697 29700 29703 29706 29709 29712 29715 29718 29721 29724 29727 29730 29733 29736 29739 29742 29745 29748 29751 29754 29757 29760 29763 29766 29769 29772 29775 29778 29781 29784 29787 29790 29793 29796 29799 29802 29805 29808 29811 29814 29817 29820 29823 29826 29828 29830 29833 29836 29839 29842 29845 29848 29851 29854 29857 29860 29863 29866 29869 29872 29875 29878 29881 29884 29887 29890 29893 29896 29899 29902 29905 29908 29910 29913 29916 29919 29922 29925 29928 29931 29934 29937 29939 29942 29945 29948 29951 29953 29956 29959 29962 29965 29968 29971 29974 29977 29980 29983 29985 29988 29991 29994 29997 30000 30002 30005 30007 30010 30013 30016 30019 30022 30025 30028 30031 30034 30037 30040 30043 30046 30049 30052 30055 30058 30061 30064 30067 30070 30073 30075 30078 30080 30083 30086 30089 30092 30095 30098 30100 30103 30106 30109 30112 30115 30118 30121 30124 30126 30129 30132 30134 30137 30140 30143 30146 30148 30151 30154 30157 30159 30162 30165 30168 30171 30174 30177 30180 30183 30186 30189 30192 30195 30197 30200 30202 30205 30208 30211 30214 30217 30220 30223 30226 30229 30232 30235 30238 30240 30243 30246 30249 30251 30254 30257 30259 30262 30264 30267 30270 30273 30276 30279 30282 30284 30287 30290 30293 30296 30299 30302 30305 30308 30311 30314 30317 30320 30323 30326 30329 30332 30335 30338 30341 30343 30346 30348 30351 30354 30357 30360 30363 30366 30368 30371 30374 30377 30380 30383 30386 30389 30392 30395 30398 30401 30404 30407 30410 30413 30416 30419 30422 30425 30428 30431 30434 30437 30440 30443 30446 30449 30452 30455 30458 30461 30464 30467 30469 30472 30475 30478 30481 30484 30487 30490 30493 30496 30499 30501 30504 30507 30510 30512 30515 30518 30521 30524 30526 30529 30531 30534 30537 30540 30543 30545 30548 30551 30553 30556 30559 30562 30565 30568 30571 30574 30577 30580 30583 30586 30589 30592 30595 30598 30601 30604 30607 30610 30613 30616 30619 30622 30625 30628 30631 30634 30637 30639 30642 30645 30648 30650 30653 30656 30659 30661 30664 30667 30669 30672 30675 30678 30681 30684 30687 30690 30693 30696 30698 30701 30704 30707 30710 30713 30715 30717 30720 30723 30726 30729 30732 30735 30738 30741 30743 30746 30749 30752 30755 30758 30761 30764 30767 30770 30773 30776 30779 30782 30785 30788 30791 30794 30796 30799 30802 30804 30807 30810 30813 30816 30819 30821 30824 30827 30830 30833 30836 30839 30842 30845 30847 30850 30853 30856 30858 30860 30863 30866 30868 30871 30874 30877 30880 30883 30886 30889 30892 30894 30897 30900 30903 30906 30909 30912 30914 30917 30920 30923 30926 30929 30931 30934 30937 30940 30943 30946 30949 30951 30953 30956 30959 30961 30964 30967 30969 30972 
</DataArray>
<DataArray type="UInt32" Name="types" format="ascii">
5 5 5 5 5 5 5 5 3 5 5 5 5 3 3 3 5 5 5 5 5 3 5 3 5 5 5 5 5 5 5 5 3 5 5 5 5 3 5 5 5 5 5 5 5 5 5 5 5 3 5 5 5 3 5 5 3 5 3 5 5 3 5 5 5 3 3 5 3 3 5 3 5 5 5 5 5 5 5 5 3 5 5 3 5 3 5 5 5 5 5 3 5 5 3 5 5 3 5 5 5 5 5 5 5 5 5 5 3 5 5 5 5 3 5 5 5 5 5 3 5 3 5 5 5 3 3 3 5 5 5 5 3 5 5 5 5 3 5 5 5 5 5 5 5 3 5 5 5 5 5 3 5 5 5 5 5 5 5 5 5 5 5 5 5 5 5 5 5 5 5 3 3 5 5 5 5 5 5 5 5 5 5 5 5 5 5 3 5 5 5 5 5 3 5 5 5 5 5 5 3 5 5 5 5 5 5 5 5 3 5 5 5 5 3 5 5 5 5 5 3 5 5 5 3 5 5 5 5 5 5 5 3 5 5 5 3 3 5 5 5 5 5 5 5 3 5 5 3 5 5 5 5 5 5 5 5 5 5 3 5 5 5 5 5 3 5 3 5 5 3 5 5 5 5 5 5 5 5 3 5 5 3 5 5 5 3 5 3 5 5 5 5 5 3 5 3 3 5 5 5 5 5 5 3 5 5 5 5 5 5 5 5 5 5 5 5 5 5 5 5 5 5 5 5 5 5 5 5 5 5 3 5 5 3 5 5 5 5 5 5 5 5 5 5 5 5 5 5 5 5 3 5 5 5 5 5 5 5 3 5 5 5 5 5 5 5 5 5 5 5 5 5 5 5 5 5 5 5 3 5 5 5 5 5 5 3 5 5 5 5 5 5 5 5 5 5 5 5 5 5 5 5 5 3 3 5 5 5 5 5 5 5 5 3 5 5 3 5 5 3 5 5 5 5 5 3 5 5 5 5 3 5 5 5 5 5 5 3 5 5 5 5 5 5 5 5 5 5 3 5 5 5 3 5 5 5 5 5 3 5 5 5 5 3 5 5 5 5 5 5 5 3 5 5 5 5 5 5 3 5 5 3 5 5 5 5 5 5 5 5 5 5 5 5 5 3 5 5 5 5 3 5 5 5 5 3 5 5 3 5 3 5 5 5 3 5 5 5 5 5 3 5 5 5 5 5 5 3 5 5 5 5 5 5 5 5 3 5 5 3 5 5 3 5 5 3 5 5 3 5 5 5 5 3 5 5 5 5 5 5 5 3 5 5 3 5 5 5 5 3 5 5 5 5 5 5 3 3 3 5 5 5 5 5 5 3 5 5 5 5 5 5 5 5 5 5 5 5 5 5 5 5 5 5 5 5 5 5 5 5 5 5 5 5 5 5 5 5 5 5 3 5 5 5 5 5 5 5 3 5 5 5 5 3 5 5 5 5 5 5 5 5 5 5 5 5 5 5 5 5 5 5 5 5 5 5 3 5 5 3 5 5 5 5 5 3 5 5 3 5 5 3 5 3 5 5 5 5 5 3 5 5 5 5 3 5 5 5 5 5 5 5 5 3 5 5 5 3 3 3 3 5 5 5 5 5 5 5 5 5 5 3 5 3 5 5 3 5 5 5 5 5 5 5 5 5 5 5 5 5 5 3 3 3 5 5 3 5 5 3 3 5 5 5 5 3 5 5 3 5 5 3 5 5 5 5 5 5 5 5 5 5 5 5 3 5 5 5 5 5 3 5 3 5 5 3 3 5 5 5 5 5 3 5 5 3 5 5 3 5 5 3 5 5 3 3 5 5 3 5 5 3 5 3 3 5 5 5 5 3 5 5 5 3 5 3 5 5 5 3 5 5 5 3 5 5 5 3 5 5 3 3 5 5 5 3 5 5 5 5 3 5 3 5 5 5 3 5 3 5 5 5 5 5 5 5 5 5 5 5 5 5 5 5 5 5 3 5 5 5 5 5 5 5 3 5 5 5 5 5 5 5 5 5 5 5 5 5 5 5 5 5 5 5 5 5 5 5 5 5 5 5 5 5 5 5 5 5 5 5 5 5 5 3 5 5 5 5 5 5 5 5 5 5 5 5 5 5 5 5 5 5 5 5 5 5 5 5 5 5 5 5 5 5 5 5 5 5 5 5 5 5 5 5 5 3 5 5 3 5 3 5 5 5 5 5 3 3 3 5 5 5 5 5 5 5 5 3 5 5 5 5 5 5 5 5 5 5 3 5 5 5 5 5 3 5 5 5 5 5 5 3 5 5 5 5 5 3 3 5 5 5 5 5 5 5 5 5 5 5 5 3 3 5 5 5 5 5 5 5 5 3 5 5 5 5 5 5 3 5 5 5 5 5 5 5 5 5 5 5 5 5 5 5 5 5 5 5 5 5 5 5 5 5 5 5 5 5 5 5 3 5 5 5 5 5 5 3 5 5 5 5 5 3 5 5 5 5 3 5 3 5 5 5 5 3 5 5 5 5 5 3 5 5 5 5 5 3 5 5 5 3 5 5 5 3 5 5 5 5 5 5 5 5 5 5 5 5 5 5 5 5 3 5 3 5 5 5 5 3 5 5 5 3 5 5 3 5 5 5 3 3 5 5 5 5 5 5 5 5 5 5 5 5 5 5 5 5 5 5 5 5 3 5 5 3 5 5 5 5 3 5 5 5 3 5 5 5 5 3 5 5 5 5 5 5 5 5 5 5 5 5 5 5 5 5 5 5 5 5 5 5 5 3 5 5 5 5 5 5 5 5 5 5 5 5 5 5 5 5 5 5 5 5 5 5 5 5 5 3 3 5 5 5 5 5 5 5 5 5 5 5 5 5 5 5 5 5 5 5 5 5 5 5 5 5 5 3 5 5 5 5 5 5 5 5 5 5 5 5 5 5 5 5 5 5 5 5 5 5 5 5 5 5 5 3 5 5 5 5 5 5 5 3 5 5 5 5 5 5 5 5 5 5 5 5 5 5 5 5 5 5 5 5 3 3 5 5 5 5 5 5 5 5 5 5 5 5 5 5 5 5 5 5 3 3 5 5 3 5 5 5 5 5 5 5 5 5 3 3 3 5 5 5 5 3 5 5 3 5 5 5 5 3 5 5 5 5 5 5 5 3 5 5 5 5 5 5 3 3 3 5 5 5 5 5 5 5 5 5 5 5 5 5 5 5 3 5 5 5 5 5 5 3 5 5 5 5 5 5 5 5 5 5 5 3 3 5 5 5 5 3 5 5 5 3 5 5 5 5 5 5 5 5 5 5 5 5 5 5 5 5 3 3 5 3 3 5 5 5 3 5 3 5 5 5 5 5 3 5 5 5 5 5 5 5 5 5 3 5 5 5 5 5 3 5 5 5 3 5 3 5 5 5 5 3 5 3 5 5 5 5 5 3 5 5 5 5 5 5 5 5 5 5 5 5 5 5 5 3 5 5 5 5 3 5 5 5 5 5 5 5 5 5 5 5 5 5 5 5 5 5 5 5 5 5 5 5 5 5 5 5 5 5 5 5 5 5 5 5 5 5 5 5 5 5 5 5 3 5 3 5 3 5 5 5 5 5 5 5 3 5 5 5 3 5 5 5 5 5 5 5 5 3 5 5 5 5 5 5 5 5 3 5 5 5 5 5 5 5 5 5 5 5 5 5 5 5 5 5 5 5 5 5 5 5 5 5 5 5 5 5 5 5 5 5 5 5 5 5 5 5 5 5 5 5 5 5 5 5 5 5 5 5 5 5 5 5 5 5 3 5 5 5 5 5 5 5 5 5 3 5 5 3 5 5 3 5 5 5 3 3 5 3 3 5 5 5 3 5 5 3 5 5 5 5 5 5 3 5 5 5 5 5 5 5 5 5 5 5 5 5 3 3 5 5 5 3 5 5 5 5 5 3 5 5 5 5 3 5 5 3 5 3 5 3 5 3 5 3 5 3 5 5 5 5 5 5 5 5 3 3 5 5 5 5 5 5 5 5 5 5 5 5 5 5 5 5 5 5 5 5 5 5 5 5 5 5 5 5 5 5 5 3 5 5 5 5 5 5 3 5 5 5 5 5 5 3 5 5 5 5 3 5 3 5 5 5 5 5 5 5 5 5 5 3 5 5 5 3 5 5 5 5 5 5 5 5 5 5 5 3 5 5 5 5 5 5 5 5 5 5 5 5 5 5 3 5 5 5 3 3 5 3 5 5 3 5 5 5 3 3 5 5 5 5 5 3 5 5 3 5 5 3 5 5 5 5 3 5 5 5 5 5 5 5 5 5 5 5 5 5 5 5 3 5 5 5 5 5 5 5 3 5 5 5 5 5 5 5 3 5 5 5 5 5 5 5 5 5 5 5 5 5 5 5 5 5 5 5 5 5 3 5 5 5 5 5 3 5 5 3 5 5 3 5 5 5 5 5 5 5 5 5 5 5 5 5 5 5 5 5 5 5 5 5 5 5 5 5 5 5 5 5 5 5 5 5 5 5 5 5 5 5 5 5 5 5 5 5 5 5 5 5 5 3 5 5 3 5 5 5 3 5 5 5 5 5 5 5 5 5 5 5 5 5 3 5 5 5 5 5 5 3 5 5 5 3 5 5 5 3 5 5 3 5 5 5 5 3 5 5 5 5 5 5 5 5 3 5 5 5 5 5 5 5 5 5 5 5 3 5 5 5 5 5 5 5 5 5 5 3 5 5 5 3 5 5 5 5 5 5 5 5 5 5 5 3 5 3 5 5 5 3 5 5 5 5 5 5 5 5 3 5 5 5 5 5 5 5 3 5 5 5 5 3 5 3 5 5 5 5 3 5 5 5 5 5 5 3 5 5 5 5 5 5 5 5 5 5 5 5 5 3 5 5 5 5 3 5 5 5 5 5 3 5 5 5 5 5 5 5 5 5 5 5 5 5 3 5 5 3 5 5 5 5 5 5 5 5 5 5 5 5 5 5 3 3 5 5 5 5 5 5 5 5 5 5 5 5 5 5 5 5 5 5 5 5 5 5 5 5 3 5 5 5 5 5 3 5 5 5 5 5 5 5 5 3 5 5 5 5 3 5 5 5 5 5 5 5 5 5 5 5 5 5 5 5 5 5 5 5 5 3 5 5 3 5 3 5 5 5 5 5 5 5 5 5 5 5 5 5 5 5 5 5 5 5 5 5 5 5 5 3 5 5 5 5 5 5 5 5 5 5 5 3 5 5 5 5 5 3 5 5 5 5 5 5 5 5 5 5 5 5 5 5 5 5 5 5 5 5 5 5 5 5 5 5 5 5 5 5 5 5 5 5 5 5 5 5 5 5 3 5 5 5 5 5 5 5 5 5 5 5 3 5 5 3 5 5 5 3 5 5 5 5 5 5 5 5 5 5 5 5 5 5 5 5 5 5 5 5 5 5 5 5 5 5 5 5 5 5 5 5 5 3 5 5 5 3 5 3 5 5 5 3 5 5 5 5 3 5 5 5 5 5 5 5 5 5 5 3 5 5 5 5 5 5 3 3 5 5 5 5 3 5 5 5 5 3 5 5 5 5 5 5 5 5 5 3 5 5 5 5 5 5 5 3 5 5 3 3 5 5 5 5 5 5 5 5 5 5 5 3 5 3 5 3 5 5 5 5 3 5 5 5 5 5 3 5 3 5 3 5 5 5 5 5 5 5 5 5 5 3 5 3 5 5 3 5 3 5 5 5 5 3 5 5 5 5 5 5 5 5 5 5 5 5 5 3 5 5 5 5 5 5 3 5 5 3 5 5 5 5 5 5 5 5 5 3 5 5 5 5 5 5 5 3 5 5 5 5 5 3 5 5 5 5 5 5 5 5 5 5 5 5 3 5 5 3 5 5 5 5 3 5 5 5 5 5 5 5 5 5 5 5 5 5 5 5 5 5 5 5 5 5 5 5 5 5 5 5 5 5 5 5 5 5 5 5 5 5 5 3 3 5 5 5 5 5 5 5 5 5 5 5 5 5 3 5 5 5 5 5 5 5 5 5 5 5 5 5 3 5 5 5 5 5 5 5 5 5 5 5 5 5 5 5 3 5 5 5 5 5 5 5 5 5 3 5 3 5 5 5 3 5 5 3 5 5 5 5 5 5 5 5 5 5 5 5 5 5 5 5 5 5 5 5 3 5 3 5 5 3 5 5 5 5 5 5 5 5 5 5 3 3 5 5 3 5 5 5 5 5 5 5 5 3 5 5 5 3 5 5 5 3 5 3 5 3 5 3 5 5 5 5 5 5 5 5 5 5 5 5 5 5 5 3 5 5 5 5 5 5 5 5 5 5 5 5 5 5 5 5 5 5 5 3 5 5 5 5 5 5 5 5 5 3 5 5 5 5 5 3 5 5 5 5 5 5 5 5 5 5 3 5 3 5 5 5 5 3 3 5 5 5 5 5 5 5 5 5 5 5 5 5 5 5 3 5 5 5 5 5 3 5 5 5 5 5 5 5 5 5 5 5 5 3 5 5 5 5 3 5 5 5 5 5 5 5 3 3 5 5 5 3 5 5 5 5 5 5 5 5 5 5 5 3 5 3 5 5 5 5 3 5 5 5 5 5 5 3 5 5 5 5 5 5 3 5 5 5 5 5 5 3 5 5 3 5 5 5 5 5 5 5 5 5 5 5 5 5 5 5 5 3 5 5 5 5 5 5 5 5 5 3 5 5 5 5 5 5 5 5 5 5 5 5 5 5 5 5 5 5 5 5 5 3 5 5 3 5 5 5 3 5 5 3 5 3 5 5 5 5 5 5 5 3 5 5 5 5 5 5 5 5 5 5 5 5 3 3 5 5 5 5 5 3 5 5 3 5 5 3 5 5 5 5 5 3 5 3 5 5 5 5 3 5 5 5 5 5 5 5 5 3 5 3 3 5 5 5 5 3 5 3 5 5 3 5 5 5 3 5 5 3 5 3 5 5 3 5 3 3 5 3 5 5 5 3 5 3 5 5 5 3 3 5 5 5 5 5 3 5 5 3 5 3 5 5 5 5 3 5 3 5 5 3 5 3 5 5 5 3 5 5 3 3 5 3 3 5 5 5 3 5 3 5 5 3 5 5 5 3 3 3 5 3 5 5 3 3 5 5 3 5 5 5 5 3 5 3 5 5 5 5 3 5 5 5 5 5 5 5 5 3 5 3 5 3 5 5 5 5 5 3 3 5 3 5 5 5 5 5 5 5 5 5 5 3 3 3 5 5 5 5 5 5 5 5 5 5 3 5 3 5 5 3 3 5 5 5 5 3 5 5 5 5 5 5 5 5 5 5 5 3 5 5 5 5 5 3 5 5 5 5 5 3 5 5 5 5 3 5 3 5 3 5 5 3 5 5 3 5 5 5 5 5 5 5 3 5 5 5 5 5 5 5 5 5 5 5 5 5 5 5 5 5 5 5 5 5 3 5 5 5 5 5 3 5 5 5 3 3 5 5 5 5 5 5 5 5 5 5 5 5 3 5 5 5 5 5 5 5 3 5 5 5 5 5 5 5 5 5 3 5 3 5 5 3 3 3 5 5 3 5 5 5 5 5 5 5 5 3 5 5 5 5 5 5 5 3 5 3 5 3 5 5 5 5 5 5 3 3 5 5 3 5 5 5 5 5 5 5 5 5 5 5 5 5 3 5 5 5 3 5 5 5 5 5 5 5 5 5 5 5 5 5 5 5 5 5 5 5 5 5 5 5 5 5 5 5 5 5 5 5 5 5 3 5 5 3 5 5 5 5 5 5 5 5 5 5 3 5 5 5 5 5 5 5 5 5 5 5 5 5 3 5 3 5 5 5 3 5 5 5 5 3 5 5 5 5 5 5 5 5 5 5 5 3 5 5 5 5 5 5 5 5 5 5 5 5 5 5 3 3 5 5 5 5 3 5 5 5 5 5 5 5 3 5 5 5 3 5 5 5 5 5 5 5 5 5 5 5 5 5 5 5 5 3 5 5 5 5 3 5 3 5 5 5 5 5 5 5 3 5 5 5 5 5 5 5 5 5 5 5 5 5 5 5 5 5 5 5 5 5 5 5 5 3 5 3 3 5 5 5 5 5 5 5 5 5 5 5 5 5 3 5 5 5 5 5 5 3 5 5 5 3 5 5 5 5 5 5 5 5 3 5 5 5 5 3 3 3 5 3 5 5 5 5 5 3 5 5 5 5 5 5 5 3 5 5 5 5 5 5 5 5 5 3 3 5 5 5 5 5 5 5 5 5 5 5 5 5 5 5 5 5 5 5 5 5 5 5 3 5 5 5 5 5 5 3 3 5 5 5 5 3 5 3 5 5 3 5 5 5 5 3 5 5 5 3 5 5 5 5 5 5 5 5 3 5 3 3 5 5 5 5 5 5 5 3 5 5 5 5 3 5 5 5 5 5 5 5 5 5 5 5 5 5 5 5 5 3 3 5 3 5 3 5 3 5 5 5 5 5 5 5 3 5 5 5 5 5 5 5 5 5 5 5 5 5 5 5 5 5 5 5 5 5 5 5 5 5 5 3 5 3 5 5 5 3 5 3 5 5 5 5 5 5 5 5 5 5 5 5 5 5 5 5 5 5 5 5 5 5 5 5 5 3 3 5 5 3 5 3 5 5 5 5 5 5 5 5 3 5 5 5 5 3 5 3 5 5 5 5 5 5 5 3 5 5 3 5 5 5 5 5 5 5 5 5 5 5 5 5 5 5 5 5 5 5 5 5 5 5 5 5 5 5 5 5 5 3 5 3 5 5 5 5 5 5 3 3 5 5 5 5 3 5 5 5 5 3 3 5 3 5 5 5 5 3 5 5 5 5 5 3 3 5 5 3 5 5 5 3 5 5 3 5 5 5 5 5 5 5 5 5 5 3 5 5 5 3 5 3 5 5 3 5 5 5 5 5 3 5 3 5 5 3 3 5 5 5 3 3 5 5 3 3 5 3 5 5 5 3 3 3 5 3 5 5 3 5 5 5 5 5 5 5 5 5 3 3 5 5 5 3 5 5 3 3 3 3 5 5 5 3 3 5 5 5 5 5 3 5 5 5 5 5 5 5 5 5 5 5 5 5 3 5 5 5 3 5 5 5 3 5 5 5 5 5 5 3 5 5 5 5 5 5 5 5 5 5 5 5 5 3 5 3 5 5 5 5 5 3 5 5 5 5 5 5 3 5 3 5 5 5 5 5 5 5 5 5 5 5 5 5 3 5 5 5 5 5 5 5 5 5 5 5 5 5 5 5 5 5 3 5 5 5 3 5 5 5 5 5 5 5 5 5 5 5 5 5 3 5 5 3 3 5 3 5 5 3 5 5 5 5 5 5 5 5 5 5 5 5 5 5 5 5 5 5 5 5 3 5 5 5 5 5 5 5 5 5 5 5 5 5 5 5 3 5 3 5 5 5 5 3 5 5 3 5 3 5 5 5 5 5 5 5 3 5 5 5 5 5 3 5 5 5 5 5 5 5 5 5 5 5 5 5 5 5 5 5 5 5 5 5 5 5 5 3 5 5 5 5 5 3 5 5 5 5 5 5 5 5 5 5 5 5 5 5 5 5 5 5 5 5 5 5 5 5 5 5 5 5 5 5 5 5 5 5 5 5 5 5 5 5 5 5 5 5 5 5 3 5 5 5 5 3 5 3 5 5 5 3 5 5 5 5 5 5 3 5 5 3 5 5 5 5 5 5 5 3 5 5 5 5 5 5 5 5 5 5 5 5 5 5 5 5 5 5 5 5 5 5 5 5 5 5 5 5 5 5 5 5 5 5 5 5 5 5 5 5 5 5 3 5 5 3 5 5 5 5 5 5 3 5 5 5 5 3 5 3 5 5 3 5 5 3 5 5 5 5 5 5 5 3 5 5 5 5 5 5 5 5 5 5 5 3 5 5 5 5 3 5 5 5 3 3 5 5 3 5 5 5 3 5 5 3 5 5 5 5 5 5 5 5 3 5 5 3 5 5 3 5 5 5 3 5 5 5 3 5 5 5 5 5 3 5 5 5 5 5 3 5 5 5 5 5 5 5 5 5 3 5 5 5 5 3 5 5 5 5 5 5 5 5 3 5 3 5 5 5 5 5 5 5 5 5 5 3 5 5 5 5 5 5 3 5 5 3 5 5 3 5 5 5 5 5 5 5 5 5 3 5 5 5 5 5 5 3 5 5 3 5 5 5 5 5 5 5 5 5 5 3 3 5 5 5 3 3 5 5 5 5 3 5 5 3 3 5 5 3 5 5 5 3 5 5 3 3 5 5 5 5 5 5 5 3 5 5 5 5 5 5 5 5 5 5 5 5 5 5 5 3 5 5 5 5 5 5 5 3 5 5 3 3 5 3 5 3 5 5 3 5 5 5 3 3 5 5 5 5 3 5 5 3 5 5 3 5 5 3 5 5 5 5 3 3 5 5 5 3 5 5 5 5 5 5 5 5 5 5 5 5 5 5 5 5 5 5 5 5 5 5 5 5 5 5 5 5 5 5 5 5 5 5 5 5 5 5 5 5 5 5 5 5 5 5 5 5 3 5 5 5 5 3 5 5 5 5 5 5 3 5 5 5 5 3 3 5 5 5 5 5 5 5 5 5 5 5 5 5 5 5 5 5 5 5 5 5 5 3 5 5 5 5 5 5 5 5 5 5 5 5 5 5 5 5 3 5 5 5 5 3 5 5 5 5 5 5 5 5 3 5 5 5 5 5 5 5 5 3 5 5 5 5 3 5 3 5 5 5 5 5 5 5 5 5 5 5 5 5 5 5 5 5 5 5 5 5 5 5 5 5 5 5 3 5 5 5 5 5 5 5 3 5 5 5 5 5 5 5 5 5 5 5 3 5 5 5 5 5 5 5 5 3 5 5 5 5 5 5 5 5 5 5 3 5 3 5 5 5 5 3 5 5 5 5 3 5 5 3 5 5 5 5 5 5 3 5 5 5 5 5 5 5 5 5 3 5 5 5 3 5 3 5 5 3 5 3 5 5 3 5 5 5 5 5 5 5 3 5 5 5 5 5 3 5 5 5 5 5 5 5 5 5 5 5 5 3 5 5 5 3 5 5 5 5 3 5 5 5 5 5 3 5 5 3 5 5 5 3 5 5 5 5 3 5 5 3 3 5 5 5 5 5 5 5 5 5 5 5 3 5 5 5 5 5 5 5 5 5 5 5 5 5 5 3 5 3 5 5 5 5 5 5 5 5 5 5 5 5 5 5 5 5 5 5 5 5 5 5 5 3 5 5 5 5 5 5 5 5 5 5 5 5 5 5 3 5 5 5 5 5 5 5 5 5 5 5 5 5 5 5 5 5 5 5 5 5 5 5 5 5 5 5 5 5 5 5 5 5 5 5 5 5 5 5 5 3 5 5 5 5 5 5 5 5 5 5 3 5 3 5 5 5 5 5 3 5 5 5 5 5 5 5 5 5 5 3 5 5 3 5 5 3 5 5 5 5 5 3 5 5 5 3 3 5 5 3 5 5 5 5 5 5 5 3 3 5 3 5 5 5 5 5 3 5 5 5 5 5 5 5 5 5 5 5 5 5 5 3 5 5 5 3 5 3 5 5 5 5 5 3 5 5 5 5 5 5 5 5 5 5 5 5 5 5 3 5 5 5 3 5 5 5 5 5 3 5 5 5 3 3 5 5 5 5 5 5 5 5 5 5 5 5 5 5 5 5 3 3 5 5 5 3 5 5 3 5 3 5 3 5 5 5 3 5 3 5 5 5 5 5 5 3 5 5 5 5 5 5 5 5 3 5 5 5 5 5 3 5 3 5 5 5 5 5 5 5 5 5 3 5 3 5 5 5 5 5 5 5 5 5 5 5 5 5 5 5 5 3 5 5 5 5 5 5 5 5 5 3 5 5 5 5 5 5 5 5 5 5 5 3 5 5 5 5 5 5 5 5 3 5 5 5 5 5 5 3 5 5 5 5 5 5 5 5 5 5 5 5 5 3 5 5 5 5 5 5 5 5 5 5 5 5 5 5 5 5 5 3 5 5 5 5 5 5 5 5 5 5 5 5 5 5 5 5 5 5 5 5 5 5 5 5 5 5 5 5 5 5 3 5 5 5 5 5 5 5 5 5 5 5 5 3 5 3 5 5 5 5 5 5 5 5 5 5 3 5 5 5 5 5 5 5 5 5 5 5 3 5 3 3 5 5 3 5 5 3 3 5 5 3 5 5 3 5 5 5 5 5 5 5 5 3 5 5 5 5 5 5 5 5 5 3 5 5 5 5 5 5 5 3 3 5 3 5 5 5 3 5 5 5 5 5 3 5 5 5 5 5 5 3 5 5 5 5 5 5 3 5 5 3 5 5 5 5 5 3 5 3 5 3 5 5 5 5 5 5 5 5 5 5 3 5 3 5 5 3 5 5 5 3 3 5 5 5 5 3 5 3 5 5 3 5 5 5 5 5 5 5 5 5 5 5 5 5 5 5 5 5 5 5 5 5 5 5 5 3 5 5 5 5 5 5 5 3 5 5 5 5 3 5 5 5 3 5 5 3 5 3 5 5 5 5 5 5 5 5 3 5 5 5 3 5 5 5 5 3 5 3 5 5 5 5 5 5 3 5 5 5 3 5 5 3 5 5 5 5 5 3 5 5 5 5 5 3 3 5 5 5 5 5 5 5 5 5 5 5 5 5 5 5 5 5 5 5 5 5 5 5 5 5 5 5 5 5 5 5 5 5 5 5 5 5 5 5 5 5 5 5 5 5 5 5 3 5 5 5 5 5 5 5 5 5 5 5 5 5 5 5 5 5 5 3 5 5 5 5 5 5 5 3 5 5 5 5 3 5 5 5 5 5 5 5 5 5 5 5 3 5 5 5 5 5 5 3 5 5 3 5 3 3 3 5 5 5 5 5 5 5 5 5 5 5 5 5 5 5 5 5 5 5 5 5 5 5 5 5 5 5 5 5 5 5 5 5 5 5 5 5 5 5 5 5 5 5 5 5 5 5 5 5 5 5 5 5 5 5 5 3 5 5 5 3 5 3 5 5 5 5 5 5 5 5 5 5 5 3 5 5 5 3 5 3 5 3 5 5 5 5 5 5 5 5 5 5 5 5 5 5 5 5 5 5 5 5 5 5 3 5 5 5 5 5 5 5 5 5 5 5 5 5 5 5 3 5 5 5 5 3 3 5 5 3 5 5 5 5 3 5 3 5 3 5 5 5 3 5 3 5 5 5 5 5 5 5 5 3 5 5 5 3 5 5 5 3 5 5 5 5 5 5 5 5 5 5 5 5 5 5 5 5 5 5 5 3 5 5 5 5 5 5 5 5 5 5 5 5 5 5 5 5 3 5 5 5 3 5 5 5 5 5 5 3 5 5 5 5 5 5 5 5 5 5 3 5 5 5 5 5 5 5 5 5 5 5 5 5 5 5 5 5 5 5 5 5 5 5 5 5 5 5 5 5 3 5 5 5 5 3 3 5 5 5 3 5 5 5 5 5 5 5 3 5 5 5 3 5 5 5 5 3 5 3 3 5 5 3 5 5 5 5 5 3 5 3 5 5 3 5 3 3 5 5 3 3 5 5 5 5 3 5 3 5 5 5 3 3 5 5 5 5 5 3 5 5 5 3 5 5 5 5 5 3 5 5 5 5 5 5 3 5 5 5 5 5 5 5 5 3 3 3 5 3 5 5 3 5 5 5 5 5 5 5 5 5 5 5 3 5 5 5 5 5 5 5 5 5 3 5 5 5 5 5 5 5 5 3 5 5 5 5 5 3 5 5 5 5 5 5 5 3 5 5 5 3 5 5 3 5 5 5 5 5 5 5 5 5 5 5 5 5 5 5 5 5 5 5 5 5 5 5 3 5 5 5 5 5 3 5 5 5 5 5 5 5 5 5 5 5 5 5 5 3 5 5 5 5 5 5 5 5 5 3 5 3 5 5 5 5 5 3 5 3 3 5 5 5 5 5 5 5 3 5 5 5 5 5 5 3 5 3 5 3 5 5 5 5 5 5 5 5 5 5 5 5 5 5 5 5 5 5 5 5 5 5 5 5 5 5 5 5 5 5 5 5 5 5 5 5 5 5 5 5 5 5 3 5 5 5 5 5 5 5 5 5 3 5 5 5 5 5 5 3 5 5 3 5 5 5 5 5 5 5 5 5 5 5 5 3 5 5 3 5 5 5 5 3 5 3 5 5 5 5 3 5 3 5 5 5 5 3 3 5 3 5 5 5 5 5 5 5 5 5 5 5 5 5 5 3 5 5 5 5 5 5 5 5 5 5 5 5 5 5 5 5 5 5 5 3 5 5 3 5 5 5 3 5 5 5 5 5 3 5 5 5 5 5 5 5 5 5 5 5 5 3 5 3 5 5 5 3 5 5 5 3 5 3 5 5 5 5 5 3 5 5 5 3 5 5 5 5 3 5 5 5 5 3 5 5 3 5 5 5 3 5 5 5 5 5 5 5 5 5 3 5 5 3 5 5 5 3 5 5 5 5 5 5 5 5 5 5 5 5 5 5 5 5 5 5 5 5 5 5 5 5 5 5 5 5 5 5 5 5 5 5 5 3 5 5 5 5 5 5 5 5 5 5 5 5 5 5 5 3 3 5 5 5 5 5 5 5 3 5 5 5 5 5 5 5 5 5 5 5 5 5 5 5 5 5 5 5 5 5 5 5 5 5 5 5 5 5 5 5 5 5 5 5 5 3 5 5 3 5 5 5 5 5 5 5 5 5 3 5 5 5 5 5 5 5 5 5 5 5 5 5 5 3 5 5 5 5 5 5 5 3 5 5 5 5 3 5 3 5 5 5 5 5 5 5 5 5 5 3 5 5 5 5 3 5 5 5 5 5 5 3 5 5 3 5 5 5 3 5 5 5 5 3 5 5 5 3 5 5 5 5 5 5 5 5 5 3 3 5 5 5 5 5 5 5 3 5 5 5 5 5 3 5 5 3 5 5 5 5 5 5 5 5 3 5 5 5 5 5 3 5 5 5 5 5 5 5 5 5 5 5 5 5 5 5 5 5 5 5 5 5 3 5 5 5 5 5 5 5 3 5 5 5 5 5 5 5 3 5 3 3 5 5 5 5 5 5 5 5 5 5 5 5 5 5 5 5 5 5 5 5 5 5 5 5 5 5 5 5 5 3 5 5 5 5 5 5 5 5 5 5 5 5 5 5 5 5 5 5 5 5 5 5 5 5 3 5 5 5 5 3 5 5 5 5 5 5 5 5 5 5 5 5 5 5 5 5 5 5 5 5 5 5 5 5 5 5 5 5 5 5 5 5 5 5 5 5 5 5 3 5 5 5 5 5 5 5 5 5 3 5 3 3 5 5 5 5 5 3 5 5 5 3 5 5 5 5 5 5 5 5 5 5 5 5 5 5 5 5 5 5 5 5 5 5 5 5 5 5 5 5 5 5 5 5 5 5 5 5 5 5 5 5 5 5 5 5 3 5 5 5 5 5 5 5 5 5 5 5 5 5 5 5 5 5 5 5 3 5 5 3 5 3 5 5 5 5 5 5 5 3 5 5 5 5 5 5 5 5 5 3 5 5 5 5 5 5 5 5 5 5 5 5 3 5 5 5 5 5 5 5 5 5 5 5 5 5 5 5 5 5 5 3 5 5 5 5 5 3 3 5 5 5 3 5 5 5 5 5 3 5 3 5 5 5 5 5 3 3 5 3 5 5 5 5 5 5 5 5 5 5 5 5 5 5 3 5 5 5 5 5 5 5 5 5 5 5 5 5 5 5 5 5 5 5 5 5 3 5 5 5 5 5 3 5 5 5 5 5 5 3 5 3 3 5 5 5 5 5 5 5 5 5 5 5 5 5 5 5 5 5 5 5 5 5 5 5 5 3 5 5 5 5 5 5 5 5 3 5 5 5 5 5 5 5 5 5 3 5 5 5 5 5 5 5 5 3 5 5 3 5 5 5 5 3 3 5 5 3 3 5 5 5 5 5 3 5 5 5 5 5 3 5 5 5 5 5 5 5 5 3 5 5 5 5 5 5 5 5 5 5 3 3 5 5 5 5 5 5 3 5 5 5 5 5 5 5 5 5 5 3 5 5 5 5 5 5 5 5 5 5 5 5 3 5 5 5 5 5 5 5 5 5 5 5 5 5 5 5 5 5 5 5 5 5 5 5 5 3 5 5 5 5 5 5 5 5 5 5 5 5 5 5 3 5 5 5 5 5 5 5 5 5 5 5 5 5 5 5 5 5 5 5 5 5 5 5 5 5 5 5 5 5 5 5 5 5 5 5 5 5 5 5 3 5 5 5 5 5 5 5 5 5 5 5 5 5 5 5 5 3 5 5 3 5 5 5 5 5 3 5 5 5 5 5 5 5 5 5 5 5 5 5 5 5 5 5 5 5 5 5 5 5 5 5 3 5 5 5 3 5 5 5 5 5 3 5 5 5 5 5 5 5 5 5 5 5 5 5 5 5 5 5 5 5 5 5 5 5 5 5 5 5 5 5 5 5 5 5 5 5 5 5 5 5 5 5 5 5 5 5 5 5 5 5 3 5 3 5 5 5 5 5 5 5 5 5 5 5 5 5 5 5 5 5 3 5 5 5 5 5 5 5 5 5 3 5 5 5 5 5 5 5 5 3 5 5 5 5 5 5 5 5 5 5 5 5 5 5 5 5 5 5 5 5 5 5 5 5 5 5 5 3 3 5 5 5 3 5 5 3 5 5 3 5 5 5 5 3 5 5 3 5 3 5 5 5 5 5 5 5 5 5 5 5 5 5 5 5 5 5 5 3 5 5 5 5 5 5 5 5 5 5 5 5 5 5 5 5 5 5 5 5 5 5 5 5 5 5 3 5 5 5 5 5 5 3 5 5 5 5 5 3 3 5 5 5 5 3 3 5 5 3 5 5 3 5 5 3 5 5 5 5 3 5 5 5 5 5 5 5 5 5 5 5 3 5 5 5 3 5 5 3 5 5 5 3 5 5 3 3 3 5 5 5 5 5 5 5 5 5 5 5 5 3 5 5 5 5 5 5 5 5 5 5 5 5 5 5 5 5 5 5 5 3 5 5 5 3 5 5 5 5 3 5 5 5 5 5 5 5 3 5 5 5 5 3 5 5 5 5 5 5 5 5 5 5 5 5 5 5 5 5 3 5 3 5 3 5 5 3 5 5 3 5 5 5 5 5 3 5 3 5 5 3 5 5 5 5 5 5 5 5 5 5 5 5 5 5 5 5 5 5 5 5 5 5 5 5 5 5 5 3 5 5 5 5 3 5 5 5 5 5 5 5 3 5 5 3 3 5 5 5 3 5 5 3 5 3 3 3 5 5 3 3 5 5 5 3 5 5 3 5 5 5 3 5 5 3 5 5 5 3 5 5 5 5 5 5 5 3 5 3 5 5 5 5 5 3 5 3 5 5 5 5 5 5 5 5 5 5 5 3 5 5 3 5 5 5 5 3 5 3 5 5 5 5 5 5 5 5 3 3 5 5 5 5 5 5 5 5 5 5 5 5 5 5 5 5 5 5 5 5 5 5 3 5 5 5 3 5 5 5 5 5 5 5 5 5 5 5 3 5 5 5 5 5 5 5 3 5 5 3 5 5 5 5 5 5 3 5 5 5 5 5 5 5 5 5 5 5 5 5 5 3 5 5 5 5 5 5 5 5 5 5 5 5 5 5 5 5 5 5 3 5 5 3 5 5 5 5 5 5 5 5 5 5 5 3 5 5 3 5 3 5 5 3 5 5 5 3 3 5 3 5 5 5 5 3 5 5 5 5 5 5 5 5 5 3 5 5 5 5 5 5 5 5 5 5 5 5 5 3 5 5 5 5 5 5 5 5 5 5 5 5 5 3 5 5 5 5 5 5 5 3 5 5 5 5 5 3 5 5 5 5 5 5 5 5 5 5 5 5 5 5 5 5 5 5 5 3 3 5 5 5 5 5 5 3 5 5 5 5 3 5 5 5 5 3 5 5 5 5 3 5 3 5 5 5 5 5 5 5 5 5 5 5 5 5 5 5 3 5 5 3 3 5 5 5 5 5 5 5 5 5 3 5 5 5 5 3 5 3 3 5 5 5 5 5 5 3 5 5 5 5 3 3 5 3 5 5 3 5 5 5 5 5 5 3 5 5 5 5 3 5 5 5 5 5 3 5 5 5 5 5 5 3 5 5 5 5 3 5 5 5 5 5 5 5 5 5 5 5 5 5 5 5 3 5 5 5 5 5 5 5 5 5 5 5 5 3 5 5 5 5 5 5 5 5 5 5 3 5 5 5 5 5 5 5 5 5 5 5 5 5 5 5 5 5 5 5 5 5 5 5 5 5 5 5 5 3 5 5 5 5 3 5 5 5 5 5 5 5 5 5 5 5 5 5 5 5 5 3 5 5 5 5 5 5 5 5 5 3 5 5 5 5 5 5 3 5 5 3 5 5 5 5 5 5 5 5 5 5 5 3 5 5 5 3 5 5 5 5 5 5 5 5 5 5 5 5 5 5 3 5 5 3 5 3 5 5 5 3 5 5 5 5 5 3 5 5 5 5 5 5 5 5 5 5 5 5 5 5 5 5 5 5 5 5 5 5 5 5 5 5 5 5 5 5 5 5 5 5 5 5 5 5 3 5 5 3 5 5 5 5 5 5 5 5 5 5 5 5 5 5 5 5 5 5 3 5 5 5 5 5 5 3 5 5 5 3 5 5 5 5 5 5 5 5 5 5 5 3 5 5 5 5 5 5 5 5 5 5 3 5 5 5 5 5 5 5 5 3 5 3 5 5 3 5 5 3 3 3 5 5 5 3 5 5 5 5 3 5 5 5 5 5 5 3 3 5 5 5 5 5 5 5 5 5 5 5 5 3 5 5 5 5 5 5 3 5 5 5 5 5 5 5 5 5 3 5 5 5 5 5 5 5 5 5 3 5 5 5 5 3 5 5 5 5 5 3 5 5 3 5 5 5 5 5 3 5 5 5 5 5 5 5 5 5 5 5 5 5 5 3 5 5 5 5 5 3 3 5 5 5 3 5 5 5 5 3 5 5 3 5 5 5 5 5 5 5 5 5 5 5 5 5 3 5 5 5 5 5 5 5 3 5 5 5 5 5 5 5 5 5 5 5 3 5 5 5 5 5 5 5 5 5 5 5 5 5 5 5 5 5 3 5 5 5 5 5 5 3 5 5 5 3 5 5 5 5 5 3 5 5 5 3 5 5 5 5 5 5 5 3 5 5 3 5 5 5 5 5 5 5 5 5 5 3 3 5 5 5 5 5 5 5 5 5 5 5 5 5 5 5 5 5 3 5 5 5 5 5 5 3 5 5 5 3 5 5 5 3 5 5 5 5 5 5 5 5 5 3 5 5 5 5 5 5 3 5 5 5 5 5 5 5 5 5 5 5 5 5 5 5 5 3 5 5 3 5 3 5 5 5 5 5 5 5 3 5 3 5 5 5 5 5 5 3 5 5 3 5 5 5 5 5 5 5 5 5 3 5 5 5 5 5 3 5 5 5 5 5 5 3 5 5 5 5 5 5 5 5 3 5 5 5 5 5 5 5 5 5 5 5 5 5 3 5 3 5 5 3 5 5 3 5 5 5 5 5 5 5 5 3 5 5 3 5 5 5 5 5 5 5 5 5 5 5 5 5 5 5 5 5 5 5 5 5 5 5 5 5 5 5 5 5 5 3 5 5 5 5 5 5 5 5 5 5 5 5 5 5 5 5 5 5 5 5 5 5 5 5 5 5 5 5 5 5 5 5 5 5 5 5 5 5 5 5 5 5 5 5 5 5 5 5 5 5 5 5 5 3 5 5 5 5 5 5 5 5 5 5 3 3 5 5 5 5 3 5 5 3 5 3 5 5 5 5 5 5 5 5 3 5 5 5 5 5 5 5 5 5 5 5 5 5 5 5 5 5 5 5 5 5 5 5 5 5 5 5 5 3 5 5 5 5 3 5 5 3 5 5 5 5 5 5 5 5 5 5 5 3 5 3 5 5 5 5 5 5 5 5 5 5 5 5 5 3 3 5 5 5 5 5 3 5 5 5 5 5 3 5 5 3 5 5 3 5 5 3 3 3 3 5 5 3 5 5 5 5 3 5 5 3 5 5 5 3 5 5 5 3 5 5 5 5 5 3 3 5 3 5 5 5 5 5 5 5 5 5 5 5 5 5 5 5 5 5 5 5 5 5 5 3 5 5 5 3 5 5 5 5 5 5 5 5 5 5 5 5 5 5 5 5 5 3 5 5 5 5 5 5 5 5 5 5 5 5 5 5 5 5 3 5 3 5 5 5 5 5 5 5 5 3 3 3 5 5 3 5 5 5 3 5 5 3 5 3 5 5 5 5 5 5 5 5 3 5 5 5 5 5 5 5 3 5 5 5 5 5 5 5 5 3 5 5 5 3 5 5 5 5 5 5 5 5 5 5 5 5 5 3 5 3 5 3 5 5 5 5 5 3 5 5 5 5 5 5 3 3 3 5 5 5 5 5 5 5 5 5 5 5 5 5 5 5 5 5 5 5 5 5 5 5 5 5 5 5 5 5 5 5 5 5 5 5 5 5 5 3 5 5 3 5 5 5 5 5 5 5 5 5 5 5 5 3 5 5 5 3 5 5 5 5 5 5 5 5 5 5 5 5 5 5 5 5 5 5 5 5 5 5 5 3 5 5 5 5 5 5 5 5 5 5 3 5 5 5 5 5 5 5 3 3 5 3 5 5 5 5 5 5 5 5 5 5 5 5 5 5 5 3 5 3 5 5 5 3 5 5 3 5 5 5 5 5 5 5 5 5 5 5 5 5 5 5 5 5 3 5 5 5 5 5 5 5 3 5 5 5 5 5 5 5 5 5 3 5 3 5 5 5 5 5 5 5 5 5 5 5 3 5 3 5 5 5 5 5 5 5 5 5 5 5 5 5 5 5 5 5 5 5 5 5 5 5 5 5 5 5 5 5 5 5 5 5 5 5 5 5 5 5 5 5 5 5 5 5 3 3 5 5 5 3 5 3 5 3 5 3 5 5 5 5 3 3 3 5 3 5 5 5 5 3 5 5 5 5 3 5 5 5 3 5 3 3 3 5 5 3 5 5 5 5 3 5 5 5 5 5 5 5 5 5 5 5 5 5 5 3 5 5 3 5 5 5 5 5 3 5 5 3 5 5 5 5 5 5 5 5 5 5 5 5 5 5 5 5 5 5 5 3 5 5 5 5 5 5 5 5 5 5 5 3 5 5 5 5 5 5 3 5 5 5 5 5 5 5 5 5 5 5 5 5 5 3 5 5 3 5 5 5 5 5 5 5 3 5 3 5 3 5 3 5 3 5 5 3 5 5 5 5 5 5 5 5 5 5 5 5 5 5 5 5 5 5 5 5 3 5 5 3 5 5 5 5 5 5 5 5 5 5 5 5 5 5 5 5 5 5 5 5 5 5 5 5 5 5 5 5 5 3 5 5 3 5 5 5 5 5 5 5 5 5 5 5 5 5 5 5 3 5 5 5 5 5 5 5 5 5 5 5 5 5 5 5 5 3 5 3 3 5 5 5 5 5 3 3 5 5 5 5 3 5 5 5 5 5 5 5 5 5 5 5 5 5 5 5 5 5 5 5 5 5 3 3 5 3 3 5 5 5 3 5 5 3 3 5 5 3 5 5 5 5 5 5 3 3 5 5 3 5 5 5 3 5 5 5 5 3 3 5 5 5 5 5 5 5 5 3 5 5 3 5 3 5 3 5 5 5 5 5 5 3 5 5 5 5 3 5 5 5 5 5 5 5 5 5 5 3 5 5 5 3 5 3 5 3 5 3 5 5 5 3 5 5 5 5 5 5 5 5 5 5 3 5 5 5 5 3 5 5 5 5 5 5 5 5 3 5 5 5 5 5 5 3 5 5 5 5 5 5 3 5 5 3 5 5 5 5 5 5 3 5 5 5 5 5 5 5 5 5 5 5 3 5 5 5 5 3 3 5 5 3 5 5 5 3 5 5 5 3 3 5 3 5 3 5 5 5 5 5 5 5 5 3 5 5 5 5 5 5 5 5 5 5 5 5 5 5 5 5 5 5 3 5 5 5 5 5 5 3 5 5 5 5 3 5 5 5 5 5 5 5 5 5 5 3 5 3 5 5 5 5 5 5 5 5 5 5 5 5 5 3 5 5 5 5 5 5 5 5 5 5 5 5 3 5 3 5 5 5 5 5 3 5 3 5 5 5 3 5 5 5 5 5 5 5 5 5 5 5 5 5 5 5 5 5 5 5 5 5 5 5 5 5 5 5 5 5 5 5 5 5 5 5 5 5 5 5 5 5 5 5 5 5 5 5 5 5 5 5 5 5 5 5 5 5 5 5 5 5 5 5 5 5 5 5 5 5 5 5 5 5 5 5 5 5 5 5 5 5 5 5 5 5 5 5 5 5 5 5 5 5 5 5 5 5 5 5 5 3 5 5 3 5 5 5 5 5 5 5 5 5 5 5 5 5 5 5 5 5 5 5 5 5 5 5 5 5 5 5 5 5 5 5 5 3 5 5 5 5 5 5 5 3 5 5 5 5 5 5 5 5 5 5 5 5 5 5 5 5 5 5 5 5 5 5 5 5 3 5 5 3 5 3 5 3 5 3 5 5 3 5 5 5 5 5 5 5 5 5 5 5 5 3 5 5 5 5 5 5 5 5 5 5 5 5 5 5 5 3 5 5 5 3 5 5 5 5 5 5 3 5 5 5 5 5 5 5 5 5 5 5 3 5 5 5 3 5 5 3 5 5 5 5 5 5 3 5 5 5 5 5 5 5 5 5 5 5 5 3 3 5 5 5 5 5 3 5 5 5 5 5 3 3 5 5 5 3 3 3 5 5 5 5 5 3 5 5 3 5 5 3 5 5 5 3 5 5 3 5 5 3 5 5 5 5 5 5 5 5 5 5 5 5 5 5 5 5 5 5 5 5 5 5 5 5 5 5 5 5 5 5 5 5 5 5 5 5 5 5 5 5 5 5 5 5 5 5 5 5 5 5 5 5 5 5 5 5 5 5 5 5 3 5 5 5 5 5 3 5 5 5 5 5 5 5 5 5 5 5 5 3 5 5 5 5 5 3 5 5 5 3 5 3 5 5 3 5 5 5 5 5 5 5 5 5 5 5 5 5 5 5 5 5 5 5 5 5 5 5 5 3 5 3 5 5 3 5 5 5 5 5 5 5 5 5 5 5 5 5 5 5 3 5 5 5 5 5 5 5 5 5 5 5 5 5 5 5 5 5 5 5 5 5 5 5 5 5 5 3 5 5 3 5 5 5 5 5 5 5 5 5 5 5 5 5 5 5 5 5 3 3 5 5 5 3 5 5 5 5 5 5 5 5 5 3 5 5 5 3 3 5 5 5 3 5 5 3 5 3 5 5 5 5 5 5 5 5 5 5 3 5 5 5 3 5 5 5 5 5 5 5 5 3 5 5 3 3 5 5 5 3 5 5 5 3 5 5 3 5 5 3 5 5 5 5 5 5 3 5 5 5 5 5 5 5 5 5 5 5 5 5 5 5 5 5 5 5 5 5 5 5 5 5 5 5 5 5 5 5 5 5 5 5 5 5 5 5 5 5 5 5 5 5 5 5 5 5 5 5 5 5 5 5 5 5 5 5 5 3 3 5 5 5 5 5 5 5 5 5 5 5 5 5 5 5 5 5 5 5 5 5 5 5 5 5 5 3 5 5 5 5 5 5 5 5 5 3 5 5 5 5 3 5 5 5 5 5 5 5 5 5 5 3 5 5 5 5 5 3 5 3 5 5 5 5 5 5 5 5 5 5 5 5 5 5 5 5 5 5 5 5 5 5 3 5 3 5 5 5 5 5 5 3 5 5 5 5 5 5 5 5 3 5 5 3 5 5 5 5 3 5 5 5 3 5 5 5 5 5 5 5 5 5 5 5 5 3 5 3 5 5 5 5 5 5 5 5 5 5 5 5 3 5 5 5 3 5 5 3 5 3 5 5 5 5 5 5 3 5 5 5 5 5 5 5 5 5 5 5 5 5 5 5 5 5 5 5 3 5 3 5 5 5 5 5 5 3 5 5 5 5 5 5 5 5 5 5 5 5 5 5 5 5 5 5 5 5 5 5 5 5 5 5 5 5 5 5 5 5 5 3 5 5 5 5 5 5 5 5 5 5 3 5 5 5 3 5 5 5 5 3 5 3 5 5 5 5 3 5 5 3 5 5 5 5 5 5 5 5 5 5 5 5 5 5 5 5 5 5 5 5 5 5 5 5 5 5 5 5 3 5 5 5 3 5 5 5 3 5 5 3 5 5 5 5 5 5 5 5 5 3 5 5 5 5 5 3 3 5 5 5 5 5 5 5 5 3 5 5 5 5 5 5 5 5 5 5 5 5 5 5 5 5 5 3 5 5 3 5 5 5 5 5 3 5 5 5 5 5 5 5 5 3 5 5 5 3 3 5 5 3 5 5 5 5 5 5 5 5 3 5 5 5 5 5 5 3 5 5 5 5 5 3 5 5 5 5 5 5 3 3 5 5 3 5 5 3 5 
</DataArray>
</Cells>
<PointData Scalars="" Vectors="displacement," Tensors="">
<DataArray type="Float64" Name="displacement" NumberOfComponents="3" format="ascii">
0.0049998268132120079 3.596044276777141e-08 0 0.004718013357548817 1.0258283154766784e-05 0 0.004336107434143764 -2.9137068152386655e-06 0 0.0049998268132120079 3.596044276777141e-08 0 0.0039079018250468417 -4.008830439540335e-08 0 0.004336107434143764 -2.9137068152386655e-06 0 0.0049998268132120079 3.596044276777141e-08 0 0.004718013357548817 1.0258283154766784e-05 0 0.004795159342975067 1.1851545480819829e-05 0 0.0049998268132120079 3.596044276777141e-08 0 0.004795159342975067 1.1851545480819829e-05 0 0.0049996262584199366 -5.2036752827786776e-09 0 0.0044582840011639672 -7.4736350305377034e-06 0 0.004718013357548817 1.0258283154766784e-05 0 0.004336107434143764 -2.9137068152386655e-06 0 0.0044582840011639672 -7.4736350305377034e-06 0 0.0045730965109791232 4.5622762983715312e-06 0 0.004718013357548817 1.0258283154766784e-05 0 0.0049834410551823343 1.9718715217991158e-05 0 0.0049761614056233099 1.9223593545931753e-05 0 0.0049691045117078404 3.2103759495723068e-05 0 0.0041169321198378708 6.3986490426615815e-05 0 0.0042022798936608499 5.9269592736216505e-05 0 0.0040694115231093781 0.0001445015110440997 0 0.0042265559400900829 4.2331083586538825e-05 0 0.0037875530656042906 0.00010064048554085035 0 0.0042022798936608499 5.9269592736216505e-05 0 0.0040842663945166689 0.00019700497836494741 0 0.0040694115231093781 0.0001445015110440997 0 0.0041169321198378708 6.3986490426615815e-05 0 0.0042898371540877672 1.7853908226128419e-05 0 0.0044132108156523294 -2.2298995578616698e-05 0 0.0042022798936608499 5.9269592736216505e-05 0 0.0042898371540877672 1.7853908226128419e-05 0 0.0044265332818240449 -2.2095923788355122e-05 0 0.0046295272783897883 -1.1605838379872655e-06 0 0.004718013357548817 1.0258283154766784e-05 0 0.004795159342975067 1.1851545480819829e-05 0 0.0042265559400900829 4.2331083586538825e-05 0 0.0046475946662860026 -2.111161200013755e-05 0 0.0042265559400900829 4.2331083586538825e-05 0 0.0046558661429566724 -1.1052802858626424e-05 0 0.0045502198102343001 5.1384043362334686e-05 0 0.0047134997467027148 2.2901817046904956e-05 0 0.0041169321198378708 6.3986490426615815e-05 0 0.0042022798936608499 5.9269592736216505e-05 0 0.0042898371540877672 1.7853908226128419e-05 0 0.0049834410551823343 1.9718715217991158e-05 0 0.0049944849845085532 7.8072382282725546e-06 0 0.0049885219376365371 7.666280997340953e-06 0 0.0049944849845085532 7.8072382282725546e-06 0 0.0049999896594016486 9.3426461786574182e-10 0 0.0049885219376365371 7.666280997340953e-06 0 0.0044265332818240449 -2.2095923788355122e-05 0 0.0044132108156523294 -2.2298995578616698e-05 0 0.0049998919206709303 -1.0532583442675984e-08 0 0.0042898371540877672 1.7853908226128419e-05 0 0.0044265332818240449 -2.2095923788355122e-05 0 0.0044132108156523294 -2.2298995578616698e-05 0 0.0046475946662860026 -2.111161200013755e-05 0 0.0049998220165399032 -6.3100953628900197e-08 0 0.0044265332818240449 -2.2095923788355122e-05 0 0.0049998919206709303 -1.0532583442675984e-08 0 0.0049998835505236589 2.0835060856170827e-09 0 0.0047134997467027148 2.2901817046904956e-05 0 0.0049998648867522026 9.0312713592386124e-08 0 0.0049944849845085532 7.8072382282725546e-06 0 0.0050000047073678212 3.5512705528859319e-09 0 0.0049999896594016486 9.3426461786574182e-10 0 0.0049909951442497092 3.7848453726565759e-06 0 0.0049885219376365371 7.666280997340953e-06 0 0.0049779145619571422 9.079876905394988e-06 0 0.0049999896594016486 9.3426461786574182e-10 0 0.0049999905189783258 2.294333387611032e-09 0 0.0049885219376365371 7.666280997340953e-06 0 0.0049999905189783258 2.294333387611032e-09 0 0.0049909951442497092 3.7848453726565759e-06 0 0.0049885219376365371 7.666280997340953e-06 0 0.0049999905189783258 2.294333387611032e-09 0 0.0049909951442497092 3.7848453726565759e-06 0 0.0049999764596720614 1.3516995806486161e-09 0 0.0049999753486139878 8.8827643800971248e-09 0 0.0049987135993388087 1.0343291298966289e-05 0 0.004985619260864437 7.8930809229800213e-06 0 0.0049999753486139878 8.8827643800971248e-09 0 0.0050000296829610727 -4.6538902870681797e-09 0 0.0049987135993388087 1.0343291298966289e-05 0 0.0049909951442497092 3.7848453726565759e-06 0 0.0049999764596720614 1.3516995806486161e-09 0 0.0049779145619571422 9.079876905394988e-06 0 0.0049999977353170711 7.355758046965069e-09 0 0.0049943039376535506 1.5561260724911247e-05 0 0.0050000296829610727 -4.6538902870681797e-09 0 0.005010465320573418 1.8207621523257225e-05 0 0.0049987135993388087 1.0343291298966289e-05 0 0.005010465320573418 1.8207621523257225e-05 0 0.0049987135993388087 1.0343291298966289e-05 0 0.0049988189006450303 2.6677417336254224e-05 0 0.0049987135993388087 1.0343291298966289e-05 0 0.0049988189006450303 2.6677417336254224e-05 0 0.0049900031389799584 1.7415128458395636e-05 0 0.005010465320573418 1.8207621523257225e-05 0 0.0049988189006450303 2.6677417336254224e-05 0 0.0050149155323086312 4.8083253487291718e-05 0 0.0049943039376535506 1.5561260724911247e-05 0 0.0049877294221817069 3.5143721932789461e-05 0 0.0049779145619571422 9.079876905394988e-06 0 0.0049625673417436813 2.2576656939392352e-05 0 0.0049761614056233099 1.9223593545931753e-05 0 0.0049988189006450303 2.6677417336254224e-05 0 0.0050149155323086312 4.8083253487291718e-05 0 0.0049964437279721987 4.8689190128331211e-05 0 0.0049885219376365371 7.666280997340953e-06 0 0.0049779145619571422 9.079876905394988e-06 0 0.0049761614056233099 1.9223593545931753e-05 0 0.0049834410551823343 1.9718715217991158e-05 0 0.0049885219376365371 7.666280997340953e-06 0 0.0049761614056233099 1.9223593545931753e-05 0 0.0049625673417436813 2.2576656939392352e-05 0 0.0049761614056233099 1.9223593545931753e-05 0 0.0049636954423001693 2.9575781381654828e-05 0 0.0049761614056233099 1.9223593545931753e-05 0 0.0049636954423001693 2.9575781381654828e-05 0 0.0049691045117078404 3.2103759495723068e-05 0 0.0049636954423001693 2.9575781381654828e-05 0 0.0049518906183602003 3.4269118938125055e-05 0 0.0049506671087901017 3.8206643465380046e-05 0 0.0049636954423001693 2.9575781381654828e-05 0 0.004957164761615512 3.6277854871326558e-05 0 0.0049506671087901017 3.8206643465380046e-05 0 0.0049636954423001693 2.9575781381654828e-05 0 0.004957164761615512 3.6277854871326558e-05 0 0.0049691045117078404 3.2103759495723068e-05 0 0.0050149155323086312 4.8083253487291718e-05 0 0.0049964437279721987 4.8689190128331211e-05 0 0.0049985144748887905 7.3857564117519063e-05 0 0.0050149155323086312 4.8083253487291718e-05 0 0.0049985144748887905 7.3857564117519063e-05 0 0.0050123032708073358 8.0487464789272828e-05 0 0.0049877294221817069 3.5143721932789461e-05 0 0.0049889058918691212 6.0779936735273742e-05 0 0.0049625673417436813 2.2576656939392352e-05 0 0.0049636954423001693 2.9575781381654828e-05 0 0.0049518906183602003 3.4269118938125055e-05 0 0.0049985144748887905 7.3857564117519063e-05 0 0.0050016363423732906 9.2631784991214813e-05 0 0.0049839118448267118 9.4624411216810665e-05 0 0.0049985144748887905 7.3857564117519063e-05 0 0.0050123032708073358 8.0487464789272828e-05 0 0.0050029753306954023 8.6866773071515418e-05 0 0.0049982708844623297 7.3702287950816288e-05 0 0.0050012422815681173 9.6732802653485419e-05 0 0.0050123032708073358 8.0487464789272828e-05 0 0.0050029753306954023 8.6866773071515418e-05 0 0.0050048461670323917 9.7949849045955403e-05 0 0.0047986172860804066 6.6752772850701256e-05 0 0.0048041258866232126 6.6612508612924433e-05 0 0.0048019777221319357 6.5895907035224522e-05 0 0.0048990921493241432 8.4187698230102831e-05 0 0.0048942685171468854 8.1332512324073424e-05 0 0.0050016363423732906 9.2631784991214813e-05 0 0.0050047792491720953 0.00010849283603466137 0 0.0049839118448267118 9.4624411216810665e-05 0 0.0050012422815681173 9.6732802653485419e-05 0 0.0048990921493241432 8.4187698230102831e-05 0 0.0050123032708073358 8.0487464789272828e-05 0 0.0050048461670323917 9.7949849045955403e-05 0 0.0050085827243159268 0.00010078753956316537 0 0.0049518906183602003 3.4269118938125055e-05 0 0.0049458040944913191 3.9680349909781e-05 0 0.0049506671087901017 3.8206643465380046e-05 0 0.0049889058918691212 6.0779936735273742e-05 0 0.0049261904751251194 5.4650299650262475e-05 0 0.0049428795586358206 3.9865645234807714e-05 0 0.0049458040944913191 3.9680349909781e-05 0 0.0049506671087901017 3.8206643465380046e-05 0 0.0049428795586358206 3.9865645234807714e-05 0 0.0049390561343871601 3.7618185962870182e-05 0 0.0049386553932060174 4.1220123161383004e-05 0 0.0047516928941391682 0.00011313895911656789 0 0.0047504714948497359 0.00011291034497768626 0 0.0047476511449188507 0.00011197871774951849 0 0.0049261904751251194 5.4650299650262475e-05 0 0.0045334743898191188 0.00015421443189646449 0 0.0049420973102875364 4.2821838247099888e-05 0 0.0049261904751251194 5.4650299650262475e-05 0 0.0047978173669963016 6.3751397602702383e-05 0 0.0048014802054091917 6.3265898854687755e-05 0 0.0047941766599806715 6.1154228316486828e-05 0 0.0047388353020213951 5.1203111338894604e-05 0 0.0045334743898191188 0.00015421443189646449 0 0.0048990921493241432 8.4187698230102831e-05 0 0.0045334743898191188 0.00015421443189646449 0 0.0047986172860804066 6.6752772850701256e-05 0 0.0047978173669963016 6.3751397602702383e-05 0 0.0047941766599806715 6.1154228316486828e-05 0 0.0048990921493241432 8.4187698230102831e-05 0 0.0049261904751251194 5.4650299650262475e-05 0 0.0047986172860804066 6.6752772850701256e-05 0 0.0047978173669963016 6.3751397602702383e-05 0 0.0048019777221319357 6.5895907035224522e-05 0 0.0047978173669963016 6.3751397602702383e-05 0 0.0048019777221319357 6.5895907035224522e-05 0 0.0048014802054091917 6.3265898854687755e-05 0 0.004957164761615512 3.6277854871326558e-05 0 0.0049458642456575658 4.0604596693771087e-05 0 0.0049528013903055055 3.995094838079275e-05 0 0.004957164761615512 3.6277854871326558e-05 0 0.0049506671087901017 3.8206643465380046e-05 0 0.0049458642456575658 4.0604596693771087e-05 0 0.0049428795586358206 3.9865645234807714e-05 0 0.0049458642456575658 4.0604596693771087e-05 0 0.0049368817238402002 3.8867954098371996e-05 0 0.0049428795586358206 3.9865645234807714e-05 0 0.0049506671087901017 3.8206643465380046e-05 0 0.0049458642456575658 4.0604596693771087e-05 0 0.0049458642456575658 4.0604596693771087e-05 0 0.0049528013903055055 3.995094838079275e-05 0 0.0049370614871841511 4.117986453927719e-05 0 0.0036026338173883116 0.00021797779266112476 0 0.0037109937298411152 0.00027109170218140931 0 0.0036219693535599665 0.00019696019304103093 0 0.0043282882463468913 0.00016033671190183256 0 0.0043305215905308113 0.00012153109574320147 0 0.0036026338173883116 0.00021797779266112476 0 0.0037109937298411152 0.00027109170218140931 0 0.0036190324282313257 0.00025468169092981286 0 0.0037109937298411152 0.00027109170218140931 0 0.0036190324282313257 0.00025468169092981286 0 0.0037910417720898423 0.00026256025191183721 0 0.0034896483665557108 3.2694817142439572e-05 0 0.0037595591314555313 0.00020605587597125033 0 0.0036190324282313257 0.00025468169092981286 0 0.0035592534487800327 0.00022084664025186446 0 0.0036701970631683959 0.00036018806611087654 0 0.0036481674382189172 0.00029049949966489333 0 0.0037595591314555313 0.00020605587597125033 0 0.0034681351760719589 -0.0001192221485735742 0 0.0034662319041947401 -8.4975557227030745e-05 0 0.0035066174412632539 -4.9959154701756099e-05 0 0.0036026338173883116 0.00021797779266112476 0 0.0036190324282313257 0.00025468169092981286 0 0.0035592534487800327 0.00022084664025186446 0 0.0036026338173883116 0.00021797779266112476 0 0.0035592534487800327 0.00022084664025186446 0 0.0035315332043697363 0.00016062050928418944 0 0.0039577060888431412 -0.0001990848004210397 0 0.0041247949263528583 -0.00017327957553674693 0 0.003812795567807259 -0.00021314611350069522 0 0.0034681351760719589 -0.0001192221485735742 0 0.0034662319041947401 -8.4975557227030745e-05 0 0.0034411233081843313 -0.00013573144593343565 0 0.0037974343421493628 -0.00011725398688618589 0 0.0036217064725096075 -0.00015378913242569315 0 0.0039577060888431412 -0.0001990848004210397 0 0.0038711507083998582 -0.000202256397467192 0 0.003812795567807259 -0.00021314611350069522 0 0.0038599812263934103 -4.6587298117637639e-07 0 0.0039079018250468417 -4.008830439540335e-08 0 0.0037464459676365162 -3.0404441048181735e-07 0 0.0037498547506723302 -0.00013788412009549763 0 0.0036097505804462003 -5.8701646583247785e-05 0 0.0039577060888431412 -0.0001990848004210397 0 0.0039635695766022799 -0.00020191381245733119 0 0.0038711507083998582 -0.000202256397467192 0 0.0039577060888431412 -0.0001990848004210397 0 0.0039635695766022799 -0.00020191381245733119 0 0.0040428975987312236 -0.00017687582360759126 0 0.0037498547506723302 -0.00013788412009549763 0 0.0040695241342105556 -5.8428480824553082e-05 0 0.0039635695766022799 -0.00020191381245733119 0 0.0040428975987312236 -0.00017687582360759126 0 0.0040742424791644482 -0.00014123304965367047 0 0.0038599812263934103 -4.6587298117637639e-07 0 0.0039079018250468417 -4.008830439540335e-08 0 0.0040402168760640617 -1.1578958713197108e-06 0 0.0040742424791644482 -0.00014123304965367047 0 0.00411331441807012 -0.0001478004110272122 0 0.0041931178830381406 -0.00011170985792558257 0 0.0040428975987312236 -0.00017687582360759126 0 0.0040742424791644482 -0.00014123304965367047 0 0.00411331441807012 -0.0001478004110272122 0 0.0041247949263528583 -0.00017327957553674693 0 0.0042456205869582583 -9.7046541701982511e-05 0 0.0041931178830381406 -0.00011170985792558257 0 0.0040428975987312236 -0.00017687582360759126 0 0.0041247949263528583 -0.00017327957553674693 0 0.00411331441807012 -0.0001478004110272122 0 0.0039577060888431412 -0.0001990848004210397 0 0.0040428975987312236 -0.00017687582360759126 0 0.0041247949263528583 -0.00017327957553674693 0 0.0041247949263528583 -0.00017327957553674693 0 0.00411331441807012 -0.0001478004110272122 0 0.0041931178830381406 -0.00011170985792558257 0 0.0039079018250468417 -4.008830439540335e-08 0 0.0040402168760640617 -1.1578958713197108e-06 0 0.004336107434143764 -2.9137068152386655e-06 0 0.0041247949263528583 -0.00017327957553674693 0 0.0042456205869582583 -9.7046541701982511e-05 0 0.0043678619507575081 -4.8726957648674174e-05 0 0.0037974343421493628 -0.00011725398688618589 0 0.0039134744468750484 -1.7346516359481648e-05 0 0.0042456205869582583 -9.7046541701982511e-05 0 0.0041931178830381406 -0.00011170985792558257 0 0.0042961769182938573 -5.3630097636503659e-05 0 0.0042456205869582583 -9.7046541701982511e-05 0 0.0042961769182938573 -5.3630097636503659e-05 0 0.0043678619507575081 -4.8726957648674174e-05 0 0.0040742424791644482 -0.00014123304965367047 0 0.0042961769182938573 -5.3630097636503659e-05 0 0.004336107434143764 -2.9137068152386655e-06 0 0.0040742424791644482 -0.00014123304965367047 0 0.0041931178830381406 -0.00011170985792558257 0 0.0042961769182938573 -5.3630097636503659e-05 0 0.0040695241342105556 -5.8428480824553082e-05 0 0.0042913340561666581 -6.1289205420048307e-06 0 0.0044582840011639672 -7.4736350305377034e-06 0 0.0045730965109791232 4.5622762983715312e-06 0 0.0043678619507575081 -4.8726957648674174e-05 0 0.0044582840011639672 -7.4736350305377034e-06 0 0.0042961769182938573 -5.3630097636503659e-05 0 0.0043678619507575081 -4.8726957648674174e-05 0 0.0044582840011639672 -7.4736350305377034e-06 0 0.0042961769182938573 -5.3630097636503659e-05 0 0.004336107434143764 -2.9137068152386655e-06 0 0.0040842663945166689 0.00019700497836494741 0 0.0040694115231093781 0.0001445015110440997 0 0.0040480369580231735 0.00033132515788307526 0 0.0040694115231093781 0.0001445015110440997 0 0.0038834190759819212 0.00020857413541615097 0 0.0037910417720898423 0.00026256025191183721 0 0.0042265559400900829 4.2331083586538825e-05 0 0.0039134744468750484 -1.7346516359481648e-05 0 0.0035424896933093477 8.3857756011231177e-05 0 0.003501381797657817 -8.7153476318019031e-07 0 0.0035227222208201684 1.7459383330702535e-05 0 0.0045502198102343001 5.1384043362334686e-05 0 0.0044275183387968535 0.00012822347917504923 0 0.0041169321198378708 6.3986490426615815e-05 0 0.0040694115231093781 0.0001445015110440997 0 0.0038834190759819212 0.00020857413541615097 0 0.0037109937298411152 0.00027109170218140931 0 0.0038834190759819212 0.00020857413541615097 0 0.0037910417720898423 0.00026256025191183721 0 0.004957164761615512 3.6277854871326558e-05 0 0.0049528013903055055 3.995094838079275e-05 0 0.0049691045117078404 3.2103759495723068e-05 0 0.0043282882463468913 0.00016033671190183256 0 0.0044275183387968535 0.00012822347917504923 0 0.0037875530656042906 0.00010064048554085035 0 0.0037595591314555313 0.00020605587597125033 0 0.0040903474693360113 0.00017917365132026825 0 0.0037595591314555313 0.00020605587597125033 0 0.0034662319041947401 -8.4975557227030745e-05 0 0.003501381797657817 -8.7153476318019031e-07 0 0.0035066174412632539 -4.9959154701756099e-05 0 0.003501381797657817 -8.7153476318019031e-07 0 0.0035227222208201684 1.7459383330702535e-05 0 0.0035066174412632539 -4.9959154701756099e-05 0 0.0049843683961355457 -4.5769991322947778e-06 0 0.0049743082783262971 9.2977045289961635e-06 0 0.0049740967300407387 -6.2937003755128977e-06 0 0.0049299455377422247 5.9331963173232196e-05 0 0.0049336297525959076 5.7876660945705108e-05 0 0.0049278093691459317 5.5740214814653795e-05 0 0.0049576258631928646 2.6514576514420503e-05 0 0.0049654040204053533 1.8588833938827345e-05 0 0.0049299455377422247 5.9331963173232196e-05 0 0.0049350478947452559 3.943839245756691e-05 0 0.0049336297525959076 5.7876660945705108e-05 0 0.0049843683961355457 -4.5769991322947778e-06 0 0.0049855159734177625 -7.4032446778926371e-06 0 0.0049740967300407387 -6.2937003755128977e-06 0 0.0049843683961355457 -4.5769991322947778e-06 0 0.0049923404342301341 -5.0837975935353388e-06 0 0.0049855159734177625 -7.4032446778926371e-06 0 0.0049999863457979646 -5.5705848850193529e-09 0 0.0049923404342301341 -5.0837975935353388e-06 0 0.0049855159734177625 -7.4032446778926371e-06 0 0.0049654040204053533 1.8588833938827345e-05 0 0.0049999844796466053 8.5779342677556391e-09 0 0.0049999863457979646 -5.5705848850193529e-09 0 0.0049923404342301341 -5.0837975935353388e-06 0 0.0049999941391154811 5.3420425881634308e-12 0 0.0049473103940777434 4.5704140967389374e-05 0 0.0049797504152928945 1.6153793210742751e-05 0 0.0049344141087173362 6.0046607393933626e-05 0 0.0049350478947452559 3.943839245756691e-05 0 0.0049473103940777434 4.5704140967389374e-05 0 0.0049797504152928945 1.6153793210742751e-05 0 0.0049797504152928945 1.6153793210742751e-05 0 0.0049998938936352301 6.172860193230522e-09 0 0.0049999882707039353 1.2389691380736037e-08 0 0.0049350478947452559 3.943839245756691e-05 0 0.0049797504152928945 1.6153793210742751e-05 0 0.0049998938936352301 6.172860193230522e-09 0 0.0049797504152928945 1.6153793210742751e-05 0 0.0049999882707039353 1.2389691380736037e-08 0 0.0049729638231754466 1.6690986158503905e-05 0 0.0049797504152928945 1.6153793210742751e-05 0 0.0049729638231754466 1.6690986158503905e-05 0 0.0049467514387633981 2.9979046134495105e-05 0 0.004972127695743722 1.8537629715261973e-05 0 0.0049415560124725384 4.3765693358982207e-05 0 0.0049473103940777434 4.5704140967389374e-05 0 0.0049344141087173362 6.0046607393933626e-05 0 0.0049336297525959076 5.7876660945705108e-05 0 0.0049350478947452559 3.943839245756691e-05 0 0.0049473103940777434 4.5704140967389374e-05 0 0.0049336297525959076 5.7876660945705108e-05 0 0.0049336297525959076 5.7876660945705108e-05 0 0.0049141677392313459 6.1023389985882111e-05 0 0.0049278093691459317 5.5740214814653795e-05 0 0.0049344141087173362 6.0046607393933626e-05 0 0.0049336297525959076 5.7876660945705108e-05 0 0.0049141677392313459 6.1023389985882111e-05 0 0.0049467514387633981 2.9979046134495105e-05 0 0.0049299004067774347 4.5018034043815139e-05 0 0.0049092320962809037 6.0810386427372898e-05 0 0.0049415560124725384 4.3765693358982207e-05 0 0.0048960932303985689 6.3497080810968423e-05 0 0.0049344141087173362 6.0046607393933626e-05 0 0.0049141677392313459 6.1023389985882111e-05 0 0.0048870650530834191 6.5204556321112815e-05 0 0.0049299004067774347 4.5018034043815139e-05 0 0.0049034337479413092 6.46265090678647e-05 0 0.0049092320962809037 6.0810386427372898e-05 0 0.0049299004067774347 4.5018034043815139e-05 0 0.0049432100403832818 3.8789841327204556e-05 0 0.0049034337479413092 6.46265090678647e-05 0 0.0049432100403832818 3.8789841327204556e-05 0 0.0049613882850506547 4.7107194472442281e-05 0 0.0049034337479413092 6.46265090678647e-05 0 0.0049432100403832818 3.8789841327204556e-05 0 0.0049687152326582011 2.5875740627034702e-05 0 0.0049613882850506547 4.7107194472442281e-05 0 0.0049432100403832818 3.8789841327204556e-05 0 0.0049568076352411389 2.5837470206049522e-05 0 0.0049687152326582011 2.5875740627034702e-05 0 0.0049568076352411389 2.5837470206049522e-05 0 0.0049831685836639805 1.1928424183358589e-05 0 0.0049687152326582011 2.5875740627034702e-05 0 0.0049299004067774347 4.5018034043815139e-05 0 0.0049432100403832818 3.8789841327204556e-05 0 0.0049568076352411389 2.5837470206049522e-05 0 0.0049467514387633981 2.9979046134495105e-05 0 0.0049299004067774347 4.5018034043815139e-05 0 0.0049568076352411389 2.5837470206049522e-05 0 0.0049729638231754466 1.6690986158503905e-05 0 0.0049467514387633981 2.9979046134495105e-05 0 0.0049568076352411389 2.5837470206049522e-05 0 0.0049729638231754466 1.6690986158503905e-05 0 0.0049568076352411389 2.5837470206049522e-05 0 0.0049828572027277342 9.9455478031864936e-06 0 0.0049999882707039353 1.2389691380736037e-08 0 0.0049828572027277342 9.9455478031864936e-06 0 0.0049999643683523148 7.0644866586984014e-09 0 0.0049999882707039353 1.2389691380736037e-08 0 0.0049729638231754466 1.6690986158503905e-05 0 0.0049828572027277342 9.9455478031864936e-06 0 0.0049828572027277342 9.9455478031864936e-06 0 0.0049999643683523148 7.0644866586984014e-09 0 0.0049831685836639805 1.1928424183358589e-05 0 0.0049568076352411389 2.5837470206049522e-05 0 0.0049828572027277342 9.9455478031864936e-06 0 0.0049831685836639805 1.1928424183358589e-05 0 0.0049831685836639805 1.1928424183358589e-05 0 0.0049825146159258489 1.5698711698637863e-05 0 0.004985619260864437 7.8930809229800213e-06 0 0.0049831685836639805 1.1928424183358589e-05 0 0.0049825146159258489 1.5698711698637863e-05 0 0.0049687152326582011 2.5875740627034702e-05 0 0.0049999643683523148 7.0644866586984014e-09 0 0.0049831685836639805 1.1928424183358589e-05 0 0.0050000040272378723 -9.6873028879862531e-11 0 0.0049831685836639805 1.1928424183358589e-05 0 0.0050000040272378723 -9.6873028879862531e-11 0 0.0050006076599470933 4.075061720214319e-06 0 0.0049840820787934682 1.1266528917805922e-05 0 0.0049927726642549717 6.0025476081177651e-06 0 0.0049999984102667219 1.9571015999603544e-09 0 0.0049927726642549717 6.0025476081177651e-06 0 0.0050000013937300533 1.3670445714272004e-09 0 0.0050000040272378723 -9.6873028879862531e-11 0 0.0050006076599470933 4.075061720214319e-06 0 0.0049825146159258489 1.5698711698637863e-05 0 0.004985619260864437 7.8930809229800213e-06 0 0.0049900031389799584 1.7415128458395636e-05 0 0.0049987135993388087 1.0343291298966289e-05 0 0.004985619260864437 7.8930809229800213e-06 0 0.0049900031389799584 1.7415128458395636e-05 0 0.0049988189006450303 2.6677417336254224e-05 0 0.0049900031389799584 1.7415128458395636e-05 0 0.0049859266947722674 3.1573092790539633e-05 0 0.0049988189006450303 2.6677417336254224e-05 0 0.0049964437279721987 4.8689190128331211e-05 0 0.0049859266947722674 3.1573092790539633e-05 0 0.0049825146159258489 1.5698711698637863e-05 0 0.0049900031389799584 1.7415128458395636e-05 0 0.0049859266947722674 3.1573092790539633e-05 0 0.0049825146159258489 1.5698711698637863e-05 0 0.0049859266947722674 3.1573092790539633e-05 0 0.0049687152326582011 2.5875740627034702e-05 0 0.0049859266947722674 3.1573092790539633e-05 0 0.0049687152326582011 2.5875740627034702e-05 0 0.0049613882850506547 4.7107194472442281e-05 0 0.0049859266947722674 3.1573092790539633e-05 0 0.0049613882850506547 4.7107194472442281e-05 0 0.0049813657811164569 5.7789769392031021e-05 0 0.0049964437279721987 4.8689190128331211e-05 0 0.0049859266947722674 3.1573092790539633e-05 0 0.0049813657811164569 5.7789769392031021e-05 0 0.0049985144748887905 7.3857564117519063e-05 0 0.0049813657811164569 5.7789769392031021e-05 0 0.0049810410081733191 7.8111633974886028e-05 0 0.0049964437279721987 4.8689190128331211e-05 0 0.0049985144748887905 7.3857564117519063e-05 0 0.0049813657811164569 5.7789769392031021e-05 0 0.0049813657811164569 5.7789769392031021e-05 0 0.0049585399821889904 8.4699359400433158e-05 0 0.0049810410081733191 7.8111633974886028e-05 0 0.0049613882850506547 4.7107194472442281e-05 0 0.0049813657811164569 5.7789769392031021e-05 0 0.0049585399821889904 8.4699359400433158e-05 0 0.0048878016955115743 7.2951907111579048e-05 0 0.0048942685171468854 8.1332512324073424e-05 0 0.0048173182424092508 6.6814739351746873e-05 0 0.00480650512900767 6.4378991031817848e-05 0 0.0047927224747888785 6.2755218753405057e-05 0 0.0048173182424092508 6.6814739351746873e-05 0 0.0048041258866232126 6.6612508612924433e-05 0 0.00480650512900767 6.4378991031817848e-05 0 0.0049585399821889904 8.4699359400433158e-05 0 0.0049839118448267118 9.4624411216810665e-05 0 0.0049810410081733191 7.8111633974886028e-05 0 0.0049985144748887905 7.3857564117519063e-05 0 0.0049839118448267118 9.4624411216810665e-05 0 0.0049810410081733191 7.8111633974886028e-05 0 0.0048041258866232126 6.6612508612924433e-05 0 0.0048019777221319357 6.5895907035224522e-05 0 0.0048060839864904233 6.6640684332783636e-05 0 0.0047388353020213951 5.1203111338894604e-05 0 0.0047470975466496817 5.9057688859353308e-05 0 0.0048019777221319357 6.5895907035224522e-05 0 0.0048014802054091917 6.3265898854687755e-05 0 0.0048060839864904233 6.6640684332783636e-05 0 0.0046374416547462858 4.1969168126194875e-05 0 0.0046943359774977902 5.8006793539174021e-05 0 0.0046794784614451451 1.5541823672902425e-05 0 0.0046943359774977902 5.8006793539174021e-05 0 0.0047927224747888785 6.2755218753405057e-05 0 0.0047381385578690403 3.2596390367306681e-05 0 0.0046943359774977902 5.8006793539174021e-05 0 0.0047381385578690403 3.2596390367306681e-05 0 0.0046794784614451451 1.5541823672902425e-05 0 0.0048041258866232126 6.6612508612924433e-05 0 0.0048060839864904233 6.6640684332783636e-05 0 0.00480650512900767 6.4378991031817848e-05 0 0.0048060839864904233 6.6640684332783636e-05 0 0.00480650512900767 6.4378991031817848e-05 0 0.0047927224747888785 6.2755218753405057e-05 0 0.0047470975466496817 5.9057688859353308e-05 0 0.0047859080190034344 6.4988530460154652e-05 0 0.0047381385578690403 3.2596390367306681e-05 0 0.0048074960839916874 4.7828487708517848e-05 0 0.0047732771279016192 1.8552796907746475e-05 0 0.0047927224747888785 6.2755218753405057e-05 0 0.0047381385578690403 3.2596390367306681e-05 0 0.0048074960839916874 4.7828487708517848e-05 0 0.0048074960839916874 4.7828487708517848e-05 0 0.004829952826412692 3.2752689171803651e-05 0 0.0047732771279016192 1.8552796907746475e-05 0 0.0048074960839916874 4.7828487708517848e-05 0 0.0048385408126216415 6.0311953107902557e-05 0 0.0048501476810633827 5.3924904073855595e-05 0 0.0047927224747888785 6.2755218753405057e-05 0 0.0048074960839916874 4.7828487708517848e-05 0 0.0048385408126216415 6.0311953107902557e-05 0 0.0048385408126216415 6.0311953107902557e-05 0 0.0048870650530834191 6.5204556321112815e-05 0 0.0048634365454160947 6.1094491005220702e-05 0 0.0048385408126216415 6.0311953107902557e-05 0 0.004853229892259202 6.3815286003440574e-05 0 0.0049092320962809037 6.0810386427372898e-05 0 0.0048385408126216415 6.0311953107902557e-05 0 0.0048634365454160947 6.1094491005220702e-05 0 0.0048501476810633827 5.3924904073855595e-05 0 0.0048483277432736583 5.9443164540396417e-05 0 0.0048960932303985689 6.3497080810968423e-05 0 0.0047927224747888785 6.2755218753405057e-05 0 0.0048385408126216415 6.0311953107902557e-05 0 0.004853229892259202 6.3815286003440574e-05 0 0.0048173182424092508 6.6814739351746873e-05 0 0.0047927224747888785 6.2755218753405057e-05 0 0.004853229892259202 6.3815286003440574e-05 0 0.0048173182424092508 6.6814739351746873e-05 0 0.004853229892259202 6.3815286003440574e-05 0 0.0049034337479413092 6.46265090678647e-05 0 0.0049613882850506547 4.7107194472442281e-05 0 0.0049585399821889904 8.4699359400433158e-05 0 0.0049034337479413092 6.46265090678647e-05 0 0.0048878016955115743 7.2951907111579048e-05 0 0.0048974356951227687 6.5257837718384382e-05 0 0.004853229892259202 6.3815286003440574e-05 0 0.0049034337479413092 6.46265090678647e-05 0 0.0049092320962809037 6.0810386427372898e-05 0 0.0049141677392313459 6.1023389985882111e-05 0 0.0048870650530834191 6.5204556321112815e-05 0 0.0048793775949906911 6.1967506022358752e-05 0 0.0048870650530834191 6.5204556321112815e-05 0 0.0048793775949906911 6.1967506022358752e-05 0 0.0048634365454160947 6.1094491005220702e-05 0 0.0049141677392313459 6.1023389985882111e-05 0 0.0049178850742242642 4.5307706503524844e-05 0 0.0049278093691459317 5.5740214814653795e-05 0 0.0049141677392313459 6.1023389985882111e-05 0 0.0048883514031849498 6.1825678130106551e-05 0 0.0048793775949906911 6.1967506022358752e-05 0 0.0049117880351866178 6.0389591704471892e-05 0 0.0049011612771816546 5.705008500205374e-05 0 0.0048883514031849498 6.1825678130106551e-05 0 0.0048793775949906911 6.1967506022358752e-05 0 0.0048766462439091014 5.0309696469405669e-05 0 0.0048793775949906911 6.1967506022358752e-05 0 0.0048501476810633827 5.3924904073855595e-05 0 0.0048766462439091014 5.0309696469405669e-05 0 0.0048793775949906911 6.1967506022358752e-05 0 0.0048634365454160947 6.1094491005220702e-05 0 0.0048501476810633827 5.3924904073855595e-05 0 0.0048368237437352163 4.1054581199169572e-05 0 0.0048845657980461929 4.3519843124553654e-05 0 0.0048501476810633827 5.3924904073855595e-05 0 0.0048469231441198518 -5.5534639272186171e-06 0 0.0048709302814407135 2.6843394384983405e-05 0 0.0048074960839916874 4.7828487708517848e-05 0 0.0048501476810633827 5.3924904073855595e-05 0 0.004829952826412692 3.2752689171803651e-05 0 0.0048501476810633827 5.3924904073855595e-05 0 0.0048709302814407135 2.6843394384983405e-05 0 0.0048766462439091014 5.0309696469405669e-05 0 0.0048803449404472166 -1.6595473311406071e-06 0 0.0048974035609945354 3.1599076166008999e-05 0 0.0049089987693563542 -2.0448294409186789e-05 0 0.0048469231441198518 -5.5534639272186171e-06 0 0.0048803449404472166 -1.6595473311406071e-06 0 0.0048709302814407135 2.6843394384983405e-05 0 0.0048803449404472166 -1.6595473311406071e-06 0 0.0048974035609945354 3.1599076166008999e-05 0 0.0048709302814407135 2.6843394384983405e-05 0 0.0048883514031849498 6.1825678130106551e-05 0 0.0048974035609945354 3.1599076166008999e-05 0 0.0048766462439091014 5.0309696469405669e-05 0 0.0049011612771816546 5.705008500205374e-05 0 0.0049402541206430249 1.9084963859657387e-05 0 0.0048974035609945354 3.1599076166008999e-05 0 0.0048709302814407135 2.6843394384983405e-05 0 0.0048766462439091014 5.0309696469405669e-05 0 0.0049201674584246971 2.8070008088105507e-05 0 0.0049408986526296005 2.0594807357833067e-05 0 0.0049337045089711947 3.8856504276164238e-05 0 0.0049201674584246971 2.8070008088105507e-05 0 0.0049408986526296005 2.0594807357833067e-05 0 0.0049228643002809111 6.8439863401852961e-06 0 0.0049309137554449196 4.0901870011440847e-05 0 0.0045997022513900986 -1.7872394844839284e-06 0 0.0049402541206430249 1.9084963859657387e-05 0 0.0045997022513900986 -1.7872394844839284e-06 0 0.0048405231577738437 2.9199179778461621e-05 0 0.0048347837214628535 -7.1416783923226536e-06 0 0.0048783478255735547 9.0793689837080599e-06 0 0.0048405231577738437 2.9199179778461621e-05 0 0.0048347837214628535 -7.1416783923226536e-06 0 0.0047911932146266385 1.4482139791174625e-06 0 0.0049408986526296005 2.0594807357833067e-05 0 0.0049337045089711947 3.8856504276164238e-05 0 0.0049546454766002364 3.0649452531650469e-05 0 0.0049337045089711947 3.8856504276164238e-05 0 0.0049411947184318464 5.0767509959860612e-05 0 0.0049546454766002364 3.0649452531650469e-05 0 0.0049337045089711947 3.8856504276164238e-05 0 0.0049278093691459317 5.5740214814653795e-05 0 0.0049411947184318464 5.0767509959860612e-05 0 0.0049178850742242642 4.5307706503524844e-05 0 0.0049201674584246971 2.8070008088105507e-05 0 0.0049337045089711947 3.8856504276164238e-05 0 0.0049178850742242642 4.5307706503524844e-05 0 0.0049337045089711947 3.8856504276164238e-05 0 0.0049278093691459317 5.5740214814653795e-05 0 0.0049576258631928646 2.6514576514420503e-05 0 0.0049575311670110467 2.9389922068593146e-05 0 0.0049299455377422247 5.9331963173232196e-05 0 0.0049278093691459317 5.5740214814653795e-05 0 0.0049411947184318464 5.0767509959860612e-05 0 0.0036161118451491056 -0.00054346216127700616 0 0.0035742462536806113 -0.00066904003345151584 0 0.0036859901734947716 -0.00062379403311396567 0 0.0039565762248933772 -0.00048787114295191736 0 0.0034568527272237533 -0.00068775074898566645 0 0.0035212785774604064 -0.00046356128272995769 0 0.0036161118451491056 -0.00054346216127700616 0 0.0035742462536806113 -0.00066904003345151584 0 0.0035560803993299993 -0.00067739289692775654 0 0.0035548485226894774 -0.00068633481324152298 0 0.0035742462536806113 -0.00066904003345151584 0 0.0035415366487415501 -0.0006824615299045974 0 0.0035560803993299993 -0.00067739289692775654 0 0.0035548485226894774 -0.00068633481324152298 0 0.0035560803993299993 -0.00067739289692775654 0 0.0035490318834281941 -0.00068767995067617088 0 0.0035742462536806113 -0.00066904003345151584 0 0.0035375676157260532 -0.00068610652625353936 0 0.0035415366487415501 -0.0006824615299045974 0 0.003518762408535844 -0.00068463475791160321 0 0.0035415366487415501 -0.0006824615299045974 0 0.0035482204459131687 -0.00068443252769658587 0 0.0035560803993299993 -0.00067739289692775654 0 0.0035375676157260532 -0.00068610652625353936 0 0.0035482204459131687 -0.00068443252769658587 0 0.0035431618308104638 -0.00069272296592989813 0 0.0035375676157260532 -0.00068610652625353936 0 0.0035415366487415501 -0.0006824615299045974 0 0.0035482204459131687 -0.00068443252769658587 0 0.0035482204459131687 -0.00068443252769658587 0 0.0035574370615015626 -0.00068241603521954259 0 0.0035602066419980509 -0.00069090519120565972 0 0.0035482204459131687 -0.00068443252769658587 0 0.0035574370615015626 -0.00068241603521954259 0 0.0035560803993299993 -0.00067739289692775654 0 0.0039565762248933772 -0.00048787114295191736 0 0.0034881199790033337 -0.00072553527507926289 0 0.0035574370615015626 -0.00068241603521954259 0 0.0035490318834281941 -0.00068767995067617088 0 0.0035760714509931821 -0.00067662568498878079 0 0.0035574370615015626 -0.00068241603521954259 0 0.0035560803993299993 -0.00067739289692775654 0 0.0035490318834281941 -0.00068767995067617088 0 0.0039288343425711416 -0.00053859473167658346 0 0.0037774495194148132 -0.00050648204628431757 0 0.0035760714509931821 -0.00067662568498878079 0 0.0035212785774604064 -0.00046356128272995769 0 0.0036161118451491056 -0.00054346216127700616 0 0.0036914278592272668 -0.00038199878829493626 0 0.0048002488584349429 -7.7790955740819669e-05 0 0.0047963410158814125 -3.6374837727031029e-05 0 0.0048633706508753125 -4.1783573396300197e-05 0 0.0039565762248933772 -0.00048787114295191736 0 0.0043270410802244965 -0.00017343894334287264 0 0.0048347837214628535 -7.1416783923226536e-06 0 0.0047963410158814125 -3.6374837727031029e-05 0 0.0048633706508753125 -4.1783573396300197e-05 0 0.0045997022513900986 -1.7872394844839284e-06 0 0.0043326921199096967 -0.0001692667447315245 0 0.0038332834230409645 -0.00011782345856653416 0 0.0038804552630885979 -0.00032876304025766058 0 0.0036701817075625669 -0.00025154939191702439 0 0.0048347837214628535 -7.1416783923226536e-06 0 0.0047911932146266385 1.4482139791174625e-06 0 0.0047963410158814125 -3.6374837727031029e-05 0 0.0039565762248933772 -0.00048787114295191736 0 0.0043326921199096967 -0.0001692667447315245 0 0.0038804552630885979 -0.00032876304025766058 0 0.0037382055865325839 -0.00040171154644866834 0 0.0036701817075625669 -0.00025154939191702439 0 0.0039288343425711416 -0.00053859473167658346 0 0.0037774495194148132 -0.00050648204628431757 0 0.0038804552630885979 -0.00032876304025766058 0 0.0037774495194148132 -0.00050648204628431757 0 0.0038804552630885979 -0.00032876304025766058 0 0.0037382055865325839 -0.00040171154644866834 0 0.0037774495194148132 -0.00050648204628431757 0 0.0037382055865325839 -0.00040171154644866834 0 0.0036700085016592825 -0.00052656191341291349 0 0.0037382055865325839 -0.00040171154644866834 0 0.0036597367967507498 -0.00042090762475545916 0 0.0036700085016592825 -0.00052656191341291349 0 0.0036597367967507498 -0.00042090762475545916 0 0.0036066929462731795 -0.0004856146110726611 0 0.0036700085016592825 -0.00052656191341291349 0 0.0036066929462731795 -0.0004856146110726611 0 0.003584538322276815 -0.00039946430938711693 0 0.003525331370788021 -0.00047043476135515784 0 0.0036597367967507498 -0.00042090762475545916 0 0.0036066929462731795 -0.0004856146110726611 0 0.003584538322276815 -0.00039946430938711693 0 0.0037359399398450678 -0.00053376139810986864 0 0.0039160091846770313 -0.0004959743637214355 0 0.003584538322276815 -0.00039946430938711693 0 0.0036701817075625669 -0.00025154939191702439 0 0.0035155669636272877 -0.00038484718569254387 0 0.0036597367967507498 -0.00042090762475545916 0 0.003584538322276815 -0.00039946430938711693 0 0.0036701817075625669 -0.00025154939191702439 0 0.0042282525779603654 -0.0001994206385294287 0 0.0044844136635173466 -0.00022761813379678226 0 0.0037382055865325839 -0.00040171154644866834 0 0.0036597367967507498 -0.00042090762475545916 0 0.0036701817075625669 -0.00025154939191702439 0 0.0048469231441198518 -5.5534639272186171e-06 0 0.0048803449404472166 -1.6595473311406071e-06 0 0.004880315322399663 -4.5707999966379199e-05 0 0.0048803449404472166 -1.6595473311406071e-06 0 0.0049089987693563542 -2.0448294409186789e-05 0 0.004880315322399663 -4.5707999966379199e-05 0 0.0045997022513900986 -1.7872394844839284e-06 0 0.0042282525779603654 -0.0001994206385294287 0 0.004829952826412692 3.2752689171803651e-05 0 0.004806704955750047 -9.1427735997625554e-06 0 0.0048575015679845788 -5.8955786111993772e-05 0 0.0048845657980461929 4.3519843124553654e-05 0 0.0044844136635173466 -0.00022761813379678226 0 0.0048469231441198518 -5.5534639272186171e-06 0 0.004880315322399663 -4.5707999966379199e-05 0 0.0048491929715611306 -7.1315377803542551e-05 0 0.004806704955750047 -9.1427735997625554e-06 0 0.0048023211359711666 -4.6071867387206636e-05 0 0.0048575015679845788 -5.8955786111993772e-05 0 0.0048023211359711666 -4.6071867387206636e-05 0 0.0048575015679845788 -5.8955786111993772e-05 0 0.0047787587588002771 -9.2157141449594122e-05 0 0.0045500424884540999 -0.0003191182462193745 0 0.0045485856825419144 -0.00030937918727780235 0 0.0045857828956661082 -0.00029407701626465733 0 0.0048575015679845788 -5.8955786111993772e-05 0 0.0047689927190528343 -0.00016039156648035209 0 0.0047787587588002771 -9.2157141449594122e-05 0 0.0044844136635173466 -0.00022761813379678226 0 0.0039160091846770313 -0.0004959743637214355 0 0.003584538322276815 -0.00039946430938711693 0 0.0035155669636272877 -0.00038484718569254387 0 0.0035295183412607798 -0.00045814666089053358 0 0.0039160091846770313 -0.0004959743637214355 0 0.0041891915746942541 -0.00055256408345321164 0 0.0044844136635173466 -0.00022761813379678226 0 0.0047137086864422134 -0.00020860677172542512 0 0.0036133569169966217 -0.00092514688444269731 0 0.0036511151661331809 -0.0008262635398322176 0 0.0037472443010149199 -0.00078373873117492472 0 0.0045485856825419144 -0.00030937918727780235 0 0.0045862793162601296 -0.00028953932523594945 0 0.0045857828956661082 -0.00029407701626465733 0 0.0036133569169966217 -0.00092514688444269731 0 0.0036511151661331809 -0.0008262635398322176 0 0.0035697317801156999 -0.00073864951640903584 0 0.003525331370788021 -0.00047043476135515784 0 0.0035760714509931821 -0.00067662568498878079 0 0.0035697317801156999 -0.00073864951640903584 0 0.0036066929462731795 -0.0004856146110726611 0 0.003525331370788021 -0.00047043476135515784 0 0.0035760714509931821 -0.00067662568498878079 0 0.0036066929462731795 -0.0004856146110726611 0 0.0036700085016592825 -0.00052656191341291349 0 0.0035760714509931821 -0.00067662568498878079 0 0.0039160091846770313 -0.0004959743637214355 0 0.0035040900066785007 -0.00080582853046188207 0 0.0037774495194148132 -0.00050648204628431757 0 0.0036700085016592825 -0.00052656191341291349 0 0.0035760714509931821 -0.00067662568498878079 0 0.0035574370615015626 -0.00068241603521954259 0 0.0035760714509931821 -0.00067662568498878079 0 0.0035602066419980509 -0.00069090519120565972 0 0.0035760714509931821 -0.00067662568498878079 0 0.0035697317801156999 -0.00073864951640903584 0 0.0035635784698055772 -0.00070784548656276244 0 0.0035760714509931821 -0.00067662568498878079 0 0.0035635784698055772 -0.00070784548656276244 0 0.0035602066419980509 -0.00069090519120565972 0 0.0035635784698055772 -0.00070784548656276244 0 0.0035602066419980509 -0.00069090519120565972 0 0.0035431618308104638 -0.00069272296592989813 0 0.0035482204459131687 -0.00068443252769658587 0 0.0035602066419980509 -0.00069090519120565972 0 0.0035431618308104638 -0.00069272296592989813 0 0.0035635784698055772 -0.00070784548656276244 0 0.0035431618308104638 -0.00069272296592989813 0 0.0035538851872223966 -0.00070269135025505019 0 0.0035538851872223966 -0.00070269135025505019 0 0.0035365702124867874 -0.00069063926700708913 0 0.0035557980380755091 -0.00069026169674964741 0 0.0035431618308104638 -0.00069272296592989813 0 0.0035538851872223966 -0.00070269135025505019 0 0.0035365702124867874 -0.00069063926700708913 0 0.0035375676157260532 -0.00068610652625353936 0 0.0035431618308104638 -0.00069272296592989813 0 0.003518762408535844 -0.00068463475791160321 0 0.0035431618308104638 -0.00069272296592989813 0 0.0035365702124867874 -0.00069063926700708913 0 0.003518762408535844 -0.00068463475791160321 0 0.0035697317801156999 -0.00073864951640903584 0 0.0035635784698055772 -0.00070784548656276244 0 0.0035538851872223966 -0.00070269135025505019 0 0.0035697317801156999 -0.00073864951640903584 0 0.0035538851872223966 -0.00070269135025505019 0 0.0035805192767692333 -0.0007025853572488873 0 0.0035538851872223966 -0.00070269135025505019 0 0.0035805192767692333 -0.0007025853572488873 0 0.0035557980380755091 -0.00069026169674964741 0 0.0035697317801156999 -0.00073864951640903584 0 0.0036477636377615632 -0.00071178062763225516 0 0.0036565610356991251 -0.00075930913474730197 0 0.0035697317801156999 -0.00073864951640903584 0 0.0035805192767692333 -0.0007025853572488873 0 0.0036477636377615632 -0.00071178062763225516 0 0.0036477636377615632 -0.00071178062763225516 0 0.0037036282303003283 -0.00074667878156773834 0 0.0037669657096045502 -0.00070371000662971823 0 0.0035805192767692333 -0.0007025853572488873 0 0.0036477636377615632 -0.00071178062763225516 0 0.0035902924302657442 -0.00067124114565759508 0 0.0036477636377615632 -0.00071178062763225516 0 0.0037036282303003283 -0.00074667878156773834 0 0.0036565610356991251 -0.00075930913474730197 0 0.0036511151661331809 -0.0008262635398322176 0 0.0036565610356991251 -0.00075930913474730197 0 0.0036932815856061292 -0.00077537824136203275 0 0.0036511151661331809 -0.0008262635398322176 0 0.0036932815856061292 -0.00077537824136203275 0 0.0037472443010149199 -0.00078373873117492472 0 0.0037036282303003283 -0.00074667878156773834 0 0.0036565610356991251 -0.00075930913474730197 0 0.0036932815856061292 -0.00077537824136203275 0 0.0036511151661331809 -0.0008262635398322176 0 0.0035697317801156999 -0.00073864951640903584 0 0.0036565610356991251 -0.00075930913474730197 0 0.0037036282303003283 -0.00074667878156773834 0 0.0037472443010149199 -0.00078373873117492472 0 0.0037669657096045502 -0.00070371000662971823 0 0.0037472443010149199 -0.00078373873117492472 0 0.0038691260383390937 -0.0006934884125268095 0 0.0037669657096045502 -0.00070371000662971823 0 0.0045862793162601296 -0.00028953932523594945 0 0.0045658925708816009 -0.00029360015620498702 0 0.0045857828956661082 -0.00029407701626465733 0 0.0041891915746942541 -0.00055256408345321164 0 0.0042140111314171134 -0.00051831713234239607 0 0.0037036282303003283 -0.00074667878156773834 0 0.0036932815856061292 -0.00077537824136203275 0 0.0037472443010149199 -0.00078373873117492472 0 0.0045862793162601296 -0.00028953932523594945 0 0.0045658925708816009 -0.00029360015620498702 0 0.0045696930313822819 -0.00034614717781335236 0 0.0045603169445561096 -0.00030054531587105256 0 0.0047137086864422134 -0.00020860677172542512 0 0.0045658925708816009 -0.00029360015620498702 0 0.0044834617831480596 -0.0002823828430499175 0 0.0045696930313822819 -0.00034614717781335236 0 0.0045658925708816009 -0.00029360015620498702 0 0.0046546792853320428 -0.00017220560269285719 0 0.0045563732244701819 -0.0002160666756457678 0 0.0045658925708816009 -0.00029360015620498702 0 0.0046546792853320428 -0.00017220560269285719 0 0.0047689927190528343 -0.00016039156648035209 0 0.0046546792853320428 -0.00017220560269285719 0 0.0045563732244701819 -0.0002160666756457678 0 0.0046074292441617244 -0.00012944630686773532 0 0.0046546792853320428 -0.00017220560269285719 0 0.0046074292441617244 -0.00012944630686773532 0 0.0047099055011825715 -9.0924760756128868e-05 0 0.0047689927190528343 -0.00016039156648035209 0 0.0047787587588002771 -9.2157141449594122e-05 0 0.0047099055011825715 -9.0924760756128868e-05 0 0.0046546792853320428 -0.00017220560269285719 0 0.0047689927190528343 -0.00016039156648035209 0 0.0047099055011825715 -9.0924760756128868e-05 0 0.0047787587588002771 -9.2157141449594122e-05 0 0.0047099055011825715 -9.0924760756128868e-05 0 0.0047617146726724553 -3.2292315364085874e-05 0 0.004806704955750047 -9.1427735997625554e-06 0 0.0048023211359711666 -4.6071867387206636e-05 0 0.0047617146726724553 -3.2292315364085874e-05 0 0.0048023211359711666 -4.6071867387206636e-05 0 0.0047787587588002771 -9.2157141449594122e-05 0 0.0047617146726724553 -3.2292315364085874e-05 0 0.004829952826412692 3.2752689171803651e-05 0 0.004806704955750047 -9.1427735997625554e-06 0 0.0047732771279016192 1.8552796907746475e-05 0 0.0047617146726724553 -3.2292315364085874e-05 0 0.0047732771279016192 1.8552796907746475e-05 0 0.0046813328644073173 5.0567598623665441e-06 0 0.004806704955750047 -9.1427735997625554e-06 0 0.0047617146726724553 -3.2292315364085874e-05 0 0.0047732771279016192 1.8552796907746475e-05 0 0.0047381385578690403 3.2596390367306681e-05 0 0.0047732771279016192 1.8552796907746475e-05 0 0.0046813328644073173 5.0567598623665441e-06 0 0.0047099055011825715 -9.0924760756128868e-05 0 0.0047617146726724553 -3.2292315364085874e-05 0 0.0046813328644073173 5.0567598623665441e-06 0 0.0046074292441617244 -0.00012944630686773532 0 0.0047099055011825715 -9.0924760756128868e-05 0 0.0046813328644073173 5.0567598623665441e-06 0 0.0046706231351288817 8.8906450334418203e-06 0 0.0045369578752833522 -1.7480667512356572e-05 0 0.0046074292441617244 -0.00012944630686773532 0 0.0046813328644073173 5.0567598623665441e-06 0 0.004492125326421537 -0.0001093253830462366 0 0.0046813328644073173 5.0567598623665441e-06 0 0.0044356653017963484 -5.0705579591943702e-06 0 0.004492125326421537 -0.0001093253830462366 0 0.0044356653017963484 -5.0705579591943702e-06 0 0.0043857300508109431 -0.00014114459036112525 0 0.004492125326421537 -0.0001093253830462366 0 0.0046813328644073173 5.0567598623665441e-06 0 0.0046794784614451451 1.5541823672902425e-05 0 0.0046714829798890564 -1.2802946945387428e-05 0 0.0047381385578690403 3.2596390367306681e-05 0 0.0046813328644073173 5.0567598623665441e-06 0 0.0046794784614451451 1.5541823672902425e-05 0 0.0046374416547462858 4.1969168126194875e-05 0 0.0046794784614451451 1.5541823672902425e-05 0 0.0046415440423270551 -2.883537566228461e-06 0 0.0046794784614451451 1.5541823672902425e-05 0 0.0046415440423270551 -2.883537566228461e-06 0 0.0046714829798890564 -1.2802946945387428e-05 0 0.0045369578752833522 -1.7480667512356572e-05 0 0.0045172490622825846 -3.5545036308917047e-05 0 0.0044356653017963484 -5.0705579591943702e-06 0 0.0043857300508109431 -0.00014114459036112525 0 0.0042504461035078036 -5.4525811993348662e-05 0 0.0046415440423270551 -2.883537566228461e-06 0 0.0046714829798890564 -1.2802946945387428e-05 0 0.0046184766081623346 -4.242056360788486e-05 0 0.0042903474419615558 -0.00019267054384181109 0 0.0043857300508109431 -0.00014114459036112525 0 0.0042504461035078036 -5.4525811993348662e-05 0 0.0043857300508109431 -0.00014114459036112525 0 0.0044783887602799976 -0.00019638785858238852 0 0.0043689277602953196 -0.00026153966058620919 0 0.0042903474419615558 -0.00019267054384181109 0 0.0043857300508109431 -0.00014114459036112525 0 0.0043689277602953196 -0.00026153966058620919 0 0.0043857300508109431 -0.00014114459036112525 0 0.004492125326421537 -0.0001093253830462366 0 0.0044783887602799976 -0.00019638785858238852 0 0.0046074292441617244 -0.00012944630686773532 0 0.004492125326421537 -0.0001093253830462366 0 0.0044783887602799976 -0.00019638785858238852 0 0.0045563732244701819 -0.0002160666756457678 0 0.0046074292441617244 -0.00012944630686773532 0 0.0044783887602799976 -0.00019638785858238852 0 0.0044783887602799976 -0.00019638785858238852 0 0.0044834617831480596 -0.0002823828430499175 0 0.0043689277602953196 -0.00026153966058620919 0 0.0045563732244701819 -0.0002160666756457678 0 0.0044783887602799976 -0.00019638785858238852 0 0.0044834617831480596 -0.0002823828430499175 0 0.0045658925708816009 -0.00029360015620498702 0 0.0045563732244701819 -0.0002160666756457678 0 0.0044834617831480596 -0.0002823828430499175 0 0.0044834617831480596 -0.0002823828430499175 0 0.0043689277602953196 -0.00026153966058620919 0 0.0044121453549001459 -0.00035604647855782396 0 0.0043689277602953196 -0.00026153966058620919 0 0.004315714124279015 -0.00034985890176188102 0 0.0042503412866853434 -0.00029292073174760794 0 0.0042903474419615558 -0.00019267054384181109 0 0.0043689277602953196 -0.00026153966058620919 0 0.0042503412866853434 -0.00029292073174760794 0 0.004315714124279015 -0.00034985890176188102 0 0.0044121453549001459 -0.00035604647855782396 0 0.0043211402464498798 -0.00041053301724650032 0 0.004315714124279015 -0.00034985890176188102 0 0.0043211402464498798 -0.00041053301724650032 0 0.0042295032948561134 -0.00040538741610428731 0 0.0043689277602953196 -0.00026153966058620919 0 0.004315714124279015 -0.00034985890176188102 0 0.0044121453549001459 -0.00035604647855782396 0 0.0044834617831480596 -0.0002823828430499175 0 0.0044121453549001459 -0.00035604647855782396 0 0.0045696930313822819 -0.00034614717781335236 0 0.0044121453549001459 -0.00035604647855782396 0 0.0043959570134982709 -0.00048172664921998829 0 0.0045696930313822819 -0.00034614717781335236 0 0.0041963594555235679 -0.00055053259010097401 0 0.0042140111314171134 -0.00051831713234239607 0 0.0044121453549001459 -0.00035604647855782396 0 0.0043959570134982709 -0.00048172664921998829 0 0.0043211402464498798 -0.00041053301724650032 0 0.0039862814244136652 -0.00063376253756342016 0 0.0039739701422299139 -0.00057679300601422843 0 0.0038944790520020634 -0.00062910732779473814 0 0.0043959570134982709 -0.00048172664921998829 0 0.0043211402464498798 -0.00041053301724650032 0 0.0042667475109655672 -0.0004615220029165707 0 0.0043959570134982709 -0.00048172664921998829 0 0.0042667475109655672 -0.0004615220029165707 0 0.0042265770246354721 -0.00050926460733530753 0 0.0043211402464498798 -0.00041053301724650032 0 0.0042667475109655672 -0.0004615220029165707 0 0.0042295032948561134 -0.00040538741610428731 0 0.0039862814244136652 -0.00063376253756342016 0 0.0040886983578222293 -0.00053295528845111293 0 0.0041873752165270802 -0.00054414783894203892 0 0.0041963594555235679 -0.00055053259010097401 0 0.004194910909486667 -0.00053968137025534881 0 0.0043959570134982709 -0.00048172664921998829 0 0.0042265770246354721 -0.00050926460733530753 0 0.0041873752165270802 -0.00054414783894203892 0 0.0040886983578222293 -0.00053295528845111293 0 0.0041873752165270802 -0.00054414783894203892 0 0.0041356210331033177 -0.00051275988720150519 0 0.0042265770246354721 -0.00050926460733530753 0 0.0041873752165270802 -0.00054414783894203892 0 0.0041976174307601054 -0.00052761480321049305 0 0.0041873752165270802 -0.00054414783894203892 0 0.0041539080456862911 -0.00050494540583815412 0 0.0041356210331033177 -0.00051275988720150519 0 0.0041873752165270802 -0.00054414783894203892 0 0.0041539080456862911 -0.00050494540583815412 0 0.0041956732731390847 -0.00053219500685542905 0 0.0040886983578222293 -0.00053295528845111293 0 0.0041124516078469694 -0.00046981246352764504 0 0.0041356210331033177 -0.00051275988720150519 0 0.0041539080456862911 -0.00050494540583815412 0 0.0041526384778081491 -0.00044609260065085955 0 0.0041956732731390847 -0.00053219500685542905 0 0.0041539080456862911 -0.00050494540583815412 0 0.0041124516078469694 -0.00046981246352764504 0 0.0041526384778081491 -0.00044609260065085955 0 0.0041539080456862911 -0.00050494540583815412 0 0.0041124516078469694 -0.00046981246352764504 0 0.0041356210331033177 -0.00051275988720150519 0 0.0040886983578222293 -0.00053295528845111293 0 0.0041124516078469694 -0.00046981246352764504 0 0.0040667525016474639 -0.00047580845751303211 0 0.0040667525016474639 -0.00047580845751303211 0 0.0040454329821515882 -0.00039024642170223863 0 0.00401951955461148 -0.00050791184599689862 0 0.0040886983578222293 -0.00053295528845111293 0 0.0040667525016474639 -0.00047580845751303211 0 0.00401951955461148 -0.00050791184599689862 0 0.0041124516078469694 -0.00046981246352764504 0 0.0040667525016474639 -0.00047580845751303211 0 0.0040454329821515882 -0.00039024642170223863 0 0.0041124516078469694 -0.00046981246352764504 0 0.0040454329821515882 -0.00039024642170223863 0 0.0041241739604878846 -0.00040623558014936449 0 0.0041241739604878846 -0.00040623558014936449 0 0.0041526384778081491 -0.00044609260065085955 0 0.0041844891701061128 -0.00030708454437805425 0 0.0041124516078469694 -0.00046981246352764504 0 0.0041241739604878846 -0.00040623558014936449 0 0.0041526384778081491 -0.00044609260065085955 0 0.0040454329821515882 -0.00039024642170223863 0 0.0038627332867927984 -0.00052241670709390388 0 0.0039544383366398846 -0.00035601614618963436 0 0.0037403041573918893 -0.00049617844342618185 0 0.0027293652254512689 -0.0003624899892150519 0 0.0040383313834331707 -0.00039466986792891569 0 0.0038940333441004451 -0.00053291199152696585 0 0.0040454329821515882 -0.00039024642170223863 0 0.00401951955461148 -0.00050791184599689862 0 0.0039179624013275759 -0.00055326368691358398 0 0.0039862814244136652 -0.00063376253756342016 0 0.0040886983578222293 -0.00053295528845111293 0 0.0039739701422299139 -0.00057679300601422843 0 0.00401951955461148 -0.00050791184599689862 0 0.0039739701422299139 -0.00057679300601422843 0 0.0039179624013275759 -0.00055326368691358398 0 0.0039739701422299139 -0.00057679300601422843 0 0.0039179624013275759 -0.00055326368691358398 0 0.0038944790520020634 -0.00062910732779473814 0 0.0040886983578222293 -0.00053295528845111293 0 0.00401951955461148 -0.00050791184599689862 0 0.0039739701422299139 -0.00057679300601422843 0 0.0038627332867927984 -0.00052241670709390388 0 0.0038190615425538884 -0.00046058362795619489 0 0.0037235898067794482 -0.00053820997998407435 0 0.0034013120143599096 -0.00060113219363398373 0 0.0034241994659801925 -0.00063159363727614565 0 0.0033313352992338026 -0.00064994239587848985 0 0.0038627332867927984 -0.00052241670709390388 0 0.0038190615425538884 -0.00046058362795619489 0 0.0039544383366398846 -0.00035601614618963436 0 0.0023427759680042706 -0.00045145515759620081 0 0.0027293652254512689 -0.0003624899892150519 0 0.0034241994659801925 -0.00063159363727614565 0 0.0034462372327172248 -0.00060572587340770097 0 0.0034649960843731757 -0.00060007786103999166 0 0.0014246202335270893 -0.00024115053663838326 0 0.0014126339278127834 -0.00025436405404823283 0 0.001414925412740355 -0.00023907236051335474 0 0.0023427759680042706 -0.00045145515759620081 0 0.0024529980924148419 -0.00042407159824143066 0 0.0034013120143599096 -0.00060113219363398373 0 0.0034241994659801925 -0.00063159363727614565 0 0.0034462372327172248 -0.00060572587340770097 0 0.0034462372327172248 -0.00060572587340770097 0 0.0034557418419618228 -0.00059236210514417085 0 0.0034668750603097441 -0.00059997218845241236 0 0.0037403041573918893 -0.00049617844342618185 0 0.0035655312983143531 -0.00058025027882698075 0 0.0034013120143599096 -0.00060113219363398373 0 0.0034462372327172248 -0.00060572587340770097 0 0.0034557418419618228 -0.00059236210514417085 0 0.0037235898067794482 -0.00053820997998407435 0 0.0037463344496220974 -0.00061083265236524457 0 0.0036328144523505041 -0.00060097934993352418 0 0.0039862814244136652 -0.00063376253756342016 0 0.0038944790520020634 -0.00062910732779473814 0 0.0038691260383390937 -0.0006934884125268095 0 0.003803734796839855 -0.00063228562759250749 0 0.0038944790520020634 -0.00062910732779473814 0 0.0038295896486219973 -0.00066651215534016648 0 0.0039179624013275759 -0.00055326368691358398 0 0.003803734796839855 -0.00063228562759250749 0 0.0038944790520020634 -0.00062910732779473814 0 0.0038940333441004451 -0.00053291199152696585 0 0.0037711865583775219 -0.00062431603811924905 0 0.0038627332867927984 -0.00052241670709390388 0 0.0037235898067794482 -0.00053820997998407435 0 0.0037463344496220974 -0.00061083265236524457 0 0.0038944790520020634 -0.00062910732779473814 0 0.0038295896486219973 -0.00066651215534016648 0 0.0038691260383390937 -0.0006934884125268095 0 0.0038295896486219973 -0.00066651215534016648 0 0.0038691260383390937 -0.0006934884125268095 0 0.0037669657096045502 -0.00070371000662971823 0 0.003803734796839855 -0.00063228562759250749 0 0.0038295896486219973 -0.00066651215534016648 0 0.0037669657096045502 -0.00070371000662971823 0 0.003655190366106374 -0.00071169979607839026 0 0.0037711865583775219 -0.00062431603811924905 0 0.0036477636377615632 -0.00071178062763225516 0 0.003803734796839855 -0.00063228562759250749 0 0.0037669657096045502 -0.00070371000662971823 0 0.0036477636377615632 -0.00071178062763225516 0 0.0035902924302657442 -0.00067124114565759508 0 0.0036328144523505041 -0.00060097934993352418 0 0.0036477636377615632 -0.00071178062763225516 0 0.0037463344496220974 -0.00061083265236524457 0 0.0036328144523505041 -0.00060097934993352418 0 0.0035557980380755091 -0.00069026169674964741 0 0.0035902924302657442 -0.00067124114565759508 0 0.0035187226239819236 -0.00067452777609760574 0 0.0035187226239819236 -0.00067452777609760574 0 0.0034889755882807232 -0.00063766337933049628 0 0.0034847914627007411 -0.00062036865080990189 0 0.0035902924302657442 -0.00067124114565759508 0 0.0035187226239819236 -0.00067452777609760574 0 0.0036328144523505041 -0.00060097934993352418 0 0.0035142989846596948 -0.0006721255369662618 0 0.0035598596194241967 -0.00061195348935649916 0 0.0035805192767692333 -0.0007025853572488873 0 0.0035557980380755091 -0.00069026169674964741 0 0.0035902924302657442 -0.00067124114565759508 0 0.003518762408535844 -0.00068463475791160321 0 0.0035187226239819236 -0.00067452777609760574 0 0.0034978668690786477 -0.00066073307466015701 0 0.0035365702124867874 -0.00069063926700708913 0 0.003518762408535844 -0.00068463475791160321 0 0.0035187226239819236 -0.00067452777609760574 0 0.0035365702124867874 -0.00069063926700708913 0 0.0035557980380755091 -0.00069026169674964741 0 0.0035187226239819236 -0.00067452777609760574 0 0.0034978668690786477 -0.00066073307466015701 0 0.0034889755882807232 -0.00063766337933049628 0 0.0034720004329983124 -0.00065569218867651054 0 0.0035187226239819236 -0.00067452777609760574 0 0.0034978668690786477 -0.00066073307466015701 0 0.0034889755882807232 -0.00063766337933049628 0 0.0034889755882807232 -0.00063766337933049628 0 0.0034704373601625975 -0.00060346741558902793 0 0.003449833965338012 -0.00061305629331825299 0 0.0034889755882807232 -0.00063766337933049628 0 0.0034847914627007411 -0.00062036865080990189 0 0.0034704373601625975 -0.00060346741558902793 0 0.0034557418419618228 -0.00059236210514417085 0 0.0034847914627007411 -0.00062036865080990189 0 0.0034668750603097441 -0.00059997218845241236 0 0.0034847914627007411 -0.00062036865080990189 0 0.0034668750603097441 -0.00059997218845241236 0 0.0034704373601625975 -0.00060346741558902793 0 0.0035655312983143531 -0.00058025027882698075 0 0.0035598596194241967 -0.00061195348935649916 0 0.0034668750603097441 -0.00059997218845241236 0 0.0034649960843731757 -0.00060007786103999166 0 0.0034704373601625975 -0.00060346741558902793 0 0.0034462372327172248 -0.00060572587340770097 0 0.0034668750603097441 -0.00059997218845241236 0 0.0034649960843731757 -0.00060007786103999166 0 0.0034649960843731757 -0.00060007786103999166 0 0.0034704373601625975 -0.00060346741558902793 0 0.0034393877291814747 -0.0005685593045899526 0 0.0024529980924148419 -0.00042407159824143066 0 0.0024109463224821488 -0.00042249128416544578 0 0.0014126339278127834 -0.00025436405404823283 0 0.0013908702809755154 -0.00027307279471543828 0 0.0013989910032806223 -0.00023677675161876417 0 0.0034704373601625975 -0.00060346741558902793 0 0.0034393877291814747 -0.0005685593045899526 0 0.003449833965338012 -0.00061305629331825299 0 0.0034393877291814747 -0.0005685593045899526 0 0.0033919453239266632 -0.0006154975673524414 0 0.003449833965338012 -0.00061305629331825299 0 0.0013908702809755154 -0.00027307279471543828 0 0.0013464765319824109 -0.00025226654896248551 0 0.0013763934612080681 -0.00023592566730813269 0 0.0013908702809755154 -0.00027307279471543828 0 0.0013399174413599661 -0.0003101364047299456 0 0.0013464765319824109 -0.00025226654896248551 0 0.0024109463224821488 -0.00042249128416544578 0 0.0023257044493842621 -0.00043545298795967362 0 0.0033458890579644274 -0.0005547281491599976 0 0.0033919453239266632 -0.0006154975673524414 0 0.0033195202389758242 -0.00063114550210608333 0 0.0034393877291814747 -0.0005685593045899526 0 0.0033458890579644274 -0.0005547281491599976 0 0.0033919453239266632 -0.0006154975673524414 0 0.0035715240436075615 -0.00072306118463401489 0 0.0036400650184549607 -0.00070966429295710577 0 0.0036724899524961095 -0.00078181151295392954 0 0.0033919453239266632 -0.0006154975673524414 0 0.0034073352328933665 -0.0006632213835531753 0 0.0033195202389758242 -0.00063114550210608333 0 0.0034463359492145828 -0.00066510445316448979 0 0.0037091413650215382 -0.00080223812630237029 0 0.0033919453239266632 -0.0006154975673524414 0 0.0034469140327861281 -0.00063662951671042845 0 0.0034073352328933665 -0.0006632213835531753 0 0.0033919453239266632 -0.0006154975673524414 0 0.003449833965338012 -0.00061305629331825299 0 0.0034469140327861281 -0.00063662951671042845 0 0.0034889755882807232 -0.00063766337933049628 0 0.0034469140327861281 -0.00063662951671042845 0 0.0034720004329983124 -0.00065569218867651054 0 0.0034889755882807232 -0.00063766337933049628 0 0.003449833965338012 -0.00061305629331825299 0 0.0034469140327861281 -0.00063662951671042845 0 0.0034469140327861281 -0.00063662951671042845 0 0.0034720004329983124 -0.00065569218867651054 0 0.0034073352328933665 -0.0006632213835531753 0 0.003518762408535844 -0.00068463475791160321 0 0.0034720004329983124 -0.00065569218867651054 0 0.0034073352328933665 -0.0006632213835531753 0 0.003518762408535844 -0.00068463475791160321 0 0.0035548485226894774 -0.00068633481324152298 0 0.0035715240436075615 -0.00072306118463401489 0 0.0035292221588356203 -0.00069782289058675871 0 0.0034463359492145828 -0.00066510445316448979 0 0.003518762408535844 -0.00068463475791160321 0 0.0034978668690786477 -0.00066073307466015701 0 0.0034720004329983124 -0.00065569218867651054 0 0.0035415366487415501 -0.0006824615299045974 0 0.003518762408535844 -0.00068463475791160321 0 0.0035548485226894774 -0.00068633481324152298 0 0.0035742462536806113 -0.00066904003345151584 0 0.0036400650184549607 -0.00070966429295710577 0 0.0036859901734947716 -0.00062379403311396567 0 0.0035548485226894774 -0.00068633481324152298 0 0.0035742462536806113 -0.00066904003345151584 0 0.0035715240436075615 -0.00072306118463401489 0 0.0035742462536806113 -0.00066904003345151584 0 0.0035715240436075615 -0.00072306118463401489 0 0.0036400650184549607 -0.00070966429295710577 0 0.0033307913921208905 -9.4781099337688309e-06 0 0.0032845488098008691 -6.7724543535202356e-06 0 0.003386616578110054 7.6424899959648808e-05 0 0.0033065010216310506 -7.4764753522174654e-06 0 0.0034019832353421741 -1.9755102087086526e-05 0 0.0033307913921208905 -9.4781099337688309e-06 0 0.0032054496551608825 2.9886847324523471e-05 0 0.0032845488098008691 -6.7724543535202356e-06 0 0.0033307913921208905 -9.4781099337688309e-06 0 0.0032176694455523236 1.8475442570328203e-05 0 0.0032054496551608825 2.9886847324523471e-05 0 0.0031900610042262479 -5.4703413553468828e-05 0 0.0038226819013667057 2.6523630347286836e-06 0 0.0033307913921208905 -9.4781099337688309e-06 0 0.0032142452368415226 7.7260798730168142e-06 0 0.0031828371777519243 -5.9474382241079785e-05 0 0.0032142452368415226 7.7260798730168142e-06 0 0.0031828371777519243 -5.9474382241079785e-05 0 0.0032093434723986956 2.7420611743205949e-05 0 0.0032142452368415226 7.7260798730168142e-06 0 0.0031713743454106222 5.0645582688780991e-06 0 0.0032093434723986956 2.7420611743205949e-05 0 0.0032142452368415226 7.7260798730168142e-06 0 0.0032176694455523236 1.8475442570328203e-05 0 0.0031713743454106222 5.0645582688780991e-06 0 0.0033307913921208905 -9.4781099337688309e-06 0 0.0032142452368415226 7.7260798730168142e-06 0 0.0032176694455523236 1.8475442570328203e-05 0 0.0032176694455523236 1.8475442570328203e-05 0 0.0031556020911557825 4.1012825662863248e-05 0 0.0032054496551608825 2.9886847324523471e-05 0 0.0031556020911557825 4.1012825662863248e-05 0 0.0032054496551608825 2.9886847324523471e-05 0 0.0031060311472624947 5.5263279340905831e-05 0 0.0032176694455523236 1.8475442570328203e-05 0 0.0031713743454106222 5.0645582688780991e-06 0 0.0031556020911557825 4.1012825662863248e-05 0 0.0032054496551608825 2.9886847324523471e-05 0 0.0031803802515854292 3.7327509438888403e-05 0 0.0032845488098008691 -6.7724543535202356e-06 0 0.0033307062363642638 2.1314771398568675e-05 0 0.003452624697462789 -7.5592896216813608e-08 0 0.0029079210323119556 2.4579384110746761e-07 0 0.0031803802515854292 3.7327509438888403e-05 0 0.0032991176847437715 8.1577235701968483e-06 0 0.0031214226533174275 2.6194932898219555e-05 0 0.0031803802515854292 3.7327509438888403e-05 0 0.0032991176847437715 8.1577235701968483e-06 0 0.0032845488098008691 -6.7724543535202356e-06 0 0.0032991176847437715 8.1577235701968483e-06 0 0.0034576807564423175 -2.3172558742705652e-05 0 0.0031214226533174275 2.6194932898219555e-05 0 0.0033827281675184984 -1.0014119859546878e-05 0 0.0031745569438276005 2.4388409266184183e-05 0 0.0032991176847437715 8.1577235701968483e-06 0 0.0034576807564423175 -2.3172558742705652e-05 0 0.0034380045832888739 -7.5580453496081052e-05 0 0.0032991176847437715 8.1577235701968483e-06 0 0.0034380045832888739 -7.5580453496081052e-05 0 0.0032845488098008691 -6.7724543535202356e-06 0 0.0034380045832888739 -7.5580453496081052e-05 0 0.0032845488098008691 -6.7724543535202356e-06 0 0.0034193779626976823 -0.00012483970110730363 0 0.0034380045832888739 -7.5580453496081052e-05 0 0.0037678854008818125 -0.00018636261847990824 0 0.003812795567807259 -0.00021314611350069522 0 0.0034745011025082988 -6.7000736129302997e-05 0 0.0036217064725096075 -0.00015378913242569315 0 0.0034380045832888739 -7.5580453496081052e-05 0 0.0034411233081843313 -0.00013573144593343565 0 0.0034193779626976823 -0.00012483970110730363 0 0.0039079018250468417 -4.008830439540335e-08 0 0.003453021238615025 1.3427707417576335e-08 0 0.0037464459676365162 -3.0404441048181735e-07 0 0.0033307062363642638 2.1314771398568675e-05 0 0.003452624697462789 -7.5592896216813608e-08 0 0.0034218232588721421 -7.4978780860848163e-05 0 0.0034576807564423175 -2.3172558742705652e-05 0 0.0034380045832888739 -7.5580453496081052e-05 0 0.0037678854008818125 -0.00018636261847990824 0 0.0033827281675184984 -1.0014119859546878e-05 0 0.0035873864848257309 -0.00015357324023051278 0 0.0034520592402045988 -0.00020225857502539129 0 0.0034218232588721421 -7.4978780860848163e-05 0 0.0034523192104207396 -0.00014629111756842919 0 0.003452624697462789 -7.5592896216813608e-08 0 0.0034218232588721421 -7.4978780860848163e-05 0 0.0034523192104207396 -0.00014629111756842919 0 0.0034742502988518594 5.9724603275291819e-06 0 0.0036097505804462003 -5.8701646583247785e-05 0 0.0037678854008818125 -0.00018636261847990824 0 0.0038711507083998582 -0.000202256397467192 0 0.003812795567807259 -0.00021314611350069522 0 0.0037498547506723302 -0.00013788412009549763 0 0.0035873864848257309 -0.00015357324023051278 0 0.0039635695766022799 -0.00020191381245733119 0 0.0037678854008818125 -0.00018636261847990824 0 0.0038711507083998582 -0.000202256397467192 0 0.0034681351760719589 -0.0001192221485735742 0 0.0034411233081843313 -0.00013573144593343565 0 0.0034193779626976823 -0.00012483970110730363 0 0.0035592534487800327 0.00022084664025186446 0 0.0035315332043697363 0.00016062050928418944 0 0.003386616578110054 7.6424899959648808e-05 0 0.0034896483665557108 3.2694817142439572e-05 0 0.0034019832353421741 -1.9755102087086526e-05 0 0.0033307913921208905 -9.4781099337688309e-06 0 0.003386616578110054 7.6424899959648808e-05 0 0.0034795663129788754 8.1310914027394671e-05 0 0.0035315332043697363 0.00016062050928418944 0 0.003386616578110054 7.6424899959648808e-05 0 0.0034795663129788754 8.1310914027394671e-05 0 0.0033307913921208905 -9.4781099337688309e-06 0 0.0034795663129788754 8.1310914027394671e-05 0 0.0035950667746322911 3.2954645762183625e-05 0 0.0034795663129788754 8.1310914027394671e-05 0 0.0036219693535599665 0.00019696019304103093 0 0.0035950667746322911 3.2954645762183625e-05 0 0.0035315332043697363 0.00016062050928418944 0 0.0034795663129788754 8.1310914027394671e-05 0 0.0036219693535599665 0.00019696019304103093 0 0.0043305215905308113 0.00012153109574320147 0 0.0038226819013667057 2.6523630347286836e-06 0 0.0036026338173883116 0.00021797779266112476 0 0.0035315332043697363 0.00016062050928418944 0 0.0036219693535599665 0.00019696019304103093 0 0.0049458642456575658 4.0604596693771087e-05 0 0.0049370614871841511 4.117986453927719e-05 0 0.0049368817238402002 3.8867954098371996e-05 0 0.0049370614871841511 4.117986453927719e-05 0 0.0049368817238402002 3.8867954098371996e-05 0 0.0049247705370469349 3.4715271770870398e-05 0 0.003484091878125969 0.00037047819743033704 0 0.0035132208814576929 0.00017883151274659259 0 0.003760877671682455 0.00031866095824969407 0 0.003484091878125969 0.00037047819743033704 0 0.0035132208814576929 0.00017883151274659259 0 0.0033534307137473842 0.00015550267205862494 0 0.003484091878125969 0.00037047819743033704 0 0.0033534307137473842 0.00015550267205862494 0 0.0031802970140839982 0.00020501594674310653 0 0.0042361388719829481 0.00023927943670539611 0 0.0038226819013667057 2.6523630347286836e-06 0 0.0046374416547462858 4.1969168126194875e-05 0 0.0046180273511366166 1.8829722700839588e-05 0 0.0045810741778920163 2.4716981226585256e-05 0 0.0046374416547462858 4.1969168126194875e-05 0 0.0046415440423270551 -2.883537566228461e-06 0 0.0046180273511366166 1.8829722700839588e-05 0 0.0046415440423270551 -2.883537566228461e-06 0 0.0046180273511366166 1.8829722700839588e-05 0 0.0046037135469164346 -9.195455443642658e-06 0 0.0046180273511366166 1.8829722700839588e-05 0 0.0045938588586042217 9.8942254689796687e-06 0 0.0045810741778920163 2.4716981226585256e-05 0 0.0046180273511366166 1.8829722700839588e-05 0 0.0045938588586042217 9.8942254689796687e-06 0 0.0046037135469164346 -9.195455443642658e-06 0 0.0045938588586042217 9.8942254689796687e-06 0 0.0045833769608527187 -2.5253955720314033e-06 0 0.0046037135469164346 -9.195455443642658e-06 0 0.003484091878125969 0.00037047819743033704 0 0.0038224441548436513 0.00053991674680652091 0 0.003760877671682455 0.00031866095824969407 0 0.0049428795586358206 3.9865645234807714e-05 0 0.0049368817238402002 3.8867954098371996e-05 0 0.0049386553932060174 4.1220123161383004e-05 0 0.0042361388719829481 0.00023927943670539611 0 0.0045334743898191188 0.00015421443189646449 0 0.0045833769608527187 -2.5253955720314033e-06 0 0.0045815070930478735 1.6824551954914357e-05 0 0.0045638340196908897 -1.798699786011361e-05 0 0.0045815070930478735 1.6824551954914357e-05 0 0.0045811027701917455 2.5044121441442757e-05 0 0.0045638340196908897 -1.798699786011361e-05 0 0.0045334743898191188 0.00015421443189646449 0 0.004171709524706124 0.00016856288516158073 0 0.0045938588586042217 9.8942254689796687e-06 0 0.0045833769608527187 -2.5253955720314033e-06 0 0.0045815070930478735 1.6824551954914357e-05 0 0.0045938588586042217 9.8942254689796687e-06 0 0.0045815070930478735 1.6824551954914357e-05 0 0.0045810741778920163 2.4716981226585256e-05 0 0.0045410983030184848 0.00011815860542657013 0 0.0045334743898191188 0.00015421443189646449 0 0.0045638340196908897 -1.798699786011361e-05 0 0.0046184766081623346 -4.242056360788486e-05 0 0.0045466147477832199 -6.7107806233627717e-05 0 0.0035132208814576929 0.00017883151274659259 0 0.003760877671682455 0.00031866095824969407 0 0.0037014661441054949 0.00010043642797131386 0 0.004171709524706124 0.00016856288516158073 0 0.0038580963041389242 -1.2414969953657532e-05 0 0.0045833769608527187 -2.5253955720314033e-06 0 0.0045638340196908897 -1.798699786011361e-05 0 0.0046037135469164346 -9.195455443642658e-06 0 0.0045638340196908897 -1.798699786011361e-05 0 0.0046037135469164346 -9.195455443642658e-06 0 0.0046184766081623346 -4.242056360788486e-05 0 0.0045172490622825846 -3.5545036308917047e-05 0 0.0038580963041389242 -1.2414969953657532e-05 0 0.0046415440423270551 -2.883537566228461e-06 0 0.0046037135469164346 -9.195455443642658e-06 0 0.0046184766081623346 -4.242056360788486e-05 0 0.0042504461035078036 -5.4525811993348662e-05 0 0.0041932554533643234 -0.00019827452944505696 0 0.0040903320897522676 -0.00010585270984029439 0 0.0042903474419615558 -0.00019267054384181109 0 0.0042504461035078036 -5.4525811993348662e-05 0 0.0041932554533643234 -0.00019827452944505696 0 0.0041932554533643234 -0.00019827452944505696 0 0.0040903320897522676 -0.00010585270984029439 0 0.0041245307873897406 -0.00023556234297963488 0 0.0038580963041389242 -1.2414969953657532e-05 0 0.0035467928713377901 -0.00014309265529559257 0 0.0040903320897522676 -0.00010585270984029439 0 0.0041245307873897406 -0.00023556234297963488 0 0.0040458931245999294 -0.00028142367577007883 0 0.0041245307873897406 -0.00023556234297963488 0 0.0040458931245999294 -0.00028142367577007883 0 0.004121974450577371 -0.00031557040874115647 0 0.0041245307873897406 -0.00023556234297963488 0 0.0041711849764228849 -0.00027478972089479785 0 0.004121974450577371 -0.00031557040874115647 0 0.0041932554533643234 -0.00019827452944505696 0 0.0041245307873897406 -0.00023556234297963488 0 0.0041711849764228849 -0.00027478972089479785 0 0.0041932554533643234 -0.00019827452944505696 0 0.0041711849764228849 -0.00027478972089479785 0 0.0042503412866853434 -0.00029292073174760794 0 0.0041711849764228849 -0.00027478972089479785 0 0.0042503412866853434 -0.00029292073174760794 0 0.0041777504870096974 -0.00034852801082063727 0 0.0042903474419615558 -0.00019267054384181109 0 0.0041932554533643234 -0.00019827452944505696 0 0.0042503412866853434 -0.00029292073174760794 0 0.0032149334434758412 1.2432674227556825e-05 0 0.0031839201130676193 1.1411227814736914e-06 0 0.0031713743454106222 5.0645582688780991e-06 0 0.0032093434723986956 2.7420611743205949e-05 0 0.0034007141300165192 1.6450126098396848e-05 0 0.0033534307137473842 0.00015550267205862494 0 0.0031802970140839982 0.00020501594674310653 0 0.0032093434723986956 2.7420611743205949e-05 0 0.0038226819013667057 2.6523630347286836e-06 0 0.0032756787304562824 8.3563084681493831e-05 0 0.0033534307137473842 0.00015550267205862494 0 0.0032093434723986956 2.7420611743205949e-05 0 0.0034007141300165192 1.6450126098396848e-05 0 0.0035132208814576929 0.00017883151274659259 0 0.0033534307137473842 0.00015550267205862494 0 0.0034007141300165192 1.6450126098396848e-05 0 0.0031132672015362689 7.6567345096543038e-06 0 0.0031236524296961985 1.0882747920164761e-05 0 0.0031129198288856728 3.4609740317032063e-05 0 0.0035132208814576929 0.00017883151274659259 0 0.0037014661441054949 0.00010043642797131386 0 0.0034007141300165192 1.6450126098396848e-05 0 0.0038580963041389242 -1.2414969953657532e-05 0 0.0031839201130676193 1.1411227814736914e-06 0 0.0031129198288856728 3.4609740317032063e-05 0 0.0031278333450463769 3.2270492963850243e-05 0 0.0031197069557650629 5.2201743348752436e-05 0 0.0031236524296961985 1.0882747920164761e-05 0 0.0031129198288856728 3.4609740317032063e-05 0 0.0031278333450463769 3.2270492963850243e-05 0 0.0031713743454106222 5.0645582688780991e-06 0 0.0031556020911557825 4.1012825662863248e-05 0 0.0031278333450463769 3.2270492963850243e-05 0 0.0031556020911557825 4.1012825662863248e-05 0 0.0031278333450463769 3.2270492963850243e-05 0 0.0031197069557650629 5.2201743348752436e-05 0 0.0031713743454106222 5.0645582688780991e-06 0 0.0031236524296961985 1.0882747920164761e-05 0 0.0031278333450463769 3.2270492963850243e-05 0 0.0031129198288856728 3.4609740317032063e-05 0 0.0031197069557650629 5.2201743348752436e-05 0 0.0031181956824149438 5.1744554404850775e-05 0 0.0035467928713377901 -0.00014309265529559257 0 0.0035818088680786967 -0.00017264551470271702 0 0.0035818088680786967 -0.00017264551470271702 0 0.0035892473405272013 -0.00027761242786421026 0 0.0035818088680786967 -0.00017264551470271702 0 0.0029903108412983222 3.3020545016783037e-06 0 0.0031197069557650629 5.2201743348752436e-05 0 0.0031181956824149438 5.1744554404850775e-05 0 0.0030861015612768539 5.3121965086022974e-05 0 0.0031181956824149438 5.1744554404850775e-05 0 0.0030861015612768539 5.3121965086022974e-05 0 0.0030772281397664519 1.8324415178120456e-05 0 0.004315714124279015 -0.00034985890176188102 0 0.0042503412866853434 -0.00029292073174760794 0 0.0042295032948561134 -0.00040538741610428731 0 0.0042503412866853434 -0.00029292073174760794 0 0.0042295032948561134 -0.00040538741610428731 0 0.0041777504870096974 -0.00034852801082063727 0 0.0042295032948561134 -0.00040538741610428731 0 0.0041777504870096974 -0.00034852801082063727 0 0.0041305483427939741 -0.00039802210406399065 0 0.0040265926223767229 -0.00042161090098815864 0 0.0041305483427939741 -0.00039802210406399065 0 0.004121974450577371 -0.00031557040874115647 0 0.0035818088680786967 -0.00017264551470271702 0 0.004218294448932498 -0.00036677458029049046 0 0.0040458931245999294 -0.00028142367577007883 0 0.0039953611763860145 -0.00045025586751373288 0 0.004121974450577371 -0.00031557040874115647 0 0.0041777504870096974 -0.00034852801082063727 0 0.0041305483427939741 -0.00039802210406399065 0 0.004121974450577371 -0.00031557040874115647 0 0.0041711849764228849 -0.00027478972089479785 0 0.0041777504870096974 -0.00034852801082063727 0 0.004121974450577371 -0.00031557040874115647 0 0.0040265926223767229 -0.00042161090098815864 0 0.0041305483427939741 -0.00039802210406399065 0 0.0041018888806475624 -0.00045032660934791969 0 0.0040265926223767229 -0.00042161090098815864 0 0.0041018888806475624 -0.00045032660934791969 0 0.0040689136735971116 -0.00049419788596287331 0 0.0041018888806475624 -0.00045032660934791969 0 0.0041308969500495106 -0.00048613571411470791 0 0.0040689136735971116 -0.00049419788596287331 0 0.0041018888806475624 -0.00045032660934791969 0 0.0041536890458548307 -0.0004480298951434134 0 0.0041308969500495106 -0.00048613571411470791 0 0.0041305483427939741 -0.00039802210406399065 0 0.0041018888806475624 -0.00045032660934791969 0 0.0041536890458548307 -0.0004480298951434134 0 0.0042295032948561134 -0.00040538741610428731 0 0.0041305483427939741 -0.00039802210406399065 0 0.0041536890458548307 -0.0004480298951434134 0 0.0042295032948561134 -0.00040538741610428731 0 0.0041536890458548307 -0.0004480298951434134 0 0.0041939160231232835 -0.00048090855489175548 0 0.0041536890458548307 -0.0004480298951434134 0 0.0041939160231232835 -0.00048090855489175548 0 0.0041308969500495106 -0.00048613571411470791 0 0.0042667475109655672 -0.0004615220029165707 0 0.0042265770246354721 -0.00050926460733530753 0 0.0041939160231232835 -0.00048090855489175548 0 0.0042667475109655672 -0.0004615220029165707 0 0.0042295032948561134 -0.00040538741610428731 0 0.0041939160231232835 -0.00048090855489175548 0 0.0041873752165270802 -0.00054414783894203892 0 0.0041876762927607579 -0.00053332854298945409 0 0.0041976174307601054 -0.00052761480321049305 0 0.0041873752165270802 -0.00054414783894203892 0 0.0041876762927607579 -0.00053332854298945409 0 0.0041956732731390847 -0.00053219500685542905 0 0.0041876762927607579 -0.00053332854298945409 0 0.0041755802195453948 -0.0005393857546298538 0 0.0041619402263274293 -0.00053593834482472652 0 0.0041876762927607579 -0.00053332854298945409 0 0.0041755802195453948 -0.0005393857546298538 0 0.0041956732731390847 -0.00053219500685542905 0 0.0041876762927607579 -0.00053332854298945409 0 0.0041935766369964704 -0.00051480252610163109 0 0.0041648370271822133 -0.00051448347579572859 0 0.0041876762927607579 -0.00053332854298945409 0 0.0041976174307601054 -0.00052761480321049305 0 0.0041935766369964704 -0.00051480252610163109 0 0.0042265770246354721 -0.00050926460733530753 0 0.0041939160231232835 -0.00048090855489175548 0 0.0041935766369964704 -0.00051480252610163109 0 0.0042265770246354721 -0.00050926460733530753 0 0.0041976174307601054 -0.00052761480321049305 0 0.0041935766369964704 -0.00051480252610163109 0 0.0041939160231232835 -0.00048090855489175548 0 0.0041935766369964704 -0.00051480252610163109 0 0.0041648370271822133 -0.00051448347579572859 0 0.0041648370271822133 -0.00051448347579572859 0 0.0041195991249584063 -0.00053459517080448396 0 0.0041308969500495106 -0.00048613571411470791 0 0.0041939160231232835 -0.00048090855489175548 0 0.0041648370271822133 -0.00051448347579572859 0 0.0041308969500495106 -0.00048613571411470791 0 0.0041619402263274293 -0.00053593834482472652 0 0.0041195991249584063 -0.00053459517080448396 0 0.0041533013801536628 -0.00055825838849306059 0 0.0041648370271822133 -0.00051448347579572859 0 0.0041619402263274293 -0.00053593834482472652 0 0.0041195991249584063 -0.00053459517080448396 0 0.0041876762927607579 -0.00053332854298945409 0 0.0041648370271822133 -0.00051448347579572859 0 0.0041619402263274293 -0.00053593834482472652 0 0.0041195991249584063 -0.00053459517080448396 0 0.0041308969500495106 -0.00048613571411470791 0 0.0040689136735971116 -0.00049419788596287331 0 0.0041195991249584063 -0.00053459517080448396 0 0.0040689136735971116 -0.00049419788596287331 0 0.0040459389673954309 -0.00056064344665891297 0 0.0041061441671741356 -0.00058717773072603971 0 0.0040459389673954309 -0.00056064344665891297 0 0.0040625204158702003 -0.00067771598211609013 0 0.0041195991249584063 -0.00053459517080448396 0 0.0041061441671741356 -0.00058717773072603971 0 0.0040459389673954309 -0.00056064344665891297 0 0.0041195991249584063 -0.00053459517080448396 0 0.0041061441671741356 -0.00058717773072603971 0 0.0041533013801536628 -0.00055825838849306059 0 0.0041526384778081491 -0.00044609260065085955 0 0.0041956732731390847 -0.00053219500685542905 0 0.0041844891701061128 -0.00030708454437805425 0 0.0041464549032927548 -0.00060714959453392835 0 0.0041956732731390847 -0.00053219500685542905 0 0.0041887296991352848 -0.00065229131799637646 0 0.0043512868530748766 -0.00053421703199070861 0 0.0029480533501827985 -0.0004459917260418509 0 0.0041755802195453948 -0.0005393857546298538 0 0.0041619402263274293 -0.00053593834482472652 0 0.0041533013801536628 -0.00055825838849306059 0 0.0041061441671741356 -0.00058717773072603971 0 0.0041533013801536628 -0.00055825838849306059 0 0.0041464549032927548 -0.00060714959453392835 0 0.0041755802195453948 -0.0005393857546298538 0 0.0041533013801536628 -0.00055825838849306059 0 0.0041956732731390847 -0.00053219500685542905 0 0.0041533013801536628 -0.00055825838849306059 0 0.0041464549032927548 -0.00060714959453392835 0 0.0041956732731390847 -0.00053219500685542905 0 0.0040265926223767229 -0.00042161090098815864 0 0.0040689136735971116 -0.00049419788596287331 0 0.0039989010792750995 -0.00051328960141984166 0 0.0032257098454982185 0.00011715962903607226 0 0.0030451028063355283 -7.7711374501316556e-05 0 0.0031755451109219271 -5.620601203075106e-05 0 0.0040689136735971116 -0.00049419788596287331 0 0.0039989010792750995 -0.00051328960141984166 0 0.0040459389673954309 -0.00056064344665891297 0 0.0035892473405272013 -0.00027761242786421026 0 0.0035696758898409826 -0.00043783919229648487 0 0.0040459389673954309 -0.00056064344665891297 0 0.0039634671258670364 -0.00060441710896053254 0 0.0040625204158702003 -0.00067771598211609013 0 0.0039989010792750995 -0.00051328960141984166 0 0.0040459389673954309 -0.00056064344665891297 0 0.0039634671258670364 -0.00060441710896053254 0 0.0030451028063355283 -7.7711374501316556e-05 0 0.003127689698824656 -0.00023562431404992033 0 0.0030014845165401375 -0.00030177401365104052 0 0.0030451028063355283 -7.7711374501316556e-05 0 0.0031755451109219271 -5.620601203075106e-05 0 0.003127689698824656 -0.00023562431404992033 0 0.0029903108412983222 3.3020545016783037e-06 0 0.0029555301574858534 -0.00017464309777111495 0 0.0029079210323119556 2.4579384110746761e-07 0 0.0025499248951084651 -1.3909726412234042e-05 0 0.0022232080794951812 -2.3134684879262334e-05 0 0.0030772281397664519 1.8324415178120456e-05 0 0.002966960507179984 3.8934839444274424e-05 0 0.0029332934030480385 -4.3179522185474678e-05 0 0.0030451028063355283 -7.7711374501316556e-05 0 0.0028585438305363045 -0.00028172784477219535 0 0.0030014845165401375 -0.00030177401365104052 0 0.002966960507179984 3.8934839444274424e-05 0 0.0027292474306378797 4.5029121033803933e-06 0 0.0029332934030480385 -4.3179522185474678e-05 0 0.0030861015612768539 5.3121965086022974e-05 0 0.0030772281397664519 1.8324415178120456e-05 0 0.002966960507179984 3.8934839444274424e-05 0 0.0030861015612768539 5.3121965086022974e-05 0 0.002966960507179984 3.8934839444274424e-05 0 0.0031060311472624947 5.5263279340905831e-05 0 0.002966960507179984 3.8934839444274424e-05 0 0.0031060311472624947 5.5263279340905831e-05 0 0.0030281524042108433 3.8873275278712462e-05 0 0.0032054496551608825 2.9886847324523471e-05 0 0.0031803802515854292 3.7327509438888403e-05 0 0.0031060311472624947 5.5263279340905831e-05 0 0.0031803802515854292 3.7327509438888403e-05 0 0.0031060311472624947 5.5263279340905831e-05 0 0.0030281524042108433 3.8873275278712462e-05 0 0.0031556020911557825 4.1012825662863248e-05 0 0.0031197069557650629 5.2201743348752436e-05 0 0.0031060311472624947 5.5263279340905831e-05 0 0.0031197069557650629 5.2201743348752436e-05 0 0.0030861015612768539 5.3121965086022974e-05 0 0.0031060311472624947 5.5263279340905831e-05 0 0.0033307062363642638 2.1314771398568675e-05 0 0.0031214226533174275 2.6194932898219555e-05 0 0.0029079210323119556 2.4579384110746761e-07 0 0.0031214226533174275 2.6194932898219555e-05 0 0.0030281524042108433 3.8873275278712462e-05 0 0.0029079210323119556 2.4579384110746761e-07 0 0.0031803802515854292 3.7327509438888403e-05 0 0.0031214226533174275 2.6194932898219555e-05 0 0.0030281524042108433 3.8873275278712462e-05 0 0.002966960507179984 3.8934839444274424e-05 0 0.0030281524042108433 3.8873275278712462e-05 0 0.0029045938273439373 2.1091371481457942e-05 0 0.0030281524042108433 3.8873275278712462e-05 0 0.0029079210323119556 2.4579384110746761e-07 0 0.0029045938273439373 2.1091371481457942e-05 0 0.0029079210323119556 2.4579384110746761e-07 0 0.0027292474306378797 4.5029121033803933e-06 0 0.0025499248951084651 -1.3909726412234042e-05 0 0.0029079210323119556 2.4579384110746761e-07 0 0.0029045938273439373 2.1091371481457942e-05 0 0.0027292474306378797 4.5029121033803933e-06 0 0.002966960507179984 3.8934839444274424e-05 0 0.0029045938273439373 2.1091371481457942e-05 0 0.0027292474306378797 4.5029121033803933e-06 0 0.0029079210323119556 2.4579384110746761e-07 0 0.0022232080794951812 -2.3134684879262334e-05 0 0.0021597989012289687 -2.8897465631319782e-07 0 0.0027292474306378797 4.5029121033803933e-06 0 0.0027319255462167052 -4.8155634131547303e-05 0 0.0025499248951084651 -1.3909726412234042e-05 0 0.0027319255462167052 -4.8155634131547303e-05 0 0.0025499248951084651 -1.3909726412234042e-05 0 0.0027019283439175348 -0.00016830115904770858 0 0.0023778021870713975 -0.00019946184434930316 0 0.0022152975966628725 -3.8721591731419239e-05 0 0.0019177642417225909 -0.0001473459366686132 0 0.0022232080794951812 -2.3134684879262334e-05 0 0.0020093725054171666 -2.5546948975734222e-05 0 0.0025499248951084651 -1.3909726412234042e-05 0 0.0027019283439175348 -0.00016830115904770858 0 0.0022232080794951812 -2.3134684879262334e-05 0 0.0023778021870713975 -0.00019946184434930316 0 0.0020451799898464264 -0.00012269547253308913 0 0.0019750677609599457 -3.3757264668688708e-05 0 0.001975396722471399 -1.822813059964627e-05 0 0.0020093725054171666 -2.5546948975734222e-05 0 0.0028585438305363045 -0.00028172784477219535 0 0.0028755604170017219 -0.00045787864477012878 0 0.0030014845165401375 -0.00030177401365104052 0 0.0026680949014948672 -0.00049344860210711737 0 0.0028585438305363045 -0.00028172784477219535 0 0.0028755604170017219 -0.00045787864477012878 0 0.0027292474306378797 4.5029121033803933e-06 0 0.0027319255462167052 -4.8155634131547303e-05 0 0.0029332934030480385 -4.3179522185474678e-05 0 0.0027319255462167052 -4.8155634131547303e-05 0 0.0027019283439175348 -0.00016830115904770858 0 0.0029332934030480385 -4.3179522185474678e-05 0 0.0023778021870713975 -0.00019946184434930316 0 0.0029555301574858534 -0.00017464309777111495 0 0.0019750677609599457 -3.3757264668688708e-05 0 0.001975396722471399 -1.822813059964627e-05 0 0.0020939361455969098 -9.3992391026894679e-05 0 0.001975396722471399 -1.822813059964627e-05 0 0.0021242817378213288 1.7217535539838666e-05 0 0.0020939361455969098 -9.3992391026894679e-05 0 0.0023778021870713975 -0.00019946184434930316 0 0.0024394583748370167 -0.00021949244377944739 0 0.0021242817378213288 1.7217535539838666e-05 0 0.0021845595461510996 -3.9738772867686148e-05 0 0.0020939361455969098 -9.3992391026894679e-05 0 0.0021242817378213288 1.7217535539838666e-05 0 0.0021845595461510996 -3.9738772867686148e-05 0 0.00228601501217703 4.6957509512457972e-05 0 0.0024394583748370167 -0.00021949244377944739 0 0.0029682049927075376 -0.00037816360311940489 0 0.0018846426823569782 -8.5522278981283833e-06 0 0.0018771584610875972 9.8294858884365126e-06 0 0.0018881461188043757 2.1691367493945678e-05 0 0.0019772337111838012 -4.5396971759877594e-05 0 0.0021301856403612039 -9.6050516933979377e-05 0 0.0018846426823569782 -8.5522278981283833e-06 0 0.0018771584610875972 9.8294858884365126e-06 0 0.0018650432201255055 4.1533665405337698e-06 0 0.0020939361455969098 -9.3992391026894679e-05 0 0.002236776742738724 -0.00012823515147772417 0 0.0022414906084060938 -0.00014192215903032694 0 0.0021845595461510996 -3.9738772867686148e-05 0 0.0020939361455969098 -9.3992391026894679e-05 0 0.002236776742738724 -0.00012823515147772417 0 0.0018846426823569782 -8.5522278981283833e-06 0 0.0019137408794741057 1.3374493622185579e-05 0 0.0018881461188043757 2.1691367493945678e-05 0 0.0019750677609599457 -3.3757264668688708e-05 0 0.0018846426823569782 -8.5522278981283833e-06 0 0.0019137408794741057 1.3374493622185579e-05 0 0.0019821908484381487 -3.9682809955251134e-05 0 0.0019772337111838012 -4.5396971759877594e-05 0 0.0018881461188043757 2.1691367493945678e-05 0 0.0018469693775232312 3.5367158503803712e-05 0 0.0018842305198353559 2.094173889824559e-05 0 0.0019137408794741057 1.3374493622185579e-05 0 0.0018881461188043757 2.1691367493945678e-05 0 0.0018469693775232312 3.5367158503803712e-05 0 0.0018881461188043757 2.1691367493945678e-05 0 0.0018842305198353559 2.094173889824559e-05 0 0.0018691034968355141 1.7747657081032734e-05 0 0.0018771584610875972 9.8294858884365126e-06 0 0.0018881461188043757 2.1691367493945678e-05 0 0.0018691034968355141 1.7747657081032734e-05 0 0.0017597658370486265 -2.5811203504461466e-05 0 0.0017277893017318428 -9.9522152779311297e-05 0 0.001596791673808896 -0.00010059130926475474 0 0.0015801215292814829 -0.00010333717965220627 0 0.001579103559581617 -0.00011265717638797012 0 0.0019137408794741057 1.3374493622185579e-05 0 0.0021597989012289687 -2.8897465631319782e-07 0 0.0018469693775232312 3.5367158503803712e-05 0 0.0019137408794741057 1.3374493622185579e-05 0 0.0021597989012289687 -2.8897465631319782e-07 0 0.0020093725054171666 -2.5546948975734222e-05 0 0.0022232080794951812 -2.3134684879262334e-05 0 0.0021597989012289687 -2.8897465631319782e-07 0 0.0020093725054171666 -2.5546948975734222e-05 0 0.0019750677609599457 -3.3757264668688708e-05 0 0.0019137408794741057 1.3374493622185579e-05 0 0.0020093725054171666 -2.5546948975734222e-05 0 0.0021597989012289687 -2.8897465631319782e-07 0 0.0016048404189224249 7.6425010164216217e-08 0 0.0018469693775232312 3.5367158503803712e-05 0 0.0016048404189224249 7.6425010164216217e-08 0 0.0015938808286868797 -1.5558960917378178e-05 0 0.0018469693775232312 3.5367158503803712e-05 0 0.0015938808286868797 -1.5558960917378178e-05 0 0.0018469693775232312 3.5367158503803712e-05 0 0.001846415227173045 -2.2215632468150527e-06 0 0.0016117445215049358 -2.119861951196508e-05 0 0.0016176533475943701 -6.99300105022612e-05 0 0.0015938808286868797 -1.5558960917378178e-05 0 0.0014006127669547533 -0.00014336339835224627 0 0.0014048952942090191 -1.6194317677395502e-05 0 0.0018469693775232312 3.5367158503803712e-05 0 0.001846415227173045 -2.2215632468150527e-06 0 0.0018842305198353559 2.094173889824559e-05 0 0.0016157856975463545 -8.8754784570345619e-05 0 0.0015974615892544997 -9.5875650499546765e-05 0 0.001596791673808896 -0.00010059130926475474 0 0.0016176533475943701 -6.99300105022612e-05 0 0.0017597658370486265 -2.5811203504461466e-05 0 0.0016176533475943701 -6.99300105022612e-05 0 0.0014338616698985169 -0.00014371499703538662 0 0.0014338616698985169 -0.00014371499703538662 0 0.0013763500852434025 -0.000150599720433715 0 0.0011153583527016473 -3.4360633662929172e-05 0 0.0013763500852434025 -0.000150599720433715 0 0.0013013286816158898 -0.00017574898435586108 0 0.0012305023594050971 -5.8155574563984547e-05 0 0.0012063239560749653 -0.00021741040862343632 0 0.0015974615892544997 -9.5875650499546765e-05 0 0.001596791673808896 -0.00010059130926475474 0 0.0015801215292814829 -0.00010333717965220627 0 0.0012305023594050971 -5.8155574563984547e-05 0 0.0013231864360508834 -8.1351350531343685e-05 0 0.0013213473695444804 -1.2991071004680957e-06 0 0.0013013286816158898 -0.00017574898435586108 0 0.0012305023594050971 -5.8155574563984547e-05 0 0.0013231864360508834 -8.1351350531343685e-05 0 0.0014006127669547533 -0.00014336339835224627 0 0.0013231864360508834 -8.1351350531343685e-05 0 0.0014048952942090191 -1.6194317677395502e-05 0 0.0014006127669547533 -0.00014336339835224627 0 0.0013013286816158898 -0.00017574898435586108 0 0.0013231864360508834 -8.1351350531343685e-05 0 0.0013231864360508834 -8.1351350531343685e-05 0 0.0013213473695444804 -1.2991071004680957e-06 0 0.0014048952942090191 -1.6194317677395502e-05 0 0.0013213473695444804 -1.2991071004680957e-06 0 0.0013873749471762136 5.0235133609338622e-05 0 0.0014048952942090191 -1.6194317677395502e-05 0 0.0013213473695444804 -1.2991071004680957e-06 0 0.0012596029874699984 9.1059393514374322e-05 0 0.0013873749471762136 5.0235133609338622e-05 0 0.0012305023594050971 -5.8155574563984547e-05 0 0.0013213473695444804 -1.2991071004680957e-06 0 0.0012596029874699984 9.1059393514374322e-05 0 0.0011153583527016473 -3.4360633662929172e-05 0 0.0011763502732257218 2.491239287252845e-05 0 0.001424513334886991 3.6758321720523665e-05 0 0.0013934078731600141 2.4096819748327122e-05 0 0.0014234544248937426 8.6539623657586131e-06 0 0.0011763502732257218 2.491239287252845e-05 0 0.0007371577054677632 4.3129655218711298e-05 0 0.001424513334886991 3.6758321720523665e-05 0 0.0013934078731600141 2.4096819748327122e-05 0 0.0013873749471762136 5.0235133609338622e-05 0 0.0013934078731600141 2.4096819748327122e-05 0 0.0013873749471762136 5.0235133609338622e-05 0 0.001326114826965814 3.1181791788026561e-05 0 0.0011763502732257218 2.491239287252845e-05 0 0.0014474379931750279 5.089224288685455e-05 0 0.0013873749471762136 5.0235133609338622e-05 0 0.001326114826965814 3.1181791788026561e-05 0 0.0014101962675641139 2.4130967179773151e-05 0 0.0016048404189224249 7.6425010164216217e-08 0 0.0014101962675641139 2.4130967179773151e-05 0 0.0011931382871273504 7.1616441807964038e-08 0 0.001326114826965814 3.1181791788026561e-05 0 0.0014101962675641139 2.4130967179773151e-05 0 0.0011931382871273504 7.1616441807964038e-08 0 0.0016048404189224249 7.6425010164216217e-08 0 0.0015938808286868797 -1.5558960917378178e-05 0 0.0014101962675641139 2.4130967179773151e-05 0 0.0015938808286868797 -1.5558960917378178e-05 0 0.0014048952942090191 -1.6194317677395502e-05 0 0.0014513408159202003 2.3041005202832897e-05 0 0.0015938808286868797 -1.5558960917378178e-05 0 0.0014101962675641139 2.4130967179773151e-05 0 0.0014513408159202003 2.3041005202832897e-05 0 0.0013873749471762136 5.0235133609338622e-05 0 0.0014101962675641139 2.4130967179773151e-05 0 0.0014513408159202003 2.3041005202832897e-05 0 0.0013873749471762136 5.0235133609338622e-05 0 0.0014048952942090191 -1.6194317677395502e-05 0 0.0014513408159202003 2.3041005202832897e-05 0 0.00092447062924389466 1.9669570345090086e-05 0 0.00096642339579325191 7.424975695706149e-06 0 0.00091391153355662889 -3.0186221698363696e-05 0 0.00092447062924389466 1.9669570345090086e-05 0 0.0009414243367856179 5.8432257526520351e-05 0 0.00096642339579325191 7.424975695706149e-06 0 0.0006787316093816735 0.00013000884998046807 0 0.00066880969632453278 -5.1933302257011377e-05 0 0.00078707677292803142 -0.0001040260536273406 0 0.00048284006572464567 3.0941968380647786e-05 0 0.00048890506165122285 -4.3942055151526684e-06 0 0.00046951479260765267 2.0306973544366716e-05 0 0.00048284006572464567 3.0941968380647786e-05 0 0.00048908562544715262 3.2724063996256293e-05 0 0.00048890506165122285 -4.3942055151526684e-06 0 0.00092447062924389466 1.9669570345090086e-05 0 0.00087555986000283244 4.2578402817306893e-05 0 0.00091391153355662889 -3.0186221698363696e-05 0 0.00047638193789043139 9.3524983608350023e-05 0 0.00092968425245679447 -7.8294955458719798e-05 0 0.00047638193789043139 9.3524983608350023e-05 0 0.0007614582895132799 -1.4102903771552403e-05 0 0.00047638193789043139 9.3524983608350023e-05 0 0.00053978827654056457 0.00012346088299385177 0 4.1279340147989699e-05 0.00017585676472465104 0 4.5691631514848356e-05 0.0001790835619378927 0 4.6787394411326208e-05 0.00018249485100176009 0 4.1073587896332444e-05 0.00017505141290633853 0 4.5691631514848356e-05 0.0001790835619378927 0 5.9736681581892249e-05 0.00017095592438354739 0 0.00038848303644017939 0.00012113417829538931 0 0.00012781877686290726 0.00013603024835597918 0 4.1279340147989699e-05 0.00017585676472465104 0 4.1073587896332444e-05 0.00017505141290633853 0 4.5691631514848356e-05 0.0001790835619378927 0 0.00048284006572464567 3.0941968380647786e-05 0 0.00048705392682094658 3.5518579962550858e-05 0 0.00048828422446228585 3.273397426641475e-05 0 0.00047536374962744185 8.7491428190006245e-05 0 0.00047638193789043139 9.3524983608350023e-05 0 0.00038848303644017939 0.00012113417829538931 0 0.00047638193789043139 9.3524983608350023e-05 0 4.5691631514848356e-05 0.0001790835619378927 0 5.177641445604018e-05 0.00018160469527448681 0 3.7018634045843257e-05 0.00018535244631474597 0 0.00092447062924389466 1.9669570345090086e-05 0 0.00087555986000283244 4.2578402817306893e-05 0 0.0009414243367856179 5.8432257526520351e-05 0 4.5691631514848356e-05 0.0001790835619378927 0 5.177641445604018e-05 0.00018160469527448681 0 5.9736681581892249e-05 0.00017095592438354739 0 5.177641445604018e-05 0.00018160469527448681 0 5.9736681581892249e-05 0.00017095592438354739 0 6.8834006036034559e-05 0.00019094636285140422 0 0.00033098184638165491 0.00012248392490919819 0 -3.4175183687058786e-05 0.00021087103338420226 0 0.0009414243367856179 5.8432257526520351e-05 0 0.0010006342421486649 7.2430774138156989e-05 0 0.00096642339579325191 7.424975695706149e-06 0 5.9736681581892249e-05 0.00017095592438354739 0 0.00011248657335323921 0.00017920502596007739 0 6.8834006036034559e-05 0.00019094636285140422 0 0.00053978827654056457 0.00012346088299385177 0 0.00033098184638165491 0.00012248392490919819 0 0.0010718478032900509 5.2702602160709863e-05 0 0.0010006342421486649 7.2430774138156989e-05 0 0.0010198512535739973 1.7499876733640792e-05 0 0.00085911392044283653 -3.9832625497228503e-05 0 0.00044402356031473064 6.7835970601412858e-05 0 0.000894636042069092 0.00019104090002999586 0 0.0011763502732257218 2.491239287252845e-05 0 0.00033098184638165491 0.00012248392490919819 0 0.0010600696457038288 -2.1993780538823046e-05 0 0.0010718478032900509 5.2702602160709863e-05 0 0.0010198512535739973 1.7499876733640792e-05 0 0.0010600696457038288 -2.1993780538823046e-05 0 0.0010198512535739973 1.7499876733640792e-05 0 0.00099919582438901542 -2.0103577612503773e-05 0 0.0010198512535739973 1.7499876733640792e-05 0 0.00096642339579325191 7.424975695706149e-06 0 0.00099919582438901542 -2.0103577612503773e-05 0 0.0010006342421486649 7.2430774138156989e-05 0 0.0010198512535739973 1.7499876733640792e-05 0 0.00096642339579325191 7.424975695706149e-06 0 0.00096642339579325191 7.424975695706149e-06 0 0.00099919582438901542 -2.0103577612503773e-05 0 0.00097828844402058496 -5.1596660895954071e-05 0 0.00099919582438901542 -2.0103577612503773e-05 0 0.00097828844402058496 -5.1596660895954071e-05 0 0.0010141653604985731 -6.0462391017340629e-05 0 0.0010600696457038288 -2.1993780538823046e-05 0 0.00099919582438901542 -2.0103577612503773e-05 0 0.0010141653604985731 -6.0462391017340629e-05 0 0.0010141653604985731 -6.0462391017340629e-05 0 0.0010482101090881239 -8.5789450751041325e-05 0 0.001010819380910726 -9.7387204331852959e-05 0 0.0010600696457038288 -2.1993780538823046e-05 0 0.0010141653604985731 -6.0462391017340629e-05 0 0.0010482101090881239 -8.5789450751041325e-05 0 0.0010141653604985731 -6.0462391017340629e-05 0 0.00099257290553925442 -7.4310748714604853e-05 0 0.001010819380910726 -9.7387204331852959e-05 0 0.00097828844402058496 -5.1596660895954071e-05 0 0.0010141653604985731 -6.0462391017340629e-05 0 0.00099257290553925442 -7.4310748714604853e-05 0 0.00099430694387577932 -9.3007962254048997e-05 0 0.00099305666735212579 -9.5516035889927299e-05 0 0.00098835806865822228 -9.4892589017300509e-05 0 0.00097951317308584644 -8.0020150910170993e-05 0 0.00098613999289852601 -9.1547030516972802e-05 0 0.00099257290553925442 -7.4310748714604853e-05 0 0.00096413023616405793 -6.537907887750602e-05 0 0.00098835806865822228 -9.4892589017300509e-05 0 0.00099430694387577932 -9.3007962254048997e-05 0 0.00099374901966585872 -9.3198499600964885e-05 0 0.00099305666735212579 -9.5516035889927299e-05 0 0.00097828844402058496 -5.1596660895954071e-05 0 0.00099257290553925442 -7.4310748714604853e-05 0 0.00096413023616405793 -6.537907887750602e-05 0 0.00096642339579325191 7.424975695706149e-06 0 0.00097828844402058496 -5.1596660895954071e-05 0 0.00091391153355662889 -3.0186221698363696e-05 0 0.00097828844402058496 -5.1596660895954071e-05 0 0.00096413023616405793 -6.537907887750602e-05 0 0.00095328822664085587 -4.2200096905984155e-05 0 0.00097007578375194966 -4.6279085280536825e-05 0 0.00092968425245679447 -7.8294955458719798e-05 0 0.00099430694387577932 -9.3007962254048997e-05 0 0.00099190795091150534 -8.7744185177346661e-05 0 0.0009916348183603629 -8.9979162688305807e-05 0 0.00097951317308584644 -8.0020150910170993e-05 0 0.00092968425245679447 -7.8294955458719798e-05 0 0.00098882119225885984 -8.7354375300012073e-05 0 0.0009916348183603629 -8.9979162688305807e-05 0 0.00099103863048513683 -9.0021307313486857e-05 0 0.00098882119225885984 -8.7354375300012073e-05 0 0.00099190795091150534 -8.7744185177346661e-05 0 0.0009916348183603629 -8.9979162688305807e-05 0 0.0007614582895132799 -1.4102903771552403e-05 0 0.00092037730765486111 -9.8667981550407097e-05 0 0.0007614582895132799 -1.4102903771552403e-05 0 0.00092968425245679447 -7.8294955458719798e-05 0 0.00099430694387577932 -9.3007962254048997e-05 0 0.0009916348183603629 -8.9979162688305807e-05 0 0.00099374901966585872 -9.3198499600964885e-05 0 0.0009916348183603629 -8.9979162688305807e-05 0 0.00099374901966585872 -9.3198499600964885e-05 0 0.00099103863048513683 -9.0021307313486857e-05 0 0.00099374901966585872 -9.3198499600964885e-05 0 0.00099103863048513683 -9.0021307313486857e-05 0 0.0009971136313087789 -9.9711426471149378e-05 0 0.00099103863048513683 -9.0021307313486857e-05 0 0.0009971136313087789 -9.9711426471149378e-05 0 0.00099244431364053421 -0.00012880227365859003 0 0.0009971136313087789 -9.9711426471149378e-05 0 0.0010459212411279789 -0.0001117522242660383 0 0.00099244431364053421 -0.00012880227365859003 0 0.00092037730765486111 -9.8667981550407097e-05 0 0.00134923675080404 -0.00019491389033004402 0 0.00099374901966585872 -9.3198499600964885e-05 0 0.0009971136313087789 -9.9711426471149378e-05 0 0.00099305666735212579 -9.5516035889927299e-05 0 0.0009971136313087789 -9.9711426471149378e-05 0 0.00099305666735212579 -9.5516035889927299e-05 0 0.0009899773136321584 -9.7090262611313697e-05 0 0.00082253096226718436 -6.60374770513232e-05 0 0.0014692246993176579 -0.000136714545874893 0 0.00099305666735212579 -9.5516035889927299e-05 0 0.00098835806865822228 -9.4892589017300509e-05 0 0.0009899773136321584 -9.7090262611313697e-05 0 0.0021040814894733618 -0.00031941867453502562 0 0.0021103225180726399 -0.0002993958190982417 0 0.0021285812365047564 -0.00030155635063353059 0 0.0014692246993176579 -0.000136714545874893 0 0.00134923675080404 -0.00019491389033004402 0 0.0021040814894733618 -0.00031941867453502562 0 0.002132808793296572 -0.00030576562978381217 0 0.0021285812365047564 -0.00030155635063353059 0 0.0013378501255369912 -0.00027116347778462772 0 0.0013367148302891262 -0.00035095810870352655 0 0.001307549224834352 -0.00028462852078602166 0 0.0017277893017318428 -9.9522152779311297e-05 0 0.0021301856403612039 -9.6050516933979377e-05 0 0.0018771584610875972 9.8294858884365126e-06 0 0.0018691034968355141 1.7747657081032734e-05 0 0.0018650432201255055 4.1533665405337698e-06 0 0.0015959256751772201 -0.00013885035862440653 0 0.0015978592962951467 -0.0001328633266696418 0 0.0016062793232028158 -0.00013390075828787152 0 0.0013763500852434025 -0.000150599720433715 0 0.0017277893017318428 -9.9522152779311297e-05 0 0.0013763500852434025 -0.000150599720433715 0 0.001282944952284613 -0.00012733918958584119 0 0.0015978592962951467 -0.0001328633266696418 0 0.0016062793232028158 -0.00013390075828787152 0 0.0016074854791182373 -0.00012747478698052494 0 0.0019410206117868715 -0.0001721122971291357 0 0.0020420446266900833 -0.00010268486763253572 0 0.0019569310517707507 -7.7698745610752136e-05 0 0.0017277893017318428 -9.9522152779311297e-05 0 0.0020979579419374648 -0.00018127596076461048 0 0.00098835806865822228 -9.4892589017300509e-05 0 0.0009899773136321584 -9.7090262611313697e-05 0 0.001010819380910726 -9.7387204331852959e-05 0 0.0016136685052054365 -0.00012965064114346081 0 0.0016062793232028158 -0.00013390075828787152 0 0.0016074854791182373 -0.00012747478698052494 0 0.0014692246993176579 -0.000136714545874893 0 0.0020979579419374648 -0.00018127596076461048 0 0.00099257290553925442 -7.4310748714604853e-05 0 0.00098835806865822228 -9.4892589017300509e-05 0 0.001010819380910726 -9.7387204331852959e-05 0 0.0014692246993176579 -0.000136714545874893 0 0.001282944952284613 -0.00012733918958584119 0 0.0022516850381583981 -0.00023242668168599185 0 0.0020979579419374648 -0.00018127596076461048 0 0.0021040814894733618 -0.00031941867453502562 0 0.0021103225180726399 -0.0002993958190982417 0 0.0020842061173749669 -0.00031315630860045306 0 0.0023295144612255417 -0.00018270919634889103 0 0.0025007442595134013 -6.4811250489019934e-05 0 0.0024685580302445873 -0.00020558790234525206 0 0.0025007442595134013 -6.4811250489019934e-05 0 0.0025435643222941956 -0.0001260840889892231 0 0.0024685580302445873 -0.00020558790234525206 0 0.0025007442595134013 -6.4811250489019934e-05 0 0.0025435643222941956 -0.0001260840889892231 0 0.0026070380835407415 -9.6081466727662056e-05 0 0.0020979579419374648 -0.00018127596076461048 0 0.0021301856403612039 -9.6050516933979377e-05 0 0.0025435643222941956 -0.0001260840889892231 0 0.0025371212118307351 -0.00018602397449987538 0 0.0024685580302445873 -0.00020558790234525206 0 0.0025435643222941956 -0.0001260840889892231 0 0.0025371212118307351 -0.00018602397449987538 0 0.0026029064745101372 -0.00015769580807415594 0 0.0022470491319158022 -8.8721487132352976e-05 0 0.002236776742738724 -0.00012823515147772417 0 0.0022414906084060938 -0.00014192215903032694 0 0.002294689008486118 -9.0302639452172925e-05 0 0.0022785793192466024 -0.00011057884674862206 0 0.0025435643222941956 -0.0001260840889892231 0 0.0026029064745101372 -0.00015769580807415594 0 0.0026070380835407415 -9.6081466727662056e-05 0 0.002294689008486118 -9.0302639452172925e-05 0 0.0021301856403612039 -9.6050516933979377e-05 0 0.0021845595461510996 -3.9738772867686148e-05 0 0.0022466849904876061 -9.0790451348875649e-05 0 0.002236776742738724 -0.00012823515147772417 0 0.0025371212118307351 -0.00018602397449987538 0 0.0026029064745101372 -0.00015769580807415594 0 0.0025663943571188614 -0.00033092090142479978 0 0.0021845595461510996 -3.9738772867686148e-05 0 0.0022466849904876061 -9.0790451348875649e-05 0 0.00228601501217703 4.6957509512457972e-05 0 0.002294689008486118 -9.0302639452172925e-05 0 0.0029682049927075376 -0.00037816360311940489 0 0.0025371212118307351 -0.00018602397449987538 0 0.0025663943571188614 -0.00033092090142479978 0 0.0024685580302445873 -0.00020558790234525206 0 0.0025663943571188614 -0.00033092090142479978 0 0.0024685580302445873 -0.00020558790234525206 0 0.0023307825754798174 -0.00037708314259666799 0 0.0023295144612255417 -0.00018270919634889103 0 0.0024685580302445873 -0.00020558790234525206 0 0.0023307825754798174 -0.00037708314259666799 0 0.0029682049927075376 -0.00037816360311940489 0 0.0032901976884834932 -0.00054402640678925048 0 0.0039634671258670364 -0.00060441710896053254 0 0.0039284097802968765 -0.00070213042598717839 0 0.0040625204158702003 -0.00067771598211609013 0 0.003127689698824656 -0.00023562431404992033 0 0.0030788948204548811 -0.00042070788555900176 0 0.0030014845165401375 -0.00030177401365104052 0 0.0028755604170017219 -0.00045787864477012878 0 0.0030788948204548811 -0.00042070788555900176 0 0.0030014845165401375 -0.00030177401365104052 0 0.0035696758898409826 -0.00043783919229648487 0 0.0029682049927075376 -0.00037816360311940489 0 0.0021208862657955585 -0.00029938843673120555 0 0.0021087552641896189 -0.000286168444354931 0 0.0020956605883767146 -0.00041352303225975748 0 0.0021208862657955585 -0.00029938843673120555 0 0.0021087552641896189 -0.000286168444354931 0 0.0021084704457544354 -0.00027137837790063978 0 0.0015906505316308933 -0.00040245661699481899 0 0.0014880685492029255 -0.00036223711665871617 0 0.0014346333977863605 -0.00033711344781178689 0 0.0014880685492029255 -0.00036223711665871617 0 0.0021208862657955585 -0.00029938843673120555 0 0.0021330787558934577 -0.00029957182444401468 0 0.0021288129128834089 -0.00029983434020316893 0 0.0021473910939953768 -0.00030538716558413826 0 0.0021208862657955585 -0.00029938843673120555 0 0.0021330787558934577 -0.00029957182444401468 0 0.002132808793296572 -0.00030576562978381217 0 0.0021330787558934577 -0.00029957182444401468 0 0.0021288129128834089 -0.00029983434020316893 0 0.00134923675080404 -0.00019491389033004402 0 0.0014880685492029255 -0.00036223711665871617 0 0.002132808793296572 -0.00030576562978381217 0 0.0021330787558934577 -0.00029957182444401468 0 0.0021285812365047564 -0.00030155635063353059 0 0.0021473910939953768 -0.00030538716558413826 0 0.0021330787558934577 -0.00029957182444401468 0 0.0021285812365047564 -0.00030155635063353059 0 0.0023295144612255417 -0.00018270919634889103 0 0.0021473910939953768 -0.00030538716558413826 0 0.0023307825754798174 -0.00037708314259666799 0 0.0021103225180726399 -0.0002993958190982417 0 0.0021473910939953768 -0.00030538716558413826 0 0.0021285812365047564 -0.00030155635063353059 0 0.0022516850381583981 -0.00023242668168599185 0 0.0021382184350621737 -0.00030650481263961384 0 0.0041061441671741356 -0.00058717773072603971 0 0.0041464549032927548 -0.00060714959453392835 0 0.0040625204158702003 -0.00067771598211609013 0 0.0032901976884834932 -0.00054402640678925048 0 0.0029480533501827985 -0.0004459917260418509 0 0.0021473910939953768 -0.00030538716558413826 0 0.0023307825754798174 -0.00037708314259666799 0 0.0020956605883767146 -0.00041352303225975748 0 0.0041464549032927548 -0.00060714959453392835 0 0.0040625204158702003 -0.00067771598211609013 0 0.0041887296991352848 -0.00065229131799637646 0 0.0021473910939953768 -0.00030538716558413826 0 0.0021208862657955585 -0.00029938843673120555 0 0.0020956605883767146 -0.00041352303225975748 0 0.0014346333977863605 -0.00033711344781178689 0 0.0029480533501827985 -0.0004459917260418509 0 0.0012946836841005384 -0.00029520298382326688 0 0.0012766652716703732 -0.00030682236919889335 0 0.0013124771258768379 -0.00024660610288153431 0 0.0029480533501827985 -0.0004459917260418509 0 0.0027293652254512689 -0.0003624899892150519 0 0.0013124771258768379 -0.00024660610288153431 0 0.0013586056949806973 -0.00024364699087969696 0 0.001412202288844776 -0.00021722805080634405 0 0.0040454329821515882 -0.00039024642170223863 0 0.0041241739604878846 -0.00040623558014936449 0 0.0041844891701061128 -0.00030708454437805425 0 0.0040454329821515882 -0.00039024642170223863 0 0.0041844891701061128 -0.00030708454437805425 0 0.0039544383366398846 -0.00035601614618963436 0 0.0013791484417928187 -0.00024185325424359814 0 0.0013586056949806973 -0.00024364699087969696 0 0.0013919844623386819 -0.00023588609777099511 0 0.0013733058320934545 -0.00024776600657125007 0 0.0013791484417928187 -0.00024185325424359814 0 0.0013586056949806973 -0.00024364699087969696 0 0.0013733058320934545 -0.00024776600657125007 0 0.0013791484417928187 -0.00024185325424359814 0 0.0013875798179921401 -0.0002455648705500056 0 0.0013586056949806973 -0.00024364699087969696 0 0.0013576666557105642 -0.00025679301334147517 0 0.0013292511025345046 -0.00026117357203203737 0 0.0013733058320934545 -0.00024776600657125007 0 0.0013586056949806973 -0.00024364699087969696 0 0.0013576666557105642 -0.00025679301334147517 0 0.0013576666557105642 -0.00025679301334147517 0 0.001377018837798944 -0.00025379971906039069 0 0.0013649687544283842 -0.00026332729406957148 0 0.0013733058320934545 -0.00024776600657125007 0 0.0013576666557105642 -0.00025679301334147517 0 0.001377018837798944 -0.00025379971906039069 0 0.0013733058320934545 -0.00024776600657125007 0 0.001377018837798944 -0.00025379971906039069 0 0.0013875798179921401 -0.0002455648705500056 0 0.0012946836841005384 -0.00029520298382326688 0 0.0013124771258768379 -0.00024660610288153431 0 0.0013292511025345046 -0.00026117357203203737 0 0.0013124771258768379 -0.00024660610288153431 0 0.0013586056949806973 -0.00024364699087969696 0 0.0013292511025345046 -0.00026117357203203737 0 0.0012946836841005384 -0.00029520298382326688 0 0.0013292511025345046 -0.00026117357203203737 0 0.0013422723970340097 -0.00027043693874638541 0 0.0013576666557105642 -0.00025679301334147517 0 0.0013292511025345046 -0.00026117357203203737 0 0.0013422723970340097 -0.00027043693874638541 0 0.0012946836841005384 -0.00029520298382326688 0 0.0012766652716703732 -0.00030682236919889335 0 0.00097018008556613259 -0.00037478896608120031 0 0.0012946836841005384 -0.00029520298382326688 0 0.0013422723970340097 -0.00027043693874638541 0 0.0013622341596268954 -0.00027179901994023434 0 0.0012718482322002136 -0.0002938720892201987 0 0.0011757388477195835 -0.00030300754070504155 0 0.0012946836841005384 -0.00029520298382326688 0 0.0013622341596268954 -0.00027179901994023434 0 0.0014118073096681773 -0.0002633428578740104 0 0.0013422723970340097 -0.00027043693874638541 0 0.0013649687544283842 -0.00026332729406957148 0 0.0013622341596268954 -0.00027179901994023434 0 0.0013576666557105642 -0.00025679301334147517 0 0.0013422723970340097 -0.00027043693874638541 0 0.0013649687544283842 -0.00026332729406957148 0 0.001377018837798944 -0.00025379971906039069 0 0.0013649687544283842 -0.00026332729406957148 0 0.0013804485834965133 -0.00026151896095666415 0 0.0013622341596268954 -0.00027179901994023434 0 0.0013884496070423621 -0.00026521532637482957 0 0.0013804485834965133 -0.00026151896095666415 0 0.0013649687544283842 -0.00026332729406957148 0 0.0013622341596268954 -0.00027179901994023434 0 0.0013804485834965133 -0.00026151896095666415 0 0.00097464810073489118 -0.00050618046537969209 0 0.00097463521827356378 -0.00048987255657438871 0 0.000914011045041307 -0.00039597998566253724 0 0.0014880685492029255 -0.00036223711665871617 0 0.0010370058997784231 -0.00028829064393116893 0 0.0014057216933007276 -0.00025687501485901782 0 0.0014103416024001682 -0.0002496623532425119 0 0.0014101351857714228 -0.00025237613322440954 0 0.0014057216933007276 -0.00025687501485901782 0 0.0013953861679884794 -0.00025985989828491838 0 0.001404962714524755 -0.00025276749274906414 0 0.0014057216933007276 -0.00025687501485901782 0 0.001404962714524755 -0.00025276749274906414 0 0.0014103416024001682 -0.0002496623532425119 0 0.0014057216933007276 -0.00025687501485901782 0 0.001407230443617449 -0.00025936130057074792 0 0.0014101351857714228 -0.00025237613322440954 0 0.0013622341596268954 -0.00027179901994023434 0 0.0013884496070423621 -0.00026521532637482957 0 0.0014118073096681773 -0.0002633428578740104 0 0.0014057216933007276 -0.00025687501485901782 0 0.0014002339411810451 -0.00026225890852763666 0 0.001407230443617449 -0.00025936130057074792 0 0.0014002339411810451 -0.00026225890852763666 0 0.0013884496070423621 -0.00026521532637482957 0 0.0014118073096681773 -0.0002633428578740104 0 0.0014057216933007276 -0.00025687501485901782 0 0.0014002339411810451 -0.00026225890852763666 0 0.0013953861679884794 -0.00025985989828491838 0 0.0014002339411810451 -0.00026225890852763666 0 0.0013884496070423621 -0.00026521532637482957 0 0.0013953861679884794 -0.00025985989828491838 0 0.0013953861679884794 -0.00025985989828491838 0 0.0013960420010487808 -0.00025421198388339447 0 0.001404962714524755 -0.00025276749274906414 0 0.0013884496070423621 -0.00026521532637482957 0 0.0013953861679884794 -0.00025985989828491838 0 0.0013804485834965133 -0.00026151896095666415 0 0.0013953861679884794 -0.00025985989828491838 0 0.0013804485834965133 -0.00026151896095666415 0 0.0013960420010487808 -0.00025421198388339447 0 0.001377018837798944 -0.00025379971906039069 0 0.0013804485834965133 -0.00026151896095666415 0 0.0013884171808141992 -0.0002531322494540737 0 0.0013804485834965133 -0.00026151896095666415 0 0.0013884171808141992 -0.0002531322494540737 0 0.0013960420010487808 -0.00025421198388339447 0 0.0013960420010487808 -0.00025421198388339447 0 0.001404962714524755 -0.00025276749274906414 0 0.0014050006896471747 -0.0002469108183900675 0 0.001404962714524755 -0.00025276749274906414 0 0.0014107778687689853 -0.00024653387268797202 0 0.0014103416024001682 -0.0002496623532425119 0 0.001404962714524755 -0.00025276749274906414 0 0.0014107778687689853 -0.00024653387268797202 0 0.0014050006896471747 -0.0002469108183900675 0 0.0014107778687689853 -0.00024653387268797202 0 0.0014102951749544667 -0.00024156487981738192 0 0.0014050006896471747 -0.0002469108183900675 0 0.0014102951749544667 -0.00024156487981738192 0 0.0014050006896471747 -0.0002469108183900675 0 0.0014050430484541551 -0.0002420296172576224 0 0.0014050006896471747 -0.0002469108183900675 0 0.0014050430484541551 -0.0002420296172576224 0 0.0013972988617448909 -0.00024648090348293076 0 0.0014102951749544667 -0.00024156487981738192 0 0.0014050430484541551 -0.0002420296172576224 0 0.001408162932657936 -0.000237225364396167 0 0.0014050430484541551 -0.0002420296172576224 0 0.001408162932657936 -0.000237225364396167 0 0.001401901358392142 -0.00023760999457682593 0 0.0014102951749544667 -0.00024156487981738192 0 0.001408162932657936 -0.000237225364396167 0 0.0014123675655646391 -0.00023645367261355098 0 0.0013884171808141992 -0.0002531322494540737 0 0.0013972988617448909 -0.00024648090348293076 0 0.0013875798179921401 -0.0002455648705500056 0 0.001377018837798944 -0.00025379971906039069 0 0.0013884171808141992 -0.0002531322494540737 0 0.0013875798179921401 -0.0002455648705500056 0 0.0013960420010487808 -0.00025421198388339447 0 0.0014050006896471747 -0.0002469108183900675 0 0.0013972988617448909 -0.00024648090348293076 0 0.0013884171808141992 -0.0002531322494540737 0 0.0013960420010487808 -0.00025421198388339447 0 0.0013972988617448909 -0.00024648090348293076 0 0.0013972988617448909 -0.00024648090348293076 0 0.001401901358392142 -0.00023760999457682593 0 0.0013875798179921401 -0.0002455648705500056 0 0.0014050430484541551 -0.0002420296172576224 0 0.0013972988617448909 -0.00024648090348293076 0 0.001401901358392142 -0.00023760999457682593 0 0.0013791484417928187 -0.00024185325424359814 0 0.0013875798179921401 -0.0002455648705500056 0 0.0013919844623386819 -0.00023588609777099511 0 0.001401901358392142 -0.00023760999457682593 0 0.0013875798179921401 -0.0002455648705500056 0 0.0013919844623386819 -0.00023588609777099511 0 0.0013586056949806973 -0.00024364699087969696 0 0.0013919844623386819 -0.00023588609777099511 0 0.001404818034823467 -0.0002241549413543828 0 0.0013586056949806973 -0.00024364699087969696 0 0.001412202288844776 -0.00021722805080634405 0 0.001404818034823467 -0.0002241549413543828 0 0.0013919844623386819 -0.00023588609777099511 0 0.0014025218305898752 -0.000232139634517039 0 0.001404818034823467 -0.0002241549413543828 0 0.001401901358392142 -0.00023760999457682593 0 0.0013919844623386819 -0.00023588609777099511 0 0.0014025218305898752 -0.000232139634517039 0 0.001401901358392142 -0.00023760999457682593 0 0.0014025218305898752 -0.000232139634517039 0 0.0014078118884430443 -0.00023229375194837909 0 0.0014094944471836777 -0.00022691088724121074 0 0.001404818034823467 -0.0002241549413543828 0 0.0014078118884430443 -0.00023229375194837909 0 0.0014025218305898752 -0.000232139634517039 0 0.001404818034823467 -0.0002241549413543828 0 0.0014078118884430443 -0.00023229375194837909 0 0.0027293652254512689 -0.0003624899892150519 0 0.0025828036615871673 -0.00043172567994305416 0 0.0014094944471836777 -0.00022691088724121074 0 0.0014123675655646391 -0.00023645367261355098 0 0.0014164556204560935 -0.00023646401323106715 0 0.001408162932657936 -0.000237225364396167 0 0.0014123675655646391 -0.00023645367261355098 0 0.0014078118884430443 -0.00023229375194837909 0 0.0014094944471836777 -0.00022691088724121074 0 0.0014123675655646391 -0.00023645367261355098 0 0.0014078118884430443 -0.00023229375194837909 0 0.001408162932657936 -0.000237225364396167 0 0.001401901358392142 -0.00023760999457682593 0 0.0014078118884430443 -0.00023229375194837909 0 0.0014246202335270893 -0.00024115053663838326 0 0.0014094944471836777 -0.00022691088724121074 0 0.0014164556204560935 -0.00023646401323106715 0 0.0014246202335270893 -0.00024115053663838326 0 0.0014164556204560935 -0.00023646401323106715 0 0.0014185816658459078 -0.00023941051125449264 0 0.0014185816658459078 -0.00023941051125449264 0 0.0014155538289655786 -0.00024123875074944827 0 0.0014136202817687546 -0.00023806526220424232 0 0.0014107778687689853 -0.00024653387268797202 0 0.0014102951749544667 -0.00024156487981738192 0 0.0014155538289655786 -0.00024123875074944827 0 0.0014164556204560935 -0.00023646401323106715 0 0.0014185816658459078 -0.00023941051125449264 0 0.0014155538289655786 -0.00024123875074944827 0 0.0014102951749544667 -0.00024156487981738192 0 0.0014123675655646391 -0.00023645367261355098 0 0.0014155538289655786 -0.00024123875074944827 0 0.0014123675655646391 -0.00023645367261355098 0 0.0014164556204560935 -0.00023646401323106715 0 0.0014155538289655786 -0.00024123875074944827 0 0.001414925412740355 -0.00023907236051335474 0 0.0014136202817687546 -0.00023806526220424232 0 0.0014064448567843316 -0.00023011010776739766 0 0.0014246202335270893 -0.00024115053663838326 0 0.0014185816658459078 -0.00023941051125449264 0 0.001414925412740355 -0.00023907236051335474 0 0.0014185816658459078 -0.00023941051125449264 0 0.001414925412740355 -0.00023907236051335474 0 0.0014136202817687546 -0.00023806526220424232 0 0.0014136202817687546 -0.00023806526220424232 0 0.0014030303309010169 -0.00022963520238084153 0 0.0014064448567843316 -0.00023011010776739766 0 0.0014030303309010169 -0.00022963520238084153 0 0.0014106694566083247 -0.00023845300927877763 0 0.0014080571983576065 -0.00023424917279650032 0 0.0014136202817687546 -0.00023806526220424232 0 0.0014030303309010169 -0.00022963520238084153 0 0.0014106694566083247 -0.00023845300927877763 0 0.0014107778687689853 -0.00024653387268797202 0 0.0014155538289655786 -0.00024123875074944827 0 0.001413107631287871 -0.00024342505711675636 0 0.0014107778687689853 -0.00024653387268797202 0 0.001413107631287871 -0.00024342505711675636 0 0.0014103416024001682 -0.0002496623532425119 0 0.0014136202817687546 -0.00023806526220424232 0 0.001413107631287871 -0.00024342505711675636 0 0.0014106694566083247 -0.00023845300927877763 0 0.0014155538289655786 -0.00024123875074944827 0 0.0014136202817687546 -0.00023806526220424232 0 0.001413107631287871 -0.00024342505711675636 0 0.001413107631287871 -0.00024342505711675636 0 0.0014106694566083247 -0.00023845300927877763 0 0.0014115396247601133 -0.00024380730842436126 0 0.0014106694566083247 -0.00023845300927877763 0 0.0014115396247601133 -0.00024380730842436126 0 0.0014080571983576065 -0.00023424917279650032 0 0.0014115396247601133 -0.00024380730842436126 0 0.0014103416024001682 -0.0002496623532425119 0 0.0014101351857714228 -0.00025237613322440954 0 0.001413107631287871 -0.00024342505711675636 0 0.0014115396247601133 -0.00024380730842436126 0 0.0014103416024001682 -0.0002496623532425119 0 0.0014117382188967411 -0.00023847694494556979 0 0.0014133909980950173 -0.00022409741284337611 0 0.0014118073096681773 -0.0002633428578740104 0 0.0014133909980950173 -0.00022409741284337611 0 0.0014197627103679374 -0.00019899353151825948 0 0.0014118073096681773 -0.0002633428578740104 0 0.0014115396247601133 -0.00024380730842436126 0 0.0014117382188967411 -0.00023847694494556979 0 0.0014101351857714228 -0.00025237613322440954 0 0.0014115396247601133 -0.00024380730842436126 0 0.0014117382188967411 -0.00023847694494556979 0 0.0014080571983576065 -0.00023424917279650032 0 0.0014117382188967411 -0.00023847694494556979 0 0.0014080571983576065 -0.00023424917279650032 0 0.0014033031841105686 -0.0002229208932125239 0 0.0014117382188967411 -0.00023847694494556979 0 0.0014133909980950173 -0.00022409741284337611 0 0.0014033031841105686 -0.0002229208932125239 0 0.0014133909980950173 -0.00022409741284337611 0 0.0014033031841105686 -0.0002229208932125239 0 0.0014014465279043888 -0.00020523689546480124 0 0.0014030303309010169 -0.00022963520238084153 0 0.0014033031841105686 -0.0002229208932125239 0 0.0013818234360798228 -0.00021412801365786114 0 0.0014030303309010169 -0.00022963520238084153 0 0.0014080571983576065 -0.00023424917279650032 0 0.0014033031841105686 -0.0002229208932125239 0 0.0014033031841105686 -0.0002229208932125239 0 0.0013818234360798228 -0.00021412801365786114 0 0.0014014465279043888 -0.00020523689546480124 0 0.0013818234360798228 -0.00021412801365786114 0 0.0014014465279043888 -0.00020523689546480124 0 0.0013839718372346951 -0.00017152770104508734 0 0.0014014465279043888 -0.00020523689546480124 0 0.0013839718372346951 -0.00017152770104508734 0 0.0014197627103679374 -0.00019899353151825948 0 0.0013818234360798228 -0.00021412801365786114 0 0.0013839718372346951 -0.00017152770104508734 0 0.0013373438058478545 -0.00016184448100382262 0 0.0014133909980950173 -0.00022409741284337611 0 0.0014014465279043888 -0.00020523689546480124 0 0.0014197627103679374 -0.00019899353151825948 0 0.00068956642687244447 -0.00017352126670703154 0 0.00055364911179834415 -0.00024146972612330364 0 0.00097018008556613259 -0.00037478896608120031 0 0.00066987480123833229 -0.00018853156087324948 0 0.00084994517451638676 -0.0002307741343839695 0 0.00077801061861863243 -7.9532303313883325e-05 0 0.00070749103593541933 -0.00019070951119779921 0 0.00087790231103252402 -0.00033282175308279048 0 0.00066987480123833229 -0.00018853156087324948 0 0.00084994517451638676 -0.0002307741343839695 0 0.00081572179227873442 -0.00034430942477374672 0 0.00090379948575650191 -0.00010480531124305297 0 0.00090316038592538873 -0.00027696741070340573 0 0.00081749925571142389 -0.0001749399113825692 0 0.00082698509089497397 -0.00020554477710950576 0 0.0010370058997784231 -0.00028829064393116893 0 0.00097464810073489118 -0.00050618046537969209 0 0.00081572179227873442 -0.00034430942477374672 0 0.000914011045041307 -0.00039597998566253724 0 0.0014346333977863605 -0.00033711344781178689 0 0.00087790231103252402 -0.00033282175308279048 0 0.00090316038592538873 -0.00027696741070340573 0 0.00081749925571142389 -0.0001749399113825692 0 0.00087063262826903411 -0.00029145674609336178 0 0.00084994517451638676 -0.0002307741343839695 0 0.00081572179227873442 -0.00034430942477374672 0 0.00092733037070049772 -0.00038985856744126952 0 0.0012766652716703732 -0.00030682236919889335 0 0.0010196071164697885 -0.00032670955316174683 0 0.00097018008556613259 -0.00037478896608120031 0 0.00081572179227873442 -0.00034430942477374672 0 0.00092733037070049772 -0.00038985856744126952 0 0.000914011045041307 -0.00039597998566253724 0 0.00097463521827356378 -0.00048987255657438871 0 0.00092788567839058658 -0.00038979604252313869 0 0.000914011045041307 -0.00039597998566253724 0 0.00134923675080404 -0.00019491389033004402 0 0.0010370058997784231 -0.00028829064393116893 0 0.0010370058997784231 -0.00028829064393116893 0 0.0010231578562556556 -0.00029589719457697919 0 0.0010067333135712698 -0.0002154833631014292 0 0.0011757388477195835 -0.00030300754070504155 0 0.00068956642687244447 -0.00017352126670703154 0 0.0010196071164697885 -0.00032670955316174683 0 0.00097018008556613259 -0.00037478896608120031 0 0.0014117382188967411 -0.00023847694494556979 0 0.0014118073096681773 -0.0002633428578740104 0 0.0014101351857714228 -0.00025237613322440954 0 0.0014002339411810451 -0.00026225890852763666 0 0.0014118073096681773 -0.0002633428578740104 0 0.001407230443617449 -0.00025936130057074792 0 0.0014118073096681773 -0.0002633428578740104 0 0.001407230443617449 -0.00025936130057074792 0 0.0014101351857714228 -0.00025237613322440954 0 0.0012814775440614728 -0.00021326249574914571 0 0.0012419396599978904 -0.00014922392122809398 0 0.001195927828884665 -0.00016086472094604861 0 0.0013535473011856355 -0.00020643224048696416 0 0.0013464765319824109 -0.00025226654896248551 0 0.0013763934612080681 -0.00023592566730813269 0 0.0013535473011856355 -0.00020643224048696416 0 0.0013464765319824109 -0.00025226654896248551 0 0.0012820557433092653 -0.00019153040340259603 0 0.0013535473011856355 -0.00020643224048696416 0 0.0013763934612080681 -0.00023592566730813269 0 0.0013783281881277318 -0.0002168162061807216 0 0.0013169344118331764 -0.00020974864915417068 0 0.0013748113532385843 -0.00021446702523385283 0 0.0012814775440614728 -0.00021326249574914571 0 0.0013783281881277318 -0.0002168162061807216 0 0.001299777127143287 -0.00012326106649235212 0 0.0013783281881277318 -0.0002168162061807216 0 0.0013989910032806223 -0.00023677675161876417 0 0.0013929729668905604 -0.00020989673122441638 0 0.0013908702809755154 -0.00027307279471543828 0 0.0013763934612080681 -0.00023592566730813269 0 0.0013989910032806223 -0.00023677675161876417 0 0.0013763934612080681 -0.00023592566730813269 0 0.0013783281881277318 -0.0002168162061807216 0 0.0013989910032806223 -0.00023677675161876417 0 0.0014126339278127834 -0.00025436405404823283 0 0.001414925412740355 -0.00023907236051335474 0 0.0013989910032806223 -0.00023677675161876417 0 0.001414925412740355 -0.00023907236051335474 0 0.0013989910032806223 -0.00023677675161876417 0 0.0014064448567843316 -0.00023011010776739766 0 0.0013989910032806223 -0.00023677675161876417 0 0.0014064448567843316 -0.00023011010776739766 0 0.0013929729668905604 -0.00020989673122441638 0 0.0014030303309010169 -0.00022963520238084153 0 0.0014064448567843316 -0.00023011010776739766 0 0.0013929729668905604 -0.00020989673122441638 0 0.0014030303309010169 -0.00022963520238084153 0 0.0013818234360798228 -0.00021412801365786114 0 0.0013929729668905604 -0.00020989673122441638 0 0.0013818234360798228 -0.00021412801365786114 0 0.0013929729668905604 -0.00020989673122441638 0 0.0013800919059694845 -0.00017013471670129015 0 0.0013749710758187959 -0.00021140658954012687 0 0.0013153780241038245 -0.00019976278040453551 0 0.0013818234360798228 -0.00021412801365786114 0 0.0013373438058478545 -0.00016184448100382262 0 0.0012555232004943537 -0.00023051537145658271 0 0.0013839718372346951 -0.00017152770104508734 0 0.0013373438058478545 -0.00016184448100382262 0 0.0013584450977732951 -0.00014591415135392372 0 0.0012555232004943537 -0.00023051537145658271 0 0.0011877036603028313 -0.00014613065048030548 0 0.0012600521770703419 -0.0001545405870429011 0 0.0013373438058478545 -0.00016184448100382262 0 0.0012555232004943537 -0.00023051537145658271 0 0.0012600521770703419 -0.0001545405870429011 0 0.0013783281881277318 -0.0002168162061807216 0 0.0013929729668905604 -0.00020989673122441638 0 0.0013800919059694845 -0.00017013471670129015 0 0.0013153780241038245 -0.00019976278040453551 0 0.001212786878918307 -0.00017739583411636911 0 0.0013783281881277318 -0.0002168162061807216 0 0.0013800919059694845 -0.00017013471670129015 0 0.001299777127143287 -0.00012326106649235212 0 0.0012555232004943537 -0.00023051537145658271 0 0.0011352436482277494 -0.00023209496579746264 0 0.0011877036603028313 -0.00014613065048030548 0 0.0011352436482277494 -0.00023209496579746264 0 0.0011168882065488482 -0.000136472627933703 0 0.0011877036603028313 -0.00014613065048030548 0 0.0010765218091757513 -0.00019848579606099515 0 0.0011352436482277494 -0.00023209496579746264 0 0.0011168882065488482 -0.000136472627933703 0 0.0010765218091757513 -0.00019848579606099515 0 0.0011352436482277494 -0.00023209496579746264 0 0.0010202690640212545 -0.00023093641895779752 0 0.0012814775440614728 -0.00021326249574914571 0 0.001299777127143287 -0.00012326106649235212 0 0.0012419396599978904 -0.00014922392122809398 0 0.001212786878918307 -0.00017739583411636911 0 0.0011072424294074658 -0.00016288814003727686 0 0.001299777127143287 -0.00012326106649235212 0 0.0012419396599978904 -0.00014922392122809398 0 0.0011784024940413118 -8.3209214113679771e-05 0 0.00019742997396393188 5.1749218461189834e-05 0 0.0001510926520117779 -2.6306353570024556e-06 0 0.00017554236829401236 -2.7456806478600067e-05 0 0.00019742997396393188 5.1749218461189834e-05 0 0.00017554236829401236 -2.7456806478600067e-05 0 0.00026946277263855328 -2.3411859028664743e-05 0 0.00071637617369881576 -3.2534317688876491e-05 0 0.0007120316458111923 -2.0734158591858963e-05 0 0.00068651442172278315 -3.1837339362088154e-05 0 0.00071637617369881576 -3.2534317688876491e-05 0 0.0007120316458111923 -2.0734158591858963e-05 0 0.00072700721415723275 -2.4604654249714989e-05 0 0.00098936376086129979 -6.7618601085650751e-05 0 0.00058855888599764351 -1.4003582562152447e-05 0 0.00041966872784747516 9.8217435990530393e-06 0 0.00058855888599764351 -1.4003582562152447e-05 0 0.0011168882065488482 -0.000136472627933703 0 0.0011877036603028313 -0.00014613065048030548 0 0.0012239346449130111 -8.7356970838044066e-05 0 0.0011877036603028313 -0.00014613065048030548 0 0.0012239346449130111 -8.7356970838044066e-05 0 0.0012274385839507417 -0.00012784151999580592 0 0.0001510926520117779 -2.6306353570024556e-06 0 0.00013390317401524774 -2.9424594970666679e-05 0 0.00017554236829401236 -2.7456806478600067e-05 0 0.00019742997396393188 5.1749218461189834e-05 0 0.0001510926520117779 -2.6306353570024556e-06 0 0.00012948595178016354 -1.1693256859319953e-06 0 0.0001510926520117779 -2.6306353570024556e-06 0 0.00013357072739633727 -1.2039211297705247e-05 0 0.00012948595178016354 -1.1693256859319953e-06 0 0.0001510926520117779 -2.6306353570024556e-06 0 0.00013357072739633727 -1.2039211297705247e-05 0 0.00013390317401524774 -2.9424594970666679e-05 0 0.00013357072739633727 -1.2039211297705247e-05 0 0.00013263370584867595 -1.9191567147997067e-05 0 0.00013555533197546398 -1.4159477284546764e-05 0 0.00013357072739633727 -1.2039211297705247e-05 0 0.00013263370584867595 -1.9191567147997067e-05 0 0.00013390317401524774 -2.9424594970666679e-05 0 0.00013263370584867595 -1.9191567147997067e-05 0 0.00013555533197546398 -1.4159477284546764e-05 0 0.00014402820530381752 -1.3908974371285023e-05 0 0.00013263370584867595 -1.9191567147997067e-05 0 0.00014402820530381752 -1.3908974371285023e-05 0 0.00013996678743063572 -2.0730326574630057e-05 0 0.00013555533197546398 -1.4159477284546764e-05 0 0.0001454154349547451 -2.2271700837435866e-05 0 0.00014402820530381752 -1.3908974371285023e-05 0 0.00013357072739633727 -1.2039211297705247e-05 0 0.00013555533197546398 -1.4159477284546764e-05 0 0.00012948595178016354 -1.1693256859319953e-06 0 0.0001685367342023099 -9.9815096215852376e-05 0 0.00058855888599764351 -1.4003582562152447e-05 0 0.00058855888599764351 -1.4003582562152447e-05 0 0.00076061342850350171 -6.3195118377769739e-05 0 0.00013555533197546398 -1.4159477284546764e-05 0 0.0001293407356861626 -1.6446529829963094e-05 0 0.0001454154349547451 -2.2271700837435866e-05 0 0.0012239346449130111 -8.7356970838044066e-05 0 0.0012615392951725868 -0.00012091851831866294 0 0.001300242550285222 -9.7106832733844799e-05 0 0.0012239346449130111 -8.7356970838044066e-05 0 0.0012274385839507417 -0.00012784151999580592 0 0.0012615392951725868 -0.00012091851831866294 0 0.0011877036603028313 -0.00014613065048030548 0 0.0012274385839507417 -0.00012784151999580592 0 0.0012600521770703419 -0.0001545405870429011 0 0.0012274385839507417 -0.00012784151999580592 0 0.0012600521770703419 -0.0001545405870429011 0 0.0012615392951725868 -0.00012091851831866294 0 0.0012600521770703419 -0.0001545405870429011 0 0.0012615392951725868 -0.00012091851831866294 0 0.0012994046328016911 -0.00013333618841000983 0 0.0012615392951725868 -0.00012091851831866294 0 0.001300242550285222 -9.7106832733844799e-05 0 0.0012994046328016911 -0.00013333618841000983 0 0.001300242550285222 -9.7106832733844799e-05 0 0.0013346246639731598 -0.00013202381497133924 0 0.0013682148548740869 -0.00011360562391918148 0 0.00076061342850350171 -6.3195118377769739e-05 0 0.00061021214861247969 -9.8590704157064908e-05 0 0.001300242550285222 -9.7106832733844799e-05 0 0.0012994046328016911 -0.00013333618841000983 0 0.0013346246639731598 -0.00013202381497133924 0 0.0013373438058478545 -0.00016184448100382262 0 0.0012600521770703419 -0.0001545405870429011 0 0.0012994046328016911 -0.00013333618841000983 0 0.0001454154349547451 -2.2271700837435866e-05 0 0.00016369341770251856 -1.5649929049377315e-05 0 0.00017729704052693536 -2.7714080483442694e-05 0 0.0013373438058478545 -0.00016184448100382262 0 0.0012994046328016911 -0.00013333618841000983 0 0.0013346246639731598 -0.00013202381497133924 0 0.0013584450977732951 -0.00014591415135392372 0 0.0013346246639731598 -0.00013202381497133924 0 0.0013682148548740869 -0.00011360562391918148 0 0.0013373438058478545 -0.00016184448100382262 0 0.0013584450977732951 -0.00014591415135392372 0 0.0013346246639731598 -0.00013202381497133924 0 0.00027835584624252943 6.3704485362012177e-05 0 0.00061021214861247969 -9.8590704157064908e-05 0 0.00017171208856367722 -5.3605330432677669e-06 0 0.00016369341770251856 -1.5649929049377315e-05 0 0.00018977696384558205 -7.6779262848641047e-06 0 0.00017171208856367722 -5.3605330432677669e-06 0 0.00015644509418359409 -1.1291825124364816e-05 0 0.00016369341770251856 -1.5649929049377315e-05 0 0.0001454154349547451 -2.2271700837435866e-05 0 0.00015644509418359409 -1.1291825124364816e-05 0 0.00016369341770251856 -1.5649929049377315e-05 0 0.0001454154349547451 -2.2271700837435866e-05 0 0.00015644509418359409 -1.1291825124364816e-05 0 0.00014402820530381752 -1.3908974371285023e-05 0 0.00014402820530381752 -1.3908974371285023e-05 0 0.00015978615168760852 -1.0304652993215857e-05 0 0.00013996678743063572 -2.0730326574630057e-05 0 0.00015644509418359409 -1.1291825124364816e-05 0 0.00014402820530381752 -1.3908974371285023e-05 0 0.00015978615168760852 -1.0304652993215857e-05 0 0.00017171208856367722 -5.3605330432677669e-06 0 0.00015644509418359409 -1.1291825124364816e-05 0 0.00015978615168760852 -1.0304652993215857e-05 0 0.00015101373697100871 -1.9450779063903885e-05 0 0.00013996678743063572 -2.0730326574630057e-05 0 0.00013960198951447307 -2.8543593201880081e-05 0 0.00015978615168760852 -1.0304652993215857e-05 0 0.00015101373697100871 -1.9450779063903885e-05 0 0.00013996678743063572 -2.0730326574630057e-05 0 0.00013996678743063572 -2.0730326574630057e-05 0 0.0001328650354448099 -3.157298532107205e-05 0 0.00013960198951447307 -2.8543593201880081e-05 0 0.00015101373697100871 -1.9450779063903885e-05 0 0.00013960198951447307 -2.8543593201880081e-05 0 0.00014845447206848685 -2.5729512626308431e-05 0 0.00013960198951447307 -2.8543593201880081e-05 0 0.00012634902063990381 -3.8458856990568323e-05 0 0.00013542162211386744 -3.407715101399833e-05 0 0.00012634902063990381 -3.8458856990568323e-05 0 0.00013542162211386744 -3.407715101399833e-05 0 0.00012174118990343368 -3.7989870765172951e-05 0 0.0001328650354448099 -3.157298532107205e-05 0 0.00013960198951447307 -2.8543593201880081e-05 0 0.00012634902063990381 -3.8458856990568323e-05 0 0.0001328650354448099 -3.157298532107205e-05 0 0.00012634902063990381 -3.8458856990568323e-05 0 0.00012589025511518031 -3.6721909464105509e-05 0 0.00012634902063990381 -3.8458856990568323e-05 0 0.00011571762794497697 -5.0473149334327127e-05 0 0.00012589025511518031 -3.6721909464105509e-05 0 0.00011571762794497697 -5.0473149334327127e-05 0 0.00012589025511518031 -3.6721909464105509e-05 0 0.00012706010286770092 -6.3603393799727752e-05 0 0.00012634902063990381 -3.8458856990568323e-05 0 0.00011571762794497697 -5.0473149334327127e-05 0 0.000115322775182718 -4.3723717256816001e-05 0 0.00013996678743063572 -2.0730326574630057e-05 0 0.0001328650354448099 -3.157298532107205e-05 0 0.00012589025511518031 -3.6721909464105509e-05 0 0.00013263370584867595 -1.9191567147997067e-05 0 0.00013996678743063572 -2.0730326574630057e-05 0 0.00012589025511518031 -3.6721909464105509e-05 0 0.00013263370584867595 -1.9191567147997067e-05 0 0.00012589025511518031 -3.6721909464105509e-05 0 0.00013390317401524774 -2.9424594970666679e-05 0 0.00012589025511518031 -3.6721909464105509e-05 0 0.00013390317401524774 -2.9424594970666679e-05 0 0.00012706010286770092 -6.3603393799727752e-05 0 0.00013390317401524774 -2.9424594970666679e-05 0 0.00012706010286770092 -6.3603393799727752e-05 0 0.00017554236829401236 -2.7456806478600067e-05 0 0.00011571762794497697 -5.0473149334327127e-05 0 0.00012706010286770092 -6.3603393799727752e-05 0 9.6486655039721355e-05 -5.5516204825680188e-05 0 0.00012706010286770092 -6.3603393799727752e-05 0 0.00010685407625076979 -7.0964049953661033e-05 0 9.6486655039721355e-05 -5.5516204825680188e-05 0 0.00018206694065811321 -9.4994626314085724e-05 0 0.00010685407625076979 -7.0964049953661033e-05 0 6.4252591017779456e-05 -6.9558315269976413e-05 0 0.00012706010286770092 -6.3603393799727752e-05 0 0.00018206694065811321 -9.4994626314085724e-05 0 0.00010685407625076979 -7.0964049953661033e-05 0 0.00012706010286770092 -6.3603393799727752e-05 0 0.00018206694065811321 -9.4994626314085724e-05 0 0.00017554236829401236 -2.7456806478600067e-05 0 0.00018206694065811321 -9.4994626314085724e-05 0 0.00017554236829401236 -2.7456806478600067e-05 0 0.00026946277263855328 -2.3411859028664743e-05 0 0.00070821885759672003 6.340544097683474e-05 0 0.00077801061861863243 -7.9532303313883325e-05 0 0.00066171101714092935 -3.3879932514309232e-05 0 0.00070821885759672003 6.340544097683474e-05 0 0.00079385531506088146 2.7681520390608851e-05 0 0.00076345535314789473 -5.689904809026741e-05 0 0.00071488525194095579 5.1814472504336603e-05 0 0.00077012111950562623 -6.6308527330838585e-05 0 0.00070821885759672003 6.340544097683474e-05 0 0.00079385531506088146 2.7681520390608851e-05 0 0.00080311926242209385 0.00011903620374316034 0 0.00090663177743366679 7.1523393015647559e-05 0 0.00079385531506088146 2.7681520390608851e-05 0 0.0008368776300358633 -4.792224713625957e-05 0 0.00090663177743366679 7.1523393015647559e-05 0 0.00079385531506088146 2.7681520390608851e-05 0 0.00080311926242209385 0.00011903620374316034 0 0.00090379948575650191 -0.00010480531124305297 0 0.00081749925571142389 -0.0001749399113825692 0 0.0008368776300358633 -4.792224713625957e-05 0 0.00081749925571142389 -0.0001749399113825692 0 0.0008368776300358633 -4.792224713625957e-05 0 0.00076345535314789473 -5.689904809026741e-05 0 0.00079385531506088146 2.7681520390608851e-05 0 0.0008368776300358633 -4.792224713625957e-05 0 0.00076345535314789473 -5.689904809026741e-05 0 0.00082698509089497397 -0.00020554477710950576 0 0.00077012111950562623 -6.6308527330838585e-05 0 0.00090663177743366679 7.1523393015647559e-05 0 0.00090379948575650191 -0.00010480531124305297 0 0.0008368776300358633 -4.792224713625957e-05 0 0.00066987480123833229 -0.00018853156087324948 0 0.00077801061861863243 -7.9532303313883325e-05 0 0.00066171101714092935 -3.3879932514309232e-05 0 0.00068956642687244447 -0.00017352126670703154 0 0.00034232937874248659 3.8281641882641177e-05 0 0.00030266260289644407 -1.6806902546978209e-05 0 0.00068956642687244447 -0.00017352126670703154 0 0.00055364911179834415 -0.00024146972612330364 0 0.00030266260289644407 -1.6806902546978209e-05 0 0.00066987480123833229 -0.00018853156087324948 0 0.00053475411912112661 -4.1336089182989097e-05 0 0.00066171101714092935 -3.3879932514309232e-05 0 0.00070749103593541933 -0.00019070951119779921 0 0.00033440758320688881 -2.0859127746789582e-05 0 0.00055364911179834415 -0.00024146972612330364 0 0.00030266260289644407 -1.6806902546978209e-05 0 0.00027023444711149063 -3.3488568116516018e-05 0 0.00055364911179834415 -0.00024146972612330364 0 0.00020279878393087496 -2.9976764237288307e-05 0 0.00015342691558621247 -3.2973915764262189e-05 0 0.0013839718372346951 -0.00017152770104508734 0 0.0014197627103679374 -0.00019899353151825948 0 0.0013682148548740869 -0.00011360562391918148 0 0.00055364911179834415 -0.00024146972612330364 0 0.00027023444711149063 -3.3488568116516018e-05 0 0.00020279878393087496 -2.9976764237288307e-05 0 0.0010067333135712698 -0.0002154833631014292 0 0.00061021214861247969 -9.8590704157064908e-05 0 0.0013839718372346951 -0.00017152770104508734 0 0.0013584450977732951 -0.00014591415135392372 0 0.0013682148548740869 -0.00011360562391918148 0 0.00033440758320688881 -2.0859127746789582e-05 0 0.00032812526166045829 -2.1060973895426582e-05 0 0.00029289138783102813 1.3274947783936466e-06 0 0.00030266260289644407 -1.6806902546978209e-05 0 0.00023541138454674342 -5.4001999002626374e-06 0 0.00030266260289644407 -1.6806902546978209e-05 0 0.00027023444711149063 -3.3488568116516018e-05 0 0.00023541138454674342 -5.4001999002626374e-06 0 0.00023541138454674342 -5.4001999002626374e-06 0 0.00020279878393087496 -2.9976764237288307e-05 0 0.00018977696384558205 -7.6779262848641047e-06 0 0.00027023444711149063 -3.3488568116516018e-05 0 0.00023541138454674342 -5.4001999002626374e-06 0 0.00020279878393087496 -2.9976764237288307e-05 0 0.00049938433927888424 -8.7718222176425589e-05 0 0.00061021214861247969 -9.8590704157064908e-05 0 0.00016369341770251856 -1.5649929049377315e-05 0 0.00018772149287254677 -2.8904404285505802e-05 0 0.00018977696384558205 -7.6779262848641047e-06 0 0.00020279878393087496 -2.9976764237288307e-05 0 0.00018772149287254677 -2.8904404285505802e-05 0 0.00018977696384558205 -7.6779262848641047e-06 0 0.00017171208856367722 -5.3605330432677669e-06 0 0.00018977696384558205 -7.6779262848641047e-06 0 0.00018861014043232042 8.1988484208372167e-06 0 0.00023541138454674342 -5.4001999002626374e-06 0 0.00018977696384558205 -7.6779262848641047e-06 0 0.00018861014043232042 8.1988484208372167e-06 0 0.00016217835218032244 2.8143753015532529e-05 0 0.00018861014043232042 8.1988484208372167e-06 0 0.00016063121014701267 -4.9414973083237275e-06 0 0.00033440758320688881 -2.0859127746789582e-05 0 0.00022926832209272876 2.991436080596897e-05 0 0.00029289138783102813 1.3274947783936466e-06 0 0.00023541138454674342 -5.4001999002626374e-06 0 0.00018861014043232042 8.1988484208372167e-06 0 0.00018861014043232042 8.1988484208372167e-06 0 0.00016063121014701267 -4.9414973083237275e-06 0 0.00016233515423606744 -1.3688873110790586e-05 0 0.00017171208856367722 -5.3605330432677669e-06 0 0.00015978615168760852 -1.0304652993215857e-05 0 0.00018861014043232042 8.1988484208372167e-06 0 0.00015978615168760852 -1.0304652993215857e-05 0 0.00018861014043232042 8.1988484208372167e-06 0 0.00016233515423606744 -1.3688873110790586e-05 0 0.00053475411912112661 -4.1336089182989097e-05 0 0.00066171101714092935 -3.3879932514309232e-05 0 0.00061840695152354014 6.9726544082790028e-05 0 0.00033440758320688881 -2.0859127746789582e-05 0 0.00038595111700016053 3.8922936778930934e-05 0 0.00016217835218032244 2.8143753015532529e-05 0 0.00016063121014701267 -4.9414973083237275e-06 0 0.00013875540161559645 -1.2480455344562548e-05 0 0.00016063121014701267 -4.9414973083237275e-06 0 0.00013875540161559645 -1.2480455344562548e-05 0 0.00015267965554873855 -1.8309603330517877e-05 0 0.00070821885759672003 6.340544097683474e-05 0 0.00066171101714092935 -3.3879932514309232e-05 0 0.00061840695152354014 6.9726544082790028e-05 0 0.00038595111700016053 3.8922936778930934e-05 0 0.00038375873282438044 2.9381063180505334e-05 0 0.00013875540161559645 -1.2480455344562548e-05 0 0.00014523552368268325 -2.7912877164574814e-05 0 0.00014085833527062496 -3.2334234044165253e-05 0 0.00013875540161559645 -1.2480455344562548e-05 0 0.00014085833527062496 -3.2334234044165253e-05 0 0.000132040455110867 -2.7579549165047361e-05 0 0.00013875540161559645 -1.2480455344562548e-05 0 0.00014523552368268325 -2.7912877164574814e-05 0 0.00015267965554873855 -1.8309603330517877e-05 0 0.00014124222346909848 2.8841723222217005e-05 0 0.00038375873282438044 2.9381063180505334e-05 0 0.00015978615168760852 -1.0304652993215857e-05 0 0.00015101373697100871 -1.9450779063903885e-05 0 0.00016233515423606744 -1.3688873110790586e-05 0 0.00015101373697100871 -1.9450779063903885e-05 0 0.00016233515423606744 -1.3688873110790586e-05 0 0.00014845447206848685 -2.5729512626308431e-05 0 0.00016063121014701267 -4.9414973083237275e-06 0 0.00016233515423606744 -1.3688873110790586e-05 0 0.00015267965554873855 -1.8309603330517877e-05 0 0.00016233515423606744 -1.3688873110790586e-05 0 0.00015267965554873855 -1.8309603330517877e-05 0 0.00014845447206848685 -2.5729512626308431e-05 0 0.00014523552368268325 -2.7912877164574814e-05 0 0.00015267965554873855 -1.8309603330517877e-05 0 0.00014845447206848685 -2.5729512626308431e-05 0 0.00014523552368268325 -2.7912877164574814e-05 0 0.00014845447206848685 -2.5729512626308431e-05 0 0.00014054845006286352 -3.2725439516512828e-05 0 0.00014845447206848685 -2.5729512626308431e-05 0 0.00014054845006286352 -3.2725439516512828e-05 0 0.00013542162211386744 -3.407715101399833e-05 0 0.00013960198951447307 -2.8543593201880081e-05 0 0.00014845447206848685 -2.5729512626308431e-05 0 0.00013542162211386744 -3.407715101399833e-05 0 0.00014054845006286352 -3.2725439516512828e-05 0 0.00014066660832263051 -3.1110516805777947e-05 0 0.00013313133323423229 -3.3438214045960231e-05 0 0.00014054845006286352 -3.2725439516512828e-05 0 0.00013542162211386744 -3.407715101399833e-05 0 0.00013313133323423229 -3.3438214045960231e-05 0 0.00014054845006286352 -3.2725439516512828e-05 0 0.00014085833527062496 -3.2334234044165253e-05 0 0.00014066660832263051 -3.1110516805777947e-05 0 0.00014085833527062496 -3.2334234044165253e-05 0 0.0001447159789551017 -3.1492727327128717e-05 0 0.00014066660832263051 -3.1110516805777947e-05 0 0.00014085833527062496 -3.2334234044165253e-05 0 0.0001447159789551017 -3.1492727327128717e-05 0 0.00014620171739408838 -3.5364558862428363e-05 0 0.00014523552368268325 -2.7912877164574814e-05 0 0.00014054845006286352 -3.2725439516512828e-05 0 0.00014085833527062496 -3.2334234044165253e-05 0 0.0001447159789551017 -3.1492727327128717e-05 0 0.00015164563620544662 -3.1120428024261718e-05 0 0.00014662366225191777 -2.8478941975331698e-05 0 0.00044289531100580488 5.4079857393776638e-05 0 0.00042191923445452251 2.4831977932921532e-05 0 0.00046025448511799401 3.7309325463865437e-05 0 0.00028953419801082528 2.2639800716751057e-06 0 0.00038375873282438044 2.9381063180505334e-05 0 0.0001447159789551017 -3.1492727327128717e-05 0 0.00015164563620544662 -3.1120428024261718e-05 0 0.00014620171739408838 -3.5364558862428363e-05 0 0.00038375873282438044 2.9381063180505334e-05 0 0.00063721837730707832 6.1683960059733995e-05 0 0.00042191923445452251 2.4831977932921532e-05 0 0.00045472318798924893 1.0530647409705419e-05 0 0.00046025448511799401 3.7309325463865437e-05 0 0.00070821885759672003 6.340544097683474e-05 0 0.00069455341313108857 0.00016948151020812079 0 0.00080311926242209385 0.00011903620374316034 0 0.00070821885759672003 6.340544097683474e-05 0 0.00061840695152354014 6.9726544082790028e-05 0 0.00069455341313108857 0.00016948151020812079 0 0.00048890506165122285 -4.3942055151526684e-06 0 0.00045472318798924893 1.0530647409705419e-05 0 0.00046951479260765267 2.0306973544366716e-05 0 0.0007614582895132799 -1.4102903771552403e-05 0 0.00063721837730707832 6.1683960059733995e-05 0 0.00045472318798924893 1.0530647409705419e-05 0 0.00046951479260765267 2.0306973544366716e-05 0 0.00046025448511799401 3.7309325463865437e-05 0 0.00048284006572464567 3.0941968380647786e-05 0 0.00046951479260765267 2.0306973544366716e-05 0 0.00046025448511799401 3.7309325463865437e-05 0 0.00048705392682094658 3.5518579962550858e-05 0 0.00046025448511799401 3.7309325463865437e-05 0 0.00046266848735470597 8.2985429541900196e-05 0 0.00038848303644017939 0.00012113417829538931 0 0.00028893506242266782 2.5397109039145847e-05 0 0.00044289531100580488 5.4079857393776638e-05 0 0.00046025448511799401 3.7309325463865437e-05 0 0.00046266848735470597 8.2985429541900196e-05 0 0.00048284006572464567 3.0941968380647786e-05 0 0.00048705392682094658 3.5518579962550858e-05 0 0.00046025448511799401 3.7309325463865437e-05 0 0.00028953419801082528 2.2639800716751057e-06 0 0.00028893506242266782 2.5397109039145847e-05 0 0.00015164563620544662 -3.1120428024261718e-05 0 0.00015864099563890505 -2.3922016934683747e-05 0 0.00015174875033690995 -2.4764647755422087e-05 0 0.00015864099563890505 -2.3922016934683747e-05 0 0.00015757281895601778 -2.1480546950043034e-05 0 0.00015174875033690995 -2.4764647755422087e-05 0 0.00015757281895601778 -2.1480546950043034e-05 0 0.00015240802097883605 -1.9743474063733111e-05 0 0.00015174875033690995 -2.4764647755422087e-05 0 0.00028893506242266782 2.5397109039145847e-05 0 0.0002632013725822576 2.0004163029887299e-05 0 0.00028893506242266782 2.5397109039145847e-05 0 0.00011994997764235634 5.8855824343044866e-05 0 0.00015879513343901297 -2.3657841977361348e-05 0 0.00015757281895601778 -2.1480546950043034e-05 0 0.00016457501212563728 -1.4104314313679261e-05 0 0.00015757281895601778 -2.1480546950043034e-05 0 0.00015711206048814257 -1.417957351597319e-05 0 0.00015240802097883605 -1.9743474063733111e-05 0 0.00015757281895601778 -2.1480546950043034e-05 0 0.00015711206048814257 -1.417957351597319e-05 0 0.00016457501212563728 -1.4104314313679261e-05 0 0.00015058434440562803 -1.4306366704767936e-05 0 0.00014527436563057002 -2.2978430252652495e-05 0 0.00014197665496360981 -8.7204264880634605e-06 0 0.00015711206048814257 -1.417957351597319e-05 0 0.00015058434440562803 -1.4306366704767936e-05 0 0.00015240802097883605 -1.9743474063733111e-05 0 0.00015058434440562803 -1.4306366704767936e-05 0 0.00015240802097883605 -1.9743474063733111e-05 0 0.00014527436563057002 -2.2978430252652495e-05 0 0.00015240802097883605 -1.9743474063733111e-05 0 0.00014527436563057002 -2.2978430252652495e-05 0 0.00015174875033690995 -2.4764647755422087e-05 0 0.00014527436563057002 -2.2978430252652495e-05 0 0.00015174875033690995 -2.4764647755422087e-05 0 0.00014662366225191777 -2.8478941975331698e-05 0 0.00015164563620544662 -3.1120428024261718e-05 0 0.00015174875033690995 -2.4764647755422087e-05 0 0.00014662366225191777 -2.8478941975331698e-05 0 0.0001447159789551017 -3.1492727327128717e-05 0 0.00014662366225191777 -2.8478941975331698e-05 0 0.00014066660832263051 -3.1110516805777947e-05 0 0.00014527436563057002 -2.2978430252652495e-05 0 0.00014662366225191777 -2.8478941975331698e-05 0 0.00014066660832263051 -3.1110516805777947e-05 0 0.00014527436563057002 -2.2978430252652495e-05 0 0.00014066660832263051 -3.1110516805777947e-05 0 0.00013483274974211118 -2.4075976663566599e-05 0 0.00013313133323423229 -3.3438214045960231e-05 0 0.00013483274974211118 -2.4075976663566599e-05 0 0.00012007574424274463 -2.9591527459998325e-05 0 0.00014066660832263051 -3.1110516805777947e-05 0 0.00013313133323423229 -3.3438214045960231e-05 0 0.00013483274974211118 -2.4075976663566599e-05 0 0.00013542162211386744 -3.407715101399833e-05 0 0.00013313133323423229 -3.3438214045960231e-05 0 0.00012174118990343368 -3.7989870765172951e-05 0 0.00013483274974211118 -2.4075976663566599e-05 0 0.00012042958862941067 -1.0738456279808271e-05 0 0.00012007574424274463 -2.9591527459998325e-05 0 0.00013483274974211118 -2.4075976663566599e-05 0 0.00014197665496360981 -8.7204264880634605e-06 0 0.00012042958862941067 -1.0738456279808271e-05 0 0.00014527436563057002 -2.2978430252652495e-05 0 0.00013483274974211118 -2.4075976663566599e-05 0 0.00014197665496360981 -8.7204264880634605e-06 0 0.00010660731522529414 1.2626607762723654e-05 0 0.00011635609492566686 4.7892471159686996e-07 0 0.00011383536402969542 -4.5621597787555641e-06 0 0.00011635609492566686 4.7892471159686996e-07 0 0.00012042958862941067 -1.0738456279808271e-05 0 0.00011026624859181372 9.227334776309132e-06 0 0.00012238810502481832 9.1775525144119756e-07 0 0.00011905524176256394 -8.6740528113504503e-06 0 0.00010660731522529414 1.2626607762723654e-05 0 0.00011635609492566686 4.7892471159686996e-07 0 0.00012042958862941067 -1.0738456279808271e-05 0 -0.00019042596319664501 -3.9530769816886353e-05 0 -0.00012927836373808827 -1.8793705871931867e-05 0 -0.00014956029609002213 -5.806440806086684e-05 0 -3.8985057741434932e-05 -2.127159954269805e-05 0 -9.7573126525798325e-06 -7.867495461120039e-06 0 0.00011635609492566686 4.7892471159686996e-07 0 0.00011383536402969542 -4.5621597787555641e-06 0 0.00011026624859181372 9.227334776309132e-06 0 0.00010660731522529414 1.2626607762723654e-05 0 0.00011383536402969542 -4.5621597787555641e-06 0 8.8866282702674014e-05 1.7033022501014758e-06 0 0.00011383536402969542 -4.5621597787555641e-06 0 8.8866282702674014e-05 1.7033022501014758e-06 0 6.7694871696377115e-05 -2.1838439181354085e-05 0 8.8866282702674014e-05 1.7033022501014758e-06 0 6.1674941263599689e-05 1.8681765268306379e-05 0 6.7694871696377115e-05 -2.1838439181354085e-05 0 -3.8985057741434932e-05 -2.127159954269805e-05 0 -7.8141226455373099e-05 -3.5527034694401595e-05 0 3.5981489600165531e-05 -2.6821185315473295e-07 0 6.1674941263599689e-05 1.8681765268306379e-05 0 1.4308136422410519e-05 1.7524443842364087e-05 0 3.5981489600165531e-05 -2.6821185315473295e-07 0 6.1674941263599689e-05 1.8681765268306379e-05 0 6.7694871696377115e-05 -2.1838439181354085e-05 0 3.5981489600165531e-05 -2.6821185315473295e-07 0 6.7694871696377115e-05 -2.1838439181354085e-05 0 1.4495813184430867e-05 -1.2671065446678534e-05 0 0.00010818579924988223 6.0928770396952912e-06 0 8.3528970610649718e-05 8.4760833847558735e-06 0 0.00015470357876352564 -6.1193994902565229e-06 0 0.00016014608852086748 -9.5261901262704012e-06 0 0.00016400629164602232 -3.5635366368075851e-06 0 0.00015711206048814257 -1.417957351597319e-05 0 0.00016014608852086748 -9.5261901262704012e-06 0 0.00016457501212563728 -1.4104314313679261e-05 0 0.00015711206048814257 -1.417957351597319e-05 0 0.00015058434440562803 -1.4306366704767936e-05 0 0.00015470357876352564 -6.1193994902565229e-06 0 0.00015711206048814257 -1.417957351597319e-05 0 0.00015470357876352564 -6.1193994902565229e-06 0 0.00016014608852086748 -9.5261901262704012e-06 0 0.00012238810502481832 9.1775525144119756e-07 0 0.00010818579924988223 6.0928770396952912e-06 0 0.00010660731522529414 1.2626607762723654e-05 0 8.8866282702674014e-05 1.7033022501014758e-06 0 6.1674941263599689e-05 1.8681765268306379e-05 0 0.00015058434440562803 -1.4306366704767936e-05 0 0.00014197665496360981 -8.7204264880634605e-06 0 0.00015470357876352564 -6.1193994902565229e-06 0 3.8741946002319693e-05 -4.1669521846894463e-05 0 7.3129327766967414e-05 -5.4203378479829558e-05 0 6.3090896140248549e-05 -4.1386273766741312e-05 0 3.8741946002319693e-05 -4.1669521846894463e-05 0 7.3129327766967414e-05 -5.4203378479829558e-05 0 5.0538100105232842e-05 -5.5805448475609322e-05 0 0.00010685407625076979 -7.0964049953661033e-05 0 7.3129327766967414e-05 -5.4203378479829558e-05 0 5.0538100105232842e-05 -5.5805448475609322e-05 0 0.00010685407625076979 -7.0964049953661033e-05 0 7.3129327766967414e-05 -5.4203378479829558e-05 0 9.6486655039721355e-05 -5.5516204825680188e-05 0 7.3129327766967414e-05 -5.4203378479829558e-05 0 9.6486655039721355e-05 -5.5516204825680188e-05 0 6.3090896140248549e-05 -4.1386273766741312e-05 0 3.8741946002319693e-05 -4.1669521846894463e-05 0 6.3090896140248549e-05 -4.1386273766741312e-05 0 1.9298210666973219e-05 -1.8041940334161616e-05 0 6.3090896140248549e-05 -4.1386273766741312e-05 0 9.5882420626014963e-05 -2.4222018565368792e-05 0 1.9298210666973219e-05 -1.8041940334161616e-05 0 6.3090896140248549e-05 -4.1386273766741312e-05 0 9.5882420626014963e-05 -2.4222018565368792e-05 0 0.00010218857355804022 -3.9725502186550689e-05 0 0.00011571762794497697 -5.0473149334327127e-05 0 9.6486655039721355e-05 -5.5516204825680188e-05 0 0.000115322775182718 -4.3723717256816001e-05 0 9.6486655039721355e-05 -5.5516204825680188e-05 0 6.3090896140248549e-05 -4.1386273766741312e-05 0 0.00010218857355804022 -3.9725502186550689e-05 0 9.6486655039721355e-05 -5.5516204825680188e-05 0 0.00010218857355804022 -3.9725502186550689e-05 0 0.000115322775182718 -4.3723717256816001e-05 0 0.00010218857355804022 -3.9725502186550689e-05 0 0.00012174118990343368 -3.7989870765172951e-05 0 0.00012007574424274463 -2.9591527459998325e-05 0 0.00010218857355804022 -3.9725502186550689e-05 0 0.000115322775182718 -4.3723717256816001e-05 0 0.00012174118990343368 -3.7989870765172951e-05 0 0.00012634902063990381 -3.8458856990568323e-05 0 0.000115322775182718 -4.3723717256816001e-05 0 0.00012174118990343368 -3.7989870765172951e-05 0 0.00013313133323423229 -3.3438214045960231e-05 0 0.00012174118990343368 -3.7989870765172951e-05 0 0.00012007574424274463 -2.9591527459998325e-05 0 0.00012042958862941067 -1.0738456279808271e-05 0 9.5882420626014963e-05 -2.4222018565368792e-05 0 0.00012007574424274463 -2.9591527459998325e-05 0 9.5882420626014963e-05 -2.4222018565368792e-05 0 0.00010218857355804022 -3.9725502186550689e-05 0 0.00012007574424274463 -2.9591527459998325e-05 0 0.00012042958862941067 -1.0738456279808271e-05 0 9.5882420626014963e-05 -2.4222018565368792e-05 0 0.00011026624859181372 9.227334776309132e-06 0 -0.00012927836373808827 -1.8793705871931867e-05 0 -9.2021667784198156e-05 -6.2033322012215185e-05 0 -0.00014956029609002213 -5.806440806086684e-05 0 -0.00012927836373808827 -1.8793705871931867e-05 0 -9.2021667784198156e-05 -6.2033322012215185e-05 0 1.9298210666973219e-05 -1.8041940334161616e-05 0 9.5882420626014963e-05 -2.4222018565368792e-05 0 0.00011026624859181372 9.227334776309132e-06 0 1.9298210666973219e-05 -1.8041940334161616e-05 0 -9.7573126525798325e-06 -7.867495461120039e-06 0 1.5009150129034101e-05 -1.5206983351903145e-05 0 1.9298210666973219e-05 -1.8041940334161616e-05 0 -4.0646459703879404e-05 -6.6637017514371591e-05 0 -1.1678363718292977e-05 -6.0016487166660341e-05 0 -4.0646459703879404e-05 -6.6637017514371591e-05 0 -1.1678363718292977e-05 -6.0016487166660341e-05 0 -3.1387848420332479e-05 -9.4494683293424832e-05 0 -9.2021667784198156e-05 -6.2033322012215185e-05 0 1.9298210666973219e-05 -1.8041940334161616e-05 0 -4.0646459703879404e-05 -6.6637017514371591e-05 0 -1.1678363718292977e-05 -6.0016487166660341e-05 0 -3.1387848420332479e-05 -9.4494683293424832e-05 0 -1.0286912701821763e-06 -6.2447304962005539e-05 0 1.3446144238113887e-05 -4.3785895249594775e-05 0 1.6638791024660849e-05 -4.7117030755075783e-05 0 -1.0286912701821763e-06 -6.2447304962005539e-05 0 -1.1678363718292977e-05 -6.0016487166660341e-05 0 1.3446144238113887e-05 -4.3785895249594775e-05 0 -1.0286912701821763e-06 -6.2447304962005539e-05 0 1.9298210666973219e-05 -1.8041940334161616e-05 0 -1.1678363718292977e-05 -6.0016487166660341e-05 0 1.3446144238113887e-05 -4.3785895249594775e-05 0 3.8741946002319693e-05 -4.1669521846894463e-05 0 1.9298210666973219e-05 -1.8041940334161616e-05 0 1.3446144238113887e-05 -4.3785895249594775e-05 0 3.8741946002319693e-05 -4.1669521846894463e-05 0 1.3446144238113887e-05 -4.3785895249594775e-05 0 1.6638791024660849e-05 -4.7117030755075783e-05 0 -5.7525602439078714e-05 -0.00013065640622432142 0 -3.4063175808869032e-05 -0.00011366796253803157 0 -4.1820217489871608e-05 -0.00013661827159714093 0 -5.7525602439078714e-05 -0.00013065640622432142 0 -3.4063175808869032e-05 -0.00011366796253803157 0 -3.1387848420332479e-05 -9.4494683293424832e-05 0 -5.7525602439078714e-05 -0.00013065640622432142 0 -6.3584480399727058e-05 -0.00015690281663721607 0 -4.1820217489871608e-05 -0.00013661827159714093 0 -3.4063175808869032e-05 -0.00011366796253803157 0 -3.1387848420332479e-05 -9.4494683293424832e-05 0 -1.4374144846154512e-05 -9.1317558116257657e-05 0 -3.1387848420332479e-05 -9.4494683293424832e-05 0 -1.4374144846154512e-05 -9.1317558116257657e-05 0 -1.0286912701821763e-06 -6.2447304962005539e-05 0 -4.0646459703879404e-05 -6.6637017514371591e-05 0 -3.1387848420332479e-05 -9.4494683293424832e-05 0 -7.3686916075167721e-05 -0.00010649696547549749 0 -5.7525602439078714e-05 -0.00013065640622432142 0 -3.1387848420332479e-05 -9.4494683293424832e-05 0 -7.3686916075167721e-05 -0.00010649696547549749 0 -5.7525602439078714e-05 -0.00013065640622432142 0 -7.3686916075167721e-05 -0.00010649696547549749 0 -8.6164873321401399e-05 -0.00014364670764466277 0 -7.3686916075167721e-05 -0.00010649696547549749 0 -0.00011195021662996548 -0.00012715962178649535 0 -0.00013148449086930705 -8.5750672646211107e-05 0 -7.3686916075167721e-05 -0.00010649696547549749 0 -0.00011195021662996548 -0.00012715962178649535 0 -8.6164873321401399e-05 -0.00014364670764466277 0 -9.2021667784198156e-05 -6.2033322012215185e-05 0 -4.0646459703879404e-05 -6.6637017514371591e-05 0 -7.3686916075167721e-05 -0.00010649696547549749 0 -9.2021667784198156e-05 -6.2033322012215185e-05 0 -7.3686916075167721e-05 -0.00010649696547549749 0 -0.00013148449086930705 -8.5750672646211107e-05 0 -9.2021667784198156e-05 -6.2033322012215185e-05 0 -0.00014956029609002213 -5.806440806086684e-05 0 -0.00013148449086930705 -8.5750672646211107e-05 0 -0.00014956029609002213 -5.806440806086684e-05 0 -0.00013148449086930705 -8.5750672646211107e-05 0 -0.00017859597341877661 -7.4022780058586292e-05 0 -0.00013148449086930705 -8.5750672646211107e-05 0 -0.00016560396178930139 -8.7349753734337917e-05 0 -0.00017859597341877661 -7.4022780058586292e-05 0 -0.00011195021662996548 -0.00012715962178649535 0 -0.00013148449086930705 -8.5750672646211107e-05 0 -0.00014814128910759891 -0.00014642748409599305 0 -0.00013485588792260141 -8.5038490353104564e-05 0 -0.0001556692479463391 -0.00011606153389783017 0 -0.0001556692479463391 -0.00011606153389783017 0 -0.00016288285290797232 -0.00013210079340116422 0 -0.00014814128910759891 -0.00014642748409599305 0 -0.00013447926599446654 -0.00016819391373662203 0 -0.0001564393754367968 -0.00017932948064531068 0 -0.00014814128910759891 -0.00014642748409599305 0 -0.00013447926599446654 -0.00016819391373662203 0 -0.00010946279519951183 -0.00015659240278613644 0 -0.00013476167709955484 -0.00018505597104130658 0 -0.0001564393754367968 -0.00017932948064531068 0 -0.00014852515236083355 -0.00019072950945465015 0 -0.00013476167709955484 -0.00018505597104130658 0 -0.00013447926599446654 -0.00016819391373662203 0 -0.0001564393754367968 -0.00017932948064531068 0 -0.00013476167709955484 -0.00018505597104130658 0 -0.00013447926599446654 -0.00016819391373662203 0 -0.00011779520052871555 -0.00017448968333744615 0 -0.00013476167709955484 -0.00018505597104130658 0 -0.00011779520052871555 -0.00017448968333744615 0 -0.00011220146894481125 -0.00018654222367685822 0 -0.00011779520052871555 -0.00017448968333744615 0 -0.00010946279519951183 -0.00015659240278613644 0 -9.5538619608218539e-05 -0.00017438436592268135 0 -0.00011195021662996548 -0.00012715962178649535 0 -0.00010946279519951183 -0.00015659240278613644 0 -8.6164873321401399e-05 -0.00014364670764466277 0 -0.00011195021662996548 -0.00012715962178649535 0 -0.00014814128910759891 -0.00014642748409599305 0 -0.00010946279519951183 -0.00015659240278613644 0 -0.00013447926599446654 -0.00016819391373662203 0 -0.00011779520052871555 -0.00017448968333744615 0 -0.00010946279519951183 -0.00015659240278613644 0 -8.6164873321401399e-05 -0.00014364670764466277 0 -9.5538619608218539e-05 -0.00017438436592268135 0 -7.6504639028207057e-05 -0.00015683200382631153 0 -0.00010946279519951183 -0.00015659240278613644 0 -8.6164873321401399e-05 -0.00014364670764466277 0 -9.5538619608218539e-05 -0.00017438436592268135 0 -5.7525602439078714e-05 -0.00013065640622432142 0 -8.6164873321401399e-05 -0.00014364670764466277 0 -7.6504639028207057e-05 -0.00015683200382631153 0 -0.00011779520052871555 -0.00017448968333744615 0 -0.00011220146894481125 -0.00018654222367685822 0 -9.5538619608218539e-05 -0.00017438436592268135 0 -0.00011220146894481125 -0.00018654222367685822 0 -9.5538619608218539e-05 -0.00017438436592268135 0 -0.00010275154824812215 -0.00019046506104300457 0 -9.5538619608218539e-05 -0.00017438436592268135 0 -9.1239851010842279e-05 -0.00019104616192192156 0 -0.00010275154824812215 -0.00019046506104300457 0 -9.5538619608218539e-05 -0.00017438436592268135 0 -8.0705576071426287e-05 -0.00017591277180380914 0 -9.1239851010842279e-05 -0.00019104616192192156 0 -8.0705576071426287e-05 -0.00017591277180380914 0 -9.1239851010842279e-05 -0.00019104616192192156 0 -8.2923271282523794e-05 -0.00019653493880207809 0 -8.0705576071426287e-05 -0.00017591277180380914 0 -7.0082524415160776e-05 -0.00017654542912619531 0 -8.2923271282523794e-05 -0.00019653493880207809 0 -8.0705576071426287e-05 -0.00017591277180380914 0 -6.3584480399727058e-05 -0.00015690281663721607 0 -7.0082524415160776e-05 -0.00017654542912619531 0 -9.5538619608218539e-05 -0.00017438436592268135 0 -8.0705576071426287e-05 -0.00017591277180380914 0 -7.6504639028207057e-05 -0.00015683200382631153 0 -8.0705576071426287e-05 -0.00017591277180380914 0 -7.6504639028207057e-05 -0.00015683200382631153 0 -6.3584480399727058e-05 -0.00015690281663721607 0 -5.7525602439078714e-05 -0.00013065640622432142 0 -7.6504639028207057e-05 -0.00015683200382631153 0 -6.3584480399727058e-05 -0.00015690281663721607 0 -0.00022613484462574105 -6.2322596561647917e-05 0 -0.00020596957516353249 -6.1380395033307103e-05 0 -0.00020971019963481004 -7.4713830926755273e-05 0 -0.00022613484462574105 -6.2322596561647917e-05 0 -0.00020971019963481004 -7.4713830926755273e-05 0 -0.00023640287179311782 -6.9644580597371517e-05 0 -0.00022613484462574105 -6.2322596561647917e-05 0 -0.00023640287179311782 -6.9644580597371517e-05 0 -0.00024570403550197719 -5.9151317821016917e-05 0 -7.8141226455373099e-05 -3.5527034694401595e-05 0 -0.00012316300531601868 -5.1351480076660646e-05 0 -0.00022613484462574105 -6.2322596561647917e-05 0 -0.00022384896021443844 -4.8859542303004018e-05 0 -0.00024570403550197719 -5.9151317821016917e-05 0 -0.00019042596319664501 -3.9530769816886353e-05 0 -0.00022384896021443844 -4.8859542303004018e-05 0 -0.00020596957516353249 -6.1380395033307103e-05 0 -0.00022613484462574105 -6.2322596561647917e-05 0 -0.00022384896021443844 -4.8859542303004018e-05 0 -0.00020596957516353249 -6.1380395033307103e-05 0 -0.00019042596319664501 -3.9530769816886353e-05 0 -0.00020596957516353249 -6.1380395033307103e-05 0 -0.00017859597341877661 -7.4022780058586292e-05 0 -0.00019042596319664501 -3.9530769816886353e-05 0 -0.00014956029609002213 -5.806440806086684e-05 0 -0.00017859597341877661 -7.4022780058586292e-05 0 -0.00016560396178930139 -8.7349753734337917e-05 0 -0.00017859597341877661 -7.4022780058586292e-05 0 -0.00019154452832785036 -8.4701028487743104e-05 0 -0.00020596957516353249 -6.1380395033307103e-05 0 -0.00017859597341877661 -7.4022780058586292e-05 0 -0.00020971019963481004 -7.4713830926755273e-05 0 -0.00017859597341877661 -7.4022780058586292e-05 0 -0.00020971019963481004 -7.4713830926755273e-05 0 -0.00019154452832785036 -8.4701028487743104e-05 0 -0.00020971019963481004 -7.4713830926755273e-05 0 -0.00019154452832785036 -8.4701028487743104e-05 0 -0.00022122758227040157 -8.1104640331300314e-05 0 -0.00016560396178930139 -8.7349753734337917e-05 0 -0.00019154452832785036 -8.4701028487743104e-05 0 -0.00018152069018021139 -9.3850297470165136e-05 0 -0.00019154452832785036 -8.4701028487743104e-05 0 -0.00018152069018021139 -9.3850297470165136e-05 0 -0.00020445721612677372 -9.3720087873076278e-05 0 -0.00019154452832785036 -8.4701028487743104e-05 0 -0.00020445721612677372 -9.3720087873076278e-05 0 -0.00022122758227040157 -8.1104640331300314e-05 0 -0.00020445721612677372 -9.3720087873076278e-05 0 -0.00022122758227040157 -8.1104640331300314e-05 0 -0.00023738273174923283 -8.6454901480118238e-05 0 -0.00022122758227040157 -8.1104640331300314e-05 0 -0.00023938110969698643 -7.684866674705906e-05 0 -0.00023738273174923283 -8.6454901480118238e-05 0 -0.00020971019963481004 -7.4713830926755273e-05 0 -0.00022122758227040157 -8.1104640331300314e-05 0 -0.00023640287179311782 -6.9644580597371517e-05 0 -0.00022122758227040157 -8.1104640331300314e-05 0 -0.00023640287179311782 -6.9644580597371517e-05 0 -0.00023938110969698643 -7.684866674705906e-05 0 -0.00023640287179311782 -6.9644580597371517e-05 0 -0.00023938110969698643 -7.684866674705906e-05 0 -0.00024766183424973379 -6.9075318873364588e-05 0 -0.00023938110969698643 -7.684866674705906e-05 0 -0.00024766183424973379 -6.9075318873364588e-05 0 -0.0002466532622187703 -7.1502046133558285e-05 0 -0.00024766183424973379 -6.9075318873364588e-05 0 -0.0002466532622187703 -7.1502046133558285e-05 0 -0.00025336664823666263 -6.2860313974549543e-05 0 -0.00025267346437249431 -6.3822645846646549e-05 0 -0.00025602372145132308 -5.8121115075893396e-05 0 -0.00025336664823666263 -6.2860313974549543e-05 0 -0.00024766183424973379 -6.9075318873364588e-05 0 -0.00025267346437249431 -6.3822645846646549e-05 0 -0.00025336664823666263 -6.2860313974549543e-05 0 -0.00024766183424973379 -6.9075318873364588e-05 0 -0.00025267346437249431 -6.3822645846646549e-05 0 -0.00025116791569665761 -6.687732623787423e-05 0 -0.00025267346437249431 -6.3822645846646549e-05 0 -0.00025116791569665761 -6.687732623787423e-05 0 -0.00025196796391055507 -6.1756822040665366e-05 0 -0.00023640287179311782 -6.9644580597371517e-05 0 -0.00024766183424973379 -6.9075318873364588e-05 0 -0.00025116791569665761 -6.687732623787423e-05 0 -0.00023640287179311782 -6.9644580597371517e-05 0 -0.00025116791569665761 -6.687732623787423e-05 0 -0.00024570403550197719 -5.9151317821016917e-05 0 -0.00025116791569665761 -6.687732623787423e-05 0 -0.00024570403550197719 -5.9151317821016917e-05 0 -0.00025074349750656529 -7.2428826223626928e-05 0 -1.3515534578972946e-06 -4.3249190636802783e-05 0 -9.1108755505715168e-05 -6.7098431456259189e-05 0 -2.8382701086165959e-05 -8.3793825464267943e-06 0 -0.00012316300531601868 -5.1351480076660646e-05 0 -0.00017014419559966209 -6.8582584206821769e-05 0 -1.3515534578972946e-06 -4.3249190636802783e-05 0 1.4495813184430867e-05 -1.2671065446678534e-05 0 -2.8382701086165959e-05 -8.3793825464267943e-06 0 6.7694871696377115e-05 -2.1838439181354085e-05 0 -1.3515534578972946e-06 -4.3249190636802783e-05 0 1.4495813184430867e-05 -1.2671065446678534e-05 0 -9.1108755505715168e-05 -6.7098431456259189e-05 0 -0.00018568919020022897 -3.3414117504412202e-05 0 -0.00013831406882612574 6.023571154195582e-06 0 -9.1108755505715168e-05 -6.7098431456259189e-05 0 -2.8382701086165959e-05 -8.3793825464267943e-06 0 -6.8666264713812214e-05 1.0469182851157285e-05 0 -9.1108755505715168e-05 -6.7098431456259189e-05 0 -6.8666264713812214e-05 1.0469182851157285e-05 0 -0.00013831406882612574 6.023571154195582e-06 0 -9.1108755505715168e-05 -6.7098431456259189e-05 0 -0.00021100187960843033 -7.6208930283041206e-05 0 -0.00018568919020022897 -3.3414117504412202e-05 0 -0.00025074349750656529 -7.2428826223626928e-05 0 -0.00023961163594897849 -6.4786682224888113e-05 0 -0.00021100187960843033 -7.6208930283041206e-05 0 -0.00017014419559966209 -6.8582584206821769e-05 0 -0.00020699586834379413 -7.6128547615224122e-05 0 -0.00023961163594897849 -6.4786682224888113e-05 0 -0.00024057531462144346 -6.0410897031752324e-05 0 -0.00022598692579196166 -6.8724529549488665e-05 0 -0.00023961163594897849 -6.4786682224888113e-05 0 -0.00025196796391055507 -6.1756822040665366e-05 0 -0.00024754272234584238 -5.9386692218998705e-05 0 -0.00023961163594897849 -6.4786682224888113e-05 0 -0.00024754272234584238 -5.9386692218998705e-05 0 -0.00024057531462144346 -6.0410897031752324e-05 0 -0.00025074349750656529 -7.2428826223626928e-05 0 -0.00023961163594897849 -6.4786682224888113e-05 0 -0.00025196796391055507 -6.1756822040665366e-05 0 -0.00025116791569665761 -6.687732623787423e-05 0 -0.00025074349750656529 -7.2428826223626928e-05 0 -0.00025196796391055507 -6.1756822040665366e-05 0 -0.00025267346437249431 -6.3822645846646549e-05 0 -0.00025196796391055507 -6.1756822040665366e-05 0 -0.00025602372145132308 -5.8121115075893396e-05 0 -0.00025196796391055507 -6.1756822040665366e-05 0 -0.00025611362512082379 -5.4115399971765505e-05 0 -0.00024754272234584238 -5.9386692218998705e-05 0 -0.00025196796391055507 -6.1756822040665366e-05 0 -0.00025611362512082379 -5.4115399971765505e-05 0 -0.00025602372145132308 -5.8121115075893396e-05 0 -0.00025611362512082379 -5.4115399971765505e-05 0 -0.00024754272234584238 -5.9386692218998705e-05 0 -0.00025372208241761858 -5.058994068424316e-05 0 -0.00024754272234584238 -5.9386692218998705e-05 0 -0.00024057531462144346 -6.0410897031752324e-05 0 -0.00025372208241761858 -5.058994068424316e-05 0 -0.00024057531462144346 -6.0410897031752324e-05 0 -0.00024407428532232617 -5.4891232056147959e-05 0 -0.00025372208241761858 -5.058994068424316e-05 0 -0.00024057531462144346 -6.0410897031752324e-05 0 -0.0002334826627606443 -6.4094447838259057e-05 0 -0.00022598692579196166 -6.8724529549488665e-05 0 -0.00024057531462144346 -6.0410897031752324e-05 0 -0.0002334826627606443 -6.4094447838259057e-05 0 -0.00024407428532232617 -5.4891232056147959e-05 0 -0.0002334826627606443 -6.4094447838259057e-05 0 -0.00024407428532232617 -5.4891232056147959e-05 0 -0.00023784836656003848 -5.7212676755432422e-05 0 -0.00024407428532232617 -5.4891232056147959e-05 0 -0.00023784836656003848 -5.7212676755432422e-05 0 -0.0002438979799582253 -5.0206718557514102e-05 0 -0.00019049682963854595 -8.2473663504722242e-05 0 -0.00017794158663540853 -9.2183947325375583e-05 0 -0.00016962520884574871 -0.00014254130707747702 0 -0.0002334826627606443 -6.4094447838259057e-05 0 -0.00023784836656003848 -5.7212676755432422e-05 0 -0.00023098167765635852 -5.8914988898370538e-05 0 -0.0002334826627606443 -6.4094447838259057e-05 0 -0.00023098167765635852 -5.8914988898370538e-05 0 -0.00022749584664784821 -7.2997768833360684e-05 0 -0.00023784836656003848 -5.7212676755432422e-05 0 -0.00023098167765635852 -5.8914988898370538e-05 0 -0.0002438979799582253 -5.0206718557514102e-05 0 7.9714999733270794e-05 8.4342210532600566e-06 0 0.00022464963925208079 3.098356441413366e-05 0 0.00016756356457501992 2.2903597969648705e-05 0 -7.2240239420958143e-05 -3.1808728110390052e-05 0 0.00019786975227781118 -6.2489343327596446e-05 0 -0.0002649945154825579 -7.7909742381971451e-05 0 0.00019786975227781118 -6.2489343327596446e-05 0 -0.0002334826627606443 -6.4094447838259057e-05 0 -0.00022749584664784821 -7.2997768833360684e-05 0 -0.00022598692579196166 -6.8724529549488665e-05 0 -0.00022749584664784821 -7.2997768833360684e-05 0 -0.00022598692579196166 -6.8724529549488665e-05 0 -0.00021100187960843033 -7.6208930283041206e-05 0 -0.00023961163594897849 -6.4786682224888113e-05 0 -0.00022598692579196166 -6.8724529549488665e-05 0 -0.00021100187960843033 -7.6208930283041206e-05 0 4.0679870710982923e-05 2.7006317475569192e-08 0 7.6409645451889005e-05 1.0983000374862335e-05 0 -3.3269159292011584e-05 -1.5329966696685373e-06 0 4.0679870710982923e-05 2.7006317475569192e-08 0 7.6409645451889005e-05 1.0983000374862335e-05 0 0.00017594442012944925 1.7627900103873373e-05 0 7.9714999733270794e-05 8.4342210532600566e-06 0 7.6409645451889005e-05 1.0983000374862335e-05 0 -1.1184718023343483e-05 -1.4180322586985673e-06 0 7.6409645451889005e-05 1.0983000374862335e-05 0 -3.3269159292011584e-05 -1.5329966696685373e-06 0 -1.1184718023343483e-05 -1.4180322586985673e-06 0 7.9714999733270794e-05 8.4342210532600566e-06 0 7.6409645451889005e-05 1.0983000374862335e-05 0 0.00016756356457501992 2.2903597969648705e-05 0 0.00022464963925208079 3.098356441413366e-05 0 0.00016756356457501992 2.2903597969648705e-05 0 0.00029762374181248677 2.7294104317206549e-05 0 0.00016756356457501992 2.2903597969648705e-05 0 0.00017594442012944925 1.7627900103873373e-05 0 0.00029762374181248677 2.7294104317206549e-05 0 7.6409645451889005e-05 1.0983000374862335e-05 0 0.00016756356457501992 2.2903597969648705e-05 0 0.00017594442012944925 1.7627900103873373e-05 0 4.0679870710982923e-05 2.7006317475569192e-08 0 0.00017594442012944925 1.7627900103873373e-05 0 0.00032297384554502744 3.057502205962177e-08 0 0.00017594442012944925 1.7627900103873373e-05 0 0.00032297384554502744 3.057502205962177e-08 0 0.00029762374181248677 2.7294104317206549e-05 0 0.00032297384554502744 3.057502205962177e-08 0 0.00029762374181248677 2.7294104317206549e-05 0 0.00060530727251359722 1.1089552129238786e-07 0 0.00029762374181248677 2.7294104317206549e-05 0 0.00040925971396467414 -3.9553433189175517e-06 0 0.00030528339066264291 1.9750637681326101e-05 0 0.00029762374181248677 2.7294104317206549e-05 0 0.00040925971396467414 -3.9553433189175517e-06 0 0.00060530727251359722 1.1089552129238786e-07 0 -0.00021100187960843033 -7.6208930283041206e-05 0 -0.00022608227798127741 -3.4531368268291369e-05 0 -0.00018568919020022897 -3.3414117504412202e-05 0 -0.00022749584664784821 -7.2997768833360684e-05 0 -0.00021100187960843033 -7.6208930283041206e-05 0 -0.00022608227798127741 -3.4531368268291369e-05 0 0.00019786975227781118 -6.2489343327596446e-05 0 0.00066895654659339008 -1.619574975548693e-05 0 0.00019786975227781118 -6.2489343327596446e-05 0 0.00042055386820275925 -3.773854290512704e-05 0 0.00022464963925208079 3.098356441413366e-05 0 0.00029762374181248677 2.7294104317206549e-05 0 0.00030528339066264291 1.9750637681326101e-05 0 0.00099408364260280819 -7.6998813966584507e-05 0 0.0010336703217711262 -4.8355356543382208e-05 0 0.0010231892467868426 -5.2773332264934964e-05 0 0.00066895654659339008 -1.619574975548693e-05 0 0.00085196629974397509 4.1223009899218941e-06 0 0.00040925971396467414 -3.9553433189175517e-06 0 0.00030528339066264291 1.9750637681326101e-05 0 0.00034521015687361852 -4.6830637101333966e-05 0 0.0010336703217711262 -4.8355356543382208e-05 0 0.0010231892467868426 -5.2773332264934964e-05 0 0.0010459375030971683 -3.1551494002378165e-05 0 0.0010336703217711262 -4.8355356543382208e-05 0 0.0010510118082065376 -3.4469231020915388e-05 0 0.0010459375030971683 -3.1551494002378165e-05 0 -0.00022608227798127741 -3.4531368268291369e-05 0 -0.00018568919020022897 -3.3414117504412202e-05 0 -0.00021074226129011155 3.6693833099354425e-05 0 -0.00018568919020022897 -3.3414117504412202e-05 0 -0.00021074226129011155 3.6693833099354425e-05 0 -0.00013831406882612574 6.023571154195582e-06 0 -0.00021074226129011155 3.6693833099354425e-05 0 -0.00013831406882612574 6.023571154195582e-06 0 -0.00015259313634298583 5.2906194155725254e-05 0 0.0010663495400131287 -2.696937406922171e-05 0 0.0010668770383951427 -2.9315448799432106e-05 0 0.0010648012508150931 -5.157736261906797e-05 0 0.0010336703217711262 -4.8355356543382208e-05 0 0.0010510118082065376 -3.4469231020915388e-05 0 0.0010667834971751057 -2.5597139297000024e-05 0 0.0010510118082065376 -3.4469231020915388e-05 0 0.0010559792632383682 -3.23228403664262e-05 0 0.0010667834971751057 -2.5597139297000024e-05 0 0.00042055386820275925 -3.773854290512704e-05 0 0.00042714391926849173 5.3497707918887667e-06 0 0.00095795834002763297 -3.805851544242501e-05 0 0.00085196629974397509 4.1223009899218941e-06 0 0.00085196629974397509 4.1223009899218941e-06 0 0.00093300540168987504 -2.7947029019629587e-05 0 0.0010559792632383682 -3.23228403664262e-05 0 0.0010668770383951427 -2.9315448799432106e-05 0 0.0010667834971751057 -2.5597139297000024e-05 0 0.0010667834971751057 -2.5597139297000024e-05 0 0.0010774907575636337 -1.3759891161786971e-05 0 0.0010653777693463537 -1.8025487868612206e-05 0 0.0010668770383951427 -2.9315448799432106e-05 0 0.0010667834971751057 -2.5597139297000024e-05 0 0.0010774907575636337 -1.3759891161786971e-05 0 -0.00021074226129011155 3.6693833099354425e-05 0 -0.00019183127313204424 0.00011510429399593861 0 -0.00015259313634298583 5.2906194155725254e-05 0 0.00042714391926849173 5.3497707918887667e-06 0 0.0004115381320354914 4.9856191915773534e-05 0 0.00060530727251359722 1.1089552129238786e-07 0 0.0005291848430212892 -6.4242539267117234e-05 0 0.00088719907880992861 -3.3474126822064577e-07 0 0.00040925971396467414 -3.9553433189175517e-06 0 0.00060530727251359722 1.1089552129238786e-07 0 0.0005291848430212892 -6.4242539267117234e-05 0 0.00085196629974397509 4.1223009899218941e-06 0 0.00076461330643960755 -4.025079726735591e-05 0 0.00040925971396467414 -3.9553433189175517e-06 0 0.00034521015687361852 -4.6830637101333966e-05 0 0.0005291848430212892 -6.4242539267117234e-05 0 0.0010668770383951427 -2.9315448799432106e-05 0 0.0010774907575636337 -1.3759891161786971e-05 0 0.0010648012508150931 -5.157736261906797e-05 0 0.0010774907575636337 -1.3759891161786971e-05 0 0.0010648012508150931 -5.157736261906797e-05 0 0.0010705847403357401 -3.6357425317634711e-07 0 0.0010648012508150931 -5.157736261906797e-05 0 0.00088813916398139858 -1.5245028414254518e-07 0 0.0010705847403357401 -3.6357425317634711e-07 0 0.00076461330643960755 -4.025079726735591e-05 0 0.00088760335621311547 -2.3209508863773226e-08 0 0.00088813916398139858 -1.5245028414254518e-07 0 0.0011931382871273504 7.1616441807964038e-08 0 0.0011541303193248716 -9.2417553651779353e-06 0 0.00088813916398139858 -1.5245028414254518e-07 0 0.0010705847403357401 -3.6357425317634711e-07 0 0.0011541303193248716 -9.2417553651779353e-06 0 0.0010774907575636337 -1.3759891161786971e-05 0 0.0010909642773241522 -6.9835723220545257e-06 0 0.0010734021542176358 -2.7711422687965076e-05 0 0.0010705847403357401 -3.6357425317634711e-07 0 0.0010909642773241522 -6.9835723220545257e-06 0 0.0011541303193248716 -9.2417553651779353e-06 0 0.0010774907575636337 -1.3759891161786971e-05 0 0.0010705847403357401 -3.6357425317634711e-07 0 0.0010909642773241522 -6.9835723220545257e-06 0 0.0010909642773241522 -6.9835723220545257e-06 0 0.0011541303193248716 -9.2417553651779353e-06 0 0.0010734021542176358 -2.7711422687965076e-05 0 0.001326114826965814 3.1181791788026561e-05 0 0.0011541303193248716 -9.2417553651779353e-06 0 0.0013723070286209827 -1.6595137805398182e-05 0 0.0011293428973863987 -2.2903797284430869e-05 0 0.0013188792911393093 -3.3010390573748586e-06 0 0.001326114826965814 3.1181791788026561e-05 0 0.0011931382871273504 7.1616441807964038e-08 0 0.0011541303193248716 -9.2417553651779353e-06 0 -0.00019183127313204424 0.00011510429399593861 0 -0.00017268868601641704 0.00019287255363678257 0 -0.00012893046364748019 0.00013975542269674147 0 0.0010774907575636337 -1.3759891161786971e-05 0 0.0010653777693463537 -1.8025487868612206e-05 0 0.0010734021542176358 -2.7711422687965076e-05 0 0.0013934078731600141 2.4096819748327122e-05 0 0.0013723070286209827 -1.6595137805398182e-05 0 0.0014234544248937426 8.6539623657586131e-06 0 0.0013934078731600141 2.4096819748327122e-05 0 0.001326114826965814 3.1181791788026561e-05 0 0.0013723070286209827 -1.6595137805398182e-05 0 0.0010653777693463537 -1.8025487868612206e-05 0 0.0010734021542176358 -2.7711422687965076e-05 0 0.0010596969659795194 -3.0393957315764396e-05 0 0.0013188792911393093 -3.3010390573748586e-06 0 0.0007371577054677632 4.3129655218711298e-05 0 0.0004115381320354914 4.9856191915773534e-05 0 0.0007371577054677632 4.3129655218711298e-05 0 0.00033098184638165491 0.00012248392490919819 0 0.0007371577054677632 4.3129655218711298e-05 0 -0.00011479412019764634 0.00017934326089512082 0 -0.00012893046364748019 0.00013975542269674147 0 -6.8348737687384746e-05 0.00016488855517562579 0 -8.730864833345345e-05 0.00021898972340305523 0 -0.00017268868601641704 0.00019287255363678257 0 -0.00011479412019764634 0.00017934326089512082 0 -0.00017268868601641704 0.00019287255363678257 0 -0.00011479412019764634 0.00017934326089512082 0 -0.00012893046364748019 0.00013975542269674147 0 -0.00019183127313204424 0.00011510429399593861 0 -0.00012893046364748019 0.00013975542269674147 0 -0.00011886994108283224 9.3190687248631302e-05 0 -0.00012893046364748019 0.00013975542269674147 0 -7.8667147603648255e-05 0.00011414573594120811 0 -0.00011886994108283224 9.3190687248631302e-05 0 -0.00012893046364748019 0.00013975542269674147 0 -7.8667147603648255e-05 0.00011414573594120811 0 -6.8348737687384746e-05 0.00016488855517562579 0 -7.8667147603648255e-05 0.00011414573594120811 0 -6.8348737687384746e-05 0.00016488855517562579 0 -3.9198880107468661e-05 0.00011784295693989096 0 -6.8348737687384746e-05 0.00016488855517562579 0 -1.8769805712405153e-05 0.0001506856718210809 0 -3.9198880107468661e-05 0.00011784295693989096 0 -6.8348737687384746e-05 0.00016488855517562579 0 -3.3105067216873739e-05 0.00017409963794507758 0 -1.8769805712405153e-05 0.0001506856718210809 0 -8.730864833345345e-05 0.00021898972340305523 0 -6.8348737687384746e-05 0.00016488855517562579 0 -3.125042480369843e-05 0.00020673054152827854 0 -6.8348737687384746e-05 0.00016488855517562579 0 -3.125042480369843e-05 0.00020673054152827854 0 -3.3105067216873739e-05 0.00017409963794507758 0 -8.730864833345345e-05 0.00021898972340305523 0 -0.00011479412019764634 0.00017934326089512082 0 -6.8348737687384746e-05 0.00016488855517562579 0 -3.125042480369843e-05 0.00020673054152827854 0 -5.4810121772681979e-06 0.00017373152473936757 0 3.7018634045843257e-05 0.00018535244631474597 0 5.177641445604018e-05 0.00018160469527448681 0 6.8834006036034559e-05 0.00019094636285140422 0 3.7018634045843257e-05 0.00018535244631474597 0 -3.125042480369843e-05 0.00020673054152827854 0 -5.4810121772681979e-06 0.00017373152473936757 0 -3.3105067216873739e-05 0.00017409963794507758 0 -3.4175183687058786e-05 0.00021087103338420226 0 5.3351853044187545e-05 0.00018413447501986949 0 -5.4810121772681979e-06 0.00017373152473936757 0 3.7018634045843257e-05 0.00018535244631474597 0 2.0762973092595071e-05 0.00015627358082032281 0 -5.4810121772681979e-06 0.00017373152473936757 0 2.0762973092595071e-05 0.00015627358082032281 0 -1.8769805712405153e-05 0.0001506856718210809 0 -5.4810121772681979e-06 0.00017373152473936757 0 -3.3105067216873739e-05 0.00017409963794507758 0 -1.8769805712405153e-05 0.0001506856718210809 0 0.00023665852290330201 0.00011715623413519149 0 0.00025529889219390084 7.1891446427470911e-05 0 0.00023406183162077415 7.9170279369480501e-05 0 4.5691631514848356e-05 0.0001790835619378927 0 3.7018634045843257e-05 0.00018535244631474597 0 4.6787394411326208e-05 0.00018249485100176009 0 3.7018634045843257e-05 0.00018535244631474597 0 2.0762973092595071e-05 0.00015627358082032281 0 4.6787394411326208e-05 0.00018249485100176009 0 0.00012781877686290726 0.00013603024835597918 0 0.00011994997764235634 5.8855824343044866e-05 0 0.00025529889219390084 7.1891446427470911e-05 0 0.00023406183162077415 7.9170279369480501e-05 0 0.00023173553224215993 4.1100709092625325e-05 0 2.0762973092595071e-05 0.00015627358082032281 0 4.6787394411326208e-05 0.00018249485100176009 0 5.1287226161272251e-05 0.00011153462500791831 0 2.0762973092595071e-05 0.00015627358082032281 0 5.1287226161272251e-05 0.00011153462500791831 0 1.5240130924012905e-07 0.00012446262736349388 0 5.1287226161272251e-05 0.00011153462500791831 0 1.5240130924012905e-07 0.00012446262736349388 0 -1.5771069470312731e-05 8.5934455041351897e-05 0 -1.8769805712405153e-05 0.0001506856718210809 0 1.5240130924012905e-07 0.00012446262736349388 0 -3.9198880107468661e-05 0.00011784295693989096 0 2.0762973092595071e-05 0.00015627358082032281 0 -1.8769805712405153e-05 0.0001506856718210809 0 1.5240130924012905e-07 0.00012446262736349388 0 1.5240130924012905e-07 0.00012446262736349388 0 -3.9198880107468661e-05 0.00011784295693989096 0 -1.5771069470312731e-05 8.5934455041351897e-05 0 -3.9198880107468661e-05 0.00011784295693989096 0 -1.5771069470312731e-05 8.5934455041351897e-05 0 -6.6560332677103272e-05 6.5865899450193993e-05 0 5.1287226161272251e-05 0.00011153462500791831 0 -1.5771069470312731e-05 8.5934455041351897e-05 0 -8.5847331709229559e-06 3.2466911549894246e-05 0 -1.5771069470312731e-05 8.5934455041351897e-05 0 -3.3952437676693054e-05 5.6109489254687302e-05 0 -6.6560332677103272e-05 6.5865899450193993e-05 0 -1.5771069470312731e-05 8.5934455041351897e-05 0 -3.3952437676693054e-05 5.6109489254687302e-05 0 -8.5847331709229559e-06 3.2466911549894246e-05 0 0.00011994997764235634 5.8855824343044866e-05 0 -1.9954066572174625e-05 5.0947965880064581e-05 0 0.00011994997764235634 5.8855824343044866e-05 0 8.3528970610649718e-05 8.4760833847558735e-06 0 5.7374705521562508e-05 0.00011901025199628098 0 3.3678532947811579e-05 3.0306545347001536e-05 0 -8.5847331709229559e-06 3.2466911549894246e-05 0 0.00016014608852086748 -9.5261901262704012e-06 0 0.00016457501212563728 -1.4104314313679261e-05 0 0.00016400629164602232 -3.5635366368075851e-06 0 5.7374705521562508e-05 0.00011901025199628098 0 5.4913210915632155e-05 3.5509527925078715e-05 0 3.3678532947811579e-05 3.0306545347001536e-05 0 3.5981489600165531e-05 -2.6821185315473295e-07 0 1.4308136422410519e-05 1.7524443842364087e-05 0 6.0540404114028666e-07 1.6532018224984117e-05 0 8.3528970610649718e-05 8.4760833847558735e-06 0 2.3356716932278241e-05 1.3092669007944454e-05 0 6.0540404114028666e-07 1.6532018224984117e-05 0 1.4495813184430867e-05 -1.2671065446678534e-05 0 -2.8382701086165959e-05 -8.3793825464267943e-06 0 3.5981489600165531e-05 -2.6821185315473295e-07 0 6.0540404114028666e-07 1.6532018224984117e-05 0 1.4495813184430867e-05 -1.2671065446678534e-05 0 3.3678532947811579e-05 3.0306545347001536e-05 0 -8.5847331709229559e-06 3.2466911549894246e-05 0 -6.8666264713812214e-05 1.0469182851157285e-05 0 2.3356716932278241e-05 1.3092669007944454e-05 0 -6.5805040764717093e-05 1.1941844450729078e-05 0 6.0540404114028666e-07 1.6532018224984117e-05 0 -2.8382701086165959e-05 -8.3793825464267943e-06 0 -6.8666264713812214e-05 1.0469182851157285e-05 0 -3.3952437676693054e-05 5.6109489254687302e-05 0 -8.5847331709229559e-06 3.2466911549894246e-05 0 -6.8666264713812214e-05 1.0469182851157285e-05 0 -6.8666264713812214e-05 1.0469182851157285e-05 0 -0.00013831406882612574 6.023571154195582e-06 0 -0.00010985066549331174 4.5630901575988869e-05 0 -3.3952437676693054e-05 5.6109489254687302e-05 0 -6.8666264713812214e-05 1.0469182851157285e-05 0 -6.6560332677103272e-05 6.5865899450193993e-05 0 -6.8666264713812214e-05 1.0469182851157285e-05 0 -0.00010985066549331174 4.5630901575988869e-05 0 -6.6560332677103272e-05 6.5865899450193993e-05 0 -0.00013831406882612574 6.023571154195582e-06 0 -0.00010985066549331174 4.5630901575988869e-05 0 -0.00015259313634298583 5.2906194155725254e-05 0 -0.00010985066549331174 4.5630901575988869e-05 0 -0.00015259313634298583 5.2906194155725254e-05 0 -0.00011886994108283224 9.3190687248631302e-05 0 -0.00019183127313204424 0.00011510429399593861 0 -0.00015259313634298583 5.2906194155725254e-05 0 -0.00011886994108283224 9.3190687248631302e-05 0 -7.8667147603648255e-05 0.00011414573594120811 0 -0.00011886994108283224 9.3190687248631302e-05 0 -6.6560332677103272e-05 6.5865899450193993e-05 0 -7.8667147603648255e-05 0.00011414573594120811 0 -3.9198880107468661e-05 0.00011784295693989096 0 -6.6560332677103272e-05 6.5865899450193993e-05 0 -0.00010985066549331174 4.5630901575988869e-05 0 -0.00011886994108283224 9.3190687248631302e-05 0 -6.6560332677103272e-05 6.5865899450193993e-05 0 0.0011137438023531971 -0.0004397898892045172 0 0.0012364479625273724 -0.00047962339685094689 0 0.0011255309915364155 -0.0003306774025483025 0 0.0011137438023531971 -0.0004397898892045172 0 0.0012142835164447908 -0.00050712003690944545 0 0.0010126868824608005 -0.00050166153757176567 0 0.0011137438023531971 -0.0004397898892045172 0 0.0012142835164447908 -0.00050712003690944545 0 0.0012364479625273724 -0.00047962339685094689 0 0.0023664339834987978 -0.0002488104680773588 0 0.0024060129004394655 -0.00030883647179762315 0 0.0026328044435300975 -0.00030975161755026438 0 0.0023664339834987978 -0.0002488104680773588 0 0.0026383252453716925 7.8428689110747525e-05 0 0.0026328044435300975 -0.00030975161755026438 0 0.0018783534299394225 -0.00034642733288980341 0 0.0023296850992231702 -0.00022026249572914847 0 0.0014175057700704517 -0.00051761257706271898 0 0.0018783534299394225 -0.00034642733288980341 0 0.0019212891681211271 -0.00037733578606140918 0 0.0019275485465830133 -0.00037037668758671256 0 0.0019316656234073836 -0.00037679617103770704 0 0.0022252048791938542 -0.00027301823186038217 0 0.0018783534299394225 -0.00034642733288980341 0 0.0014175057700704517 -0.00051761257706271898 0 0.0022252048791938542 -0.00027301823186038217 0 0.0011555558665649391 -0.00051854176087473721 0 0.0011467833293294185 -0.0005528077752757557 0 0.0011890902382054934 -0.00057444278938228023 0 0.0011330554369991109 -0.00051843185220081011 0 0.0011555558665649391 -0.00051854176087473721 0 0.0011467833293294185 -0.0005528077752757557 0 0.0018124864159146414 -0.00033152456067285919 0 0.0019123389293629633 -0.00048366023035220916 0 0.0019700976912788229 -0.00033202342620808697 0 0.0018783534299394225 -0.00034642733288980341 0 0.0015290332505405178 -0.00055075795796163301 0 0.0011890902382054934 -0.00057444278938228023 0 0.0011568865010863627 -0.00058234680596932163 0 0.0011766219270599387 -0.00060126584376842841 0 0.0015290332505405178 -0.00055075795796163301 0 0.0013787595232750214 -0.00063724977480781751 0 0.0011467833293294185 -0.0005528077752757557 0 0.0011890902382054934 -0.00057444278938228023 0 0.0011568865010863627 -0.00058234680596932163 0 0.0011467833293294185 -0.0005528077752757557 0 0.0011568865010863627 -0.00058234680596932163 0 0.001131791852031744 -0.0005769926731358045 0 0.0011467833293294185 -0.0005528077752757557 0 0.001131791852031744 -0.0005769926731358045 0 0.0011065695346503793 -0.0005478736206604674 0 0.001136352859640719 -0.00051273618359778982 0 0.0011065695346503793 -0.0005478736206604674 0 0.0010126868824608005 -0.00050166153757176567 0 0.001131791852031744 -0.0005769926731358045 0 0.0011065695346503793 -0.0005478736206604674 0 0.0010972024905106237 -0.00059715780856428309 0 0.0014175057700704517 -0.00051761257706271898 0 0.0011656535798466249 -0.00060723040448532072 0 0.0011330554369991109 -0.00051843185220081011 0 0.0011467833293294185 -0.0005528077752757557 0 0.0011065695346503793 -0.0005478736206604674 0 0.0011065695346503793 -0.0005478736206604674 0 0.0010572007979450326 -0.00057388977506101467 0 0.0010972024905106237 -0.00059715780856428309 0 0.0011065695346503793 -0.0005478736206604674 0 0.0010572007979450326 -0.00057388977506101467 0 0.0010126868824608005 -0.00050166153757176567 0 0.0010572007979450326 -0.00057388977506101467 0 0.0010126868824608005 -0.00050166153757176567 0 0.0010138865737058381 -0.00061743437264156359 0 0.00092925689291383352 -0.00050108782308239878 0 0.0010138865737058381 -0.00061743437264156359 0 0.0008909976941796591 -0.00057199322256239931 0 0.00092925689291383352 -0.00050108782308239878 0 0.0010126868824608005 -0.00050166153757176567 0 0.0010138865737058381 -0.00061743437264156359 0 0.00092925689291383352 -0.00050108782308239878 0 0.00096768551401648186 -0.00038741676735575849 0 0.00087304387892589051 -0.00040552845500498686 0 0.00092925689291383352 -0.00050108782308239878 0 0.0010126868824608005 -0.00050166153757176567 0 0.00096768551401648186 -0.00038741676735575849 0 0.0011137438023531971 -0.0004397898892045172 0 0.0010126868824608005 -0.00050166153757176567 0 0.00096768551401648186 -0.00038741676735575849 0 0.0014175057700704517 -0.00051761257706271898 0 0.00091482098393850988 -0.00050060226519866853 0 0.00096768551401648186 -0.00038741676735575849 0 0.00095556173787869202 -0.00027225029348338243 0 0.0011255309915364155 -0.0003306774025483025 0 0.0011137438023531971 -0.0004397898892045172 0 0.00096768551401648186 -0.00038741676735575849 0 0.0011255309915364155 -0.0003306774025483025 0 0.00096768551401648186 -0.00038741676735575849 0 0.00095556173787869202 -0.00027225029348338243 0 0.00085895421868290587 -0.00031070852771181276 0 0.0031515856738256595 -9.6771857265610128e-05 0 0.0031634541201703177 -8.0205067027997988e-05 0 0.0031446732908967973 -9.6797122667066326e-05 0 0.00095556173787869202 -0.00027225029348338243 0 0.0011255309915364155 -0.0003306774025483025 0 0.0010232250948631839 -0.00020331491862233495 0 0.0021358890821140198 -0.00021974046061897949 0 0.0020818904703577864 -0.00014952341232138581 0 0.0031515856738256595 -9.6771857265610128e-05 0 0.0031730164196415063 -8.7822973341156969e-05 0 0.0031746012257060164 -7.1765016457741909e-05 0 0.0031515856738256595 -9.6771857265610128e-05 0 0.0031746012257060164 -7.1765016457741909e-05 0 0.0031634541201703177 -8.0205067027997988e-05 0 0.0031515856738256595 -9.6771857265610128e-05 0 0.0031670573756702432 -0.00010153052311538884 0 0.0031730164196415063 -8.7822973341156969e-05 0 0.0022252048791938542 -0.00027301823186038217 0 0.0021358890821140198 -0.00021974046061897949 0 0.0031582546513118899 -0.00012332961941884067 0 0.0031515856738256595 -9.6771857265610128e-05 0 0.0031670573756702432 -0.00010153052311538884 0 0.0022252048791938542 -0.00027301823186038217 0 0.0030006322423780088 3.1669581192003057e-05 0 0.0031582546513118899 -0.00012332961941884067 0 0.0031670573756702432 -0.00010153052311538884 0 0.0031875378669134519 -9.844788839576452e-05 0 0.0031670573756702432 -0.00010153052311538884 0 0.0031730164196415063 -8.7822973341156969e-05 0 0.0031875378669134519 -9.844788839576452e-05 0 0.0031730164196415063 -8.7822973341156969e-05 0 0.0031746012257060164 -7.1765016457741909e-05 0 0.0031894480390672391 -7.0596330779500185e-05 0 0.0031730164196415063 -8.7822973341156969e-05 0 0.0031875378669134519 -9.844788839576452e-05 0 0.0031894480390672391 -7.0596330779500185e-05 0 0.0029184723858371345 0.00015293911762962728 0 0.0030651064823085093 0.00014762464619497988 0 0.0027693779205821886 4.7940196547980479e-05 0 0.0026383252453716925 7.8428689110747525e-05 0 0.0029046313902480105 0.00039346158112918655 0 0.0030006322423780088 3.1669581192003057e-05 0 0.0030651064823085093 0.00014762464619497988 0 0.0031875378669134519 -9.844788839576452e-05 0 0.003212061218670867 -6.7225336173502549e-05 0 0.0031894480390672391 -7.0596330779500185e-05 0 0.0029523888494779253 0.00013007190458707603 0 0.0029720129795877625 0.00014229700073051889 0 0.002981702439014763 9.8030988437373029e-05 0 0.0029523888494779253 0.00013007190458707603 0 0.0029467403694447571 0.00010380041149696854 0 0.002981702439014763 9.8030988437373029e-05 0 0.0029523888494779253 0.00013007190458707603 0 0.0029449297546515971 0.00015253957240415431 0 0.0029720129795877625 0.00014229700073051889 0 0.0027693779205821886 4.7940196547980479e-05 0 0.0026383252453716925 7.8428689110747525e-05 0 0.0026328044435300975 -0.00030975161755026438 0 0.0025386838852425649 -0.00010547814980060056 0 0.0026129207676331822 -5.3077134582462328e-05 0 0.002907230599272264 0.00010384268737240876 0 0.0029071208982806318 0.00014841809240967056 0 0.0028409964674399137 0.00010647559359058982 0 0.0021685378446593415 -0.00034651410062659752 0 0.0023870424459498402 -0.00017844708420156839 0 0.0023342199790807997 -0.00029333925489978676 0 0.002907230599272264 0.00010384268737240876 0 0.0029467403694447571 0.00010380041149696854 0 0.0029071208982806318 0.00014841809240967056 0 0.0029523888494779253 0.00013007190458707603 0 0.0029467403694447571 0.00010380041149696854 0 0.0029071208982806318 0.00014841809240967056 0 0.0029523888494779253 0.00013007190458707603 0 0.0029449297546515971 0.00015253957240415431 0 0.0029071208982806318 0.00014841809240967056 0 0.0021685378446593415 -0.00034651410062659752 0 0.0022114840777316147 -0.00040907245946124538 0 0.0021277725485768805 -0.0004558001927757484 0 0.0021685378446593415 -0.00034651410062659752 0 0.0022114840777316147 -0.00040907245946124538 0 0.0022790699635662991 -0.00035582609653392712 0 0.0021685378446593415 -0.00034651410062659752 0 0.0022790699635662991 -0.00035582609653392712 0 0.0023342199790807997 -0.00029333925489978676 0 0.0021685378446593415 -0.00034651410062659752 0 0.0021277725485768805 -0.0004558001927757484 0 0.0020344227453991393 -0.0004842671619133674 0 0.0021280955706734993 -0.00050303135236039707 0 0.0021595158539059831 -0.00051650228709207967 0 0.0021951881707688078 -0.0004692624594534555 0 0.0021277725485768805 -0.0004558001927757484 0 0.0021280955706734993 -0.00050303135236039707 0 0.0021951881707688078 -0.0004692624594534555 0 0.0022114840777316147 -0.00040907245946124538 0 0.0021277725485768805 -0.0004558001927757484 0 0.0021951881707688078 -0.0004692624594534555 0 0.0021277725485768805 -0.0004558001927757484 0 0.0020942407018641205 -0.00049129491694337765 0 0.0021280955706734993 -0.00050303135236039707 0 0.0021277725485768805 -0.0004558001927757484 0 0.0020942407018641205 -0.00049129491694337765 0 0.0020596602425439078 -0.00048486047980473201 0 0.0029449297546515971 0.00015253957240415431 0 0.0029071208982806318 0.00014841809240967056 0 0.002926463348387756 0.00017122946468043997 0 0.0025386838852425649 -0.00010547814980060056 0 0.002461360302006044 -0.00014754228869827692 0 0.0021277725485768805 -0.0004558001927757484 0 0.0020596602425439078 -0.00048486047980473201 0 0.0020344227453991393 -0.0004842671619133674 0 0.0020942407018641205 -0.00049129491694337765 0 0.0020596602425439078 -0.00048486047980473201 0 0.0020650153270888559 -0.00050080790232189974 0 0.0020596602425439078 -0.00048486047980473201 0 0.0020373032552246577 -0.00049342742808580167 0 0.0020650153270888559 -0.00050080790232189974 0 0.0020596602425439078 -0.00048486047980473201 0 0.0020183103710753251 -0.00048116784795484985 0 0.0020373032552246577 -0.00049342742808580167 0 0.002296153541249458 -0.00018902604978213066 0 0.002461360302006044 -0.00014754228869827692 0 0.0020183103710753251 -0.00048116784795484985 0 0.0019852385408122906 -0.0005353276586495437 0 0.0020106405268310872 -0.00051923365120937291 0 0.0020183103710753251 -0.00048116784795484985 0 0.0019852385408122906 -0.0005353276586495437 0 0.0019225778266932271 -0.0005343296388343686 0 0.0019852385408122906 -0.0005353276586495437 0 0.0020145244182820671 -0.00054108001022251878 0 0.0020106405268310872 -0.00051923365120937291 0 0.0019852385408122906 -0.0005353276586495437 0 0.0019642960413858309 -0.00057837935917613617 0 0.0019225778266932271 -0.0005343296388343686 0 0.0019642960413858309 -0.00057837935917613617 0 0.0020053699063565206 -0.00056655534927894339 0 0.0019998511712773798 -0.00059871878431894696 0 0.0019852385408122906 -0.0005353276586495437 0 0.0020053699063565206 -0.00056655534927894339 0 0.0020145244182820671 -0.00054108001022251878 0 0.0019852385408122906 -0.0005353276586495437 0 0.0019642960413858309 -0.00057837935917613617 0 0.0020053699063565206 -0.00056655534927894339 0 0.0020053699063565206 -0.00056655534927894339 0 0.002030554263514468 -0.00055696342383688546 0 0.0020145244182820671 -0.00054108001022251878 0 0.002030554263514468 -0.00055696342383688546 0 0.0020403725176191484 -0.00053636296493647878 0 0.0020145244182820671 -0.00054108001022251878 0 0.0020053699063565206 -0.00056655534927894339 0 0.0020350327566873308 -0.00058109302426144461 0 0.002030554263514468 -0.00055696342383688546 0 0.0020053699063565206 -0.00056655534927894339 0 0.0020350327566873308 -0.00058109302426144461 0 0.0019998511712773798 -0.00059871878431894696 0 0.0020350327566873308 -0.00058109302426144461 0 0.002030554263514468 -0.00055696342383688546 0 0.0020566065557517709 -0.00055821925855035202 0 0.0020403725176191484 -0.00053636296493647878 0 0.0020711789102650906 -0.0005352045368545844 0 0.0020566065557517709 -0.00055821925855035202 0 0.002030554263514468 -0.00055696342383688546 0 0.0020403725176191484 -0.00053636296493647878 0 0.0020566065557517709 -0.00055821925855035202 0 0.0020605113904168535 -0.00052006805328307874 0 0.0020403725176191484 -0.00053636296493647878 0 0.0020711789102650906 -0.0005352045368545844 0 0.0020605113904168535 -0.00052006805328307874 0 0.0020403725176191484 -0.00053636296493647878 0 0.0020404141860889818 -0.00051283302507529977 0 0.0020403725176191484 -0.00053636296493647878 0 0.0020145244182820671 -0.00054108001022251878 0 0.0020246163170002753 -0.0005268069373628269 0 0.0020145244182820671 -0.00054108001022251878 0 0.0020106405268310872 -0.00051923365120937291 0 0.0020246163170002753 -0.0005268069373628269 0 0.0020106405268310872 -0.00051923365120937291 0 0.0020246163170002753 -0.0005268069373628269 0 0.0020258376962962624 -0.00050892323158312203 0 0.0020403725176191484 -0.00053636296493647878 0 0.0020246163170002753 -0.0005268069373628269 0 0.0020404141860889818 -0.00051283302507529977 0 0.0020183103710753251 -0.00048116784795484985 0 0.0020106405268310872 -0.00051923365120937291 0 0.0020258376962962624 -0.00050892323158312203 0 0.0020246163170002753 -0.0005268069373628269 0 0.0020258376962962624 -0.00050892323158312203 0 0.0020404141860889818 -0.00051283302507529977 0 0.0020258376962962624 -0.00050892323158312203 0 0.0020373032552246577 -0.00049342742808580167 0 0.0020404141860889818 -0.00051283302507529977 0 0.0020183103710753251 -0.00048116784795484985 0 0.0020258376962962624 -0.00050892323158312203 0 0.0020373032552246577 -0.00049342742808580167 0 0.0020373032552246577 -0.00049342742808580167 0 0.0020650153270888559 -0.00050080790232189974 0 0.0020404141860889818 -0.00051283302507529977 0 0.0020605113904168535 -0.00052006805328307874 0 0.0020650153270888559 -0.00050080790232189974 0 0.0020404141860889818 -0.00051283302507529977 0 0.0020605113904168535 -0.00052006805328307874 0 0.0020650153270888559 -0.00050080790232189974 0 0.0020870412569869764 -0.00051158164561289441 0 0.0020942407018641205 -0.00049129491694337765 0 0.0020650153270888559 -0.00050080790232189974 0 0.0020870412569869764 -0.00051158164561289441 0 0.0020870412569869764 -0.00051158164561289441 0 0.0020995183744508929 -0.00052784844393886313 0 0.0021280955706734993 -0.00050303135236039707 0 0.0020942407018641205 -0.00049129491694337765 0 0.0020870412569869764 -0.00051158164561289441 0 0.0021280955706734993 -0.00050303135236039707 0 0.0020995183744508929 -0.00052784844393886313 0 0.0020854164689209174 -0.00055082204158385774 0 0.0021194877582774115 -0.00054597113174287976 0 0.0020995183744508929 -0.00052784844393886313 0 0.0020711789102650906 -0.0005352045368545844 0 0.0020854164689209174 -0.00055082204158385774 0 0.0020870412569869764 -0.00051158164561289441 0 0.0020995183744508929 -0.00052784844393886313 0 0.0020711789102650906 -0.0005352045368545844 0 0.0020605113904168535 -0.00052006805328307874 0 0.0020870412569869764 -0.00051158164561289441 0 0.0020711789102650906 -0.0005352045368545844 0 0.0020711789102650906 -0.0005352045368545844 0 0.0020566065557517709 -0.00055821925855035202 0 0.0020854164689209174 -0.00055082204158385774 0 0.0020566065557517709 -0.00055821925855035202 0 0.00207543130270687 -0.00058388484206509811 0 0.0020854164689209174 -0.00055082204158385774 0 0.0020350327566873308 -0.00058109302426144461 0 0.0020566065557517709 -0.00055821925855035202 0 0.00207543130270687 -0.00058388484206509811 0 0.00207543130270687 -0.00058388484206509811 0 0.0020854164689209174 -0.00055082204158385774 0 0.0021194877582774115 -0.00054597113174287976 0 0.00207543130270687 -0.00058388484206509811 0 0.0021194877582774115 -0.00054597113174287976 0 0.0021268330977717432 -0.00058683277588544478 0 0.0021194877582774115 -0.00054597113174287976 0 0.0021559095446566701 -0.0005463753107570363 0 0.0021268330977717432 -0.00058683277588544478 0 0.0021194877582774115 -0.00054597113174287976 0 0.0021595158539059831 -0.00051650228709207967 0 0.0021559095446566701 -0.0005463753107570363 0 0.0021194877582774115 -0.00054597113174287976 0 0.0021280955706734993 -0.00050303135236039707 0 0.0021595158539059831 -0.00051650228709207967 0 0.0020995183744508929 -0.00052784844393886313 0 0.0021194877582774115 -0.00054597113174287976 0 0.0021280955706734993 -0.00050303135236039707 0 0.0023296850992231702 -0.00022026249572914847 0 0.002433153524327211 -0.00015582115327046771 0 0.0029720129795877625 0.00014229700073051889 0 0.0029678067332092979 0.00016349568719274497 0 0.0029514054763638553 0.00016781514135259538 0 0.0029184723858371345 0.00015293911762962728 0 0.0023296850992231702 -0.00022026249572914847 0 0.0029449297546515971 0.00015253957240415431 0 0.002926463348387756 0.00017122946468043997 0 0.0029514054763638553 0.00016781514135259538 0 0.002461360302006044 -0.00014754228869827692 0 0.002433153524327211 -0.00015582115327046771 0 0.0029449297546515971 0.00015253957240415431 0 0.0029720129795877625 0.00014229700073051889 0 0.0029514054763638553 0.00016781514135259538 0 0.0019225778266932271 -0.0005343296388343686 0 0.0018239393063712382 -0.00054455691936733613 0 0.0018721846842293182 -0.00060125610932394702 0 0.0020183103710753251 -0.00048116784795484985 0 0.0018944092801809198 -0.00048204434394812399 0 0.0019225778266932271 -0.0005343296388343686 0 0.0018944092801809198 -0.00048204434394812399 0 0.0019225778266932271 -0.0005343296388343686 0 0.0018239393063712382 -0.00054455691936733613 0 0.0019225778266932271 -0.0005343296388343686 0 0.0018721846842293182 -0.00060125610932394702 0 0.0019248595559781699 -0.00060625901566673337 0 0.0019642960413858309 -0.00057837935917613617 0 0.0019225778266932271 -0.0005343296388343686 0 0.0019248595559781699 -0.00060625901566673337 0 0.0017858925958986929 -0.00048251911894014538 0 0.0018944092801809198 -0.00048204434394812399 0 0.0018239393063712382 -0.00054455691936733613 0 0.0015290332505405178 -0.00055075795796163301 0 0.0023296850992231702 -0.00022026249572914847 0 0.0017544726003994402 -0.00056375904581883684 0 0.0017858925958986929 -0.00048251911894014538 0 0.0018239393063712382 -0.00054455691936733613 0 0.0011857873779862131 -0.00057980612998381927 0 0.0012220920221751544 -0.00064640346732828006 0 0.0011766219270599387 -0.00060126584376842841 0 0.0017544726003994402 -0.00056375904581883684 0 0.0018239393063712382 -0.00054455691936733613 0 0.0018256792327168978 -0.00067274169044225797 0 0.0015290332505405178 -0.00055075795796163301 0 0.0015678319469596079 -0.00067989439956527952 0 0.0018239393063712382 -0.00054455691936733613 0 0.0018256792327168978 -0.00067274169044225797 0 0.0018721846842293182 -0.00060125610932394702 0 0.0012220920221751544 -0.00064640346732828006 0 0.0011766219270599387 -0.00060126584376842841 0 0.0011877443863649835 -0.00063829884577525575 0 0.0018721846842293182 -0.00060125610932394702 0 0.0019248595559781699 -0.00060625901566673337 0 0.0018901748380353053 -0.00065293082131159667 0 0.0019248595559781699 -0.00060625901566673337 0 0.001937030753890455 -0.0006490433828556366 0 0.0019628042026190971 -0.00061542991191067243 0 0.0019248595559781699 -0.00060625901566673337 0 0.001937030753890455 -0.0006490433828556366 0 0.0018901748380353053 -0.00065293082131159667 0 0.001937030753890455 -0.0006490433828556366 0 0.0018901748380353053 -0.00065293082131159667 0 0.001921296674182582 -0.00068610243110488146 0 0.0018256792327168978 -0.00067274169044225797 0 0.0018721846842293182 -0.00060125610932394702 0 0.0018901748380353053 -0.00065293082131159667 0 0.0018256792327168978 -0.00067274169044225797 0 0.0018843955721695015 -0.00069875461171776346 0 0.0018861867957761548 -0.00076475311652074657 0 0.0015678319469596079 -0.00067989439956527952 0 0.0011425247175589075 -0.00075093788579569149 0 0.0018256792327168978 -0.00067274169044225797 0 0.0018901748380353053 -0.00065293082131159667 0 0.0018843955721695015 -0.00069875461171776346 0 0.0018901748380353053 -0.00065293082131159667 0 0.0018843955721695015 -0.00069875461171776346 0 0.001921296674182582 -0.00068610243110488146 0 0.0018843955721695015 -0.00069875461171776346 0 0.001921296674182582 -0.00068610243110488146 0 0.0019098410868302411 -0.00072337832065337874 0 0.001921296674182582 -0.00068610243110488146 0 0.0019098410868302411 -0.00072337832065337874 0 0.0019392900718959193 -0.000717883724796605 0 0.0018843955721695015 -0.00069875461171776346 0 0.0019098410868302411 -0.00072337832065337874 0 0.0018861867957761548 -0.00076475311652074657 0 0.0019098410868302411 -0.00072337832065337874 0 0.0019187411216112476 -0.00074719823509750496 0 0.0018861867957761548 -0.00076475311652074657 0 0.0019098410868302411 -0.00072337832065337874 0 0.0019187411216112476 -0.00074719823509750496 0 0.0019392900718959193 -0.000717883724796605 0 0.0012220920221751544 -0.00064640346732828006 0 0.0011890732274600171 -0.0006766460423124343 0 0.00125860319168184 -0.00070652706850958048 0 0.00046570222892252121 -0.0007760802997414676 0 0.0011425247175589075 -0.00075093788579569149 0 0.0012220920221751544 -0.00064640346732828006 0 0.0011890732274600171 -0.0006766460423124343 0 0.0011877443863649835 -0.00063829884577525575 0 0.0020746598162597546 -0.00064476708021329486 0 0.0020578090506931505 -0.00068679052056778165 0 0.0021067171063327132 -0.00066078427280667469 0 0.0020746598162597546 -0.00064476708021329486 0 0.0020406293118869845 -0.00066886182939870443 0 0.0020578090506931505 -0.00068679052056778165 0 0.0020746598162597546 -0.00064476708021329486 0 0.0020904520059527873 -0.00061349485272213229 0 0.0021123381947270115 -0.00062267054951797201 0 0.0020904520059527873 -0.00061349485272213229 0 0.0021268330977717432 -0.00058683277588544478 0 0.0021123381947270115 -0.00062267054951797201 0 0.00207543130270687 -0.00058388484206509811 0 0.0020904520059527873 -0.00061349485272213229 0 0.0021268330977717432 -0.00058683277588544478 0 0.0020746598162597546 -0.00064476708021329486 0 0.0020904520059527873 -0.00061349485272213229 0 0.0020635376834022331 -0.00061579063490514827 0 0.00207543130270687 -0.00058388484206509811 0 0.0020904520059527873 -0.00061349485272213229 0 0.0020635376834022331 -0.00061579063490514827 0 0.00207543130270687 -0.00058388484206509811 0 0.0020635376834022331 -0.00061579063490514827 0 0.0020349926302968822 -0.00060977963438562375 0 0.0020350327566873308 -0.00058109302426144461 0 0.00207543130270687 -0.00058388484206509811 0 0.0020349926302968822 -0.00060977963438562375 0 0.0020635376834022331 -0.00061579063490514827 0 0.0020349926302968822 -0.00060977963438562375 0 0.0020359640017515359 -0.00064146262303672495 0 0.0020746598162597546 -0.00064476708021329486 0 0.0020635376834022331 -0.00061579063490514827 0 0.0020359640017515359 -0.00064146262303672495 0 0.0020746598162597546 -0.00064476708021329486 0 0.0020359640017515359 -0.00064146262303672495 0 0.0020406293118869845 -0.00066886182939870443 0 0.0020359640017515359 -0.00064146262303672495 0 0.0020406293118869845 -0.00066886182939870443 0 0.0020050784852740579 -0.00067062825695763805 0 0.0020050784852740579 -0.00067062825695763805 0 0.0019936844005466587 -0.00063584843584005638 0 0.0019642548738121671 -0.00067632145042527468 0 0.0020359640017515359 -0.00064146262303672495 0 0.0020050784852740579 -0.00067062825695763805 0 0.0019936844005466587 -0.00063584843584005638 0 0.0020349926302968822 -0.00060977963438562375 0 0.0020359640017515359 -0.00064146262303672495 0 0.0019936844005466587 -0.00063584843584005638 0 0.0020350327566873308 -0.00058109302426144461 0 0.0020349926302968822 -0.00060977963438562375 0 0.0019998511712773798 -0.00059871878431894696 0 0.0020349926302968822 -0.00060977963438562375 0 0.0019936844005466587 -0.00063584843584005638 0 0.0019998511712773798 -0.00059871878431894696 0 0.0019936844005466587 -0.00063584843584005638 0 0.0019998511712773798 -0.00059871878431894696 0 0.0019628042026190971 -0.00061542991191067243 0 0.0019642960413858309 -0.00057837935917613617 0 0.0019998511712773798 -0.00059871878431894696 0 0.0019628042026190971 -0.00061542991191067243 0 0.0019642960413858309 -0.00057837935917613617 0 0.0019248595559781699 -0.00060625901566673337 0 0.0019628042026190971 -0.00061542991191067243 0 0.001937030753890455 -0.0006490433828556366 0 0.0019936844005466587 -0.00063584843584005638 0 0.0019642548738121671 -0.00067632145042527468 0 0.001937030753890455 -0.0006490433828556366 0 0.001921296674182582 -0.00068610243110488146 0 0.0019642548738121671 -0.00067632145042527468 0 0.001937030753890455 -0.0006490433828556366 0 0.0019936844005466587 -0.00063584843584005638 0 0.0019628042026190971 -0.00061542991191067243 0 0.001921296674182582 -0.00068610243110488146 0 0.0019642548738121671 -0.00067632145042527468 0 0.0019392900718959193 -0.000717883724796605 0 0.0019642548738121671 -0.00067632145042527468 0 0.0019392900718959193 -0.000717883724796605 0 0.0019857290329426585 -0.00070562364631796275 0 0.0019392900718959193 -0.000717883724796605 0 0.0019624395602792486 -0.00073316535783108381 0 0.0019857290329426585 -0.00070562364631796275 0 0.0019392900718959193 -0.000717883724796605 0 0.0019624395602792486 -0.00073316535783108381 0 0.0019436867428125764 -0.00075853519487712406 0 0.0019187411216112476 -0.00074719823509750496 0 0.0019392900718959193 -0.000717883724796605 0 0.0019436867428125764 -0.00075853519487712406 0 0.0019624395602792486 -0.00073316535783108381 0 0.0019857290329426585 -0.00070562364631796275 0 0.0019783978108034303 -0.00075061336315643561 0 0.0019857290329426585 -0.00070562364631796275 0 0.0020065688815955442 -0.0007354169053912828 0 0.0019783978108034303 -0.00075061336315643561 0 0.0019624395602792486 -0.00073316535783108381 0 0.0019783978108034303 -0.00075061336315643561 0 0.0019436867428125764 -0.00075853519487712406 0 0.0020050784852740579 -0.00067062825695763805 0 0.0019857290329426585 -0.00070562364631796275 0 0.0020191537967919099 -0.00070242145742618672 0 0.0020050784852740579 -0.00067062825695763805 0 0.0019642548738121671 -0.00067632145042527468 0 0.0019857290329426585 -0.00070562364631796275 0 0.0020406293118869845 -0.00066886182939870443 0 0.0020050784852740579 -0.00067062825695763805 0 0.0020191537967919099 -0.00070242145742618672 0 0.0020406293118869845 -0.00066886182939870443 0 0.0020191537967919099 -0.00070242145742618672 0 0.0020578090506931505 -0.00068679052056778165 0 0.0019857290329426585 -0.00070562364631796275 0 0.0020191537967919099 -0.00070242145742618672 0 0.0020065688815955442 -0.0007354169053912828 0 0.0020065688815955442 -0.0007354169053912828 0 0.0020321099450927999 -0.00073036389752931762 0 0.0019980398492234022 -0.000768083617817974 0 0.0020191537967919099 -0.00070242145742618672 0 0.0020065688815955442 -0.0007354169053912828 0 0.0020321099450927999 -0.00073036389752931762 0 0.0020321099450927999 -0.00073036389752931762 0 0.0020235417700555551 -0.00077830971432473828 0 0.0020741741366276201 -0.00071029743749740867 0 0.0020321099450927999 -0.00073036389752931762 0 0.0020578090506931505 -0.00068679052056778165 0 0.0020741741366276201 -0.00071029743749740867 0 0.0020191537967919099 -0.00070242145742618672 0 0.0020321099450927999 -0.00073036389752931762 0 0.0020578090506931505 -0.00068679052056778165 0 0.0020235417700555551 -0.00077830971432473828 0 0.0019723730383666544 -0.00082330525050720198 0 0.0019740305156135617 -0.00085377463277726859 0 0.0020235417700555551 -0.00077830971432473828 0 0.0019980398492234022 -0.000768083617817974 0 0.0019723730383666544 -0.00082330525050720198 0 0.0020321099450927999 -0.00073036389752931762 0 0.0020235417700555551 -0.00077830971432473828 0 0.0019980398492234022 -0.000768083617817974 0 0.0020065688815955442 -0.0007354169053912828 0 0.0019980398492234022 -0.000768083617817974 0 0.0019783978108034303 -0.00075061336315643561 0 0.0019980398492234022 -0.000768083617817974 0 0.0019580591381999136 -0.00079126705867907864 0 0.0019723730383666544 -0.00082330525050720198 0 0.0019580591381999136 -0.00079126705867907864 0 0.0019339462796128285 -0.00082760886038315933 0 0.0019723730383666544 -0.00082330525050720198 0 0.0019980398492234022 -0.000768083617817974 0 0.0019580591381999136 -0.00079126705867907864 0 0.0019783978108034303 -0.00075061336315643561 0 0.0019580591381999136 -0.00079126705867907864 0 0.0019783978108034303 -0.00075061336315643561 0 0.0019436867428125764 -0.00075853519487712406 0 0.0019261622277268471 -0.00076635074863754373 0 0.0019370164101793355 -0.00078683795876590703 0 0.0019047773283195303 -0.00077235646721253892 0 0.0019580591381999136 -0.00079126705867907864 0 0.0019436867428125764 -0.00075853519487712406 0 0.0019370164101793355 -0.00078683795876590703 0 0.0019187411216112476 -0.00074719823509750496 0 0.0019436867428125764 -0.00075853519487712406 0 0.0019261622277268471 -0.00076635074863754373 0 0.0019436867428125764 -0.00075853519487712406 0 0.0019261622277268471 -0.00076635074863754373 0 0.0019370164101793355 -0.00078683795876590703 0 0.0019580591381999136 -0.00079126705867907864 0 0.0019370164101793355 -0.00078683795876590703 0 0.0019339462796128285 -0.00082760886038315933 0 0.0019370164101793355 -0.00078683795876590703 0 0.0019339462796128285 -0.00082760886038315933 0 0.0019047773283195303 -0.00077235646721253892 0 0.00095848658575027775 -0.00087014092016396481 0 0.0011281823185699501 -0.00099956640383225877 0 0.0019339462796128285 -0.00082760886038315933 0 0.0019723730383666544 -0.00082330525050720198 0 0.0019626769854707918 -0.00085678312958030434 0 3.2929841754878686e-05 -0.00093674678763744281 0 0.00012378464252883013 -0.0010404693961535731 0 -5.8935437560847375e-05 -0.0010084648854169766 0 0.0019723730383666544 -0.00082330525050720198 0 0.0019740305156135617 -0.00085377463277726859 0 0.0019626769854707918 -0.00085678312958030434 0 -5.9207565313201718e-05 -0.00090613782562209619 0 -5.435313638808219e-05 -0.00092124772404325193 0 -6.6058874407595779e-05 -0.00092114911814104806 0 -5.9207565313201718e-05 -0.00090613782562209619 0 -5.435313638808219e-05 -0.00092124772404325193 0 -1.9997433710794856e-05 -0.00090094905399162655 0 -5.435313638808219e-05 -0.00092124772404325193 0 -7.0789687932272524e-05 -0.00094336545548895985 0 -6.6058874407595779e-05 -0.00092114911814104806 0 3.2929841754878686e-05 -0.00093674678763744281 0 -1.9997433710794856e-05 -0.00090094905399162655 0 -4.1112527550502762e-05 -0.00093994021281389108 0 -5.435313638808219e-05 -0.00092124772404325193 0 -1.9997433710794856e-05 -0.00090094905399162655 0 -4.1112527550502762e-05 -0.00093994021281389108 0 0.0019339462796128285 -0.00082760886038315933 0 0.0018858348565060125 -0.0007656557748372308 0 0.0019047773283195303 -0.00077235646721253892 0 0.00095848658575027775 -0.00087014092016396481 0 0.0011425247175589075 -0.00075093788579569149 0 0.0019187411216112476 -0.00074719823509750496 0 0.0019261622277268471 -0.00076635074863754373 0 0.0019047773283195303 -0.00077235646721253892 0 0.0019187411216112476 -0.00074719823509750496 0 0.0018861867957761548 -0.00076475311652074657 0 0.0019047773283195303 -0.00077235646721253892 0 0.0011425247175589075 -0.00075093788579569149 0 0.001530790735740348 -0.00085784293037246791 0 3.2929841754878686e-05 -0.00093674678763744281 0 -4.1112527550502762e-05 -0.00093994021281389108 0 -5.8935437560847375e-05 -0.0010084648854169766 0 -5.435313638808219e-05 -0.00092124772404325193 0 -4.1112527550502762e-05 -0.00093994021281389108 0 -7.0789687932272524e-05 -0.00094336545548895985 0 -0.00021995174954676737 -0.00094181316624402766 0 -5.3671939347280747e-05 -0.00099599218919518948 0 -7.0789687932272524e-05 -0.00094336545548895985 0 -7.7178901285734615e-05 -0.00093725457566077761 0 -5.8935437560847375e-05 -0.0010084648854169766 0 -4.1112527550502762e-05 -0.00093994021281389108 0 -7.0789687932272524e-05 -0.00094336545548895985 0 -5.8935437560847375e-05 -0.0010084648854169766 0 -6.8556257701225972e-05 -0.00092407602590628148 0 -6.4972724939797998e-05 -0.00091586416652409688 0 -6.6058874407595779e-05 -0.00092114911814104806 0 -0.00012288844454041276 -0.00093229353669577783 0 -0.00021995174954676737 -0.00094181316624402766 0 -0.00021995174954676737 -0.00094181316624402766 0 -0.00088144457586871263 -0.0010301031566852792 0 -0.00037924849440480561 -0.00093372076431765016 0 -0.00059480539509790037 -0.00096743609540215581 0 -0.00058696175051881972 -0.00084084569279501678 0 -0.00088144457586871263 -0.0010301031566852792 0 -0.00051612896050269 -0.00089990268363871818 0 -0.00021995174954676737 -0.00094181316624402766 0 -0.00051612896050269 -0.00089990268363871818 0 -6.9735863339696061e-05 -0.00093663677035295051 0 -6.8556257701225972e-05 -0.00092407602590628148 0 -6.6058874407595779e-05 -0.00092114911814104806 0 -7.0789687932272524e-05 -0.00094336545548895985 0 -6.9735863339696061e-05 -0.00093663677035295051 0 -6.6058874407595779e-05 -0.00092114911814104806 0 -0.00071353059725440639 -0.000848568113840895 0 -0.00065549887589274431 -0.00086027749787487111 0 -0.00063379798659431662 -0.00083456700845206178 0 -0.00088144457586871263 -0.0010301031566852792 0 -0.0013988123564429554 -0.0012763663072780883 0 -0.00071353059725440639 -0.000848568113840895 0 -0.00068498290867990584 -0.00087616126746570136 0 -0.00065549887589274431 -0.00086027749787487111 0 -0.00071353059725440639 -0.000848568113840895 0 -0.00071378079640340873 -0.00086433016590569897 0 -0.00068498290867990584 -0.00087616126746570136 0 -0.00051612896050269 -0.00089990268363871818 0 -0.0003909413566700171 -0.00091295223446242774 0 -0.00068498290867990584 -0.00087616126746570136 0 -0.00065549887589274431 -0.00086027749787487111 0 -0.00064304044198997446 -0.00087397003170293028 0 -6.4972724939797998e-05 -0.00091586416652409688 0 -5.4558531638572848e-05 -0.00090526557157180653 0 -6.2547837140278589e-05 -0.0009088968464033997 0 -6.4972724939797998e-05 -0.00091586416652409688 0 -6.2812103559554155e-05 -0.00091152789396775125 0 -5.4558531638572848e-05 -0.00090526557157180653 0 -5.9207565313201718e-05 -0.00090613782562209619 0 -6.2812103559554155e-05 -0.00091152789396775125 0 -6.6058874407595779e-05 -0.00092114911814104806 0 -6.4972724939797998e-05 -0.00091586416652409688 0 -6.2812103559554155e-05 -0.00091152789396775125 0 -6.6058874407595779e-05 -0.00092114911814104806 0 0.0011890732274600171 -0.0006766460423124343 0 0.0011101755422480702 -0.00064835377866997264 0 0.0011612648873773556 -0.00063453016836227606 0 0.00046570222892252121 -0.0007760802997414676 0 0.00054670738277683574 -0.00078873039475409038 0 -5.9207565313201718e-05 -0.00090613782562209619 0 -6.2812103559554155e-05 -0.00091152789396775125 0 -5.8617854739933059e-05 -0.00091933426655511094 0 0.0011890732274600171 -0.0006766460423124343 0 0.0011877443863649835 -0.00063829884577525575 0 0.0011612648873773556 -0.00063453016836227606 0 -6.2812103559554155e-05 -0.00091152789396775125 0 -5.4558531638572848e-05 -0.00090526557157180653 0 -5.8617854739933059e-05 -0.00091933426655511094 0 -5.4558531638572848e-05 -0.00090526557157180653 0 -5.8617854739933059e-05 -0.00091933426655511094 0 -4.0067109710014586e-05 -0.00091856561951512885 0 0.0011101755422480702 -0.00064835377866997264 0 0.0010972024905106237 -0.00059715780856428309 0 0.0010138865737058381 -0.00061743437264156359 0 0.0011101755422480702 -0.00064835377866997264 0 0.0010972024905106237 -0.00059715780856428309 0 0.0011411125193853228 -0.00060539490938056779 0 0.001131791852031744 -0.0005769926731358045 0 0.0010972024905106237 -0.00059715780856428309 0 0.0011411125193853228 -0.00060539490938056779 0 0.0011568865010863627 -0.00058234680596932163 0 0.001131791852031744 -0.0005769926731358045 0 0.0011411125193853228 -0.00060539490938056779 0 0.0011411125193853228 -0.00060539490938056779 0 0.0011766219270599387 -0.00060126584376842841 0 0.0011612648873773556 -0.00063453016836227606 0 0.0011568865010863627 -0.00058234680596932163 0 0.0011411125193853228 -0.00060539490938056779 0 0.0011766219270599387 -0.00060126584376842841 0 0.0011766219270599387 -0.00060126584376842841 0 0.0011877443863649835 -0.00063829884577525575 0 0.0011612648873773556 -0.00063453016836227606 0 0.0011101755422480702 -0.00064835377866997264 0 0.0011411125193853228 -0.00060539490938056779 0 0.0011612648873773556 -0.00063453016836227606 0 -1.8135643644569725e-05 -0.00094372874117606867 0 8.580537456251156e-06 -0.00092011151144955592 0 3.8107320790069475e-05 -0.00096249231505494558 0 0.00048934597211569629 -0.0007911600002832314 0 0.0005119736863872439 -0.00063860864795650533 0 0.00014391178734068357 -0.00055833975270115285 0 0.0005119736863872439 -0.00063860864795650533 0 -1.8135643644569725e-05 -0.00094372874117606867 0 -2.5928687179675389e-05 -0.00090795707439334785 0 8.580537456251156e-06 -0.00092011151144955592 0 -5.8617854739933059e-05 -0.00091933426655511094 0 -1.8135643644569725e-05 -0.00094372874117606867 0 -4.0067109710014586e-05 -0.00091856561951512885 0 0.0010572007979450326 -0.00057388977506101467 0 0.0010972024905106237 -0.00059715780856428309 0 0.0010138865737058381 -0.00061743437264156359 0 0.00054670738277683574 -0.00078873039475409038 0 0.00048934597211569629 -0.0007911600002832314 0 -1.8135643644569725e-05 -0.00094372874117606867 0 -4.0067109710014586e-05 -0.00091856561951512885 0 -2.5928687179675389e-05 -0.00090795707439334785 0 -5.4558531638572848e-05 -0.00090526557157180653 0 -4.0067109710014586e-05 -0.00091856561951512885 0 -2.5928687179675389e-05 -0.00090795707439334785 0 -5.4558531638572848e-05 -0.00090526557157180653 0 -2.5928687179675389e-05 -0.00090795707439334785 0 -2.9194282434962467e-05 -0.00087488022910556316 0 0.00030700766388520607 -0.00012597129525345957 0 0.00038225860210304013 -0.00016188443043385617 0 0.0002262590011962774 -0.00012618720511788309 0 -2.5928687179675389e-05 -0.00090795707439334785 0 8.580537456251156e-06 -0.00092011151144955592 0 -1.6757788378133395e-05 -0.00087949964287097841 0 0.00014391178734068357 -0.00055833975270115285 0 0.00010868438757731134 -0.00050649654486930066 0 0.00029441885819309559 -0.0001732149192644481 0 0.00030700766388520607 -0.00012597129525345957 0 0.00038225860210304013 -0.00016188443043385617 0 0.00029441885819309559 -0.0001732149192644481 0 0.00030700766388520607 -0.00012597129525345957 0 0.00044244250967349398 -0.00021313255388113783 0 0.00029864206447525782 -0.0001864980249795129 0 0.00023877803026430157 -0.00017695827611093987 0 0.0002262590011962774 -0.00012618720511788309 0 0.0002602672921987009 -0.00020278686500783128 0 0.00029864206447525782 -0.0001864980249795129 0 0.00023877803026430157 -0.00017695827611093987 0 0.00010868438757731134 -0.00050649654486930066 0 0.0002991454608820534 -4.7876207507393884e-05 0 0.0002602672921987009 -0.00020278686500783128 0 0.00030950624635495231 -0.00020618050038813607 0 0.00026412415494344595 -0.00026010090113683364 0 0.0002602672921987009 -0.00020278686500783128 0 0.00029864206447525782 -0.0001864980249795129 0 0.00030950624635495231 -0.00020618050038813607 0 -0.0003909413566700171 -0.00091295223446242774 0 -0.00020199611747093979 -0.00072824558233489415 0 -0.00068498290867990584 -0.00087616126746570136 0 -0.00062839008014207586 -0.00089828989946138388 0 -0.00064304044198997446 -0.00087397003170293028 0 -7.485158162224805e-05 -0.00088197233726925513 0 -0.00020199611747093979 -0.00072824558233489415 0 -2.5928687179675389e-05 -0.00090795707439334785 0 -1.6757788378133395e-05 -0.00087949964287097841 0 -2.9194282434962467e-05 -0.00087488022910556316 0 0.00010868438757731134 -0.00050649654486930066 0 -0.00020199611747093979 -0.00072824558233489415 0 -0.00062485554196044268 -0.00088161019669961407 0 -0.00062839008014207586 -0.00089828989946138388 0 -0.00064304044198997446 -0.00087397003170293028 0 0.00010868438757731134 -0.00050649654486930066 0 -0.00015308904716669741 -0.00058369043184039611 0 -5.7484782614625992e-05 -0.00059159697026727473 0 -5.2646843561679538e-05 -0.0006025777189297936 0 -4.6811826559730616e-05 -0.00059689703052751854 0 -0.00015308904716669741 -0.00058369043184039611 0 -0.00019224730540050354 -0.00062621935446959909 0 -0.00061997667973361808 -0.00088983328076736761 0 -0.00062485554196044268 -0.00088161019669961407 0 -0.00062839008014207586 -0.00089828989946138388 0 -0.00015308904716669741 -0.00058369043184039611 0 -0.00020199611747093979 -0.00072824558233489415 0 -0.00065549887589274431 -0.00086027749787487111 0 -0.00064304044198997446 -0.00087397003170293028 0 -0.00062877838173652637 -0.00085889178556598745 0 -0.00062485554196044268 -0.00088161019669961407 0 -0.00062877838173652637 -0.00085889178556598745 0 -0.00058524874526639473 -0.00085560184914258393 0 -0.00062485554196044268 -0.00088161019669961407 0 -0.00064304044198997446 -0.00087397003170293028 0 -0.00062877838173652637 -0.00085889178556598745 0 -0.00062877838173652637 -0.00085889178556598745 0 -0.00063379798659431662 -0.00083456700845206178 0 -0.00058524874526639473 -0.00085560184914258393 0 -0.00065549887589274431 -0.00086027749787487111 0 -0.00062877838173652637 -0.00085889178556598745 0 -0.00063379798659431662 -0.00083456700845206178 0 -0.00063379798659431662 -0.00083456700845206178 0 -0.00058524874526639473 -0.00085560184914258393 0 -0.00054857596727699617 -0.00082015311826067264 0 0.0002602672921987009 -0.00020278686500783128 0 0.00026412415494344595 -0.00026010090113683364 0 0.00020064311372114353 -0.00025620811254968481 0 -0.00062023443792931889 -0.00088936307744087294 0 -0.00062485554196044268 -0.00088161019669961407 0 -0.00058524874526639473 -0.00085560184914258393 0 -0.00015308904716669741 -0.00058369043184039611 0 -0.00011401162620487069 -0.00051184927294910558 0 -0.00011401162620487069 -0.00051184927294910558 0 -0.00050620491177144264 -0.00078041831532386214 0 0.00014038768569546068 -0.00027580384240176979 0 8.4202324006052258e-05 -0.00029070411600257633 0 0.00019833269068071191 -0.0003310041936220795 0 0.00026412415494344595 -0.00026010090113683364 0 0.00020064311372114353 -0.00025620811254968481 0 0.00019833269068071191 -0.0003310041936220795 0 0.00014038768569546068 -0.00027580384240176979 0 0.00020064311372114353 -0.00025620811254968481 0 0.00019833269068071191 -0.0003310041936220795 0 0.00014619759671076233 -0.00023588476311438883 0 0.00020064311372114353 -0.00025620811254968481 0 0.00019949449898068182 -0.0002080498051025545 0 0.00014038768569546068 -0.00027580384240176979 0 0.00014619759671076233 -0.00023588476311438883 0 0.00020064311372114353 -0.00025620811254968481 0 0.0002602672921987009 -0.00020278686500783128 0 0.00019949449898068182 -0.0002080498051025545 0 0.00023877803026430157 -0.00017695827611093987 0 0.0002602672921987009 -0.00020278686500783128 0 0.00020064311372114353 -0.00025620811254968481 0 0.00019949449898068182 -0.0002080498051025545 0 0.00019949449898068182 -0.0002080498051025545 0 0.00018889252503930597 -0.00016866401688638862 0 0.00014616077645777831 -0.00019916384375803401 0 0.00014619759671076233 -0.00023588476311438883 0 0.00019949449898068182 -0.0002080498051025545 0 0.00014616077645777831 -0.00019916384375803401 0 0.00018889252503930597 -0.00016866401688638862 0 0.00014133134714106659 -0.00016327498015852513 0 0.00016508586936544385 -0.00013480368720542377 0 0.00019949449898068182 -0.0002080498051025545 0 0.00018889252503930597 -0.00016866401688638862 0 0.00023877803026430157 -0.00017695827611093987 0 0.00018889252503930597 -0.00016866401688638862 0 0.00023877803026430157 -0.00017695827611093987 0 0.0002262590011962774 -0.00012618720511788309 0 8.9786321590231344e-05 -0.00018059590375115958 0 3.4252581664632818e-05 -0.00015625006875568157 0 0.00010253778880636506 -0.00013049209198692284 0 8.9786321590231344e-05 -0.00018059590375115958 0 0.00014133134714106659 -0.00016327498015852513 0 0.00010253778880636506 -0.00013049209198692284 0 8.9786321590231344e-05 -0.00018059590375115958 0 0.00014133134714106659 -0.00016327498015852513 0 0.00014616077645777831 -0.00019916384375803401 0 0.00018889252503930597 -0.00016866401688638862 0 0.00014133134714106659 -0.00016327498015852513 0 0.00014616077645777831 -0.00019916384375803401 0 0.00014619759671076233 -0.00023588476311438883 0 0.00014616077645777831 -0.00019916384375803401 0 9.6716304778755619e-05 -0.00022040536289795625 0 8.9786321590231344e-05 -0.00018059590375115958 0 0.00014616077645777831 -0.00019916384375803401 0 9.6716304778755619e-05 -0.00022040536289795625 0 8.9786321590231344e-05 -0.00018059590375115958 0 9.6716304778755619e-05 -0.00022040536289795625 0 3.8707164082666393e-05 -0.00022270955657580595 0 9.6716304778755619e-05 -0.00022040536289795625 0 9.1417753988637661e-05 -0.00025674389661196737 0 3.8707164082666393e-05 -0.00022270955657580595 0 9.1417753988637661e-05 -0.00025674389661196737 0 4.3023187758581799e-05 -0.000266574108715806 0 3.8707164082666393e-05 -0.00022270955657580595 0 0.00014619759671076233 -0.00023588476311438883 0 9.6716304778755619e-05 -0.00022040536289795625 0 9.1417753988637661e-05 -0.00025674389661196737 0 0.00014038768569546068 -0.00027580384240176979 0 0.00014619759671076233 -0.00023588476311438883 0 9.1417753988637661e-05 -0.00025674389661196737 0 0.00014038768569546068 -0.00027580384240176979 0 9.1417753988637661e-05 -0.00025674389661196737 0 8.4202324006052258e-05 -0.00029070411600257633 0 8.4202324006052258e-05 -0.00029070411600257633 0 4.3023187758581799e-05 -0.000266574108715806 0 2.5066413806547256e-05 -0.000290415521176654 0 9.1417753988637661e-05 -0.00025674389661196737 0 8.4202324006052258e-05 -0.00029070411600257633 0 4.3023187758581799e-05 -0.000266574108715806 0 4.3023187758581799e-05 -0.000266574108715806 0 1.1117691040574366e-05 -0.00026364703768916629 0 2.5066413806547256e-05 -0.000290415521176654 0 1.1117691040574366e-05 -0.00026364703768916629 0 2.5066413806547256e-05 -0.000290415521176654 0 -1.7268209993431584e-05 -0.0002973565731628229 0 1.1117691040574366e-05 -0.00026364703768916629 0 -2.3951238959614562e-05 -0.00023569350535578658 0 -1.7268209993431584e-05 -0.0002973565731628229 0 1.1117691040574366e-05 -0.00026364703768916629 0 -2.3951238959614562e-05 -0.00023569350535578658 0 3.8707164082666393e-05 -0.00022270955657580595 0 4.3023187758581799e-05 -0.000266574108715806 0 1.1117691040574366e-05 -0.00026364703768916629 0 3.8707164082666393e-05 -0.00022270955657580595 0 -9.2576766533333145e-06 -0.00021468016909933433 0 -6.0316182129427537e-05 -0.00027700958979737125 0 -0.00014451511368820439 -0.00017154471402147152 0 -9.6673204495589232e-05 -0.00026828772819964205 0 -0.00014121699627257748 -0.00027472293662337107 0 -2.3951238959614562e-05 -0.00023569350535578658 0 -8.6942503473135939e-05 -0.00022024813821199267 0 -1.7268209993431584e-05 -0.0002973565731628229 0 -0.00014451511368820439 -0.00017154471402147152 0 -1.7268209993431584e-05 -0.0002973565731628229 0 -9.6673204495589232e-05 -0.00026828772819964205 0 -8.6942503473135939e-05 -0.00022024813821199267 0 -3.5300725754156219e-05 -0.00014740370900945331 0 -5.7760270651691869e-06 -0.00019073338476370246 0 -2.3951238959614562e-05 -0.00023569350535578658 0 -8.6942503473135939e-05 -0.00022024813821199267 0 -5.7760270651691869e-06 -0.00019073338476370246 0 0.00024702112311392584 -0.00028395483036262078 0 0.00025585390098120349 -0.00027650012161445836 0 0.0002473232290522073 -0.00027446220503671753 0 -9.2576766533333145e-06 -0.00021468016909933433 0 9.7576699340812652e-05 -0.00021612548262587463 0 3.8707164082666393e-05 -0.00022270955657580595 0 -5.7760270651691869e-06 -0.00019073338476370246 0 3.4252581664632818e-05 -0.00015625006875568157 0 8.9786321590231344e-05 -0.00018059590375115958 0 3.8707164082666393e-05 -0.00022270955657580595 0 3.4252581664632818e-05 -0.00015625006875568157 0 -2.3951238959614562e-05 -0.00023569350535578658 0 3.8707164082666393e-05 -0.00022270955657580595 0 -5.7760270651691869e-06 -0.00019073338476370246 0 -3.5300725754156219e-05 -0.00014740370900945331 0 -5.7760270651691869e-06 -0.00019073338476370246 0 3.4252581664632818e-05 -0.00015625006875568157 0 -3.5300725754156219e-05 -0.00014740370900945331 0 3.4252581664632818e-05 -0.00015625006875568157 0 3.4378760208411123e-05 -5.9078931711483768e-05 0 3.4252581664632818e-05 -0.00015625006875568157 0 3.4378760208411123e-05 -5.9078931711483768e-05 0 0.00010253778880636506 -0.00013049209198692284 0 9.7576699340812652e-05 -0.00021612548262587463 0 0.00042778963299920208 -0.00026849760482572057 0 0.00025585390098120349 -0.00027650012161445836 0 0.00026507495816708535 -0.00026804284434740506 0 0.00024983465567392411 -0.00026529265418929468 0 0.00025585390098120349 -0.00027650012161445836 0 0.00024983465567392411 -0.00026529265418929468 0 0.0002473232290522073 -0.00027446220503671753 0 0.00062999363787113354 -0.00047199621063956251 0 0.00067927143749576201 -0.00043384628156625864 0 0.00064980152873629496 -0.00042580395554059938 0 0.00068906449117998403 -0.00045142800245997615 0 0.00062999363787113354 -0.00047199621063956251 0 0.00067927143749576201 -0.00043384628156625864 0 0.00042778963299920208 -0.00026849760482572057 0 0.00048307129882025772 -0.00039394030136591 0 0.00068906449117998403 -0.00045142800245997615 0 0.00067927143749576201 -0.00043384628156625864 0 0.00069939963335268667 -0.00039588770844001568 0 0.00042778963299920208 -0.00026849760482572057 0 0.00073467497472371596 -0.00034566603181978515 0 0.00069939963335268667 -0.00039588770844001568 0 0.00056255930794763052 -0.00030459892664395476 0 0.00059196499476206412 -0.00014357262068190291 0 0.00084650447501744897 -0.00021409947362387001 0 0.00069939963335268667 -0.00039588770844001568 0 0.00059196499476206412 -0.00014357262068190291 0 0.00069939963335268667 -0.00039588770844001568 0 0.00058626813869879142 -0.00039167822161235223 0 0.00056255930794763052 -0.00030459892664395476 0 0.00058626813869879142 -0.00039167822161235223 0 0.00046567754090416484 -0.00030678692723751444 0 0.00056255930794763052 -0.00030459892664395476 0 0.00058626813869879142 -0.00039167822161235223 0 0.00046567754090416484 -0.00030678692723751444 0 0.00044790223924050433 -0.00045513784528046703 0 0.00029441885819309559 -0.0001732149192644481 0 0.00046567754090416484 -0.00030678692723751444 0 0.00044790223924050433 -0.00045513784528046703 0 0.00029441885819309559 -0.0001732149192644481 0 0.00046567754090416484 -0.00030678692723751444 0 0.00044244250967349398 -0.00021313255388113783 0 0.00056255930794763052 -0.00030459892664395476 0 0.00044244250967349398 -0.00021313255388113783 0 0.00059196499476206412 -0.00014357262068190291 0 0.00046567754090416484 -0.00030678692723751444 0 0.00056255930794763052 -0.00030459892664395476 0 0.00044244250967349398 -0.00021313255388113783 0 0.00030700766388520607 -0.00012597129525345957 0 0.0002262590011962774 -0.00012618720511788309 0 0.00015415488009454251 -8.6537495387379354e-05 0 0.00031945899060744585 -0.00012133979317383037 0 0.00036997462220484322 -0.00011414706400619617 0 0.00030700766388520607 -0.00012597129525345957 0 0.00044244250967349398 -0.00021313255388113783 0 0.00059196499476206412 -0.00014357262068190291 0 0.00018889252503930597 -0.00016866401688638862 0 0.0002262590011962774 -0.00012618720511788309 0 0.00016508586936544385 -0.00013480368720542377 0 0.0002262590011962774 -0.00012618720511788309 0 0.00016508586936544385 -0.00013480368720542377 0 0.00015415488009454251 -8.6537495387379354e-05 0 0.00042778963299920208 -0.00026849760482572057 0 0.00036997462220484322 -0.00011414706400619617 0 0.00014133134714106659 -0.00016327498015852513 0 0.00016508586936544385 -0.00013480368720542377 0 0.00010253778880636506 -0.00013049209198692284 0 3.4378760208411123e-05 -5.9078931711483768e-05 0 0.00010253778880636506 -0.00013049209198692284 0 0.00015415488009454251 -8.6537495387379354e-05 0 0.00016508586936544385 -0.00013480368720542377 0 0.00010253778880636506 -0.00013049209198692284 0 0.00015415488009454251 -8.6537495387379354e-05 0 -6.3584480399727058e-05 -0.00015690281663721607 0 -5.469877193108883e-05 -0.00016481797479070455 0 -4.1820217489871608e-05 -0.00013661827159714093 0 -5.469877193108883e-05 -0.00016481797479070455 0 -7.0082524415160776e-05 -0.00017654542912619531 0 -7.018471114131347e-05 -0.00018833931289690382 0 -6.3584480399727058e-05 -0.00015690281663721607 0 -5.469877193108883e-05 -0.00016481797479070455 0 -7.0082524415160776e-05 -0.00017654542912619531 0 -7.0082524415160776e-05 -0.00017654542912619531 0 -8.2923271282523794e-05 -0.00019653493880207809 0 -7.018471114131347e-05 -0.00018833931289690382 0 -8.2923271282523794e-05 -0.00019653493880207809 0 -8.3028811624226437e-05 -0.00020294162490956975 0 -9.773956175887048e-05 -0.00021000344936075076 0 -8.2923271282523794e-05 -0.00019653493880207809 0 -7.018471114131347e-05 -0.00018833931289690382 0 -8.3028811624226437e-05 -0.00020294162490956975 0 -7.018471114131347e-05 -0.00018833931289690382 0 -8.3028811624226437e-05 -0.00020294162490956975 0 -4.6262931728350911e-05 -0.0001836046899695506 0 -0.0001061965119886141 -0.00021669224332572 0 -4.6262931728350911e-05 -0.0001836046899695506 0 -0.00014631002889357173 -0.00023114069413847078 0 -8.5150933910480467e-05 -0.00019119192946468117 0 -0.00013440286447636147 -0.00022272322104324255 0 -8.3028811624226437e-05 -0.00020294162490956975 0 -0.0001061965119886141 -0.00021669224332572 0 -4.6262931728350911e-05 -0.0001836046899695506 0 -8.3028811624226437e-05 -0.00020294162490956975 0 -0.0001061965119886141 -0.00021669224332572 0 -9.773956175887048e-05 -0.00021000344936075076 0 -5.469877193108883e-05 -0.00016481797479070455 0 -4.6262931728350911e-05 -0.0001836046899695506 0 -3.3767326223228719e-05 -0.0001462430682608714 0 -0.0001174437171194193 -0.00019994264927206059 0 -0.00010165717440694324 -0.00019691469031636328 0 -8.1959952049404975e-05 -0.00019559871948204212 0 -5.469877193108883e-05 -0.00016481797479070455 0 -7.018471114131347e-05 -0.00018833931289690382 0 -4.6262931728350911e-05 -0.0001836046899695506 0 -0.0001174437171194193 -0.00019994264927206059 0 -0.00011000236000510188 -0.00019820712060386462 0 -0.0001190988073929296 -0.00020379982260430331 0 -0.0001174437171194193 -0.00019994264927206059 0 -0.00010165717440694324 -0.00019691469031636328 0 -0.00011000236000510188 -0.00019820712060386462 0 -0.00011000236000510188 -0.00019820712060386462 0 -0.00011272020841719655 -0.00019871706523668509 0 -0.00010370067870784709 -0.00020083828049727819 0 -0.00011000236000510188 -0.00019820712060386462 0 -0.0001190988073929296 -0.00020379982260430331 0 -0.00011272020841719655 -0.00019871706523668509 0 -0.0001174437171194193 -0.00019994264927206059 0 -0.00013913709673043492 -0.00021783612341941234 0 -0.0001190988073929296 -0.00020379982260430331 0 -0.0001174437171194193 -0.00019994264927206059 0 -0.00013913709673043492 -0.00021783612341941234 0 -0.00014631002889357173 -0.00023114069413847078 0 -0.00013913709673043492 -0.00021783612341941234 0 -0.0001190988073929296 -0.00020379982260430331 0 -0.00011494841879265718 -0.00021985080182357179 0 -0.00014451511368820439 -0.00017154471402147152 0 -0.00020207498300548382 -0.00025822780316404485 0 -0.00014121699627257748 -0.00027472293662337107 0 -0.0001190988073929296 -0.00020379982260430331 0 -0.00011494841879265718 -0.00021985080182357179 0 -0.00010755776641704848 -0.00020612471907747714 0 -9.2576766533333145e-06 -0.00021468016909933433 0 -0.0001717004114146679 -0.00024192107196611899 0 -0.00010258103279793115 -0.00020487044975387014 0 -0.00011494841879265718 -0.00021985080182357179 0 -0.00010755776641704848 -0.00020612471907747714 0 -0.00010258103279793115 -0.00020487044975387014 0 -0.00010755776641704848 -0.00020612471907747714 0 -0.0001102264039774965 -0.00019861884522942555 0 0.00024702112311392584 -0.00028395483036262078 0 0.00024237527680695068 -0.00027876827557046162 0 0.0002473232290522073 -0.00027446220503671753 0 -9.2576766533333145e-06 -0.00021468016909933433 0 2.7703010032459447e-05 -0.00025370571346393069 0 -9.4616064262380495e-05 -0.00017426908041640404 0 2.7703010032459447e-05 -0.00025370571346393069 0 -0.0001190988073929296 -0.00020379982260430331 0 -0.00010755776641704848 -0.00020612471907747714 0 -0.00011272020841719655 -0.00019871706523668509 0 2.7703010032459447e-05 -0.00025370571346393069 0 0.00013624339767401555 -0.00024091303983049374 0 0.00024983465567392411 -0.00026529265418929468 0 0.0002473232290522073 -0.00027446220503671753 0 0.000239553109856265 -0.00027057015508034199 0 0.00024237527680695068 -0.00027876827557046162 0 0.0002473232290522073 -0.00027446220503671753 0 0.000239553109856265 -0.00027057015508034199 0 0.00048307129882025772 -0.00039394030136591 0 0.00023664131359579609 -0.00027945825889594988 0 0.00062999363787113354 -0.00047199621063956251 0 0.00054047782397355468 -0.00047524904085045194 0 0.00059478403979814146 -0.00044316090163966794 0 0.00024983465567392411 -0.00026529265418929468 0 0.00023610199022001745 -0.0002625416360096798 0 0.000239553109856265 -0.00027057015508034199 0 2.6626612151751706e-06 -0.00015413227977686286 0 -1.4263678797414408e-06 -0.00019397077072867583 0 3.7415970471948144e-05 -0.00022151951950994756 0 0.00023664131359579609 -0.00027945825889594988 0 0.00013624339767401555 -0.00024091303983049374 0 0.00023664131359579609 -0.00027945825889594988 0 -6.01767793769453e-05 -0.00015998051574874449 0 2.6626612151751706e-06 -0.00015413227977686286 0 -1.8562526542926986e-05 -0.00016764712968673795 0 -2.5032417132234953e-05 -0.00014590244723314882 0 2.6626612151751706e-06 -0.00015413227977686286 0 -1.8562526542926986e-05 -0.00016764712968673795 0 -1.4263678797414408e-06 -0.00019397077072867583 0 -1.8562526542926986e-05 -0.00016764712968673795 0 -1.4263678797414408e-06 -0.00019397077072867583 0 -4.9245886389962975e-05 -0.00018431794640509975 0 -0.00010370067870784709 -0.00020083828049727819 0 -8.1959952049404975e-05 -0.00019559871948204212 0 -4.9245886389962975e-05 -0.00018431794640509975 0 6.8528604901008249e-05 -0.00028833916932185106 0 3.7415970471948144e-05 -0.00022151951950994756 0 1.3728603123100197e-05 -0.00023838334050910347 0 -5.0525228905027313e-05 -0.00021056445572002262 0 -5.3044534276651785e-05 -0.00019056399415446978 0 -1.4263678797414408e-06 -0.00019397077072867583 0 1.3728603123100197e-05 -0.00023838334050910347 0 -4.9245886389962975e-05 -0.00018431794640509975 0 -1.4263678797414408e-06 -0.00019397077072867583 0 3.7415970471948144e-05 -0.00022151951950994756 0 1.3728603123100197e-05 -0.00023838334050910347 0 2.7703010032459447e-05 -0.00025370571346393069 0 -5.0525228905027313e-05 -0.00021056445572002262 0 -0.00010165717440694324 -0.00019691469031636328 0 -0.00010370067870784709 -0.00020083828049727819 0 -8.1959952049404975e-05 -0.00019559871948204212 0 -0.00010165717440694324 -0.00019691469031636328 0 -0.00011000236000510188 -0.00019820712060386462 0 -0.00010370067870784709 -0.00020083828049727819 0 -8.5150933910480467e-05 -0.00019119192946468117 0 -3.6490101011379624e-05 -0.00015459414610901817 0 -0.0001174437171194193 -0.00019994264927206059 0 -6.6474479257925284e-05 -0.00019381957521512694 0 -8.1959952049404975e-05 -0.00019559871948204212 0 -4.6262931728350911e-05 -0.0001836046899695506 0 -4.5426216772814852e-06 -0.00011651434245121127 0 -3.3767326223228719e-05 -0.0001462430682608714 0 -4.5426216772814852e-06 -0.00011651434245121127 0 -2.2776065658757857e-05 -0.00012573017825949688 0 -3.3767326223228719e-05 -0.0001462430682608714 0 -6.6474479257925284e-05 -0.00019381957521512694 0 -8.1959952049404975e-05 -0.00019559871948204212 0 -4.9245886389962975e-05 -0.00018431794640509975 0 -3.6490101011379624e-05 -0.00015459414610901817 0 -8.3246468343709083e-06 -8.5356629669612906e-05 0 -4.5426216772814852e-06 -0.00011651434245121127 0 -9.9809724977686387e-06 -0.00010121420036665327 0 1.2975569064414077e-05 -5.7902628302162917e-05 0 -6.6474479257925284e-05 -0.00019381957521512694 0 -4.9245886389962975e-05 -0.00018431794640509975 0 -2.5032417132234953e-05 -0.00014590244723314882 0 -6.6474479257925284e-05 -0.00019381957521512694 0 -2.5032417132234953e-05 -0.00014590244723314882 0 -3.248527322493514e-05 -0.00010730726584533047 0 -1.8562526542926986e-05 -0.00016764712968673795 0 -4.9245886389962975e-05 -0.00018431794640509975 0 -2.5032417132234953e-05 -0.00014590244723314882 0 -4.5426216772814852e-06 -0.00011651434245121127 0 -9.9809724977686387e-06 -0.00010121420036665327 0 -2.2776065658757857e-05 -0.00012573017825949688 0 -9.9809724977686387e-06 -0.00010121420036665327 0 -1.4374144846154512e-05 -9.1317558116257657e-05 0 -2.4750868048775331e-05 -0.00011572569481077609 0 -9.9809724977686387e-06 -0.00010121420036665327 0 -1.4374144846154512e-05 -9.1317558116257657e-05 0 1.2975569064414077e-05 -5.7902628302162917e-05 0 -3.4063175808869032e-05 -0.00011366796253803157 0 -1.4374144846154512e-05 -9.1317558116257657e-05 0 -2.4750868048775331e-05 -0.00011572569481077609 0 -3.4063175808869032e-05 -0.00011366796253803157 0 -2.4750868048775331e-05 -0.00011572569481077609 0 -4.1820217489871608e-05 -0.00013661827159714093 0 -2.2776065658757857e-05 -0.00012573017825949688 0 -2.4750868048775331e-05 -0.00011572569481077609 0 -4.1820217489871608e-05 -0.00013661827159714093 0 -9.9809724977686387e-06 -0.00010121420036665327 0 -2.2776065658757857e-05 -0.00012573017825949688 0 -2.4750868048775331e-05 -0.00011572569481077609 0 -5.469877193108883e-05 -0.00016481797479070455 0 -3.3767326223228719e-05 -0.0001462430682608714 0 -4.1820217489871608e-05 -0.00013661827159714093 0 -2.2776065658757857e-05 -0.00012573017825949688 0 -3.3767326223228719e-05 -0.0001462430682608714 0 -4.1820217489871608e-05 -0.00013661827159714093 0 1.6638791024660849e-05 -4.7117030755075783e-05 0 1.2975569064414077e-05 -5.7902628302162917e-05 0 2.3136880134692954e-05 -4.9201911299911013e-05 0 3.8741946002319693e-05 -4.1669521846894463e-05 0 1.6638791024660849e-05 -4.7117030755075783e-05 0 2.3136880134692954e-05 -4.9201911299911013e-05 0 -8.3246468343709083e-06 -8.5356629669612906e-05 0 1.6927625286446707e-05 -5.4425124963957661e-05 0 1.6638791024660849e-05 -4.7117030755075783e-05 0 -1.0286912701821763e-06 -6.2447304962005539e-05 0 1.2975569064414077e-05 -5.7902628302162917e-05 0 -1.4374144846154512e-05 -9.1317558116257657e-05 0 -1.0286912701821763e-06 -6.2447304962005539e-05 0 1.2975569064414077e-05 -5.7902628302162917e-05 0 -2.5032417132234953e-05 -0.00014590244723314882 0 -3.248527322493514e-05 -0.00010730726584533047 0 -3.3014977206456545e-06 -9.0683066520073343e-05 0 9.4056297033213711e-06 -0.00015505308672701771 0 -2.5032417132234953e-05 -0.00014590244723314882 0 -3.3014977206456545e-06 -9.0683066520073343e-05 0 0.00049437209773103461 -0.00042052465941311073 0 0.00048417851366767766 -0.00036720310087920058 0 0.0004222701289122771 -0.00036067913452573726 0 -3.248527322493514e-05 -0.00010730726584533047 0 -3.3014977206456545e-06 -9.0683066520073343e-05 0 2.3136880134692954e-05 -4.9201911299911013e-05 0 -3.3014977206456545e-06 -9.0683066520073343e-05 0 2.0838912908997772e-05 -5.2569294141660076e-05 0 2.3136880134692954e-05 -4.9201911299911013e-05 0 0.00025013112121710673 -0.00026116347002232252 0 0.00021751137627359801 -0.00020200417919768885 0 0.00049437209773103461 -0.00042052465941311073 0 0.00052091623556427128 -0.00039537305318139247 0 0.00048417851366767766 -0.00036720310087920058 0 0.00052091623556427128 -0.00039537305318139247 0 0.0005355556110539627 -0.00035916980576049224 0 0.00048417851366767766 -0.00036720310087920058 0 0.00055790233860895792 -0.00039329373530599954 0 0.00059040424468142724 -0.00036331536008213887 0 0.0005355556110539627 -0.00035916980576049224 0 0.00052091623556427128 -0.00039537305318139247 0 0.00055790233860895792 -0.00039329373530599954 0 0.0005355556110539627 -0.00035916980576049224 0 0.00052091623556427128 -0.00039537305318139247 0 0.00055790233860895792 -0.00039329373530599954 0 0.000549761254245381 -0.0004296334345900089 0 0.00049437209773103461 -0.00042052465941311073 0 0.00052091623556427128 -0.00039537305318139247 0 0.000549761254245381 -0.0004296334345900089 0 0.00054047782397355468 -0.00047524904085045194 0 0.000549761254245381 -0.0004296334345900089 0 0.00059478403979814146 -0.00044316090163966794 0 0.00023664131359579609 -0.00027945825889594988 0 0.00025013112121710673 -0.00026116347002232252 0 0.00054047782397355468 -0.00047524904085045194 0 0.00049437209773103461 -0.00042052465941311073 0 0.000549761254245381 -0.0004296334345900089 0 0.00062999363787113354 -0.00047199621063956251 0 0.00059478403979814146 -0.00044316090163966794 0 0.00064980152873629496 -0.00042580395554059938 0 0.00059478403979814146 -0.00044316090163966794 0 0.00059898060073107213 -0.00040947858101384458 0 0.00064980152873629496 -0.00042580395554059938 0 0.000549761254245381 -0.0004296334345900089 0 0.00059478403979814146 -0.00044316090163966794 0 0.00059898060073107213 -0.00040947858101384458 0 0.00055790233860895792 -0.00039329373530599954 0 0.000549761254245381 -0.0004296334345900089 0 0.00059898060073107213 -0.00040947858101384458 0 0.00055790233860895792 -0.00039329373530599954 0 0.00059898060073107213 -0.00040947858101384458 0 0.00059040424468142724 -0.00036331536008213887 0 0.00059898060073107213 -0.00040947858101384458 0 0.00059040424468142724 -0.00036331536008213887 0 0.00064192545872291502 -0.00037965476080803424 0 0.00059040424468142724 -0.00036331536008213887 0 0.00063561341551179255 -0.00031213712014414901 0 0.00064192545872291502 -0.00037965476080803424 0 0.00059040424468142724 -0.00036331536008213887 0 0.00056964700274370083 -0.00031066995061843506 0 0.00063561341551179255 -0.00031213712014414901 0 0.00056964700274370083 -0.00031066995061843506 0 0.00063561341551179255 -0.00031213712014414901 0 0.00061587193194756235 -0.00023637269984060942 0 0.00056964700274370083 -0.00031066995061843506 0 0.00052344405684527488 -0.0002405225754504143 0 0.0004907753944388937 -0.00031878403482334084 0 0.00056964700274370083 -0.00031066995061843506 0 0.00061587193194756235 -0.00023637269984060942 0 0.00052344405684527488 -0.0002405225754504143 0 0.00056964700274370083 -0.00031066995061843506 0 0.0004907753944388937 -0.00031878403482334084 0 0.0005355556110539627 -0.00035916980576049224 0 0.00059040424468142724 -0.00036331536008213887 0 0.00056964700274370083 -0.00031066995061843506 0 0.0005355556110539627 -0.00035916980576049224 0 0.0004907753944388937 -0.00031878403482334084 0 0.0005355556110539627 -0.00035916980576049224 0 0.00048417851366767766 -0.00036720310087920058 0 0.0004907753944388937 -0.00031878403482334084 0 0.0004222701289122771 -0.00036067913452573726 0 0.00043359533125118224 -0.00027071326589519655 0 0.0004907753944388937 -0.00031878403482334084 0 0.00048417851366767766 -0.00036720310087920058 0 0.0004222701289122771 -0.00036067913452573726 0 0.00052344405684527488 -0.0002405225754504143 0 0.0004907753944388937 -0.00031878403482334084 0 0.00043359533125118224 -0.00027071326589519655 0 0.0004222701289122771 -0.00036067913452573726 0 0.00043359533125118224 -0.00027071326589519655 0 0.00031790810419194304 -0.00026761946225117714 0 0.00010685407625076979 -7.0964049953661033e-05 0 6.4252591017779456e-05 -6.9558315269976413e-05 0 5.0538100105232842e-05 -5.5805448475609322e-05 0 2.0838912908997772e-05 -5.2569294141660076e-05 0 6.4252591017779456e-05 -6.9558315269976413e-05 0 5.0538100105232842e-05 -5.5805448475609322e-05 0 0.00021751137627359801 -0.00020200417919768885 0 0.00019180726703436308 -0.00015959356736858218 0 3.8741946002319693e-05 -4.1669521846894463e-05 0 5.0538100105232842e-05 -5.5805448475609322e-05 0 2.3136880134692954e-05 -4.9201911299911013e-05 0 2.0838912908997772e-05 -5.2569294141660076e-05 0 5.0538100105232842e-05 -5.5805448475609322e-05 0 2.3136880134692954e-05 -4.9201911299911013e-05 0 0.00071952748987022021 -0.00041113690812581656 0 0.00075021351382708993 -0.00041751931605445039 0 0.00069361330648022264 -0.00045690587858814193 0 0.00071952748987022021 -0.00041113690812581656 0 0.00075021351382708993 -0.00041751931605445039 0 0.00078347564631806987 -0.0003700485880708186 0 0.00084129226708245478 -0.00048263958873675681 0 0.00078347564631806987 -0.0003700485880708186 0 0.00087304387892589051 -0.00040552845500498686 0 0.00080373760681132472 -0.00045328516693995366 0 0.00077689106805227837 -0.00037449393339860628 0 0.00092925689291383352 -0.00050108782308239878 0 0.00084129226708245478 -0.00048263958873675681 0 0.00087304387892589051 -0.00040552845500498686 0 0.00075021351382708993 -0.00041751931605445039 0 0.00078578339155934991 -0.00050093163465916737 0 0.00069361330648022264 -0.00045690587858814193 0 0.00080373760681132472 -0.00045328516693995366 0 0.0005119736863872439 -0.00063860864795650533 0 0.00092925689291383352 -0.00050108782308239878 0 0.00084129226708245478 -0.00048263958873675681 0 0.0008909976941796591 -0.00057199322256239931 0 0.00058626813869879142 -0.00039167822161235223 0 0.00044790223924050433 -0.00045513784528046703 0 0.00069361330648022264 -0.00045690587858814193 0 0.0005119736863872439 -0.00063860864795650533 0 0.00068576870957438407 -0.00046533836039859647 0 0.00069939963335268667 -0.00039588770844001568 0 0.00069361330648022264 -0.00045690587858814193 0 0.00069880603631962575 -0.00042744778312974651 0 0.00069939963335268667 -0.00039588770844001568 0 0.00058626813869879142 -0.00039167822161235223 0 0.00069361330648022264 -0.00045690587858814193 0 0.00071952748987022021 -0.00041113690812581656 0 0.00069361330648022264 -0.00045690587858814193 0 0.00069880603631962575 -0.00042744778312974651 0 0.00069880603631962575 -0.00042744778312974651 0 0.00064980152873629496 -0.00042580395554059938 0 0.00068728650654738092 -0.00039361662179559733 0 0.00067927143749576201 -0.00043384628156625864 0 0.00069880603631962575 -0.00042744778312974651 0 0.00064980152873629496 -0.00042580395554059938 0 0.00067927143749576201 -0.00043384628156625864 0 0.00069939963335268667 -0.00039588770844001568 0 0.00069880603631962575 -0.00042744778312974651 0 0.00059898060073107213 -0.00040947858101384458 0 0.00064980152873629496 -0.00042580395554059938 0 0.00064192545872291502 -0.00037965476080803424 0 0.00064980152873629496 -0.00042580395554059938 0 0.00064192545872291502 -0.00037965476080803424 0 0.00068728650654738092 -0.00039361662179559733 0 0.00064192545872291502 -0.00037965476080803424 0 0.00068728650654738092 -0.00039361662179559733 0 0.0006815767711195258 -0.00034453544810415972 0 0.00071952748987022021 -0.00041113690812581656 0 0.00069880603631962575 -0.00042744778312974651 0 0.00068728650654738092 -0.00039361662179559733 0 0.00071952748987022021 -0.00041113690812581656 0 0.00068728650654738092 -0.00039361662179559733 0 0.00072737292943160395 -0.00035638524655899449 0 0.00068728650654738092 -0.00039361662179559733 0 0.00072737292943160395 -0.00035638524655899449 0 0.0006815767711195258 -0.00034453544810415972 0 0.00072737292943160395 -0.00035638524655899449 0 0.0006815767711195258 -0.00034453544810415972 0 0.0007252322972169194 -0.00029904612260643702 0 0.00072737292943160395 -0.00035638524655899449 0 0.0007252322972169194 -0.00029904612260643702 0 0.00078636265514050703 -0.00029073219053449566 0 0.00063561341551179255 -0.00031213712014414901 0 0.00064192545872291502 -0.00037965476080803424 0 0.0006815767711195258 -0.00034453544810415972 0 0.00063561341551179255 -0.00031213712014414901 0 0.00061587193194756235 -0.00023637269984060942 0 0.00069000352033985455 -0.00024570456649990804 0 0.00063561341551179255 -0.00031213712014414901 0 0.0006815767711195258 -0.00034453544810415972 0 0.00069000352033985455 -0.00024570456649990804 0 0.0006815767711195258 -0.00034453544810415972 0 0.00069000352033985455 -0.00024570456649990804 0 0.0007252322972169194 -0.00029904612260643702 0 0.00069000352033985455 -0.00024570456649990804 0 0.0007252322972169194 -0.00029904612260643702 0 0.0007530730911980832 -0.0002283532901413512 0 0.0007252322972169194 -0.00029904612260643702 0 0.00078636265514050703 -0.00029073219053449566 0 0.0007530730911980832 -0.0002283532901413512 0 0.00078636265514050703 -0.00029073219053449566 0 0.00081386771028035051 -0.00021333508367552388 0 0.0007530730911980832 -0.0002283532901413512 0 0.00078636265514050703 -0.00029073219053449566 0 0.0008721226197975551 -0.00023501503382583315 0 0.00081386771028035051 -0.00021333508367552388 0 0.00072737292943160395 -0.00035638524655899449 0 0.00078636265514050703 -0.00029073219053449566 0 0.00078347564631806987 -0.0003700485880708186 0 0.00078636265514050703 -0.00029073219053449566 0 0.00078347564631806987 -0.0003700485880708186 0 0.00085895421868290587 -0.00031070852771181276 0 0.00071952748987022021 -0.00041113690812581656 0 0.00072737292943160395 -0.00035638524655899449 0 0.00078347564631806987 -0.0003700485880708186 0 0.00096768551401648186 -0.00038741676735575849 0 0.00087304387892589051 -0.00040552845500498686 0 0.00085895421868290587 -0.00031070852771181276 0 0.00078347564631806987 -0.0003700485880708186 0 0.00087304387892589051 -0.00040552845500498686 0 0.00085895421868290587 -0.00031070852771181276 0 0.00095556173787869202 -0.00027225029348338243 0 0.00085895421868290587 -0.00031070852771181276 0 0.0008721226197975551 -0.00023501503382583315 0 0.00095556173787869202 -0.00027225029348338243 0 0.0008721226197975551 -0.00023501503382583315 0 0.0009258682314021438 -0.00019205523074609541 0 0.00078636265514050703 -0.00029073219053449566 0 0.00085895421868290587 -0.00031070852771181276 0 0.0008721226197975551 -0.00023501503382583315 0 0.0008721226197975551 -0.00023501503382583315 0 0.00085564025993493042 -0.00015775695126113272 0 0.00081386771028035051 -0.00021333508367552388 0 0.0008721226197975551 -0.00023501503382583315 0 0.00085564025993493042 -0.00015775695126113272 0 0.0009258682314021438 -0.00019205523074609541 0 0.00085564025993493042 -0.00015775695126113272 0 0.0009258682314021438 -0.00019205523074609541 0 0.00093132797934235702 -0.00010486816119443319 0 0.00085564025993493042 -0.00015775695126113272 0 0.00082630860075371499 -8.8730592362926952e-05 0 0.00093132797934235702 -0.00010486816119443319 0 0.00085564025993493042 -0.00015775695126113272 0 0.00078483795310237961 -0.00015209219141315786 0 0.00082630860075371499 -8.8730592362926952e-05 0 0.00081386771028035051 -0.00021333508367552388 0 0.0007530730911980832 -0.0002283532901413512 0 0.00078483795310237961 -0.00015209219141315786 0 0.00085564025993493042 -0.00015775695126113272 0 0.00081386771028035051 -0.00021333508367552388 0 0.00078483795310237961 -0.00015209219141315786 0 0.0007530730911980832 -0.0002283532901413512 0 0.00072900360304645802 -0.00017014691160486674 0 0.00078483795310237961 -0.00015209219141315786 0 0.00069000352033985455 -0.00024570456649990804 0 0.0007530730911980832 -0.0002283532901413512 0 0.00072900360304645802 -0.00017014691160486674 0 0.00061587193194756235 -0.00023637269984060942 0 0.00069000352033985455 -0.00024570456649990804 0 0.0006773041235943265 -0.00014973725765712566 0 0.00069000352033985455 -0.00024570456649990804 0 0.00072900360304645802 -0.00017014691160486674 0 0.0006773041235943265 -0.00014973725765712566 0 0.00072900360304645802 -0.00017014691160486674 0 0.0006773041235943265 -0.00014973725765712566 0 0.00075197598710172175 -7.8810408292822863e-05 0 0.0006773041235943265 -0.00014973725765712566 0 0.00075197598710172175 -7.8810408292822863e-05 0 0.00069806858667931378 -1.8488518664101481e-05 0 0.00078483795310237961 -0.00015209219141315786 0 0.00075197598710172175 -7.8810408292822863e-05 0 0.00082630860075371499 -8.8730592362926952e-05 0 0.00072900360304645802 -0.00017014691160486674 0 0.00078483795310237961 -0.00015209219141315786 0 0.00075197598710172175 -7.8810408292822863e-05 0 0.00075197598710172175 -7.8810408292822863e-05 0 0.00080130165209030312 -3.9358191949190956e-05 0 0.00082630860075371499 -8.8730592362926952e-05 0 0.00075197598710172175 -7.8810408292822863e-05 0 0.00077470046254528909 -1.908267036692004e-05 0 0.00080130165209030312 -3.9358191949190956e-05 0 0.00075197598710172175 -7.8810408292822863e-05 0 0.00077470046254528909 -1.908267036692004e-05 0 0.00069806858667931378 -1.8488518664101481e-05 0 0.00077470046254528909 -1.908267036692004e-05 0 0.00080130165209030312 -3.9358191949190956e-05 0 0.00080684897058836736 -1.0308615284416409e-05 0 0.00080130165209030312 -3.9358191949190956e-05 0 0.00085848427724067753 -3.5022800298291881e-05 0 0.00080684897058836736 -1.0308615284416409e-05 0 0.0018677739945843553 6.3906474546666144e-05 0 0.0017651701053325393 0.00024487706744627112 0 0.0028712415149738267 0.00018655800142980346 0 0.0030594043090499982 0.00014443346733194172 0 0.0030317357267987863 -8.7762277174655102e-06 0 0.00085848427724067753 -3.5022800298291881e-05 0 0.00082630860075371499 -8.8730592362926952e-05 0 0.00093132797934235702 -0.00010486816119443319 0 0.0018677739945843553 6.3906474546666144e-05 0 0.0019806145900639169 -5.2694329708612111e-05 0 0.00080130165209030312 -3.9358191949190956e-05 0 0.00085848427724067753 -3.5022800298291881e-05 0 0.00082630860075371499 -8.8730592362926952e-05 0 0.00018206694065811321 -9.4994626314085724e-05 0 0.00026946277263855328 -2.3411859028664743e-05 0 0.00041629635223033309 -0.00013120823753638624 0 0.00018206694065811321 -9.4994626314085724e-05 0 0.00031790810419194304 -0.00026761946225117714 0 0.00041629635223033309 -0.00013120823753638624 0 0.00017532617050074379 -9.454165949903244e-05 0 0.00019180726703436308 -0.00015959356736858218 0 0.00052344405684527488 -0.0002405225754504143 0 0.00043359533125118224 -0.00027071326589519655 0 0.00041629635223033309 -0.00013120823753638624 0 0.00043359533125118224 -0.00027071326589519655 0 0.00031790810419194304 -0.00026761946225117714 0 0.00041629635223033309 -0.00013120823753638624 0 0.00041629635223033309 -0.00013120823753638624 0 0.00053278779402520567 -5.5312444210394388e-05 0 0.00042085619209917505 6.4441422047835348e-05 0 0.00026946277263855328 -2.3411859028664743e-05 0 0.00041629635223033309 -0.00013120823753638624 0 0.00042085619209917505 6.4441422047835348e-05 0 0.00058359444572357046 -0.00014210496022996194 0 0.00053278779402520567 -5.5312444210394388e-05 0 0.00069806858667931378 -1.8488518664101481e-05 0 0.00041629635223033309 -0.00013120823753638624 0 0.00058359444572357046 -0.00014210496022996194 0 0.00053278779402520567 -5.5312444210394388e-05 0 0.00061587193194756235 -0.00023637269984060942 0 0.00052344405684527488 -0.0002405225754504143 0 0.00058359444572357046 -0.00014210496022996194 0 0.00052344405684527488 -0.0002405225754504143 0 0.00041629635223033309 -0.00013120823753638624 0 0.00058359444572357046 -0.00014210496022996194 0 0.00061587193194756235 -0.00023637269984060942 0 0.0006773041235943265 -0.00014973725765712566 0 0.00058359444572357046 -0.00014210496022996194 0 0.0006773041235943265 -0.00014973725765712566 0 0.00058359444572357046 -0.00014210496022996194 0 0.00069806858667931378 -1.8488518664101481e-05 0 0.00077470046254528909 -1.908267036692004e-05 0 0.00069806858667931378 -1.8488518664101481e-05 0 0.00074607581643814985 -2.859824767483953e-05 0 0.00074607581643814985 -2.859824767483953e-05 0 0.00073959941317287619 -2.72501000466898e-05 0 0.00074124494659685456 -2.3326832710793284e-05 0 0.00069806858667931378 -1.8488518664101481e-05 0 0.00074607581643814985 -2.859824767483953e-05 0 0.00073959941317287619 -2.72501000466898e-05 0 0.000684861477766223 -1.2081796001447919e-05 0 0.00058945720187409496 1.3968383262806697e-05 0 0.00053278779402520567 -5.5312444210394388e-05 0 0.00069806858667931378 -1.8488518664101481e-05 0 0.00042085619209917505 6.4441422047835348e-05 0 0.00073959941317287619 -2.72501000466898e-05 0 0.00073487290383291446 -2.3397182528745299e-05 0 0.00072700721415723275 -2.4604654249714989e-05 0 0.00073959941317287619 -2.72501000466898e-05 0 0.00073487290383291446 -2.3397182528745299e-05 0 0.00074124494659685456 -2.3326832710793284e-05 0 0.00071637617369881576 -3.2534317688876491e-05 0 0.00073959941317287619 -2.72501000466898e-05 0 0.00072700721415723275 -2.4604654249714989e-05 0 0.0007120316458111923 -2.0734158591858963e-05 0 0.00072700721415723275 -2.4604654249714989e-05 0 0.00073009928867017945 -1.6042732388999873e-05 0 0.00073487290383291446 -2.3397182528745299e-05 0 0.00072700721415723275 -2.4604654249714989e-05 0 0.00073009928867017945 -1.6042732388999873e-05 0 0.00041966872784747516 9.8217435990530393e-06 0 0.00058945720187409496 1.3968383262806697e-05 0 0.00019742997396393188 5.1749218461189834e-05 0 0.00026946277263855328 -2.3411859028664743e-05 0 0.00042085619209917505 6.4441422047835348e-05 0 0.0011784024940413118 -8.3209214113679771e-05 0 0.0011058251437773231 -0.00013738940391411255 0 0.001195927828884665 -0.00016086472094604861 0 0.0012419396599978904 -0.00014922392122809398 0 0.0011784024940413118 -8.3209214113679771e-05 0 0.001195927828884665 -0.00016086472094604861 0 0.00098936376086129979 -6.7618601085650751e-05 0 0.00083521436284159296 -0.00011134114460393491 0 0.0010765218091757513 -0.00019848579606099515 0 0.0011168882065488482 -0.000136472627933703 0 0.0010116059590143619 -0.00018534492833379476 0 0.0010765218091757513 -0.00019848579606099515 0 0.0010202690640212545 -0.00023093641895779752 0 0.0010116059590143619 -0.00018534492833379476 0 0.00073487290383291446 -2.3397182528745299e-05 0 0.00073009928867017945 -1.6042732388999873e-05 0 0.00074124494659685456 -2.3326832710793284e-05 0 0.00083521436284159296 -0.00011134114460393491 0 0.00093172500765144794 -9.2785069292611932e-05 0 0.0010202690640212545 -0.00023093641895779752 0 0.0010116059590143619 -0.00018534492833379476 0 0.00091111059214099295 -0.0002298960116795756 0 0.00073009928867017945 -1.6042732388999873e-05 0 0.00074124494659685456 -2.3326832710793284e-05 0 0.00074282050833272806 -1.5122164471415766e-06 0 0.0011072424294074658 -0.00016288814003727686 0 0.00093172500765144794 -9.2785069292611932e-05 0 0.0011784024940413118 -8.3209214113679771e-05 0 0.0011058251437773231 -0.00013738940391411255 0 0.0010439286687961614 -5.6846384261398658e-05 0 0.0011058251437773231 -0.00013738940391411255 0 0.0010397605057645533 -0.00012323715838394883 0 0.0010439286687961614 -5.6846384261398658e-05 0 0.0010397605057645533 -0.00012323715838394883 0 0.00098936362377702986 -6.5674587820517042e-05 0 0.00098953282209009717 -0.00013087527545583159 0 0.0010397605057645533 -0.00012323715838394883 0 0.00098936362377702986 -6.5674587820517042e-05 0 0.0010439286687961614 -5.6846384261398658e-05 0 0.001026500168104654 -5.0145702860735523e-05 0 0.00093172500765144794 -9.2785069292611932e-05 0 0.00074607581643814985 -2.859824767483953e-05 0 0.00074124494659685456 -2.3326832710793284e-05 0 0.00075100375154433683 -2.1734296651422322e-05 0 0.00074124494659685456 -2.3326832710793284e-05 0 0.00074282050833272806 -1.5122164471415766e-06 0 0.00075100375154433683 -2.1734296651422322e-05 0 0.00074607581643814985 -2.859824767483953e-05 0 0.00075100375154433683 -2.1734296651422322e-05 0 0.00077608450043482446 -2.2149814245762823e-05 0 0.00074282050833272806 -1.5122164471415766e-06 0 0.00075100375154433683 -2.1734296651422322e-05 0 0.00077608450043482446 -2.2149814245762823e-05 0 0.00077470046254528909 -1.908267036692004e-05 0 0.00074607581643814985 -2.859824767483953e-05 0 0.00079535566262665708 -1.9906834757099184e-05 0 0.00074282050833272806 -1.5122164471415766e-06 0 0.00077608450043482446 -2.2149814245762823e-05 0 0.00084017979585359042 -1.9722785779500548e-05 0 0.00074607581643814985 -2.859824767483953e-05 0 0.00077608450043482446 -2.2149814245762823e-05 0 0.00079535566262665708 -1.9906834757099184e-05 0 0.00077608450043482446 -2.2149814245762823e-05 0 0.00079535566262665708 -1.9906834757099184e-05 0 0.00084017979585359042 -1.9722785779500548e-05 0 0.00093172500765144794 -9.2785069292611932e-05 0 0.0008390439993432885 -2.236133293126177e-06 0 0.00098936362377702986 -6.5674587820517042e-05 0 0.0010967791758183893 -1.5834181198131106e-05 0 0.00084017979585359042 -1.9722785779500548e-05 0 0.00098936362377702986 -6.5674587820517042e-05 0 0.00084017979585359042 -1.9722785779500548e-05 0 0.00091876724713752292 -8.6362327531554176e-05 0 0.00098936362377702986 -6.5674587820517042e-05 0 0.00091876724713752292 -8.6362327531554176e-05 0 0.00098953282209009717 -0.00013087527545583159 0 0.00091876724713752292 -8.6362327531554176e-05 0 0.00090623681732270999 -0.00012019230159600364 0 0.00085410436865099553 -6.7692054674154623e-05 0 0.00084017979585359042 -1.9722785779500548e-05 0 0.00091876724713752292 -8.6362327531554176e-05 0 0.00085410436865099553 -6.7692054674154623e-05 0 0.00095616521992709501 -0.00014983090790623586 0 0.0010235589637942648 -0.00020085330195655606 0 0.00095979788172089169 -0.00019206559668950279 0 0.00091876724713752292 -8.6362327531554176e-05 0 0.00090623681732270999 -0.00012019230159600364 0 0.00095616521992709501 -0.00014983090790623586 0 0.00090623681732270999 -0.00012019230159600364 0 0.00095616521992709501 -0.00014983090790623586 0 0.00092216685518296316 -0.0001542643304336405 0 0.00091876724713752292 -8.6362327531554176e-05 0 0.00095616521992709501 -0.00014983090790623586 0 0.00098953282209009717 -0.00013087527545583159 0 0.00095616521992709501 -0.00014983090790623586 0 0.00092216685518296316 -0.0001542643304336405 0 0.00095979788172089169 -0.00019206559668950279 0 0.0010798238740125543 -0.00025959954455644915 0 0.00095979788172089169 -0.00019206559668950279 0 0.00090465122828821854 -0.00021833343500522005 0 0.0010974986985613322 -0.00019239423601198529 0 0.00096933802638180303 -0.0001938858085484843 0 0.0010798238740125543 -0.00025959954455644915 0 0.00090465122828821854 -0.00021833343500522005 0 0.0011576500351679034 -0.00030945530725699994 0 0.0010798238740125543 -0.00025959954455644915 0 0.0011755219078105994 -0.00018210203835939171 0 0.00095979788172089169 -0.00019206559668950279 0 0.0010798238740125543 -0.00025959954455644915 0 0.0011465347261061781 -0.00024551395187867695 0 0.0011053539393722923 -0.00029326782393704624 0 0.0010798238740125543 -0.00025959954455644915 0 0.0011465347261061781 -0.00024551395187867695 0 0.0011755219078105994 -0.00018210203835939171 0 0.0011465347261061781 -0.00024551395187867695 0 0.0011755219078105994 -0.00018210203835939171 0 0.0012122290604476959 -0.00025665029809783524 0 0.0010397605057645533 -0.00012323715838394883 0 0.0010235589637942648 -0.00020085330195655606 0 0.00098953282209009717 -0.00013087527545583159 0 0.0011058251437773231 -0.00013738940391411255 0 0.0010397605057645533 -0.00012323715838394883 0 0.0010235589637942648 -0.00020085330195655606 0 0.00095616521992709501 -0.00014983090790623586 0 0.0010235589637942648 -0.00020085330195655606 0 0.00098953282209009717 -0.00013087527545583159 0 0.0011058251437773231 -0.00013738940391411255 0 0.0010235589637942648 -0.00020085330195655606 0 0.0011613657020567607 -0.00021226262587386633 0 0.0011058251437773231 -0.00013738940391411255 0 0.0011613657020567607 -0.00021226262587386633 0 0.001195927828884665 -0.00016086472094604861 0 0.0010974986985613322 -0.00019239423601198529 0 0.001221318815828609 -0.00020134315229204769 0 0.0012122290604476959 -0.00025665029809783524 0 0.0012820557433092653 -0.00019153040340259603 0 0.0012886982831162373 -0.00027147387484564487 0 0.0011755219078105994 -0.00018210203835939171 0 0.0012122290604476959 -0.00025665029809783524 0 0.0012820557433092653 -0.00019153040340259603 0 0.0013464765319824109 -0.00025226654896248551 0 0.0012820557433092653 -0.00019153040340259603 0 0.0012886982831162373 -0.00027147387484564487 0 0.0013169344118331764 -0.00020974864915417068 0 0.001221318815828609 -0.00020134315229204769 0 0.0012814775440614728 -0.00021326249574914571 0 0.0011613657020567607 -0.00021226262587386633 0 0.001195927828884665 -0.00016086472094604861 0 0.0027493842246968441 0.00054760853156608021 0 0.0029036239865606402 0.00043817506856062523 0 0.0027193492664557323 0.00038886351645973699 0 0.0029036239865606402 0.00043817506856062523 0 0.0029871710997385835 0.00058289946231149519 0 0.0030718505810935592 0.00035430052371291965 0 0.0027493842246968441 0.00054760853156608021 0 0.0029036239865606402 0.00043817506856062523 0 0.0029871710997385835 0.00058289946231149519 0 0.0028712415149738267 0.00018655800142980346 0 0.0029036239865606402 0.00043817506856062523 0 0.0030718505810935592 0.00035430052371291965 0 0.0028712415149738267 0.00018655800142980346 0 0.0029036239865606402 0.00043817506856062523 0 0.0027193492664557323 0.00038886351645973699 0 0.00077470046254528909 -1.908267036692004e-05 0 0.00080684897058836736 -1.0308615284416409e-05 0 0.00080842379571963293 -2.1548548927169847e-05 0 0.00077470046254528909 -1.908267036692004e-05 0 0.00079535566262665708 -1.9906834757099184e-05 0 0.00080842379571963293 -2.1548548927169847e-05 0 0.00079535566262665708 -1.9906834757099184e-05 0 0.00084017979585359042 -1.9722785779500548e-05 0 0.00080842379571963293 -2.1548548927169847e-05 0 0.00080842379571963293 -2.1548548927169847e-05 0 0.00085410436865099553 -6.7692054674154623e-05 0 0.00080714760573783037 -6.1342385706829956e-05 0 0.00084017979585359042 -1.9722785779500548e-05 0 0.00080842379571963293 -2.1548548927169847e-05 0 0.00085410436865099553 -6.7692054674154623e-05 0 0.00063605423604984703 -0.00016413621820822135 0 0.00158974176288651 -4.5336224428713414e-05 0 0.0027493842246968441 0.00054760853156608021 0 0.0027193492664557323 0.00038886351645973699 0 0.0025633894367301895 0.00059711337564827033 0 0.0017651701053325393 0.00024487706744627112 0 0.00158974176288651 -4.5336224428713414e-05 0 0.00080684897058836736 -1.0308615284416409e-05 0 0.00080842379571963293 -2.1548548927169847e-05 0 0.00080714760573783037 -6.1342385706829956e-05 0 0.0017502019205736649 -0.0011676786714976569 0 0.001458161440420442 -0.0007575406502419908 0 0.0018556885207343336 -0.00078270344009589174 0 0.0017502019205736649 -0.0011676786714976569 0 0.0018556885207343336 -0.00078270344009589174 0 0.00232788736848454 -0.00092726090102733831 0 0.00158974176288651 -4.5336224428713414e-05 0 0.0011882540688311902 -0.00055607327188964006 0 0.00080774034849522946 -0.00010794640594930741 0 0.00087436350850630398 -0.00014207340974037923 0 0.00090465122828821854 -0.00021833343500522005 0 0.00090623681732270999 -0.00012019230159600364 0 0.00085410436865099553 -6.7692054674154623e-05 0 0.00087436350850630398 -0.00014207340974037923 0 0.00090623681732270999 -0.00012019230159600364 0 0.00087436350850630398 -0.00014207340974037923 0 0.00092216685518296316 -0.0001542643304336405 0 0.00085410436865099553 -6.7692054674154623e-05 0 0.00080774034849522946 -0.00010794640594930741 0 0.00087436350850630398 -0.00014207340974037923 0 0.00087436350850630398 -0.00014207340974037923 0 0.00091646745403319105 -0.00017483951044033931 0 0.00090465122828821854 -0.00021833343500522005 0 0.00091646745403319105 -0.00017483951044033931 0 0.00092216685518296316 -0.0001542643304336405 0 0.00095979788172089169 -0.00019206559668950279 0 0.00087436350850630398 -0.00014207340974037923 0 0.00091646745403319105 -0.00017483951044033931 0 0.00092216685518296316 -0.0001542643304336405 0 0.001458161440420442 -0.0007575406502419908 0 0.0018556885207343336 -0.00078270344009589174 0 0.0016655803321543898 -0.00060375817686194732 0 0.0011882540688311902 -0.00055607327188964006 0 0.0011320837137254068 -0.00029668011915502418 0 0.00091646745403319105 -0.00017483951044033931 0 0.00095979788172089169 -0.00019206559668950279 0 0.00090465122828821854 -0.00021833343500522005 0 0.001458161440420442 -0.0007575406502419908 0 0.0015147668284690764 -0.00053450573949548189 0 0.0016655803321543898 -0.00060375817686194732 0 0.001458161440420442 -0.0007575406502419908 0 0.0015147668284690764 -0.00053450573949548189 0 0.001400491769548894 -0.00041069776150946639 0 0.0018556885207343336 -0.00078270344009589174 0 0.0016655803321543898 -0.00060375817686194732 0 0.0018053934034569657 -0.00042008349782475762 0 0.0018556885207343336 -0.00078270344009589174 0 0.0018053934034569657 -0.00042008349782475762 0 0.0020971268073070198 -0.00049161322333188446 0 0.00232788736848454 -0.00092726090102733831 0 0.0024922111743780418 -0.00059619641306802793 0 0.0020971268073070198 -0.00049161322333188446 0 0.0018556885207343336 -0.00078270344009589174 0 0.00232788736848454 -0.00092726090102733831 0 0.0020971268073070198 -0.00049161322333188446 0 0.00158974176288651 -4.5336224428713414e-05 0 0.0025965916245803164 -0.00010906829446620741 0 0.0027493842246968441 0.00054760853156608021 0 0.0025633894367301895 0.00059711337564827033 0 0.0028131182471519993 0.00069545001234824289 0 0.0028131182471519993 0.00069545001234824289 0 0.0029871710997385835 0.00058289946231149519 0 0.0030555304003230029 0.00078464270398260333 0 0.0027493842246968441 0.00054760853156608021 0 0.0028131182471519993 0.00069545001234824289 0 0.0029871710997385835 0.00058289946231149519 0 0.00232788736848454 -0.00092726090102733831 0 0.0024922111743780418 -0.00059619641306802793 0 0.0028626658891204295 -0.00069808040703864499 0 0.0025965916245803164 -0.00010906829446620741 0 0.0033925967236227098 -0.00021995226099095417 0 0.0041162613258280828 -0.00030107562060776108 0 0.0040519346943092708 -0.0003293293507816032 0 0.0039731039178183261 -0.00011388280934377739 0 0.0033925967236227098 -0.00021995226099095417 0 0.0040212165807021784 -0.00016246087898423789 0 0.0041011324489828626 -0.00031236860372523218 0 0.0040519346943092708 -0.0003293293507816032 0 0.0040920549003723413 -0.00040875523041229467 0 0.0039854070581593886 -0.00035413798491450008 0 0.0039359004405495187 -0.00024582356316895531 0 0.0039195680741266857 -0.00037401900916521553 0 0.0040519346943092708 -0.0003293293507816032 0 0.0039854070581593886 -0.00035413798491450008 0 0.0039359004405495187 -0.00024582356316895531 0 0.0040519346943092708 -0.0003293293507816032 0 0.0039359004405495187 -0.00024582356316895531 0 0.0039731039178183261 -0.00011388280934377739 0 0.0033925967236227098 -0.00021995226099095417 0 0.0036036178969238004 0.00031403737936739918 0 0.0029871710997385835 0.00058289946231149519 0 0.0030555304003230029 0.00078464270398260333 0 0.0032101888936910796 0.0005790205589109752 0 0.0039359004405495187 -0.00024582356316895531 0 0.0037639734057316769 -0.00024210431488823196 0 0.0039195680741266857 -0.00037401900916521553 0 0.0039359004405495187 -0.00024582356316895531 0 0.0037639734057316769 -0.00024210431488823196 0 0.0037447435246069122 -0.00011710269916755938 0 0.0039359004405495187 -0.00024582356316895531 0 0.0037447435246069122 -0.00011710269916755938 0 0.0039731039178183261 -0.00011388280934377739 0 0.0037639734057316769 -0.00024210431488823196 0 0.0037447435246069122 -0.00011710269916755938 0 0.0036460268183830047 -0.00019539712096735621 0 0.0037447435246069122 -0.00011710269916755938 0 0.0037960809094651584 5.6110092490480406e-05 0 0.0036079314077634866 9.815884750563782e-06 0 0.0035852233019297761 0.00019372718203974519 0 0.0036036178969238004 0.00031403737936739918 0 0.0037447435246069122 -0.00011710269916755938 0 0.0037960809094651584 5.6110092490480406e-05 0 0.0039731039178183261 -0.00011388280934377739 0 0.0037960809094651584 5.6110092490480406e-05 0 0.0036164807131347245 0.0001049771757375419 0 0.0036079314077634866 9.815884750563782e-06 0 0.0029871710997385835 0.00058289946231149519 0 0.0032101888936910796 0.0005790205589109752 0 0.0030718505810935592 0.00035430052371291965 0 0.0033708187080217526 0.00037945472349533248 0 0.0032101888936910796 0.0005790205589109752 0 0.0030718505810935592 0.00035430052371291965 0 0.0033708187080217526 0.00037945472349533248 0 0.0030718505810935592 0.00035430052371291965 0 0.0032092225684313466 0.00018526301636980456 0 0.0030718505810935592 0.00035430052371291965 0 0.0030594043090499982 0.00014443346733194172 0 0.0032092225684313466 0.00018526301636980456 0 0.0028712415149738267 0.00018655800142980346 0 0.0030718505810935592 0.00035430052371291965 0 0.0030594043090499982 0.00014443346733194172 0 0.0030594043090499982 0.00014443346733194172 0 0.0031402192613076271 4.8708090832323605e-05 0 0.0032092225684313466 0.00018526301636980456 0 0.0030594043090499982 0.00014443346733194172 0 0.0031402192613076271 4.8708090832323605e-05 0 0.0030317357267987863 -8.7762277174655102e-06 0 0.0032642310948515912 6.9505384670742314e-05 0 0.0032092225684313466 0.00018526301636980456 0 0.0033726121749661831 0.00015964317744897492 0 0.0032642310948515912 6.9505384670742314e-05 0 0.0031402192613076271 4.8708090832323605e-05 0 0.0032092225684313466 0.00018526301636980456 0 0.0033708187080217526 0.00037945472349533248 0 0.0035577517318656671 0.00015503918923338197 0 0.0033726121749661831 0.00015964317744897492 0 0.0033708187080217526 0.00037945472349533248 0 0.0032092225684313466 0.00018526301636980456 0 0.0033726121749661831 0.00015964317744897492 0 0.0035852233019297761 0.00019372718203974519 0 0.0035674802633809382 0.00016251027223092258 0 0.0037960809094651584 5.6110092490480406e-05 0 0.0036164807131347245 0.0001049771757375419 0 0.0035577517318656671 0.00015503918923338197 0 0.0036164807131347245 0.0001049771757375419 0 0.0035577517318656671 0.00015503918923338197 0 0.0036056699664462335 0.00017358675011731775 0 0.0031892448961512256 -4.3406070808733569e-05 0 0.0031754968451744958 -4.6012233491932351e-05 0 0.0031875609075045822 -1.6109234761972507e-05 0 0.0035577517318656671 0.00015503918923338197 0 0.0034520616930592335 4.3820066526865963e-05 0 0.0036056699664462335 0.00017358675011731775 0 0.0033107597826430202 3.7487516362567508e-06 0 0.0033933231732561778 7.194277223369913e-05 0 0.0035577517318656671 0.00015503918923338197 0 0.0033726121749661831 0.00015964317744897492 0 0.0034520616930592335 4.3820066526865963e-05 0 0.0032642310948515912 6.9505384670742314e-05 0 0.0033726121749661831 0.00015964317744897492 0 0.0034520616930592335 4.3820066526865963e-05 0 0.0031754968451744958 -4.6012233491932351e-05 0 0.0031725619863374179 -6.0949559496584108e-05 0 0.0031823443657003647 -5.4195515076700203e-05 0 0.0031754968451744958 -4.6012233491932351e-05 0 0.0031725619863374179 -6.0949559496584108e-05 0 0.0031686925541557797 -6.1195247922895226e-05 0 0.0032642310948515912 6.9505384670742314e-05 0 0.0034520616930592335 4.3820066526865963e-05 0 0.0031686925541557797 -6.1195247922895226e-05 0 0.0033107597826430202 3.7487516362567508e-06 0 0.0031832107125673516 -5.96167257949406e-05 0 0.0031892448961512256 -4.3406070808733569e-05 0 0.0031823443657003647 -5.4195515076700203e-05 0 0.0031982125852227611 -4.7567333428687404e-05 0 0.0031892448961512256 -4.3406070808733569e-05 0 0.0031754968451744958 -4.6012233491932351e-05 0 0.0031823443657003647 -5.4195515076700203e-05 0 0.0031823443657003647 -5.4195515076700203e-05 0 0.0031898220791883006 -5.755023804469858e-05 0 0.0031982125852227611 -4.7567333428687404e-05 0 0.0031898220791883006 -5.755023804469858e-05 0 0.0031746012257060164 -7.1765016457741909e-05 0 0.0031894480390672391 -7.0596330779500185e-05 0 0.0031823443657003647 -5.4195515076700203e-05 0 0.0031898220791883006 -5.755023804469858e-05 0 0.0031746012257060164 -7.1765016457741909e-05 0 0.0031725619863374179 -6.0949559496584108e-05 0 0.0031634541201703177 -8.0205067027997988e-05 0 0.0031686925541557797 -6.1195247922895226e-05 0 0.0031725619863374179 -6.0949559496584108e-05 0 0.0031746012257060164 -7.1765016457741909e-05 0 0.0031634541201703177 -8.0205067027997988e-05 0 0.0031725619863374179 -6.0949559496584108e-05 0 0.0031823443657003647 -5.4195515076700203e-05 0 0.0031746012257060164 -7.1765016457741909e-05 0 0.0031634541201703177 -8.0205067027997988e-05 0 0.0031446732908967973 -9.6797122667066326e-05 0 0.0031686925541557797 -6.1195247922895226e-05 0 0.00095556173787869202 -0.00027225029348338243 0 0.0010232250948631839 -0.00020331491862233495 0 0.0009258682314021438 -0.00019205523074609541 0 0.0010232250948631839 -0.00020331491862233495 0 0.0009258682314021438 -0.00019205523074609541 0 0.00093132797934235702 -0.00010486816119443319 0 0.0031402192613076271 4.8708090832323605e-05 0 0.0030317357267987863 -8.7762277174655102e-06 0 0.0031686925541557797 -6.1195247922895226e-05 0 0.0031446732908967973 -9.6797122667066326e-05 0 0.0030317357267987863 -8.7762277174655102e-06 0 0.0031686925541557797 -6.1195247922895226e-05 0 0.0020818904703577864 -0.00014952341232138581 0 0.0019806145900639169 -5.2694329708612111e-05 0 0.0032642310948515912 6.9505384670742314e-05 0 0.0031402192613076271 4.8708090832323605e-05 0 0.0031686925541557797 -6.1195247922895226e-05 0 0.0029541612416632752 2.8050103587280457e-05 0 0.00299764203002598 -3.4913193227800293e-05 0 0.0028671901903673217 -1.8724165115745111e-05 0 0.0029959655096847746 -2.9393373785234621e-05 0 0.0030763937246106317 8.5924087371395193e-05 0 0.0029541612416632752 2.8050103587280457e-05 0 0.00299764203002598 -3.4913193227800293e-05 0 0.0029792461406634944 4.962646912403455e-05 0 0.00299764203002598 -3.4913193227800293e-05 0 0.0031665155953549597 0.00011146823939498465 0 0.0032003832207692256 -1.5608892028099244e-05 0 0.00299764203002598 -3.4913193227800293e-05 0 0.0032003832207692256 -1.5608892028099244e-05 0 0.0031554630890055185 -7.8659329436127934e-05 0 0.0028671901903673217 -1.8724165115745111e-05 0 0.0028409964674399137 0.00010647559359058982 0 0.0026840603773341716 -9.9485573057580474e-05 0 0.00299764203002598 -3.4913193227800293e-05 0 0.0028671901903673217 -1.8724165115745111e-05 0 0.0028466071962414464 -0.00011343514285588127 0 0.0028671901903673217 -1.8724165115745111e-05 0 0.0028466071962414464 -0.00011343514285588127 0 0.0026840603773341716 -9.9485573057580474e-05 0 0.0029541612416632752 2.8050103587280457e-05 0 0.0028671901903673217 -1.8724165115745111e-05 0 0.0029084677782404791 5.7311156049164382e-05 0 0.0028671901903673217 -1.8724165115745111e-05 0 0.0029084677782404791 5.7311156049164382e-05 0 0.0028409964674399137 0.00010647559359058982 0 0.002907230599272264 0.00010384268737240876 0 0.0029084677782404791 5.7311156049164382e-05 0 0.0028409964674399137 0.00010647559359058982 0 0.002907230599272264 0.00010384268737240876 0 0.0029467403694447571 0.00010380041149696854 0 0.0029417122569183 6.9153112833320209e-05 0 0.002907230599272264 0.00010384268737240876 0 0.0029084677782404791 5.7311156049164382e-05 0 0.0029417122569183 6.9153112833320209e-05 0 0.0029467403694447571 0.00010380041149696854 0 0.0029417122569183 6.9153112833320209e-05 0 0.0029792461406634944 4.962646912403455e-05 0 0.0029541612416632752 2.8050103587280457e-05 0 0.0029084677782404791 5.7311156049164382e-05 0 0.0029417122569183 6.9153112833320209e-05 0 0.0029541612416632752 2.8050103587280457e-05 0 0.0029417122569183 6.9153112833320209e-05 0 0.0029792461406634944 4.962646912403455e-05 0 0.0030651064823085093 0.00014762464619497988 0 0.0030763937246106317 8.5924087371395193e-05 0 0.0030651064823085093 0.00014762464619497988 0 0.003243553025619328 -1.1795378016703206e-05 0 0.003212061218670867 -6.7225336173502549e-05 0 0.0032037299529623273 -4.6055639566430475e-05 0 0.0032003832207692256 -1.5608892028099244e-05 0 0.0029467403694447571 0.00010380041149696854 0 0.002981702439014763 9.8030988437373029e-05 0 0.0029792461406634944 4.962646912403455e-05 0 0.0033033731854695079 0.00028742339433464201 0 0.0031665155953549597 0.00011146823939498465 0 0.0032003832207692256 -1.5608892028099244e-05 0 0.003212061218670867 -6.7225336173502549e-05 0 0.0031894480390672391 -7.0596330779500185e-05 0 0.0032037299529623273 -4.6055639566430475e-05 0 0.0031898220791883006 -5.755023804469858e-05 0 0.0031894480390672391 -7.0596330779500185e-05 0 0.0032037299529623273 -4.6055639566430475e-05 0 0.0031898220791883006 -5.755023804469858e-05 0 0.0032037299529623273 -4.6055639566430475e-05 0 0.0031982125852227611 -4.7567333428687404e-05 0 0.0032037299529623273 -4.6055639566430475e-05 0 0.0031982125852227611 -4.7567333428687404e-05 0 0.0032126840150921202 -4.2521127335408197e-05 0 0.0031982125852227611 -4.7567333428687404e-05 0 0.0032126840150921202 -4.2521127335408197e-05 0 0.0032036351431035488 -4.2208994888652594e-05 0 0.0032037299529623273 -4.6055639566430475e-05 0 0.0032003832207692256 -1.5608892028099244e-05 0 0.0032126840150921202 -4.2521127335408197e-05 0 0.0032003832207692256 -1.5608892028099244e-05 0 0.0032126840150921202 -4.2521127335408197e-05 0 0.0032113161830247972 -5.6921308103293196e-05 0 0.0032003832207692256 -1.5608892028099244e-05 0 0.0032113161830247972 -5.6921308103293196e-05 0 0.0031554630890055185 -7.8659329436127934e-05 0 0.0032113161830247972 -5.6921308103293196e-05 0 0.0032553466967884252 -3.1595385021443227e-05 0 0.0031554630890055185 -7.8659329436127934e-05 0 0.0032126840150921202 -4.2521127335408197e-05 0 0.0032113161830247972 -5.6921308103293196e-05 0 0.0032226265412451092 -4.5254342939037164e-05 0 0.0032113161830247972 -5.6921308103293196e-05 0 0.0032226265412451092 -4.5254342939037164e-05 0 0.0032553466967884252 -3.1595385021443227e-05 0 0.0032226265412451092 -4.5254342939037164e-05 0 0.0032553466967884252 -3.1595385021443227e-05 0 0.003250903977087779 -2.2630373108638625e-05 0 0.0031892448961512256 -4.3406070808733569e-05 0 0.0032036351431035488 -4.2208994888652594e-05 0 0.0031875609075045822 -1.6109234761972507e-05 0 0.0031892448961512256 -4.3406070808733569e-05 0 0.0031982125852227611 -4.7567333428687404e-05 0 0.0032036351431035488 -4.2208994888652594e-05 0 0.0032126840150921202 -4.2521127335408197e-05 0 0.0032226265412451092 -4.5254342939037164e-05 0 0.0032036351431035488 -4.2208994888652594e-05 0 0.0032226265412451092 -4.5254342939037164e-05 0 0.0032036351431035488 -4.2208994888652594e-05 0 0.0032153995393327697 -3.4295643702232104e-05 0 0.0032153995393327697 -3.4295643702232104e-05 0 0.0031875609075045822 -1.6109234761972507e-05 0 0.003250903977087779 -2.2630373108638625e-05 0 0.0032226265412451092 -4.5254342939037164e-05 0 0.0032153995393327697 -3.4295643702232104e-05 0 0.003250903977087779 -2.2630373108638625e-05 0 0.0032036351431035488 -4.2208994888652594e-05 0 0.0032153995393327697 -3.4295643702232104e-05 0 0.0031875609075045822 -1.6109234761972507e-05 0 0.0036056699664462335 0.00017358675011731775 0 0.0035457607849335455 6.4880677003034649e-05 0 0.0033682188283135697 4.4972979784765645e-05 0 0.0036164807131347245 0.0001049771757375419 0 0.0036056699664462335 0.00017358675011731775 0 0.0035457607849335455 6.4880677003034649e-05 0 0.0033933231732561778 7.194277223369913e-05 0 0.0033663241702881403 4.7296758307180242e-05 0 0.0031875609075045822 -1.6109234761972507e-05 0 0.003250903977087779 -2.2630373108638625e-05 0 0.0033682188283135697 4.4972979784765645e-05 0 0.0032553466967884252 -3.1595385021443227e-05 0 0.003250903977087779 -2.2630373108638625e-05 0 0.0033682188283135697 4.4972979784765645e-05 0 0.0032553466967884252 -3.1595385021443227e-05 0 0.0033466527485133844 1.8299874459468766e-05 0 0.0033682188283135697 4.4972979784765645e-05 0 0.0029320039886406202 -0.00026159393358028373 0 0.0029269242018982598 -0.00016311976610829994 0 0.0031554630890055185 -7.8659329436127934e-05 0 0.0032553466967884252 -3.1595385021443227e-05 0 0.0033466527485133844 1.8299874459468766e-05 0 0.0031554630890055185 -7.8659329436127934e-05 0 0.0031395780746062661 -0.00011076790311979255 0 0.0031608690253796452 -6.5237258492598338e-05 0 0.00299764203002598 -3.4913193227800293e-05 0 0.0029269242018982598 -0.00016311976610829994 0 0.0031554630890055185 -7.8659329436127934e-05 0 0.0029269242018982598 -0.00016311976610829994 0 0.0028466071962414464 -0.00011343514285588127 0 0.0027824996707071096 -0.00020512164533404857 0 0.00299764203002598 -3.4913193227800293e-05 0 0.0029269242018982598 -0.00016311976610829994 0 0.0028466071962414464 -0.00011343514285588127 0 0.0029320039886406202 -0.00026159393358028373 0 0.0028128137189545694 -0.00027015170510968304 0 0.0027824996707071096 -0.00020512164533404857 0 0.0029320039886406202 -0.00026159393358028373 0 0.0029269242018982598 -0.00016311976610829994 0 0.0027824996707071096 -0.00020512164533404857 0 0.0029320039886406202 -0.00026159393358028373 0 0.0028128137189545694 -0.00027015170510968304 0 0.0028434512294876505 -0.00029615043290144745 0 0.0028128137189545694 -0.00027015170510968304 0 0.0028434512294876505 -0.00029615043290144745 0 0.0027940251607551916 -0.00029400746323695725 0 0.0033466527485133844 1.8299874459468766e-05 0 0.0033457828526773405 -1.3684793046696334e-05 0 0.0033682188283135697 4.4972979784765645e-05 0 0.0031395780746062661 -0.00011076790311979255 0 0.0030984573155269416 -0.00015435880556318617 0 0.0033457828526773405 -1.3684793046696334e-05 0 0.0033682188283135697 4.4972979784765645e-05 0 0.003434583089812291 -3.9967871379631413e-05 0 0.0033457828526773405 -1.3684793046696334e-05 0 0.003434583089812291 -3.9967871379631413e-05 0 0.0034268287778923389 -0.00011883270669897368 0 0.0028434512294876505 -0.00029615043290144745 0 0.0028114967891221892 -0.00031160383630465533 0 0.0027940251607551916 -0.00029400746323695725 0 0.0033457828526773405 -1.3684793046696334e-05 0 0.0033116074249926056 -0.00013680811272453008 0 0.0034268287778923389 -0.00011883270669897368 0 0.0030984573155269416 -0.00015435880556318617 0 0.0030533843773071063 -0.00022453605343354161 0 0.0036079314077634866 9.815884750563782e-06 0 0.0035457607849335455 6.4880677003034649e-05 0 0.0034823305076103965 1.0490554840993315e-06 0 0.0036164807131347245 0.0001049771757375419 0 0.0036079314077634866 9.815884750563782e-06 0 0.0035457607849335455 6.4880677003034649e-05 0 0.0035457607849335455 6.4880677003034649e-05 0 0.0033682188283135697 4.4972979784765645e-05 0 0.0034823305076103965 1.0490554840993315e-06 0 0.0033682188283135697 4.4972979784765645e-05 0 0.0034823305076103965 1.0490554840993315e-06 0 0.003434583089812291 -3.9967871379631413e-05 0 0.0034823305076103965 1.0490554840993315e-06 0 0.003434583089812291 -3.9967871379631413e-05 0 0.0035400410605434941 -9.1889908009151213e-05 0 0.003434583089812291 -3.9967871379631413e-05 0 0.0035400410605434941 -9.1889908009151213e-05 0 0.0034268287778923389 -0.00011883270669897368 0 0.0037447435246069122 -0.00011710269916755938 0 0.0036079314077634866 9.815884750563782e-06 0 0.0035400410605434941 -9.1889908009151213e-05 0 0.0036079314077634866 9.815884750563782e-06 0 0.0034823305076103965 1.0490554840993315e-06 0 0.0035400410605434941 -9.1889908009151213e-05 0 0.0035400410605434941 -9.1889908009151213e-05 0 0.0036460268183830047 -0.00019539712096735621 0 0.0035519749561256204 -0.00020624340402926826 0 0.0037447435246069122 -0.00011710269916755938 0 0.0035400410605434941 -9.1889908009151213e-05 0 0.0036460268183830047 -0.00019539712096735621 0 0.0035400410605434941 -9.1889908009151213e-05 0 0.0035519749561256204 -0.00020624340402926826 0 0.0034268287778923389 -0.00011883270669897368 0 0.0035519749561256204 -0.00020624340402926826 0 0.0034268287778923389 -0.00011883270669897368 0 0.0034783359992165272 -0.00024269677211591681 0 0.0035519749561256204 -0.00020624340402926826 0 0.0035490027815633773 -0.00029560021011239144 0 0.0036458587754472104 -0.0002988944642346908 0 0.0035519749561256204 -0.00020624340402926826 0 0.0034783359992165272 -0.00024269677211591681 0 0.0035490027815633773 -0.00029560021011239144 0 0.0036460268183830047 -0.00019539712096735621 0 0.0035519749561256204 -0.00020624340402926826 0 0.0036458587754472104 -0.0002988944642346908 0 0.0037639734057316769 -0.00024210431488823196 0 0.0036460268183830047 -0.00019539712096735621 0 0.0036458587754472104 -0.0002988944642346908 0 0.0033116074249926056 -0.00013680811272453008 0 0.0034268287778923389 -0.00011883270669897368 0 0.0033922718094533048 -0.00018147581364153892 0 0.0034268287778923389 -0.00011883270669897368 0 0.0033922718094533048 -0.00018147581364153892 0 0.0034783359992165272 -0.00024269677211591681 0 0.0034783359992165272 -0.00024269677211591681 0 0.0034074266742810822 -0.0002316003607286386 0 0.0034603579366658515 -0.00031678282396061549 0 0.0033922718094533048 -0.00018147581364153892 0 0.0034783359992165272 -0.00024269677211591681 0 0.0033558040847179176 -0.00026693323229468247 0 0.0034546228346063177 -0.00024289981293438374 0 0.0034066390576165178 -0.00024484343744038569 0 0.0033116074249926056 -0.00013680811272453008 0 0.0033558040847179176 -0.00026693323229468247 0 0.00325630873181259 -0.00028414526679318794 0 0.0033116074249926056 -0.00013680811272453008 0 0.0033922718094533048 -0.00018147581364153892 0 0.0033558040847179176 -0.00026693323229468247 0 0.0030533843773071063 -0.00022453605343354161 0 0.003105746072919067 -0.00031004627454048238 0 0.0034074266742810822 -0.0002316003607286386 0 0.0033567946250410616 -0.00025711348055819226 0 0.003289591734388436 -0.00021864748887067575 0 0.0034066390576165178 -0.00024484343744038569 0 0.003105746072919067 -0.00031004627454048238 0 0.0033567946250410616 -0.00025711348055819226 0 0.0033030230870473255 -0.00029043908249285188 0 0.003309610392781688 -0.00024656340258108868 0 0.0033567946250410616 -0.00025711348055819226 0 0.003309610392781688 -0.00024656340258108868 0 0.003289591734388436 -0.00021864748887067575 0 0.0033567946250410616 -0.00025711348055819226 0 0.0033792382551541553 -0.00033004902363032492 0 0.0033030230870473255 -0.00029043908249285188 0 0.0034074266742810822 -0.0002316003607286386 0 0.0033567946250410616 -0.00025711348055819226 0 0.0034603579366658515 -0.00031678282396061549 0 0.0033567946250410616 -0.00025711348055819226 0 0.0033792382551541553 -0.00033004902363032492 0 0.0034603579366658515 -0.00031678282396061549 0 0.0033792382551541553 -0.00033004902363032492 0 0.0034603579366658515 -0.00031678282396061549 0 0.0033934402906220284 -0.0004074882415537076 0 0.0033792382551541553 -0.00033004902363032492 0 0.0033030230870473255 -0.00029043908249285188 0 0.0032781472425132238 -0.00036513778757516245 0 0.0034603579366658515 -0.00031678282396061549 0 0.0035785998515485539 -0.00038060578307591494 0 0.0035490027815633773 -0.00029560021011239144 0 0.0034783359992165272 -0.00024269677211591681 0 0.0034603579366658515 -0.00031678282396061549 0 0.0035490027815633773 -0.00029560021011239144 0 0.0035003269067076909 -0.00042944839524619154 0 0.0033934402906220284 -0.0004074882415537076 0 0.0034504349449970815 -0.00053130952604156674 0 0.0034603579366658515 -0.00031678282396061549 0 0.0035003269067076909 -0.00042944839524619154 0 0.0035785998515485539 -0.00038060578307591494 0 0.0034603579366658515 -0.00031678282396061549 0 0.0035003269067076909 -0.00042944839524619154 0 0.0033934402906220284 -0.0004074882415537076 0 0.0035003269067076909 -0.00042944839524619154 0 0.0036118892365162524 -0.00051046926446446936 0 0.0035785998515485539 -0.00038060578307591494 0 0.0033934402906220284 -0.0004074882415537076 0 0.0034504349449970815 -0.00053130952604156674 0 0.0032848459326516059 -0.00047443190992213188 0 0.0033792382551541553 -0.00033004902363032492 0 0.0033934402906220284 -0.0004074882415537076 0 0.0032781472425132238 -0.00036513778757516245 0 0.0033934402906220284 -0.0004074882415537076 0 0.0032848459326516059 -0.00047443190992213188 0 0.0032781472425132238 -0.00036513778757516245 0 0.0034504349449970815 -0.00053130952604156674 0 0.0032848459326516059 -0.00047443190992213188 0 0.0033283753686381033 -0.00062031800159429741 0 0.0035003269067076909 -0.00042944839524619154 0 0.0034504349449970815 -0.00053130952604156674 0 0.0036118892365162524 -0.00051046926446446936 0 0.0034504349449970815 -0.00053130952604156674 0 0.0035768329933281323 -0.00064978925775353641 0 0.0036118892365162524 -0.00051046926446446936 0 0.0034504349449970815 -0.00053130952604156674 0 0.0035768329933281323 -0.00064978925775353641 0 0.0034435377215274901 -0.0006495099987928125 0 0.0035768329933281323 -0.00064978925775353641 0 0.0034435377215274901 -0.0006495099987928125 0 0.0034717866175761241 -0.00075042495267735603 0 0.0034504349449970815 -0.00053130952604156674 0 0.0034435377215274901 -0.0006495099987928125 0 0.0033283753686381033 -0.00062031800159429741 0 0.0033859382977299555 -0.0007157246491090657 0 0.0033084950690905174 -0.00069109335234492303 0 0.0033283753686381033 -0.00062031800159429741 0 0.0034435377215274901 -0.0006495099987928125 0 0.0033859382977299555 -0.0007157246491090657 0 0.0033283753686381033 -0.00062031800159429741 0 0.0038764630306819901 -0.00057575509900332925 0 0.0039643942498284413 -0.00073142603132601717 0 0.0037457907809367408 -0.00064673004739618104 0 0.0038412896691579989 -0.00052239840631427875 0 0.0039874690124554338 -0.00073885706136331828 0 0.0037457907809367408 -0.00064673004739618104 0 0.0037262919021558167 -0.00052661560379922711 0 0.0038412896691579989 -0.00052239840631427875 0 0.0035768329933281323 -0.00064978925775353641 0 0.0037457907809367408 -0.00064673004739618104 0 0.0036118892365162524 -0.00051046926446446936 0 0.0037457907809367408 -0.00064673004739618104 0 0.0036118892365162524 -0.00051046926446446936 0 0.0037262919021558167 -0.00052661560379922711 0 0.0036118892365162524 -0.00051046926446446936 0 0.0037262919021558167 -0.00052661560379922711 0 0.0037011823439273891 -0.00043142069536769914 0 0.0037262919021558167 -0.00052661560379922711 0 0.0037011823439273891 -0.00043142069536769914 0 0.0038412896691579989 -0.00052239840631427875 0 0.0037011823439273891 -0.00043142069536769914 0 0.0037721239623139712 -0.00036849319530601806 0 0.0038412896691579989 -0.00052239840631427875 0 0.0036118892365162524 -0.00051046926446446936 0 0.0037011823439273891 -0.00043142069536769914 0 0.0035785998515485539 -0.00038060578307591494 0 0.0037011823439273891 -0.00043142069536769914 0 0.0035785998515485539 -0.00038060578307591494 0 0.0036458587754472104 -0.0002988944642346908 0 0.0035785998515485539 -0.00038060578307591494 0 0.0035490027815633773 -0.00029560021011239144 0 0.0036458587754472104 -0.0002988944642346908 0 0.0037011823439273891 -0.00043142069536769914 0 0.0036458587754472104 -0.0002988944642346908 0 0.0037721239623139712 -0.00036849319530601806 0 0.0037725433157702586 -0.00024866598839311368 0 0.0038003341054363708 -0.00041096786230749286 0 0.0037639734057316769 -0.00024210431488823196 0 0.0038263031101588899 -0.00046286035450617159 0 0.0039195680741266857 -0.00037401900916521553 0 0.0037639734057316769 -0.00024210431488823196 0 0.0036458587754472104 -0.0002988944642346908 0 0.0037721239623139712 -0.00036849319530601806 0 0.0038263031101588899 -0.00046286035450617159 0 0.0039195680741266857 -0.00037401900916521553 0 0.0039297902497134997 -0.00053874225565852 0 0.0039297902497134997 -0.00053874225565852 0 0.0040006087064219931 -0.00050158849695953838 0 0.0040358835608201088 -0.0005956792563463118 0 0.0039195680741266857 -0.00037401900916521553 0 0.0039297902497134997 -0.00053874225565852 0 0.0040006087064219931 -0.00050158849695953838 0 0.0038003341054363708 -0.00041096786230749286 0 0.0038764630306819901 -0.00057575509900332925 0 0.0038263031101588899 -0.00046286035450617159 0 0.0039297902497134997 -0.00053874225565852 0 0.0038993726780174446 -0.00061882460996275687 0 0.0041011324489828626 -0.00031236860372523218 0 0.0040920549003723413 -0.00040875523041229467 0 0.0041852543642993748 -0.00045477586515978711 0 0.0040920549003723413 -0.00040875523041229467 0 0.0040842623616816663 -0.00050937518419798473 0 0.0041852543642993748 -0.00045477586515978711 0 0.0040920549003723413 -0.00040875523041229467 0 0.0040276962796177151 -0.00042362945989216544 0 0.0040842623616816663 -0.00050937518419798473 0 0.0040519346943092708 -0.0003293293507816032 0 0.0040920549003723413 -0.00040875523041229467 0 0.0040276962796177151 -0.00042362945989216544 0 0.0039195680741266857 -0.00037401900916521553 0 0.0040276962796177151 -0.00042362945989216544 0 0.0040006087064219931 -0.00050158849695953838 0 0.0039854070581593886 -0.00035413798491450008 0 0.0039195680741266857 -0.00037401900916521553 0 0.0040276962796177151 -0.00042362945989216544 0 0.0040519346943092708 -0.0003293293507816032 0 0.0039854070581593886 -0.00035413798491450008 0 0.0040276962796177151 -0.00042362945989216544 0 0.0040276962796177151 -0.00042362945989216544 0 0.0040006087064219931 -0.00050158849695953838 0 0.0040842623616816663 -0.00050937518419798473 0 0.0040006087064219931 -0.00050158849695953838 0 0.0040842623616816663 -0.00050937518419798473 0 0.0040358835608201088 -0.0005956792563463118 0 0.0040842623616816663 -0.00050937518419798473 0 0.0041852543642993748 -0.00045477586515978711 0 0.0041419248089480543 -0.000540128357780946 0 0.0041106048977525012 -0.0006098656483495982 0 0.0040358835608201088 -0.0005956792563463118 0 0.0040881392490147951 -0.00065811257636133895 0 0.0040842623616816663 -0.00050937518419798473 0 0.0041106048977525012 -0.0006098656483495982 0 0.0040358835608201088 -0.0005956792563463118 0 0.0040842623616816663 -0.00050937518419798473 0 0.0041106048977525012 -0.0006098656483495982 0 0.0041419248089480543 -0.000540128357780946 0 0.0040358835608201088 -0.0005956792563463118 0 0.0040388185486574897 -0.00066523420566038044 0 0.0039838958485886875 -0.00062960440839863042 0 0.0040358835608201088 -0.0005956792563463118 0 0.0040388185486574897 -0.00066523420566038044 0 0.0040881392490147951 -0.00065811257636133895 0 0.0040388185486574897 -0.00066523420566038044 0 0.0040881392490147951 -0.00065811257636133895 0 0.004066679037250988 -0.00068970951577896169 0 0.0040881392490147951 -0.00065811257636133895 0 0.0041033364465849174 -0.00069172720566234062 0 0.0041304815352383867 -0.00064902905547299802 0 0.0041106048977525012 -0.0006098656483495982 0 0.0040881392490147951 -0.00065811257636133895 0 0.0041304815352383867 -0.00064902905547299802 0 0.0039297902497134997 -0.00053874225565852 0 0.0038993726780174446 -0.00061882460996275687 0 0.0039838958485886875 -0.00062960440839863042 0 0.0039297902497134997 -0.00053874225565852 0 0.0040358835608201088 -0.0005956792563463118 0 0.0039838958485886875 -0.00062960440839863042 0 0.0040388185486574897 -0.00066523420566038044 0 0.0039838958485886875 -0.00062960440839863042 0 0.0040151606180568438 -0.00068506494954263721 0 0.0039838958485886875 -0.00062960440839863042 0 0.0040151606180568438 -0.00068506494954263721 0 0.0039858630524505882 -0.00067840651471545504 0 0.0038993726780174446 -0.00061882460996275687 0 0.0039941336945348658 -0.00071302765065729148 0 0.0039874690124554338 -0.00073885706136331828 0 0.0038993726780174446 -0.00061882460996275687 0 0.0039858630524505882 -0.00067840651471545504 0 0.0039941336945348658 -0.00071302765065729148 0 0.0038993726780174446 -0.00061882460996275687 0 0.0039838958485886875 -0.00062960440839863042 0 0.0039858630524505882 -0.00067840651471545504 0 0.0039941336945348658 -0.00071302765065729148 0 0.004023039538808411 -0.00075606141434071748 0 0.0039874690124554338 -0.00073885706136331828 0 0.0039941336945348658 -0.00071302765065729148 0 0.004023039538808411 -0.00075606141434071748 0 0.0040280133667798222 -0.00073942478150081136 0 0.004023039538808411 -0.00075606141434071748 0 0.0040280133667798222 -0.00073942478150081136 0 0.004052257910867876 -0.00074495103390665081 0 0.0039941336945348658 -0.00071302765065729148 0 0.0040280133667798222 -0.00073942478150081136 0 0.0040153943823485151 -0.00071622928245048192 0 0.0039858630524505882 -0.00067840651471545504 0 0.0039941336945348658 -0.00071302765065729148 0 0.0040153943823485151 -0.00071622928245048192 0 0.0040151606180568438 -0.00068506494954263721 0 0.0039858630524505882 -0.00067840651471545504 0 0.0040153943823485151 -0.00071622928245048192 0 0.0040388185486574897 -0.00066523420566038044 0 0.0040151606180568438 -0.00068506494954263721 0 0.0040376266069304945 -0.00070793696270105521 0 0.0040151606180568438 -0.00068506494954263721 0 0.0040153943823485151 -0.00071622928245048192 0 0.0040376266069304945 -0.00070793696270105521 0 0.0040153943823485151 -0.00071622928245048192 0 0.0040376266069304945 -0.00070793696270105521 0 0.0040259355863766942 -0.00072819293570069012 0 0.0040280133667798222 -0.00073942478150081136 0 0.0040153943823485151 -0.00071622928245048192 0 0.0040259355863766942 -0.00072819293570069012 0 0.0040259355863766942 -0.00072819293570069012 0 0.0040534899311948161 -0.00070535764804724314 0 0.0040409952692478856 -0.00065262429584274958 0 0.0040259355863766942 -0.00072819293570069012 0 0.003980474685070629 -0.00070707459896762834 0 0.0040409952692478856 -0.00065262429584274958 0 0.0040259355863766942 -0.00072819293570069012 0 0.0040491794730373124 -0.00072927097143437659 0 0.0040484538459054902 -0.00072612498692695398 0 0.0040376266069304945 -0.00070793696270105521 0 0.0040259355863766942 -0.00072819293570069012 0 0.0040484538459054902 -0.00072612498692695398 0 0.0039968210394711878 -0.00065912053939924827 0 0.0043326088145414056 -0.00055490676466979079 0 0.0040534899311948161 -0.00070535764804724314 0 0.0040979195707350063 -0.0006905902519809934 0 0.004052257910867876 -0.00074495103390665081 0 0.004023039538808411 -0.00075606141434071748 0 0.004052257910867876 -0.00074495103390665081 0 0.0040264220107743198 -0.00080232317073777393 0 0.0040280133667798222 -0.00073942478150081136 0 0.0040259355863766942 -0.00072819293570069012 0 0.0040534899311948161 -0.00070535764804724314 0 0.0040280133667798222 -0.00073942478150081136 0 0.0040534899311948161 -0.00070535764804724314 0 0.004052257910867876 -0.00074495103390665081 0 0.0040881392490147951 -0.00065811257636133895 0 0.0041033364465849174 -0.00069172720566234062 0 0.004066679037250988 -0.00068970951577896169 0 0.0041033364465849174 -0.00069172720566234062 0 0.0040648252305674924 -0.00071466006813459746 0 0.004087431194228751 -0.00071816529391111354 0 0.0041033364465849174 -0.00069172720566234062 0 0.004066679037250988 -0.00068970951577896169 0 0.0040648252305674924 -0.00071466006813459746 0 0.0040388185486574897 -0.00066523420566038044 0 0.0040376266069304945 -0.00070793696270105521 0 0.004066679037250988 -0.00068970951577896169 0 0.0040376266069304945 -0.00070793696270105521 0 0.0040484538459054902 -0.00072612498692695398 0 0.0040648252305674924 -0.00071466006813459746 0 0.0040376266069304945 -0.00070793696270105521 0 0.004066679037250988 -0.00068970951577896169 0 0.0040648252305674924 -0.00071466006813459746 0 0.0040497248675472114 -0.00073033472008888524 0 0.004087431194228751 -0.00071816529391111354 0 0.0041043443115969134 -0.0007406253373792199 0 0.0043326088145414056 -0.00055490676466979079 0 0.0044062434869319234 -0.0005296677158131434 0 0.0040497248675472114 -0.00073033472008888524 0 0.0040648252305674924 -0.00071466006813459746 0 0.004087431194228751 -0.00071816529391111354 0 0.0040497248675472114 -0.00073033472008888524 0 0.0040484538459054902 -0.00072612498692695398 0 0.0040648252305674924 -0.00071466006813459746 0 0.0043326088145414056 -0.00055490676466979079 0 0.0043182709917362668 -0.00058648783420209457 0 0.004087431194228751 -0.00071816529391111354 0 0.0041043443115969134 -0.0007406253373792199 0 0.0041379540446927479 -0.00070760621959369203 0 0.0041033364465849174 -0.00069172720566234062 0 0.004087431194228751 -0.00071816529391111354 0 0.0041379540446927479 -0.00070760621959369203 0 0.0046980668450687484 -0.00029270317035449771 0 0.0048124549377011362 -0.00018814992276907345 0 0.0047107610032606538 -0.0001972818295033083 0 0.0043326088145414056 -0.00055490676466979079 0 0.00440107525198488 -0.00036086157700263152 0 0.0048198200532290573 -0.00035720956416474513 0 0.0046980668450687484 -0.00029270317035449771 0 0.0048124549377011362 -0.00018814992276907345 0 0.0048124549377011362 -0.00018814992276907345 0 0.0047107610032606538 -0.0001972818295033083 0 0.0047519583428458825 -0.00011112200323088726 0 0.0047107610032606538 -0.0001972818295033083 0 0.0046617417763553538 -0.00012387781467283998 0 0.0047519583428458825 -0.00011112200323088726 0 0.0040534899311948161 -0.00070535764804724314 0 0.0041432785710529595 -0.0006096965927995877 0 0.0040409952692478856 -0.00065262429584274958 0 0.0041432785710529595 -0.0006096965927995877 0 0.0040409952692478856 -0.00065262429584274958 0 0.0041016771253530072 -0.0005419350573183481 0 0.0040534899311948161 -0.00070535764804724314 0 0.0040979195707350063 -0.0006905902519809934 0 0.0041432785710529595 -0.0006096965927995877 0 0.0040979195707350063 -0.0006905902519809934 0 0.0041432785710529595 -0.0006096965927995877 0 0.0042040181315716177 -0.0006284350127643499 0 0.003980474685070629 -0.00070707459896762834 0 0.0039732513060079843 -0.00054600520514810826 0 0.0040409952692478856 -0.00065262429584274958 0 0.0039732513060079843 -0.00054600520514810826 0 0.0040409952692478856 -0.00065262429584274958 0 0.0041016771253530072 -0.0005419350573183481 0 0.0039732513060079843 -0.00054600520514810826 0 0.0041016771253530072 -0.0005419350573183481 0 0.0040888447299890747 -0.00042337927324530251 0 0.0041016771253530072 -0.0005419350573183481 0 0.0042944624112443422 -0.00043959349535094478 0 0.0040888447299890747 -0.00042337927324530251 0 0.0041432785710529595 -0.0006096965927995877 0 0.0041016771253530072 -0.0005419350573183481 0 0.0042944624112443422 -0.00043959349535094478 0 0.0041432785710529595 -0.0006096965927995877 0 0.0043374105811835161 -0.0005161345567852091 0 0.0042944624112443422 -0.00043959349535094478 0 0.0043374105811835161 -0.0005161345567852091 0 0.0042040181315716177 -0.0006284350127643499 0 0.0043007212239886709 -0.0006321133572255856 0 0.0041432785710529595 -0.0006096965927995877 0 0.0043374105811835161 -0.0005161345567852091 0 0.0042040181315716177 -0.0006284350127643499 0 0.0042040181315716177 -0.0006284350127643499 0 0.0043007212239886709 -0.0006321133572255856 0 0.0041557531004840038 -0.00069690385584227608 0 0.0043837574478415584 -0.00056964238856305411 0 0.0044628809255486531 -0.00052059921841900387 0 0.0044356628569276017 -0.0006333881964065936 0 0.0043374105811835161 -0.0005161345567852091 0 0.0043007212239886709 -0.0006321133572255856 0 0.0043837574478415584 -0.00056964238856305411 0 0.0043007212239886709 -0.0006321133572255856 0 0.0043837574478415584 -0.00056964238856305411 0 0.0044356628569276017 -0.0006333881964065936 0 0.0043374105811835161 -0.0005161345567852091 0 0.0043837574478415584 -0.00056964238856305411 0 0.0044628809255486531 -0.00052059921841900387 0 0.0043374105811835161 -0.0005161345567852091 0 0.0044628809255486531 -0.00052059921841900387 0 0.0044796092785731722 -0.0004111725227196865 0 0.0044628809255486531 -0.00052059921841900387 0 0.0045289419101778288 -0.00055792733281968777 0 0.0045271652869335634 -0.00044648828549143928 0 0.0046051413478175327 -0.00050696455029097755 0 0.0045289419101778288 -0.00055792733281968777 0 0.0045271652869335634 -0.00044648828549143928 0 0.0046051413478175327 -0.00050696455029097755 0 0.0045910520736784921 -0.00060005616848229405 0 0.0045289419101778288 -0.00055792733281968777 0 0.0045910520736784921 -0.00060005616848229405 0 0.0045203332132660338 -0.00064563163484736199 0 0.0045620452089830702 -0.00067882318933513053 0 0.0045910520736784921 -0.00060005616848229405 0 0.0045289419101778288 -0.00055792733281968777 0 0.0045203332132660338 -0.00064563163484736199 0 0.0045910520736784921 -0.00060005616848229405 0 0.0045620452089830702 -0.00067882318933513053 0 0.0046408609823892621 -0.00065739579888022344 0 0.0044628809255486531 -0.00052059921841900387 0 0.0045289419101778288 -0.00055792733281968777 0 0.0044356628569276017 -0.0006333881964065936 0 0.0045289419101778288 -0.00055792733281968777 0 0.0045203332132660338 -0.00064563163484736199 0 0.0044356628569276017 -0.0006333881964065936 0 0.0044356628569276017 -0.0006333881964065936 0 0.0044929104094655545 -0.0007152746513692462 0 0.004379369606056502 -0.00080868890565121093 0 0.0044929104094655545 -0.0007152746513692462 0 0.0045575641126858954 -0.00078189424709650341 0 0.004379369606056502 -0.00080868890565121093 0 0.0045203332132660338 -0.00064563163484736199 0 0.0044356628569276017 -0.0006333881964065936 0 0.0044929104094655545 -0.0007152746513692462 0 0.0045203332132660338 -0.00064563163484736199 0 0.0044929104094655545 -0.0007152746513692462 0 0.0045620452089830702 -0.00067882318933513053 0 0.0038832437506827245 -0.00045919716339650878 0 0.0044056746416994627 -0.00017827594191056667 0 0.0045620452089830702 -0.00067882318933513053 0 0.0045575641126858954 -0.00078189424709650341 0 0.0046408609823892621 -0.00065739579888022344 0 0.0044929104094655545 -0.0007152746513692462 0 0.0045620452089830702 -0.00067882318933513053 0 0.0045575641126858954 -0.00078189424709650341 0 0.0034140953432860049 -0.00079615961312948442 0 0.0033384676429384602 -0.00076293292793009476 0 0.0032908403552883796 -0.00077223645151418838 0 0.0038832437506827245 -0.00045919716339650878 0 0.0036743017559913412 -0.00026870125131591024 0 0.0034140953432860049 -0.00079615961312948442 0 0.0033859382977299555 -0.0007157246491090657 0 0.0033384676429384602 -0.00076293292793009476 0 0.0038832437506827245 -0.00045919716339650878 0 0.0034665635571274425 -0.00082298919937633813 0 0.0034140953432860049 -0.00079615961312948442 0 0.0033859382977299555 -0.0007157246491090657 0 0.0034717866175761241 -0.00075042495267735603 0 0.0034435377215274901 -0.0006495099987928125 0 0.0033859382977299555 -0.0007157246491090657 0 0.0034717866175761241 -0.00075042495267735603 0 0.0033859382977299555 -0.0007157246491090657 0 0.0033084950690905174 -0.00069109335234492303 0 0.0033384676429384602 -0.00076293292793009476 0 0.0038832437506827245 -0.00045919716339650878 0 0.0040378852427819011 -0.00084999657046721459 0 0.0035768329933281323 -0.00064978925775353641 0 0.0034717866175761241 -0.00075042495267735603 0 0.0036547070510786462 -0.0008317744187572927 0 0.0034084595067287171 -0.00081968034038216347 0 0.0034717866175761241 -0.00075042495267735603 0 0.0036547070510786462 -0.0008317744187572927 0 0.0037457907809367408 -0.00064673004739618104 0 0.0036547070510786462 -0.0008317744187572927 0 0.0039874690124554338 -0.00073885706136331828 0 0.0035768329933281323 -0.00064978925775353641 0 0.0037457907809367408 -0.00064673004739618104 0 0.0036547070510786462 -0.0008317744187572927 0 0.0040378852427819011 -0.00084999657046721459 0 0.0040135307889621365 -0.00080001240202263134 0 0.0036547070510786462 -0.0008317744187572927 0 0.0039874690124554338 -0.00073885706136331828 0 0.0040264220107743198 -0.00080232317073777393 0 0.004023039538808411 -0.00075606141434071748 0 0.0039874690124554338 -0.00073885706136331828 0 0.0040264220107743198 -0.00080232317073777393 0 0.004379369606056502 -0.00080868890565121093 0 0.0040264220107743198 -0.00080232317073777393 0 0.0041557531004840038 -0.00069690385584227608 0 0.004052257910867876 -0.00074495103390665081 0 0.0040264220107743198 -0.00080232317073777393 0 0.0041557531004840038 -0.00069690385584227608 0 0.0040979195707350063 -0.0006905902519809934 0 0.004052257910867876 -0.00074495103390665081 0 0.0041557531004840038 -0.00069690385584227608 0 0.0040979195707350063 -0.0006905902519809934 0 0.0042040181315716177 -0.0006284350127643499 0 0.0041557531004840038 -0.00069690385584227608 0 0.0043007212239886709 -0.0006321133572255856 0 0.0044356628569276017 -0.0006333881964065936 0 0.004379369606056502 -0.00080868890565121093 0 0.0043007212239886709 -0.0006321133572255856 0 0.004379369606056502 -0.00080868890565121093 0 0.0041557531004840038 -0.00069690385584227608 0 0.0037055265996294028 -0.00072949588862079948 0 0.0036400650184549607 -0.00070966429295710577 0 0.0036859901734947716 -0.00062379403311396567 0 0.0037055265996294028 -0.00072949588862079948 0 0.0038304244977067983 -0.0005941309751128583 0 0.0036859901734947716 -0.00062379403311396567 0 0.0037125444087046278 -0.00072344105835564553 0 0.003800298036405437 -0.0006154262740326686 0 0.0037055265996294028 -0.00072949588862079948 0 0.0037863450633871748 -0.00071253775942526558 0 0.0037712953892404181 -0.00063558234319393702 0 0.0037055265996294028 -0.00072949588862079948 0 0.0037633043813352484 -0.00076355241935879554 0 0.0036724899524961095 -0.00078181151295392954 0 0.0037055265996294028 -0.00072949588862079948 0 0.0037633043813352484 -0.00076355241935879554 0 0.0037863450633871748 -0.00071253775942526558 0 0.0037633043813352484 -0.00076355241935879554 0 0.0036724899524961095 -0.00078181151295392954 0 0.0037392842577977947 -0.00081754484730036812 0 0.0037055265996294028 -0.00072949588862079948 0 0.0036400650184549607 -0.00070966429295710577 0 0.0036724899524961095 -0.00078181151295392954 0 0.0033458890579644274 -0.0005547281491599976 0 0.0033195202389758242 -0.00063114550210608333 0 0.003210186079542088 -0.00056804748354976416 0 0.0023257044493842621 -0.00043545298795967362 0 0.0022930717466108255 -0.0004578928200438096 0 0.0037091413650215382 -0.00080223812630237029 0 0.0022930717466108255 -0.0004578928200438096 0 0.0013399174413599661 -0.0003101364047299456 0 0.0012886982831162373 -0.00027147387484564487 0 0.0012433434781484872 -0.00035542254778443428 0 0.0013399174413599661 -0.0003101364047299456 0 0.0013464765319824109 -0.00025226654896248551 0 0.0012886982831162373 -0.00027147387484564487 0 0.0012122290604476959 -0.00025665029809783524 0 0.0012886982831162373 -0.00027147387484564487 0 0.0012433434781484872 -0.00035542254778443428 0 0.00085132020316756407 -0.00011286741080057048 0 0.0011206675649876982 -2.7978836564503186e-05 0 0.0011284984292961864 -0.0001804119884783939 0 0.0022930717466108255 -0.0004578928200438096 0 0.0024595516668061406 -0.00040415566817928958 0 0.0037633043813352484 -0.00076355241935879554 0 0.0037392842577977947 -0.00081754484730036812 0 0.0038273586425035095 -0.00079094526674419329 0 0.00085132020316756407 -0.00011286741080057048 0 0.0011053539393722923 -0.00029326782393704624 0 0.0011284984292961864 -0.0001804119884783939 0 0.0011465347261061781 -0.00024551395187867695 0 0.0012122290604476959 -0.00025665029809783524 0 0.0011053539393722923 -0.00029326782393704624 0 0.0012122290604476959 -0.00025665029809783524 0 0.0012433434781484872 -0.00035542254778443428 0 0.0011053539393722923 -0.00029326782393704624 0 0.0022930717466108255 -0.0004578928200438096 0 0.00062544402123085362 -0.00011357937979633729 0 0.0011576500351679034 -0.00030945530725699994 0 0.0011284984292961864 -0.0001804119884783939 0 0.0013938949879266221 -0.00012943228746587173 0 0.0010798238740125543 -0.00025959954455644915 0 0.0011576500351679034 -0.00030945530725699994 0 0.0011053539393722923 -0.00029326782393704624 0 0.0011576500351679034 -0.00030945530725699994 0 0.0011053539393722923 -0.00029326782393704624 0 0.0011284984292961864 -0.0001804119884783939 0 0.0011206675649876982 -2.7978836564503186e-05 0 0.0011284984292961864 -0.0001804119884783939 0 0.0013938949879266221 -0.00012943228746587173 0 0.0038273586425035095 -0.00079094526674419329 0 0.003829084211547516 -0.00073858915806087244 0 0.0038741687935208912 -0.00072369589632322495 0 0.0037633043813352484 -0.00076355241935879554 0 0.0038273586425035095 -0.00079094526674419329 0 0.003829084211547516 -0.00073858915806087244 0 0.0037633043813352484 -0.00076355241935879554 0 0.003829084211547516 -0.00073858915806087244 0 0.0037863450633871748 -0.00071253775942526558 0 0.003829084211547516 -0.00073858915806087244 0 0.0037863450633871748 -0.00071253775942526558 0 0.0038674699696466508 -0.00065833279028803475 0 0.0041075564387180567 -0.00071113782662770653 0 0.0041091960610157002 -0.00064789772940000928 0 0.004015897515590827 -0.00067209765880034856 0 0.0041408553453222115 -0.00085069263073473214 0 0.0039108234119100936 -0.00062241549221456628 0 0.003829084211547516 -0.00073858915806087244 0 0.0038741687935208912 -0.00072369589632322495 0 0.0038674699696466508 -0.00065833279028803475 0 0.0041075564387180567 -0.00071113782662770653 0 0.0041549702862587823 -0.0006795200422342574 0 0.0041091960610157002 -0.00064789772940000928 0 0.0041075564387180567 -0.00071113782662770653 0 0.0041549702862587823 -0.0006795200422342574 0 0.0041484485378156842 -0.00069965780392556459 0 0.0041549702862587823 -0.0006795200422342574 0 0.0041782793339820582 -0.00067152709537001093 0 0.0042068818393846156 -0.00064812181006760152 0 0.0041549702862587823 -0.0006795200422342574 0 0.0041782793339820582 -0.00067152709537001093 0 0.0041484485378156842 -0.00069965780392556459 0 0.0041484485378156842 -0.00069965780392556459 0 0.0041359752766805709 -0.00072596439077000842 0 0.0041913326089945231 -0.0007089732974304209 0 0.0041782793339820582 -0.00067152709537001093 0 0.0041484485378156842 -0.00069965780392556459 0 0.0041913326089945231 -0.0007089732974304209 0 0.0028254666234392286 -0.00036758537930722655 0 0.0035329923056900045 -0.00035878427186937582 0 0.0041075564387180567 -0.00071113782662770653 0 0.0041484485378156842 -0.00069965780392556459 0 0.0041359752766805709 -0.00072596439077000842 0 0.0038273586425035095 -0.00079094526674419329 0 0.0038741687935208912 -0.00072369589632322495 0 0.0038902512014090738 -0.00076888202209974231 0 0.0041408553453222115 -0.00085069263073473214 0 0.0028254666234392286 -0.00036758537930722655 0 0.0024595516668061406 -0.00040415566817928958 0 0.0028254666234392286 -0.00036758537930722655 0 0.0011206675649876982 -2.7978836564503186e-05 0 0.001563109057384501 0.00012704619511725364 0 0.0013938949879266221 -0.00012943228746587173 0 0.001563109057384501 0.00012704619511725364 0 0.0013938949879266221 -0.00012943228746587173 0 0.0018082690483313851 -0.00015163323500787327 0 0.0011576500351679034 -0.00030945530725699994 0 0.0013938949879266221 -0.00012943228746587173 0 0.001400491769548894 -0.00041069776150946639 0 0.001458161440420442 -0.0007575406502419908 0 0.0011576500351679034 -0.00030945530725699994 0 0.001400491769548894 -0.00041069776150946639 0 0.0013938949879266221 -0.00012943228746587173 0 0.0015856337426113007 -0.00036994657551056326 0 0.0018082690483313851 -0.00015163323500787327 0 0.0013938949879266221 -0.00012943228746587173 0 0.0015856337426113007 -0.00036994657551056326 0 0.001400491769548894 -0.00041069776150946639 0 0.0015147668284690764 -0.00053450573949548189 0 0.0016655803321543898 -0.00060375817686194732 0 0.0015856337426113007 -0.00036994657551056326 0 0.0015147668284690764 -0.00053450573949548189 0 0.0015856337426113007 -0.00036994657551056326 0 0.001400491769548894 -0.00041069776150946639 0 0.0018053934034569657 -0.00042008349782475762 0 0.0018082690483313851 -0.00015163323500787327 0 0.0020971268073070198 -0.00049161322333188446 0 0.0016655803321543898 -0.00060375817686194732 0 0.0015856337426113007 -0.00036994657551056326 0 0.0018053934034569657 -0.00042008349782475762 0 0.0015856337426113007 -0.00036994657551056326 0 0.0018053934034569657 -0.00042008349782475762 0 0.0018082690483313851 -0.00015163323500787327 0 0.0017636995529259087 -4.250571533893716e-05 0 0.002114783258438742 -0.00051756478327176947 0 0.0017779365348352654 5.1067399470070159e-05 0 0.0019465794022138416 -0.00020862936782604807 0 0.0022161072628513884 0.00014376333953007082 0 0.0028254666234392286 -0.00036758537930722655 0 0.0017636995529259087 -4.250571533893716e-05 0 0.0019465794022138416 -0.00020862936782604807 0 0.0022020097346168326 -0.00018091598360203909 0 0.0022161072628513884 0.00014376333953007082 0 0.0033264078788901507 -0.00036834980602565325 0 0.0035329923056900045 -0.00035878427186937582 0 0.0022020097346168326 -0.00018091598360203909 0 0.0025180575448268479 -0.00024645966383665885 0 0.0022161072628513884 0.00014376333953007082 0 0.0022020097346168326 -0.00018091598360203909 0 0.0020971268073070198 -0.00049161322333188446 0 0.0025180575448268479 -0.00024645966383665885 0 0.0019465794022138416 -0.00020862936782604807 0 0.0022020097346168326 -0.00018091598360203909 0 0.0020971268073070198 -0.00049161322333188446 0 0.0024922111743780418 -0.00059619641306802793 0 0.0020971268073070198 -0.00049161322333188446 0 0.0025180575448268479 -0.00024645966383665885 0 0.0033925967236227098 -0.00021995226099095417 0 0.0033264078788901507 -0.00036834980602565325 0 0.0024922111743780418 -0.00059619641306802793 0 0.0028626658891204295 -0.00069808040703864499 0 0.0025180575448268479 -0.00024645966383665885 0 0.0041852543642993748 -0.00045477586515978711 0 0.0041861497905495183 -0.00058769841905987946 0 0.0042554149190879862 -0.00057104484326308636 0 0.0041852543642993748 -0.00045477586515978711 0 0.0041419248089480543 -0.000540128357780946 0 0.0041861497905495183 -0.00058769841905987946 0 0.0041106048977525012 -0.0006098656483495982 0 0.0041419248089480543 -0.000540128357780946 0 0.0041861497905495183 -0.00058769841905987946 0 0.0041106048977525012 -0.0006098656483495982 0 0.0041410455241570462 -0.00062386271868314586 0 0.0041304815352383867 -0.00064902905547299802 0 0.0040892383284933101 -0.00061468135317795406 0 0.0042496485386161343 -0.00057214438922110014 0 0.0041410455241570462 -0.00062386271868314586 0 0.0041548328352842313 -0.00064888500652742756 0 0.0041304815352383867 -0.00064902905547299802 0 0.0042496485386161343 -0.00057214438922110014 0 0.0035329923056900045 -0.00035878427186937582 0 0.0041782793339820582 -0.00067152709537001093 0 0.004164179490726656 -0.00062766389793827905 0 0.0041548328352842313 -0.00064888500652742756 0 0.0043063143763317447 -0.0008396462026699637 0 0.0035329923056900045 -0.00035878427186937582 0 0.0041410455241570462 -0.00062386271868314586 0 0.004164179490726656 -0.00062766389793827905 0 0.0041548328352842313 -0.00064888500652742756 0 0.0041782793339820582 -0.00067152709537001093 0 0.0041555248657189755 -0.00066657034515267392 0 0.0041762317739505823 -0.00067184845891831357 0 0.0041782793339820582 -0.00067152709537001093 0 0.0041548328352842313 -0.00064888500652742756 0 0.0041555248657189755 -0.00066657034515267392 0 0.0041548328352842313 -0.00064888500652742756 0 0.0041304815352383867 -0.00064902905547299802 0 0.0041555248657189755 -0.00066657034515267392 0 0.0041033364465849174 -0.00069172720566234062 0 0.0041555248657189755 -0.00066657034515267392 0 0.0041379540446927479 -0.00070760621959369203 0 0.0041033364465849174 -0.00069172720566234062 0 0.0041304815352383867 -0.00064902905547299802 0 0.0041555248657189755 -0.00066657034515267392 0 0.0041555248657189755 -0.00066657034515267392 0 0.0041762317739505823 -0.00067184845891831357 0 0.0041379540446927479 -0.00070760621959369203 0 0.0041762317739505823 -0.00067184845891831357 0 0.0041844147149983036 -0.00071496168790859322 0 0.0041379540446927479 -0.00070760621959369203 0 0.0041043443115969134 -0.0007406253373792199 0 0.0041379540446927479 -0.00070760621959369203 0 0.0041555924854771243 -0.00075619555302069389 0 0.0046980668450687484 -0.00029270317035449771 0 0.0047107610032606538 -0.0001972818295033083 0 0.0045708765753492775 -0.00023005910215154505 0 0.0044062434869319234 -0.0005296677158131434 0 0.0044559198909410692 -0.00038014140485852986 0 0.0047107610032606538 -0.0001972818295033083 0 0.0045708765753492775 -0.00023005910215154505 0 0.0046617417763553538 -0.00012387781467283998 0 0.0044559198909410692 -0.00038014140485852986 0 0.0047520832760860167 -9.1360678886020607e-05 0 0.004695297907253192 -0.0002957029849168421 0 0.0046843716951174537 -0.00011550213988052274 0 0.0047838326638432261 -0.00011266481902409945 0 0.004695297907253192 -0.0002957029849168421 0 0.0045345918951608943 -0.0002547056356074956 0 0.0046843716951174537 -0.00011550213988052274 0 0.0044559198909410692 -0.00038014140485852986 0 0.0044705152848339902 -0.00026037453485791453 0 0.0045345918951608943 -0.0002547056356074956 0 0.0045181822984269307 -0.00011041940857810634 0 0.0046843716951174537 -0.00011550213988052274 0 0.0042575664394153591 -0.00063472061152790847 0 0.0044559198909410692 -0.00038014140485852986 0 0.004391090087277413 -0.00049056718151830551 0 0.004526228273935856 -0.00033646552398168799 0 0.0043852433112125649 -0.00026229676983157639 0 0.0041844147149983036 -0.00071496168790859322 0 0.0041379540446927479 -0.00070760621959369203 0 0.0041555924854771243 -0.00075619555302069389 0 0.0042726894934170352 -0.00041453905346178969 0 0.0043852433112125649 -0.00026229676983157639 0 0.0042685991269062742 -0.00029197084887190231 0 0.004391090087277413 -0.00049056718151830551 0 0.0042726894934170352 -0.00041453905346178969 0 0.0043852433112125649 -0.00026229676983157639 0 0.0044705152848339902 -0.00026037453485791453 0 0.0042951582140406293 -0.00018041378174643918 0 0.0045345918951608943 -0.0002547056356074956 0 0.0042857870473272863 -0.00017753769585665996 0 0.0045181822984269307 -0.00011041940857810634 0 0.0043852433112125649 -0.00026229676983157639 0 0.0042685991269062742 -0.00029197084887190231 0 0.0042857870473272863 -0.00017753769585665996 0 0.0042857870473272863 -0.00017753769585665996 0 0.0041785707120475966 -0.00024912137025397298 0 0.0040335268613883053 -0.00019379902149475824 0 0.0042685991269062742 -0.00029197084887190231 0 0.0042857870473272863 -0.00017753769585665996 0 0.0041785707120475966 -0.00024912137025397298 0 0.0042685991269062742 -0.00029197084887190231 0 0.0041785707120475966 -0.00024912137025397298 0 0.0042005782869215811 -0.00035184246939848118 0 0.0041785707120475966 -0.00024912137025397298 0 0.0041189528301563225 -0.0003419834516851162 0 0.0040721738089813889 -0.00025262788739370486 0 0.0041785707120475966 -0.00024912137025397298 0 0.0041189528301563225 -0.0003419834516851162 0 0.0042005782869215811 -0.00035184246939848118 0 0.0041189528301563225 -0.0003419834516851162 0 0.0042005782869215811 -0.00035184246939848118 0 0.0041323604722431906 -0.00047209629480929945 0 0.0042726894934170352 -0.00041453905346178969 0 0.0042685991269062742 -0.00029197084887190231 0 0.0042005782869215811 -0.00035184246939848118 0 0.0042726894934170352 -0.00041453905346178969 0 0.0042005782869215811 -0.00035184246939848118 0 0.0041323604722431906 -0.00047209629480929945 0 0.0041189528301563225 -0.0003419834516851162 0 0.0041323604722431906 -0.00047209629480929945 0 0.0040504774443692179 -0.00040305131211894937 0 0.0041323604722431906 -0.00047209629480929945 0 0.0042068818393846156 -0.00064812181006760152 0 0.0041091960610157002 -0.00064789772940000928 0 0.0042726894934170352 -0.00041453905346178969 0 0.0041323604722431906 -0.00047209629480929945 0 0.0042068818393846156 -0.00064812181006760152 0 0.0042575664394153591 -0.00063472061152790847 0 0.0042290083767794369 -0.00063451639361275947 0 0.004391090087277413 -0.00049056718151830551 0 0.0042726894934170352 -0.00041453905346178969 0 0.0042068818393846156 -0.00064812181006760152 0 0.0041762317739505823 -0.00067184845891831357 0 0.0041844147149983036 -0.00071496168790859322 0 0.0042068818393846156 -0.00064812181006760152 0 0.0041782793339820582 -0.00067152709537001093 0 0.0041762317739505823 -0.00067184845891831357 0 0.0042068818393846156 -0.00064812181006760152 0 0.0041549702862587823 -0.0006795200422342574 0 0.0042068818393846156 -0.00064812181006760152 0 0.0041091960610157002 -0.00064789772940000928 0 0.004015897515590827 -0.00067209765880034856 0 0.0038635199213091069 -0.00054318619871334903 0 0.0040231492185985509 -0.00056208202155146492 0 0.0041091960610157002 -0.00064789772940000928 0 0.004015897515590827 -0.00067209765880034856 0 0.0040231492185985509 -0.00056208202155146492 0 0.0039108234119100936 -0.00062241549221456628 0 0.0038751308315575286 -0.00056205255224740845 0 0.0038674699696466508 -0.00065833279028803475 0 0.0038635199213091069 -0.00054318619871334903 0 0.0037712953892404181 -0.00063558234319393702 0 0.0037863450633871748 -0.00071253775942526558 0 0.0038674699696466508 -0.00065833279028803475 0 0.0037712953892404181 -0.00063558234319393702 0 0.003933363760100549 -0.00044585920299332506 0 0.003800298036405437 -0.0006154262740326686 0 0.0039508049580815824 -0.000428759007619419 0 0.0038233644901519894 -0.00042871632065352553 0 0.0038304244977067983 -0.0005941309751128583 0 0.0038635199213091069 -0.00054318619871334903 0 0.0039138979262022151 -0.00046841828268074569 0 0.0037712953892404181 -0.00063558234319393702 0 0.0038635199213091069 -0.00054318619871334903 0 0.0039138979262022151 -0.00046841828268074569 0 0.0040231492185985509 -0.00056208202155146492 0 0.0039138979262022151 -0.00046841828268074569 0 0.0040155450278575129 -0.00047966332742297135 0 0.0040231492185985509 -0.00056208202155146492 0 0.0041323604722431906 -0.00047209629480929945 0 0.0041091960610157002 -0.00064789772940000928 0 0.0040231492185985509 -0.00056208202155146492 0 0.0041323604722431906 -0.00047209629480929945 0 0.0040155450278575129 -0.00047966332742297135 0 0.0040231492185985509 -0.00056208202155146492 0 0.0039138979262022151 -0.00046841828268074569 0 0.0040504774443692179 -0.00040305131211894937 0 0.0040721738089813889 -0.00025262788739370486 0 0.0041189528301563225 -0.0003419834516851162 0 0.0040504774443692179 -0.00040305131211894937 0 0.0040721738089813889 -0.00025262788739370486 0 0.0039508049580815824 -0.000428759007619419 0 0.0040721738089813889 -0.00025262788739370486 0 0.0039632319827947442 -0.00030758324368528517 0 0.003933363760100549 -0.00044585920299332506 0 0.0040642551781252065 -0.00026300237221383194 0 0.0041323604722431906 -0.00047209629480929945 0 0.0040155450278575129 -0.00047966332742297135 0 0.0040504774443692179 -0.00040305131211894937 0 0.0039138979262022151 -0.00046841828268074569 0 0.0040155450278575129 -0.00047966332742297135 0 0.0040504774443692179 -0.00040305131211894937 0 0.0040721738089813889 -0.00025262788739370486 0 0.0040335268613883053 -0.00019379902149475824 0 0.0039632319827947442 -0.00030758324368528517 0 0.0041785707120475966 -0.00024912137025397298 0 0.0040721738089813889 -0.00025262788739370486 0 0.0040335268613883053 -0.00019379902149475824 0 0.0049052425001536275 2.5810189624216982e-05 0 0.0049039291928862387 -4.3950605556317493e-07 0 0.004901493588034038 1.9935235018806531e-05 0 0.0040335268613883053 -0.00019379902149475824 0 0.0039632319827947442 -0.00030758324368528517 0 0.0038613390667150307 -0.00029525315605722561 0 0.004900969398749136 4.3712866569646855e-05 0 0.0049052425001536275 2.5810189624216982e-05 0 0.0049039291928862387 -4.3950605556317493e-07 0 0.0044695966808217429 -7.2925074053028735e-05 0 0.0043690489522431016 -0.00015448188117918148 0 0.0038613390667150307 -0.00029525315605722561 0 0.0039032311418530953 -0.00036238583802462691 0 0.0038233644901519894 -0.00042871632065352553 0 0.0039508049580815824 -0.000428759007619419 0 0.0039032311418530953 -0.00036238583802462691 0 0.0038233644901519894 -0.00042871632065352553 0 0.0039632319827947442 -0.00030758324368528517 0 0.0038613390667150307 -0.00029525315605722561 0 0.0039032311418530953 -0.00036238583802462691 0 0.0039508049580815824 -0.000428759007619419 0 0.0039632319827947442 -0.00030758324368528517 0 0.0039032311418530953 -0.00036238583802462691 0 0.0038613390667150307 -0.00029525315605722561 0 0.0036914278592272668 -0.00038199878829493626 0 0.0038233644901519894 -0.00042871632065352553 0 0.0043690489522431016 -0.00015448188117918148 0 0.0043270410802244965 -0.00017343894334287264 0 0.0049039291928862387 -4.3950605556317493e-07 0 0.0048783478255735547 9.0793689837080599e-06 0 0.004901493588034038 1.9935235018806531e-05 0 0.0049039291928862387 -4.3950605556317493e-07 0 0.0048783478255735547 9.0793689837080599e-06 0 0.0048633706508753125 -4.1783573396300197e-05 0 0.0048347837214628535 -7.1416783923226536e-06 0 0.0048783478255735547 9.0793689837080599e-06 0 0.0048633706508753125 -4.1783573396300197e-05 0 0.0036161118451491056 -0.00054346216127700616 0 0.0036914278592272668 -0.00038199878829493626 0 0.0037288601884053769 -0.00051503542236733106 0 0.0036914278592272668 -0.00038199878829493626 0 0.0037288601884053769 -0.00051503542236733106 0 0.0038233644901519894 -0.00042871632065352553 0 0.0037288601884053769 -0.00051503542236733106 0 0.0038233644901519894 -0.00042871632065352553 0 0.0038304244977067983 -0.0005941309751128583 0 0.0037288601884053769 -0.00051503542236733106 0 0.0038304244977067983 -0.0005941309751128583 0 0.0036859901734947716 -0.00062379403311396567 0 0.0036161118451491056 -0.00054346216127700616 0 0.0037288601884053769 -0.00051503542236733106 0 0.0036859901734947716 -0.00062379403311396567 0 0.0049743082783262971 9.2977045289961635e-06 0 0.0049566550509853348 -2.1147547735345877e-06 0 0.0049740967300407387 -6.2937003755128977e-06 0 0.0049743082783262971 9.2977045289961635e-06 0 0.0049566550509853348 -2.1147547735345877e-06 0 0.0049569887975893304 1.7919015938814256e-05 0 0.0049566550509853348 -2.1147547735345877e-06 0 0.0049344235214962067 1.9583510645859662e-05 0 0.0049269913233481264 2.8597667674740396e-07 0 0.0049566550509853348 -2.1147547735345877e-06 0 0.0049344235214962067 1.9583510645859662e-05 0 0.0049569887975893304 1.7919015938814256e-05 0 0.0049322462686084943 2.3827481721351869e-05 0 0.004913548612736139 2.8188106759460083e-05 0 0.0049344235214962067 1.9583510645859662e-05 0 0.0049569887975893304 1.7919015938814256e-05 0 0.0049570160751535187 3.135680139095913e-05 0 0.0049344235214962067 1.9583510645859662e-05 0 0.0049126017070476053 2.9889418364597341e-05 0 0.0049181548033161507 2.4880201884542275e-05 0 0.0049575311670110467 2.9389922068593146e-05 0 0.0049554930881053885 3.001028158868276e-05 0 0.0049743082783262971 9.2977045289961635e-06 0 0.0049569887975893304 1.7919015938814256e-05 0 0.0049546454766002364 3.0649452531650469e-05 0 0.0049408986526296005 2.0594807357833067e-05 0 0.0049546454766002364 3.0649452531650469e-05 0 0.0049570160751535187 3.135680139095913e-05 0 0.0049569887975893304 1.7919015938814256e-05 0 0.0049546454766002364 3.0649452531650469e-05 0 0.0049570160751535187 3.135680139095913e-05 0 0.0048405231577738437 2.9199179778461621e-05 0 0.0048886247382928585 4.1089414402872687e-05 0 0.004877485488853227 2.7580144455889223e-05 0 0.0049309137554449196 4.0901870011440847e-05 0 0.004913548612736139 2.8188106759460083e-05 0 0.0048886247382928585 4.1089414402872687e-05 0 0.0048927535533667497 3.2320497957669045e-05 0 0.0049126017070476053 2.9889418364597341e-05 0 0.0048886247382928585 4.1089414402872687e-05 0 0.0048927535533667497 3.2320497957669045e-05 0 0.004877485488853227 2.7580144455889223e-05 0 0.0048927535533667497 3.2320497957669045e-05 0 0.004877485488853227 2.7580144455889223e-05 0 0.0049004227133879396 2.8443403676926832e-05 0 0.0048783478255735547 9.0793689837080599e-06 0 0.004877485488853227 2.7580144455889223e-05 0 0.0049004227133879396 2.8443403676926832e-05 0 0.0048405231577738437 2.9199179778461621e-05 0 0.0048783478255735547 9.0793689837080599e-06 0 0.004877485488853227 2.7580144455889223e-05 0 0.0048783478255735547 9.0793689837080599e-06 0 0.004901493588034038 1.9935235018806531e-05 0 0.0049004227133879396 2.8443403676926832e-05 0 0.004901493588034038 1.9935235018806531e-05 0 0.0049004227133879396 2.8443403676926832e-05 0 0.0049094385340535413 2.8442466023046179e-05 0 0.0049344235214962067 1.9583510645859662e-05 0 0.0048886247382928585 4.1089414402872687e-05 0 0.0049126017070476053 2.9889418364597341e-05 0 0.0049004227133879396 2.8443403676926832e-05 0 0.0049126017070476053 2.9889418364597341e-05 0 0.0049094385340535413 2.8442466023046179e-05 0 0.0048927535533667497 3.2320497957669045e-05 0 0.0049004227133879396 2.8443403676926832e-05 0 0.0049126017070476053 2.9889418364597341e-05 0 0.0049126017070476053 2.9889418364597341e-05 0 0.0049181548033161507 2.4880201884542275e-05 0 0.0049094385340535413 2.8442466023046179e-05 0 0.0049181548033161507 2.4880201884542275e-05 0 0.0049094385340535413 2.8442466023046179e-05 0 0.0049058364781695623 3.4056530823844821e-05 0 0.0049052425001536275 2.5810189624216982e-05 0 0.0049094385340535413 2.8442466023046179e-05 0 0.0049058364781695623 3.4056530823844821e-05 0 0.0049052425001536275 2.5810189624216982e-05 0 0.0049023907434542482 3.7257769188450942e-05 0 0.0049058364781695623 3.4056530823844821e-05 0 0.0049052425001536275 2.5810189624216982e-05 0 0.004901493588034038 1.9935235018806531e-05 0 0.0049094385340535413 2.8442466023046179e-05 0 0.004900969398749136 4.3712866569646855e-05 0 0.0048910322365852393 4.2478992487331234e-05 0 0.0049023907434542482 3.7257769188450942e-05 0 0.004900969398749136 4.3712866569646855e-05 0 0.0049052425001536275 2.5810189624216982e-05 0 0.0049023907434542482 3.7257769188450942e-05 0 0.0048910322365852393 4.2478992487331234e-05 0 0.0049023907434542482 3.7257769188450942e-05 0 0.0049058364781695623 3.4056530823844821e-05 0 0.0048910322365852393 4.2478992487331234e-05 0 0.0049058364781695623 3.4056530823844821e-05 0 0.0048841065282660212 3.7714252112959238e-05 0 0.0049181548033161507 2.4880201884542275e-05 0 0.0049058364781695623 3.4056530823844821e-05 0 0.0048996860398885156 2.1238866678835661e-05 0 0.0049058364781695623 3.4056530823844821e-05 0 0.0048996860398885156 2.1238866678835661e-05 0 0.0048841065282660212 3.7714252112959238e-05 0 0.0048996860398885156 2.1238866678835661e-05 0 0.0049269913233481264 2.8597667674740396e-07 0 0.0048861219837475255 -1.8743988697960602e-06 0 0.0049181548033161507 2.4880201884542275e-05 0 0.0048996860398885156 2.1238866678835661e-05 0 0.0049269913233481264 2.8597667674740396e-07 0 0.0049344235214962067 1.9583510645859662e-05 0 0.0049181548033161507 2.4880201884542275e-05 0 0.0049269913233481264 2.8597667674740396e-07 0 0.0049566550509853348 -2.1147547735345877e-06 0 0.0049269913233481264 2.8597667674740396e-07 0 0.0049494957717422464 -1.5287557636609487e-05 0 0.0049269913233481264 2.8597667674740396e-07 0 0.0048861219837475255 -1.8743988697960602e-06 0 0.0049267723519966422 -3.2288982740390828e-05 0 0.0049269913233481264 2.8597667674740396e-07 0 0.0049267723519966422 -3.2288982740390828e-05 0 0.0049494957717422464 -1.5287557636609487e-05 0 0.0048434656605807133 -2.1528848543642995e-05 0 0.0048861219837475255 -1.8743988697960602e-06 0 0.0049267723519966422 -3.2288982740390828e-05 0 0.0048434656605807133 -2.1528848543642995e-05 0 0.0047717412601453136 -2.0734613067930357e-05 0 0.0048108389595667381 -6.1944538538397743e-05 0 0.0048434656605807133 -2.1528848543642995e-05 0 0.0048193310408905171 -3.1963610297396897e-06 0 0.0047717412601453136 -2.0734613067930357e-05 0 0.0048996860398885156 2.1238866678835661e-05 0 0.0048861219837475255 -1.8743988697960602e-06 0 0.0048546998366974245 2.3671934062289657e-05 0 0.0048193310408905171 -3.1963610297396897e-06 0 0.0048861219837475255 -1.8743988697960602e-06 0 0.0048546998366974245 2.3671934062289657e-05 0 0.0048434656605807133 -2.1528848543642995e-05 0 0.0048193310408905171 -3.1963610297396897e-06 0 0.0048861219837475255 -1.8743988697960602e-06 0 0.0048996860398885156 2.1238866678835661e-05 0 0.0048546998366974245 2.3671934062289657e-05 0 0.0048841065282660212 3.7714252112959238e-05 0 0.0048546998366974245 2.3671934062289657e-05 0 0.0048841065282660212 3.7714252112959238e-05 0 0.0048389187309197026 6.7638461728209898e-05 0 0.0048910322365852393 4.2478992487331234e-05 0 0.0048841065282660212 3.7714252112959238e-05 0 0.0048389187309197026 6.7638461728209898e-05 0 0.0042857870473272863 -0.00017753769585665996 0 0.0040335268613883053 -0.00019379902149475824 0 0.0043323162210483169 -4.3117856517956475e-05 0 0.004900969398749136 4.3712866569646855e-05 0 0.0048910322365852393 4.2478992487331234e-05 0 0.0048389187309197026 6.7638461728209898e-05 0 0.0044695966808217429 -7.2925074053028735e-05 0 0.0045858780073035153 3.3941823089015381e-06 0 0.0045858780073035153 3.3941823089015381e-06 0 0.0047019357421776778 2.3759973193569708e-05 0 0.0045181822984269307 -0.00011041940857810634 0 0.0043323162210483169 -4.3117856517956475e-05 0 0.0047171420666000507 1.9336806903728729e-05 0 0.0042857870473272863 -0.00017753769585665996 0 0.0045181822984269307 -0.00011041940857810634 0 0.0043323162210483169 -4.3117856517956475e-05 0 0.0048193310408905171 -3.1963610297396897e-06 0 0.0048546998366974245 2.3671934062289657e-05 0 0.0047171420666000507 1.9336806903728729e-05 0 0.0048546998366974245 2.3671934062289657e-05 0 0.0048389187309197026 6.7638461728209898e-05 0 0.0047171420666000507 1.9336806903728729e-05 0 0.0045181822984269307 -0.00011041940857810634 0 0.0047171420666000507 1.9336806903728729e-05 0 0.0046843716951174537 -0.00011550213988052274 0 0.0047171420666000507 1.9336806903728729e-05 0 0.0046843716951174537 -0.00011550213988052274 0 0.0047573109775742254 -2.3374017826563637e-05 0 0.0046843716951174537 -0.00011550213988052274 0 0.0047838326638432261 -0.00011266481902409945 0 0.0047573109775742254 -2.3374017826563637e-05 0 0.0047171420666000507 1.9336806903728729e-05 0 0.0047573109775742254 -2.3374017826563637e-05 0 0.0047532889261402865 -8.1174807490706122e-06 0 0.0047573109775742254 -2.3374017826563637e-05 0 0.0047532889261402865 -8.1174807490706122e-06 0 0.0047592705271881043 -1.8627380208331442e-05 0 0.0047171420666000507 1.9336806903728729e-05 0 0.0047532889261402865 -8.1174807490706122e-06 0 0.0047717412601453136 -2.0734613067930357e-05 0 0.0048193310408905171 -3.1963610297396897e-06 0 0.0047171420666000507 1.9336806903728729e-05 0 0.0047717412601453136 -2.0734613067930357e-05 0 0.0047717412601453136 -2.0734613067930357e-05 0 0.0047627271331195688 -4.5733856365851161e-05 0 0.0047526516302854524 -2.3753526651824911e-05 0 0.0047532889261402865 -8.1174807490706122e-06 0 0.0047717412601453136 -2.0734613067930357e-05 0 0.0047526516302854524 -2.3753526651824911e-05 0 0.0049180630580906402 -2.9789908290582245e-05 0 0.0048877060138012018 -4.2395275537217469e-05 0 0.0047717412601453136 -2.0734613067930357e-05 0 0.0047627271331195688 -4.5733856365851161e-05 0 0.0048108389595667381 -6.1944538538397743e-05 0 0.0049956512387473607 -1.6385480184587439e-05 0 0.0049919429878630935 -6.6626052483681086e-06 0 0.0049810657572725049 -2.5931412725299415e-05 0 0.0049956512387473607 -1.6385480184587439e-05 0 0.0049963470154080836 -7.9061391108306939e-06 0 0.0049919429878630935 -6.6626052483681086e-06 0 0.0049956512387473607 -1.6385480184587439e-05 0 0.0049963470154080836 -7.9061391108306939e-06 0 0.0049977585643348034 -9.6903259275871386e-06 0 0.0049963470154080836 -7.9061391108306939e-06 0 0.0049982812887652966 -3.6030273427595251e-06 0 0.0049919429878630935 -6.6626052483681086e-06 0 0.0049982812887652966 -3.6030273427595251e-06 0 0.0049999958548716077 -2.7511548470783471e-09 0 0.0049919429878630935 -6.6626052483681086e-06 0 0.0049963470154080836 -7.9061391108306939e-06 0 0.0049982812887652966 -3.6030273427595251e-06 0 0.0049981498636944149 -5.6920088394520516e-06 0 0.0049982812887652966 -3.6030273427595251e-06 0 0.0049999958548716077 -2.7511548470783471e-09 0 0.0049991560988468364 -2.0020839509582046e-06 0 0.0049999958548716077 -2.7511548470783471e-09 0 0.0049919429878630935 -6.6626052483681086e-06 0 0.0049999813945397764 2.8363938407704159e-09 0 0.0049919429878630935 -6.6626052483681086e-06 0 0.0049999813945397764 2.8363938407704159e-09 0 0.0049759038111933263 -6.3592952762374492e-06 0 0.0049999813945397764 2.8363938407704159e-09 0 0.0049759038111933263 -6.3592952762374492e-06 0 0.0049999714858973881 -3.1957383148067177e-09 0 0.0049919429878630935 -6.6626052483681086e-06 0 0.0049759038111933263 -6.3592952762374492e-06 0 0.0049810657572725049 -2.5931412725299415e-05 0 0.0048434656605807133 -2.1528848543642995e-05 0 0.0048108389595667381 -6.1944538538397743e-05 0 0.0049267723519966422 -3.2288982740390828e-05 0 0.0048877060138012018 -4.2395275537217469e-05 0 0.0049279832326162816 -3.4054321032413289e-05 0 0.0049759038111933263 -6.3592952762374492e-06 0 0.0049810657572725049 -2.5931412725299415e-05 0 0.0049267723519966422 -3.2288982740390828e-05 0 0.0049267723519966422 -3.2288982740390828e-05 0 0.0049494957717422464 -1.5287557636609487e-05 0 0.0049719985051727544 -9.522184999734832e-06 0 0.0049719985051727544 -9.522184999734832e-06 0 0.004981348826986109 -7.1642673667360256e-06 0 0.004967899425433085 -1.0853656520882691e-05 0 0.0049494957717422464 -1.5287557636609487e-05 0 0.0049719985051727544 -9.522184999734832e-06 0 0.004967899425433085 -1.0853656520882691e-05 0 0.0049759038111933263 -6.3592952762374492e-06 0 0.0049267723519966422 -3.2288982740390828e-05 0 0.0049719985051727544 -9.522184999734832e-06 0 0.0049759038111933263 -6.3592952762374492e-06 0 0.0049999714858973881 -3.1957383148067177e-09 0 0.0049719985051727544 -9.522184999734832e-06 0 0.0049999714858973881 -3.1957383148067177e-09 0 0.0049719985051727544 -9.522184999734832e-06 0 0.0049999768925150061 -8.6712581139775788e-09 0 0.0049719985051727544 -9.522184999734832e-06 0 0.004981348826986109 -7.1642673667360256e-06 0 0.0049999768925150061 -8.6712581139775788e-09 0 0.004981348826986109 -7.1642673667360256e-06 0 0.0049855159734177625 -7.4032446778926371e-06 0 0.004967899425433085 -1.0853656520882691e-05 0 0.004981348826986109 -7.1642673667360256e-06 0 0.0049999768925150061 -8.6712581139775788e-09 0 0.0049855159734177625 -7.4032446778926371e-06 0 0.0049999863457979646 -5.5705848850193529e-09 0 0.0049999768925150061 -8.6712581139775788e-09 0 0.0049855159734177625 -7.4032446778926371e-06 0 0.0049855159734177625 -7.4032446778926371e-06 0 0.004967899425433085 -1.0853656520882691e-05 0 0.0049740967300407387 -6.2937003755128977e-06 0 0.0049566550509853348 -2.1147547735345877e-06 0 0.0049494957717422464 -1.5287557636609487e-05 0 0.004967899425433085 -1.0853656520882691e-05 0 0.0049566550509853348 -2.1147547735345877e-06 0 0.004967899425433085 -1.0853656520882691e-05 0 0.0049740967300407387 -6.2937003755128977e-06 0 0.0046673802586221268 -0.0002286331430951314 0 0.0048489957262825142 -0.00022520447268614688 0 0.0045557093917249552 -0.00034814832359377444 0 0.0047242203339998021 -0.0002344947429213297 0 0.0045561808907069491 -0.0003697919140798298 0 0.0045251024375411357 -0.00029915200578825818 0 0.0046673802586221268 -0.0002286331430951314 0 0.0045557093917249552 -0.00034814832359377444 0 0.0045251024375411357 -0.00029915200578825818 0 0.0046352301515490205 -0.00017473426606254871 0 0.0046673802586221268 -0.0002286331430951314 0 0.0045251024375411357 -0.00029915200578825818 0 0.0046352301515490205 -0.00017473426606254871 0 0.0045028538191674719 -0.00023280333929535691 0 0.0046352301515490205 -0.00017473426606254871 0 0.0045028538191674719 -0.00023280333929535691 0 0.0045826643458381517 -0.00011150874858907308 0 0.0046352301515490205 -0.00017473426606254871 0 0.0047614339094627931 -0.00013071721626281574 0 0.0047731580327177925 -4.2612942835823308e-05 0 0.0046673802586221268 -0.0002286331430951314 0 0.0047614339094627931 -0.00013071721626281574 0 0.0048489957262825142 -0.00022520447268614688 0 0.0046352301515490205 -0.00017473426606254871 0 0.0046673802586221268 -0.0002286331430951314 0 0.0047614339094627931 -0.00013071721626281574 0 0.0047614339094627931 -0.00013071721626281574 0 0.0048489957262825142 -0.00022520447268614688 0 0.0048805627454808357 -2.8026409117280437e-05 0 0.0049709890505151956 -5.1835671354505599e-05 0 0.0049910186691145275 -3.1822978004466713e-05 0 0.0049771990409567604 -2.2623394742427598e-05 0 0.0047242203339998021 -0.0002344947429213297 0 0.004950456975010971 -4.9412426806121025e-06 0 0.0045339833470273185 -0.00030782702236215259 0 0.0045572819748181895 -0.00030104803999495217 0 0.0045575672317067573 -0.00027146955717391246 0 0.0047242203339998021 -0.0002344947429213297 0 0.0047821755826147148 -0.00014042568076128993 0 0.0045572819748181895 -0.00030104803999495217 0 0.0045575672317067573 -0.00027146955717391246 0 0.0045729721933588088 -0.00029384269674165834 0 0.0045572819748181895 -0.00030104803999495217 0 0.0045729721933588088 -0.00029384269674165834 0 0.0045797972159713676 -0.0003177680688907822 0 0.0045572819748181895 -0.00030104803999495217 0 0.0045661543651828226 -0.00033525700423145009 0 0.004622356279790755 -0.00033714884207014154 0 0.0045675643543236135 -0.00030812718028641102 0 0.0045997046574666736 -0.0003305208459343774 0 0.0045339833470273185 -0.00030782702236215259 0 0.0045572819748181895 -0.00030104803999495217 0 0.0045661543651828226 -0.00033525700423145009 0 0.0045339833470273185 -0.00030782702236215259 0 0.0045661543651828226 -0.00033525700423145009 0 0.0045310072518456018 -0.00035765245163856256 0 0.0047242203339998021 -0.0002344947429213297 0 0.0045117655432764586 -0.00039762616296619901 0 0.0045332557123278824 -0.00037614838718348897 0 0.0045310072518456018 -0.00035765245163856256 0 0.0045557093917249552 -0.00034814832359377444 0 0.0045310072518456018 -0.00035765245163856256 0 0.0045903501224380276 -0.00037091936194545542 0 0.0045923750180517642 -0.00042093156935779424 0 0.0045661543651828226 -0.00033525700423145009 0 0.0045310072518456018 -0.00035765245163856256 0 0.0045903501224380276 -0.00037091936194545542 0 0.0045661543651828226 -0.00033525700423145009 0 0.0045903501224380276 -0.00037091936194545542 0 0.004622356279790755 -0.00033714884207014154 0 0.0046051413478175327 -0.00050696455029097755 0 0.0045923750180517642 -0.00042093156935779424 0 0.0045271652869335634 -0.00044648828549143928 0 0.0045310072518456018 -0.00035765245163856256 0 0.0045923750180517642 -0.00042093156935779424 0 0.0045271652869335634 -0.00044648828549143928 0 0.0045310072518456018 -0.00035765245163856256 0 0.0045271652869335634 -0.00044648828549143928 0 0.0044796092785731722 -0.0004111725227196865 0 0.0044628809255486531 -0.00052059921841900387 0 0.0045271652869335634 -0.00044648828549143928 0 0.0044796092785731722 -0.0004111725227196865 0 0.0043374105811835161 -0.0005161345567852091 0 0.0044796092785731722 -0.0004111725227196865 0 0.0044337794049060823 -0.00038533053066889942 0 0.0044796092785731722 -0.0004111725227196865 0 0.0045557093917249552 -0.00034814832359377444 0 0.0044337794049060823 -0.00038533053066889942 0 0.0045310072518456018 -0.00035765245163856256 0 0.0044796092785731722 -0.0004111725227196865 0 0.0045557093917249552 -0.00034814832359377444 0 0.0045251024375411357 -0.00029915200578825818 0 0.0045557093917249552 -0.00034814832359377444 0 0.0044337794049060823 -0.00038533053066889942 0 0.0044337794049060823 -0.00038533053066889942 0 0.0042944624112443422 -0.00043959349535094478 0 0.0044121547837871538 -0.00033872923546654835 0 0.0045251024375411357 -0.00029915200578825818 0 0.0044337794049060823 -0.00038533053066889942 0 0.0044121547837871538 -0.00033872923546654835 0 0.0043374105811835161 -0.0005161345567852091 0 0.0044337794049060823 -0.00038533053066889942 0 0.0042944624112443422 -0.00043959349535094478 0 0.0042944624112443422 -0.00043959349535094478 0 0.0040888447299890747 -0.00042337927324530251 0 0.004197991320039441 -0.00023128002742259067 0 0.0040888447299890747 -0.00042337927324530251 0 0.0040806584639480727 -0.00029228372651528837 0 0.0039713713186669171 -0.00031561388256759834 0 0.0040806584639480727 -0.00029228372651528837 0 0.004197991320039441 -0.00023128002742259067 0 0.0040680828597894946 -0.00020050167062824145 0 0.0040888447299890747 -0.00042337927324530251 0 0.0040806584639480727 -0.00029228372651528837 0 0.004197991320039441 -0.00023128002742259067 0 0.0040806584639480727 -0.00029228372651528837 0 0.0039713713186669171 -0.00031561388256759834 0 0.0040680828597894946 -0.00020050167062824145 0 0.0043046321820802771 -0.00043389024242723311 0 0.0043088184433660477 -0.00029779309837142556 0 0.0046617417763553538 -0.00012387781467283998 0 0.0047519583428458825 -0.00011112200323088726 0 0.0047678464152819122 -2.9676631338297273e-05 0 0.0047520832760860167 -9.1360678886020607e-05 0 0.0047524502457271254 -5.4111121491503765e-05 0 0.0047838326638432261 -0.00011266481902409945 0 0.0047573109775742254 -2.3374017826563637e-05 0 0.0047678464152819122 -2.9676631338297273e-05 0 0.0048124549377011362 -0.00018814992276907345 0 0.0047519583428458825 -0.00011112200323088726 0 0.0047908942625211788 -2.9327802624651338e-05 0 0.00440107525198488 -0.00036086157700263152 0 0.0043859497347297355 -0.00018085010393482692 0 0.0047519583428458825 -0.00011112200323088726 0 0.0047908942625211788 -2.9327802624651338e-05 0 0.0047678464152819122 -2.9676631338297273e-05 0 0.0039732513060079843 -0.00054600520514810826 0 0.0040888447299890747 -0.00042337927324530251 0 0.0039713713186669171 -0.00031561388256759834 0 0.0047908942625211788 -2.9327802624651338e-05 0 0.0047678464152819122 -2.9676631338297273e-05 0 0.0047595765922272505 -1.4904329834589415e-05 0 0.0047573109775742254 -2.3374017826563637e-05 0 0.0047678464152819122 -2.9676631338297273e-05 0 0.0047592705271881043 -1.8627380208331442e-05 0 0.0047678464152819122 -2.9676631338297273e-05 0 0.0047592705271881043 -1.8627380208331442e-05 0 0.0047595765922272505 -1.4904329834589415e-05 0 0.0047595765922272505 -1.4904329834589415e-05 0 0.0047512106391491699 -1.5286348090363322e-05 0 0.0047526516302854524 -2.3753526651824911e-05 0 0.0047532889261402865 -8.1174807490706122e-06 0 0.0047595765922272505 -1.4904329834589415e-05 0 0.0047526516302854524 -2.3753526651824911e-05 0 0.0047532889261402865 -8.1174807490706122e-06 0 0.0047592705271881043 -1.8627380208331442e-05 0 0.0047595765922272505 -1.4904329834589415e-05 0 0.0039713713186669171 -0.00031561388256759834 0 0.0039779364422927342 -0.00010318699492437554 0 0.0040680828597894946 -0.00020050167062824145 0 0.0047908942625211788 -2.9327802624651338e-05 0 0.0047595765922272505 -1.4904329834589415e-05 0 0.0047512106391491699 -1.5286348090363322e-05 0 0.0043859497347297355 -0.00018085010393482692 0 0.0043182148065139181 -4.8707177254206945e-05 0 0.0043182148065139181 -4.8707177254206945e-05 0 0.0046994662907477829 -2.438508874548736e-05 0 0.0039779364422927342 -0.00010318699492437554 0 0.0039784993125182907 8.1209230131881529e-05 0 0.0040390716278371659 3.1889354554849082e-06 0 0.0047512106391491699 -1.5286348090363322e-05 0 0.0047526516302854524 -2.3753526651824911e-05 0 0.0047419687405303463 -3.9224991042514583e-05 0 0.0043088184433660477 -0.00029779309837142556 0 0.0042183408053188274 -0.00011785147543874373 0 0.0045251024375411357 -0.00029915200578825818 0 0.0044121547837871538 -0.00033872923546654835 0 0.0045028538191674719 -0.00023280333929535691 0 0.0044121547837871538 -0.00033872923546654835 0 0.0044037317823190751 -0.00020140029322808818 0 0.0045028538191674719 -0.00023280333929535691 0 0.0039779364422927342 -0.00010318699492437554 0 0.0040680828597894946 -0.00020050167062824145 0 0.0041276958326299839 -6.1905447738618043e-05 0 0.004197991320039441 -0.00023128002742259067 0 0.0040680828597894946 -0.00020050167062824145 0 0.0041276958326299839 -6.1905447738618043e-05 0 0.0039779364422927342 -0.00010318699492437554 0 0.0041276958326299839 -6.1905447738618043e-05 0 0.0040390716278371659 3.1889354554849082e-06 0 0.0044037317823190751 -0.00020140029322808818 0 0.0045028538191674719 -0.00023280333929535691 0 0.0045826643458381517 -0.00011150874858907308 0 0.0044037317823190751 -0.00020140029322808818 0 0.0045055505170291067 4.2302517806496935e-05 0 0.0045826643458381517 -0.00011150874858907308 0 0.0041276958326299839 -6.1905447738618043e-05 0 0.0040728465434136264 9.3860052276672085e-05 0 0.0040390716278371659 3.1889354554849082e-06 0 0.0042183408053188274 -0.00011785147543874373 0 0.0045607853185126723 5.1655887077732931e-05 0 0.0044037317823190751 -0.00020140029322808818 0 0.00433332036746761 2.0788942310107834e-05 0 0.0045055505170291067 4.2302517806496935e-05 0 0.0049870646095452192 7.2008359459819487e-05 0 0.004976164577660141 3.3882805218397519e-05 0 0.0049309452713057322 6.698960404907796e-05 0 0.0049870646095452192 7.2008359459819487e-05 0 0.004976164577660141 3.3882805218397519e-05 0 0.0050028681732578444 1.6312427297057938e-05 0 0.0045607853185126723 5.1655887077732931e-05 0 0.004737744319689716 5.3825342547805368e-05 0 0.004976164577660141 3.3882805218397519e-05 0 0.0049309452713057322 6.698960404907796e-05 0 0.0049625350936265732 2.7080813330684296e-06 0 0.0049956512387473607 -1.6385480184587439e-05 0 0.004999508503137161 -1.157628817307779e-05 0 0.0049977585643348034 -9.6903259275871386e-06 0 0.0047627271331195688 -4.5733856365851161e-05 0 0.0047526516302854524 -2.3753526651824911e-05 0 0.0047419687405303463 -3.9224991042514583e-05 0 0.0049180630580906402 -2.9789908290582245e-05 0 0.0046994662907477829 -2.438508874548736e-05 0 0.0040728465434136264 9.3860052276672085e-05 0 0.0039784993125182907 8.1209230131881529e-05 0 0.0040390716278371659 3.1889354554849082e-06 0 0.0045607853185126723 5.1655887077732931e-05 0 0.0046994662907477829 -2.438508874548736e-05 0 0.0049786309762934848 1.2822303308696505e-05 0 0.0049911263653902504 4.5786766492035346e-06 0 0.004993693458510925 -5.4375043612871993e-06 0 0.0046994662907477829 -2.438508874548736e-05 0 0.0050346883305353142 -6.4540909968138334e-07 0 0.0049944879062101058 1.4769678166146211e-05 0 0.0049911263653902504 4.5786766492035346e-06 0 0.0049988659200376172 -4.578416326395363e-06 0 0.0045607853185126723 5.1655887077732931e-05 0 0.0050383901413238938 -1.3137963829762271e-05 0 0.0049786309762934848 1.2822303308696505e-05 0 0.0049944879062101058 1.4769678166146211e-05 0 0.0049911263653902504 4.5786766492035346e-06 0 0.004999508503137161 -1.157628817307779e-05 0 0.0049977585643348034 -9.6903259275871386e-06 0 0.0049988659200376172 -4.578416326395363e-06 0 0.0049977585643348034 -9.6903259275871386e-06 0 0.0049981498636944149 -5.6920088394520516e-06 0 0.0049988659200376172 -4.578416326395363e-06 0 0.0049963470154080836 -7.9061391108306939e-06 0 0.0049977585643348034 -9.6903259275871386e-06 0 0.0049981498636944149 -5.6920088394520516e-06 0 0.0049982812887652966 -3.6030273427595251e-06 0 0.0049981498636944149 -5.6920088394520516e-06 0 0.0049987151916884784 -3.8613003351263585e-06 0 0.0049982812887652966 -3.6030273427595251e-06 0 0.0049987151916884784 -3.8613003351263585e-06 0 0.0049991560988468364 -2.0020839509582046e-06 0 0.0049981498636944149 -5.6920088394520516e-06 0 0.0049987151916884784 -3.8613003351263585e-06 0 0.0049988659200376172 -4.578416326395363e-06 0 0.0049979020639928659 -3.5768591737533367e-06 0 0.004997727789487252 -4.4584952214573327e-06 0 0.004993693458510925 -5.4375043612871993e-06 0 0.0049987151916884784 -3.8613003351263585e-06 0 0.004997727789487252 -4.4584952214573327e-06 0 0.0049988659200376172 -4.578416326395363e-06 0 0.0049987151916884784 -3.8613003351263585e-06 0 0.0049979020639928659 -3.5768591737533367e-06 0 0.004997727789487252 -4.4584952214573327e-06 0 0.004997727789487252 -4.4584952214573327e-06 0 0.0049988659200376172 -4.578416326395363e-06 0 0.004993693458510925 -5.4375043612871993e-06 0 0.0049911263653902504 4.5786766492035346e-06 0 0.0049988659200376172 -4.578416326395363e-06 0 0.004993693458510925 -5.4375043612871993e-06 0 0.0050028681732578444 1.6312427297057938e-05 0 0.0050001183722220158 -1.0649883439440463e-06 0 0.0049940907465579427 1.5538522394460515e-06 0 0.0050001183722220158 -1.0649883439440463e-06 0 0.0050000066747917784 -3.3523876232433735e-09 0 0.0049999726828222658 -2.7785719154829649e-09 0 0.0049979020639928659 -3.5768591737533367e-06 0 0.004993693458510925 -5.4375043612871993e-06 0 0.0050001183722220158 -1.0649883439440463e-06 0 0.0050383901413238938 -1.3137963829762271e-05 0 0.0049907001760354473 1.053932195544362e-05 0 0.0050001183722220158 -1.0649883439440463e-06 0 0.0050000066747917784 -3.3523876232433735e-09 0 0.0049991790273410967 -2.2561343543758334e-06 0 0.0049979020639928659 -3.5768591737533367e-06 0 0.0050001183722220158 -1.0649883439440463e-06 0 0.0049991790273410967 -2.2561343543758334e-06 0 0.0049999958548716077 -2.7511548470783471e-09 0 0.0050000066747917784 -3.3523876232433735e-09 0 0.0049991560988468364 -2.0020839509582046e-06 0 0.0049987151916884784 -3.8613003351263585e-06 0 0.0049979020639928659 -3.5768591737533367e-06 0 0.0049991790273410967 -2.2561343543758334e-06 0 0.0049987151916884784 -3.8613003351263585e-06 0 0.0049991790273410967 -2.2561343543758334e-06 0 0.0049991560988468364 -2.0020839509582046e-06 0 0.0050000066747917784 -3.3523876232433735e-09 0 0.0049991790273410967 -2.2561343543758334e-06 0 0.0049991560988468364 -2.0020839509582046e-06 0 0.0049309452713057322 6.698960404907796e-05 0 0.0049625350936265732 2.7080813330684296e-06 0 0.0049051024800738745 1.0650247627141936e-05 0 0.004976164577660141 3.3882805218397519e-05 0 0.0049625350936265732 2.7080813330684296e-06 0 0.004984631840420326 1.2939857023531748e-05 0 0.004976164577660141 3.3882805218397519e-05 0 0.0050028681732578444 1.6312427297057938e-05 0 0.004984631840420326 1.2939857023531748e-05 0 0.0050028681732578444 1.6312427297057938e-05 0 0.004984631840420326 1.2939857023531748e-05 0 0.0049940907465579427 1.5538522394460515e-06 0 0.0049625350936265732 2.7080813330684296e-06 0 0.004984631840420326 1.2939857023531748e-05 0 0.0049940907465579427 1.5538522394460515e-06 0 0.0050001183722220158 -1.0649883439440463e-06 0 0.0049999726828222658 -2.7785719154829649e-09 0 0.0049940907465579427 1.5538522394460515e-06 0 0.0049625350936265732 2.7080813330684296e-06 0 0.0049999726828222658 -2.7785719154829649e-09 0 0.0049940907465579427 1.5538522394460515e-06 0 0.0049625350936265732 2.7080813330684296e-06 0 0.0049999726828222658 -2.7785719154829649e-09 0 0.0049998737725224125 -7.3447810996443722e-09 0 0.0049625350936265732 2.7080813330684296e-06 0 0.0049998737725224125 -7.3447810996443722e-09 0 0.0049051024800738745 1.0650247627141936e-05 0 0.0049998737725224125 -7.3447810996443722e-09 0 0.0049145584359738155 1.7928051643074381e-05 0 0.0049998954708611078 3.2680206957597354e-08 0 0.0049145584359738155 1.7928051643074381e-05 0 0.0048568751968168997 1.8320914095946225e-05 0 0.0049150740124739674 2.4429147674101991e-05 0 0.0049145584359738155 1.7928051643074381e-05 0 0.0049051024800738745 1.0650247627141936e-05 0 0.0047900356810945408 4.5876810236640739e-05 0 0.0049998737725224125 -7.3447810996443722e-09 0 0.0049145584359738155 1.7928051643074381e-05 0 0.0049051024800738745 1.0650247627141936e-05 0 0.004737744319689716 5.3825342547805368e-05 0 0.0047729372302303839 4.926458848280448e-05 0 0.0049309452713057322 6.698960404907796e-05 0 0.0049051024800738745 1.0650247627141936e-05 0 0.0047900356810945408 4.5876810236640739e-05 0 0.0047900356810945408 4.5876810236640739e-05 0 0.0048568751968168997 1.8320914095946225e-05 0 0.0047731580327177925 -4.2612942835823308e-05 0 0.0049145584359738155 1.7928051643074381e-05 0 0.0047900356810945408 4.5876810236640739e-05 0 0.0048568751968168997 1.8320914095946225e-05 0 0.0047614339094627931 -0.00013071721626281574 0 0.0047731580327177925 -4.2612942835823308e-05 0 0.0048805627454808357 -2.8026409117280437e-05 0 0.0048568751968168997 1.8320914095946225e-05 0 0.0047731580327177925 -4.2612942835823308e-05 0 0.0048805627454808357 -2.8026409117280437e-05 0 0.0045055505170291067 4.2302517806496935e-05 0 0.0047900356810945408 4.5876810236640739e-05 0 0.0045826643458381517 -0.00011150874858907308 0 0.0046352301515490205 -0.00017473426606254871 0 0.0047731580327177925 -4.2612942835823308e-05 0 0.0045826643458381517 -0.00011150874858907308 0 0.0047900356810945408 4.5876810236640739e-05 0 0.0047731580327177925 -4.2612942835823308e-05 0 0.0045826643458381517 -0.00011150874858907308 0 0.0049910186691145275 -3.1822978004466713e-05 0 0.0049771990409567604 -2.2623394742427598e-05 0 0.0049903957559684579 -1.531417977688865e-05 0 0.004950456975010971 -4.9412426806121025e-06 0 0.004951821406185066 6.7740485158758784e-06 0 0.0049771990409567604 -2.2623394742427598e-05 0 0.0049903957559684579 -1.531417977688865e-05 0 0.0049886888622858476 -6.5004691404026533e-06 0 0.0048568751968168997 1.8320914095946225e-05 0 0.0048805627454808357 -2.8026409117280437e-05 0 0.0049150740124739674 2.4429147674101991e-05 0 0.0049903957559684579 -1.531417977688865e-05 0 0.0049953387725267702 -6.4455970504577492e-06 0 0.0049886888622858476 -6.5004691404026533e-06 0 0.0049953387725267702 -6.4455970504577492e-06 0 0.0049886888622858476 -6.5004691404026533e-06 0 0.0049999784390823698 1.4813152809625201e-09 0 0.0049145584359738155 1.7928051643074381e-05 0 0.0049150740124739674 2.4429147674101991e-05 0 0.0049998954708611078 3.2680206957597354e-08 0 0.004951821406185066 6.7740485158758784e-06 0 0.0049999816902693449 2.3784114681960003e-08 0 0.0049953387725267702 -6.4455970504577492e-06 0 0.0049999784390823698 1.4813152809625201e-09 0 0.0050000015586207872 -3.0660346586279668e-09 0 0.0049953387725267702 -6.4455970504577492e-06 0 0.0050000015586207872 -3.0660346586279668e-09 0 0.0049996490688995398 -3.4380732925754088e-06 0 0.0050000102344930327 -1.7109157906289881e-06 0 0.0049996490688995398 -3.4380732925754088e-06 0 0.005000787295701469 -3.7083749362080165e-06 0 0.0050000015586207872 -3.0660346586279668e-09 0 0.0050000102344930327 -1.7109157906289881e-06 0 0.0049996490688995398 -3.4380732925754088e-06 0 0.0050000015586207872 -3.0660346586279668e-09 0 0.0050000102344930327 -1.7109157906289881e-06 0 0.005000000788254199 -2.4530688973667745e-09 0 0.0049996490688995398 -3.4380732925754088e-06 0 0.0050013268829749193 -6.3412616580285791e-06 0 0.005000787295701469 -3.7083749362080165e-06 0 0.0049996490688995398 -3.4380732925754088e-06 0 0.0050013268829749193 -6.3412616580285791e-06 0 0.0049993270650468781 -7.8384777238380597e-06 0 0.0049953387725267702 -6.4455970504577492e-06 0 0.0049996490688995398 -3.4380732925754088e-06 0 0.0049993270650468781 -7.8384777238380597e-06 0 0.0050006319261764734 -1.5674397286266103e-06 0 0.005000000788254199 -2.4530688973667745e-09 0 0.0050000015311682808 -7.6693247757668105e-11 0 0.0047757964070412762 -5.4572565793258638e-05 0 0.0048566316695579153 -0.00010181550085492509 0 0.0048521283398255182 -2.2289789837967619e-05 0 0.0049388476769798399 -2.0012814771450863e-05 0 0.004919799523642748 -1.9357465770628698e-05 0 0.004992458752063238 -4.4799613006633599e-06 0 0.0049994952827115717 -1.9252004859603733e-06 0 0.0049999944587239614 -1.3612958157504701e-09 0 0.0049388476769798399 -2.0012814771450863e-05 0 0.0050000418610228184 3.3470396727186787e-08 0 0.0050006319261764734 -1.5674397286266103e-06 0 0.005000000788254199 -2.4530688973667745e-09 0 0.005000787295701469 -3.7083749362080165e-06 0 0.0050000102344930327 -1.7109157906289881e-06 0 0.005000000788254199 -2.4530688973667745e-09 0 0.005000787295701469 -3.7083749362080165e-06 0 0.0046965866382292177 -0.00012130391222290643 0 0.0047757964070412762 -5.4572565793258638e-05 0 0.004771941071712615 -0.00012586683201329938 0 0.0050013268829749193 -6.3412616580285791e-06 0 0.0050003417858017615 -1.9015311191264074e-06 0 0.005000787295701469 -3.7083749362080165e-06 0 0.0048399596839380317 -6.8222220520556268e-05 0 0.0049388476769798399 -2.0012814771450863e-05 0 0.0049388476769798399 -2.0012814771450863e-05 0 0.005015520836587648 5.2902977689609474e-06 0 0.0047757964070412762 -5.4572565793258638e-05 0 0.004771941071712615 -0.00012586683201329938 0 0.0048566316695579153 -0.00010181550085492509 0 0.004771941071712615 -0.00012586683201329938 0 0.0048096933777332061 -0.00016030077067190397 0 0.0048566316695579153 -0.00010181550085492509 0 0.0048096933777332061 -0.00016030077067190397 0 0.0047468238759330109 -0.0001904561936998812 0 0.0047961175263913844 -0.00021369053016445587 0 0.004771941071712615 -0.00012586683201329938 0 0.0048096933777332061 -0.00016030077067190397 0 0.0047468238759330109 -0.0001904561936998812 0 0.0046965866382292177 -0.00012130391222290643 0 0.0047468238759330109 -0.0001904561936998812 0 0.0046813799402834946 -0.00019648349675708654 0 0.0046965866382292177 -0.00012130391222290643 0 0.004771941071712615 -0.00012586683201329938 0 0.0047468238759330109 -0.0001904561936998812 0 0.0047468238759330109 -0.0001904561936998812 0 0.0047145120868773331 -0.00022768879863079234 0 0.0046813799402834946 -0.00019648349675708654 0 0.0047468238759330109 -0.0001904561936998812 0 0.0047145120868773331 -0.00022768879863079234 0 0.0047574669457515466 -0.00023695172576432332 0 0.0047574669457515466 -0.00023695172576432332 0 0.0047961175263913844 -0.00021369053016445587 0 0.0047890376454667967 -0.00025206873316051856 0 0.0047961175263913844 -0.00021369053016445587 0 0.0047890376454667967 -0.00025206873316051856 0 0.0048224009056460357 -0.00022679539868322314 0 0.0047468238759330109 -0.0001904561936998812 0 0.0047574669457515466 -0.00023695172576432332 0 0.0047961175263913844 -0.00021369053016445587 0 0.0049903957559684579 -1.531417977688865e-05 0 0.0049953387725267702 -6.4455970504577492e-06 0 0.0049996987000239176 -1.6019962161620319e-05 0 0.0049953387725267702 -6.4455970504577492e-06 0 0.0049993270650468781 -7.8384777238380597e-06 0 0.0049996987000239176 -1.6019962161620319e-05 0 0.0050013268829749193 -6.3412616580285791e-06 0 0.0049993270650468781 -7.8384777238380597e-06 0 0.0049996987000239176 -1.6019962161620319e-05 0 0.0046965866382292177 -0.00012130391222290643 0 0.0046101864395961395 -0.00019422890575586377 0 0.0046813799402834946 -0.00019648349675708654 0 0.0048399596839380317 -6.8222220520556268e-05 0 0.0048059461348901175 -0.0001067443147250961 0 0.0046101864395961395 -0.00019422890575586377 0 0.0046813799402834946 -0.00019648349675708654 0 0.004640803543181111 -0.00023684325623926761 0 0.0047145120868773331 -0.00022768879863079234 0 0.004640803543181111 -0.00023684325623926761 0 0.0047364644052559791 -0.00026959209897063434 0 0.0047145120868773331 -0.00022768879863079234 0 0.0046813799402834946 -0.00019648349675708654 0 0.004640803543181111 -0.00023684325623926761 0 0.004640803543181111 -0.00023684325623926761 0 0.0045981962322514695 -0.00026514910810851309 0 0.0046224366231221161 -0.00028538729113988673 0 0.0045575672317067573 -0.00027146955717391246 0 0.0046101864395961395 -0.00019422890575586377 0 0.0045981962322514695 -0.00026514910810851309 0 0.0047821755826147148 -0.00014042568076128993 0 0.0048059461348901175 -0.0001067443147250961 0 0.0049910186691145275 -3.1822978004466713e-05 0 0.0049903957559684579 -1.531417977688865e-05 0 0.0049996987000239176 -1.6019962161620319e-05 0 0.0046101864395961395 -0.00019422890575586377 0 0.004640803543181111 -0.00023684325623926761 0 0.0045981962322514695 -0.00026514910810851309 0 0.0045575672317067573 -0.00027146955717391246 0 0.0045981962322514695 -0.00026514910810851309 0 0.0045729721933588088 -0.00029384269674165834 0 0.0045981962322514695 -0.00026514910810851309 0 0.0045729721933588088 -0.00029384269674165834 0 0.0045932726489101407 -0.00029936745521386105 0 0.0045981962322514695 -0.00026514910810851309 0 0.0045932726489101407 -0.00029936745521386105 0 0.0046224366231221161 -0.00028538729113988673 0 0.0045932726489101407 -0.00029936745521386105 0 0.0045797972159713676 -0.0003177680688907822 0 0.0045821384964710825 -0.00033538325053014174 0 0.0045932726489101407 -0.00029936745521386105 0 0.0045821384964710825 -0.00033538325053014174 0 0.0046143452058387694 -0.000318391457404237 0 0.0045729721933588088 -0.00029384269674165834 0 0.0045932726489101407 -0.00029936745521386105 0 0.0045797972159713676 -0.0003177680688907822 0 0.0045572819748181895 -0.00030104803999495217 0 0.0045797972159713676 -0.0003177680688907822 0 0.0045955046895154467 -0.0003449738458263528 0 0.0045797972159713676 -0.0003177680688907822 0 0.0045821384964710825 -0.00033538325053014174 0 0.0045955046895154467 -0.0003449738458263528 0 0.0045821384964710825 -0.00033538325053014174 0 0.0045955046895154467 -0.0003449738458263528 0 0.0045648507448931173 -0.00036258427446401672 0 0.0045648507448931173 -0.00036258427446401672 0 0.0046143452058387694 -0.000318391457404237 0 0.0046607664577840739 -0.00036286817230339683 0 0.004552265827918546 -0.0003698661513178576 0 0.0045132735598345936 -0.00038417478779381487 0 0.0045648507448931173 -0.00036258427446401672 0 0.0043551665127142397 -0.00040892789666784833 0 0.0044193438569518047 -0.00028914311857837011 0 0.0045821384964710825 -0.00033538325053014174 0 0.0045648507448931173 -0.00036258427446401672 0 0.0046143452058387694 -0.000318391457404237 0 0.004640803543181111 -0.00023684325623926761 0 0.0046224366231221161 -0.00028538729113988673 0 0.0046679937869654299 -0.00030345463539046164 0 0.0046143452058387694 -0.000318391457404237 0 0.0046224366231221161 -0.00028538729113988673 0 0.0046679937869654299 -0.00030345463539046164 0 0.004624053634998653 -0.00022374607948946688 0 0.004755040749101198 -0.00030509568458055979 0 0.0045932726489101407 -0.00029936745521386105 0 0.0046143452058387694 -0.000318391457404237 0 0.0046224366231221161 -0.00028538729113988673 0 0.0047574669457515466 -0.00023695172576432332 0 0.0047364644052559791 -0.00026959209897063434 0 0.0047890376454667967 -0.00025206873316051856 0 0.0047145120868773331 -0.00022768879863079234 0 0.0047574669457515466 -0.00023695172576432332 0 0.0047364644052559791 -0.00026959209897063434 0 0.0047364644052559791 -0.00026959209897063434 0 0.0047890376454667967 -0.00025206873316051856 0 0.0047864808332057215 -0.00028109150791807617 0 0.0047890376454667967 -0.00025206873316051856 0 0.0047864808332057215 -0.00028109150791807617 0 0.004807966769091814 -0.00025869677893852646 0 0.0046679937869654299 -0.00030345463539046164 0 0.0047199182866737941 -0.00036358398039130921 0 0.0046607664577840739 -0.00036286817230339683 0 0.0046143452058387694 -0.000318391457404237 0 0.0046679937869654299 -0.00030345463539046164 0 0.0046607664577840739 -0.00036286817230339683 0 0.004400191653648371 -0.0003234428066372718 0 0.0045132735598345936 -0.00038417478779381487 0 0.004755040749101198 -0.00030509568458055979 0 0.004400191653648371 -0.0003234428066372718 0 0.0043551665127142397 -0.00040892789666784833 0 0.0042625311268489549 -0.00025761863164438674 0 0.0044193438569518047 -0.00028914311857837011 0 0.0041534979013870925 -0.0004122891275032131 0 0.0043551665127142397 -0.00040892789666784833 0 0.0042625311268489549 -0.00025761863164438674 0 0.0042625311268489549 -0.00025761863164438674 0 0.0043705268776951462 -0.00018662922155909554 0 0.0044193438569518047 -0.00028914311857837011 0 0.004400191653648371 -0.0003234428066372718 0 0.003931437509095157 -0.00022188125630536351 0 0.0041534979013870925 -0.0004122891275032131 0 0.0041173441343676119 -0.00023052211779920096 0 0.0039898712083556945 -0.00025289078726889669 0 0.0041534979013870925 -0.0004122891275032131 0 0.0042625311268489549 -0.00025761863164438674 0 0.0041173441343676119 -0.00023052211779920096 0 0.0041173441343676119 -0.00023052211779920096 0 0.004202920773079012 -0.00014012369298013218 0 0.004078803678802684 -7.4370532604259139e-05 0 0.0042625311268489549 -0.00025761863164438674 0 0.0041173441343676119 -0.00023052211779920096 0 0.004202920773079012 -0.00014012369298013218 0 0.004202920773079012 -0.00014012369298013218 0 0.0042066968425840141 -2.2194895070400198e-05 0 0.004078803678802684 -7.4370532604259139e-05 0 0.0043705268776951462 -0.00018662922155909554 0 0.0042887008897369043 -0.00016866965418396338 0 0.004320450918584743 -8.9397681499249433e-05 0 0.0042625311268489549 -0.00025761863164438674 0 0.004202920773079012 -0.00014012369298013218 0 0.0042887008897369043 -0.00016866965418396338 0 0.0042625311268489549 -0.00025761863164438674 0 0.0043705268776951462 -0.00018662922155909554 0 0.0042887008897369043 -0.00016866965418396338 0 0.004202920773079012 -0.00014012369298013218 0 0.0042887008897369043 -0.00016866965418396338 0 0.004320450918584743 -8.9397681499249433e-05 0 0.004202920773079012 -0.00014012369298013218 0 0.004320450918584743 -8.9397681499249433e-05 0 0.0042066968425840141 -2.2194895070400198e-05 0 0.0043705268776951462 -0.00018662922155909554 0 0.004320450918584743 -8.9397681499249433e-05 0 0.0043620206372595362 -4.6975506268983682e-05 0 0.0043485785222266808 -0.00011335840151717929 0 0.0043372302891997528 -0.00014321797766603923 0 0.0043705268776951462 -0.00018662922155909554 0 0.0045216939217751157 -0.00022507232241044084 0 0.0043620206372595362 -4.6975506268983682e-05 0 0.0046418051909211935 -0.00034698351316383514 0 0.0043372302891997528 -0.00014321797766603923 0 0.0046715790791256057 -0.00047193485842037452 0 0.0046928414261794595 -0.000400893442234374 0 0.0047624225814666505 -0.000477746277824649 0 0.0046051413478175327 -0.00050696455029097755 0 0.0045923750180517642 -0.00042093156935779424 0 0.0046715790791256057 -0.00047193485842037452 0 0.0045923750180517642 -0.00042093156935779424 0 0.0046715790791256057 -0.00047193485842037452 0 0.0046928414261794595 -0.000400893442234374 0 0.0045903501224380276 -0.00037091936194545542 0 0.004622356279790755 -0.00033714884207014154 0 0.0046928414261794595 -0.000400893442234374 0 0.0045997046574666736 -0.0003305208459343774 0 0.0046418051909211935 -0.00034698351316383514 0 0.0045903501224380276 -0.00037091936194545542 0 0.0045923750180517642 -0.00042093156935779424 0 0.0046928414261794595 -0.000400893442234374 0 0.0045955046895154467 -0.0003449738458263528 0 0.0045648507448931173 -0.00036258427446401672 0 0.0045216939217751157 -0.00022507232241044084 0 0.0045648507448931173 -0.00036258427446401672 0 0.0044193438569518047 -0.00028914311857837011 0 0.0045216939217751157 -0.00022507232241044084 0 0.0043705268776951462 -0.00018662922155909554 0 0.0044193438569518047 -0.00028914311857837011 0 0.0045216939217751157 -0.00022507232241044084 0 0.0045685736377681771 -0.00046445447767151827 0 0.0040849529312343485 -0.00020362580279495077 0 0.0047244280460611117 -0.00024510650916719455 0 0.0045685736377681771 -0.00046445447767151827 0 0.0047244280460611117 -0.00024510650916719455 0 0.0048037258069493294 -0.00034559881789745936 0 0.0041211348365022688 -0.00032482798104536411 0 0.0042142288186481436 -0.0002876821555112896 0 0.0045685736377681771 -0.00046445447767151827 0 0.0048037258069493294 -0.00034559881789745936 0 0.0047797539836128417 -0.00045207244454487956 0 0.0036995052646870042 -0.00022138398262935223 0 0.0036938823234643385 -0.00011456413475302776 0 0.0035818411664249477 -8.3376038161141357e-05 0 0.0036995052646870042 -0.00022138398262935223 0 0.0036938823234643385 -0.00011456413475302776 0 0.0038779552875929414 -0.00020296735866209476 0 0.0036938823234643385 -0.00011456413475302776 0 0.0038456820843165455 -0.0001064591382714514 0 0.0038779552875929414 -0.00020296735866209476 0 0.0038456820843165455 -0.0001064591382714514 0 0.0040024349007940271 -0.00024938789625258192 0 0.0038779552875929414 -0.00020296735866209476 0 0.0041173441343676119 -0.00023052211779920096 0 0.0039701077051819897 -0.00012497364381758083 0 0.004078803678802684 -7.4370532604259139e-05 0 0.0038786663868174477 -0.0001321646680781957 0 0.003931437509095157 -0.00022188125630536351 0 0.0038456820843165455 -0.0001064591382714514 0 0.0039701077051819897 -0.00012497364381758083 0 0.0039898712083556945 -0.00025289078726889669 0 0.0041173441343676119 -0.00023052211779920096 0 0.0039701077051819897 -0.00012497364381758083 0 0.0039898712083556945 -0.00025289078726889669 0 0.0040216532910304923 -0.00026459067998346118 0 0.0040024349007940271 -0.00024938789625258192 0 0.0038779552875929414 -0.00020296735866209476 0 0.0039037165951296615 -0.00024068359644477053 0 0.0040216532910304923 -0.00026459067998346118 0 0.0040024349007940271 -0.00024938789625258192 0 0.0045685736377681771 -0.00046445447767151827 0 0.0040216532910304923 -0.00026459067998346118 0 0.0040849529312343485 -0.00020362580279495077 0 0.0036995052646870042 -0.00022138398262935223 0 0.0040216532910304923 -0.00026459067998346118 0 0.0038779552875929414 -0.00020296735866209476 0 0.0041211348365022688 -0.00032482798104536411 0 0.0040212669466985771 -0.00027028941411290803 0 0.0048235404547195895 -0.00024220611544317731 0 0.0048132904934502906 -0.00025083923815667818 0 0.0048196036840879898 -0.00025034937558718247 0 0.0039037165951296615 -0.00024068359644477053 0 0.0040216532910304923 -0.00026459067998346118 0 0.0040849529312343485 -0.00020362580279495077 0 0.004400191653648371 -0.0003234428066372718 0 0.00444767961027404 -0.00021958246915553412 0 0.0047864808332057215 -0.00028109150791807617 0 0.0048235404547195895 -0.00024220611544317731 0 0.004807966769091814 -0.00025869677893852646 0 0.0048235404547195895 -0.00024220611544317731 0 0.0048196036840879898 -0.00025034937558718247 0 0.004807966769091814 -0.00025869677893852646 0 0.0047890376454667967 -0.00025206873316051856 0 0.004807966769091814 -0.00025869677893852646 0 0.0048103462080619558 -0.00024840356900610245 0 0.0048196036840879898 -0.00025034937558718247 0 0.004807966769091814 -0.00025869677893852646 0 0.0048103462080619558 -0.00024840356900610245 0 0.0048196036840879898 -0.00025034937558718247 0 0.0048103462080619558 -0.00024840356900610245 0 0.0048224418529031667 -0.00024621731404538737 0 0.0048103462080619558 -0.00024840356900610245 0 0.0048224418529031667 -0.00024621731404538737 0 0.0048224009056460357 -0.00022679539868322314 0 0.0047890376454667967 -0.00025206873316051856 0 0.0048103462080619558 -0.00024840356900610245 0 0.0048224009056460357 -0.00022679539868322314 0 0.0048224418529031667 -0.00024621731404538737 0 0.0048379284416930277 -0.00023569612167050982 0 0.0048224009056460357 -0.00022679539868322314 0 0.0048132904934502906 -0.00025083923815667818 0 0.0048224418529031667 -0.00024621731404538737 0 0.0048379284416930277 -0.00023569612167050982 0 0.0048132904934502906 -0.00025083923815667818 0 0.0048379284416930277 -0.00023569612167050982 0 0.0048038232907165381 -0.00024509886916746724 0 0.0048132904934502906 -0.00025083923815667818 0 0.0048196036840879898 -0.00025034937558718247 0 0.0048224418529031667 -0.00024621731404538737 0 0.0048379284416930277 -0.00023569612167050982 0 0.0048038232907165381 -0.00024509886916746724 0 0.004845531132130136 -0.00022947171020676032 0 0.0048038232907165381 -0.00024509886916746724 0 0.0047938290981903832 -0.0002384944837821222 0 0.004845531132130136 -0.00022947171020676032 0 0.0048132904934502906 -0.00025083923815667818 0 0.0048038232907165381 -0.00024509886916746724 0 0.0047244280460611117 -0.00024510650916719455 0 0.0048038232907165381 -0.00024509886916746724 0 0.0047244280460611117 -0.00024510650916719455 0 0.0047938290981903832 -0.0002384944837821222 0 0.0048235404547195895 -0.00024220611544317731 0 0.0048132904934502906 -0.00025083923815667818 0 0.0047244280460611117 -0.00024510650916719455 0 0.00444767961027404 -0.00021958246915553412 0 0.0047137761787274281 -0.00024329160237262861 0 0.0047244280460611117 -0.00024510650916719455 0 0.0047938290981903832 -0.0002384944837821222 0 0.0048032862527136759 -0.00026545243286682139 0 0.0047244280460611117 -0.00024510650916719455 0 0.0048032862527136759 -0.00026545243286682139 0 0.0048037258069493294 -0.00034559881789745936 0 0.0047938290981903832 -0.0002384944837821222 0 0.0048032862527136759 -0.00026545243286682139 0 0.0048154827229433816 -0.00023901522661411596 0 0.0047938290981903832 -0.0002384944837821222 0 0.0048181511242155334 -0.00022966312921971776 0 0.004845531132130136 -0.00022947171020676032 0 0.0047938290981903832 -0.0002384944837821222 0 0.0048181511242155334 -0.00022966312921971776 0 0.0048154827229433816 -0.00023901522661411596 0 0.0048181511242155334 -0.00022966312921971776 0 0.004827326964114545 -0.00022632898794894087 0 0.0048281325491730861 -0.00022432585344171429 0 0.0048181511242155334 -0.00022966312921971776 0 0.0048281325491730861 -0.00022432585344171429 0 0.0048154827229433816 -0.00023901522661411596 0 0.0048181511242155334 -0.00022966312921971776 0 0.004845531132130136 -0.00022947171020676032 0 0.004827326964114545 -0.00022632898794894087 0 0.004845531132130136 -0.00022947171020676032 0 0.0048260572087327428 -0.00022337944281940823 0 0.004827326964114545 -0.00022632898794894087 0 0.0048564859311314686 -0.00021479747004749084 0 0.0048854569295272666 -0.00019382404791560971 0 0.004845531132130136 -0.00022947171020676032 0 0.0049558887698978055 -0.00014896539266276272 0 0.0048699378834378059 -0.00019881082943664659 0 0.004827326964114545 -0.00022632898794894087 0 0.0048281325491730861 -0.00022432585344171429 0 0.0048309554705641524 -0.00021891700394068838 0 0.0048260572087327428 -0.00022337944281940823 0 0.004827326964114545 -0.00022632898794894087 0 0.004828683469814893 -0.00021932278472806675 0 0.004827326964114545 -0.00022632898794894087 0 0.004828683469814893 -0.00021932278472806675 0 0.0048309554705641524 -0.00021891700394068838 0 0.0048224009056460357 -0.00022679539868322314 0 0.0048699378834378059 -0.00019881082943664659 0 0.0048413787463304553 -0.00018943004151598182 0 0.0047961175263913844 -0.00021369053016445587 0 0.0048224009056460357 -0.00022679539868322314 0 0.0048413787463304553 -0.00018943004151598182 0 0.0048379284416930277 -0.00023569612167050982 0 0.004845531132130136 -0.00022947171020676032 0 0.0048699378834378059 -0.00019881082943664659 0 0.0048379284416930277 -0.00023569612167050982 0 0.0048224009056460357 -0.00022679539868322314 0 0.0048699378834378059 -0.00019881082943664659 0 0.0049558887698978055 -0.00014896539266276272 0 0.0048699378834378059 -0.00019881082943664659 0 0.0049193661822976237 -0.00010701522780263863 0 0.0048699378834378059 -0.00019881082943664659 0 0.0048413787463304553 -0.00018943004151598182 0 0.0049193661822976237 -0.00010701522780263863 0 0.0048096933777332061 -0.00016030077067190397 0 0.0048413787463304553 -0.00018943004151598182 0 0.0048566316695579153 -0.00010181550085492509 0 0.0048096933777332061 -0.00016030077067190397 0 0.0047961175263913844 -0.00021369053016445587 0 0.0048413787463304553 -0.00018943004151598182 0 0.0048413787463304553 -0.00018943004151598182 0 0.0048566316695579153 -0.00010181550085492509 0 0.0049193661822976237 -0.00010701522780263863 0 0.0048566316695579153 -0.00010181550085492509 0 0.0049193661822976237 -0.00010701522780263863 0 0.0049219016468090267 -5.8132019128348907e-05 0 0.0049193661822976237 -0.00010701522780263863 0 0.0049622213252536523 -4.3171430766789566e-05 0 0.0049689487086132583 -7.9224663755564617e-05 0 0.0050000333137647859 -9.1414303983952926e-08 0 0.0049622213252536523 -4.3171430766789566e-05 0 0.0049689487086132583 -7.9224663755564617e-05 0 0.0049622213252536523 -4.3171430766789566e-05 0 0.0049219016468090267 -5.8132019128348907e-05 0 0.0049997524242882067 5.6884208876779515e-08 0 0.0050000333137647859 -9.1414303983952926e-08 0 0.0049622213252536523 -4.3171430766789566e-05 0 0.0049997524242882067 5.6884208876779515e-08 0 0.0049193661822976237 -0.00010701522780263863 0 0.0049622213252536523 -4.3171430766789566e-05 0 0.0049219016468090267 -5.8132019128348907e-05 0 0.0048566316695579153 -0.00010181550085492509 0 0.0049219016468090267 -5.8132019128348907e-05 0 0.0048521283398255182 -2.2289789837967619e-05 0 0.0049219016468090267 -5.8132019128348907e-05 0 0.0049997524242882067 5.6884208876779515e-08 0 0.0048521283398255182 -2.2289789837967619e-05 0 0.0049999690832910372 -5.2649049944325747e-10 0 0.004919799523642748 -1.9357465770628698e-05 0 0.0050000039529651732 7.6706142109062477e-10 0 0.0049994952827115717 -1.9252004859603733e-06 0 0.0049999944587239614 -1.3612958157504701e-09 0 0.004828683469814893 -0.00021932278472806675 0 0.0048260881593559027 -0.00021124618649390843 0 0.0048318584721678973 -0.00021586578444280765 0 0.004941843757942703 -7.9501332535624711e-05 0 0.004912234014040868 -0.00011023805307525728 0 0.004828683469814893 -0.00021932278472806675 0 0.0048318584721678973 -0.00021586578444280765 0 0.0048309554705641524 -0.00021891700394068838 0 0.0048260572087327428 -0.00022337944281940823 0 0.004828683469814893 -0.00021932278472806675 0 0.0048260881593559027 -0.00021124618649390843 0 0.0049558887698978055 -0.00014896539266276272 0 0.0049193661822976237 -0.00010701522780263863 0 0.0049689487086132583 -7.9224663755564617e-05 0 0.0048854569295272666 -0.00019382404791560971 0 0.004941843757942703 -7.9501332535624711e-05 0 0.0049558887698978055 -0.00014896539266276272 0 0.0049689487086132583 -7.9224663755564617e-05 0 0.0050074732398100999 -5.7417340397196056e-05 0 0.0050000333137647859 -9.1414303983952926e-08 0 0.0049689487086132583 -7.9224663755564617e-05 0 0.0050074732398100999 -5.7417340397196056e-05 0 0.0050000238114879534 -7.8160661179784744e-09 0 0.004941843757942703 -7.9501332535624711e-05 0 0.0049999994960618693 2.7064347402973428e-10 0 0.0049997916030627594 -5.0663923577447321e-07 0 0.0049999999143301513 -9.3365826044633504e-10 0 0.004941843757942703 -7.9501332535624711e-05 0 0.0049999717797788628 2.271785650734917e-08 0 0.0049993870680816949 -7.3841751490790942e-07 0 0.0049995248458941221 -6.5108857737033907e-07 0 0.0049989432600534194 -1.4384793937236077e-06 0 0.0049993870680816949 -7.3841751490790942e-07 0 0.0049999978792563604 -1.0581938703707425e-09 0 0.0049995248458941221 -6.5108857737033907e-07 0 0.0049999978792563604 -1.0581938703707425e-09 0 0.0049995248458941221 -6.5108857737033907e-07 0 0.0049999988710060375 -9.2374179538311903e-10 0 0.0049995248458941221 -6.5108857737033907e-07 0 0.0049999988710060375 -9.2374179538311903e-10 0 0.0049992074549048693 -1.147324047410665e-06 0 0.0049989432600534194 -1.4384793937236077e-06 0 0.0049992074549048693 -1.147324047410665e-06 0 0.0049982454719051219 -2.6978158313221467e-06 0 0.0049995248458941221 -6.5108857737033907e-07 0 0.0049989432600534194 -1.4384793937236077e-06 0 0.0049992074549048693 -1.147324047410665e-06 0 0.0048318584721678973 -0.00021586578444280765 0 0.0048309554705641524 -0.00021891700394068838 0 0.004840974652500077 -0.00021810616913430663 0 0.004912234014040868 -0.00011023805307525728 0 0.0049187333726839581 -0.00010996653777906145 0 0.0049992074549048693 -1.147324047410665e-06 0 0.0049991845628595856 -1.4805537185046013e-06 0 0.0049982454719051219 -2.6978158313221467e-06 0 0.0049999988710060375 -9.2374179538311903e-10 0 0.0049992074549048693 -1.147324047410665e-06 0 0.0049999985241142419 -8.8275202329616841e-10 0 0.0049992074549048693 -1.147324047410665e-06 0 0.0049999985241142419 -8.8275202329616841e-10 0 0.0049991845628595856 -1.4805537185046013e-06 0 0.0049999985241142419 -8.8275202329616841e-10 0 0.0049995156463603285 -1.3845540596909961e-06 0 0.0049991845628595856 -1.4805537185046013e-06 0 0.0049999985241142419 -8.8275202329616841e-10 0 0.004999710106732275 -8.7824178406118031e-07 0 0.0049995156463603285 -1.3845540596909961e-06 0 0.0049999985241142419 -8.8275202329616841e-10 0 0.004999710106732275 -8.7824178406118031e-07 0 0.0050000004636952585 -1.4484513753717318e-09 0 0.004999710106732275 -8.7824178406118031e-07 0 0.0049993880866686423 -1.9489399968317638e-06 0 0.0049997484037199074 -1.6723342408154687e-06 0 0.004999710106732275 -8.7824178406118031e-07 0 0.0049993880866686423 -1.9489399968317638e-06 0 0.0049995156463603285 -1.3845540596909961e-06 0 0.0049993880866686423 -1.9489399968317638e-06 0 0.0049995156463603285 -1.3845540596909961e-06 0 0.0049995502545542502 -2.0906624640209153e-06 0 0.0049995502545542502 -2.0906624640209153e-06 0 0.0049988680870709052 -2.6351034900623333e-06 0 0.0049989939738085722 -3.6410585210680171e-06 0 0.0049995156463603285 -1.3845540596909961e-06 0 0.0049995502545542502 -2.0906624640209153e-06 0 0.0049988680870709052 -2.6351034900623333e-06 0 0.0049993880866686423 -1.9489399968317638e-06 0 0.0049995502545542502 -2.0906624640209153e-06 0 0.0049992414730615602 -2.0056519893453221e-06 0 0.0049864020224372604 -1.5105366371175099e-06 0 0.0049602307606442251 -1.0117345201008335e-05 0 0.0049871456872584109 -1.3292536159423285e-05 0 0.0049602307606442251 -1.0117345201008335e-05 0 0.0049991845628595856 -1.4805537185046013e-06 0 0.0049988680870709052 -2.6351034900623333e-06 0 0.0049982454719051219 -2.6978158313221467e-06 0 0.0049995156463603285 -1.3845540596909961e-06 0 0.0049991845628595856 -1.4805537185046013e-06 0 0.0049988680870709052 -2.6351034900623333e-06 0 0.0049988680870709052 -2.6351034900623333e-06 0 0.0049980856779032138 -4.9191384850427529e-06 0 0.0049982454719051219 -2.6978158313221467e-06 0 0.0049988680870709052 -2.6351034900623333e-06 0 0.0049980856779032138 -4.9191384850427529e-06 0 0.0049989939738085722 -3.6410585210680171e-06 0 0.0049980856779032138 -4.9191384850427529e-06 0 0.0049989939738085722 -3.6410585210680171e-06 0 0.0049994199150358958 -7.7773723388811392e-06 0 0.0049602307606442251 -1.0117345201008335e-05 0 0.0048789456312719817 -0.00012467319373604956 0 0.0050003049222549006 -3.276383882708886e-06 0 0.0049989939738085722 -3.6410585210680171e-06 0 0.0049994199150358958 -7.7773723388811392e-06 0 0.0049995502545542502 -2.0906624640209153e-06 0 0.0050003049222549006 -3.276383882708886e-06 0 0.0049989939738085722 -3.6410585210680171e-06 0 0.0049329472271547152 -0.0001155951521502997 0 0.0048789456312719817 -0.00012467319373604956 0 0.0048506194437215183 -0.00022219760466337261 0 0.0048598954078655889 -0.00022730935701191371 0 0.0048506585235509317 -0.00023374942524003004 0 0.0048506194437215183 -0.00022219760466337261 0 0.0048412151160646356 -0.00022513234436517552 0 0.0048506585235509317 -0.00023374942524003004 0 0.0048417477936438143 -0.00022082593341578107 0 0.0048945254169617128 -0.00024452559273072707 0 0.0048468368881446804 -0.0002171605940987935 0 0.0048345589870161252 -0.00023080287676859531 0 0.0048539559321012123 -0.00025004261740035454 0 0.0048345589870161252 -0.00023080287676859531 0 0.0048281325491730861 -0.00022432585344171429 0 0.0048154827229433816 -0.00023901522661411596 0 0.0048468368881446804 -0.0002171605940987935 0 0.0048345589870161252 -0.00023080287676859531 0 0.0048281325491730861 -0.00022432585344171429 0 0.0048468368881446804 -0.0002171605940987935 0 0.0048281325491730861 -0.00022432585344171429 0 0.0048309554705641524 -0.00021891700394068838 0 0.0048412151160646356 -0.00022513234436517552 0 0.0048309554705641524 -0.00021891700394068838 0 0.004840974652500077 -0.00021810616913430663 0 0.0048417477936438143 -0.00022082593341578107 0 0.0048334234826788187 -0.00021913283507457522 0 0.0048506194437215183 -0.00022219760466337261 0 0.0048412151160646356 -0.00022513234436517552 0 0.004840974652500077 -0.00021810616913430663 0 0.0049329472271547152 -0.0001155951521502997 0 0.0049187333726839581 -0.00010996653777906145 0 0.0049933273061949241 3.728405315101218e-06 0 0.0049980073629586818 2.0787378612524024e-06 0 0.0049946213365268128 7.3105986525310953e-06 0 0.0049933273061949241 3.728405315101218e-06 0 0.0049943332905376184 1.4031599762989343e-06 0 0.0049980073629586818 2.0787378612524024e-06 0 0.0049933273061949241 3.728405315101218e-06 0 0.0049943332905376184 1.4031599762989343e-06 0 0.0049899102631565037 1.7620579557792556e-06 0 0.0049988319006383404 -4.4241783445006078e-07 0 0.0049999946505379558 -1.2298167335743547e-09 0 0.0049999990735282588 6.9296141408994372e-11 0 0.0049968675201081548 -4.8348193089049092e-07 0 0.0049969068836624086 -1.4528309631276776e-06 0 0.0049943332905376184 1.4031599762989343e-06 0 0.0049988319006383404 -4.4241783445006078e-07 0 0.0049980073629586818 2.0787378612524024e-06 0 0.0049943332905376184 1.4031599762989343e-06 0 0.0049988319006383404 -4.4241783445006078e-07 0 0.0049875424674025483 -2.1630383308371169e-06 0 0.0049999946505379558 -1.2298167335743547e-09 0 0.0049980073629586818 2.0787378612524024e-06 0 0.0050000804860703355 7.9699281104633241e-07 0 0.0049988319006383404 -4.4241783445006078e-07 0 0.0049999946505379558 -1.2298167335743547e-09 0 0.0049980073629586818 2.0787378612524024e-06 0 0.0049980073629586818 2.0787378612524024e-06 0 0.0050010506730931411 2.1811509614052628e-06 0 0.0049988884124226272 7.5986773695940659e-06 0 0.0049980073629586818 2.0787378612524024e-06 0 0.0050010506730931411 2.1811509614052628e-06 0 0.0050000804860703355 7.9699281104633241e-07 0 0.0050010506730931411 2.1811509614052628e-06 0 0.0050000804860703355 7.9699281104633241e-07 0 0.0050000047167738162 1.3584236294306882e-09 0 0.0049999946505379558 -1.2298167335743547e-09 0 0.0050000804860703355 7.9699281104633241e-07 0 0.0050000047167738162 1.3584236294306882e-09 0 0.0049909671335813923 5.2901917956823534e-06 0 0.0049999989505799874 -5.0840336601234181e-10 0 0.0049860062158043781 4.4130714815501152e-06 0 0.0049999875807283951 -4.1363445524888479e-09 0 0.0049949344676678874 3.0361410895218069e-06 0 0.0049999943132887376 7.5854059881493872e-09 0 0.0049656864334310883 -1.0970552236883331e-05 0 0.00500000027089778 -3.720012934089063e-09 0 0.0049656864334310883 -1.0970552236883331e-05 0 0.0049999875807283951 -4.1363445524888479e-09 0 0.0050000074311287602 2.2214081508851303e-09 0 0.0049949344676678874 3.0361410895218069e-06 0 0.0050000000600480205 -1.6439222508756133e-10 0 0.0049999996888125606 7.1461643773111231e-11 0 0.0049995935502921062 -3.0769278843810008e-07 0 0.004999710106732275 -8.7824178406118031e-07 0 0.0049999959786904986 -1.5146121137703189e-06 0 0.0049997484037199074 -1.6723342408154687e-06 0 0.004999710106732275 -8.7824178406118031e-07 0 0.0050000004636952585 -1.4484513753717318e-09 0 0.0049999959786904986 -1.5146121137703189e-06 0 0.0049754724422891349 -1.2224575380299468e-05 0 0.0049375909479571654 -2.0666560399150063e-05 0 0.0049993880866686423 -1.9489399968317638e-06 0 0.0049997484037199074 -1.6723342408154687e-06 0 0.0049994482050843775 -2.6043439974020112e-06 0 0.0049656864334310883 -1.0970552236883331e-05 0 0.0049375909479571654 -2.0666560399150063e-05 0 0.0049999959786904986 -1.5146121137703189e-06 0 0.0049997484037199074 -1.6723342408154687e-06 0 0.0049994098739270061 -2.5151683762315446e-06 0 0.0048839891897374168 -4.6375999655086454e-05 0 0.0048826484462286199 -3.868878969475635e-05 0 0.0048756777325863693 -3.3112385989809225e-05 0 0.0049656864334310883 -1.0970552236883331e-05 0 0.0049286918419699545 -1.1339366768900227e-05 0 0.0049860062158043781 4.4130714815501152e-06 0 0.0049949344676678874 3.0361410895218069e-06 0 0.004986813215378999 1.1223088640027842e-05 0 0.0049993880866686423 -1.9489399968317638e-06 0 0.0049984086495989824 -3.1791339928528985e-06 0 0.0049994482050843775 -2.6043439974020112e-06 0 0.0048752629451222322 -4.6079510793314198e-05 0 0.0048719209234916721 -4.0885031160059334e-05 0 0.0048742049851412872 -4.0562232568128949e-05 0 0.0049375909479571654 -2.0666560399150063e-05 0 0.0048863243081615961 -5.3181331979294008e-05 0 0.0048826484462286199 -3.868878969475635e-05 0 0.0048754285288717513 -2.6759933133889673e-05 0 0.0048756777325863693 -3.3112385989809225e-05 0 0.0049984086495989824 -3.1791339928528985e-06 0 0.0049994482050843775 -2.6043439974020112e-06 0 0.0049984187726282645 -4.8025514354957181e-06 0 0.0049375909479571654 -2.0666560399150063e-05 0 0.0048731355687584629 -3.1907245371958698e-05 0 0.0048659100761820505 -5.032118510806563e-05 0 0.0048657359805314134 -9.5832134333682822e-05 0 0.0048829414308426879 -7.214245892224656e-05 0 0.0049602307606442251 -1.0117345201008335e-05 0 0.0048863243081615961 -5.3181331979294008e-05 0 0.0048657359805314134 -9.5832134333682822e-05 0 0.0048829414308426879 -7.214245892224656e-05 0 0.0048826969795147494 -0.00010636852008463605 0 0.0047868567503561808 -0.00011115478718975723 0 0.004767549963158724 -8.9622969187708309e-05 0 0.0047853892366239922 -8.5313267949191441e-05 0 0.0048863243081615961 -5.3181331979294008e-05 0 0.0048006669713370528 -6.2622577859642323e-05 0 0.0048719209234916721 -4.0885031160059334e-05 0 0.0048742049851412872 -4.0562232568128949e-05 0 0.0048684408372974735 -3.5483651209810298e-05 0 0.0048863243081615961 -5.3181331979294008e-05 0 0.0047553130516993667 -0.00013303315721929074 0 0.0048789456312719817 -0.00012467319373604956 0 0.0047553130516993667 -0.00013303315721929074 0 0.0048754285288717513 -2.6759933133889673e-05 0 0.0048662184421160229 -1.9174591108517402e-05 0 0.0048673883057533248 -1.3934247971414614e-05 0 0.0048731355687584629 -3.1907245371958698e-05 0 0.0048006669713370528 -6.2622577859642323e-05 0 0.0049779186764831555 2.2438478154865634e-05 0 0.0049732969899412768 1.5425716187356204e-05 0 0.0049705883632039849 2.6408546617205037e-05 0 0.0048754285288717513 -2.6759933133889673e-05 0 0.0048756777325863693 -3.3112385989809225e-05 0 0.0048662184421160229 -1.9174591108517402e-05 0 0.004986813215378999 1.1223088640027842e-05 0 0.0049779186764831555 2.2438478154865634e-05 0 0.0049732969899412768 1.5425716187356204e-05 0 0.0049909671335813923 5.2901917956823534e-06 0 0.0050039655010447048 9.2577918828876826e-06 0 0.0049860062158043781 4.4130714815501152e-06 0 0.004986813215378999 1.1223088640027842e-05 0 0.0049732969899412768 1.5425716187356204e-05 0 0.0049286918419699545 -1.1339366768900227e-05 0 0.0049364022422573924 4.3915322421032763e-06 0 0.0049980073629586818 2.0787378612524024e-06 0 0.0049988884124226272 7.5986773695940659e-06 0 0.0049946213365268128 7.3105986525310953e-06 0 0.0049732969899412768 1.5425716187356204e-05 0 0.0049705883632039849 2.6408546617205037e-05 0 0.0049619947732702932 2.8805251762294883e-05 0 0.0049988884124226272 7.5986773695940659e-06 0 0.0049946213365268128 7.3105986525310953e-06 0 0.0049945294222699214 1.3141966259940496e-05 0 0.0050039655010447048 9.2577918828876826e-06 0 0.0048263007729629865 -4.2746221179759287e-06 0 0.0048263007729629865 -4.2746221179759287e-06 0 0.0048710997171971457 8.8310873896362335e-06 0 0.0049946213365268128 7.3105986525310953e-06 0 0.0049945294222699214 1.3141966259940496e-05 0 0.0049897316139397522 9.0155996484182065e-06 0 0.0047147492109321917 -1.9275059309743309e-05 0 0.0047443072906343869 6.8397412602965497e-06 0 0.0047393829723861797 -2.2103792968540259e-05 0 0.0049946213365268128 7.3105986525310953e-06 0 0.004991505868118422 6.1008150054707659e-06 0 0.0049897316139397522 9.0155996484182065e-06 0 0.0049933273061949241 3.728405315101218e-06 0 0.0049946213365268128 7.3105986525310953e-06 0 0.004991505868118422 6.1008150054707659e-06 0 0.0045860752025726394 -8.058276326143948e-05 0 0.0045892064207681991 -7.4540724829126435e-05 0 0.0045868208551587157 -7.5714895050116489e-05 0 0.0046357924295492899 -6.6114387815185779e-05 0 0.0048263007729629865 -4.2746221179759287e-06 0 0.0047289129775926111 -4.8407527268327753e-05 0 0.0047147492109321917 -1.9275059309743309e-05 0 0.0047393829723861797 -2.2103792968540259e-05 0 0.0045860752025726394 -8.058276326143948e-05 0 0.0045976541885692449 -9.6078285096254476e-05 0 0.0046062316213524969 -8.9716738730542768e-05 0 0.0048263007729629865 -4.2746221179759287e-06 0 0.0046827092256088668 -6.4621764781117616e-05 0 0.0049705883632039849 2.6408546617205037e-05 0 0.0049619947732702932 2.8805251762294883e-05 0 0.0049695265523962799 3.438425663827552e-05 0 0.0046827092256088668 -6.4621764781117616e-05 0 0.0046169786516510481 -6.0686775597219554e-05 0 0.0045860752025726394 -8.058276326143948e-05 0 0.0046062316213524969 -8.9716738730542768e-05 0 0.0045892064207681991 -7.4540724829126435e-05 0 0.004426167738349503 -0.00012791819145449229 0 0.0044226110082493551 -0.000167187249219228 0 0.00440953229940422 -0.00012829209413575671 0 0.0044203957037899349 -0.00011279527510748838 0 0.004426167738349503 -0.00012791819145449229 0 0.0044762604870521765 -0.0001845535910895419 0 0.004426167738349503 -0.00012791819145449229 0 0.0044226110082493551 -0.000167187249219228 0 0.0044762604870521765 -0.0001845535910895419 0 0.0046827092256088668 -6.4621764781117616e-05 0 0.0044286494956700595 -0.0001289535237148885 0 0.0043924033720631247 -0.00016843212181907318 0 0.0044061507199318279 -0.0001246848998878943 0 0.0043386881476027046 -0.00018318094952522263 0 0.0045632108093010444 -0.00012942810749885531 0 0.0045162025199397817 -0.00025008296497058894 0 0.0044226110082493551 -0.000167187249219228 0 0.0043924033720631247 -0.00016843212181907318 0 0.004413049024871744 -0.00018651025308252778 0 0.0044226110082493551 -0.000167187249219228 0 0.0043924033720631247 -0.00016843212181907318 0 0.0044061507199318279 -0.0001246848998878943 0 0.0044410775095879889 -0.00013641714723327457 0 0.0045632108093010444 -0.00012942810749885531 0 0.0048662184421160229 -1.9174591108517402e-05 0 0.0048673883057533248 -1.3934247971414614e-05 0 0.0048550349297979845 -3.8104062025421204e-06 0 0.0046597865405805317 -0.00011358418657970702 0 0.0047553130516993667 -0.00013303315721929074 0 0.0044206930948627989 -0.0001131118821546125 0 0.004426167738349503 -0.00012791819145449229 0 0.00440953229940422 -0.00012829209413575671 0 0.0049779186764831555 2.2438478154865634e-05 0 0.0049705883632039849 2.6408546617205037e-05 0 0.0049695265523962799 3.438425663827552e-05 0 0.0046838147353385155 -7.3230718661825825e-05 0 0.0046929629837377529 -6.0003252038480887e-05 0 0.0046968739696470431 -6.9015170956030666e-05 0 0.0046827092256088668 -6.4621764781117616e-05 0 0.0045632108093010444 -0.00012942810749885531 0 0.004767549963158724 -8.9622969187708309e-05 0 0.0047588103741417137 -7.0187056818732767e-05 0 0.0047853892366239922 -8.5313267949191441e-05 0 0.0046529792378315763 -0.00018270988740196794 0 0.0046507899577427391 -0.00017702888233031951 0 0.0046196703157103929 -0.00018501507271698132 0 0.0049364022422573924 4.3915322421032763e-06 0 0.0046827092256088668 -6.4621764781117616e-05 0 0.0045632108093010444 -0.00012942810749885531 0 0.0046597865405805317 -0.00011358418657970702 0 0.0047138171657074785 -0.00010751550391207821 0 0.0046838147353385155 -7.3230718661825825e-05 0 0.0046968739696470431 -6.9015170956030666e-05 0 0.0048006669713370528 -6.2622577859642323e-05 0 0.0046827092256088668 -6.4621764781117616e-05 0 0.0048006669713370528 -6.2622577859642323e-05 0 0.0046597865405805317 -0.00011358418657970702 0 0.0047221423551806448 -0.00016555673551324731 0 0.0047466612846855886 -0.00018075344473188773 0 0.0047219295138702022 -0.00020631335679249896 0 0.0047466612846855886 -0.00018075344473188773 0 0.0047463876135796909 -0.00022091017808368386 0 0.0047219295138702022 -0.00020631335679249896 0 0.0046507899577427391 -0.00017702888233031951 0 0.0046199973027756351 -0.0001582263488668801 0 0.0046196703157103929 -0.00018501507271698132 0 0.0047553130516993667 -0.00013303315721929074 0 0.0046797896830520526 -0.00020671111919730019 0 0.0046529792378315763 -0.00018270988740196794 0 0.0046196703157103929 -0.00018501507271698132 0 0.0046194590258775 -0.00021221130431076264 0 0.0046797896830520526 -0.00020671111919730019 0 0.0045162025199397817 -0.00025008296497058894 0 0.0047463876135796909 -0.00022091017808368386 0 0.0047219295138702022 -0.00020631335679249896 0 0.0047218434690908095 -0.00024687223137099542 0 0.0047463876135796909 -0.00022091017808368386 0 0.004745764874101558 -0.00026063460361899418 0 0.0047218434690908095 -0.00024687223137099542 0 0.0045384542413891543 -0.00029400561016535305 0 0.0048196693248181944 -0.00029400621166438966 0 0.0047402763363043462 -0.00026537954743099717 0 0.004745764874101558 -0.00026063460361899418 0 0.0047218434690908095 -0.00024687223137099542 0 0.0047222739056017454 -0.00031170341288040514 0 0.0047258170085279581 -0.00031450485845666351 0 0.0047253968957858498 -0.00030933891730366151 0 0.0043761900101256133 -0.00029463282109466396 0 0.004382513696295217 -0.00030098447547681462 0 0.0043544860382951339 -0.00031367704911116777 0 0.0045384542413891543 -0.00029400561016535305 0 0.0044051363606597144 -0.00027002597194812676 0 0.0045384542413891543 -0.00029400561016535305 0 0.0047450301288129576 -0.00034866065819069703 0 0.0045384542413891543 -0.00029400561016535305 0 0.0045162025199397817 -0.00025008296497058894 0 0.0044378252606573016 -0.00029018189343099979 0 0.0044603226856353654 -0.00027053501637944475 0 0.0044610293945465057 -0.00031251210960795577 0 0.0045162025199397817 -0.00025008296497058894 0 0.0044051363606597144 -0.00027002597194812676 0 0.0043386881476027046 -0.00018318094952522263 0 0.0043388297106758964 -0.00019714171267388184 0 0.0043664101215301534 -0.00019215804741713483 0 0.0041995591991121212 -0.00032506340205852769 0 0.0041974463623438334 -0.00027556940885223167 0 0.0041615857551288811 -0.00028989689039261781 0 0.0044051363606597144 -0.00027002597194812676 0 0.0040699927403935882 -0.00035059319532170907 0 0.0044051363606597144 -0.00027002597194812676 0 0.0040465400770423503 -0.00028846199986999691 0 0.0043388297106758964 -0.00019714171267388184 0 0.0043721179601899631 -0.00023010131444148733 0 0.0043664101215301534 -0.00019215804741713483 0 0.004382513696295217 -0.00030098447547681462 0 0.0043820674507778915 -0.00034093465934070989 0 0.0043544860382951339 -0.00031367704911116777 0 0.0040699927403935882 -0.00035059319532170907 0 0.0042265956177264972 -0.00036234011571976109 0 0.0043820674507778915 -0.00034093465934070989 0 0.0043544860382951339 -0.00031367704911116777 0 0.0043541103315114776 -0.0003528665939089026 0 0.0037144047037671419 -0.00036880572366544321 0 0.0037168604692100174 -0.00044106429749637852 0 0.0037757056194377349 -0.00041698619384798003 0 0.0037144047037671419 -0.00036880572366544321 0 0.0037168604692100174 -0.00044106429749637852 0 0.0036586915619182098 -0.00039720814490355722 0 0.0037168604692100174 -0.00044106429749637852 0 0.0036586915619182098 -0.00039720814490355722 0 0.0036578799718585023 -0.00046462048325367607 0 0.0040699927403935882 -0.00035059319532170907 0 0.0040465400770423503 -0.00028846199986999691 0 0.0036586915619182098 -0.00039720814490355722 0 0.0036578799718585023 -0.00046462048325367607 0 0.0035562857768661089 -0.00036928694674672044 0 0.0040465400770423503 -0.00028846199986999691 0 0.003740864671606471 -0.00029451556309288777 0 0.0036586915619182098 -0.00039720814490355722 0 0.0035562857768661089 -0.00036928694674672044 0 0.0036491333496998044 -0.00034261740143563997 0 0.0040244135039169725 -0.00026961785312293882 0 0.0039625770728239718 -0.00029511696514117309 0 0.0039682554388624077 -0.00021732257898129199 0 0.0037144047037671419 -0.00036880572366544321 0 0.0036586915619182098 -0.00039720814490355722 0 0.0036491333496998044 -0.00034261740143563997 0 0.0043721179601899631 -0.00023010131444148733 0 0.0043929639504229501 -0.0001950911228509345 0 0.0044370298742673836 -0.00020232355549990177 0 0.0040465400770423503 -0.00028846199986999691 0 0.0042310055738989947 -0.00019563072624872489 0 0.0043721179601899631 -0.00023010131444148733 0 0.0043664101215301534 -0.00019215804741713483 0 0.0043929639504229501 -0.0001950911228509345 0 0.0043924033720631247 -0.00016843212181907318 0 0.0043386881476027046 -0.00018318094952522263 0 0.0043664101215301534 -0.00019215804741713483 0 0.0043924033720631247 -0.00016843212181907318 0 0.0043664101215301534 -0.00019215804741713483 0 0.0043929639504229501 -0.0001950911228509345 0 0.0043924033720631247 -0.00016843212181907318 0 0.004413049024871744 -0.00018651025308252778 0 0.0043929639504229501 -0.0001950911228509345 0 0.004413049024871744 -0.00018651025308252778 0 0.0043929639504229501 -0.0001950911228509345 0 0.0044370298742673836 -0.00020232355549990177 0 0.0042179188753551896 -0.00017704850994884115 0 0.0042079489759013385 -0.0001617828852710918 0 0.0042080655200709555 -0.00018113431508001257 0 0.0044226110082493551 -0.000167187249219228 0 0.0044325417255209462 -0.00019358105021031059 0 0.0044762604870521765 -0.0001845535910895419 0 0.0044226110082493551 -0.000167187249219228 0 0.004413049024871744 -0.00018651025308252778 0 0.0044325417255209462 -0.00019358105021031059 0 0.0042563937098722242 -0.00021249486034976154 0 0.0042310055738989947 -0.00019563072624872489 0 0.004413049024871744 -0.00018651025308252778 0 0.0044325417255209462 -0.00019358105021031059 0 0.0044370298742673836 -0.00020232355549990177 0 0.0042310055738989947 -0.00019563072624872489 0 0.0044286494956700595 -0.0001289535237148885 0 0.0044325417255209462 -0.00019358105021031059 0 0.0044368027871065059 -0.00020149335203646196 0 0.0044762604870521765 -0.0001845535910895419 0 0.0042310055738989947 -0.00019563072624872489 0 0.0040542413424450611 -0.00019400372039244805 0 0.0039625770728239718 -0.00029511696514117309 0 0.0039682554388624077 -0.00021732257898129199 0 0.0039267587942362963 -0.00023454426803844761 0 0.0042079489759013385 -0.0001617828852710918 0 0.0041948470748319243 -0.00016641357454369457 0 0.0041930229081260616 -0.00015526079136615512 0 0.0042079489759013385 -0.0001617828852710918 0 0.0042080655200709555 -0.00018113431508001257 0 0.0041948470748319243 -0.00016641357454369457 0 0.0045883866371917983 -7.5026146577075926e-05 0 0.0045868208551587157 -7.5714895050116489e-05 0 0.0045779510452711803 -6.5913053955747887e-05 0 0.0045868208551587157 -7.5714895050116489e-05 0 0.0045779510452711803 -6.5913053955747887e-05 0 0.0045769692698869558 -6.8020188430319134e-05 0 0.0044286494956700595 -0.0001289535237148885 0 0.0043594746922062813 -0.00010506803292966727 0 0.0046357924295492899 -6.6114387815185779e-05 0 0.0046753045854027227 -7.4019513648748017e-05 0 0.0045860752025726394 -8.058276326143948e-05 0 0.0045868208551587157 -7.5714895050116489e-05 0 0.0045769692698869558 -6.8020188430319134e-05 0 0.0044286494956700595 -0.0001289535237148885 0 0.0044843107613774741 -0.00010728196566958946 0 0.0048479134936205721 -0.00030419723175906515 0 0.0048539559321012123 -0.00025004261740035454 0 0.0048818885530972824 -0.00029229019007704802 0 0.0048479134936205721 -0.00030419723175906515 0 0.0048818885530972824 -0.00029229019007704802 0 0.0048806424311193496 -0.00033708833861834325 0 0.0048479134936205721 -0.00030419723175906515 0 0.0048032862527136759 -0.00026545243286682139 0 0.0048539559321012123 -0.00025004261740035454 0 0.0048479134936205721 -0.00030419723175906515 0 0.0048032862527136759 -0.00026545243286682139 0 0.0048037258069493294 -0.00034559881789745936 0 0.0048032862527136759 -0.00026545243286682139 0 0.0048154827229433816 -0.00023901522661411596 0 0.0048539559321012123 -0.00025004261740035454 0 0.0048345589870161252 -0.00023080287676859531 0 0.0048154827229433816 -0.00023901522661411596 0 0.0048539559321012123 -0.00025004261740035454 0 0.0048468368881446804 -0.0002171605940987935 0 0.0048539559321012123 -0.00025004261740035454 0 0.0049054621765367784 -0.00025030224092852511 0 0.0048539559321012123 -0.00025004261740035454 0 0.0049054621765367784 -0.00025030224092852511 0 0.0048818885530972824 -0.00029229019007704802 0 0.0048506585235509317 -0.00023374942524003004 0 0.0048599784327569874 -0.00023542390390665077 0 0.0048598923708195697 -0.00024368603461317329 0 0.0048598954078655889 -0.00022730935701191371 0 0.0048506585235509317 -0.00023374942524003004 0 0.0048599784327569874 -0.00023542390390665077 0 0.0048789456312719817 -0.00012467319373604956 0 0.0047945581146234132 -0.00022399828394569225 0 0.0047945581146234132 -0.00022399828394569225 0 0.0048196693248181944 -0.00029400621166438966 0 0.0048945254169617128 -0.00024452559273072707 0 0.0048196693248181944 -0.00029400621166438966 0 0.0049706659483605004 -0.00031026712160691088 0 0.0049175493371545458 -0.00030280118046667069 0 0.0049346620713747501 -0.00034301626146296393 0 0.0049054621765367784 -0.00025030224092852511 0 0.0049706659483605004 -0.00031026712160691088 0 0.0049175493371545458 -0.00030280118046667069 0 0.0049054621765367784 -0.00025030224092852511 0 0.0048818885530972824 -0.00029229019007704802 0 0.0049175493371545458 -0.00030280118046667069 0 0.0048818885530972824 -0.00029229019007704802 0 0.0049175493371545458 -0.00030280118046667069 0 0.0049046205591090995 -0.00032562869068022233 0 0.0048818885530972824 -0.00029229019007704802 0 0.0049046205591090995 -0.00032562869068022233 0 0.0048806424311193496 -0.00033708833861834325 0 0.0049046205591090995 -0.00032562869068022233 0 0.0048997194277276375 -0.00037151170077667507 0 0.0048806424311193496 -0.00033708833861834325 0 0.0049175493371545458 -0.00030280118046667069 0 0.0049046205591090995 -0.00032562869068022233 0 0.0049346620713747501 -0.00034301626146296393 0 0.0049046205591090995 -0.00032562869068022233 0 0.0048997194277276375 -0.00037151170077667507 0 0.0049346620713747501 -0.00034301626146296393 0 0.0048997194277276375 -0.00037151170077667507 0 0.0049346620713747501 -0.00034301626146296393 0 0.0049384282276977599 -0.00038364403330318192 0 0.0049706659483605004 -0.00031026712160691088 0 0.0049346620713747501 -0.00034301626146296393 0 0.0049713259657330304 -0.00035571033433375038 0 0.0048196693248181944 -0.00029400621166438966 0 0.0047450301288129576 -0.00034866065819069703 0 0.0049346620713747501 -0.00034301626146296393 0 0.0049713259657330304 -0.00035571033433375038 0 0.0049384282276977599 -0.00038364403330318192 0 0.0047450301288129576 -0.00034866065819069703 0 0.004944918433630833 -0.00033033369956446634 0 0.004959809372324429 -0.00039599305551655845 0 0.0049149679344318731 -0.00039926028194870833 0 0.0048988381834232635 -0.00042828074051905462 0 0.004959809372324429 -0.00039599305551655845 0 0.0049384282276977599 -0.00038364403330318192 0 0.0049149679344318731 -0.00039926028194870833 0 0.0042265956177264972 -0.00036234011571976109 0 0.0043880039376926637 -0.00034475971581721397 0 0.0047450301288129576 -0.00034866065819069703 0 0.0042265956177264972 -0.00036234011571976109 0 0.0049573566854503089 -0.00036586904379839981 0 0.004959809372324429 -0.00039599305551655845 0 0.0049384282276977599 -0.00038364403330318192 0 0.0048997194277276375 -0.00037151170077667507 0 0.0049149679344318731 -0.00039926028194870833 0 0.0048718668912969346 -0.00041708659674315429 0 0.0048997194277276375 -0.00037151170077667507 0 0.0049384282276977599 -0.00038364403330318192 0 0.0049149679344318731 -0.00039926028194870833 0 0.0049149679344318731 -0.00039926028194870833 0 0.0048718668912969346 -0.00041708659674315429 0 0.0048988381834232635 -0.00042828074051905462 0 0.0049212409607248724 -0.00050968965968581522 0 0.0043880039376926637 -0.00034475971581721397 0 0.0048997194277276375 -0.00037151170077667507 0 0.0048718668912969346 -0.00041708659674315429 0 0.0048576473074343866 -0.00036583290063633576 0 0.0048718668912969346 -0.00041708659674315429 0 0.0048390480814064557 -0.00042957765181239437 0 0.0048356459783342777 -0.00040403709203477709 0 0.0048718668912969346 -0.00041708659674315429 0 0.0048390480814064557 -0.00042957765181239437 0 0.0048601701069073298 -0.00044861376469030478 0 0.0048718668912969346 -0.00041708659674315429 0 0.0048576473074343866 -0.00036583290063633576 0 0.0048356459783342777 -0.00040403709203477709 0 0.0048997194277276375 -0.00037151170077667507 0 0.0048576473074343866 -0.00036583290063633576 0 0.0048806424311193496 -0.00033708833861834325 0 0.0048479134936205721 -0.00030419723175906515 0 0.0048576473074343866 -0.00036583290063633576 0 0.0048806424311193496 -0.00033708833861834325 0 0.0048479134936205721 -0.00030419723175906515 0 0.0048576473074343866 -0.00036583290063633576 0 0.0048037258069493294 -0.00034559881789745936 0 0.0048576473074343866 -0.00036583290063633576 0 0.0048037258069493294 -0.00034559881789745936 0 0.0048356459783342777 -0.00040403709203477709 0 0.0048390480814064557 -0.00042957765181239437 0 0.0047797539836128417 -0.00045207244454487956 0 0.0048601701069073298 -0.00044861376469030478 0 0.0048037258069493294 -0.00034559881789745936 0 0.0047797539836128417 -0.00045207244454487956 0 0.0048356459783342777 -0.00040403709203477709 0 0.0048390480814064557 -0.00042957765181239437 0 0.0047797539836128417 -0.00045207244454487956 0 0.0048356459783342777 -0.00040403709203477709 0 0.0042142288186481436 -0.0002876821555112896 0 0.0041403031139416397 -0.00022598174358474517 0 0.0035818411664249477 -8.3376038161141357e-05 0 0.0037009498170109791 -0.00011637151642781506 0 0.0037230107133329102 -0.00010547227932422386 0 0.0035818411664249477 -8.3376038161141357e-05 0 0.0036190144129135651 -0.00012113512781511453 0 0.0037009498170109791 -0.00011637151642781506 0 0.0036190144129135651 -0.00012113512781511453 0 0.0036881507808183647 -0.00015399677622456392 0 0.0037009498170109791 -0.00011637151642781506 0 0.0036190144129135651 -0.00012113512781511453 0 0.0036871266489840429 -0.0002252525192593405 0 0.0035578176410425316 -0.0001757381438939626 0 0.0036190144129135651 -0.00012113512781511453 0 0.0036881507808183647 -0.00015399677622456392 0 0.0036871266489840429 -0.0002252525192593405 0 0.003192511351002133 -0.00043505930455432518 0 0.0031836543268179579 -0.00041203328904009342 0 0.0036871266489840429 -0.0002252525192593405 0 0.0037281579160239457 -0.00015028917524575737 0 0.0037528098622173767 -0.00016277620106352843 0 0.002689769295274549 -0.00063948344032517057 0 0.0026564775699483363 -0.00063166255614083039 0 0.002661112700327436 -0.00062233948287950848 0 0.0036881507808183647 -0.00015399677622456392 0 0.0036871266489840429 -0.0002252525192593405 0 0.0037281579160239457 -0.00015028917524575737 0 0.0037281579160239457 -0.00015028917524575737 0 0.0037558500265093713 -0.0001496103234325967 0 0.0037528098622173767 -0.00016277620106352843 0 0.0037281579160239457 -0.00015028917524575737 0 0.0037205559239813038 -0.00013408981930863241 0 0.0037558500265093713 -0.0001496103234325967 0 0.0041403031139416397 -0.00022598174358474517 0 0.003695064453778736 -8.2881763377684329e-05 0 0.0037205559239813038 -0.00013408981930863241 0 0.0037216777082354465 -0.00011329139487215691 0 0.0037558500265093713 -0.0001496103234325967 0 0.0036881507808183647 -0.00015399677622456392 0 0.0037205559239813038 -0.00013408981930863241 0 0.0037009498170109791 -0.00011637151642781506 0 0.0036881507808183647 -0.00015399677622456392 0 0.0037281579160239457 -0.00015028917524575737 0 0.0037205559239813038 -0.00013408981930863241 0 0.0037205559239813038 -0.00013408981930863241 0 0.0037009498170109791 -0.00011637151642781506 0 0.0037216777082354465 -0.00011329139487215691 0 0.0039616271117041725 -0.0002527765510668468 0 0.0041403031139416397 -0.00022598174358474517 0 0.0048718668912969346 -0.00041708659674315429 0 0.0048601701069073298 -0.00044861376469030478 0 0.0048908821970074564 -0.00043128578856810914 0 0.0041403031139416397 -0.00022598174358474517 0 0.0043880039376926637 -0.00034475971581721397 0 0.0037636885415880741 -0.00015181054601095918 0 0.0037582944794572548 -0.00015097609573211582 0 0.0037558500265093713 -0.0001496103234325967 0 0.0043880039376926637 -0.00034475971581721397 0 0.0032879350702030978 -0.00031074959907676029 0 0.0037582944794572548 -0.00015097609573211582 0 0.0037558500265093713 -0.0001496103234325967 0 0.0037606993520709672 -0.00015016611265925546 0 0.0037558500265093713 -0.0001496103234325967 0 0.0037606993520709672 -0.00015016611265925546 0 0.0037528098622173767 -0.00016277620106352843 0 0.0042265956177264972 -0.00036234011571976109 0 0.0037475768614476899 -0.00033773537540959006 0 0.0037797852500464596 -0.0004524748302699239 0 0.0039683909179279997 -0.0003752315240912305 0 0.003771744616050835 -0.00030261820282508718 0 0.0039683909179279997 -0.0003752315240912305 0 0.0038259562291152929 -0.00029197491683013115 0 0.003771744616050835 -0.00030261820282508718 0 0.0032879350702030978 -0.00031074959907676029 0 0.003247778931585313 -0.00038726525677529029 0 0.0038259562291152929 -0.00029197491683013115 0 0.0037930618540159052 -0.00027739058556039154 0 0.003771744616050835 -0.00030261820282508718 0 0.0026334556995549654 -0.00063504640519911266 0 0.0026288496370955273 -0.00063321664519550231 0 0.0026337953084042626 -0.00062686309557653211 0 0.0026288496370955273 -0.00063321664519550231 0 0.0026337953084042626 -0.00062686309557653211 0 0.0026256484923356692 -0.00061705620006971215 0 0.0026334556995549654 -0.00063504640519911266 0 0.0026337953084042626 -0.00062686309557653211 0 0.0026425795585104774 -0.00062774302521624429 0 0.0026337953084042626 -0.00062686309557653211 0 0.0026256484923356692 -0.00061705620006971215 0 0.0026394869880346141 -0.00062015871886886482 0 0.0026337953084042626 -0.00062686309557653211 0 0.0026425795585104774 -0.00062774302521624429 0 0.0026394869880346141 -0.00062015871886886482 0 0.0026334556995549654 -0.00063504640519911266 0 0.0026564775699483363 -0.00063166255614083039 0 0.0026425795585104774 -0.00062774302521624429 0 0.0032879350702030978 -0.00031074959907676029 0 0.0031836543268179579 -0.00041203328904009342 0 0.0026564775699483363 -0.00063166255614083039 0 0.0026425795585104774 -0.00062774302521624429 0 0.0026489789910447651 -0.00062454347718597604 0 0.0026425795585104774 -0.00062774302521624429 0 0.0026394869880346141 -0.00062015871886886482 0 0.0026489789910447651 -0.00062454347718597604 0 0.0026394869880346141 -0.00062015871886886482 0 0.0026489789910447651 -0.00062454347718597604 0 0.0026471576351455969 -0.00061674948143682811 0 0.0026564775699483363 -0.00063166255614083039 0 0.0026489789910447651 -0.00062454347718597604 0 0.002661112700327436 -0.00062233948287950848 0 0.0026471576351455969 -0.00061674948143682811 0 0.002653174484270656 -0.00060469656358236226 0 0.002661112700327436 -0.00062233948287950848 0 0.0026489789910447651 -0.00062454347718597604 0 0.0026471576351455969 -0.00061674948143682811 0 0.002661112700327436 -0.00062233948287950848 0 0.0026471576351455969 -0.00061674948143682811 0 0.002653174484270656 -0.00060469656358236226 0 0.0026337896666585136 -0.00060496598369556625 0 0.0026394869880346141 -0.00062015871886886482 0 0.0026471576351455969 -0.00061674948143682811 0 0.0026337896666585136 -0.00060496598369556625 0 0.0026256484923356692 -0.00061705620006971215 0 0.0026337896666585136 -0.00060496598369556625 0 0.0026158914908222903 -0.00060278358831731844 0 0.0026337896666585136 -0.00060496598369556625 0 0.0026203940931043171 -0.00058845772494668614 0 0.0026158914908222903 -0.00060278358831731844 0 0.0026256484923356692 -0.00061705620006971215 0 0.0026394869880346141 -0.00062015871886886482 0 0.0026337896666585136 -0.00060496598369556625 0 0.0026203940931043171 -0.00058845772494668614 0 0.0026011900294826565 -0.00057330537273790551 0 0.0026194239039909789 -0.00057258836148408221 0 0.0026337896666585136 -0.00060496598369556625 0 0.0026203940931043171 -0.00058845772494668614 0 0.0026378391582313528 -0.00057798565644414225 0 0.0026203940931043171 -0.00058845772494668614 0 0.0026378391582313528 -0.00057798565644414225 0 0.0026194239039909789 -0.00057258836148408221 0 0.002653174484270656 -0.00060469656358236226 0 0.0026337896666585136 -0.00060496598369556625 0 0.0026378391582313528 -0.00057798565644414225 0 0.002653174484270656 -0.00060469656358236226 0 0.0026378391582313528 -0.00057798565644414225 0 0.0026640097719591066 -0.00058672301750377939 0 0.002653174484270656 -0.00060469656358236226 0 0.0026640097719591066 -0.00058672301750377939 0 0.0026733808749203093 -0.00061282029459990982 0 0.0026640097719591066 -0.00058672301750377939 0 0.0026945866502811442 -0.00060727662744773929 0 0.0026733808749203093 -0.00061282029459990982 0 0.0026640097719591066 -0.00058672301750377939 0 0.0026945866502811442 -0.00060727662744773929 0 0.0026909041628619059 -0.00057228467726284308 0 0.0026945866502811442 -0.00060727662744773929 0 0.0026909041628619059 -0.00057228467726284308 0 0.0027279018885613461 -0.00059384214765860282 0 0.002689769295274549 -0.00063948344032517057 0 0.0026945866502811442 -0.00060727662744773929 0 0.0026733808749203093 -0.00061282029459990982 0 0.003192511351002133 -0.00043505930455432518 0 0.0031205490613584498 -0.00052240058358361981 0 0.002689769295274549 -0.00063948344032517057 0 0.0026945866502811442 -0.00060727662744773929 0 0.0027493006245976467 -0.00065293234911808758 0 0.002689769295274549 -0.00063948344032517057 0 0.002661112700327436 -0.00062233948287950848 0 0.0026733808749203093 -0.00061282029459990982 0 0.002653174484270656 -0.00060469656358236226 0 0.002661112700327436 -0.00062233948287950848 0 0.0026733808749203093 -0.00061282029459990982 0 0.0034606386671753998 -0.00027702818221311869 0 0.0035315157979591652 -0.0001391972172745043 0 0.0034396645725320303 -0.00014985180274089809 0 0.0038904974635746176 -0.00017355195518551882 0 0.003911392618322458 -0.00016478999379632774 0 0.0038542187140823362 -0.00011248038809989728 0 0.0036673799611169999 -0.00021165278014132315 0 0.0037588827674437703 -0.00016561732275101082 0 0.0034606386671753998 -0.00027702818221311869 0 0.0034396645725320303 -0.00014985180274089809 0 0.0033705676849281204 -0.00019038757323565743 0 0.0039267587942362963 -0.00023454426803844761 0 0.0038904974635746176 -0.00017355195518551882 0 0.003911392618322458 -0.00016478999379632774 0 0.0042079489759013385 -0.0001617828852710918 0 0.0041977035356924293 -0.00014758917375989517 0 0.0041930229081260616 -0.00015526079136615512 0 0.0040542413424450611 -0.00019400372039244805 0 0.0040668388137348943 -0.00016996662316563581 0 0.003740864671606471 -0.00029451556309288777 0 0.0036673799611169999 -0.00021165278014132315 0 0.0039682554388624077 -0.00021732257898129199 0 0.0039267587942362963 -0.00023454426803844761 0 0.003911392618322458 -0.00016478999379632774 0 0.0035562857768661089 -0.00036928694674672044 0 0.0034606386671753998 -0.00027702818221311869 0 0.003591734931767075 -0.00027175352192954316 0 0.0034606386671753998 -0.00027702818221311869 0 0.003591734931767075 -0.00027175352192954316 0 0.0035315157979591652 -0.0001391972172745043 0 0.003591734931767075 -0.00027175352192954316 0 0.0036559708568465713 -0.00020647159955899564 0 0.0035315157979591652 -0.0001391972172745043 0 0.003591734931767075 -0.00027175352192954316 0 0.0036559708568465713 -0.00020647159955899564 0 0.003705646574895556 -0.00030317980312020672 0 0.0035562857768661089 -0.00036928694674672044 0 0.003591734931767075 -0.00027175352192954316 0 0.0036491333496998044 -0.00034261740143563997 0 0.003591734931767075 -0.00027175352192954316 0 0.0036491333496998044 -0.00034261740143563997 0 0.003705646574895556 -0.00030317980312020672 0 0.0037144047037671419 -0.00036880572366544321 0 0.0037757056194377349 -0.00041698619384798003 0 0.003771744616050835 -0.00030261820282508718 0 0.0037144047037671419 -0.00036880572366544321 0 0.0036491333496998044 -0.00034261740143563997 0 0.003705646574895556 -0.00030317980312020672 0 0.0037144047037671419 -0.00036880572366544321 0 0.003771744616050835 -0.00030261820282508718 0 0.003705646574895556 -0.00030317980312020672 0 0.0037930618540159052 -0.00027739058556039154 0 0.003771744616050835 -0.00030261820282508718 0 0.003705646574895556 -0.00030317980312020672 0 0.0037930618540159052 -0.00027739058556039154 0 0.0036559708568465713 -0.00020647159955899564 0 0.003705646574895556 -0.00030317980312020672 0 0.003247778931585313 -0.00038726525677529029 0 0.0031271060134593458 -0.0004192329320314767 0 0.0026288496370955273 -0.00063321664519550231 0 0.0026256484923356692 -0.00061705620006971215 0 0.0026028702579996301 -0.00061413732190906988 0 0.0026028702579996301 -0.00061413732190906988 0 0.0026158914908222903 -0.00060278358831731844 0 0.0026012598996422893 -0.00059235608957625239 0 0.0026256484923356692 -0.00061705620006971215 0 0.0026028702579996301 -0.00061413732190906988 0 0.0026158914908222903 -0.00060278358831731844 0 0.0026203940931043171 -0.00058845772494668614 0 0.0026158914908222903 -0.00060278358831731844 0 0.0026012598996422893 -0.00059235608957625239 0 0.0026203940931043171 -0.00058845772494668614 0 0.0026012598996422893 -0.00059235608957625239 0 0.0026011900294826565 -0.00057330537273790551 0 0.0026012598996422893 -0.00059235608957625239 0 0.0025895252896236359 -0.00058063373935569114 0 0.0026011900294826565 -0.00057330537273790551 0 0.0026012598996422893 -0.00059235608957625239 0 0.0025895252896236359 -0.00058063373935569114 0 0.0025851407403506971 -0.00059581027963883856 0 0.0031271060134593458 -0.0004192329320314767 0 0.0030633953772007689 -0.00035400559070530879 0 0.0026028702579996301 -0.00061413732190906988 0 0.0026012598996422893 -0.00059235608957625239 0 0.0025851407403506971 -0.00059581027963883856 0 0.0025851407403506971 -0.00059581027963883856 0 0.0025816591255219579 -0.00058350511881830633 0 0.0025758540789852504 -0.00058325658691334896 0 0.0025895252896236359 -0.00058063373935569114 0 0.0025851407403506971 -0.00059581027963883856 0 0.0025816591255219579 -0.00058350511881830633 0 0.0025895252896236359 -0.00058063373935569114 0 0.0025816591255219579 -0.00058350511881830633 0 0.002581857026575392 -0.00057638675474961038 0 0.0025816591255219579 -0.00058350511881830633 0 0.002577753974201871 -0.00058073253821227947 0 0.002581857026575392 -0.00057638675474961038 0 0.0025851407403506971 -0.00059581027963883856 0 0.0025751327859653639 -0.00058347369486044353 0 0.0025758540789852504 -0.00058325658691334896 0 0.002577753974201871 -0.00058073253821227947 0 0.0025747517240205481 -0.00058313752174418937 0 0.0025763970212152256 -0.00057641772489083493 0 0.0025816591255219579 -0.00058350511881830633 0 0.002577753974201871 -0.00058073253821227947 0 0.0025758540789852504 -0.00058325658691334896 0 0.002577753974201871 -0.00058073253821227947 0 0.0025747517240205481 -0.00058313752174418937 0 0.0025758540789852504 -0.00058325658691334896 0 0.0028477396078284466 -0.00048228161777598324 0 0.0025525772027910048 -0.00060989866040618416 0 0.0029291447295695288 -0.00045819214604906624 0 0.0028940499097283431 -0.00043681504543960619 0 0.0029696073959845459 -0.00040133599332217051 0 0.0029396617006723445 -0.00044992009477188004 0 0.0030935220478465007 -0.0003452865452931368 0 0.0034142793468508702 -7.4462013453563045e-05 0 0.0033933762209829793 -0.00012981382189592366 0 0.00339343115636796 -8.469717510923792e-05 0 0.0025747517240205481 -0.00058313752174418937 0 0.0025754561231458662 -0.00058342131600245693 0 0.0025758540789852504 -0.00058325658691334896 0 0.0028477396078284466 -0.00048228161777598324 0 0.0029396617006723445 -0.00044992009477188004 0 0.0028477396078284466 -0.00048228161777598324 0 0.0030935220478465007 -0.0003452865452931368 0 0.0029396617006723445 -0.00044992009477188004 0 0.0028838147806991747 -0.00047438839566011634 0 0.0034142793468508702 -7.4462013453563045e-05 0 0.0034396645725320303 -0.00014985180274089809 0 0.0033933762209829793 -0.00012981382189592366 0 0.0035315157979591652 -0.0001391972172745043 0 0.0034142793468508702 -7.4462013453563045e-05 0 0.0034396645725320303 -0.00014985180274089809 0 0.0030633953772007689 -0.00035400559070530879 0 0.0029396617006723445 -0.00044992009477188004 0 0.0034396645725320303 -0.00014985180274089809 0 0.0033705676849281204 -0.00019038757323565743 0 0.0033933762209829793 -0.00012981382189592366 0 0.0025654079533405281 -0.00056122666500929899 0 0.002565919709264329 -0.00056916147937741937 0 0.00257856093828491 -0.00056618871167107691 0 0.0025654079533405281 -0.00056122666500929899 0 0.00257856093828491 -0.00056618871167107691 0 0.0025766392417049732 -0.00055695008005340462 0 0.002565919709264329 -0.00056916147937741937 0 0.0025715861435703577 -0.00057486920541970467 0 0.00257856093828491 -0.00056618871167107691 0 0.002565919709264329 -0.00056916147937741937 0 0.0025648017708697229 -0.00057506536498467056 0 0.0025715861435703577 -0.00057486920541970467 0 0.0025667898810173262 -0.00058293842606221553 0 0.0025648017708697229 -0.00057506536498467056 0 0.0025715861435703577 -0.00057486920541970467 0 0.002577753974201871 -0.00058073253821227947 0 0.0025763970212152256 -0.00057641772489083493 0 0.002581857026575392 -0.00057638675474961038 0 0.0025763970212152256 -0.00057641772489083493 0 0.002581857026575392 -0.00057638675474961038 0 0.00257856093828491 -0.00056618871167107691 0 0.0025525772027910048 -0.00060989866040618416 0 0.0025861657423999398 -0.0005566813378794982 0 0.0025895252896236359 -0.00058063373935569114 0 0.002581857026575392 -0.00057638675474961038 0 0.0025897644126476071 -0.00056842415314124403 0 0.002581857026575392 -0.00057638675474961038 0 0.00257856093828491 -0.00056618871167107691 0 0.0025897644126476071 -0.00056842415314124403 0 0.00257856093828491 -0.00056618871167107691 0 0.0025897644126476071 -0.00056842415314124403 0 0.00258677730225581 -0.00055657292587079374 0 0.00257856093828491 -0.00056618871167107691 0 0.0025766392417049732 -0.00055695008005340462 0 0.00258677730225581 -0.00055657292587079374 0 0.0025897644126476071 -0.00056842415314124403 0 0.002598536045261043 -0.0005618980111499331 0 0.00258677730225581 -0.00055657292587079374 0 0.0025895252896236359 -0.00058063373935569114 0 0.0025897644126476071 -0.00056842415314124403 0 0.0026011900294826565 -0.00057330537273790551 0 0.0025897644126476071 -0.00056842415314124403 0 0.0026011900294826565 -0.00057330537273790551 0 0.002598536045261043 -0.0005618980111499331 0 0.002599071357449737 -0.00057159059323905507 0 0.0026005144720699664 -0.00054931697680501458 0 0.0026011900294826565 -0.00057330537273790551 0 0.0025888770399974648 -0.0005400634454622228 0 0.0026193320298707186 -0.00054999581694355627 0 0.0024891659521613023 -0.00054992433397551296 0 0.0026339361066994786 -0.00052680415274730208 0 0.0025888770399974648 -0.0005400634454622228 0 0.0025824135601303201 -0.00051213672201986778 0 0.0026047838891216624 -0.00052048267615203221 0 0.0026005144720699664 -0.00054931697680501458 0 0.0024891659521613023 -0.00054992433397551296 0 0.0026060472591966657 -0.00051499372688466308 0 0.0026059601206256783 -0.00051510924023538966 0 0.0026047838891216624 -0.00052048267615203221 0 0.0026034187963086433 -0.00051527649873888055 0 0.002610562705715858 -0.00051566626209481527 0 0.002603801501222921 -0.00054222102181966311 0 0.0026034187963086433 -0.00051527649873888055 0 0.0026059601206256783 -0.00051510924023538966 0 0.0026047838891216624 -0.00052048267615203221 0 0.0026034187963086433 -0.00051527649873888055 0 0.0026059601206256783 -0.00051510924023538966 0 0.002610562705715858 -0.00051566626209481527 0 0.0026060472591966657 -0.00051499372688466308 0 0.0026059601206256783 -0.00051510924023538966 0 0.002610562705715858 -0.00051566626209481527 0 0.0022074926641186179 -0.00053821562271125255 0 0.002200220281243562 -0.00052551352334095198 0 0.0022041544247863557 -0.00051991499411157432 0 0.0024891659521613023 -0.00054992433397551296 0 0.0023771847192368026 -0.00053229744877736362 0 0.0024891659521613023 -0.00054992433397551296 0 0.0023787768466891489 -0.00057520185902063719 0 0.0022074926641186179 -0.00053821562271125255 0 0.002200220281243562 -0.00052551352334095198 0 0.0021760058987589175 -0.00052408159067047295 0 0.002200220281243562 -0.00052551352334095198 0 0.0022024462334819159 -0.00051993230350746674 0 0.0021912470495718192 -0.00051976665894280989 0 0.0023525799806488022 -0.00058076945661852529 0 0.0023787768466891489 -0.00057520185902063719 0 0.0022024462334819159 -0.00051993230350746674 0 0.0021860745051465093 -0.00050971075203868081 0 0.0021912470495718192 -0.00051976665894280989 0 0.0021860745051465093 -0.00050971075203868081 0 0.0021912470495718192 -0.00051976665894280989 0 0.0021760058987589175 -0.00052408159067047295 0 0.0021860745051465093 -0.00050971075203868081 0 0.0021760058987589175 -0.00052408159067047295 0 0.0021752021594178121 -0.00051004715323046837 0 0.002200220281243562 -0.00052551352334095198 0 0.0021912470495718192 -0.00051976665894280989 0 0.0021760058987589175 -0.00052408159067047295 0 0.002598536045261043 -0.0005618980111499331 0 0.0025951754797055031 -0.00054677277647673789 0 0.00258677730225581 -0.00055657292587079374 0 0.0025951754797055031 -0.00054677277647673789 0 0.0025863116156088399 -0.00054855792211486707 0 0.0025825434038782933 -0.00054135778995463622 0 0.0025951754797055031 -0.00054677277647673789 0 0.0025863116156088399 -0.00054855792211486707 0 0.00258677730225581 -0.00055657292587079374 0 0.0025863116156088399 -0.00054855792211486707 0 0.00258677730225581 -0.00055657292587079374 0 0.0025806907758239199 -0.00054942535096426175 0 0.0025766392417049732 -0.00055695008005340462 0 0.00258677730225581 -0.00055657292587079374 0 0.0025806907758239199 -0.00054942535096426175 0 0.0025766392417049732 -0.00055695008005340462 0 0.0025741351509706869 -0.00054652119855044627 0 0.0025806907758239199 -0.00054942535096426175 0 0.0025863116156088399 -0.00054855792211486707 0 0.0025806907758239199 -0.00054942535096426175 0 0.0025825434038782933 -0.00054135778995463622 0 0.0025741351509706869 -0.00054652119855044627 0 0.0025806907758239199 -0.00054942535096426175 0 0.0025825434038782933 -0.00054135778995463622 0 0.0021760058987589175 -0.00052408159067047295 0 0.0021662806749165563 -0.00050998370069309999 0 0.002149244506580621 -0.0005094763261190825 0 0.0023771847192368026 -0.00053229744877736362 0 0.0023001707536968391 -0.00048234491450931713 0 0.0025741351509706869 -0.00054652119855044627 0 0.0025825434038782933 -0.00054135778995463622 0 0.0025692658253975596 -0.00053620390293409518 0 0.0021760058987589175 -0.00052408159067047295 0 0.0021752021594178121 -0.00051004715323046837 0 0.0021662806749165563 -0.00050998370069309999 0 0.0021662806749165563 -0.00050998370069309999 0 0.0021563163301894428 -0.00050636522027379784 0 0.002149244506580621 -0.0005094763261190825 0 0.0023001707536968391 -0.00048234491450931713 0 0.0023459002174147725 -0.0005138726918367943 0 0.0021206049323186618 -0.00048356801663184762 0 0.0021216074331449983 -0.00048159775022666107 0 0.0021213251988180478 -0.00048329774099588752 0 0.0021206049323186618 -0.00048356801663184762 0 0.0021213251988180478 -0.00048329774099588752 0 0.0021219528451513116 -0.00048661727443561644 0 0.0025741351509706869 -0.00054652119855044627 0 0.0025692658253975596 -0.00053620390293409518 0 0.0025617299112522889 -0.00054827882044955175 0 0.0025766392417049732 -0.00055695008005340462 0 0.0025741351509706869 -0.00054652119855044627 0 0.0025617299112522889 -0.00054827882044955175 0 0.0025654079533405281 -0.00056122666500929899 0 0.0025766392417049732 -0.00055695008005340462 0 0.0025617299112522889 -0.00054827882044955175 0 0.0026536544566360476 -0.00052189999261661243 0 0.0026518747926938206 -0.00055425938270154686 0 0.0026333396285562541 -0.00053355832812827277 0 0.0026536544566360476 -0.00052189999261661243 0 0.0026884634115753115 -0.00053395792625867257 0 0.0026518747926938206 -0.00055425938270154686 0 0.0026536544566360476 -0.00052189999261661243 0 0.0026884634115753115 -0.00053395792625867257 0 0.0026701124745983351 -0.00050845489097500827 0 0.0026884634115753115 -0.00053395792625867257 0 0.0026909041628619059 -0.00057228467726284308 0 0.0026518747926938206 -0.00055425938270154686 0 0.0026640097719591066 -0.00058672301750377939 0 0.0026909041628619059 -0.00057228467726284308 0 0.0026518747926938206 -0.00055425938270154686 0 0.0026378391582313528 -0.00057798565644414225 0 0.0026640097719591066 -0.00058672301750377939 0 0.0026518747926938206 -0.00055425938270154686 0 0.0026378391582313528 -0.00057798565644414225 0 0.0026518747926938206 -0.00055425938270154686 0 0.0026193320298707186 -0.00054999581694355627 0 0.0026378391582313528 -0.00057798565644414225 0 0.0026194239039909789 -0.00057258836148408221 0 0.0026193320298707186 -0.00054999581694355627 0 0.0026011900294826565 -0.00057330537273790551 0 0.0026194239039909789 -0.00057258836148408221 0 0.0026193320298707186 -0.00054999581694355627 0 0.0026193320298707186 -0.00054999581694355627 0 0.0026204085576292733 -0.00052961228187057478 0 0.0026047838891216624 -0.00052048267615203221 0 0.0025888770399974648 -0.0005400634454622228 0 0.0026193320298707186 -0.00054999581694355627 0 0.0026047838891216624 -0.00052048267615203221 0 0.0026518747926938206 -0.00055425938270154686 0 0.0026193320298707186 -0.00054999581694355627 0 0.0026333396285562541 -0.00053355832812827277 0 0.0026193320298707186 -0.00054999581694355627 0 0.0026204085576292733 -0.00052961228187057478 0 0.0026333396285562541 -0.00053355832812827277 0 0.0026204085576292733 -0.00052961228187057478 0 0.0026333396285562541 -0.00053355832812827277 0 0.0026245496323719576 -0.0005162928571338614 0 0.0026204085576292733 -0.00052961228187057478 0 0.0026245496323719576 -0.0005162928571338614 0 0.0026047838891216624 -0.00052048267615203221 0 0.0026245496323719576 -0.0005162928571338614 0 0.0026047838891216624 -0.00052048267615203221 0 0.0025989829192059198 -0.00051001175768254821 0 0.0026034187963086433 -0.00051527649873888055 0 0.0026047838891216624 -0.00052048267615203221 0 0.0025989829192059198 -0.00051001175768254821 0 0.0026245496323719576 -0.0005162928571338614 0 0.0025989829192059198 -0.00051001175768254821 0 0.0026151284912089155 -0.00050178477119573034 0 0.0026245496323719576 -0.0005162928571338614 0 0.0026264951844324003 -0.00050126341651284716 0 0.0026151284912089155 -0.00050178477119573034 0 0.0026245496323719576 -0.0005162928571338614 0 0.0026452961401675426 -0.00050572589596616286 0 0.0026264951844324003 -0.00050126341651284716 0 0.0026452961401675426 -0.00050572589596616286 0 0.0026264951844324003 -0.00050126341651284716 0 0.0026308654551600867 -0.0004982077121540127 0 0.0026536544566360476 -0.00052189999261661243 0 0.0026333396285562541 -0.00053355832812827277 0 0.0026245496323719576 -0.0005162928571338614 0 0.0026536544566360476 -0.00052189999261661243 0 0.0026245496323719576 -0.0005162928571338614 0 0.0026452961401675426 -0.00050572589596616286 0 0.0026536544566360476 -0.00052189999261661243 0 0.0026452961401675426 -0.00050572589596616286 0 0.0026701124745983351 -0.00050845489097500827 0 0.0026452961401675426 -0.00050572589596616286 0 0.002657499321942525 -0.00049813434644079935 0 0.0026308654551600867 -0.0004982077121540127 0 0.0026452961401675426 -0.00050572589596616286 0 0.0026701124745983351 -0.00050845489097500827 0 0.002657499321942525 -0.00049813434644079935 0 0.0026297662778611976 -0.00042682400144111287 0 0.0026806100338304085 -0.0004262402738730296 0 0.002702458477949254 -0.00050085346962132923 0 0.0027242721595086036 -0.00045731807108589982 0 0.0027675407646537767 -0.00040202646288527616 0 0.0027149880000383363 -0.00032107770234347728 0 0.0027195123765892536 -0.00045263782275013428 0 0.0027046233869891445 -0.00036170167385539859 0 0.0026806100338304085 -0.0004262402738730296 0 0.0027242721595086036 -0.00045731807108589982 0 0.0026911259691839461 -0.00039704578376372341 0 0.0026806100338304085 -0.0004262402738730296 0 0.0027242721595086036 -0.00045731807108589982 0 0.002702458477949254 -0.00050085346962132923 0 0.0026453486909565776 -0.00046295309570675795 0 0.0026949807677089867 -0.00050051691779054615 0 0.0026701124745983351 -0.00050845489097500827 0 0.002657499321942525 -0.00049813434644079935 0 0.002702458477949254 -0.00050085346962132923 0 0.0026884634115753115 -0.00053395792625867257 0 0.002702458477949254 -0.00050085346962132923 0 0.0027422518377678137 -0.00053228777039902235 0 0.0026884634115753115 -0.00053395792625867257 0 0.0026701124745983351 -0.00050845489097500827 0 0.002702458477949254 -0.00050085346962132923 0 0.002702458477949254 -0.00050085346962132923 0 0.0027797234780247565 -0.00052401295242096092 0 0.0027422518377678137 -0.00053228777039902235 0 0.0027242721595086036 -0.00045731807108589982 0 0.002702458477949254 -0.00050085346962132923 0 0.0027797234780247565 -0.00052401295242096092 0 0.0027797234780247565 -0.00052401295242096092 0 0.0027422518377678137 -0.00053228777039902235 0 0.0028044767312783896 -0.00056485296057111258 0 0.0027422518377678137 -0.00053228777039902235 0 0.0028044767312783896 -0.00056485296057111258 0 0.0027485870994991522 -0.00056358348277785674 0 0.0026884634115753115 -0.00053395792625867257 0 0.0027422518377678137 -0.00053228777039902235 0 0.0027485870994991522 -0.00056358348277785674 0 0.0026884634115753115 -0.00053395792625867257 0 0.0026909041628619059 -0.00057228467726284308 0 0.0027485870994991522 -0.00056358348277785674 0 0.0028017028441027938 -0.00065706151090740928 0 0.0029255466279732205 -0.00065293670895112156 0 0.0028663565273315725 -0.00069524910123277596 0 0.0027717704570876345 -0.0006994529485525922 0 0.0028634576662498433 -0.00050028703112764861 0 0.0028017028441027938 -0.00065706151090740928 0 0.0028446106125124032 -0.00052662956806325629 0 0.0029255466279732205 -0.00065293670895112156 0 0.0027797234780247565 -0.00052401295242096092 0 0.0028044767312783896 -0.00056485296057111258 0 0.0028469112115698048 -0.00057540083931935425 0 0.0027797234780247565 -0.00052401295242096092 0 0.0028469112115698048 -0.00057540083931935425 0 0.0028446106125124032 -0.00052662956806325629 0 0.0027797234780247565 -0.00052401295242096092 0 0.0028446106125124032 -0.00052662956806325629 0 0.0027881926157785511 -0.00047314583788446722 0 0.0028446106125124032 -0.00052662956806325629 0 0.002840782937694377 -0.00044162788761890767 0 0.0027881926157785511 -0.00047314583788446722 0 0.0028446106125124032 -0.00052662956806325629 0 0.002840782937694377 -0.00044162788761890767 0 0.0029166172742937412 -0.00048319086139900848 0 0.0027242721595086036 -0.00045731807108589982 0 0.0027797234780247565 -0.00052401295242096092 0 0.0027881926157785511 -0.00047314583788446722 0 0.002840782937694377 -0.00044162788761890767 0 0.0027881926157785511 -0.00047314583788446722 0 0.0027675407646537767 -0.00040202646288527616 0 0.0027242721595086036 -0.00045731807108589982 0 0.0027881926157785511 -0.00047314583788446722 0 0.0027675407646537767 -0.00040202646288527616 0 0.0027675407646537767 -0.00040202646288527616 0 0.0027852674528593305 -0.00033498172594787547 0 0.0027149880000383363 -0.00032107770234347728 0 0.002840782937694377 -0.00044162788761890767 0 0.0027852674528593305 -0.00033498172594787547 0 0.0029822247104252398 -0.00040843306718407285 0 0.002840782937694377 -0.00044162788761890767 0 0.0027675407646537767 -0.00040202646288527616 0 0.0027852674528593305 -0.00033498172594787547 0 0.0027852674528593305 -0.00033498172594787547 0 0.0028126832652886971 -0.00031703651661259513 0 0.0028199798165585658 -0.00037632041381923244 0 0.0027933700708750626 -0.00033730910912203958 0 0.0029029832844450626 -0.00039411161615466624 0 0.0027852674528593305 -0.00033498172594787547 0 0.0028126832652886971 -0.00031703651661259513 0 0.0027868697207813044 -0.00031661707350182913 0 0.0028271774700494986 -0.00030954212498704534 0 0.0029114013979158961 -0.00027703260749504328 0 0.0028126832652886971 -0.00031703651661259513 0 0.0029763194705281861 -0.00036420881034773876 0 0.0030614670099698717 -0.00023347264677346676 0 0.0028126832652886971 -0.00031703651661259513 0 0.0029763194705281861 -0.00036420881034773876 0 0.0028199798165585658 -0.00037632041381923244 0 0.0029763194705281861 -0.00036420881034773876 0 0.0028199798165585658 -0.00037632041381923244 0 0.0030877303697814983 -0.00052870796801022548 0 0.0029029832844450626 -0.00039411161615466624 0 0.0031215167779188886 -0.00051530933435078657 0 0.0029822247104252398 -0.00040843306718407285 0 0.0031538541833333149 -0.00050448136952618676 0 0.0029844541406217791 -0.00054601100670588433 0 0.0029166172742937412 -0.00048319086139900848 0 0.0029822247104252398 -0.00040843306718407285 0 0.0029844541406217791 -0.00054601100670588433 0 0.002840782937694377 -0.00044162788761890767 0 0.0029166172742937412 -0.00048319086139900848 0 0.0029822247104252398 -0.00040843306718407285 0 0.0031823282665699878 -0.00028358877329496315 0 0.0030614670099698717 -0.00023347264677346676 0 0.003289591734388436 -0.00021864748887067575 0 0.0029114013979158961 -0.00027703260749504328 0 0.003105746072919067 -0.00031004627454048238 0 0.0033030230870473255 -0.00029043908249285188 0 0.0031823282665699878 -0.00028358877329496315 0 0.0032781472425132238 -0.00036513778757516245 0 0.0033030230870473255 -0.00029043908249285188 0 0.003309610392781688 -0.00024656340258108868 0 0.003289591734388436 -0.00021864748887067575 0 0.0033030230870473255 -0.00029043908249285188 0 0.0031823282665699878 -0.00028358877329496315 0 0.003289591734388436 -0.00021864748887067575 0 0.0031823282665699878 -0.00028358877329496315 0 0.0031385253989946603 -0.00038167997049994799 0 0.0032781472425132238 -0.00036513778757516245 0 0.0029763194705281861 -0.00036420881034773876 0 0.0030614670099698717 -0.00023347264677346676 0 0.0031385253989946603 -0.00038167997049994799 0 0.0031823282665699878 -0.00028358877329496315 0 0.0030614670099698717 -0.00023347264677346676 0 0.0031385253989946603 -0.00038167997049994799 0 0.0029763194705281861 -0.00036420881034773876 0 0.0031385253989946603 -0.00038167997049994799 0 0.0030877303697814983 -0.00052870796801022548 0 0.0031385253989946603 -0.00038167997049994799 0 0.0032848459326516059 -0.00047443190992213188 0 0.0030877303697814983 -0.00052870796801022548 0 0.0031385253989946603 -0.00038167997049994799 0 0.0032848459326516059 -0.00047443190992213188 0 0.0032781472425132238 -0.00036513778757516245 0 0.0031538541833333149 -0.00050448136952618676 0 0.003177400287206244 -0.00061667539087697089 0 0.0033283753686381033 -0.00062031800159429741 0 0.0032848459326516059 -0.00047443190992213188 0 0.0030877303697814983 -0.00052870796801022548 0 0.0033283753686381033 -0.00062031800159429741 0 0.0031215167779188886 -0.00051530933435078657 0 0.0033150617059930893 -0.00061709153594894479 0 0.0031538541833333149 -0.00050448136952618676 0 0.003177400287206244 -0.00061667539087697089 0 0.0030625093332214003 -0.00061253359058548954 0 0.003177400287206244 -0.00061667539087697089 0 0.0031136949933445518 -0.00066680011361855505 0 0.0032296047272028896 -0.00068000638494246119 0 0.0031136949933445518 -0.00066680011361855505 0 0.0032296047272028896 -0.00068000638494246119 0 0.0031825617243948011 -0.00071850944318146515 0 0.003177400287206244 -0.00061667539087697089 0 0.0031136949933445518 -0.00066680011361855505 0 0.0030625093332214003 -0.00061253359058548954 0 0.003177400287206244 -0.00061667539087697089 0 0.0032296047272028896 -0.00068000638494246119 0 0.0033283753686381033 -0.00062031800159429741 0 0.0032296047272028896 -0.00068000638494246119 0 0.0033084950690905174 -0.00069109335234492303 0 0.0033283753686381033 -0.00062031800159429741 0 0.0028446106125124032 -0.00052662956806325629 0 0.0029844541406217791 -0.00054601100670588433 0 0.0029255466279732205 -0.00065293670895112156 0 0.0028446106125124032 -0.00052662956806325629 0 0.0029166172742937412 -0.00048319086139900848 0 0.0029844541406217791 -0.00054601100670588433 0 0.0031538541833333149 -0.00050448136952618676 0 0.0029844541406217791 -0.00054601100670588433 0 0.0030625093332214003 -0.00061253359058548954 0 0.0031136949933445518 -0.00066680011361855505 0 0.0030625093332214003 -0.00061253359058548954 0 0.0030393612077373629 -0.00069773579579424322 0 0.0029844541406217791 -0.00054601100670588433 0 0.0030625093332214003 -0.00061253359058548954 0 0.0029255466279732205 -0.00065293670895112156 0 0.0030625093332214003 -0.00061253359058548954 0 0.0029255466279732205 -0.00065293670895112156 0 0.0030393612077373629 -0.00069773579579424322 0 0.0029255466279732205 -0.00065293670895112156 0 0.0029937857405514562 -0.00076301897770054993 0 0.0030393612077373629 -0.00069773579579424322 0 0.0029255466279732205 -0.00065293670895112156 0 0.0029937857405514562 -0.00076301897770054993 0 0.0028663565273315725 -0.00069524910123277596 0 0.0035195930407518053 -0.00026187901034870856 0 0.0034286438060520501 -0.00023188064443276833 0 0.0035195930407518053 -0.00026187901034870856 0 0.0035433420810795416 -0.00037152698733052334 0 0.0029937857405514562 -0.00076301897770054993 0 0.0030393612077373629 -0.00069773579579424322 0 0.0030977132007591131 -0.0007659258260102747 0 0.0030393612077373629 -0.00069773579579424322 0 0.0031119557358057917 -0.00071895012928400667 0 0.0030977132007591131 -0.0007659258260102747 0 0.0031136949933445518 -0.00066680011361855505 0 0.0030393612077373629 -0.00069773579579424322 0 0.0031119557358057917 -0.00071895012928400667 0 0.0031119557358057917 -0.00071895012928400667 0 0.0030977132007591131 -0.0007659258260102747 0 0.0031252521093215928 -0.00076786137185683103 0 0.0035433420810795416 -0.00037152698733052334 0 0.0034234938725800118 -0.00047851868674550344 0 0.0040464011257922983 0.00024036765967547029 0 0.004050287851694756 0.00021480510494122003 0 0.0040438705073545956 0.00022036469673685638 0 0.0040464011257922983 0.00024036765967547029 0 0.004050287851694756 0.00021480510494122003 0 0.0040519226263968228 0.00021328870622586759 0 0.0040464011257922983 0.00024036765967547029 0 0.0040489374868356584 0.00021874781652279763 0 0.0040519226263968228 0.00021328870622586759 0 0.004050287851694756 0.00021480510494122003 0 0.0040519226263968228 0.00021328870622586759 0 0.0040531587905738471 0.00020927332932491134 0 0.004050287851694756 0.00021480510494122003 0 0.0040438705073545956 0.00022036469673685638 0 0.0040497444025175671 0.00020977535757326081 0 0.0040464011257922983 0.00024036765967547029 0 0.0040304375884909855 0.00022008946818677933 0 0.0039657198191399134 0.00028682222758485732 0 0.0040464011257922983 0.00024036765967547029 0 0.0040438705073545956 0.00022036469673685638 0 0.0040304375884909855 0.00022008946818677933 0 0.00320891916412441 -0.000841913855840793 0 0.0034234938725800118 -0.00047851868674550344 0 0.0033384676429384602 -0.00076293292793009476 0 0.0032908403552883796 -0.00077223645151418838 0 0.0031842988731544744 -0.00075096692964290817 0 0.0032296047272028896 -0.00068000638494246119 0 0.0033384676429384602 -0.00076293292793009476 0 0.0031825617243948011 -0.00071850944318146515 0 0.0032296047272028896 -0.00068000638494246119 0 0.0033084950690905174 -0.00069109335234492303 0 0.0033384676429384602 -0.00076293292793009476 0 0.0036743017559913412 -0.00026870125131591024 0 0.0034234938725800118 -0.00047851868674550344 0 0.0033384676429384602 -0.00076293292793009476 0 0.0031825617243948011 -0.00071850944318146515 0 0.0031252521093215928 -0.00076786137185683103 0 0.0040475821227636518 0.00019839045693175356 0 0.0040498287234768037 0.00021440088985430765 0 0.0040506681612111125 0.00020890758166626776 0 0.0031119557358057917 -0.00071895012928400667 0 0.0031825617243948011 -0.00071850944318146515 0 0.0031252521093215928 -0.00076786137185683103 0 0.0031136949933445518 -0.00066680011361855505 0 0.0031119557358057917 -0.00071895012928400667 0 0.0031825617243948011 -0.00071850944318146515 0 0.0040489374868356584 0.00021874781652279763 0 0.0040498287234768037 0.00021440088985430765 0 0.0040519226263968228 0.00021328870622586759 0 0.0040498287234768037 0.00021440088985430765 0 0.0040519226263968228 0.00021328870622586759 0 0.0040506681612111125 0.00020890758166626776 0 0.0040519226263968228 0.00021328870622586759 0 0.0040525125975063008 0.0002085404168817556 0 0.0040506681612111125 0.00020890758166626776 0 0.0040519226263968228 0.00021328870622586759 0 0.0040525125975063008 0.0002085404168817556 0 0.0040531587905738471 0.00020927332932491134 0 0.0040525125975063008 0.0002085404168817556 0 0.0040506681612111125 0.00020890758166626776 0 0.0040501470048062115 0.00020538952515124695 0 0.0040316616440204747 0.00019033885980519418 0 0.0040475821227636518 0.00019839045693175356 0 0.0040472217918970143 0.00020719857806804012 0 0.0040525125975063008 0.0002085404168817556 0 0.0040501470048062115 0.00020538952515124695 0 0.0040472217918970143 0.00020719857806804012 0 0.0040475821227636518 0.00019839045693175356 0 0.0040501470048062115 0.00020538952515124695 0 0.0040472217918970143 0.00020719857806804012 0 0.0040475821227636518 0.00019839045693175356 0 0.0040506681612111125 0.00020890758166626776 0 0.0040501470048062115 0.00020538952515124695 0 0.0046051413478175327 -0.00050696455029097755 0 0.0045910520736784921 -0.00060005616848229405 0 0.0047038575845235256 -0.0005580078623929664 0 0.0045910520736784921 -0.00060005616848229405 0 0.0046408609823892621 -0.00065739579888022344 0 0.0047038575845235256 -0.0005580078623929664 0 0.0040525125975063008 0.0002085404168817556 0 0.0040472217918970143 0.00020719857806804012 0 0.0040565253378195788 0.0002052234188817672 0 0.0044056746416994627 -0.00017827594191056667 0 0.0043772079628294665 -0.00018421532839742828 0 0.0040525125975063008 0.0002085404168817556 0 0.0040565253378195788 0.0002052234188817672 0 0.0040531587905738471 0.00020927332932491134 0 0.0040565253378195788 0.0002052234188817672 0 0.0040531587905738471 0.00020927332932491134 0 0.0040527025928791018 0.00020281726200349425 0 0.0046715790791256057 -0.00047193485842037452 0 0.0047038575845235256 -0.0005580078623929664 0 0.0047624225814666505 -0.000477746277824649 0 0.0040565253378195788 0.0002052234188817672 0 0.0040527025928791018 0.00020281726200349425 0 0.0040541907678092364 0.00019334715904742949 0 0.0043772079628294665 -0.00018421532839742828 0 0.0043372302891997528 -0.00014321797766603923 0 0.0046051413478175327 -0.00050696455029097755 0 0.0046715790791256057 -0.00047193485842037452 0 0.0047038575845235256 -0.0005580078623929664 0 0.0040551846773430895 0.00019852841989548913 0 0.004087538805828999 0.00018905499812006164 0 0.0040438705073545956 0.00022036469673685638 0 0.0040304375884909855 0.00022008946818677933 0 0.0040446457061290393 0.00020352167359216863 0 0.0040304375884909855 0.00022008946818677933 0 0.0041948619657974561 9.2661739083912763e-05 0 0.0040332538287678596 8.4403846145859499e-05 0 0.0040438705073545956 0.00022036469673685638 0 0.0040497444025175671 0.00020977535757326081 0 0.0040446457061290393 0.00020352167359216863 0 0.004050287851694756 0.00021480510494122003 0 0.0040531587905738471 0.00020927332932491134 0 0.0040497444025175671 0.00020977535757326081 0 0.0040531587905738471 0.00020927332932491134 0 0.0040497444025175671 0.00020977535757326081 0 0.0040527025928791018 0.00020281726200349425 0 0.0040497444025175671 0.00020977535757326081 0 0.0040527025928791018 0.00020281726200349425 0 0.0040446457061290393 0.00020352167359216863 0 0.0041948619657974561 9.2661739083912763e-05 0 0.0043514408793875808 -5.3795152692177914e-05 0 0.0042066968425840141 -2.2194895070400198e-05 0 0.004087538805828999 0.00018905499812006164 0 0.0043372302891997528 -0.00014321797766603923 0 0.0040527025928791018 0.00020281726200349425 0 0.0040446457061290393 0.00020352167359216863 0 0.0040541907678092364 0.00019334715904742949 0 0.004320450918584743 -8.9397681499249433e-05 0 0.0043514408793875808 -5.3795152692177914e-05 0 0.0042066968425840141 -2.2194895070400198e-05 0 0.0042066968425840141 -2.2194895070400198e-05 0 0.004078803678802684 -7.4370532604259139e-05 0 0.0040332538287678596 8.4403846145859499e-05 0 0.0041948619657974561 9.2661739083912763e-05 0 0.0042066968425840141 -2.2194895070400198e-05 0 0.0040332538287678596 8.4403846145859499e-05 0 0.004078803678802684 -7.4370532604259139e-05 0 0.0039387481370143805 -7.3435428319797428e-06 0 0.0040332538287678596 8.4403846145859499e-05 0 0.0039701077051819897 -0.00012497364381758083 0 0.004078803678802684 -7.4370532604259139e-05 0 0.0039387481370143805 -7.3435428319797428e-06 0 0.0038456820843165455 -0.0001064591382714514 0 0.0039701077051819897 -0.00012497364381758083 0 0.0039387481370143805 -7.3435428319797428e-06 0 0.0039387481370143805 -7.3435428319797428e-06 0 0.0040332538287678596 8.4403846145859499e-05 0 0.0039002810184412852 0.00013783953242555615 0 0.0040304375884909855 0.00022008946818677933 0 0.0040332538287678596 8.4403846145859499e-05 0 0.003962181528187305 0.00019821907183490754 0 0.0040332538287678596 8.4403846145859499e-05 0 0.0039002810184412852 0.00013783953242555615 0 0.003962181528187305 0.00019821907183490754 0 0.0038165634960340769 0.00017638000216229466 0 0.0039002810184412852 0.00013783953242555615 0 0.0038128300692443513 3.7381300076938118e-05 0 0.0038165634960340769 0.00017638000216229466 0 0.0038128300692443513 3.7381300076938118e-05 0 0.0036960930009058402 0.00015801218791774616 0 0.0039387481370143805 -7.3435428319797428e-06 0 0.0039002810184412852 0.00013783953242555615 0 0.0038128300692443513 3.7381300076938118e-05 0 0.0038165634960340769 0.00017638000216229466 0 0.0039002810184412852 0.00013783953242555615 0 0.0038842995269786911 0.00023375952086654672 0 0.0036938823234643385 -0.00011456413475302776 0 0.0038456820843165455 -0.0001064591382714514 0 0.0038128300692443513 3.7381300076938118e-05 0 0.0038456820843165455 -0.0001064591382714514 0 0.0039387481370143805 -7.3435428319797428e-06 0 0.0038128300692443513 3.7381300076938118e-05 0 0.0036938823234643385 -0.00011456413475302776 0 0.0038128300692443513 3.7381300076938118e-05 0 0.0035754064308916728 -3.9303769112723832e-05 0 0.0036938823234643385 -0.00011456413475302776 0 0.0035818411664249477 -8.3376038161141357e-05 0 0.0035754064308916728 -3.9303769112723832e-05 0 0.0035818411664249477 -8.3376038161141357e-05 0 0.0036190144129135651 -0.00012113512781511453 0 0.0035754064308916728 -3.9303769112723832e-05 0 0.0035578176410425316 -0.0001757381438939626 0 0.0032479907104973494 -0.00019104403700637485 0 0.0035162408874720098 -0.00039546764104235102 0 0.0036190144129135651 -0.00012113512781511453 0 0.0035754064308916728 -3.9303769112723832e-05 0 0.0035578176410425316 -0.0001757381438939626 0 0.0036871266489840429 -0.0002252525192593405 0 0.0035578176410425316 -0.0001757381438939626 0 0.0035162408874720098 -0.00039546764104235102 0 0.0038128300692443513 3.7381300076938118e-05 0 0.0035754064308916728 -3.9303769112723832e-05 0 0.0036960930009058402 0.00015801218791774616 0 0.0035754064308916728 -3.9303769112723832e-05 0 0.0035578176410425316 -0.0001757381438939626 0 0.0032479907104973494 -0.00019104403700637485 0 0.0035341794037580944 -6.0198153022286e-05 0 0.0034906531327434107 8.7381525863196696e-06 0 0.0032479907104973494 -0.00019104403700637485 0 0.0029695845145093218 -0.00056055942111374693 0 0.0028927309187170755 -0.0005636544525351655 0 0.0034906531327434107 8.7381525863196696e-06 0 0.0032062448343987706 -0.00036566048885150872 0 0.0031205490613584498 -0.00052240058358361981 0 0.0029296285908579807 -0.00061480280261065059 0 0.0029695845145093218 -0.00056055942111374693 0 0.0035162408874720098 -0.00039546764104235102 0 0.0029079936481251553 -0.00062416266841762013 0 0.0032479907104973494 -0.00019104403700637485 0 0.0029695845145093218 -0.00056055942111374693 0 0.0035162408874720098 -0.00039546764104235102 0 0.0027493006245976467 -0.00065293234911808758 0 0.0027279018885613461 -0.00059384214765860282 0 0.0027879795012327891 -0.00059707230699472893 0 0.0026945866502811442 -0.00060727662744773929 0 0.0027493006245976467 -0.00065293234911808758 0 0.0027279018885613461 -0.00059384214765860282 0 0.0026909041628619059 -0.00057228467726284308 0 0.0027485870994991522 -0.00056358348277785674 0 0.0027279018885613461 -0.00059384214765860282 0 0.0027485870994991522 -0.00056358348277785674 0 0.0027279018885613461 -0.00059384214765860282 0 0.0027879795012327891 -0.00059707230699472893 0 0.0028044767312783896 -0.00056485296057111258 0 0.0027879795012327891 -0.00059707230699472893 0 0.0029079936481251553 -0.00062416266841762013 0 0.0027493006245976467 -0.00065293234911808758 0 0.0027879795012327891 -0.00059707230699472893 0 0.0029079936481251553 -0.00062416266841762013 0 0.0028044767312783896 -0.00056485296057111258 0 0.0027485870994991522 -0.00056358348277785674 0 0.0027879795012327891 -0.00059707230699472893 0 0.0028044767312783896 -0.00056485296057111258 0 0.0028469112115698048 -0.00057540083931935425 0 0.0029079936481251553 -0.00062416266841762013 0 0.0028469112115698048 -0.00057540083931935425 0 0.0029079936481251553 -0.00062416266841762013 0 0.0029095947127404358 -0.0006189013534428885 0 0.0028017028441027938 -0.00065706151090740928 0 0.0028249641935814557 -0.00072040155866839905 0 0.0027616611328506653 -0.00076594676015591921 0 0.0028249641935814557 -0.00072040155866839905 0 0.0028713518612451458 -0.00076243232468765779 0 0.0027616611328506653 -0.00076594676015591921 0 0.0027717704570876345 -0.0006994529485525922 0 0.0032062448343987706 -0.00036566048885150872 0 0.0029937857405514562 -0.00076301897770054993 0 0.0028663565273315725 -0.00069524910123277596 0 0.0028713518612451458 -0.00076243232468765779 0 0.0028017028441027938 -0.00065706151090740928 0 0.0028249641935814557 -0.00072040155866839905 0 0.0028663565273315725 -0.00069524910123277596 0 0.0028249641935814557 -0.00072040155866839905 0 0.0028663565273315725 -0.00069524910123277596 0 0.0028713518612451458 -0.00076243232468765779 0 0.0039657198191399134 0.00028682222758485732 0 0.003962181528187305 0.00019821907183490754 0 0.0038842995269786911 0.00023375952086654672 0 0.0040304375884909855 0.00022008946818677933 0 0.0039657198191399134 0.00028682222758485732 0 0.003962181528187305 0.00019821907183490754 0 0.0039002810184412852 0.00013783953242555615 0 0.003962181528187305 0.00019821907183490754 0 0.0038842995269786911 0.00023375952086654672 0 0.0034286438060520501 -0.00023188064443276833 0 0.0032062448343987706 -0.00036566048885150872 0 0.0039657198191399134 0.00028682222758485732 0 0.0038842995269786911 0.00023375952086654672 0 0.0037866043662099025 0.00030019881447339986 0 0.0038165634960340769 0.00017638000216229466 0 0.0036960930009058402 0.00015801218791774616 0 0.0037866043662099025 0.00030019881447339986 0 0.0038165634960340769 0.00017638000216229466 0 0.0038842995269786911 0.00023375952086654672 0 0.0037866043662099025 0.00030019881447339986 0 0.0031360607313563387 -0.00038687290466168581 0 0.0032062448343987706 -0.00036566048885150872 0 0.0029695845145093218 -0.00056055942111374693 0 0.0029079936481251553 -0.00062416266841762013 0 0.0029095947127404358 -0.0006189013534428885 0 0.003910337861519282 0.0001032371047449707 0 0.0043471386134223316 0.00020801349645118623 0 0.0041558462988938562 -8.6966696526823093e-06 0 0.003910337861519282 0.0001032371047449707 0 0.0040206012239820555 1.3800069992577365e-07 0 0.0041435709837753538 -1.1427549817236486e-05 0 0.003910337861519282 0.0001032371047449707 0 0.0036392176286831526 1.3609170051016525e-05 0 0.0037260292357930084 3.7653264051805248e-08 0 0.003910337861519282 0.0001032371047449707 0 0.0040206012239820555 1.3800069992577365e-07 0 0.0037260292357930084 3.7653264051805248e-08 0 0.003910337861519282 0.0001032371047449707 0 0.0036416633594505239 4.426131910745145e-05 0 0.0036392176286831526 1.3609170051016525e-05 0 0.003910337861519282 0.0001032371047449707 0 0.0036416633594505239 4.426131910745145e-05 0 0.0036522877841997691 0.00011023422388421717 0 0.0036416633594505239 4.426131910745145e-05 0 0.0035648392686058483 6.2719412816090008e-05 0 0.0035852894032599265 8.0120605357504123e-06 0 0.0036339726145394255 7.3847686572920695e-05 0 0.0034555613963486477 0.0001023543154596348 0 0.0036416633594505239 4.426131910745145e-05 0 0.0035648392686058483 6.2719412816090008e-05 0 0.0035794965131600558 0.00010899792216791613 0 0.0036416633594505239 4.426131910745145e-05 0 0.0035794965131600558 0.00010899792216791613 0 0.0036522877841997691 0.00011023422388421717 0 0.0043175245324087574 -7.0653800868784975e-05 0 0.0043044838858706776 -5.5925608806404416e-05 0 0.004337715942579509 -4.7473013966189571e-05 0 0.0043175245324087574 -7.0653800868784975e-05 0 0.0043492979152636776 -0.00010963694301191259 0 0.0043629128280285546 -3.2288397615261408e-05 0 0.0043169086964201112 -7.0162109133361809e-05 0 0.0043638459584498706 -3.3266526769262497e-05 0 0.0036339726145394255 7.3847686572920695e-05 0 0.0036131584215137445 7.9240764137396513e-05 0 0.0036339726145394255 7.3847686572920695e-05 0 0.0043519206552375019 4.0118619146288754e-05 0 0.0035794965131600558 0.00010899792216791613 0 0.0036206704606953754 0.00019620593601372177 0 0.0034730594663248153 0.00022404455530709261 0 0.0039385041888670468 0.00020815353057548644 0 0.0043519206552375019 4.0118619146288754e-05 0 0.0043175245324087574 -7.0653800868784975e-05 0 0.0043044838858706776 -5.5925608806404416e-05 0 0.004352952164351085 -0.00012758287004604188 0 0.0035613696449814593 6.2921779461002053e-05 0 0.0035794965131600558 0.00010899792216791613 0 0.0034730594663248153 0.00022404455530709261 0 0.0043175245324087574 -7.0653800868784975e-05 0 0.0043492979152636776 -0.00010963694301191259 0 0.004352952164351085 -0.00012758287004604188 0 0.0043471386134223316 0.00020801349645118623 0 0.0045311547218558276 0.00012164495923215688 0 0.0047545150920011393 0.00017401280889900323 0 0.003910337861519282 0.0001032371047449707 0 0.0036522877841997691 0.00011023422388421717 0 0.0036206704606953754 0.00019620593601372177 0 0.0039536310810108421 0.00012130830410750324 0 0.0039385041888670468 0.00020815353057548644 0 0.0035794965131600558 0.00010899792216791613 0 0.0036522877841997691 0.00011023422388421717 0 0.0036206704606953754 0.00019620593601372177 0 0.0043950607420044164 4.3933773629843239e-05 0 0.0042932853937894351 -0.00010593319505085324 0 0.0041558462988938562 -8.6966696526823093e-06 0 0.0043471386134223316 0.00020801349645118623 0 0.0043950607420044164 4.3933773629843239e-05 0 0.0041558462988938562 -8.6966696526823093e-06 0 0.0043471386134223316 0.00020801349645118623 0 0.0043950607420044164 4.3933773629843239e-05 0 0.0045311547218558276 0.00012164495923215688 0 0.0043950607420044164 4.3933773629843239e-05 0 0.0045311547218558276 0.00012164495923215688 0 0.0047345151216750363 2.0802057026140312e-05 0 0.0043950607420044164 4.3933773629843239e-05 0 0.0047345151216750363 2.0802057026140312e-05 0 0.0042932853937894351 -0.00010593319505085324 0 0.0045311547218558276 0.00012164495923215688 0 0.0047345151216750363 2.0802057026140312e-05 0 0.0047545150920011393 0.00017401280889900323 0 0.0047286170614470819 2.9165201465042632e-05 0 0.004584419062780962 -2.3147254660106635e-05 0 0.0047345151216750363 2.0802057026140312e-05 0 0.0048494663591939057 1.7141273432215987e-05 0 0.004853289833096101 4.0524135843742695e-05 0 0.0042932853937894351 -0.00010593319505085324 0 0.0041558462988938562 -8.6966696526823093e-06 0 0.0042814356214852687 -3.3164115160345056e-05 0 0.0041558462988938562 -8.6966696526823093e-06 0 0.0041435709837753538 -1.1427549817236486e-05 0 0.0042814356214852687 -3.3164115160345056e-05 0 0.003910337861519282 0.0001032371047449707 0 0.0041558462988938562 -8.6966696526823093e-06 0 0.0041435709837753538 -1.1427549817236486e-05 0 0.0040206012239820555 1.3800069992577365e-07 0 0.0041435709837753538 -1.1427549817236486e-05 0 0.0043153319964832765 -1.7541187542612447e-07 0 0.0041435709837753538 -1.1427549817236486e-05 0 0.0043153319964832765 -1.7541187542612447e-07 0 0.0042814356214852687 -3.3164115160345056e-05 0 0.0049994217164635781 -1.227238786828081e-07 0 0.0049164827997487202 -1.77539804375542e-05 0 0.0049999510442864069 4.1524612136726647e-09 0 0.0048012607010839469 7.556451526613275e-05 0 0.0046110211952179051 1.544047028880251e-07 0 0.0049164827997487202 -1.77539804375542e-05 0 0.0043153319964832765 -1.7541187542612447e-07 0 0.0042814356214852687 -3.3164115160345056e-05 0 0.0046096031694304257 1.8561723071541814e-07 0 0.004584419062780962 -2.3147254660106635e-05 0 0.0045406791649897707 6.0039008231471901e-06 0 0.0045406791649897707 6.0039008231471901e-06 0 0.00460994022169309 -7.0809121950899948e-09 0 0.0046110211952179051 1.544047028880251e-07 0 0.0049994217164635781 -1.227238786828081e-07 0 0.0049164827997487202 -1.77539804375542e-05 0 0.0049164827997487202 -1.77539804375542e-05 0 0.0049307623175925313 8.0620101545121136e-07 0 0.0049999510442864069 4.1524612136726647e-09 0 0.0049164827997487202 -1.77539804375542e-05 0 0.0048824032938310528 2.7534241186848397e-05 0 0.0049307623175925313 8.0620101545121136e-07 0 0.0048012607010839469 7.556451526613275e-05 0 0.0049164827997487202 -1.77539804375542e-05 0 0.0048824032938310528 2.7534241186848397e-05 0 0.004853289833096101 4.0524135843742695e-05 0 0.0048012607010839469 7.556451526613275e-05 0 0.0048824032938310528 2.7534241186848397e-05 0 0.0048494663591939057 1.7141273432215987e-05 0 0.004853289833096101 4.0524135843742695e-05 0 0.0048824032938310528 2.7534241186848397e-05 0 0.0048494663591939057 1.7141273432215987e-05 0 0.0048824032938310528 2.7534241186848397e-05 0 0.0049307623175925313 8.0620101545121136e-07 0 0.0049337379531801387 2.4339308787453065e-06 0 0.0049307623175925313 8.0620101545121136e-07 0 0.0049636401741258744 2.8557578158284001e-06 0 0.0048494663591939057 1.7141273432215987e-05 0 0.0049307623175925313 8.0620101545121136e-07 0 0.0049050852257881434 7.4052611503512366e-06 0 0.0049337379531801387 2.4339308787453065e-06 0 0.0049203061462116315 -2.6888829683760582e-07 0 0.0049050852257881434 7.4052611503512366e-06 0 0.0049337379531801387 2.4339308787453065e-06 0 0.0049307623175925313 8.0620101545121136e-07 0 0.0049050852257881434 7.4052611503512366e-06 0 0.0049307623175925313 8.0620101545121136e-07 0 0.0049999510442864069 4.1524612136726647e-09 0 0.0049636401741258744 2.8557578158284001e-06 0 0.0049999510442864069 4.1524612136726647e-09 0 0.0049636401741258744 2.8557578158284001e-06 0 0.0049998924253497161 9.3650956282514163e-09 0 0.0049636401741258744 2.8557578158284001e-06 0 0.0049591885121486054 8.5326177230133699e-06 0 0.0049998924253497161 9.3650956282514163e-09 0 0.0049636401741258744 2.8557578158284001e-06 0 0.0049375398033435439 3.2824775648762186e-06 0 0.0049591885121486054 8.5326177230133699e-06 0 0.0049337379531801387 2.4339308787453065e-06 0 0.0049636401741258744 2.8557578158284001e-06 0 0.0049375398033435439 3.2824775648762186e-06 0 0.0049337379531801387 2.4339308787453065e-06 0 0.0049375398033435439 3.2824775648762186e-06 0 0.0049203061462116315 -2.6888829683760582e-07 0 0.0049375398033435439 3.2824775648762186e-06 0 0.004911407430065632 -4.0738481959127291e-06 0 0.0049203061462116315 -2.6888829683760582e-07 0 0.0049375398033435439 3.2824775648762186e-06 0 0.004911407430065632 -4.0738481959127291e-06 0 0.0049155346577471381 8.5568994166802773e-07 0 0.004911407430065632 -4.0738481959127291e-06 0 0.0049033437414014117 -2.1128033232513941e-05 0 0.0049203061462116315 -2.6888829683760582e-07 0 0.004911407430065632 -4.0738481959127291e-06 0 0.0049033437414014117 -2.1128033232513941e-05 0 0.0048659602467687598 -1.9830063008207248e-05 0 0.0049033437414014117 -2.1128033232513941e-05 0 0.0049090168078338783 -6.6355209963938269e-05 0 0.0048674431739379473 -4.2367919563419093e-05 0 0.0049033437414014117 -2.1128033232513941e-05 0 0.0049472443544205441 -4.3145942356203793e-05 0 0.0049090168078338783 -6.6355209963938269e-05 0 0.0048894332568484057 -1.7390052207171825e-05 0 0.004965264859535236 -2.5174407921015786e-05 0 0.0049033437414014117 -2.1128033232513941e-05 0 0.0049203061462116315 -2.6888829683760582e-07 0 0.0049137302191323111 -2.3651144648273182e-06 0 0.0049203061462116315 -2.6888829683760582e-07 0 0.0049050852257881434 7.4052611503512366e-06 0 0.0049099261775670863 1.6206862132849004e-06 0 0.0049203061462116315 -2.6888829683760582e-07 0 0.0049099261775670863 1.6206862132849004e-06 0 0.0049137302191323111 -2.3651144648273182e-06 0 0.0049050852257881434 7.4052611503512366e-06 0 0.0049099261775670863 1.6206862132849004e-06 0 0.0049070215513559272 -8.2718788085614172e-08 0 0.0047345151216750363 2.0802057026140312e-05 0 0.0048494663591939057 1.7141273432215987e-05 0 0.0048445514277716739 1.5494543142156431e-05 0 0.0048494663591939057 1.7141273432215987e-05 0 0.0049050852257881434 7.4052611503512366e-06 0 0.0048445514277716739 1.5494543142156431e-05 0 0.0048934382145044662 1.0988138137349712e-05 0 0.004901938026249302 -1.612830110503965e-05 0 0.004901938026249302 -1.612830110503965e-05 0 0.0043519206552375019 4.0118619146288754e-05 0 0.0049070215513559272 -8.2718788085614172e-08 0 0.0048996897785513159 4.3128600760393433e-06 0 0.0048964332500082159 5.7799609694527839e-06 0 0.0049070215513559272 -8.2718788085614172e-08 0 0.0049035633792210535 5.2069991848329949e-06 0 0.0048996897785513159 4.3128600760393433e-06 0 0.0047345151216750363 2.0802057026140312e-05 0 0.0048445514277716739 1.5494543142156431e-05 0 0.0047545150920011393 0.00017401280889900323 0 0.004900739825048391 4.6979949926423866e-06 0 0.0048996897785513159 4.3128600760393433e-06 0 0.0048964332500082159 5.7799609694527839e-06 0 0.0047645861640506363 -6.0662544873279887e-05 0 0.004834386015934708 -2.5673069244327116e-05 0 0.0049070215513559272 -8.2718788085614172e-08 0 0.0049035633792210535 5.2069991848329949e-06 0 0.0049137302191323111 -2.3651144648273182e-06 0 0.0047645861640506363 -6.0662544873279887e-05 0 0.004965264859535236 -2.5174407921015786e-05 0 0.0049099261775670863 1.6206862132849004e-06 0 0.0049070215513559272 -8.2718788085614172e-08 0 0.0049137302191323111 -2.3651144648273182e-06 0 0.0043979020424427364 -0.00014699029579429973 0 0.0045417554391334741 -7.7314005703787566e-05 0 0.0044262141510403507 -6.1356315514799793e-05 0 0.0047645861640506363 -6.0662544873279887e-05 0 0.0047418226220502825 -9.3558802407779152e-05 0 0.0045417554391334741 -7.7314005703787566e-05 0 0.0044262141510403507 -6.1356315514799793e-05 0 0.0044912810170799067 -1.6406317534886414e-05 0 0.0049846062554072309 -5.5566395618791758e-05 0 0.0049472443544205441 -4.3145942356203793e-05 0 0.0049462686178653225 -7.9139593855272387e-05 0 0.0043492979152636776 -0.00010963694301191259 0 0.004352952164351085 -0.00012758287004604188 0 0.0043816283623110677 -0.00011425113890660578 0 0.0043979020424427364 -0.00014699029579429973 0 0.004352952164351085 -0.00012758287004604188 0 0.0043816283623110677 -0.00011425113890660578 0 0.0047645861640506363 -6.0662544873279887e-05 0 0.0043519206552375019 4.0118619146288754e-05 0 0.0043979020424427364 -0.00014699029579429973 0 0.0043816283623110677 -0.00011425113890660578 0 0.0044262141510403507 -6.1356315514799793e-05 0 0.0043492979152636776 -0.00010963694301191259 0 0.0043816283623110677 -0.00011425113890660578 0 0.0044262141510403507 -6.1356315514799793e-05 0 0.0043492979152636776 -0.00010963694301191259 0 0.0044262141510403507 -6.1356315514799793e-05 0 0.0043794638147107087 3.3624290406981911e-05 0 0.0043533868058150352 -8.8955204109516538e-05 0 0.0043638459584498706 -3.3266526769262497e-05 0 0.0044464578219678783 6.4367807744171475e-08 0 0.0043794638147107087 3.3624290406981911e-05 0 0.0044889310161409747 4.4212078291044752e-05 0 0.0044262141510403507 -6.1356315514799793e-05 0 0.0044464578219678783 6.4367807744171475e-08 0 0.0043794638147107087 3.3624290406981911e-05 0 0.0045417554391334741 -7.7314005703787566e-05 0 0.0044912810170799067 -1.6406317534886414e-05 0 0.0045623901406899982 2.7762746268031919e-06 0 0.0044262141510403507 -6.1356315514799793e-05 0 0.0044464578219678783 6.4367807744171475e-08 0 0.0044912810170799067 -1.6406317534886414e-05 0 0.0044464578219678783 6.4367807744171475e-08 0 0.0044912810170799067 -1.6406317534886414e-05 0 0.0044889310161409747 4.4212078291044752e-05 0 0.0044912810170799067 -1.6406317534886414e-05 0 0.0044889310161409747 4.4212078291044752e-05 0 0.0045623901406899982 2.7762746268031919e-06 0 0.0045417554391334741 -7.7314005703787566e-05 0 0.0045623901406899982 2.7762746268031919e-06 0 0.0046834442094759177 -4.5608948113182732e-06 0 0.0044889310161409747 4.4212078291044752e-05 0 0.0045623901406899982 2.7762746268031919e-06 0 0.004600420029988575 7.2653630175494223e-05 0 0.0047418226220502825 -9.3558802407779152e-05 0 0.0046997086936183948 2.2533432866376104e-05 0 0.0045623901406899982 2.7762746268031919e-06 0 0.0046834442094759177 -4.5608948113182732e-06 0 0.004600420029988575 7.2653630175494223e-05 0 0.0046997086936183948 2.2533432866376104e-05 0 0.0045952071618372793 9.8806049208410339e-05 0 0.0046997086936183948 2.2533432866376104e-05 0 0.004750104900615529 -3.7037507777887491e-05 0 0.0049090168078338783 -6.6355209963938269e-05 0 0.0048608506263625373 -8.6765913511546735e-05 0 0.0048674431739379473 -4.2367919563419093e-05 0 0.0048953452942131796 -0.00011161256217449313 0 0.0049090168078338783 -6.6355209963938269e-05 0 0.0048608506263625373 -8.6765913511546735e-05 0 0.0049462686178653225 -7.9139593855272387e-05 0 0.0048953452942131796 -0.00011161256217449313 0 0.0049090168078338783 -6.6355209963938269e-05 0 0.0049472443544205441 -4.3145942356203793e-05 0 0.0049462686178653225 -7.9139593855272387e-05 0 0.0049090168078338783 -6.6355209963938269e-05 0 0.0047486573793328662 7.4596258401970811e-06 0 0.004807326479118205 -1.9356292080202502e-05 0 0.0047779309191642826 4.6735825140058045e-05 0 0.0047486573793328662 7.4596258401970811e-06 0 0.004807326479118205 -1.9356292080202502e-05 0 0.004797956408178013 -4.6187899284175965e-05 0 0.0047486573793328662 7.4596258401970811e-06 0 0.004621321320438034 1.3782451989732452e-05 0 0.004797956408178013 -4.6187899284175965e-05 0 0.004750104900615529 -3.7037507777887491e-05 0 0.0047793387005196355 -4.2777491632608742e-05 0 0.0048608506263625373 -8.6765913511546735e-05 0 0.004797956408178013 -4.6187899284175965e-05 0 0.0048674431739379473 -4.2367919563419093e-05 0 0.0047486573793328662 7.4596258401970811e-06 0 0.004621321320438034 1.3782451989732452e-05 0 0.0046974148999169314 6.1053470928967588e-05 0 0.004621321320438034 1.3782451989732452e-05 0 0.0046117818531410983 7.9357505515244051e-05 0 0.0046974148999169314 6.1053470928967588e-05 0 0.0046117818531410983 7.9357505515244051e-05 0 0.0046401511652809724 0.00010186842555694588 0 0.0046974148999169314 6.1053470928967588e-05 0 0.0046997086936183948 2.2533432866376104e-05 0 0.0045714096933388224 0.00012190294467907685 0 0.0045534749671653349 8.2302995963443173e-05 0 0.0046117818531410983 7.9357505515244051e-05 0 0.0046071815179693125 0.00012524169958421044 0 0.0045893154738288243 0.00011233889327325885 0 0.0046071815179693125 0.00012524169958421044 0 0.0045936179134734752 0.00011788505794202011 0 0.0045534749671653349 8.2302995963443173e-05 0 0.004621321320438034 1.3782451989732452e-05 0 0.0046117818531410983 7.9357505515244051e-05 0 0.0046117818531410983 7.9357505515244051e-05 0 0.0046401511652809724 0.00010186842555694588 0 0.0046071815179693125 0.00012524169958421044 0 0.0046401511652809724 0.00010186842555694588 0 0.00467465031853869 9.6077390080029986e-05 0 0.0046974148999169314 6.1053470928967588e-05 0 0.0046401511652809724 0.00010186842555694588 0 0.0046246784999932396 0.00013129130469738818 0 0.00467465031853869 9.6077390080029986e-05 0 0.0046401511652809724 0.00010186842555694588 0 0.0046246784999932396 0.00013129130469738818 0 0.0046071815179693125 0.00012524169958421044 0 0.00467465031853869 9.6077390080029986e-05 0 0.0046974148999169314 6.1053470928967588e-05 0 0.0047374089359179701 0.00010379965626188267 0 0.0046246784999932396 0.00013129130469738818 0 0.00467465031853869 9.6077390080029986e-05 0 0.0047374089359179701 0.00010379965626188267 0 0.0046974148999169314 6.1053470928967588e-05 0 0.0047779309191642826 4.6735825140058045e-05 0 0.0047374089359179701 0.00010379965626188267 0 0.0047486573793328662 7.4596258401970811e-06 0 0.0046974148999169314 6.1053470928967588e-05 0 0.0047779309191642826 4.6735825140058045e-05 0 0.0047779309191642826 4.6735825140058045e-05 0 0.0047374089359179701 0.00010379965626188267 0 0.004832932824215817 0.00010649514728251366 0 0.004832932824215817 0.00010649514728251366 0 0.0048964414740333877 6.1982515160845329e-05 0 0.0048304753222620685 2.8736479769581709e-05 0 0.0047779309191642826 4.6735825140058045e-05 0 0.004832932824215817 0.00010649514728251366 0 0.0048304753222620685 2.8736479769581709e-05 0 0.004832932824215817 0.00010649514728251366 0 0.0048964414740333877 6.1982515160845329e-05 0 0.0049428099735344018 0.00018001113746975313 0 0.0047063947096538548 -2.471561360771506e-05 0 0.0047093910284369085 -1.3037882915978891e-06 0 0.0047018197278627626 4.0373857190795466e-06 0 0.0048799101782253333 3.6220639219960894e-05 0 0.0047594702940023156 7.104562369372844e-05 0 0.0047998927831682265 -5.0253946370930509e-05 0 0.0047594702940023156 7.104562369372844e-05 0 0.0048451663109238489 -1.2690641969116362e-05 0 0.0048517585494422342 -2.0988831681313414e-05 0 0.0048501368073786567 3.0782572452877168e-06 0 0.0047998927831682265 -5.0253946370930509e-05 0 0.0047701600935083164 -6.631225482181599e-05 0 0.0048451663109238489 -1.2690641969116362e-05 0 0.0048517585494422342 -2.0988831681313414e-05 0 0.0048429864246454608 -2.6307955263909605e-05 0 0.0047998927831682265 -5.0253946370930509e-05 0 0.0048256195739100113 -6.2061345666279563e-05 0 0.0048243907303298769 -7.0386117021084758e-05 0 0.004828733541587818 -5.212314548442094e-05 0 0.0048084510384287732 -6.2442113630672413e-05 0 0.0048799101782253333 3.6220639219960894e-05 0 0.0048449951480812352 -2.5524439381598405e-05 0 0.0048964414740333877 6.1982515160845329e-05 0 0.0048304753222620685 2.8736479769581709e-05 0 0.0048429864246454608 -2.6307955263909605e-05 0 0.004807326479118205 -1.9356292080202502e-05 0 0.0047779309191642826 4.6735825140058045e-05 0 0.0048304753222620685 2.8736479769581709e-05 0 0.004807326479118205 -1.9356292080202502e-05 0 0.0048304753222620685 2.8736479769581709e-05 0 0.0048429864246454608 -2.6307955263909605e-05 0 0.004807326479118205 -1.9356292080202502e-05 0 0.0048429864246454608 -2.6307955263909605e-05 0 0.0048364523483051527 -3.7786077896844479e-05 0 0.0048429864246454608 -2.6307955263909605e-05 0 0.0048364523483051527 -3.7786077896844479e-05 0 0.0048442861896573191 -3.5862397061717506e-05 0 0.0048270819742643632 -7.6127232426810733e-05 0 0.004828733541587818 -5.212314548442094e-05 0 0.0048442861896573191 -3.5862397061717506e-05 0 0.0048517585494422342 -2.0988831681313414e-05 0 0.0048429864246454608 -2.6307955263909605e-05 0 0.0048442861896573191 -3.5862397061717506e-05 0 0.0047998927831682265 -5.0253946370930509e-05 0 0.0048541271311945324 -3.3336630479565935e-05 0 0.004828733541587818 -5.212314548442094e-05 0 0.0048442861896573191 -3.5862397061717506e-05 0 0.0048211400712077392 -3.7381640781591464e-05 0 0.0048442861896573191 -3.5862397061717506e-05 0 0.0048282567217203271 -2.303845424217289e-05 0 0.0048211400712077392 -3.7381640781591464e-05 0 0.0048442861896573191 -3.5862397061717506e-05 0 0.0048486411664536632 -2.2347115844065577e-05 0 0.0048282567217203271 -2.303845424217289e-05 0 0.0048364523483051527 -3.7786077896844479e-05 0 0.0048484856687929529 -3.0874469900836113e-05 0 0.004872041075408993 -1.7087594351442185e-05 0 0.0048364523483051527 -3.7786077896844479e-05 0 0.0048442861896573191 -3.5862397061717506e-05 0 0.0048484856687929529 -3.0874469900836113e-05 0 0.0048486411664536632 -2.2347115844065577e-05 0 0.0048484856687929529 -3.0874469900836113e-05 0 0.004872041075408993 -1.7087594351442185e-05 0 0.0048442861896573191 -3.5862397061717506e-05 0 0.0048486411664536632 -2.2347115844065577e-05 0 0.0048484856687929529 -3.0874469900836113e-05 0 0.0048364523483051527 -3.7786077896844479e-05 0 0.0048659602467687598 -1.9830063008207248e-05 0 0.004872041075408993 -1.7087594351442185e-05 0 0.004807326479118205 -1.9356292080202502e-05 0 0.0048364523483051527 -3.7786077896844479e-05 0 0.004797956408178013 -4.6187899284175965e-05 0 0.0048364523483051527 -3.7786077896844479e-05 0 0.004797956408178013 -4.6187899284175965e-05 0 0.0048659602467687598 -1.9830063008207248e-05 0 0.0049033437414014117 -2.1128033232513941e-05 0 0.0048674431739379473 -4.2367919563419093e-05 0 0.0048659602467687598 -1.9830063008207248e-05 0 0.004797956408178013 -4.6187899284175965e-05 0 0.0048674431739379473 -4.2367919563419093e-05 0 0.0048659602467687598 -1.9830063008207248e-05 0 0.004911407430065632 -4.0738481959127291e-06 0 0.0048659602467687598 -1.9830063008207248e-05 0 0.0049155346577471381 8.5568994166802773e-07 0 0.0049155346577471381 8.5568994166802773e-07 0 0.004872041075408993 -1.7087594351442185e-05 0 0.0049042338543822317 1.7120466542667647e-07 0 0.0048659602467687598 -1.9830063008207248e-05 0 0.0049155346577471381 8.5568994166802773e-07 0 0.004872041075408993 -1.7087594351442185e-05 0 0.004872041075408993 -1.7087594351442185e-05 0 0.0049042338543822317 1.7120466542667647e-07 0 0.0048840917331617476 3.0220873302696121e-06 0 0.0049155346577471381 8.5568994166802773e-07 0 0.0049042338543822317 1.7120466542667647e-07 0 0.0049395166997425093 1.7055139062015604e-05 0 0.0049042338543822317 1.7120466542667647e-07 0 0.0049395166997425093 1.7055139062015604e-05 0 0.0048840917331617476 3.0220873302696121e-06 0 0.0049375398033435439 3.2824775648762186e-06 0 0.0049155346577471381 8.5568994166802773e-07 0 0.0049591885121486054 8.5326177230133699e-06 0 0.0049155346577471381 8.5568994166802773e-07 0 0.0049395166997425093 1.7055139062015604e-05 0 0.0049591885121486054 8.5326177230133699e-06 0 0.0049395166997425093 1.7055139062015604e-05 0 0.0049591885121486054 8.5326177230133699e-06 0 0.0049882215492551302 2.0395374306086835e-06 0 0.0049395166997425093 1.7055139062015604e-05 0 0.0049882215492551302 2.0395374306086835e-06 0 0.0049755157841588687 6.2886999508130632e-06 0 0.0049591885121486054 8.5326177230133699e-06 0 0.0049882215492551302 2.0395374306086835e-06 0 0.0049998924253497161 9.3650956282514163e-09 0 0.0049882215492551302 2.0395374306086835e-06 0 0.0049998924253497161 9.3650956282514163e-09 0 0.005000012737707977 -2.147493395788181e-09 0 0.005000012737707977 -2.147493395788181e-09 0 0.0049965563621878189 3.6165070836794284e-06 0 0.0049995749928431555 2.2836659140630308e-06 0 0.0049882215492551302 2.0395374306086835e-06 0 0.005000012737707977 -2.147493395788181e-09 0 0.0049965563621878189 3.6165070836794284e-06 0 0.0049826550280412637 1.5077493965249387e-06 0 0.0050016190712093931 6.7309680956705058e-06 0 0.0049882215492551302 2.0395374306086835e-06 0 0.004980806179318965 7.349474834507945e-06 0 0.0049755157841588687 6.2886999508130632e-06 0 0.0049403205775332059 1.8502478986632618e-05 0 0.0049170644624218253 2.8042137116003386e-05 0 0.004980806179318965 7.349474834507945e-06 0 0.0049755157841588687 6.2886999508130632e-06 0 0.0049833346531726842 1.3549234414564567e-05 0 0.0049395166997425093 1.7055139062015604e-05 0 0.0049755157841588687 6.2886999508130632e-06 0 0.0049833346531726842 1.3549234414564567e-05 0 0.004860005082680632 4.2092315978511249e-05 0 0.0048337308182467243 2.2385608980860429e-05 0 0.0048199919993093948 4.6019367793884989e-05 0 0.0049170644624218253 2.8042137116003386e-05 0 0.0049261068385572588 1.7841791696550701e-05 0 0.004980806179318965 7.349474834507945e-06 0 0.0049833346531726842 1.3549234414564567e-05 0 0.0049889608341012965 1.0427698712657355e-05 0 0.0050016190712093931 6.7309680956705058e-06 0 0.0049261068385572588 1.7841791696550701e-05 0 0.0048337308182467243 2.2385608980860429e-05 0 0.0048390943895513169 -5.1379324004749748e-06 0 0.0048228810453359253 7.0713185437187621e-06 0 0.0048337308182467243 2.2385608980860429e-05 0 0.0048546903593380498 1.4769376447329657e-05 0 0.0048390943895513169 -5.1379324004749748e-06 0 0.004860005082680632 4.2092315978511249e-05 0 0.0048337308182467243 2.2385608980860429e-05 0 0.0048546903593380498 1.4769376447329657e-05 0 0.0049395166997425093 1.7055139062015604e-05 0 0.004860005082680632 4.2092315978511249e-05 0 0.0048840917331617476 3.0220873302696121e-06 0 0.004860005082680632 4.2092315978511249e-05 0 0.0048546903593380498 1.4769376447329657e-05 0 0.0048840917331617476 3.0220873302696121e-06 0 0.0048546903593380498 1.4769376447329657e-05 0 0.0048840917331617476 3.0220873302696121e-06 0 0.0048592623439608204 -8.4943465598226386e-06 0 0.004872041075408993 -1.7087594351442185e-05 0 0.0048840917331617476 3.0220873302696121e-06 0 0.0048592623439608204 -8.4943465598226386e-06 0 0.0048486411664536632 -2.2347115844065577e-05 0 0.004872041075408993 -1.7087594351442185e-05 0 0.0048592623439608204 -8.4943465598226386e-06 0 0.0048546903593380498 1.4769376447329657e-05 0 0.0048592623439608204 -8.4943465598226386e-06 0 0.0048390943895513169 -5.1379324004749748e-06 0 0.0048486411664536632 -2.2347115844065577e-05 0 0.0048592623439608204 -8.4943465598226386e-06 0 0.0048390943895513169 -5.1379324004749748e-06 0 0.0048282567217203271 -2.303845424217289e-05 0 0.0048390943895513169 -5.1379324004749748e-06 0 0.0048179472766195627 -8.5984879661951942e-06 0 0.0048486411664536632 -2.2347115844065577e-05 0 0.0048282567217203271 -2.303845424217289e-05 0 0.0048390943895513169 -5.1379324004749748e-06 0 0.0048179472766195627 -8.5984879661951942e-06 0 0.0047966432274976567 -8.962054685578997e-06 0 0.0048043055128800406 -2.434938574497434e-05 0 0.0048179472766195627 -8.5984879661951942e-06 0 0.0048078816550414264 4.5049746129720896e-06 0 0.0047966432274976567 -8.962054685578997e-06 0 0.0048179472766195627 -8.5984879661951942e-06 0 0.0048078816550414264 4.5049746129720896e-06 0 0.0048228810453359253 7.0713185437187621e-06 0 0.0048390943895513169 -5.1379324004749748e-06 0 0.0048179472766195627 -8.5984879661951942e-06 0 0.0048228810453359253 7.0713185437187621e-06 0 0.0047966432274976567 -8.962054685578997e-06 0 0.0047811400729641136 -1.6962579422690805e-05 0 0.0048043055128800406 -2.434938574497434e-05 0 0.0048078816550414264 4.5049746129720896e-06 0 0.0047966432274976567 -8.962054685578997e-06 0 0.0047781533586032446 6.9156245802657194e-06 0 0.0047966432274976567 -8.962054685578997e-06 0 0.0047781533586032446 6.9156245802657194e-06 0 0.0047811400729641136 -1.6962579422690805e-05 0 0.0048078816550414264 4.5049746129720896e-06 0 0.0048049865948720846 2.4696823690688341e-05 0 0.0047781533586032446 6.9156245802657194e-06 0 0.0048049865948720846 2.4696823690688341e-05 0 0.0047815872096220666 3.2094521890109018e-05 0 0.0047781533586032446 6.9156245802657194e-06 0 0.0048337308182467243 2.2385608980860429e-05 0 0.0048228810453359253 7.0713185437187621e-06 0 0.0048049865948720846 2.4696823690688341e-05 0 0.0048078816550414264 4.5049746129720896e-06 0 0.0048228810453359253 7.0713185437187621e-06 0 0.0048049865948720846 2.4696823690688341e-05 0 0.005000012737707977 -2.147493395788181e-09 0 0.004999994812457542 2.8812494647590792e-09 0 0.0049999850439951064 7.5501798891407804e-07 0 0.0048337308182467243 2.2385608980860429e-05 0 0.0048049865948720846 2.4696823690688341e-05 0 0.0048199919993093948 4.6019367793884989e-05 0 0.0049261068385572588 1.7841791696550701e-05 0 0.0049735321503135265 5.5755549564322654e-07 0 0.0049261068385572588 1.7841791696550701e-05 0 0.0048511465656931024 2.1378047847442433e-05 0 0.0049260975491889347 1.6837167427960047e-05 0 0.0049099319806166749 1.1888445242149807e-05 0 0.0049114546747183576 2.0101620762751735e-05 0 0.0048049865948720846 2.4696823690688341e-05 0 0.0048199919993093948 4.6019367793884989e-05 0 0.0047815872096220666 3.2094521890109018e-05 0 0.0048511465656931024 2.1378047847442433e-05 0 0.0049735321503135265 5.5755549564322654e-07 0 0.0050003829246006984 9.3077009115710436e-07 0 0.004999994812457542 2.8812494647590792e-09 0 0.0049999850439951064 7.5501798891407804e-07 0 0.0049735321503135265 5.5755549564322654e-07 0 0.0049999984241055635 3.54525043705302e-09 0 0.0049995749928431555 2.2836659140630308e-06 0 0.0050003829246006984 9.3077009115710436e-07 0 0.0049999850439951064 7.5501798891407804e-07 0 0.005000012737707977 -2.147493395788181e-09 0 0.0049995749928431555 2.2836659140630308e-06 0 0.0049999850439951064 7.5501798891407804e-07 0 0.0049988319006383404 -4.4241783445006078e-07 0 0.005000053785703327 -2.1845457256392236e-07 0 0.0049999990735282588 6.9296141408994372e-11 0 0.0049943332905376184 1.4031599762989343e-06 0 0.0049875424674025483 -2.1630383308371169e-06 0 0.0049899102631565037 1.7620579557792556e-06 0 0.005000053785703327 -2.1845457256392236e-07 0 0.0049999990735282588 6.9296141408994372e-11 0 0.0050000010413451855 -8.7561144963640021e-08 0 0.0049768107189735317 -3.816870693623809e-07 0 0.0049875424674025483 -2.1630383308371169e-06 0 0.0049846077794121237 1.2669738459769744e-06 0 0.0049998618568307144 -9.5884054725831563e-09 0 0.005000053785703327 -2.1845457256392236e-07 0 0.0050000010413451855 -8.7561144963640021e-08 0 0.0050000003453064146 -3.1334114607127924e-10 0 0.0049999990735282588 6.9296141408994372e-11 0 0.0050000010413451855 -8.7561144963640021e-08 0 0.0049735321503135265 5.5755549564322654e-07 0 0.0049969068836624086 -1.4528309631276776e-06 0 0.0049998618568307144 -9.5884054725831563e-09 0 0.0050000003453064146 -3.1334114607127924e-10 0 0.0050000010413451855 -8.7561144963640021e-08 0 0.0049768107189735317 -3.816870693623809e-07 0 0.0049846077794121237 1.2669738459769744e-06 0 0.0049801794333766526 3.7614135711821259e-06 0 0.0049778934049258018 5.0038481793049554e-06 0 0.0049801794333766526 3.7614135711821259e-06 0 0.0049819518431286685 5.5853670803331685e-06 0 0.0049778934049258018 5.0038481793049554e-06 0 0.0049768107189735317 -3.816870693623809e-07 0 0.0049801794333766526 3.7614135711821259e-06 0 0.0048511465656931024 2.1378047847442433e-05 0 0.0049018312068840331 4.6775068151292246e-06 0 0.0049846077794121237 1.2669738459769744e-06 0 0.0049801794333766526 3.7614135711821259e-06 0 0.0049874832156383804 3.9353183436705591e-06 0 0.0049744566469034973 2.3368615798364819e-05 0 0.0049018312068840331 4.6775068151292246e-06 0 0.0049801794333766526 3.7614135711821259e-06 0 0.0049874832156383804 3.9353183436705591e-06 0 0.0049843457341977202 6.2990937304746454e-06 0 0.0049875424674025483 -2.1630383308371169e-06 0 0.0049846077794121237 1.2669738459769744e-06 0 0.0049899102631565037 1.7620579557792556e-06 0 0.0049846077794121237 1.2669738459769744e-06 0 0.0049874832156383804 3.9353183436705591e-06 0 0.0049899102631565037 1.7620579557792556e-06 0 0.0049933273061949241 3.728405315101218e-06 0 0.0049874832156383804 3.9353183436705591e-06 0 0.0049899102631565037 1.7620579557792556e-06 0 0.0049933273061949241 3.728405315101218e-06 0 0.004991505868118422 6.1008150054707659e-06 0 0.0049874832156383804 3.9353183436705591e-06 0 0.004991505868118422 6.1008150054707659e-06 0 0.0049874832156383804 3.9353183436705591e-06 0 0.0049897316139397522 9.0155996484182065e-06 0 0.0049874832156383804 3.9353183436705591e-06 0 0.0049897316139397522 9.0155996484182065e-06 0 0.0049843457341977202 6.2990937304746454e-06 0 0.0048710997171971457 8.8310873896362335e-06 0 0.0049018312068840331 4.6775068151292246e-06 0 0.0047443072906343869 6.8397412602965497e-06 0 0.004763912259063482 2.3906955990056355e-05 0 0.0047618688149177139 7.4277522362901912e-06 0 0.0047824314841447245 2.8727645242364348e-05 0 0.004763912259063482 2.3906955990056355e-05 0 0.0047781533586032446 6.9156245802657194e-06 0 0.0048511465656931024 2.1378047847442433e-05 0 0.0047805545896138892 9.0439074877082259e-06 0 0.004763912259063482 2.3906955990056355e-05 0 0.0047618688149177139 7.4277522362901912e-06 0 0.0047781533586032446 6.9156245802657194e-06 0 0.0047781533586032446 6.9156245802657194e-06 0 0.0047605681503331458 -7.3477046865011473e-06 0 0.0047811400729641136 -1.6962579422690805e-05 0 0.0047618688149177139 7.4277522362901912e-06 0 0.0047781533586032446 6.9156245802657194e-06 0 0.0047605681503331458 -7.3477046865011473e-06 0 0.0047443072906343869 6.8397412602965497e-06 0 0.0047605681503331458 -7.3477046865011473e-06 0 0.0047393829723861797 -2.2103792968540259e-05 0 0.0047443072906343869 6.8397412602965497e-06 0 0.0047618688149177139 7.4277522362901912e-06 0 0.0047605681503331458 -7.3477046865011473e-06 0 0.0047605681503331458 -7.3477046865011473e-06 0 0.0047393829723861797 -2.2103792968540259e-05 0 0.0047630043644466061 -3.0464703669221533e-05 0 0.0047289129775926111 -4.8407527268327753e-05 0 0.0047393829723861797 -2.2103792968540259e-05 0 0.0047630043644466061 -3.0464703669221533e-05 0 0.0047289129775926111 -4.8407527268327753e-05 0 0.0047601579026678234 -5.6983405831364262e-05 0 0.0047630043644466061 -3.0464703669221533e-05 0 0.0047601579026678234 -5.6983405831364262e-05 0 0.0047630043644466061 -3.0464703669221533e-05 0 0.0047831273751162452 -3.9584695224387282e-05 0 0.0047601579026678234 -5.6983405831364262e-05 0 0.0047831273751162452 -3.9584695224387282e-05 0 0.0047871815326336921 -6.0910677538615352e-05 0 0.0047630043644466061 -3.0464703669221533e-05 0 0.0047811400729641136 -1.6962579422690805e-05 0 0.0047831273751162452 -3.9584695224387282e-05 0 0.0047605681503331458 -7.3477046865011473e-06 0 0.0047630043644466061 -3.0464703669221533e-05 0 0.0047811400729641136 -1.6962579422690805e-05 0 0.0048043055128800406 -2.434938574497434e-05 0 0.0048042083974254189 -4.6372687356704976e-05 0 0.0047831273751162452 -3.9584695224387282e-05 0 0.0047811400729641136 -1.6962579422690805e-05 0 0.0048043055128800406 -2.434938574497434e-05 0 0.0047831273751162452 -3.9584695224387282e-05 0 0.0048043055128800406 -2.434938574497434e-05 0 0.0048211400712077392 -3.7381640781591464e-05 0 0.0048042083974254189 -4.6372687356704976e-05 0 0.0048282567217203271 -2.303845424217289e-05 0 0.0048179472766195627 -8.5984879661951942e-06 0 0.0048043055128800406 -2.434938574497434e-05 0 0.0048282567217203271 -2.303845424217289e-05 0 0.0048043055128800406 -2.434938574497434e-05 0 0.0048211400712077392 -3.7381640781591464e-05 0 0.004828733541587818 -5.212314548442094e-05 0 0.0048042083974254189 -4.6372687356704976e-05 0 0.0048084510384287732 -6.2442113630672413e-05 0 0.004828733541587818 -5.212314548442094e-05 0 0.0048211400712077392 -3.7381640781591464e-05 0 0.0048042083974254189 -4.6372687356704976e-05 0 0.0048042083974254189 -4.6372687356704976e-05 0 0.0047871815326336921 -6.0910677538615352e-05 0 0.0048084510384287732 -6.2442113630672413e-05 0 0.0048042083974254189 -4.6372687356704976e-05 0 0.0047831273751162452 -3.9584695224387282e-05 0 0.0047871815326336921 -6.0910677538615352e-05 0 0.0047871815326336921 -6.0910677538615352e-05 0 0.0047979462229508912 -8.0937876787426979e-05 0 0.0047696546807770978 -7.9555082134573251e-05 0 0.0047871815326336921 -6.0910677538615352e-05 0 0.0048084510384287732 -6.2442113630672413e-05 0 0.0047979462229508912 -8.0937876787426979e-05 0 0.0048243907303298769 -7.0386117021084758e-05 0 0.0048084510384287732 -6.2442113630672413e-05 0 0.0047979462229508912 -8.0937876787426979e-05 0 0.0048243907303298769 -7.0386117021084758e-05 0 0.0047979462229508912 -8.0937876787426979e-05 0 0.0048118456353258426 -9.8367587390731949e-05 0 0.0047979462229508912 -8.0937876787426979e-05 0 0.0048118456353258426 -9.8367587390731949e-05 0 0.0047927119474536735 -0.00010481883214354878 0 0.0047979462229508912 -8.0937876787426979e-05 0 0.0047761972921214263 -9.8323515653782586e-05 0 0.0047927119474536735 -0.00010481883214354878 0 0.0047979462229508912 -8.0937876787426979e-05 0 0.0047696546807770978 -7.9555082134573251e-05 0 0.0047761972921214263 -9.8323515653782586e-05 0 0.0047696546807770978 -7.9555082134573251e-05 0 0.0047541302871428109 -0.0001026666075789355 0 0.0047761972921214263 -9.8323515653782586e-05 0 0.0047696546807770978 -7.9555082134573251e-05 0 0.00474269057136002 -7.6398442634106894e-05 0 0.0047541302871428109 -0.0001026666075789355 0 0.0046753045854027227 -7.4019513648748017e-05 0 0.0045578371207516781 -9.8811181487276162e-05 0 0.0045779510452711803 -6.5913053955747887e-05 0 0.0045769692698869558 -6.8020188430319134e-05 0 0.0045710786573758587 -5.942794944422948e-05 0 0.0043594746922062813 -0.00010506803292966727 0 0.0045578371207516781 -9.8811181487276162e-05 0 0.0041948470748319243 -0.00016641357454369457 0 0.0041930229081260616 -0.00015526079136615512 0 0.00418320558962227 -0.00015246014227682548 0 0.0047289129775926111 -4.8407527268327753e-05 0 0.0047601579026678234 -5.6983405831364262e-05 0 0.00474269057136002 -7.6398442634106894e-05 0 0.0047601579026678234 -5.6983405831364262e-05 0 0.0047696546807770978 -7.9555082134573251e-05 0 0.00474269057136002 -7.6398442634106894e-05 0 0.0047601579026678234 -5.6983405831364262e-05 0 0.0047871815326336921 -6.0910677538615352e-05 0 0.0047696546807770978 -7.9555082134573251e-05 0 0.0039667447736802912 -4.2140750571157004e-05 0 0.0039693071035902302 -0.00010984477867165571 0 0.0040377983596794056 -0.00017795769610054311 0 0.0039667447736802912 -4.2140750571157004e-05 0 0.003930784154663588 -0.00015874951008002682 0 0.0038643275560045786 -0.00018086912294805094 0 0.0044264354778637991 -0.00012008250447893766 0 0.0037617501056047852 -0.00017107522782955784 0 0.0044264354778637991 -0.00012008250447893766 0 0.0041521679355558654 -7.0248801435868294e-05 0 0.0039667447736802912 -4.2140750571157004e-05 0 0.0039693071035902302 -0.00010984477867165571 0 0.003930784154663588 -0.00015874951008002682 0 0.0041873164982289659 -0.000134823646764404 0 0.0041864074030210415 -0.00014383305907031643 0 0.0041828952988224545 -0.0001314083006091764 0 0.0041778743012425377 -0.0001431603190400935 0 0.0041864074030210415 -0.00014383305907031643 0 0.0041828952988224545 -0.0001314083006091764 0 0.0041977035356924293 -0.00014758917375989517 0 0.0041873164982289659 -0.000134823646764404 0 0.0041864074030210415 -0.00014383305907031643 0 0.0040668388137348943 -0.00016996662316563581 0 0.0037588827674437703 -0.00016561732275101082 0 0.0041864074030210415 -0.00014383305907031643 0 0.0041930229081260616 -0.00015526079136615512 0 0.00418320558962227 -0.00015246014227682548 0 0.0041977035356924293 -0.00014758917375989517 0 0.0041864074030210415 -0.00014383305907031643 0 0.0041930229081260616 -0.00015526079136615512 0 0.0047601149281510519 -0.00011892655715934825 0 0.0047602745004996861 -0.0001128786395576865 0 0.0047761972921214263 -9.8323515653782586e-05 0 0.0047541302871428109 -0.0001026666075789355 0 0.0047602745004996861 -0.0001128786395576865 0 0.0047761972921214263 -9.8323515653782586e-05 0 0.0044264354778637991 -0.00012008250447893766 0 0.0048377025762565383 -5.7461305391104323e-05 0 0.0044264354778637991 -0.00012008250447893766 0 0.0045578371207516781 -9.8811181487276162e-05 0 0.0041778743012425377 -0.0001431603190400935 0 0.0041864074030210415 -0.00014383305907031643 0 0.00418320558962227 -0.00015246014227682548 0 0.0045578371207516781 -9.8811181487276162e-05 0 0.0047341558209678036 -0.00015536212861751294 0 0.0047601149281510519 -0.00011892655715934825 0 0.0047454565707009781 -0.00010038719977840805 0 0.0047602745004996861 -0.0001128786395576865 0 0.0047519478860056572 -0.00012103957826064449 0 0.0047761972921214263 -9.8323515653782586e-05 0 0.0047772599943689134 -0.00011972525334223789 0 0.0047761972921214263 -9.8323515653782586e-05 0 0.0047927119474536735 -0.00010481883214354878 0 0.0047772599943689134 -0.00011972525334223789 0 0.0048118456353258426 -9.8367587390731949e-05 0 0.0047927119474536735 -0.00010481883214354878 0 0.0048004283295350648 -0.00012981508547655439 0 0.0047701600935083164 -6.631225482181599e-05 0 0.0046066307016270859 4.6408949264885149e-05 0 0.0047927119474536735 -0.00010481883214354878 0 0.0048004283295350648 -0.00012981508547655439 0 0.0047772599943689134 -0.00011972525334223789 0 0.0047093910284369085 -1.3037882915978891e-06 0 0.0047121370637690577 2.1024079082677981e-05 0 0.004705588779341973 1.767918103598324e-05 0 0.0042725823954801265 0.0001586971230661918 0 0.0042773687546640961 0.00017577186760869365 0 0.004140508159584169 0.00011433566332971788 0 0.0042725823954801265 0.0001586971230661918 0 0.0042549265331560254 9.9037588400075212e-05 0 0.0043232317146436258 0.00019562149906770241 0 0.0042725823954801265 0.0001586971230661918 0 0.004277416339403377 0.00017547209806128853 0 0.0043232317146436258 0.00019562149906770241 0 0.0045796991629793232 6.2954725903265754e-05 0 0.0046066307016270859 4.6408949264885149e-05 0 0.0046066307016270859 4.6408949264885149e-05 0 0.0044809374057220444 0.00010553248228689638 0 0.0048004283295350648 -0.00012981508547655439 0 0.0047772599943689134 -0.00011972525334223789 0 0.0047633051140246914 -0.00014627942779745114 0 0.0047519478860056572 -0.00012103957826064449 0 0.0047772599943689134 -0.00011972525334223789 0 0.0047633051140246914 -0.00014627942779745114 0 0.0046066307016270859 4.6408949264885149e-05 0 0.0041521679355558654 -7.0248801435868294e-05 0 0.004140508159584169 0.00011433566332971788 0 0.0041968114352719079 9.9882331078431872e-05 0 0.0041912319418847682 1.5113472300688846e-05 0 0.0033723743685573214 -0.0001370967912495168 0 0.0034540017758988195 -0.00029719137719236662 0 0.0033546813364317058 -0.00022529992412058074 0 0.0042725823954801265 0.0001586971230661918 0 0.004140508159584169 0.00011433566332971788 0 0.0041968114352719079 9.9882331078431872e-05 0 0.0041521679355558654 -7.0248801435868294e-05 0 0.0032988304723799624 -0.00019117762170756279 0 0.0041968114352719079 9.9882331078431872e-05 0 0.0042191386491940291 4.7136171028075549e-05 0 0.0041912319418847682 1.5113472300688846e-05 0 0.0041968114352719079 9.9882331078431872e-05 0 0.0042257043207210325 9.0317097378099016e-05 0 0.0042191386491940291 4.7136171028075549e-05 0 0.0042118533264324364 6.7601547196448897e-05 0 0.0044809374057220444 0.00010553248228689638 0 0.0042543811069940003 3.798562272219441e-05 0 0.0043459880289856397 4.9438267281554938e-05 0 0.0043108474370374137 0.0001710597098758717 0 0.0042549265331560254 9.9037588400075212e-05 0 0.0042543811069940003 3.798562272219441e-05 0 0.0043232317146436258 0.00019562149906770241 0 0.0042725823954801265 0.0001586971230661918 0 0.0041968114352719079 9.9882331078431872e-05 0 0.0042257043207210325 9.0317097378099016e-05 0 0.0042725823954801265 0.0001586971230661918 0 0.0042549265331560254 9.9037588400075212e-05 0 0.0042257043207210325 9.0317097378099016e-05 0 0.0042549265331560254 9.9037588400075212e-05 0 0.0042386101637897954 6.8537357513989982e-05 0 0.0042543811069940003 3.798562272219441e-05 0 0.0042549265331560254 9.9037588400075212e-05 0 0.0042257043207210325 9.0317097378099016e-05 0 0.0042386101637897954 6.8537357513989982e-05 0 0.0042257043207210325 9.0317097378099016e-05 0 0.0042386101637897954 6.8537357513989982e-05 0 0.0042191386491940291 4.7136171028075549e-05 0 0.0042863579095000354 -1.4953939106524198e-05 0 0.0042543811069940003 3.798562272219441e-05 0 0.0043459880289856397 4.9438267281554938e-05 0 0.0042863579095000354 -1.4953939106524198e-05 0 0.0042543811069940003 3.798562272219441e-05 0 0.0041979039341991228 1.9907947653635906e-05 0 0.0042386101637897954 6.8537357513989982e-05 0 0.0042543811069940003 3.798562272219441e-05 0 0.0042191386491940291 4.7136171028075549e-05 0 0.0032988304723799624 -0.00019117762170756279 0 0.0025860694634962005 -0.00049845796146874696 0 0.0033710827624033315 -0.00029460778798711605 0 0.0034540017758988195 -0.00029719137719236662 0 0.0033087497896567017 -0.00047197552459169606 0 0.0033710827624033315 -0.00029460778798711605 0 0.0034540017758988195 -0.00029719137719236662 0 0.0033546813364317058 -0.00022529992412058074 0 0.0042543811069940003 3.798562272219441e-05 0 0.0042191386491940291 4.7136171028075549e-05 0 0.0041979039341991228 1.9907947653635906e-05 0 0.0038426266987334795 0.00016623669419591896 0 0.0032988304723799624 -0.00019117762170756279 0 0.0033710827624033315 -0.00029460778798711605 0 0.0033210522491896751 -0.00030729263362517742 0 0.0032837581944273812 -0.00040714472189185084 0 0.003450224032762096 -0.00025219404050298542 0 0.0029464447332983486 -0.00043181680461719727 0 0.0032529425874684389 -0.00035282564821688216 0 0.0032766193145643313 -0.00036048943042498631 0 0.0032502007586839576 -0.00031992274083670973 0 0.0033210522491896751 -0.00030729263362517742 0 0.0032882674889599373 -0.00025656119343600185 0 0.0032837581944273812 -0.00040714472189185084 0 0.0033130825842850251 -0.00031001698846197805 0 0.0029464447332983486 -0.00043181680461719727 0 0.0033710827624033315 -0.00029460778798711605 0 0.0033210522491896751 -0.00030729263362517742 0 0.0033339790367642196 -0.00026391945596352387 0 0.0033210522491896751 -0.00030729263362517742 0 0.0032882674889599373 -0.00025656119343600185 0 0.0033339790367642196 -0.00026391945596352387 0 0.0033710827624033315 -0.00029460778798711605 0 0.0033339790367642196 -0.00026391945596352387 0 0.0033546813364317058 -0.00022529992412058074 0 0.0032882674889599373 -0.00025656119343600185 0 0.0033339790367642196 -0.00026391945596352387 0 0.0033546813364317058 -0.00022529992412058074 0 0.0033723743685573214 -0.0001370967912495168 0 0.0033546813364317058 -0.00022529992412058074 0 0.0032903814998035898 -0.00017502670084912133 0 0.003450224032762096 -0.00025219404050298542 0 0.0036965259580592985 -0.00022626134953540771 0 0.0032882674889599373 -0.00025656119343600185 0 0.0033546813364317058 -0.00022529992412058074 0 0.0032903814998035898 -0.00017502670084912133 0 0.003450224032762096 -0.00025219404050298542 0 0.0035778856062474353 -0.00023711952951071134 0 0.0035657333642509794 -0.00024187630005645773 0 0.0035662963532849738 -0.00025775632949754393 0 0.0035772492045437927 -0.00025262607116292737 0 0.0032529425874684389 -0.00035282564821688216 0 0.0032668271801070941 -0.00036518948484267017 0 0.0032766193145643313 -0.00036048943042498631 0 0.0035778856062474353 -0.00023711952951071134 0 0.0033130825842850251 -0.00031001698846197805 0 0.0036965259580592985 -0.00022626134953540771 0 0.0035778856062474353 -0.00023711952951071134 0 0.0039693071035902302 -0.00010984477867165571 0 0.0039673309955892055 -0.00021105226578354132 0 0.003930784154663588 -0.00015874951008002682 0 0.0039187393047423495 -0.00023357828331549646 0 0.003930784154663588 -0.00015874951008002682 0 0.0038643275560045786 -0.00018086912294805094 0 0.0039673309955892055 -0.00021105226578354132 0 0.0039187393047423495 -0.00023357828331549646 0 0.003930784154663588 -0.00015874951008002682 0 0.0041521679355558654 -7.0248801435868294e-05 0 0.0036965259580592985 -0.00022626134953540771 0 0.003905441263667308 -0.00012633899284143267 0 0.0036965259580592985 -0.00022626134953540771 0 0.0039693071035902302 -0.00010984477867165571 0 0.0040377983596794056 -0.00017795769610054311 0 0.0039687753622569995 -0.00020967062967477935 0 0.0033705676849281204 -0.00019038757323565743 0 0.0033486222442311469 -0.00015076953052188066 0 0.0033933762209829793 -0.00012981382189592366 0 0.0037588827674437703 -0.00016561732275101082 0 0.0035715356317326716 -0.00020329965114169524 0 0.0037588827674437703 -0.00016561732275101082 0 0.0037617501056047852 -0.00017107522782955784 0 0.0037041834340716612 -0.000222401308881369 0 0.0036393188851502186 -0.00016074018550005836 0 0.0036561846240928384 -0.00013690402969318192 0 0.0037617501056047852 -0.00017107522782955784 0 0.0035715356317326716 -0.00020329965114169524 0 0.0035042922012207519 -0.00018388501407674395 0 0.0035883465338674564 -0.00026381782759074573 0 0.0036061656591098328 -0.00023856164681597056 0 0.0035042922012207519 -0.00018388501407674395 0 0.0036061656591098328 -0.00023856164681597056 0 0.0035605908506267767 -0.00015763418259371654 0 0.0033598429122523926 -0.00019479189564201369 0 0.0034166701178175774 -0.00029797540774249484 0 0.0032205453900878474 -0.00038900955638398338 0 0.0035715356317326716 -0.00020329965114169524 0 0.0033130825842850251 -0.00031001698846197805 0 0.0035778856062474353 -0.00023711952951071134 0 0.0037617501056047852 -0.00017107522782955784 0 0.0035715356317326716 -0.00020329965114169524 0 0.0030935220478465007 -0.0003452865452931368 0 0.0033486222442311469 -0.00015076953052188066 0 0.0033933762209829793 -0.00012981382189592366 0 0.00339343115636796 -8.469717510923792e-05 0 0.0033130825842850251 -0.00031001698846197805 0 0.0030935220478465007 -0.0003452865452931368 0 0.0029836002736526091 -0.00043326353276035507 0 0.0030048611031359752 -0.00042334442374513515 0 0.0029623017620505946 -0.00040017504186180147 0 0.0030084017206660346 -0.00041809115704381273 0 0.0030048611031359752 -0.00042334442374513515 0 0.0029623017620505946 -0.00040017504186180147 0 0.0028477396078284466 -0.00048228161777598324 0 0.0026938733774205812 -0.00049299230124888959 0 0.0025648017708697229 -0.00057506536498467056 0 0.0025575355720166854 -0.00057321069974887895 0 0.0025604456994116499 -0.00057102830345738109 0 0.0025575355720166854 -0.00057321069974887895 0 0.0025480342400662367 -0.00056968529167954673 0 0.0025578921102504884 -0.00056692877565871517 0 0.0025667898810173262 -0.00058293842606221553 0 0.0025575355720166854 -0.00057321069974887895 0 0.0025484331606601259 -0.00057301554952939287 0 0.0025667898810173262 -0.00058293842606221553 0 0.0025648017708697229 -0.00057506536498467056 0 0.0025575355720166854 -0.00057321069974887895 0 0.0025575355720166854 -0.00057321069974887895 0 0.0025604456994116499 -0.00057102830345738109 0 0.0025578921102504884 -0.00056692877565871517 0 0.002565919709264329 -0.00056916147937741937 0 0.0025648017708697229 -0.00057506536498467056 0 0.0025604456994116499 -0.00057102830345738109 0 0.002565919709264329 -0.00056916147937741937 0 0.0025604456994116499 -0.00057102830345738109 0 0.0025578921102504884 -0.00056692877565871517 0 0.0033710827624033315 -0.00029460778798711605 0 0.0032837581944273812 -0.00040714472189185084 0 0.0033087497896567017 -0.00047197552459169606 0 0.0030084017206660346 -0.00041809115704381273 0 0.0029623017620505946 -0.00040017504186180147 0 0.0029617248671627125 -0.00039142134065621247 0 0.0029464447332983486 -0.00043181680461719727 0 0.0026938733774205812 -0.00049299230124888959 0 0.0029464447332983486 -0.00043181680461719727 0 0.0025860694634962005 -0.00049845796146874696 0 0.002772089466455391 -0.00048449462203933961 0 0.0027712766433545832 -0.00046410140336989561 0 0.0027596271653350019 -0.00045729185958240105 0 0.0025575355720166854 -0.00057321069974887895 0 0.0025484331606601259 -0.00057301554952939287 0 0.0025480342400662367 -0.00056968529167954673 0 0.0021260777709662905 -0.0004671758566073705 0 0.0021278032131091264 -0.00046629306420522507 0 0.0021278927815838208 -0.00047120948575127291 0 0.0026938733774205812 -0.00049299230124888959 0 0.0024146251660028214 -0.00051526024477904385 0 0.0025486148842931784 -0.00046210100365827678 0 0.0025672984381253693 -0.00047358170477263689 0 0.0025483823995759215 -0.000496767508171377 0 0.0021275524370142807 -0.0004659657047975319 0 0.0021260777709662905 -0.0004671758566073705 0 0.0021278032131091264 -0.00046629306420522507 0 0.0026938733774205812 -0.00049299230124888959 0 0.0025860694634962005 -0.00049845796146874696 0 0.0025860694634962005 -0.00049845796146874696 0 0.0024146251660028214 -0.00051526024477904385 0 0.002323418353253007 -0.00042188928454275118 0 0.0023774720016077988 -0.00043833189788136786 0 0.0025860694634962005 -0.00049845796146874696 0 0.0023774720016077988 -0.00043833189788136786 0 0.0021266650379672238 -0.00047918741534670994 0 0.0021234540956267091 -0.00047943741502839418 0 0.0021214607822374679 -0.00047929082707863236 0 0.0021260777709662905 -0.0004671758566073705 0 0.0021214607822374679 -0.00047929082707863236 0 0.0021257546597752966 -0.00047494412513037453 0 0.0021260777709662905 -0.0004671758566073705 0 0.0021257546597752966 -0.00047494412513037453 0 0.0021278927815838208 -0.00047120948575127291 0 0.0024146251660028214 -0.00051526024477904385 0 0.002040417596875808 -0.00046027303302757159 0 0.0024146251660028214 -0.00051526024477904385 0 0.0023301923963866254 -0.0005264245176445719 0 0.0025480342400662367 -0.00056968529167954673 0 0.0025578921102504884 -0.00056692877565871517 0 0.0025547652319262374 -0.00055952215936087195 0 0.0025654079533405281 -0.00056122666500929899 0 0.0025578921102504884 -0.00056692877565871517 0 0.0025547652319262374 -0.00055952215936087195 0 0.0025654079533405281 -0.00056122666500929899 0 0.002565919709264329 -0.00056916147937741937 0 0.0025578921102504884 -0.00056692877565871517 0 0.0025654079533405281 -0.00056122666500929899 0 0.0025617299112522889 -0.00054827882044955175 0 0.0025547652319262374 -0.00055952215936087195 0 0.0021216074331449983 -0.00048159775022666107 0 0.0021234540956267091 -0.00047943741502839418 0 0.0021212298149716432 -0.00048176669990368141 0 0.0023459002174147725 -0.0005138726918367943 0 0.0023301923963866254 -0.0005264245176445719 0 0.0021234540956267091 -0.00047943741502839418 0 0.0021214607822374679 -0.00047929082707863236 0 0.0021212298149716432 -0.00048176669990368141 0 0.0021214607822374679 -0.00047929082707863236 0 0.0021177338873471373 -0.00048200510335435934 0 0.0021206127148502454 -0.00047889754567217291 0 0.0021214607822374679 -0.00047929082707863236 0 0.0021177338873471373 -0.00048200510335435934 0 0.0021212298149716432 -0.00048176669990368141 0 0.0021213251988180478 -0.00048329774099588752 0 0.0021212298149716432 -0.00048176669990368141 0 0.0021219528451513116 -0.00048661727443561644 0 0.0021177338873471373 -0.00048200510335435934 0 0.0021212298149716432 -0.00048176669990368141 0 0.0021219528451513116 -0.00048661727443561644 0 0.0021216074331449983 -0.00048159775022666107 0 0.0021213251988180478 -0.00048329774099588752 0 0.0021212298149716432 -0.00048176669990368141 0 0.0021177338873471373 -0.00048200510335435934 0 0.0021206127148502454 -0.00047889754567217291 0 0.0021097711519245774 -0.00047802902506167863 0 0.0021181778867405904 -0.00047488182525507713 0 0.0021206127148502454 -0.00047889754567217291 0 0.0021097711519245774 -0.00047802902506167863 0 0.0021181778867405904 -0.00047488182525507713 0 0.0021206127148502454 -0.00047889754567217291 0 0.002130760637625712 -0.00047484357213455503 0 0.0021206127148502454 -0.00047889754567217291 0 0.0021257546597752966 -0.00047494412513037453 0 0.002130760637625712 -0.00047484357213455503 0 0.0021214607822374679 -0.00047929082707863236 0 0.0021206127148502454 -0.00047889754567217291 0 0.0021257546597752966 -0.00047494412513037453 0 0.002130760637625712 -0.00047484357213455503 0 0.002138611584301391 -0.00047410126168159186 0 0.0021289499690403044 -0.00047334198631781139 0 0.0021181778867405904 -0.00047488182525507713 0 0.002130760637625712 -0.00047484357213455503 0 0.0021289499690403044 -0.00047334198631781139 0 0.0031925056335506971 -0.00028932782887302569 0 0.0032239782523192928 -0.00032579895534372158 0 0.002138611584301391 -0.00047410126168159186 0 0.0021439836782368741 -0.00047535586229165757 0 0.0021289499690403044 -0.00047334198631781139 0 0.002138611584301391 -0.00047410126168159186 0 0.0021439836782368741 -0.00047535586229165757 0 0.0021496096334780593 -0.00047562106346645043 0 0.0021257546597752966 -0.00047494412513037453 0 0.002130760637625712 -0.00047484357213455503 0 0.0021278927815838208 -0.00047120948575127291 0 0.0021365488037116023 -0.00047766010783336586 0 0.0021403344427023681 -0.00045704477266240241 0 0.002130760637625712 -0.00047484357213455503 0 0.002138611584301391 -0.00047410126168159186 0 0.0021469496850608644 -0.00047352349213519159 0 0.002138611584301391 -0.00047410126168159186 0 0.0021469496850608644 -0.00047352349213519159 0 0.0021496096334780593 -0.00047562106346645043 0 0.0021548570423911549 -0.00047578039881787453 0 0.0021469496850608644 -0.00047352349213519159 0 0.0021496096334780593 -0.00047562106346645043 0 0.0023774720016077988 -0.00043833189788136786 0 0.0021403344427023681 -0.00045704477266240241 0 0.0021618091483054862 -0.00047792810622751861 0 0.0021548570423911549 -0.00047578039881787453 0 0.0021496096334780593 -0.00047562106346645043 0 0.0021618091483054862 -0.00047792810622751861 0 0.0021566357430719543 -0.00047582937780697628 0 0.0021561750074143081 -0.00047586577786023191 0 0.0021618091483054862 -0.00047792810622751861 0 0.0021548570423911549 -0.00047578039881787453 0 0.0021561750074143081 -0.00047586577786023191 0 0.0021618091483054862 -0.00047792810622751861 0 0.0021439836782368741 -0.00047535586229165757 0 0.0021496096334780593 -0.00047562106346645043 0 0.0021548570423911549 -0.00047578039881787453 0 0.0021573820210125422 -0.00047593043603912099 0 0.0021469496850608644 -0.00047352349213519159 0 0.0042863579095000354 -1.4953939106524198e-05 0 0.0042745365971804143 -9.7208575344968846e-05 0 0.0043551683038906058 -8.3510561297710464e-05 0 0.0032988304723799624 -0.00019117762170756279 0 0.0031925056335506971 -0.00028932782887302569 0 0.0042863579095000354 -1.4953939106524198e-05 0 0.0041979039341991228 1.9907947653635906e-05 0 0.0042745365971804143 -9.7208575344968846e-05 0 0.004419241682855503 -4.38230863463486e-05 0 0.0044006106668001647 -8.6732179363536822e-05 0 0.0044375965983789083 -0.00010011804883843099 0 0.0043551683038906058 -8.3510561297710464e-05 0 0.004419241682855503 -4.38230863463486e-05 0 0.0044006106668001647 -8.6732179363536822e-05 0 0.0044006106668001647 -8.6732179363536822e-05 0 0.0043941765162619495 -0.00013512071363859968 0 0.0044375965983789083 -0.00010011804883843099 0 0.0043551683038906058 -8.3510561297710464e-05 0 0.0044006106668001647 -8.6732179363536822e-05 0 0.0043941765162619495 -0.00013512071363859968 0 0.0043941765162619495 -0.00013512071363859968 0 0.0044315799455853068 -0.00015022904267643396 0 0.0044375965983789083 -0.00010011804883843099 0 0.0042745365971804143 -9.7208575344968846e-05 0 0.0043551683038906058 -8.3510561297710464e-05 0 0.0043343225845184439 -0.00018671248293671458 0 0.0043551683038906058 -8.3510561297710464e-05 0 0.0043941765162619495 -0.00013512071363859968 0 0.0043343225845184439 -0.00018671248293671458 0 0.0043941765162619495 -0.00013512071363859968 0 0.0044010577755167505 -0.00019695126371931974 0 0.0044315799455853068 -0.00015022904267643396 0 0.0043941765162619495 -0.00013512071363859968 0 0.0043343225845184439 -0.00018671248293671458 0 0.0044010577755167505 -0.00019695126371931974 0 0.0043343225845184439 -0.00018671248293671458 0 0.0044010577755167505 -0.00019695126371931974 0 0.0043733086940878794 -0.00025648568233008906 0 0.0044010577755167505 -0.00019695126371931974 0 0.004408284134278853 -0.0002600211215574176 0 0.0043733086940878794 -0.00025648568233008906 0 0.0021181778867405904 -0.00047488182525507713 0 0.0021289499690403044 -0.00047334198631781139 0 0.0021246220222132955 -0.00047025216031987787 0 0.0032239782523192928 -0.00032579895534372158 0 0.003310012332483566 -0.00036924077957200608 0 0.0044376973833577145 1.6715412077258379e-05 0 0.0044648070848205467 2.3365884192047332e-05 0 0.0044320847271512526 1.7550060431185036e-05 0 0.0044170069643247115 3.507581317473983e-05 0 0.0044435858878529803 4.4112708712754045e-05 0 0.0043949807429044634 4.9637009502233065e-05 0 0.0044109335766396958 6.2455410135598048e-05 0 0.0044052543586015867 5.5942470685172804e-05 0 0.0043949807429044634 4.9637009502233065e-05 0 0.0044011301699799768 5.1848017906743981e-05 0 0.0044052543586015867 5.5942470685172804e-05 0 0.0043949807429044634 4.9637009502233065e-05 0 0.0044011301699799768 5.1848017906743981e-05 0 0.0043989064335586909 4.7891440822542619e-05 0 0.0044315930064701969 -0.00020871151206393248 0 0.004408284134278853 -0.0002600211215574176 0 0.00443897004504578 -0.00024627308011883478 0 0.0044315930064701969 -0.00020871151206393248 0 0.0044785215729256428 -0.00015937011774133197 0 0.00443897004504578 -0.00024627308011883478 0 0.0044541926907984038 -7.4709529070791144e-05 0 0.0045521703358056371 -9.2667084495231896e-05 0 0.0044010577755167505 -0.00019695126371931974 0 0.0044315930064701969 -0.00020871151206393248 0 0.004408284134278853 -0.0002600211215574176 0 0.0044315930064701969 -0.00020871151206393248 0 0.0044357736945494072 -0.00018088612828976873 0 0.0044785215729256428 -0.00015937011774133197 0 0.0044010577755167505 -0.00019695126371931974 0 0.0044315930064701969 -0.00020871151206393248 0 0.0044357736945494072 -0.00018088612828976873 0 0.0044010577755167505 -0.00019695126371931974 0 0.0044357736945494072 -0.00018088612828976873 0 0.0044315799455853068 -0.00015022904267643396 0 0.0044357736945494072 -0.00018088612828976873 0 0.0044315799455853068 -0.00015022904267643396 0 0.0044785215729256428 -0.00015937011774133197 0 0.0044376973833577145 1.6715412077258379e-05 0 0.0044648070848205467 2.3365884192047332e-05 0 0.0044756549230769984 2.4051260946244865e-05 0 0.0044435858878529803 4.4112708712754045e-05 0 0.004476333889611564 5.0615408424381726e-05 0 0.0044648070848205467 2.3365884192047332e-05 0 0.0044756549230769984 2.4051260946244865e-05 0 0.0045007609110545126 4.2801261767401672e-05 0 0.0044541926907984038 -7.4709529070791144e-05 0 0.0045105469086482398 -7.6373815457498675e-06 0 0.0044785215729256428 -0.00015937011774133197 0 0.004478237825372656 -9.2252408583057982e-05 0 0.0045148791252764614 -5.9817169376496613e-05 0 0.0044785215729256428 -0.00015937011774133197 0 0.0044564934039764015 -0.00012553404781994319 0 0.004478237825372656 -9.2252408583057982e-05 0 0.0044315799455853068 -0.00015022904267643396 0 0.0044564934039764015 -0.00012553404781994319 0 0.0044375965983789083 -0.00010011804883843099 0 0.0044315799455853068 -0.00015022904267643396 0 0.0044785215729256428 -0.00015937011774133197 0 0.0044564934039764015 -0.00012553404781994319 0 0.0044564934039764015 -0.00012553404781994319 0 0.0044375965983789083 -0.00010011804883843099 0 0.004478237825372656 -9.2252408583057982e-05 0 0.004419241682855503 -4.38230863463486e-05 0 0.0044375965983789083 -0.00010011804883843099 0 0.0044703437233561778 -5.2269315138507714e-05 0 0.0044375965983789083 -0.00010011804883843099 0 0.004478237825372656 -9.2252408583057982e-05 0 0.0044703437233561778 -5.2269315138507714e-05 0 0.004478237825372656 -9.2252408583057982e-05 0 0.0044703437233561778 -5.2269315138507714e-05 0 0.0045148791252764614 -5.9817169376496613e-05 0 0.0044703437233561778 -5.2269315138507714e-05 0 0.0045148791252764614 -5.9817169376496613e-05 0 0.0045014650481737667 -1.6624929953367837e-05 0 0.0044756549230769984 2.4051260946244865e-05 0 0.0045007609110545126 4.2801261767401672e-05 0 0.0045087681337816045 4.3895955631742114e-05 0 0.0045007609110545126 4.2801261767401672e-05 0 0.0045171514702219582 3.7409567988427627e-05 0 0.0045087681337816045 4.3895955631742114e-05 0 0.0045007609110545126 4.2801261767401672e-05 0 0.0045171514702219582 3.7409567988427627e-05 0 0.0045371936034281288 3.2642514545304961e-05 0 0.0045148791252764614 -5.9817169376496613e-05 0 0.0045371936034281288 3.2642514545304961e-05 0 0.0045014650481737667 -1.6624929953367837e-05 0 0.0045105469086482398 -7.6373815457498675e-06 0 0.0045325689990184876 2.9042459024209912e-05 0 0.0045171514702219582 3.7409567988427627e-05 0 0.0045280814386375236 3.1466981946430736e-05 0 0.0045172512525434565 3.4049704753839683e-05 0 0.0045171514702219582 3.7409567988427627e-05 0 0.0045280814386375236 3.1466981946430736e-05 0 0.0045371936034281288 3.2642514545304961e-05 0 0.0045280814386375236 3.1466981946430736e-05 0 0.0045381789129213378 3.7155123119909415e-05 0 0.0045371936034281288 3.2642514545304961e-05 0 0.0045371936034281288 3.2642514545304961e-05 0 0.004508394839568274 1.9409965680310165e-05 0 0.0045014650481737667 -1.6624929953367837e-05 0 0.0045309560984524953 4.8840522096642625e-05 0 0.0045371936034281288 3.2642514545304961e-05 0 0.004508394839568274 1.9409965680310165e-05 0 0.0045309560984524953 4.8840522096642625e-05 0 0.0045459997572008899 5.1057756336796797e-05 0 0.0045371936034281288 3.2642514545304961e-05 0 0.0045459997572008899 5.1057756336796797e-05 0 0.0045381789129213378 3.7155123119909415e-05 0 0.0045371936034281288 3.2642514545304961e-05 0 0.0045003208180496648 3.8483496371057183e-05 0 0.004463517669514091 2.6123689412971407e-05 0 0.0044766441644164892 6.6494870919403643e-05 0 0.0045309560984524953 4.8840522096642625e-05 0 0.0045003208180496648 3.8483496371057183e-05 0 0.004508394839568274 1.9409965680310165e-05 0 0.0045003208180496648 3.8483496371057183e-05 0 0.004508394839568274 1.9409965680310165e-05 0 0.0044696918082721719 -4.4840393764204725e-06 0 0.0045003208180496648 3.8483496371057183e-05 0 0.0044696918082721719 -4.4840393764204725e-06 0 0.004463517669514091 2.6123689412971407e-05 0 0.004508394839568274 1.9409965680310165e-05 0 0.0044696918082721719 -4.4840393764204725e-06 0 0.0045014650481737667 -1.6624929953367837e-05 0 0.0044703437233561778 -5.2269315138507714e-05 0 0.0044696918082721719 -4.4840393764204725e-06 0 0.0045014650481737667 -1.6624929953367837e-05 0 0.004419241682855503 -4.38230863463486e-05 0 0.0044703437233561778 -5.2269315138507714e-05 0 0.0044696918082721719 -4.4840393764204725e-06 0 0.004419241682855503 -4.38230863463486e-05 0 0.0043827477976472601 3.17796465049794e-06 0 0.0044297906651987297 9.8436093278175881e-06 0 0.004419241682855503 -4.38230863463486e-05 0 0.0044696918082721719 -4.4840393764204725e-06 0 0.0044297906651987297 9.8436093278175881e-06 0 0.0042863579095000354 -1.4953939106524198e-05 0 0.0043551683038906058 -8.3510561297710464e-05 0 0.0043459880289856397 4.9438267281554938e-05 0 0.0043648284120450208 -8.0697073873397095e-05 0 0.0043359887589168242 2.5782600966542194e-05 0 0.0043551683038906058 -8.3510561297710464e-05 0 0.004419241682855503 -4.38230863463486e-05 0 0.0043827477976472601 3.17796465049794e-06 0 0.0043827477976472601 3.17796465049794e-06 0 0.0044144535284400084 3.0060264142401064e-05 0 0.0044078172370183074 6.0385320993779495e-05 0 0.0043827477976472601 3.17796465049794e-06 0 0.0044078172370183074 6.0385320993779495e-05 0 0.004388073417735055 9.2726789564026064e-05 0 0.0043359887589168242 2.5782600966542194e-05 0 0.0045660797434696311 0.00013680005238191312 0 0.0044696918082721719 -4.4840393764204725e-06 0 0.004463517669514091 2.6123689412971407e-05 0 0.0044297906651987297 9.8436093278175881e-06 0 0.0043827477976472601 3.17796465049794e-06 0 0.0044297906651987297 9.8436093278175881e-06 0 0.0044144535284400084 3.0060264142401064e-05 0 0.0044297906651987297 9.8436093278175881e-06 0 0.0044144535284400084 3.0060264142401064e-05 0 0.0044372346803415877 4.8067099341868186e-05 0 0.0044144535284400084 3.0060264142401064e-05 0 0.0044372346803415877 4.8067099341868186e-05 0 0.0044078172370183074 6.0385320993779495e-05 0 0.004463517669514091 2.6123689412971407e-05 0 0.0044372346803415877 4.8067099341868186e-05 0 0.0044766441644164892 6.6494870919403643e-05 0 0.004463517669514091 2.6123689412971407e-05 0 0.0044297906651987297 9.8436093278175881e-06 0 0.0044372346803415877 4.8067099341868186e-05 0 0.0044367121243626614 8.057622127375928e-05 0 0.004388073417735055 9.2726789564026064e-05 0 0.0044714884229614862 0.0001257999460730843 0 0.0044367121243626614 8.057622127375928e-05 0 0.0044714884229614862 0.0001257999460730843 0 0.0044766441644164892 6.6494870919403643e-05 0 0.0044372346803415877 4.8067099341868186e-05 0 0.0044367121243626614 8.057622127375928e-05 0 0.0044766441644164892 6.6494870919403643e-05 0 0.0044372346803415877 4.8067099341868186e-05 0 0.0044367121243626614 8.057622127375928e-05 0 0.0044078172370183074 6.0385320993779495e-05 0 0.0043459880289856397 4.9438267281554938e-05 0 0.0043417639838611716 0.00018510819149903301 0 0.0043108474370374137 0.0001710597098758717 0 0.0044367121243626614 8.057622127375928e-05 0 0.0044078172370183074 6.0385320993779495e-05 0 0.004388073417735055 9.2726789564026064e-05 0 0.0046200083333462916 9.2138603749745813e-05 0 0.0046074734277147585 8.6562421078589493e-05 0 0.0046198799325339003 0.00011401865583707142 0 0.0045660797434696311 0.00013680005238191312 0 0.0044809374057220444 0.00010553248228689638 0 0.0047093910284369085 -1.3037882915978891e-06 0 0.004705588779341973 1.767918103598324e-05 0 0.0047018197278627626 4.0373857190795466e-06 0 0.0049374304937215658 0.00024812218276905757 0 0.0049428099735344018 0.00018001113746975313 0 0.0048128346432651081 0.0001969559974052572 0 0.0044809374057220444 0.00010553248228689638 0 0.0047594702940023156 7.104562369372844e-05 0 0.0045660797434696311 0.00013680005238191312 0 0.0047594702940023156 7.104562369372844e-05 0 0.004832932824215817 0.00010649514728251366 0 0.0049428099735344018 0.00018001113746975313 0 0.0048128346432651081 0.0001969559974052572 0 0.0045660797434696311 0.00013680005238191312 0 0.004661230182761573 0.0001663509453246977 0 0.0047374089359179701 0.00010379965626188267 0 0.004832932824215817 0.00010649514728251366 0 0.0048128346432651081 0.0001969559974052572 0 0.0046246784999932396 0.00013129130469738818 0 0.0044714884229614862 0.0001257999460730843 0 0.0045684371298070564 0.0001126296681503772 0 0.0046117556577381915 0.00013067650026945599 0 0.004661230182761573 0.0001663509453246977 0 0.0044714884229614862 0.0001257999460730843 0 0.0045684371298070564 0.0001126296681503772 0 0.0045343629987677509 7.7382810340888235e-05 0 0.0046246784999932396 0.00013129130469738818 0 0.0047374089359179701 0.00010379965626188267 0 0.0048128346432651081 0.0001969559974052572 0 0.0046246784999932396 0.00013129130469738818 0 0.0045684371298070564 0.0001126296681503772 0 0.0045991141271986774 0.00012252148757616293 0 0.0046246784999932396 0.00013129130469738818 0 0.0046071815179693125 0.00012524169958421044 0 0.0045991141271986774 0.00012252148757616293 0 0.0046071815179693125 0.00012524169958421044 0 0.0045907123488898791 0.00011711541404386566 0 0.0045991141271986774 0.00012252148757616293 0 0.0045684371298070564 0.0001126296681503772 0 0.0045907123488898791 0.00011711541404386566 0 0.0045991141271986774 0.00012252148757616293 0 0.0046071815179693125 0.00012524169958421044 0 0.0045907123488898791 0.00011711541404386566 0 0.0045936179134734752 0.00011788505794202011 0 0.0045907123488898791 0.00011711541404386566 0 0.0045936179134734752 0.00011788505794202011 0 0.004576059138628282 0.000100547084014979 0 0.0045936179134734752 0.00011788505794202011 0 0.004576059138628282 0.000100547084014979 0 0.0045888070494136367 0.00010957242643177737 0 0.0045684371298070564 0.0001126296681503772 0 0.004576059138628282 0.000100547084014979 0 0.0045343629987677509 7.7382810340888235e-05 0 0.0045684371298070564 0.0001126296681503772 0 0.0045907123488898791 0.00011711541404386566 0 0.004576059138628282 0.000100547084014979 0 0.004576059138628282 0.000100547084014979 0 0.0045540653693392774 7.1604629213706218e-05 0 0.0045343629987677509 7.7382810340888235e-05 0 0.004576059138628282 0.000100547084014979 0 0.0045540653693392774 7.1604629213706218e-05 0 0.0045729329655121364 8.7279859420588449e-05 0 0.0045540653693392774 7.1604629213706218e-05 0 0.0045601394675132446 6.843406021201047e-05 0 0.0045729329655121364 8.7279859420588449e-05 0 0.0045309560984524953 4.8840522096642625e-05 0 0.0045459997572008899 5.1057756336796797e-05 0 0.0045540653693392774 7.1604629213706218e-05 0 0.0045459997572008899 5.1057756336796797e-05 0 0.0045540653693392774 7.1604629213706218e-05 0 0.0045601394675132446 6.843406021201047e-05 0 0.0045309560984524953 4.8840522096642625e-05 0 0.0045540653693392774 7.1604629213706218e-05 0 0.0045343629987677509 7.7382810340888235e-05 0 0.0044714884229614862 0.0001257999460730843 0 0.0044766441644164892 6.6494870919403643e-05 0 0.0045343629987677509 7.7382810340888235e-05 0 0.0045309560984524953 4.8840522096642625e-05 0 0.0045003208180496648 3.8483496371057183e-05 0 0.0045343629987677509 7.7382810340888235e-05 0 0.0045003208180496648 3.8483496371057183e-05 0 0.0044766441644164892 6.6494870919403643e-05 0 0.0045343629987677509 7.7382810340888235e-05 0 0.0045290320969502331 2.2486114747824792e-05 0 0.0044907574775945383 4.030328791400182e-05 0 0.0046039778810889279 8.8494344823862941e-05 0 0.0046030762082191062 6.2214906329160401e-05 0 0.0046286609836283348 9.0699154880829197e-05 0 0.0044496656747424167 -2.1688132606183402e-05 0 0.0044125073487558788 -4.4760118934969314e-05 0 0.0044128983411766756 -1.7485349086498016e-05 0 0.0046039778810889279 8.8494344823862941e-05 0 0.0046030762082191062 6.2214906329160401e-05 0 0.004580715205745118 7.8567615960104694e-05 0 0.0046030762082191062 6.2214906329160401e-05 0 0.004580715205745118 7.8567615960104694e-05 0 0.0045540909767345459 5.4124834615019917e-05 0 0.0045459997572008899 5.1057756336796797e-05 0 0.0045601394675132446 6.843406021201047e-05 0 0.0045540909767345459 5.4124834615019917e-05 0 0.0045601394675132446 6.843406021201047e-05 0 0.004580715205745118 7.8567615960104694e-05 0 0.0045540909767345459 5.4124834615019917e-05 0 0.0045601394675132446 6.843406021201047e-05 0 0.0045729329655121364 8.7279859420588449e-05 0 0.004580715205745118 7.8567615960104694e-05 0 0.0045729329655121364 8.7279859420588449e-05 0 0.004580715205745118 7.8567615960104694e-05 0 0.0045913938519292841 9.5941741396446279e-05 0 0.0046039778810889279 8.8494344823862941e-05 0 0.004580715205745118 7.8567615960104694e-05 0 0.0045913938519292841 9.5941741396446279e-05 0 0.0045893154738288243 0.00011233889327325885 0 0.0045888070494136367 0.00010957242643177737 0 0.0046023760368121384 0.0001099824288527209 0 0.0045913938519292841 9.5941741396446279e-05 0 0.0045888070494136367 0.00010957242643177737 0 0.0046023760368121384 0.0001099824288527209 0 0.0045893154738288243 0.00011233889327325885 0 0.0045936179134734752 0.00011788505794202011 0 0.0045888070494136367 0.00010957242643177737 0 0.0045729329655121364 8.7279859420588449e-05 0 0.0045913938519292841 9.5941741396446279e-05 0 0.0045888070494136367 0.00010957242643177737 0 0.004576059138628282 0.000100547084014979 0 0.0045729329655121364 8.7279859420588449e-05 0 0.0045888070494136367 0.00010957242643177737 0 0.0046039778810889279 8.8494344823862941e-05 0 0.0045913938519292841 9.5941741396446279e-05 0 0.0046023760368121384 0.0001099824288527209 0 0.0045952071618372793 9.8806049208410339e-05 0 0.0044907574775945383 4.030328791400182e-05 0 0.0046039778810889279 8.8494344823862941e-05 0 0.0046023760368121384 0.0001099824288527209 0 0.0046286609836283348 9.0699154880829197e-05 0 0.0043638459584498706 -3.3266526769262497e-05 0 0.0044907574775945383 4.030328791400182e-05 0 0.0043680928954722325 -7.6828172559008617e-05 0 0.0044105430629641168 -4.1972010942889875e-05 0 0.0044004314239952588 -3.2848145609488139e-05 0 0.0044889310161409747 4.4212078291044752e-05 0 0.004600420029988575 7.2653630175494223e-05 0 0.0045177266984711487 0.00014924647131309284 0 0.0043794638147107087 3.3624290406981911e-05 0 0.0044889310161409747 4.4212078291044752e-05 0 0.0045177266984711487 0.00014924647131309284 0 0.004337715942579509 -4.7473013966189571e-05 0 0.0043532405083853499 -4.9208624727918564e-06 0 0.0043277927962348216 -1.7666719998353503e-05 0 0.0043638459584498706 -3.3266526769262497e-05 0 0.0043647622904829167 -2.0046107787013724e-05 0 0.0043680928954722325 -7.6828172559008617e-05 0 0.0043781876573484035 -2.380862209859076e-05 0 0.0044004314239952588 -3.2848145609488139e-05 0 0.0043532405083853499 -4.9208624727918564e-06 0 0.0043606871248842967 2.1368081687292018e-05 0 0.0043277927962348216 -1.7666719998353503e-05 0 0.0037728351420156696 -4.078065885013081e-05 0 0.0037921717537307562 3.1112474432588528e-05 0 0.0044125073487558788 -4.4760118934969314e-05 0 0.0044004314239952588 -3.2848145609488139e-05 0 0.0044128983411766756 -1.7485349086498016e-05 0 0.0044907574775945383 4.030328791400182e-05 0 0.0044530910170139763 1.3696678105511298e-05 0 0.0044004314239952588 -3.2848145609488139e-05 0 0.004398036013111283 -1.7781321014075515e-05 0 0.0044128983411766756 -1.7485349086498016e-05 0 0.0043781876573484035 -2.380862209859076e-05 0 0.0044004314239952588 -3.2848145609488139e-05 0 0.004398036013111283 -1.7781321014075515e-05 0 0.0043781876573484035 -2.380862209859076e-05 0 0.004398036013111283 -1.7781321014075515e-05 0 0.0044009458584675304 3.8020691217046006e-06 0 0.0044128983411766756 -1.7485349086498016e-05 0 0.0044009458584675304 3.8020691217046006e-06 0 0.004423153194127334 3.7543248335093243e-06 0 0.0043781876573484035 -2.380862209859076e-05 0 0.0044009458584675304 3.8020691217046006e-06 0 0.0043881884046469794 3.8670930761403376e-05 0 0.004398036013111283 -1.7781321014075515e-05 0 0.0044128983411766756 -1.7485349086498016e-05 0 0.0044009458584675304 3.8020691217046006e-06 0 0.0044009458584675304 3.8020691217046006e-06 0 0.0044153392571551139 3.0148856211521333e-05 0 0.004423153194127334 3.7543248335093243e-06 0 0.0043647622904829167 -2.0046107787013724e-05 0 0.0043868417596286263 4.0807018286679345e-05 0 0.0043532405083853499 -4.9208624727918564e-06 0 0.0043606871248842967 2.1368081687292018e-05 0 0.0043881884046469794 3.8670930761403376e-05 0 0.0031763496160436442 -6.1162405884033572e-05 0 0.0032217552562251632 -3.2433882955275449e-05 0 0.0032067730591062368 4.7313402297811952e-05 0 0.0031763496160436442 -6.1162405884033572e-05 0 0.0031881839156388731 -6.7304674342788333e-05 0 0.0032217552562251632 -3.2433882955275449e-05 0 0.0031763496160436442 -6.1162405884033572e-05 0 0.003181054293490007 -6.9546700968083628e-05 0 0.0031881839156388731 -6.7304674342788333e-05 0 0.003181054293490007 -6.9546700968083628e-05 0 0.003176412066702414 -6.7639798581795114e-05 0 0.0031881839156388731 -6.7304674342788333e-05 0 0.0037728351420156696 -4.078065885013081e-05 0 0.0040566761356888364 8.8447015341830151e-06 0 0.0043606871248842967 2.1368081687292018e-05 0 0.0043844506375312715 4.2174034632596947e-05 0 0.0043881884046469794 3.8670930761403376e-05 0 0.0044009458584675304 3.8020691217046006e-06 0 0.0044153392571551139 3.0148856211521333e-05 0 0.0043881884046469794 3.8670930761403376e-05 0 0.0043881884046469794 3.8670930761403376e-05 0 0.0044155650620738328 5.2095965864729114e-05 0 0.0044019835162296727 5.806517067052837e-05 0 0.0043844506375312715 4.2174034632596947e-05 0 0.0043881884046469794 3.8670930761403376e-05 0 0.0044019835162296727 5.806517067052837e-05 0 0.0044153392571551139 3.0148856211521333e-05 0 0.0044155650620738328 5.2095965864729114e-05 0 0.0044265292819252577 4.297252647780867e-05 0 0.0044153392571551139 3.0148856211521333e-05 0 0.0043881884046469794 3.8670930761403376e-05 0 0.0044155650620738328 5.2095965864729114e-05 0 0.0044155650620738328 5.2095965864729114e-05 0 0.0044265292819252577 4.297252647780867e-05 0 0.0044370617345568806 4.9863197401857976e-05 0 0.0044265292819252577 4.297252647780867e-05 0 0.0044370617345568806 4.9863197401857976e-05 0 0.0044427764764714776 3.8618629680250983e-05 0 0.0044370617345568806 4.9863197401857976e-05 0 0.0044481112592055349 4.6772172118375446e-05 0 0.0044506146285324321 5.4709246183285259e-05 0 0.0044370617345568806 4.9863197401857976e-05 0 0.0044481112592055349 4.6772172118375446e-05 0 0.0044427764764714776 3.8618629680250983e-05 0 0.0044427764764714776 3.8618629680250983e-05 0 0.0044668443473445283 2.7540798476001613e-05 0 0.0044602078423898834 4.1519508348005699e-05 0 0.0044481112592055349 4.6772172118375446e-05 0 0.0044427764764714776 3.8618629680250983e-05 0 0.0044602078423898834 4.1519508348005699e-05 0 0.0044153392571551139 3.0148856211521333e-05 0 0.0044427764764714776 3.8618629680250983e-05 0 0.0044415164996439343 2.006569449031276e-05 0 0.0044153392571551139 3.0148856211521333e-05 0 0.0044265292819252577 4.297252647780867e-05 0 0.0044427764764714776 3.8618629680250983e-05 0 0.0044153392571551139 3.0148856211521333e-05 0 0.0044415164996439343 2.006569449031276e-05 0 0.004423153194127334 3.7543248335093243e-06 0 0.0044496656747424167 -2.1688132606183402e-05 0 0.0044415164996439343 2.006569449031276e-05 0 0.0044668443473445283 2.7540798476001613e-05 0 0.0044427764764714776 3.8618629680250983e-05 0 0.0044415164996439343 2.006569449031276e-05 0 0.0044668443473445283 2.7540798476001613e-05 0 0.0044496656747424167 -2.1688132606183402e-05 0 0.0044415164996439343 2.006569449031276e-05 0 0.004423153194127334 3.7543248335093243e-06 0 0.0044496656747424167 -2.1688132606183402e-05 0 0.0044128983411766756 -1.7485349086498016e-05 0 0.004423153194127334 3.7543248335093243e-06 0 0.0045381789129213378 3.7155123119909415e-05 0 0.0045540909767345459 5.4124834615019917e-05 0 0.0045260850173659065 2.5936581564605511e-05 0 0.0045459997572008899 5.1057756336796797e-05 0 0.0045381789129213378 3.7155123119909415e-05 0 0.0045540909767345459 5.4124834615019917e-05 0 0.0046030762082191062 6.2214906329160401e-05 0 0.0045540909767345459 5.4124834615019917e-05 0 0.0045260850173659065 2.5936581564605511e-05 0 0.0044496656747424167 -2.1688132606183402e-05 0 0.0045260850173659065 2.5936581564605511e-05 0 0.0045108503305756774 2.5990479231996002e-05 0 0.0044496656747424167 -2.1688132606183402e-05 0 0.0044668443473445283 2.7540798476001613e-05 0 0.0045108503305756774 2.5990479231996002e-05 0 0.0045290320969502331 2.2486114747824792e-05 0 0.0045279481718907217 2.5898474447666442e-05 0 0.0045260850173659065 2.5936581564605511e-05 0 0.0045108503305756774 2.5990479231996002e-05 0 0.0045230497148954956 2.9553560464658055e-05 0 0.0045108503305756774 2.5990479231996002e-05 0 0.0045230497148954956 2.9553560464658055e-05 0 0.0045172512525434565 3.4049704753839683e-05 0 0.0045280814386375236 3.1466981946430736e-05 0 0.0045381789129213378 3.7155123119909415e-05 0 0.0045260850173659065 2.5936581564605511e-05 0 0.0045280814386375236 3.1466981946430736e-05 0 0.0045230497148954956 2.9553560464658055e-05 0 0.0045172512525434565 3.4049704753839683e-05 0 0.0045280814386375236 3.1466981946430736e-05 0 0.0045260850173659065 2.5936581564605511e-05 0 0.0045230497148954956 2.9553560464658055e-05 0 0.0045034310502290367 2.5118927983753682e-05 0 0.004476333889611564 5.0615408424381726e-05 0 0.0045108503305756774 2.5990479231996002e-05 0 0.0044698007495859301 4.4721904388500925e-05 0 0.0044414486329939539 6.3618684355615118e-05 0 0.0045171514702219582 3.7409567988427627e-05 0 0.0045172512525434565 3.4049704753839683e-05 0 0.0045087681337816045 4.3895955631742114e-05 0 0.0045108503305756774 2.5990479231996002e-05 0 0.0045172512525434565 3.4049704753839683e-05 0 0.0045087681337816045 4.3895955631742114e-05 0 0.0044668443473445283 2.7540798476001613e-05 0 0.0045108503305756774 2.5990479231996002e-05 0 0.0044698007495859301 4.4721904388500925e-05 0 0.0044668443473445283 2.7540798476001613e-05 0 0.0044698007495859301 4.4721904388500925e-05 0 0.0044602078423898834 4.1519508348005699e-05 0 0.0044698007495859301 4.4721904388500925e-05 0 0.0044602078423898834 4.1519508348005699e-05 0 0.0044506146285324321 5.4709246183285259e-05 0 0.0044698007495859301 4.4721904388500925e-05 0 0.0044506146285324321 5.4709246183285259e-05 0 0.0044414486329939539 6.3618684355615118e-05 0 0.0044481112592055349 4.6772172118375446e-05 0 0.0044602078423898834 4.1519508348005699e-05 0 0.0044506146285324321 5.4709246183285259e-05 0 0.0044506146285324321 5.4709246183285259e-05 0 0.0044414486329939539 6.3618684355615118e-05 0 0.0044362053736003142 6.0713232957277966e-05 0 0.0044414486329939539 6.3618684355615118e-05 0 0.0044362053736003142 6.0713232957277966e-05 0 0.0044328032686879338 6.2822594902319886e-05 0 0.0044362053736003142 6.0713232957277966e-05 0 0.0044328032686879338 6.2822594902319886e-05 0 0.0044273805931607721 6.3314334506774775e-05 0 0.0044414486329939539 6.3618684355615118e-05 0 0.0044328032686879338 6.2822594902319886e-05 0 0.0044252572995341685 6.3412705024821193e-05 0 0.0044155650620738328 5.2095965864729114e-05 0 0.0044312748906846439 5.7563054475100548e-05 0 0.0044210147083575931 6.110697224923897e-05 0 0.0044155650620738328 5.2095965864729114e-05 0 0.0044370617345568806 4.9863197401857976e-05 0 0.0044312748906846439 5.7563054475100548e-05 0 0.0044370617345568806 4.9863197401857976e-05 0 0.0044506146285324321 5.4709246183285259e-05 0 0.0044312748906846439 5.7563054475100548e-05 0 0.0044506146285324321 5.4709246183285259e-05 0 0.0044362053736003142 6.0713232957277966e-05 0 0.0044312748906846439 5.7563054475100548e-05 0 0.0044362053736003142 6.0713232957277966e-05 0 0.0044210147083575931 6.110697224923897e-05 0 0.0044273805931607721 6.3314334506774775e-05 0 0.0044362053736003142 6.0713232957277966e-05 0 0.0044312748906846439 5.7563054475100548e-05 0 0.0044210147083575931 6.110697224923897e-05 0 0.0044210147083575931 6.110697224923897e-05 0 0.0044186817205110872 6.3752546704879767e-05 0 0.0044138803452823472 6.3044646661873112e-05 0 0.0044273805931607721 6.3314334506774775e-05 0 0.0044186817205110872 6.3752546704879767e-05 0 0.0044207136550751336 6.3348950974317079e-05 0 0.0044210147083575931 6.110697224923897e-05 0 0.0044273805931607721 6.3314334506774775e-05 0 0.0044186817205110872 6.3752546704879767e-05 0 0.0044186817205110872 6.3752546704879767e-05 0 0.0044207136550751336 6.3348950974317079e-05 0 0.0044148258313771024 6.2745637131489504e-05 0 0.0044186817205110872 6.3752546704879767e-05 0 0.0044118792489892629 6.336554665294474e-05 0 0.0044138803452823472 6.3044646661873112e-05 0 0.0044186817205110872 6.3752546704879767e-05 0 0.0044148258313771024 6.2745637131489504e-05 0 0.0044118792489892629 6.336554665294474e-05 0 0.0044109335766396958 6.2455410135598048e-05 0 0.0044414486329939539 6.3618684355615118e-05 0 0.0044252572995341685 6.3412705024821193e-05 0 0.0044328032686879338 6.2822594902319886e-05 0 0.0044273805931607721 6.3314334506774775e-05 0 0.0044252572995341685 6.3412705024821193e-05 0 0.0044273805931607721 6.3314334506774775e-05 0 0.0044252572995341685 6.3412705024821193e-05 0 0.0044207136550751336 6.3348950974317079e-05 0 0.0044207136550751336 6.3348950974317079e-05 0 0.0044160097837868291 6.2106354846616302e-05 0 0.0044148258313771024 6.2745637131489504e-05 0 0.0044252572995341685 6.3412705024821193e-05 0 0.0044207136550751336 6.3348950974317079e-05 0 0.0044160097837868291 6.2106354846616302e-05 0 0.0044109335766396958 6.2455410135598048e-05 0 0.0044252572995341685 6.3412705024821193e-05 0 0.0044160097837868291 6.2106354846616302e-05 0 0.0044109335766396958 6.2455410135598048e-05 0 0.004410970879165226 5.9735840000768727e-05 0 0.0044160097837868291 6.2106354846616302e-05 0 0.004410970879165226 5.9735840000768727e-05 0 0.0044100807320112782 5.9292684256880297e-05 0 0.0044052543586015867 5.5942470685172804e-05 0 0.0044109335766396958 6.2455410135598048e-05 0 0.004410970879165226 5.9735840000768727e-05 0 0.0044052543586015867 5.5942470685172804e-05 0 0.004410970879165226 5.9735840000768727e-05 0 0.0044100807320112782 5.9292684256880297e-05 0 0.0044160097837868291 6.2106354846616302e-05 0 0.0044100807320112782 5.9292684256880297e-05 0 0.0044160097837868291 6.2106354846616302e-05 0 0.0044148258313771024 6.2745637131489504e-05 0 0.0044100807320112782 5.9292684256880297e-05 0 0.0044148258313771024 6.2745637131489504e-05 0 0.0044089626535179305 6.1559631999963917e-05 0 0.0044100807320112782 5.9292684256880297e-05 0 0.0044056870343365476 5.6671689472735266e-05 0 0.0044089626535179305 6.1559631999963917e-05 0 0.0044148258313771024 6.2745637131489504e-05 0 0.0044089626535179305 6.1559631999963917e-05 0 0.0044118792489892629 6.336554665294474e-05 0 0.0044056870343365476 5.6671689472735266e-05 0 0.0044038420456556961 5.3533426131060753e-05 0 0.0043998396526752706 4.9534595927740691e-05 0 0.0044100807320112782 5.9292684256880297e-05 0 0.0044056870343365476 5.6671689472735266e-05 0 0.0044038420456556961 5.3533426131060753e-05 0 0.0044038420456556961 5.3533426131060753e-05 0 0.0044011301699799768 5.1848017906743981e-05 0 0.0044052543586015867 5.5942470685172804e-05 0 0.0044038420456556961 5.3533426131060753e-05 0 0.0044011301699799768 5.1848017906743981e-05 0 0.0043989064335586909 4.7891440822542619e-05 0 0.0044100807320112782 5.9292684256880297e-05 0 0.0044038420456556961 5.3533426131060753e-05 0 0.0044052543586015867 5.5942470685172804e-05 0 0.003152515233264618 -7.7736632369031219e-05 0 0.0032267685870880909 6.9602976105207962e-05 0 0.0030912112067894822 5.3863087382470111e-05 0 0.003152515233264618 -7.7736632369031219e-05 0 0.0030274277901527918 -5.8098834015053571e-05 0 0.0030912112067894822 5.3863087382470111e-05 0 0.0044056870343365476 5.6671689472735266e-05 0 0.0044055892499002712 6.1021138303757543e-05 0 0.004403158035455425 5.0856738259615396e-05 0 0.003811131395592659 -8.4515954169531763e-06 0 0.0038954579080529472 9.0017928783936657e-05 0 0.0044056870343365476 5.6671689472735266e-05 0 0.0044055892499002712 6.1021138303757543e-05 0 0.0044089626535179305 6.1559631999963917e-05 0 0.0044055892499002712 6.1021138303757543e-05 0 0.0044089626535179305 6.1559631999963917e-05 0 0.0044062475646385142 6.2596327796037054e-05 0 0.0044089626535179305 6.1559631999963917e-05 0 0.0044062475646385142 6.2596327796037054e-05 0 0.0044118792489892629 6.336554665294474e-05 0 0.0044055892499002712 6.1021138303757543e-05 0 0.0044062475646385142 6.2596327796037054e-05 0 0.0043969538301635866 6.2231915819981274e-05 0 0.0033697415519229239 -4.2957992695723531e-05 0 0.0029885821371090928 -4.8471956193198944e-05 0 0.003152515233264618 -7.7736632369031219e-05 0 0.0030843247946168622 -0.00021792557483021655 0 0.0030274277901527918 -5.8098834015053571e-05 0 0.003811131395592659 -8.4515954169531763e-06 0 0.0033697415519229239 -4.2957992695723531e-05 0 0.0043969538301635866 6.2231915819981274e-05 0 0.0044073492410286273 6.2783921939277157e-05 0 0.0044023191599528314 6.0864582146607719e-05 0 0.0044062475646385142 6.2596327796037054e-05 0 0.0043969538301635866 6.2231915819981274e-05 0 0.0044073492410286273 6.2783921939277157e-05 0 0.0043969538301635866 6.2231915819981274e-05 0 0.0044023191599528314 6.0864582146607719e-05 0 0.0043972882506817757 5.8917840685514128e-05 0 0.0033697415519229239 -4.2957992695723531e-05 0 0.0037780256666504995 3.1709537943806152e-06 0 0.0044118792489892629 6.336554665294474e-05 0 0.0044073492410286273 6.2783921939277157e-05 0 0.0044138803452823472 6.3044646661873112e-05 0 0.0044062475646385142 6.2596327796037054e-05 0 0.0044118792489892629 6.336554665294474e-05 0 0.0044073492410286273 6.2783921939277157e-05 0 0.0044073492410286273 6.2783921939277157e-05 0 0.0044098384804897748 6.1256550072073839e-05 0 0.0044023191599528314 6.0864582146607719e-05 0 0.0044073492410286273 6.2783921939277157e-05 0 0.0044138803452823472 6.3044646661873112e-05 0 0.0044098384804897748 6.1256550072073839e-05 0 0.0044210147083575931 6.110697224923897e-05 0 0.0044138803452823472 6.3044646661873112e-05 0 0.0044098384804897748 6.1256550072073839e-05 0 0.0044098384804897748 6.1256550072073839e-05 0 0.0044023191599528314 6.0864582146607719e-05 0 0.0044019835162296727 5.806517067052837e-05 0 0.0040566761356888364 8.8447015341830151e-06 0 0.0043629143667140019 0.0001118754006040024 0 0.0044155650620738328 5.2095965864729114e-05 0 0.0044210147083575931 6.110697224923897e-05 0 0.0044098384804897748 6.1256550072073839e-05 0 0.0044155650620738328 5.2095965864729114e-05 0 0.0044098384804897748 6.1256550072073839e-05 0 0.0044019835162296727 5.806517067052837e-05 0 0.0040566761356888364 8.8447015341830151e-06 0 0.0037780256666504995 3.1709537943806152e-06 0 0.003181054293490007 -6.9546700968083628e-05 0 0.003176412066702414 -6.7639798581795114e-05 0 0.003187785203185748 -4.8928816115969831e-05 0 0.0031788057135649782 -1.3981934214269932e-05 0 0.003187785203185748 -4.8928816115969831e-05 0 0.0031473213778396127 -6.6435982357411952e-05 0 0.0043965963306745902 5.1753803091742769e-05 0 0.0044019835162296727 5.806517067052837e-05 0 0.0043972882506817757 5.8917840685514128e-05 0 0.003176412066702414 -6.7639798581795114e-05 0 0.003187785203185748 -4.8928816115969831e-05 0 0.0031473213778396127 -6.6435982357411952e-05 0 0.0044023191599528314 6.0864582146607719e-05 0 0.0044019835162296727 5.806517067052837e-05 0 0.0043972882506817757 5.8917840685514128e-05 0 0.0031473213778396127 -6.6435982357411952e-05 0 0.0031183922498959535 -6.1919217466803518e-05 0 0.0030753433772934408 -6.2407851182354174e-05 0 0.0030671366767385049 -6.1271763121264602e-05 0 0.0031473213778396127 -6.6435982357411952e-05 0 0.0030753433772934408 -6.2407851182354174e-05 0 0.0033697415519229239 -4.2957992695723531e-05 0 0.0030722013681859519 -8.39391948171505e-05 0 0.0031183922498959535 -6.1919217466803518e-05 0 0.0030060192132901806 -5.416117277885232e-05 0 0.0030753433772934408 -6.2407851182354174e-05 0 0.0030060192132901806 -5.416117277885232e-05 0 0.0030753433772934408 -6.2407851182354174e-05 0 0.0030238828636017972 -5.0518671218716581e-05 0 0.0030671366767385049 -6.1271763121264602e-05 0 0.0030753433772934408 -6.2407851182354174e-05 0 0.0030238828636017972 -5.0518671218716581e-05 0 0.0030238828636017972 -5.0518671218716581e-05 0 0.0029397725775566976 -2.8615409461692711e-05 0 0.0030208574793548254 -1.8550612913121606e-05 0 0.0030671366767385049 -6.1271763121264602e-05 0 0.0030238828636017972 -5.0518671218716581e-05 0 0.0030208574793548254 -1.8550612913121606e-05 0 0.0030060192132901806 -5.416117277885232e-05 0 0.0030238828636017972 -5.0518671218716581e-05 0 0.0029397725775566976 -2.8615409461692711e-05 0 0.0030060192132901806 -5.416117277885232e-05 0 0.0029397725775566976 -2.8615409461692711e-05 0 0.0028356584705558048 -2.9505949917638851e-05 0 0.0029397725775566976 -2.8615409461692711e-05 0 0.0029177998839186414 2.0615142684176772e-05 0 0.0028214782948238061 4.9541887144367601e-06 0 0.0029397725775566976 -2.8615409461692711e-05 0 0.0029177998839186414 2.0615142684176772e-05 0 0.0030208574793548254 -1.8550612913121606e-05 0 0.0029177998839186414 2.0615142684176772e-05 0 0.0030208574793548254 -1.8550612913121606e-05 0 0.0029619846572622676 0.00010780991501816022 0 0.0025474130385771654 -1.5987339791489493e-07 0 0.0028356584705558048 -2.9505949917638851e-05 0 0.0026633313086527107 3.1160786247673799e-05 0 0.0029397725775566976 -2.8615409461692711e-05 0 0.0028214782948238061 4.9541887144367601e-06 0 0.0028356584705558048 -2.9505949917638851e-05 0 0.0028214782948238061 4.9541887144367601e-06 0 0.0028356584705558048 -2.9505949917638851e-05 0 0.0026633313086527107 3.1160786247673799e-05 0 0.0025474130385771654 -1.5987339791489493e-07 0 0.0028356584705558048 -2.9505949917638851e-05 0 0.0028421085018431333 -4.8587180975606144e-08 0 0.0028356584705558048 -2.9505949917638851e-05 0 0.0028421085018431333 -4.8587180975606144e-08 0 0.003038609824483209 -3.8952955786355954e-05 0 0.0030060192132901806 -5.416117277885232e-05 0 0.0028356584705558048 -2.9505949917638851e-05 0 0.003038609824483209 -3.8952955786355954e-05 0 0.0031183922498959535 -6.1919217466803518e-05 0 0.003038609824483209 -3.8952955786355954e-05 0 0.0032001955917563166 -5.0200550657595633e-05 0 0.0031183922498959535 -6.1919217466803518e-05 0 0.0030060192132901806 -5.416117277885232e-05 0 0.003038609824483209 -3.8952955786355954e-05 0 0.003038609824483209 -3.8952955786355954e-05 0 0.0031367068568405434 -8.5986146855503555e-08 0 0.0032001955917563166 -5.0200550657595633e-05 0 0.0028421085018431333 -4.8587180975606144e-08 0 0.003038609824483209 -3.8952955786355954e-05 0 0.0031367068568405434 -8.5986146855503555e-08 0 0.0031367068568405434 -8.5986146855503555e-08 0 0.0032972100755942505 -2.4429428515825633e-05 0 0.0032001955917563166 -5.0200550657595633e-05 0 0.0034313240859431648 -3.6982458353655321e-08 0 0.0032972100755942505 -2.4429428515825633e-05 0 0.0034863187848943574 -3.299196648543615e-06 0 0.0031367068568405434 -8.5986146855503555e-08 0 0.0034313240859431648 -3.6982458353655321e-08 0 0.0032972100755942505 -2.4429428515825633e-05 0 0.0032972100755942505 -2.4429428515825633e-05 0 0.0032001955917563166 -5.0200550657595633e-05 0 0.0033328786561459957 -3.6484569167227311e-05 0 0.0032972100755942505 -2.4429428515825633e-05 0 0.0033328786561459957 -3.6484569167227311e-05 0 0.0034863187848943574 -3.299196648543615e-06 0 0.0032001955917563166 -5.0200550657595633e-05 0 0.0032028772182921307 -6.2739058125927625e-05 0 0.0033328786561459957 -3.6484569167227311e-05 0 0.0031473213778396127 -6.6435982357411952e-05 0 0.0031183922498959535 -6.1919217466803518e-05 0 0.0032028772182921307 -6.2739058125927625e-05 0 0.0031183922498959535 -6.1919217466803518e-05 0 0.0032001955917563166 -5.0200550657595633e-05 0 0.0032028772182921307 -6.2739058125927625e-05 0 0.0031473213778396127 -6.6435982357411952e-05 0 0.0032028772182921307 -6.2739058125927625e-05 0 0.0031881839156388731 -6.7304674342788333e-05 0 0.003176412066702414 -6.7639798581795114e-05 0 0.0031473213778396127 -6.6435982357411952e-05 0 0.0031881839156388731 -6.7304674342788333e-05 0 0.0032028772182921307 -6.2739058125927625e-05 0 0.0031881839156388731 -6.7304674342788333e-05 0 0.0032507673796705978 -4.2457757350836996e-05 0 0.0031881839156388731 -6.7304674342788333e-05 0 0.0032507673796705978 -4.2457757350836996e-05 0 0.0032217552562251632 -3.2433882955275449e-05 0 0.0032507673796705978 -4.2457757350836996e-05 0 0.0032217552562251632 -3.2433882955275449e-05 0 0.0032951938694998355 -9.5448247142323819e-07 0 0.0032028772182921307 -6.2739058125927625e-05 0 0.0032507673796705978 -4.2457757350836996e-05 0 0.0033328786561459957 -3.6484569167227311e-05 0 0.0032507673796705978 -4.2457757350836996e-05 0 0.0033328786561459957 -3.6484569167227311e-05 0 0.0032951938694998355 -9.5448247142323819e-07 0 0.0033328786561459957 -3.6484569167227311e-05 0 0.0034553755158949792 1.8584501492583331e-05 0 0.0032951938694998355 -9.5448247142323819e-07 0 0.0034553755158949792 1.8584501492583331e-05 0 0.0032951938694998355 -9.5448247142323819e-07 0 0.00329737088026304 9.5316468382770916e-05 0 0.0032217552562251632 -3.2433882955275449e-05 0 0.0032951938694998355 -9.5448247142323819e-07 0 0.0032067730591062368 4.7313402297811952e-05 0 0.0032951938694998355 -9.5448247142323819e-07 0 0.0032067730591062368 4.7313402297811952e-05 0 0.00329737088026304 9.5316468382770916e-05 0 0.0043044838858706776 -5.5925608806404416e-05 0 0.004337715942579509 -4.7473013966189571e-05 0 0.0043277927962348216 -1.7666719998353503e-05 0 0.0032890741460217519 0.00026588104933297145 0 0.0032067730591062368 4.7313402297811952e-05 0 0.00329737088026304 9.5316468382770916e-05 0 0.0032890741460217519 0.00026588104933297145 0 0.00329737088026304 9.5316468382770916e-05 0 0.0033612383945847502 0.00015442485029387807 0 0.0036339726145394255 7.3847686572920695e-05 0 0.0037921717537307562 3.1112474432588528e-05 0 0.0034553755158949792 1.8584501492583331e-05 0 0.0035852894032599265 8.0120605357504123e-06 0 0.0036392176286831526 1.3609170051016525e-05 0 0.0036416633594505239 4.426131910745145e-05 0 0.0035852894032599265 8.0120605357504123e-06 0 0.0036392176286831526 1.3609170051016525e-05 0 0.0034777854126307882 1.5009946042289439e-05 0 0.0034555613963486477 0.0001023543154596348 0 0.0034553755158949792 1.8584501492583331e-05 0 0.00329737088026304 9.5316468382770916e-05 0 0.0033612383945847502 0.00015442485029387807 0 0.0034553755158949792 1.8584501492583331e-05 0 0.0036392176286831526 1.3609170051016525e-05 0 0.0034863187848943574 -3.299196648543615e-06 0 0.0036392176286831526 1.3609170051016525e-05 0 0.0037260292357930084 3.7653264051805248e-08 0 0.0034863187848943574 -3.299196648543615e-06 0 0.0034313240859431648 -3.6982458353655321e-08 0 0.0037260292357930084 3.7653264051805248e-08 0 0.0034863187848943574 -3.299196648543615e-06 0 0.0033328786561459957 -3.6484569167227311e-05 0 0.0034553755158949792 1.8584501492583331e-05 0 0.0034863187848943574 -3.299196648543615e-06 0 0.0012416867527166695 2.6428239568699397e-05 0 0.001266664674456147 -7.3833041175418983e-06 0 0.0014246747767815678 3.907481958489691e-05 0 0.0016015330007715296 0.00010576595183299061 0 0.0016205253650657171 1.2709677655933949e-05 0 0.001466677240644613 -4.512369983173511e-08 0 0.001266664674456147 -7.3833041175418983e-06 0 0.0014246747767815678 3.907481958489691e-05 0 0.001466677240644613 -4.512369983173511e-08 0 0.001266664674456147 -7.3833041175418983e-06 0 0.0012083941321049678 -3.4931728421127494e-08 0 0.0012416867527166695 2.6428239568699397e-05 0 0.001266664674456147 -7.3833041175418983e-06 0 0.0011196999964120957 -1.1844378730887418e-05 0 0.001266664674456147 -7.3833041175418983e-06 0 0.0011196999964120957 -1.1844378730887418e-05 0 0.0011267171939991366 -2.3641621913800565e-05 0 0.0016015330007715296 0.00010576595183299061 0 0.0010827340657391918 -3.5387230129712018e-05 0 0.0021017583250186912 0.00018400745235307853 0 0.0021504553070763417 0.00023316039903405029 0 0.0021694515033865757 0.0001899638349760623 0 0.0016015330007715296 0.00010576595183299061 0 0.0014831900010805455 6.9459593244709813e-05 0 0.0011303357226305833 0.00010605314685003685 0 0.0010100045096049527 1.2323016172068839e-06 0 0.0011196999964120957 -1.1844378730887418e-05 0 0.0015635237077060052 0.00012449212398939877 0 0.0015282798651891927 0.00024569532853989428 0 0.0014423532064898046 0.0001585043554171872 0 0.0014831900010805455 6.9459593244709813e-05 0 0.0018549232531259623 0.00022801759368871593 0 0.0021694515033865757 0.0001899638349760623 0 0.0021530762496538933 0.00016095742790595038 0 0.0021890278648468886 0.00014497313118951529 0 0.0015282798651891927 0.00024569532853989428 0 0.0014951749309253821 0.00036181845392991039 0 0.0014215298633459825 0.00026000390842107287 0 0.0018549232531259623 0.00022801759368871593 0 0.001958242547589134 0.00023742104000254108 0 0.0021017583250186912 0.00018400745235307853 0 0.0021694515033865757 0.0001899638349760623 0 0.0021530762496538933 0.00016095742790595038 0 0.0021017583250186912 0.00018400745235307853 0 0.0021530762496538933 0.00016095742790595038 0 0.0021306594629062138 0.00014465466240597797 0 0.0021017583250186912 0.00018400745235307853 0 0.0021306594629062138 0.00014465466240597797 0 0.0020983830365132804 0.00010737081930465939 0 0.0021530762496538933 0.00016095742790595038 0 0.0021306594629062138 0.00014465466240597797 0 0.0021716034853141056 0.00014094278451597878 0 0.0021306594629062138 0.00014465466240597797 0 0.0021716034853141056 0.00014094278451597878 0 0.0021430612835093336 0.0001109336451366777 0 0.0021306594629062138 0.00014465466240597797 0 0.0021430612835093336 0.0001109336451366777 0 0.0020983830365132804 0.00010737081930465939 0 0.0022020124071283104 0.00014770042698409276 0 0.0021716034853141056 0.00014094278451597878 0 0.0021810759582105398 8.7385597080007592e-05 0 0.001958242547589134 0.00023742104000254108 0 0.0021613628333443467 0.00021183660479704111 0 0.0021530762496538933 0.00016095742790595038 0 0.0021890278648468886 0.00014497313118951529 0 0.0021716034853141056 0.00014094278451597878 0 0.0021716034853141056 0.00014094278451597878 0 0.0021810759582105398 8.7385597080007592e-05 0 0.0021430612835093336 0.0001109336451366777 0 0.0022020124071283104 0.00014770042698409276 0 0.0021810759582105398 8.7385597080007592e-05 0 0.0022338135789257987 7.5938830453886272e-05 0 0.0021810759582105398 8.7385597080007592e-05 0 0.0022175414828274637 3.0068400750607186e-05 0 0.0022338135789257987 7.5938830453886272e-05 0 0.0021810759582105398 8.7385597080007592e-05 0 0.0021344392748681353 6.9982358964149822e-05 0 0.002163010678003726 2.4927960015313248e-05 0 0.0021430612835093336 0.0001109336451366777 0 0.0021344392748681353 6.9982358964149822e-05 0 0.0020983830365132804 0.00010737081930465939 0 0.0021810759582105398 8.7385597080007592e-05 0 0.0021430612835093336 0.0001109336451366777 0 0.0021344392748681353 6.9982358964149822e-05 0 0.0021344392748681353 6.9982358964149822e-05 0 0.0020983830365132804 0.00010737081930465939 0 0.0020929878169968501 1.0268251383063344e-05 0 0.001842104353959689 7.2816546824647998e-06 0 0.0018490824996214282 1.6883536808939572e-05 0 0.0018464344228495179 4.936351278559242e-06 0 0.001842104353959689 7.2816546824647998e-06 0 0.0018490824996214282 1.6883536808939572e-05 0 0.0018391641584862459 1.5721493246945496e-05 0 0.0018460718161561842 3.6467316891562126e-05 0 0.0018490824996214282 1.6883536808939572e-05 0 0.0018382389013329352 2.6246291395139554e-05 0 0.0016015330007715296 0.00010576595183299061 0 0.0020163049932000669 6.7105623144189043e-05 0 0.0018490824996214282 1.6883536808939572e-05 0 0.0018382389013329352 2.6246291395139554e-05 0 0.0018391641584862459 1.5721493246945496e-05 0 0.001466677240644613 -4.512369983173511e-08 0 0.0014246747767815678 3.907481958489691e-05 0 0.001724666173821221 2.2998181008590897e-07 0 0.0018382389013329352 2.6246291395139554e-05 0 0.001829267743338992 1.5938092229944557e-05 0 0.0018391641584862459 1.5721493246945496e-05 0 0.0014246747767815678 3.907481958489691e-05 0 0.001724666173821221 2.2998181008590897e-07 0 0.0017266728979248237 1.1711981509476379e-05 0 0.0016205253650657171 1.2709677655933949e-05 0 0.0017672033465887707 -4.6137010311813986e-05 0 0.0017427791692386444 2.496124196051037e-08 0 0.0019260765289393844 -2.6274369309603327e-08 0 0.0019278539679005509 1.2135937694648873e-06 0 0.001842104353959689 7.2816546824647998e-06 0 0.0018391641584862459 1.5721493246945496e-05 0 0.0018333044199361768 3.9271195551898166e-06 0 0.001829267743338992 1.5938092229944557e-05 0 0.0018391641584862459 1.5721493246945496e-05 0 0.0018333044199361768 3.9271195551898166e-06 0 0.0017672033465887707 -4.6137010311813986e-05 0 0.001876432952821322 -1.2884508371348566e-06 0 0.0017251968521081783 -1.1051999033674831e-07 0 0.0017672033465887707 -4.6137010311813986e-05 0 0.0019260765289393844 -2.6274369309603327e-08 0 0.0019278539679005509 1.2135937694648873e-06 0 0.0020539312932728311 -2.4073416572172703e-06 0 0.0018333044199361768 3.9271195551898166e-06 0 0.0018436319146354371 -7.0152672428253571e-07 0 0.0018375004131970978 -8.5293364403836863e-06 0 0.001876432952821322 -1.2884508371348566e-06 0 0.0020106134166639807 -1.0278440601278195e-05 0 0.001842104353959689 7.2816546824647998e-06 0 0.0018333044199361768 3.9271195551898166e-06 0 0.0018436319146354371 -7.0152672428253571e-07 0 0.0018436319146354371 -7.0152672428253571e-07 0 0.0018509167725316866 -3.7134716476337491e-06 0 0.0018375004131970978 -8.5293364403836863e-06 0 0.0018490824996214282 1.6883536808939572e-05 0 0.0018464344228495179 4.936351278559242e-06 0 0.0018509167725316866 -3.7134716476337491e-06 0 0.0020163049932000669 6.7105623144189043e-05 0 0.0020141136269407243 -1.2060575371422447e-05 0 0.001842104353959689 7.2816546824647998e-06 0 0.0018464344228495179 4.936351278559242e-06 0 0.0018436319146354371 -7.0152672428253571e-07 0 0.0018464344228495179 4.936351278559242e-06 0 0.0018436319146354371 -7.0152672428253571e-07 0 0.0018509167725316866 -3.7134716476337491e-06 0 0.0020141136269407243 -1.2060575371422447e-05 0 0.0020106134166639807 -1.0278440601278195e-05 0 0.0020927099483317815 -2.6613541414382769e-05 0 0.0020739373513165961 -5.5467599560321803e-05 0 0.002126461082579606 -2.7385443947396168e-05 0 0.0021123950591526398 7.2156794928658929e-06 0 0.0021030434796506601 -1.4008819377969658e-05 0 0.0020629672135407304 -1.0917516311268737e-05 0 0.0021209798797677095 -1.0084781272744733e-05 0 0.0021030434796506601 -1.4008819377969658e-05 0 0.002126461082579606 -2.7385443947396168e-05 0 0.0021123950591526398 7.2156794928658929e-06 0 0.0021209798797677095 -1.0084781272744733e-05 0 0.0021368270899676154 -4.8992633300459274e-06 0 0.0021123950591526398 7.2156794928658929e-06 0 0.0021209798797677095 -1.0084781272744733e-05 0 0.0021030434796506601 -1.4008819377969658e-05 0 0.0021030434796506601 -1.4008819377969658e-05 0 0.0020927099483317815 -2.6613541414382769e-05 0 0.0020629672135407304 -1.0917516311268737e-05 0 0.0021030434796506601 -1.4008819377969658e-05 0 0.0020927099483317815 -2.6613541414382769e-05 0 0.002126461082579606 -2.7385443947396168e-05 0 0.0019260765289393844 -2.6274369309603327e-08 0 0.0021050043547853592 2.7055822679951622e-08 0 0.0020539312932728311 -2.4073416572172703e-06 0 0.0020106134166639807 -1.0278440601278195e-05 0 0.0023051268452972625 4.0808497615577975e-05 0 0.0020927099483317815 -2.6613541414382769e-05 0 0.0020629672135407304 -1.0917516311268737e-05 0 0.0020739373513165961 -5.5467599560321803e-05 0 0.0021730553562909483 3.7949985449944386e-06 0 0.0021780693445217726 -9.6725166169100652e-06 0 0.0021760968698435702 -2.9417978803246252e-06 0 0.0021052049330656498 1.2039712629581403e-08 0 0.0020106134166639807 -1.0278440601278195e-05 0 0.002105519202342409 1.7901235588403137e-10 0 0.0021730553562909483 3.7949985449944386e-06 0 0.0021780693445217726 -9.6725166169100652e-06 0 0.002105519202342409 1.7901235588403137e-10 0 0.0021780693445217726 -9.6725166169100652e-06 0 0.0022523974124600264 3.4291913503825877e-10 0 0.0022527807282462296 4.4256495359817841e-08 0 0.0023051268452972625 4.0808497615577975e-05 0 0.0021780693445217726 -9.6725166169100652e-06 0 0.0022523974124600264 3.4291913503825877e-10 0 0.0021760968698435702 -2.9417978803246252e-06 0 0.0025301573628671572 7.402564100183444e-05 0 0.0025372258777346399 0.00014990443474231026 0 0.002618997676271829 7.0943052931543061e-05 0 0.0022532270654581706 5.3479455021489297e-07 0 0.0025301573628671572 7.402564100183444e-05 0 0.0024982173989245857 0.00012999122200121506 0 0.0023591050240612177 4.9698490863387234e-05 0 0.0023051268452972625 4.0808497615577975e-05 0 0.0020739373513165961 -5.5467599560321803e-05 0 0.0021544391699401949 -5.7685294520026796e-05 0 0.002126461082579606 -2.7385443947396168e-05 0 0.0025372258777346399 0.00014990443474231026 0 0.0027634084522817387 8.4049012260596924e-05 0 0.0028778039649389126 0.00021472108601479139 0 0.0025372258777346399 0.00014990443474231026 0 0.002618997676271829 7.0943052931543061e-05 0 0.0027634084522817387 8.4049012260596924e-05 0 0.0023051268452972625 4.0808497615577975e-05 0 0.0025321272713185504 7.8091446489351562e-05 0 0.0028214782948238061 4.9541887144367601e-06 0 0.0027634084522817387 8.4049012260596924e-05 0 0.0026633313086527107 3.1160786247673799e-05 0 0.002618997676271829 7.0943052931543061e-05 0 0.0027634084522817387 8.4049012260596924e-05 0 0.0026633313086527107 3.1160786247673799e-05 0 0.0025301573628671572 7.402564100183444e-05 0 0.002618997676271829 7.0943052931543061e-05 0 0.0026633313086527107 3.1160786247673799e-05 0 0.0025474130385771654 -1.5987339791489493e-07 0 0.0025301573628671572 7.402564100183444e-05 0 0.0026633313086527107 3.1160786247673799e-05 0 0.0025474130385771654 -1.5987339791489493e-07 0 0.0022532270654581706 5.3479455021489297e-07 0 0.0025301573628671572 7.402564100183444e-05 0 0.0029885821371090928 -4.8471956193198944e-05 0 0.0029756116202900502 0.00010277835957264359 0 0.0030274277901527918 -5.8098834015053571e-05 0 0.0029619846572622676 0.00010780991501816022 0 0.0030912112067894822 5.3863087382470111e-05 0 0.0029177998839186414 2.0615142684176772e-05 0 0.0027634084522817387 8.4049012260596924e-05 0 0.0029619846572622676 0.00010780991501816022 0 0.0029177998839186414 2.0615142684176772e-05 0 0.0028214782948238061 4.9541887144367601e-06 0 0.0027634084522817387 8.4049012260596924e-05 0 0.0027634084522817387 8.4049012260596924e-05 0 0.0029619846572622676 0.00010780991501816022 0 0.0028778039649389126 0.00021472108601479139 0 0.0021544391699401949 -5.7685294520026796e-05 0 0.0022050106971717716 -1.8368784292793068e-05 0 0.0022581173300296564 -6.546447639916958e-05 0 0.0025321272713185504 7.8091446489351562e-05 0 0.0026094144567449938 6.7633102064264491e-05 0 0.0029619846572622676 0.00010780991501816022 0 0.0028778039649389126 0.00021472108601479139 0 0.0030981476520497192 0.00021457403240683593 0 0.0022050106971717716 -1.8368784292793068e-05 0 0.0021600896966177062 -1.5732444154402271e-05 0 0.002163010678003726 2.4927960015313248e-05 0 0.0021544391699401949 -5.7685294520026796e-05 0 0.002126461082579606 -2.7385443947396168e-05 0 0.0021600896966177062 -1.5732444154402271e-05 0 0.0021544391699401949 -5.7685294520026796e-05 0 0.0022050106971717716 -1.8368784292793068e-05 0 0.0021600896966177062 -1.5732444154402271e-05 0 0.0021600896966177062 -1.5732444154402271e-05 0 0.0021368270899676154 -4.8992633300459274e-06 0 0.002163010678003726 2.4927960015313248e-05 0 0.002126461082579606 -2.7385443947396168e-05 0 0.0021600896966177062 -1.5732444154402271e-05 0 0.0021368270899676154 -4.8992633300459274e-06 0 0.0021209798797677095 -1.0084781272744733e-05 0 0.002126461082579606 -2.7385443947396168e-05 0 0.0021368270899676154 -4.8992633300459274e-06 0 0.0021123950591526398 7.2156794928658929e-06 0 0.0021368270899676154 -4.8992633300459274e-06 0 0.002163010678003726 2.4927960015313248e-05 0 0.0021344392748681353 6.9982358964149822e-05 0 0.0020929878169968501 1.0268251383063344e-05 0 0.002163010678003726 2.4927960015313248e-05 0 0.0020141136269407243 -1.2060575371422447e-05 0 0.0021902848421883748 3.0147260391793219e-05 0 0.0021810759582105398 8.7385597080007592e-05 0 0.002163010678003726 2.4927960015313248e-05 0 0.0022175414828274637 3.0068400750607186e-05 0 0.0022050106971717716 -1.8368784292793068e-05 0 0.002163010678003726 2.4927960015313248e-05 0 0.0022175414828274637 3.0068400750607186e-05 0 0.0022175414828274637 3.0068400750607186e-05 0 0.002268158501588049 4.267329075919336e-06 0 0.0022338135789257987 7.5938830453886272e-05 0 0.0023363050671096823 5.5892353042382281e-05 0 0.002268158501588049 4.267329075919336e-06 0 0.0022366155880742793 0.00010422636076793555 0 0.002258934615988771 1.9484524964105432e-05 0 0.0022605727476344402 6.6688942490417453e-05 0 0.0023363050671096823 5.5892353042382281e-05 0 0.0023528267340498349 -3.8904361329962999e-06 0 0.002268158501588049 4.267329075919336e-06 0 0.0023363050671096823 5.5892353042382281e-05 0 0.0023528267340498349 -3.8904361329962999e-06 0 0.0023941732997694604 3.4485465940627823e-05 0 0.0023178875913198709 -3.2766142576788867e-05 0 0.0023528267340498349 -3.8904361329962999e-06 0 0.0023944485918357158 -6.727426273922524e-05 0 0.0023178875913198709 -3.2766142576788867e-05 0 0.0023528267340498349 -3.8904361329962999e-06 0 0.002268158501588049 4.267329075919336e-06 0 0.0022050106971717716 -1.8368784292793068e-05 0 0.0022175414828274637 3.0068400750607186e-05 0 0.002268158501588049 4.267329075919336e-06 0 0.0023178875913198709 -3.2766142576788867e-05 0 0.002268158501588049 4.267329075919336e-06 0 0.0022581173300296564 -6.546447639916958e-05 0 0.0022050106971717716 -1.8368784292793068e-05 0 0.002268158501588049 4.267329075919336e-06 0 0.0022581173300296564 -6.546447639916958e-05 0 0.0030981476520497192 0.00021457403240683593 0 0.0032267685870880909 6.9602976105207962e-05 0 0.0032989604444500667 0.00022046146993688167 0 0.0038954579080529472 9.0017928783936657e-05 0 0.0031469418437257641 0.00012335208695776108 0 0.0023178875913198709 -3.2766142576788867e-05 0 0.0022581173300296564 -6.546447639916958e-05 0 0.0023944485918357158 -6.727426273922524e-05 0 0.0026094144567449938 6.7633102064264491e-05 0 0.0031469418437257641 0.00012335208695776108 0 0.0030981476520497192 0.00021457403240683593 0 0.0032267685870880909 6.9602976105207962e-05 0 0.0030912112067894822 5.3863087382470111e-05 0 0.0029619846572622676 0.00010780991501816022 0 0.0030981476520497192 0.00021457403240683593 0 0.0030912112067894822 5.3863087382470111e-05 0 0.0043956797241084585 4.4774962458896606e-05 0 0.0043998396526752706 4.9534595927740691e-05 0 0.0043933621196778601 4.382487417749901e-05 0 0.0043956797241084585 4.4774962458896606e-05 0 0.0043989064335586909 4.7891440822542619e-05 0 0.0043998396526752706 4.9534595927740691e-05 0 0.0043956797241084585 4.4774962458896606e-05 0 0.0043989064335586909 4.7891440822542619e-05 0 0.0043965561385937452 4.3083055158241128e-05 0 0.0043956797241084585 4.4774962458896606e-05 0 0.0043946690483425655 4.23423892086938e-05 0 0.0043965561385937452 4.3083055158241128e-05 0 0.0044038420456556961 5.3533426131060753e-05 0 0.0043989064335586909 4.7891440822542619e-05 0 0.0043998396526752706 4.9534595927740691e-05 0 0.0044056870343365476 5.6671689472735266e-05 0 0.004403158035455425 5.0856738259615396e-05 0 0.0043998396526752706 4.9534595927740691e-05 0 0.004403158035455425 5.0856738259615396e-05 0 0.0043998396526752706 4.9534595927740691e-05 0 0.0043933621196778601 4.382487417749901e-05 0 0.004403158035455425 5.0856738259615396e-05 0 0.0043933621196778601 4.382487417749901e-05 0 0.0043918491908326324 4.1907550400129049e-05 0 0.0031469418437257641 0.00012335208695776108 0 0.003541290541271174 -6.7792503446490203e-05 0 0.0043933621196778601 4.382487417749901e-05 0 0.0043904803465848194 4.210906710191769e-05 0 0.0043884364957398718 4.1336110015958507e-05 0 0.0043933621196778601 4.382487417749901e-05 0 0.0043918491908326324 4.1907550400129049e-05 0 0.0043884364957398718 4.1336110015958507e-05 0 0.0043956797241084585 4.4774962458896606e-05 0 0.0043933621196778601 4.382487417749901e-05 0 0.0043904803465848194 4.210906710191769e-05 0 0.0043956797241084585 4.4774962458896606e-05 0 0.0043946690483425655 4.23423892086938e-05 0 0.0043904803465848194 4.210906710191769e-05 0 0.0043946690483425655 4.23423892086938e-05 0 0.0043904803465848194 4.210906710191769e-05 0 0.0043943859498190756 4.1088876887296807e-05 0 0.0043904803465848194 4.210906710191769e-05 0 0.0043893019706731989 4.2973822105884748e-05 0 0.0043943859498190756 4.1088876887296807e-05 0 0.0036926324908727131 4.4066303766492383e-05 0 0.003541290541271174 -6.7792503446490203e-05 0 0.0024974279023431021 -5.7857680313544525e-05 0 0.0024203593915636946 -1.4412877214403659e-05 0 0.0024479278978483065 4.2730032793724753e-05 0 0.0024974279023431021 -5.7857680313544525e-05 0 0.0024479278978483065 4.2730032793724753e-05 0 0.0025131396256152642 3.0995212722558281e-05 0 0.003541290541271174 -6.7792503446490203e-05 0 0.0027486184832412747 -3.2974937813830289e-05 0 0.0024031891883177178 -5.9775438928122265e-05 0 0.0024974279023431021 -5.7857680313544525e-05 0 0.0024203593915636946 -1.4412877214403659e-05 0 0.0023528267340498349 -3.8904361329962999e-06 0 0.0023944485918357158 -6.727426273922524e-05 0 0.0024203593915636946 -1.4412877214403659e-05 0 0.0031469418437257641 0.00012335208695776108 0 0.0024948540766812233 -0.00017864738353070159 0 0.0023528267340498349 -3.8904361329962999e-06 0 0.0024203593915636946 -1.4412877214403659e-05 0 0.0023941732997694604 3.4485465940627823e-05 0 0.0024203593915636946 -1.4412877214403659e-05 0 0.0023941732997694604 3.4485465940627823e-05 0 0.0024479278978483065 4.2730032793724753e-05 0 0.0023941732997694604 3.4485465940627823e-05 0 0.0024479278978483065 4.2730032793724753e-05 0 0.0024007968969504468 9.5561609110025929e-05 0 0.0023363050671096823 5.5892353042382281e-05 0 0.0023941732997694604 3.4485465940627823e-05 0 0.0024007968969504468 9.5561609110025929e-05 0 0.0024479278978483065 4.2730032793724753e-05 0 0.0024665648833798117 0.00010766932360273733 0 0.0025131396256152642 3.0995212722558281e-05 0 0.0024479278978483065 4.2730032793724753e-05 0 0.0024665648833798117 0.00010766932360273733 0 0.0024007968969504468 9.5561609110025929e-05 0 0.0024665648833798117 0.00010766932360273733 0 0.0024928629070942311 0.00018603896548161081 0 0.0025307380920218036 0.0001211453508671216 0 0.0024665648833798117 0.00010766932360273733 0 0.0024928629070942311 0.00018603896548161081 0 0.0024125297563254186 0.00017118524845233078 0 0.0024928629070942311 0.00018603896548161081 0 0.0024125297563254186 0.00017118524845233078 0 0.0024537686896801145 0.00025025975504583067 0 0.0021543757943554326 2.025794914645417e-05 0 0.0016484097034488786 5.6303957890366554e-05 0 0.0024125297563254186 0.00017118524845233078 0 0.0023315127428028908 0.00022704766928004455 0 0.0024537686896801145 0.00025025975504583067 0 0.0024125297563254186 0.00017118524845233078 0 0.0023293909525489136 0.00013668890662370384 0 0.0023315127428028908 0.00022704766928004455 0 0.0024665648833798117 0.00010766932360273733 0 0.0024125297563254186 0.00017118524845233078 0 0.0024007968969504468 9.5561609110025929e-05 0 0.0024125297563254186 0.00017118524845233078 0 0.0024007968969504468 9.5561609110025929e-05 0 0.0023293909525489136 0.00013668890662370384 0 0.0023363050671096823 5.5892353042382281e-05 0 0.0024007968969504468 9.5561609110025929e-05 0 0.0023293909525489136 0.00013668890662370384 0 0.0023363050671096823 5.5892353042382281e-05 0 0.0023293909525489136 0.00013668890662370384 0 0.0022366155880742793 0.00010422636076793555 0 0.001958242547589134 0.00023742104000254108 0 0.0022605727476344402 6.6688942490417453e-05 0 0.0023293909525489136 0.00013668890662370384 0 0.0022366155880742793 0.00010422636076793555 0 0.0022758285745641429 0.00016791576813334443 0 0.002205384451936273 0.00020280561581968235 0 0.0022366155880742793 0.00010422636076793555 0 0.0022758285745641429 0.00016791576813334443 0 0.001958242547589134 0.00023742104000254108 0 0.0018411169797070066 0.00030938983311759653 0 0.002205384451936273 0.00020280561581968235 0 0.0022758285745641429 0.00016791576813334443 0 0.0023315127428028908 0.00022704766928004455 0 0.0023293909525489136 0.00013668890662370384 0 0.0022758285745641429 0.00016791576813334443 0 0.0023315127428028908 0.00022704766928004455 0 0.001317610587777539 0.0003204259343834564 0 0.0013301474240677755 0.0002078752588118505 0 0.0012551681613995629 0.00025525377622588591 0 0.001317610587777539 0.0003204259343834564 0 0.0014215298633459825 0.00026000390842107287 0 0.0013301474240677755 0.0002078752588118505 0 0.0014951749309253821 0.00036181845392991039 0 0.001317610587777539 0.0003204259343834564 0 0.0014215298633459825 0.00026000390842107287 0 0.0015282798651891927 0.00024569532853989428 0 0.0014215298633459825 0.00026000390842107287 0 0.0014423532064898046 0.0001585043554171872 0 0.0014423532064898046 0.0001585043554171872 0 0.0013301474240677755 0.0002078752588118505 0 0.0013532175685682839 7.0112699717866651e-05 0 0.0014215298633459825 0.00026000390842107287 0 0.0014423532064898046 0.0001585043554171872 0 0.0013301474240677755 0.0002078752588118505 0 0.0013301474240677755 0.0002078752588118505 0 0.0011466969635148423 0.00020869897669542359 0 0.0012372291451972443 4.430178980988421e-05 0 0.0013301474240677755 0.0002078752588118505 0 0.0012062063973987309 0.00021098302746557355 0 0.0012551681613995629 0.00025525377622588591 0 0.0014713393623235712 0.00021062777374572696 0 0.00080648115234622738 0.0002067343608906269 0 0.00080648115234622738 0.0002067343608906269 0 0.00035942562963117122 4.5962835232105692e-05 0 -6.6172315709983739e-05 0.00015714130930036588 0 -9.7673974232156439e-05 0.00015659975941591998 0 -8.2801089812953565e-05 0.0001356800118483713 0 -9.7673974232156439e-05 0.00015659975941591998 0 -0.00010849138337232569 0.00013322659484487576 0 -8.2801089812953565e-05 0.0001356800118483713 0 0.0010501424890822458 -5.4845491564565156e-05 0 0.0010230666429866125 3.5015766810718336e-07 0 0.00098070502229360458 -5.8800314116538769e-05 0 0.00080648115234622738 0.0002067343608906269 0 0.0016484097034488786 5.6303957890366554e-05 0 0.0018411169797070066 0.00030938983311759653 0 0.0016484097034488786 5.6303957890366554e-05 0 0.001317610587777539 0.0003204259343834564 0 0.0011691350310317962 0.00028146895715489435 0 0.0012551681613995629 0.00025525377622588591 0 0.0012062063973987309 0.00021098302746557355 0 0.0011691350310317962 0.00028146895715489435 0 0.0012551681613995629 0.00025525377622588591 0 0.0020155770338075446 -0.00040068101880872683 0 0.0020199450564373942 -0.00040314528364668664 0 0.0020299196462814618 -0.00039355106705473705 0 0.0020155770338075446 -0.00040068101880872683 0 0.0020199450564373942 -0.00040314528364668664 0 0.0020120107426293563 -0.00040246309137928254 0 0.001332192639218162 -0.00027643890343714139 0 0.0015190772318525567 -0.00053494162910965666 0 0.0010230666429866125 3.5015766810718336e-07 0 0.00092195421180209767 -2.2713690850642885e-05 0 0.00098070502229360458 -5.8800314116538769e-05 0 0.0018354869424640817 -0.00016120849404761608 0 0.0017794557998799252 -0.00017466840319386667 0 0.0017931066074504548 -0.00013590965182478255 0 0.001332192639218162 -0.00027643890343714139 0 0.0019076862635457529 -0.00028159970028680895 0 0.0016484097034488786 5.6303957890366554e-05 0 0.001332192639218162 -0.00027643890343714139 0 -9.7673974232156439e-05 0.00015659975941591998 0 -0.00011938393031055727 0.00014192322899287232 0 -0.00012609949485648968 0.00015457922076048811 0 0.00092195421180209767 -2.2713690850642885e-05 0 0.00098070502229360458 -5.8800314116538769e-05 0 0.00090979536492861123 -6.3002752064478446e-05 0 0.00035942562963117122 4.5962835232105692e-05 0 0.00058108416093951892 -0.00033439561450061069 0 -9.7673974232156439e-05 0.00015659975941591998 0 -0.00011938393031055727 0.00014192322899287232 0 -0.00010849138337232569 0.00013322659484487576 0 0.00058107189489907819 -0.00053328415763498978 0 0.00081282174865828503 -0.0004056796598041345 0 0.0011157872749113372 -0.00051978539566781832 0 0.00058107189489907819 -0.00053328415763498978 0 0.00081282174865828503 -0.0004056796598041345 0 0.00067080968279189211 -0.00018619631855621585 0 0.00058108416093951892 -0.00033439561450061069 0 0.001107215992323361 -0.00055379553059780532 0 -0.00011938393031055727 0.00014192322899287232 0 -0.00012609949485648968 0.00015457922076048811 0 -0.00013759627464321654 0.0001313328749503024 0 0.00066123992349603441 -0.00069583228917207546 0 0.00070097341280162386 -0.00053012146978718283 0 0.0010329171379765251 -0.00062712617361423593 0 0.00058108416093951892 -0.00033439561450061069 0 0.00015532802748166586 0.00013761363213968093 0 0.001332192639218162 -0.00027643890343714139 0 0.00058108416093951892 -0.00033439561450061069 0 0.00081282174865828503 -0.0004056796598041345 0 0.0010183209197334854 -0.00037867959723958405 0 0.0011157872749113372 -0.00051978539566781832 0 0.0011157872749113372 -0.00051978539566781832 0 0.0014833639885440883 -0.00055021128449287608 0 0.0010329171379765251 -0.00062712617361423593 0 0.00081282174865828503 -0.0004056796598041345 0 0.0010183209197334854 -0.00037867959723958405 0 0.00099238504665585575 -0.00022253248958921043 0 0.00070097341280162386 -0.00053012146978718283 0 0.0011157872749113372 -0.00051978539566781832 0 0.0010329171379765251 -0.00062712617361423593 0 0.0010183209197334854 -0.00037867959723958405 0 0.0011508486300853217 -0.00036611584248621878 0 0.00099238504665585575 -0.00022253248958921043 0 0.0010183209197334854 -0.00037867959723958405 0 0.0011508486300853217 -0.00036611584248621878 0 0.0011157872749113372 -0.00051978539566781832 0 0.0011508486300853217 -0.00036611584248621878 0 0.0011157872749113372 -0.00051978539566781832 0 0.0014833639885440883 -0.00055021128449287608 0 0.001749305196180288 -0.00047276512993568221 0 0.0015190772318525567 -0.00053494162910965666 0 0.0014833639885440883 -0.00055021128449287608 0 0.0016869045301235574 -0.00034482381408158607 0 0.0013065312835666078 -0.00026204349813223674 0 0.0011508486300853217 -0.00036611584248621878 0 0.0014833639885440883 -0.00055021128449287608 0 0.0013065312835666078 -0.00026204349813223674 0 0.0020099845218919713 -0.00040716156861261241 0 0.0020140860555930076 -0.000396445848186839 0 0.0020120107426293563 -0.00040246309137928254 0 0.0020099845218919713 -0.00040716156861261241 0 0.0020140860555930076 -0.000396445848186839 0 0.0019925225367955672 -0.00039553160799585171 0 0.0020140860555930076 -0.000396445848186839 0 0.002019055481145051 -0.00039638451186031336 0 0.0019925225367955672 -0.00039553160799585171 0 0.0020140860555930076 -0.000396445848186839 0 0.0020128069618835132 -0.000398927026121454 0 0.0020117777210590204 -0.00039682397368847087 0 0.0020155770338075446 -0.00040068101880872683 0 0.0020120107426293563 -0.00040246309137928254 0 0.0020128069618835132 -0.000398927026121454 0 0.0020140860555930076 -0.000396445848186839 0 0.0020120107426293563 -0.00040246309137928254 0 0.0020128069618835132 -0.000398927026121454 0 0.0020155770338075446 -0.00040068101880872683 0 0.0020128069618835132 -0.000398927026121454 0 0.0020117777210590204 -0.00039682397368847087 0 0.0020140860555930076 -0.000396445848186839 0 0.0020117777210590204 -0.00039682397368847087 0 0.0020183829689651065 -0.00040893389695594251 0 0.0020140860555930076 -0.000396445848186839 0 0.0020183829689651065 -0.00040893389695594251 0 0.002019055481145051 -0.00039638451186031336 0 0.0020357523830699855 -0.00042219599041574382 0 0.0020183829689651065 -0.00040893389695594251 0 0.002019055481145051 -0.00039638451186031336 0 0.0020357523830699855 -0.00042219599041574382 0 0.0020183829689651065 -0.00040893389695594251 0 0.0020241923267081811 -0.0004283909867996779 0 0.0020117777210590204 -0.00039682397368847087 0 0.0020183829689651065 -0.00040893389695594251 0 0.0020027322786863137 -0.00042266459547851562 0 0.0020183829689651065 -0.00040893389695594251 0 0.0020027322786863137 -0.00042266459547851562 0 0.0020241923267081811 -0.0004283909867996779 0 0.0020321672804086977 -0.00038286629274462991 0 0.0019303985309975936 -0.0004260775978334297 0 0.002024806405145027 -0.00038431363548718442 0 0.0020208569875842142 -0.00037155242061701391 0 0.0020359657635740103 -0.00036364438258515647 0 0.0020117777210590204 -0.00039682397368847087 0 0.002024806405145027 -0.00038431363548718442 0 0.0020208569875842142 -0.00037155242061701391 0 0.0020155770338075446 -0.00040068101880872683 0 0.0020117777210590204 -0.00039682397368847087 0 0.0020299196462814618 -0.00039355106705473705 0 0.0020117777210590204 -0.00039682397368847087 0 0.002024806405145027 -0.00038431363548718442 0 0.0020299196462814618 -0.00039355106705473705 0 0.002024806405145027 -0.00038431363548718442 0 0.0020299196462814618 -0.00039355106705473705 0 0.0020396906488050195 -0.00037857855592837199 0 0.0018204426607941208 -0.00012996713868391012 0 0.0017931066074504548 -0.00013590965182478255 0 0.0018081755703313743 -9.9383320740553576e-05 0 0.0018204426607941208 -0.00012996713868391012 0 0.0018354869424640817 -0.00016120849404761608 0 0.0017931066074504548 -0.00013590965182478255 0 0.0019076862635457529 -0.00028159970028680895 0 0.0023780557246084904 -0.00011448611063291039 0 0.0024665648833798117 0.00010766932360273733 0 0.0025307380920218036 0.0001211453508671216 0 0.0025131396256152642 3.0995212722558281e-05 0 0.002024806405145027 -0.00038431363548718442 0 0.0020396906488050195 -0.00037857855592837199 0 0.0020359657635740103 -0.00036364438258515647 0 0.0021543757943554326 2.025794914645417e-05 0 0.0023780557246084904 -0.00011448611063291039 0 0.0023780557246084904 -0.00011448611063291039 0 0.0027486184832412747 -3.2974937813830289e-05 0 0.0030216526069472825 -0.00011972151499178914 0 0.0030316137933619654 -0.0001122177338161563 0 0.0030245061898604804 -0.00011360963725975946 0 0.0023780557246084904 -0.00011448611063291039 0 0.0025330224226218214 -0.00024372371523601329 0 0.0030316137933619654 -0.0001122177338161563 0 0.0030245061898604804 -0.00011360963725975946 0 0.0030294375149830738 -0.00010791394392901305 0 0.0019303985309975936 -0.0004260775978334297 0 0.0026660636287916492 -0.00033523180203664534 0 0.0020208569875842142 -0.00037155242061701391 0 0.0020359657635740103 -0.00036364438258515647 0 0.0020346156513308226 -0.00034909688265804861 0 0.0030245061898604804 -0.00011360963725975946 0 0.0030246715730322276 -0.00010671822701134573 0 0.0030294375149830738 -0.00010791394392901305 0 0.0025330224226218214 -0.00024372371523601329 0 0.0026660636287916492 -0.00033523180203664534 0 0.0030246715730322276 -0.00010671822701134573 0 0.0030294375149830738 -0.00010791394392901305 0 0.0030261146735854083 -0.0001041080520703349 0 0.0020000715537951187 -0.00046530540276764314 0 0.0020051587703752097 -0.00047339683244481198 0 0.0020131758627158977 -0.00046398657814454038 0 0.0029003253450301529 -0.00028426376452293621 0 0.0030520788570433484 -0.00056692062194069431 0 0.0028533119191946105 -0.00057457127492275726 0 0.0026660636287916492 -0.00033523180203664534 0 0.0036068835576172579 -0.00018546128341937 0 0.0026660636287916492 -0.00033523180203664534 0 0.002876341363475267 -0.00044800578792528152 0 0.0030406560672215383 -0.00010207185765467751 0 0.0030316137933619654 -0.0001122177338161563 0 0.0030294375149830738 -0.00010791394392901305 0 0.0030406560672215383 -0.00010207185765467751 0 0.0030294375149830738 -0.00010791394392901305 0 0.0030261146735854083 -0.0001041080520703349 0 0.0043893019706731989 4.2973822105884748e-05 0 0.0043943859498190756 4.1088876887296807e-05 0 0.0044001578871690986 3.7454230039558831e-05 0 0.0043893019706731989 4.2973822105884748e-05 0 0.0044001578871690986 3.7454230039558831e-05 0 0.0044032103123050337 3.9207185391040111e-05 0 0.003541290541271174 -6.7792503446490203e-05 0 0.0036068835576172579 -0.00018546128341937 0 0.0043946690483425655 4.23423892086938e-05 0 0.0043943859498190756 4.1088876887296807e-05 0 0.0043965561385937452 4.3083055158241128e-05 0 0.0043943859498190756 4.1088876887296807e-05 0 0.0044001578871690986 3.7454230039558831e-05 0 0.0043965561385937452 4.3083055158241128e-05 0 0.0036068835576172579 -0.00018546128341937 0 0.0045521703358056371 -9.2667084495231896e-05 0 0.0044001578871690986 3.7454230039558831e-05 0 0.0044032103123050337 3.9207185391040111e-05 0 0.0044320847271512526 1.7550060431185036e-05 0 0.0043959636166024645 -0.00031884142698721256 0 0.0044052308982351056 -0.00031852251278473423 0 0.004408284134278853 -0.0002600211215574176 0 0.002876341363475267 -0.00044800578792528152 0 0.0036068835576172579 -0.00018546128341937 0 0.0044052308982351056 -0.00031852251278473423 0 0.004408284134278853 -0.0002600211215574176 0 0.00443897004504578 -0.00024627308011883478 0 0.0043949807429044634 4.9637009502233065e-05 0 0.0044001578871690986 3.7454230039558831e-05 0 0.0043965561385937452 4.3083055158241128e-05 0 0.0044170069643247115 3.507581317473983e-05 0 0.0044032070766916636 3.9091653312741778e-05 0 0.0044376973833577145 1.6715412077258379e-05 0 0.0044001578871690986 3.7454230039558831e-05 0 0.0044320847271512526 1.7550060431185036e-05 0 0.0043949807429044634 4.9637009502233065e-05 0 0.0043989064335586909 4.7891440822542619e-05 0 0.0043965561385937452 4.3083055158241128e-05 0 0.0021181778867405904 -0.00047488182525507713 0 0.0021246220222132955 -0.00047025216031987787 0 0.0021041084805073153 -0.00047410982610280217 0 0.0043959636166024645 -0.00031884142698721256 0 0.004408284134278853 -0.0002600211215574176 0 0.0043733086940878794 -0.00025648568233008906 0 0.002876341363475267 -0.00044800578792528152 0 0.0019242423163060825 -0.00048683247694191975 0 0.002876341363475267 -0.00044800578792528152 0 0.003310012332483566 -0.00036924077957200608 0 0.0021416455491557089 -0.00048799747430110902 0 0.0021246220222132955 -0.00047025216031987787 0 0.0021160176752870238 -0.00048702807001539574 0 0.0021246220222132955 -0.00047025216031987787 0 0.0021160176752870238 -0.00048702807001539574 0 0.0021041084805073153 -0.00047410982610280217 0 0.0021160176752870238 -0.00048702807001539574 0 0.0020810337376647712 -0.00047756821547734299 0 0.0021041084805073153 -0.00047410982610280217 0 0.0019242423163060825 -0.00048683247694191975 0 0.0021338545574021818 -0.00047665798037834709 0 0.0020303183207499484 -0.00047628184622370174 0 0.00201671481102515 -0.00044707210007940805 0 0.0020430085815066109 -0.00044631168161905847 0 0.0020303183207499484 -0.00047628184622370174 0 0.0020430085815066109 -0.00044631168161905847 0 0.0020810337376647712 -0.00047756821547734299 0 0.0020051587703752097 -0.00047339683244481198 0 0.0020303183207499484 -0.00047628184622370174 0 0.0020131758627158977 -0.00046398657814454038 0 0.0020303183207499484 -0.00047628184622370174 0 0.0020131758627158977 -0.00046398657814454038 0 0.00201671481102515 -0.00044707210007940805 0 0.0020000715537951187 -0.00046530540276764314 0 0.0020131758627158977 -0.00046398657814454038 0 0.00201671481102515 -0.00044707210007940805 0 0.0020027322786863137 -0.00042266459547851562 0 0.00201671481102515 -0.00044707210007940805 0 0.0020241923267081811 -0.0004283909867996779 0 0.0020027322786863137 -0.00042266459547851562 0 0.0020000715537951187 -0.00046530540276764314 0 0.00201671481102515 -0.00044707210007940805 0 0.00201671481102515 -0.00044707210007940805 0 0.0020241923267081811 -0.0004283909867996779 0 0.0020430085815066109 -0.00044631168161905847 0 0.0020357523830699855 -0.00042219599041574382 0 0.0020241923267081811 -0.0004283909867996779 0 0.0020430085815066109 -0.00044631168161905847 0 0.0020357523830699855 -0.00042219599041574382 0 0.0020430085815066109 -0.00044631168161905847 0 0.002062537854107975 -0.00044372933417901125 0 0.0020357523830699855 -0.00042219599041574382 0 0.002062537854107975 -0.00044372933417901125 0 0.0020457499253320223 -0.00041732498325862508 0 0.002062537854107975 -0.00044372933417901125 0 0.0020793607661416169 -0.00044074673603236049 0 0.0020860827188443729 -0.00046328375740243763 0 0.002062537854107975 -0.00044372933417901125 0 0.0020793607661416169 -0.00044074673603236049 0 0.0020457499253320223 -0.00041732498325862508 0 0.0020793607661416169 -0.00044074673603236049 0 0.0020860827188443729 -0.00046328375740243763 0 0.0020962073255764917 -0.00045627151045052973 0 0.0020860827188443729 -0.00046328375740243763 0 0.0021002174009595318 -0.00046941396992673877 0 0.0020962073255764917 -0.00045627151045052973 0 0.002062537854107975 -0.00044372933417901125 0 0.0020860827188443729 -0.00046328375740243763 0 0.0020810337376647712 -0.00047756821547734299 0 0.0020430085815066109 -0.00044631168161905847 0 0.002062537854107975 -0.00044372933417901125 0 0.0020810337376647712 -0.00047756821547734299 0 0.0020860827188443729 -0.00046328375740243763 0 0.0020810337376647712 -0.00047756821547734299 0 0.0020963414310802269 -0.00047570077024982227 0 0.0020810337376647712 -0.00047756821547734299 0 0.0020963414310802269 -0.00047570077024982227 0 0.0021041084805073153 -0.00047410982610280217 0 0.0020963414310802269 -0.00047570077024982227 0 0.0021002174009595318 -0.00046941396992673877 0 0.0021109280090766372 -0.00047932935332244668 0 0.0020860827188443729 -0.00046328375740243763 0 0.0020963414310802269 -0.00047570077024982227 0 0.0021002174009595318 -0.00046941396992673877 0 0.0020963414310802269 -0.00047570077024982227 0 0.0021097711519245774 -0.00047802902506167863 0 0.0021109280090766372 -0.00047932935332244668 0 0.0020963414310802269 -0.00047570077024982227 0 0.0021097711519245774 -0.00047802902506167863 0 0.0021041084805073153 -0.00047410982610280217 0 0.0021181778867405904 -0.00047488182525507713 0 0.0021097711519245774 -0.00047802902506167863 0 0.0021041084805073153 -0.00047410982610280217 0 0.0021219528451513116 -0.00048661727443561644 0 0.0021192589187627913 -0.0004690069897228383 0 0.0021378358406428256 -0.00048969070811067435 0 0.0021177338873471373 -0.00048200510335435934 0 0.0021219528451513116 -0.00048661727443561644 0 0.0021109280090766372 -0.00047932935332244668 0 0.0021177338873471373 -0.00048200510335435934 0 0.0021097711519245774 -0.00047802902506167863 0 0.0021109280090766372 -0.00047932935332244668 0 0.0021002174009595318 -0.00046941396992673877 0 0.0021109280090766372 -0.00047932935332244668 0 0.0021192589187627913 -0.0004690069897228383 0 0.0021219528451513116 -0.00048661727443561644 0 0.0021109280090766372 -0.00047932935332244668 0 0.0021192589187627913 -0.0004690069897228383 0 0.0021192589187627913 -0.0004690069897228383 0 0.0021295302224029395 -0.00045255701977246331 0 0.0021062254056440897 -0.00044448342382836538 0 0.0021192589187627913 -0.0004690069897228383 0 0.0020962073255764917 -0.00045627151045052973 0 0.0021062254056440897 -0.00044448342382836538 0 0.0021002174009595318 -0.00046941396992673877 0 0.0021192589187627913 -0.0004690069897228383 0 0.0020962073255764917 -0.00045627151045052973 0 0.0020793607661416169 -0.00044074673603236049 0 0.0021062254056440897 -0.00044448342382836538 0 0.002080108076534391 -0.00041517384066362125 0 0.0020793607661416169 -0.00044074673603236049 0 0.0020962073255764917 -0.00045627151045052973 0 0.0021062254056440897 -0.00044448342382836538 0 0.0021062254056440897 -0.00044448342382836538 0 0.0021266031634628027 -0.0004327579375725331 0 0.002109692321505722 -0.00042099666162245201 0 0.0021295302224029395 -0.00045255701977246331 0 0.0021062254056440897 -0.00044448342382836538 0 0.0021266031634628027 -0.0004327579375725331 0 0.0021266031634628027 -0.0004327579375725331 0 0.002109692321505722 -0.00042099666162245201 0 0.002126858434413419 -0.00040868138627745841 0 0.002109692321505722 -0.00042099666162245201 0 0.002126858434413419 -0.00040868138627745841 0 0.0021067615179118466 -0.00039962054952534938 0 0.002126858434413419 -0.00040868138627745841 0 0.0021067615179118466 -0.00039962054952534938 0 0.0021240645681587858 -0.0003877328655156237 0 0.0021067615179118466 -0.00039962054952534938 0 0.0021240645681587858 -0.0003877328655156237 0 0.0020941907289864837 -0.00036771440087911381 0 0.0021067615179118466 -0.00039962054952534938 0 0.002080108076534391 -0.00041517384066362125 0 0.0020941907289864837 -0.00036771440087911381 0 0.0021062254056440897 -0.00044448342382836538 0 0.002109692321505722 -0.00042099666162245201 0 0.002080108076534391 -0.00041517384066362125 0 0.002109692321505722 -0.00042099666162245201 0 0.0021067615179118466 -0.00039962054952534938 0 0.002080108076534391 -0.00041517384066362125 0 0.0020793607661416169 -0.00044074673603236049 0 0.002080108076534391 -0.00041517384066362125 0 0.0020457499253320223 -0.00041732498325862508 0 0.0020357523830699855 -0.00042219599041574382 0 0.0020457499253320223 -0.00041732498325862508 0 0.002019055481145051 -0.00039638451186031336 0 0.0020457499253320223 -0.00041732498325862508 0 0.002019055481145051 -0.00039638451186031336 0 0.0020086907789775847 -0.00038291886699215726 0 0.002080108076534391 -0.00041517384066362125 0 0.0020086907789775847 -0.00038291886699215726 0 0.0020941907289864837 -0.00036771440087911381 0 0.002080108076534391 -0.00041517384066362125 0 0.0020457499253320223 -0.00041732498325862508 0 0.0020086907789775847 -0.00038291886699215726 0 0.002008235754085885 -0.00038385212930891547 0 0.00200038770764725 -0.00035895449290506158 0 0.0019617675138703483 -0.00040320390096155252 0 0.0020086907789775847 -0.00038291886699215726 0 0.0019133433615360069 -0.00037089634141980086 0 0.002019055481145051 -0.00039638451186031336 0 0.0019925225367955672 -0.00039553160799585171 0 0.0020086907789775847 -0.00038291886699215726 0 0.0019617675138703483 -0.00040320390096155252 0 0.0019925225367955672 -0.00039553160799585171 0 0.0020086907789775847 -0.00038291886699215726 0 0.0014833639885440883 -0.00055021128449287608 0 0.0016869045301235574 -0.00034482381408158607 0 0.0019487634630969825 -0.00041680672109152431 0 0.001749305196180288 -0.00047276512993568221 0 0.0019303069257693094 -0.00042628725613733716 0 0.0020099845218919713 -0.00040716156861261241 0 0.0019925225367955672 -0.00039553160799585171 0 0.0019487634630969825 -0.00041680672109152431 0 0.0016869045301235574 -0.00034482381408158607 0 0.0019487634630969825 -0.00041680672109152431 0 0.0019582948631955651 -0.00035613985289857306 0 0.0019617675138703483 -0.00040320390096155252 0 0.0019487634630969825 -0.00041680672109152431 0 0.0019314697411534246 -0.00042201197288094716 0 -0.001174279489201692 -0.00080142115160194397 0 -0.00084909372485868846 -0.00094876181384532089 0 -0.0010140976731640083 -0.00076455952818492759 0 0.0019617675138703483 -0.00040320390096155252 0 0.0019925225367955672 -0.00039553160799585171 0 0.0019487634630969825 -0.00041680672109152431 0 0.0019487634630969825 -0.00041680672109152431 0 0.0019582948631955651 -0.00035613985289857306 0 0.0019314697411534246 -0.00042201197288094716 0 0.00037770197305901469 -0.00057280974515169759 0 0.00051474947599495396 -0.00066901173010483603 0 -0.00084909372485868846 -0.00094876181384532089 0 -0.00085142255051653948 -0.00073978460483445395 0 -0.0010140976731640083 -0.00076455952818492759 0 -0.00084909372485868846 -0.00094876181384532089 0 -0.00063108525909813561 -0.00088311613722654098 0 -0.00085142255051653948 -0.00073978460483445395 0 -0.00063108525909813561 -0.00088311613722654098 0 -0.00051047321443450889 -0.0010811714885750475 0 -0.00042695153565491047 -0.00078442383670415769 0 -0.00084909372485868846 -0.00094876181384532089 0 -0.00063108525909813561 -0.00088311613722654098 0 -0.00051047321443450889 -0.0010811714885750475 0 0.00051474947599495396 -0.00066901173010483603 0 0.00079376141687727817 -0.00081507670727953916 0 0.00200038770764725 -0.00035895449290506158 0 0.0019835555226318437 -0.00045971306763921307 0 0.0019314697411534246 -0.00042201197288094716 0 0.0018392858819930224 -0.0004058632181246258 0 0.0019133433615360069 -0.00037089634141980086 0 0.0018392858819930224 -0.0004058632181246258 0 0.0019133433615360069 -0.00037089634141980086 0 0.0017969303870395015 -0.00038382814308061399 0 0.0021240645681587858 -0.0003877328655156237 0 0.0020941907289864837 -0.00036771440087911381 0 0.0021428631232033994 -0.00036765818914777436 0 0.0019617675138703483 -0.00040320390096155252 0 0.0019314697411534246 -0.00042201197288094716 0 0.0019133433615360069 -0.00037089634141980086 0 -0.00089420197208033047 -0.00054588267296018023 0 -0.00076873157236345127 -0.00042260250399866529 0 -0.00065902570125985784 -0.00063950735090621868 0 -0.00089420197208033047 -0.00054588267296018023 0 -0.00094697432839398264 -0.00038550967963457087 0 -0.0010427983468672859 -0.00047867110998223411 0 -0.00089420197208033047 -0.00054588267296018023 0 -0.001060000976519068 -0.00063149985874750658 0 -0.0010427983468672859 -0.00047867110998223411 0 -0.00094697432839398264 -0.00038550967963457087 0 -0.00076873157236345127 -0.00042260250399866529 0 -0.00084346559825867378 -0.00026087634238982472 0 -0.00089420197208033047 -0.00054588267296018023 0 -0.00094697432839398264 -0.00038550967963457087 0 -0.00076873157236345127 -0.00042260250399866529 0 -0.00076873157236345127 -0.00042260250399866529 0 -0.00057788257214350851 -0.00042002765901259326 0 -0.00066218941932838905 -0.00029986490738323712 0 -0.00057788257214350851 -0.00042002765901259326 0 -0.00065902570125985784 -0.00063950735090621868 0 -0.00033512269009703364 -0.00049134208746913586 0 -0.00076873157236345127 -0.00042260250399866529 0 -0.00057788257214350851 -0.00042002765901259326 0 -0.00065902570125985784 -0.00063950735090621868 0 -0.00063108525909813561 -0.00088311613722654098 0 -0.00065902570125985784 -0.00063950735090621868 0 -0.00085142255051653948 -0.00073978460483445395 0 -0.00063108525909813561 -0.00088311613722654098 0 -0.00065902570125985784 -0.00063950735090621868 0 -0.00042695153565491047 -0.00078442383670415769 0 -0.00089420197208033047 -0.00054588267296018023 0 -0.00065902570125985784 -0.00063950735090621868 0 -0.00085142255051653948 -0.00073978460483445395 0 -0.00089420197208033047 -0.00054588267296018023 0 -0.00085142255051653948 -0.00073978460483445395 0 -0.001060000976519068 -0.00063149985874750658 0 -0.00085142255051653948 -0.00073978460483445395 0 -0.0010140976731640083 -0.00076455952818492759 0 -0.001060000976519068 -0.00063149985874750658 0 -0.0010140976731640083 -0.00076455952818492759 0 -0.0011318753851022939 -0.00070451970245343745 0 -0.001060000976519068 -0.00063149985874750658 0 -0.001174279489201692 -0.00080142115160194397 0 -0.0010140976731640083 -0.00076455952818492759 0 -0.0011318753851022939 -0.00070451970245343745 0 -0.001174279489201692 -0.00080142115160194397 0 -0.0011318753851022939 -0.00070451970245343745 0 -0.0012328798363347125 -0.00063658340521726569 0 -0.001060000976519068 -0.00063149985874750658 0 -0.0012328798363347125 -0.00063658340521726569 0 -0.0011941964198216438 -0.00048398694066462947 0 -0.0011318753851022939 -0.00070451970245343745 0 -0.001060000976519068 -0.00063149985874750658 0 -0.0012328798363347125 -0.00063658340521726569 0 0.00037770197305901469 -0.00057280974515169759 0 8.5110935750375762e-05 -0.00040117486037418966 0 0.0016869045301235574 -0.00034482381408158607 0 0.0019582948631955651 -0.00035613985289857306 0 0.0015263139284288712 -0.00010790042306648586 0 -0.0012328798363347125 -0.00063658340521726569 0 -0.0013396345391908922 -0.00050793864708905637 0 -0.0014561617208909796 -0.00065573578175240777 0 -0.001174279489201692 -0.00080142115160194397 0 -0.0012328798363347125 -0.00063658340521726569 0 -0.0014561617208909796 -0.00065573578175240777 0 -0.0013396345391908922 -0.00050793864708905637 0 -0.0012750304994555424 -0.00034995325368963632 0 -0.0015142870682806008 -0.00037888409485721715 0 -0.0012328798363347125 -0.00063658340521726569 0 -0.0013396345391908922 -0.00050793864708905637 0 -0.0011941964198216438 -0.00048398694066462947 0 -0.0013396345391908922 -0.00050793864708905637 0 -0.0011941964198216438 -0.00048398694066462947 0 -0.0012750304994555424 -0.00034995325368963632 0 -0.001060000976519068 -0.00063149985874750658 0 -0.0010427983468672859 -0.00047867110998223411 0 -0.0011941964198216438 -0.00048398694066462947 0 -0.0011941964198216438 -0.00048398694066462947 0 -0.0011079182164382693 -0.00034737207819487802 0 -0.0012750304994555424 -0.00034995325368963632 0 -0.00094697432839398264 -0.00038550967963457087 0 -0.0010427983468672859 -0.00047867110998223411 0 -0.0011079182164382693 -0.00034737207819487802 0 -0.0010427983468672859 -0.00047867110998223411 0 -0.0011941964198216438 -0.00048398694066462947 0 -0.0011079182164382693 -0.00034737207819487802 0 -0.00094697432839398264 -0.00038550967963457087 0 -0.0011079182164382693 -0.00034737207819487802 0 -0.0010188277503154861 -0.00026015648119970562 0 -0.0011079182164382693 -0.00034737207819487802 0 -0.0011501712955749967 -0.00019670585626546715 0 -0.0010188277503154861 -0.00026015648119970562 0 -0.0011079182164382693 -0.00034737207819487802 0 -0.0011501712955749967 -0.00019670585626546715 0 -0.0012750304994555424 -0.00034995325368963632 0 -0.0011501712955749967 -0.00019670585626546715 0 -0.0012750304994555424 -0.00034995325368963632 0 -0.0013229513378887508 -0.00018911782292826507 0 -0.0011501712955749967 -0.00019670585626546715 0 -0.0010371119764662389 -0.0001099782585899803 0 -0.0010188277503154861 -0.00026015648119970562 0 -0.0012750304994555424 -0.00034995325368963632 0 -0.0013229513378887508 -0.00018911782292826507 0 -0.0015142870682806008 -0.00037888409485721715 0 -0.0013385507339275077 -7.1997085566567715e-05 0 -0.0016953076311590086 -0.00030689044268537499 0 -0.0014450840413732476 -1.7968544633622501e-05 0 -0.0014661721914081603 9.4307706683791838e-05 0 -0.001538682364811788 1.4964586491940799e-05 0 -0.0014450840413732476 -1.7968544633622501e-05 0 -0.0014661721914081603 9.4307706683791838e-05 0 -0.0013344345253969271 0.00012416269670918902 0 -0.0014450840413732476 -1.7968544633622501e-05 0 -0.0013344345253969271 0.00012416269670918902 0 -0.0011757856966362035 6.4047295955039371e-05 0 -0.0011501712955749967 -0.00019670585626546715 0 -0.0013229513378887508 -0.00018911782292826507 0 -0.0011757856966362035 6.4047295955039371e-05 0 -0.0013385507339275077 -7.1997085566567715e-05 0 -0.0011947078124031161 4.8887250526731015e-05 0 -0.0011501712955749967 -0.00019670585626546715 0 -0.0011757856966362035 6.4047295955039371e-05 0 -0.0010371119764662389 -0.0001099782585899803 0 -0.0011757856966362035 6.4047295955039371e-05 0 -0.0009037915658139412 7.016876464047722e-05 0 -0.00084830327678691718 0.00035822914814843173 0 -0.0011757856966362035 6.4047295955039371e-05 0 -0.0009037915658139412 7.016876464047722e-05 0 -0.0010371119764662389 -0.0001099782585899803 0 -0.00074238047104435462 -0.00011866273050781308 0 -0.0010371119764662389 -0.0001099782585899803 0 -0.00047260891327301777 -0.00024401742116227597 0 -0.0009037915658139412 7.016876464047722e-05 0 -0.00074238047104435462 -0.00011866273050781308 0 -0.0005748323632133929 0.00023052093140471478 0 -0.0009037915658139412 7.016876464047722e-05 0 -0.00074238047104435462 -0.00011866273050781308 0 -0.0010371119764662389 -0.0001099782585899803 0 -0.0010371119764662389 -0.0001099782585899803 0 -0.00084346559825867378 -0.00026087634238982472 0 -0.00062361159099446662 -0.00013021747791259011 0 -0.0010371119764662389 -0.0001099782585899803 0 -0.00084346559825867378 -0.00026087634238982472 0 -0.0010188277503154861 -0.00026015648119970562 0 -0.00095622550992291227 -0.00011732850295275584 0 -0.00066061859327102039 -0.00019862606721230306 0 -0.00094697432839398264 -0.00038550967963457087 0 -0.00084346559825867378 -0.00026087634238982472 0 -0.0010188277503154861 -0.00026015648119970562 0 -0.00066218941932838905 -0.00029986490738323712 0 -0.00062361159099446662 -0.00013021747791259011 0 -0.00045124553337901426 -0.00030152461119242757 0 -0.00057788257214350851 -0.00042002765901259326 0 -0.00066218941932838905 -0.00029986490738323712 0 -0.00045124553337901426 -0.00030152461119242757 0 -0.00084346559825867378 -0.00026087634238982472 0 -0.00066218941932838905 -0.00029986490738323712 0 -0.00062361159099446662 -0.00013021747791259011 0 -0.00076873157236345127 -0.00042260250399866529 0 -0.00084346559825867378 -0.00026087634238982472 0 -0.00066218941932838905 -0.00029986490738323712 0 -0.00051581359953643314 -1.9774031990542045e-05 0 -0.00052300068056002557 0.0001915884106970292 0 -0.00017436466138885239 5.3834361372295457e-05 0 -0.00047260891327301777 -0.00024401742116227597 0 -0.00051581359953643314 -1.9774031990542045e-05 0 -0.00017436466138885239 5.3834361372295457e-05 0 -0.00074238047104435462 -0.00011866273050781308 0 -0.00047260891327301777 -0.00024401742116227597 0 -0.00051581359953643314 -1.9774031990542045e-05 0 -0.00072778813580925657 -0.00010340444558094321 0 -0.00052525690775758632 0.0002576063094390587 0 -0.00074238047104435462 -0.00011866273050781308 0 -0.00051581359953643314 -1.9774031990542045e-05 0 -0.00052300068056002557 0.0001915884106970292 0 -0.0005748323632133929 0.00023052093140471478 0 -0.00084830327678691718 0.00035822914814843173 0 -0.00040084504555480926 0.00056415932867072047 0 -0.0014062905150437413 0.00015719221059526351 0 -0.0014064168068745452 0.00016211411377872119 0 -0.0013922615902055965 0.00015804119965681638 0 -0.00052300068056002557 0.0001915884106970292 0 -0.00017436466138885239 5.3834361372295457e-05 0 -0.00027703932106998204 0.00025541731718466934 0 -0.0011524381149072545 0.00025126042303183401 0 -0.00075233822964986474 0.00028210747782827237 0 -0.00052300068056002557 0.0001915884106970292 0 -0.00033629521017251006 0.00045728754172753757 0 -0.00027703932106998204 0.00025541731718466934 0 -0.00052525690775758632 0.0002576063094390587 0 -0.00075233822964986474 0.00028210747782827237 0 -0.0009037915658139412 7.016876464047722e-05 0 -0.0005748323632133929 0.00023052093140471478 0 -0.00084830327678691718 0.00035822914814843173 0 -0.0014062905150437413 0.00015719221059526351 0 -0.0014121709614025499 0.00016082230628476201 0 -0.0013881701554840759 0.00015011557415141579 0 -0.0014062905150437413 0.00015719221059526351 0 -0.0014121709614025499 0.00016082230628476201 0 -0.0014064168068745452 0.00016211411377872119 0 -0.0014121709614025499 0.00016082230628476201 0 -0.0014064168068745452 0.00016211411377872119 0 -0.0014227188915905463 0.0001772031495022444 0 -0.0014121709614025499 0.00016082230628476201 0 -0.0014227188915905463 0.0001772031495022444 0 -0.0014485011832373587 0.00018432889079872419 0 -0.0014064168068745452 0.00016211411377872119 0 -0.0013922615902055965 0.00015804119965681638 0 -0.0013988294504944543 0.00017102187029995427 0 -0.0014064168068745452 0.00016211411377872119 0 -0.0013988294504944543 0.00017102187029995427 0 -0.0014227188915905463 0.0001772031495022444 0 -0.0014003320540400849 0.00018273478166458491 0 -0.0014227188915905463 0.0001772031495022444 0 -0.0014294230079896595 0.00019677363344638868 0 -0.0013988294504944543 0.00017102187029995427 0 -0.0014003320540400849 0.00018273478166458491 0 -0.0013711531540907278 0.00017977162972216483 0 -0.0013988294504944543 0.00017102187029995427 0 -0.0014003320540400849 0.00018273478166458491 0 -0.0014227188915905463 0.0001772031495022444 0 -0.0014227188915905463 0.0001772031495022444 0 -0.0014714192910008264 0.00020586637627261604 0 -0.0014485011832373587 0.00018432889079872419 0 -0.0014294230079896595 0.00019677363344638868 0 -0.0014714192910008264 0.00020586637627261604 0 -0.0014412575513331992 0.00021693511871331535 0 -0.0014227188915905463 0.0001772031495022444 0 -0.0014294230079896595 0.00019677363344638868 0 -0.0014714192910008264 0.00020586637627261604 0 -0.0014294230079896595 0.00019677363344638868 0 -0.0013822651026935734 0.00019792654725993826 0 -0.0014412575513331992 0.00021693511871331535 0 -0.0014003320540400849 0.00018273478166458491 0 -0.0014294230079896595 0.00019677363344638868 0 -0.0013822651026935734 0.00019792654725993826 0 -0.001546634417702592 0.00022585584292885821 0 -0.0014714192910008264 0.00020586637627261604 0 -0.0015029570562869721 0.00020464630577368304 0 -0.001546634417702592 0.00022585584292885821 0 -0.0014714192910008264 0.00020586637627261604 0 -0.0015303333292476845 0.00023386080155897267 0 -0.0014714192910008264 0.00020586637627261604 0 -0.0014485011832373587 0.00018432889079872419 0 -0.0015029570562869721 0.00020464630577368304 0 -0.0014485011832373587 0.00018432889079872419 0 -0.0015029570562869721 0.00020464630577368304 0 -0.001476663646259259 0.00018672626733165558 0 -0.0015029570562869721 0.00020464630577368304 0 -0.001476663646259259 0.00018672626733165558 0 -0.0015351870870025273 0.00020301131875327216 0 -0.001476663646259259 0.00018672626733165558 0 -0.001424445364510714 0.00016749721715199125 0 -0.0014251262444649184 0.00015773802194208415 0 -0.001476663646259259 0.00018672626733165558 0 -0.0015097359229919265 0.00016618651310425843 0 -0.0015351870870025273 0.00020301131875327216 0 -0.0014485011832373587 0.00018432889079872419 0 -0.001476663646259259 0.00018672626733165558 0 -0.001424445364510714 0.00016749721715199125 0 -0.0014121709614025499 0.00016082230628476201 0 -0.0014485011832373587 0.00018432889079872419 0 -0.001424445364510714 0.00016749721715199125 0 -0.0014121709614025499 0.00016082230628476201 0 -0.001424445364510714 0.00016749721715199125 0 -0.0013881701554840759 0.00015011557415141579 0 -0.0013344345253969271 0.00012416269670918902 0 -0.0011757856966362035 6.4047295955039371e-05 0 -0.00084830327678691718 0.00035822914814843173 0 -0.0013344345253969271 0.00012416269670918902 0 -0.0014062905150437413 0.00015719221059526351 0 -0.0013881701554840759 0.00015011557415141579 0 -0.0013167297752334911 0.00013992002028881929 0 -0.0011524381149072545 0.00025126042303183401 0 -0.001424445364510714 0.00016749721715199125 0 -0.0013881701554840759 0.00015011557415141579 0 -0.0014251262444649184 0.00015773802194208415 0 -0.0013344345253969271 0.00012416269670918902 0 -0.0013881701554840759 0.00015011557415141579 0 -0.0014251262444649184 0.00015773802194208415 0 -0.001476663646259259 0.00018672626733165558 0 -0.0014251262444649184 0.00015773802194208415 0 -0.0015097359229919265 0.00016618651310425843 0 -0.0014661721914081603 9.4307706683791838e-05 0 -0.0014251262444649184 0.00015773802194208415 0 -0.0015097359229919265 0.00016618651310425843 0 -0.0014661721914081603 9.4307706683791838e-05 0 -0.0013344345253969271 0.00012416269670918902 0 -0.0014251262444649184 0.00015773802194208415 0 -0.0014661721914081603 9.4307706683791838e-05 0 -0.0015097359229919265 0.00016618651310425843 0 -0.001555077566770726 0.00010621134782877311 0 -0.0015097359229919265 0.00016618651310425843 0 -0.0015921194554360015 0.00021847368300575168 0 -0.001555077566770726 0.00010621134782877311 0 -0.001570491024992989 0.00022032621862990044 0 -0.0017037229908087571 0.00017657326469254478 0 -0.0015921194554360015 0.00021847368300575168 0 -0.0015734590020515464 0.00026011287468735326 0 -0.0015925381146996583 0.00031173574238114212 0 -0.0015921194554360015 0.00021847368300575168 0 -0.0015765651711674969 0.00022179650176540452 0 -0.0015808931205100636 0.00025240584973959356 0 -0.0015097359229919265 0.00016618651310425843 0 -0.0015921194554360015 0.00021847368300575168 0 -0.0015351870870025273 0.00020301131875327216 0 -0.0015921194554360015 0.00021847368300575168 0 -0.0015351870870025273 0.00020301131875327216 0 -0.0015765651711674969 0.00022179650176540452 0 -0.001546634417702592 0.00022585584292885821 0 -0.0015029570562869721 0.00020464630577368304 0 -0.0015765651711674969 0.00022179650176540452 0 -0.0015029570562869721 0.00020464630577368304 0 -0.0015351870870025273 0.00020301131875327216 0 -0.0015765651711674969 0.00022179650176540452 0 -0.0015765651711674969 0.00022179650176540452 0 -0.0016095642844194164 0.0002325249982581901 0 -0.0015808931205100636 0.00025240584973959356 0 -0.0015765651711674969 0.00022179650176540452 0 -0.0016095642844194164 0.0002325249982581901 0 -0.0015989649671230314 0.00023903403385830527 0 -0.001546634417702592 0.00022585584292885821 0 -0.0015765651711674969 0.00022179650176540452 0 -0.0015989649671230314 0.00023903403385830527 0 -0.0016095642844194164 0.0002325249982581901 0 -0.001637448774337018 0.00023517611157104429 0 -0.0016506477041296421 0.00025625382677110878 0 -0.0016095642844194164 0.0002325249982581901 0 -0.001637448774337018 0.00023517611157104429 0 -0.0015808931205100636 0.00025240584973959356 0 -0.0016108763438762396 0.0002842864909387324 0 -0.0015848348175833049 0.0002576679219943441 0 -0.0015795764842610053 0.00033115885889935449 0 -0.0015731413170351092 0.00030110766589134066 0 -0.0015808931205100636 0.00025240584973959356 0 -0.0015808931205100636 0.00025240584973959356 0 -0.0015734590020515464 0.00026011287468735326 0 -0.0015537679234004069 0.00028726767838496491 0 -0.0015731413170351092 0.00030110766589134066 0 -0.0015808931205100636 0.00025240584973959356 0 -0.0015537679234004069 0.00028726767838496491 0 -0.0015921194554360015 0.00021847368300575168 0 -0.0015808931205100636 0.00025240584973959356 0 -0.0015734590020515464 0.00026011287468735326 0 -0.0015734590020515464 0.00026011287468735326 0 -0.0015527464386922137 0.00029323870213232366 0 -0.0015537679234004069 0.00028726767838496491 0 -0.0015527464386922137 0.00029323870213232366 0 -0.0015587488982456146 0.00033447701479267546 0 -0.001529318943039685 0.00032246083593758982 0 -0.0015263093265284714 0.00035517662006264572 0 -0.0015587488982456146 0.00033447701479267546 0 -0.001529318943039685 0.00032246083593758982 0 -0.0015587488982456146 0.00033447701479267546 0 -0.0015925381146996583 0.00031173574238114212 0 -0.0015718020468018358 0.0003666151340733409 0 -0.0017037229908087571 0.00017657326469254478 0 -0.00099969404336300847 6.0012143670229428e-05 0 -0.0015527464386922137 0.00029323870213232366 0 -0.0015587488982456146 0.00033447701479267546 0 -0.0015925381146996583 0.00031173574238114212 0 -0.0015734590020515464 0.00026011287468735326 0 -0.0015527464386922137 0.00029323870213232366 0 -0.0015925381146996583 0.00031173574238114212 0 -0.0016432192895426182 3.5922450178232283e-05 0 -0.001555077566770726 0.00010621134782877311 0 -0.001538682364811788 1.4964586491940799e-05 0 -0.0015921194554360015 0.00021847368300575168 0 -0.0016432192895426182 3.5922450178232283e-05 0 -0.001555077566770726 0.00010621134782877311 0 -0.0014661721914081603 9.4307706683791838e-05 0 -0.001555077566770726 0.00010621134782877311 0 -0.001538682364811788 1.4964586491940799e-05 0 -0.0014450840413732476 -1.7968544633622501e-05 0 -0.001538682364811788 1.4964586491940799e-05 0 -0.0015297062448168953 -6.2545106075909807e-05 0 -0.001538682364811788 1.4964586491940799e-05 0 -0.0015923613100283782 -4.7716317132115451e-05 0 -0.0015297062448168953 -6.2545106075909807e-05 0 -0.0016432192895426182 3.5922450178232283e-05 0 -0.001538682364811788 1.4964586491940799e-05 0 -0.0015923613100283782 -4.7716317132115451e-05 0 -0.0016432192895426182 3.5922450178232283e-05 0 -0.0015923613100283782 -4.7716317132115451e-05 0 -0.0016615644795073936 -0.00010336136786616208 0 -0.0015923613100283782 -4.7716317132115451e-05 0 -0.0016067043687977896 -0.00012474660923423943 0 -0.0015297062448168953 -6.2545106075909807e-05 0 -0.00059732255719891056 -0.00018386245050590959 0 -0.0016953076311590086 -0.00030689044268537499 0 -0.0015923613100283782 -4.7716317132115451e-05 0 -0.0016067043687977896 -0.00012474660923423943 0 -0.0016615644795073936 -0.00010336136786616208 0 -0.00059732255719891056 -0.00018386245050590959 0 -0.00099969404336300847 6.0012143670229428e-05 0 -0.0013396345391908922 -0.00050793864708905637 0 -0.0015142870682806008 -0.00037888409485721715 0 -0.0014561617208909796 -0.00065573578175240777 0 -0.0017019949431685733 -0.00054252727674865698 0 -0.0015142870682806008 -0.00037888409485721715 0 -0.0014561617208909796 -0.00065573578175240777 0 0.0016869045301235574 -0.00034482381408158607 0 0.0015263139284288712 -0.00010790042306648586 0 0.0013065312835666078 -0.00026204349813223674 0 0.001026310917369759 9.4030919155857172e-05 0 0.0015263139284288712 -0.00010790042306648586 0 0.0013065312835666078 -0.00026204349813223674 0 -0.00059732255719891056 -0.00018386245050590959 0 8.5110935750375762e-05 -0.00040117486037418966 0 0.001026310917369759 9.4030919155857172e-05 0 0.00099238504665585575 -0.00022253248958921043 0 0.00067080968279189211 -0.00018619631855621585 0 0.001026310917369759 9.4030919155857172e-05 0 0.0013065312835666078 -0.00026204349813223674 0 0.00099238504665585575 -0.00022253248958921043 0 0.0011508486300853217 -0.00036611584248621878 0 0.0013065312835666078 -0.00026204349813223674 0 0.00099238504665585575 -0.00022253248958921043 0 -0.00064955828888798998 -7.2459388948397719e-05 0 -0.00030672712234171702 0.00019553482477853565 0 -0.00040400177622142061 -0.00016954530433294226 0 0.00015532802748166586 0.00013761363213968093 0 -0.00099969404336300847 6.0012143670229428e-05 0 0.00081282174865828503 -0.0004056796598041345 0 0.00099238504665585575 -0.00022253248958921043 0 0.00067080968279189211 -0.00018619631855621585 0 -0.00013426759622501351 0.00012239462398454359 0 -0.00013759627464321654 0.0001313328749503024 0 -0.00015202488499453635 0.00010255807958246989 0 -0.00059732255719891056 -0.00018386245050590959 0 0.00015532802748166586 0.00013761363213968093 0 -0.00011938393031055727 0.00014192322899287232 0 -0.00013759627464321654 0.0001313328749503024 0 -0.00012398474482035418 0.00012869238244836583 0 -0.00013426759622501351 0.00012239462398454359 0 -0.00013759627464321654 0.0001313328749503024 0 -0.00012398474482035418 0.00012869238244836583 0 -0.00011938393031055727 0.00014192322899287232 0 -0.00012398474482035418 0.00012869238244836583 0 -0.00010849138337232569 0.00013322659484487576 0 -0.00010849138337232569 0.00013322659484487576 0 -0.00012223166412867674 0.00011286098271936197 0 -9.088922719972563e-05 0.0001132859316202719 0 -0.00013426759622501351 0.00012239462398454359 0 -0.00012398474482035418 0.00012869238244836583 0 -0.00012223166412867674 0.00011286098271936197 0 -0.00012398474482035418 0.00012869238244836583 0 -0.00010849138337232569 0.00013322659484487576 0 -0.00012223166412867674 0.00011286098271936197 0 -0.00076918816230903228 0.00023478087374257159 0 -0.00099969404336300847 6.0012143670229428e-05 0 -0.0015263093265284714 0.00035517662006264572 0 -0.0015587488982456146 0.00033447701479267546 0 -0.0015718020468018358 0.0003666151340733409 0 -0.0001075663646463057 8.6782457901589771e-05 0 -0.00012223166412867674 0.00011286098271936197 0 -0.00015202488499453635 0.00010255807958246989 0 -0.0001075663646463057 8.6782457901589771e-05 0 -0.00012223166412867674 0.00011286098271936197 0 -9.088922719972563e-05 0.0001132859316202719 0 -0.00013426759622501351 0.00012239462398454359 0 -0.00012223166412867674 0.00011286098271936197 0 -0.00015202488499453635 0.00010255807958246989 0 -5.7244188642738769e-05 9.5072050353074914e-05 0 -9.088922719972563e-05 0.0001132859316202719 0 -5.1283280468575831e-05 0.00011882716772041482 0 -0.0001075663646463057 8.6782457901589771e-05 0 -5.7244188642738769e-05 9.5072050353074914e-05 0 -9.088922719972563e-05 0.0001132859316202719 0 -9.088922719972563e-05 0.0001132859316202719 0 -8.2801089812953565e-05 0.0001356800118483713 0 -5.1283280468575831e-05 0.00011882716772041482 0 -0.00010849138337232569 0.00013322659484487576 0 -9.088922719972563e-05 0.0001132859316202719 0 -8.2801089812953565e-05 0.0001356800118483713 0 -6.6172315709983739e-05 0.00015714130930036588 0 -8.2801089812953565e-05 0.0001356800118483713 0 -5.1283280468575831e-05 0.00011882716772041482 0 0.00080648115234622738 0.0002067343608906269 0 0.00052912523997624198 9.5549600665059104e-05 0 0.0013301474240677755 0.0002078752588118505 0 0.0012372291451972443 4.430178980988421e-05 0 0.0013532175685682839 7.0112699717866651e-05 0 0.0014423532064898046 0.0001585043554171872 0 0.0013532175685682839 7.0112699717866651e-05 0 0.0014449521641617445 6.5826780890569377e-06 0 0.0010124203680826444 -4.0782010917936209e-05 0 0.0010249969617935561 -2.7333968651734579e-05 0 0.0010099848211027069 -2.4800513707210139e-05 0 0.0012422103571863565 -2.4031967201698575e-05 0 0.00086139881469378334 -5.8545201843376061e-06 0 0.0013532175685682839 7.0112699717866651e-05 0 0.0014449521641617445 6.5826780890569377e-06 0 0.0013198835937625151 -0.00011329249161101973 0 0.00052912523997624198 9.5549600665059104e-05 0 0.00086139881469378334 -5.8545201843376061e-06 0 0.0012372291451972443 4.430178980988421e-05 0 0.0013532175685682839 7.0112699717866651e-05 0 0.0013198835937625151 -0.00011329249161101973 0 -5.7244188642738769e-05 9.5072050353074914e-05 0 -5.1283280468575831e-05 0.00011882716772041482 0 -3.5793102678291265e-05 8.3229299836953442e-05 0 0.00086139881469378334 -5.8545201843376061e-06 0 -0.00016092420408830572 0.00018696417338682811 0 -3.5793102678291265e-05 8.3229299836953442e-05 0 -2.3053736152195355e-05 5.7998807197791433e-05 0 -6.4994384894407722e-05 7.1644133049499973e-05 0 -0.00016092420408830572 0.00018696417338682811 0 -0.00088255716992162675 0.00023283660636843337 0 0.0010249969617935561 -2.7333968651734579e-05 0 0.0010099848211027069 -2.4800513707210139e-05 0 0.0010162528379980917 -3.5364053245784345e-06 0 -0.0013793398657551228 0.00035363633047270085 0 -0.0014110405808607229 0.00032273016422133794 0 -0.0013226620209708972 0.00029746647791475527 0 -0.00016092420408830572 0.00018696417338682811 0 0.00059869359483343378 8.3721800533492828e-05 0 -0.00016979778454028952 0.00025896319017359 0 -0.00010431920368023734 0.00013660264138909558 0 -2.4313915173623748e-05 0.00020309958124875986 0 0.0010099848211027069 -2.4800513707210139e-05 0 0.0010162528379980917 -3.5364053245784345e-06 0 0.00097580670237323375 1.8538692330429976e-05 0 -0.0014110405808607229 0.00032273016422133794 0 -0.0014662204171347968 0.00035736159209344556 0 -0.0014442020381939967 0.00030761871839296849 0 -0.0013793398657551228 0.00035363633047270085 0 -0.0014110405808607229 0.00032273016422133794 0 -0.0014662204171347968 0.00035736159209344556 0 -0.0014662204171347968 0.00035736159209344556 0 -0.001507372743958508 0.00030754728807449105 0 -0.0014442020381939967 0.00030761871839296849 0 -5.7244188642738769e-05 9.5072050353074914e-05 0 -3.5793102678291265e-05 8.3229299836953442e-05 0 -6.4994384894407722e-05 7.1644133049499973e-05 0 -0.0001075663646463057 8.6782457901589771e-05 0 -5.7244188642738769e-05 9.5072050353074914e-05 0 -6.4994384894407722e-05 7.1644133049499973e-05 0 -0.00076918816230903228 0.00023478087374257159 0 -0.00088255716992162675 0.00023283660636843337 0 -0.0015263093265284714 0.00035517662006264572 0 -0.0014662204171347968 0.00035736159209344556 0 -0.001529318943039685 0.00032246083593758982 0 -0.0014662204171347968 0.00035736159209344556 0 -0.001529318943039685 0.00032246083593758982 0 -0.001507372743958508 0.00030754728807449105 0 -0.0015527464386922137 0.00029323870213232366 0 -0.001529318943039685 0.00032246083593758982 0 -0.001507372743958508 0.00030754728807449105 0 -0.001507372743958508 0.00030754728807449105 0 -0.0015537679234004069 0.00028726767838496491 0 -0.0015466346207891326 0.00030342397848575123 0 -0.0015527464386922137 0.00029323870213232366 0 -0.001507372743958508 0.00030754728807449105 0 -0.0015537679234004069 0.00028726767838496491 0 -0.0015086311881602596 0.00031286423831158796 0 -0.0014912682906345052 0.00031505133197176817 0 -0.001507372743958508 0.00030754728807449105 0 -0.0014442020381939967 0.00030761871839296849 0 -0.0014097255790489888 0.00030391290619495858 0 -0.001507372743958508 0.00030754728807449105 0 -0.001569753561990008 0.00031315818736822479 0 -0.0015466346207891326 0.00030342397848575123 0 -0.001569753561990008 0.00031315818736822479 0 -0.0015631284152197793 0.00031732527668733014 0 -0.0015718149460743778 0.00034902270053774678 0 -0.001569753561990008 0.00031315818736822479 0 -0.0015466346207891326 0.00030342397848575123 0 -0.0015631284152197793 0.00031732527668733014 0 -0.0015731413170351092 0.00030110766589134066 0 -0.0015537679234004069 0.00028726767838496491 0 -0.0015631284152197793 0.00031732527668733014 0 -0.0015537679234004069 0.00028726767838496491 0 -0.0015466346207891326 0.00030342397848575123 0 -0.0015631284152197793 0.00031732527668733014 0 -0.0015731413170351092 0.00030110766589134066 0 -0.0015631284152197793 0.00031732527668733014 0 -0.0015855197555938217 0.00033970549967089471 0 -0.0015795764842610053 0.00033115885889935449 0 -0.0015731413170351092 0.00030110766589134066 0 -0.0015855197555938217 0.00033970549967089471 0 -0.0015631284152197793 0.00031732527668733014 0 -0.0015718149460743778 0.00034902270053774678 0 -0.0015855197555938217 0.00033970549967089471 0 -0.0015718149460743778 0.00034902270053774678 0 -0.0015814524118178189 0.00036965959868018653 0 -0.0015855197555938217 0.00033970549967089471 0 -0.0015814524118178189 0.00036965959868018653 0 -0.0015855197555938217 0.00033970549967089471 0 -0.0016095342609932727 0.00034911332237594778 0 -0.0015795764842610053 0.00033115885889935449 0 -0.0015855197555938217 0.00033970549967089471 0 -0.0016095342609932727 0.00034911332237594778 0 -0.0014885363778113941 0.0003882952155362595 0 -0.0014599574343420862 0.00039578940893222008 0 -0.0014392414352072756 0.00041916644486306642 0 -0.0014243644501041204 0.00041026493728182027 0 -0.0014585809329669905 0.0004028564066548548 0 -0.0015718149460743778 0.00034902270053774678 0 -0.0015814524118178189 0.00036965959868018653 0 -0.0015584006913255282 0.00037760701668551399 0 -0.0015814524118178189 0.00036965959868018653 0 -0.0015584006913255282 0.00037760701668551399 0 -0.0014585809329669905 0.0004028564066548548 0 -0.0014912682906345052 0.00031505133197176817 0 -0.0014885363778113941 0.0003882952155362595 0 -0.001569753561990008 0.00031315818736822479 0 -0.0015718149460743778 0.00034902270053774678 0 -0.0015584006913255282 0.00037760701668551399 0 -0.0014392414352072756 0.00041916644486306642 0 -0.0014243644501041204 0.00041026493728182027 0 -0.0014527321863976506 0.00040346380186229565 0 -0.0014243644501041204 0.00041026493728182027 0 -0.0014249839131939086 0.00035271357829882923 0 -0.0014527321863976506 0.00040346380186229565 0 -0.0014249839131939086 0.00035271357829882923 0 -0.0014188501039331604 0.00029269189835632475 0 -0.0014527321863976506 0.00040346380186229565 0 -0.0013685368558202776 0.00026626655499836056 0 -0.0014895036572941758 0.00033098025392747993 0 -0.0014188501039331604 0.00029269189835632475 0 -0.0013226620209708972 0.00029746647791475527 0 -0.0013048131524116978 0.00016740426627037005 0 -0.0014097255790489888 0.00030391290619495858 0 -0.0014243644501041204 0.00041026493728182027 0 -0.0014249839131939086 0.00035271357829882923 0 -0.0014097255790489888 0.00030391290619495858 0 -0.0014249839131939086 0.00035271357829882923 0 -0.0014188501039331604 0.00029269189835632475 0 -0.0014442020381939967 0.00030761871839296849 0 -0.0014097255790489888 0.00030391290619495858 0 -0.0014188501039331604 0.00029269189835632475 0 -0.0014110405808607229 0.00032273016422133794 0 -0.0014442020381939967 0.00030761871839296849 0 -0.0014188501039331604 0.00029269189835632475 0 -0.00016092420408830572 0.00018696417338682811 0 -0.00079921802914270418 0.00027343457343642944 0 -0.0014110405808607229 0.00032273016422133794 0 -0.0014188501039331604 0.00029269189835632475 0 -0.0013226620209708972 0.00029746647791475527 0 -0.00010431920368023734 0.00013660264138909558 0 5.2764133632946551e-06 0.00010476266753485671 0 -2.4313915173623748e-05 0.00020309958124875986 0 0.00045130707290647065 0.0001020231768330283 0 0.00059869359483343378 8.3721800533492828e-05 0 5.2764133632946551e-06 0.00010476266753485671 0 0.00012285045041916524 0.00015476588742793879 0 -2.4313915173623748e-05 0.00020309958124875986 0 5.2764133632946551e-06 0.00010476266753485671 0 -3.0565733611515919e-05 1.4724760728826568e-05 0 6.2635090320379633e-05 9.5489325342898587e-06 0 5.2764133632946551e-06 0.00010476266753485671 0 6.2635090320379633e-05 9.5489325342898587e-06 0 0.00012285045041916524 0.00015476588742793879 0 -0.00079921802914270418 0.00027343457343642944 0 -0.00059769367808848082 5.0721812079296655e-05 0 -0.0013226620209708972 0.00029746647791475527 0 -0.0013048131524116978 0.00016740426627037005 0 -0.0012328126096946398 0.00017613840632736618 0 -0.00010431920368023734 0.00013660264138909558 0 5.2764133632946551e-06 0.00010476266753485671 0 -3.0565733611515919e-05 1.4724760728826568e-05 0 -0.0013048131524116978 0.00016740426627037005 0 -0.0012328126096946398 0.00017613840632736618 0 -0.0011367656332322534 1.8416219107480058e-05 0 -0.0014392414352072756 0.00041916644486306642 0 -0.0014527321863976506 0.00040346380186229565 0 -0.0013551090081363156 0.0004535309251335376 0 -0.0014895036572941758 0.00033098025392747993 0 -0.0006797441789689907 0.0001251302120266738 0 -3.0565733611515919e-05 1.4724760728826568e-05 0 6.2635090320379633e-05 9.5489325342898587e-06 0 2.0230767617285265e-05 -4.61830283492575e-05 0 6.2635090320379633e-05 9.5489325342898587e-06 0 2.0230767617285265e-05 -4.61830283492575e-05 0 7.8104405341808143e-05 -3.1473072960327492e-05 0 -0.00059769367808848082 5.0721812079296655e-05 0 -0.0006797441789689907 0.0001251302120266738 0 -0.0006797441789689907 0.0001251302120266738 0 0.00016886202687837717 -0.00017432779727749091 0 -0.0014392414352072756 0.00041916644486306642 0 -0.0013551090081363156 0.0004535309251335376 0 -0.0014585809329669905 0.0004028564066548548 0 8.8964940399498419e-06 -2.9842220424532451e-05 0 0.00015698651950760609 -1.7989694930074242e-07 0 -0.00011977938122629814 -4.1522621873254714e-08 0 8.8964940399498419e-06 -2.9842220424532451e-05 0 7.8104405341808143e-05 -3.1473072960327492e-05 0 0.00015698651950760609 -1.7989694930074242e-07 0 2.0230767617285265e-05 -4.61830283492575e-05 0 7.8104405341808143e-05 -3.1473072960327492e-05 0 -1.2993387943971554e-05 -3.4779176298163182e-05 0 8.8964940399498419e-06 -2.9842220424532451e-05 0 7.8104405341808143e-05 -3.1473072960327492e-05 0 -1.2993387943971554e-05 -3.4779176298163182e-05 0 6.2635090320379633e-05 9.5489325342898587e-06 0 7.8104405341808143e-05 -3.1473072960327492e-05 0 0.00019388565795662476 -1.0101041280331352e-05 0 0.00015698651950760609 -1.7989694930074242e-07 0 0.00043312652849580705 3.4354841746252314e-07 0 0.00019388565795662476 -1.0101041280331352e-05 0 7.8104405341808143e-05 -3.1473072960327492e-05 0 0.00015698651950760609 -1.7989694930074242e-07 0 0.00019388565795662476 -1.0101041280331352e-05 0 0.00043312652849580705 3.4354841746252314e-07 0 0.00019388565795662476 -1.0101041280331352e-05 0 0.00012285045041916524 0.00015476588742793879 0 6.2635090320379633e-05 9.5489325342898587e-06 0 0.00019388565795662476 -1.0101041280331352e-05 0 0.00012285045041916524 0.00015476588742793879 0 0.00043417845775201171 3.2613022070565518e-07 0 0.00082550357313453235 5.5988395055613094e-05 0 0.00069187107145207011 -1.0811685580822901e-07 0 0.00043373053852468633 1.7896490980549643e-08 0 0.00045130707290647065 0.0001020231768330283 0 0.00082550357313453235 5.5988395055613094e-05 0 0.00069187107145207011 -1.0811685580822901e-07 0 0.00084596798929081885 -1.1158165489336958e-05 0 0.00069187107145207011 -1.0811685580822901e-07 0 0.00084596798929081885 -1.1158165489336958e-05 0 0.00095024038850218711 -8.007560113053817e-08 0 0.00095116049224854785 -3.4346292919445975e-05 0 0.00084596798929081885 -1.1158165489336958e-05 0 0.00095024038850218711 -8.007560113053817e-08 0 0.00095116049224854785 -3.4346292919445975e-05 0 0.00084596798929081885 -1.1158165489336958e-05 0 0.00097580670237323375 1.8538692330429976e-05 0 0.00082550357313453235 5.5988395055613094e-05 0 0.00084596798929081885 -1.1158165489336958e-05 0 0.00097580670237323375 1.8538692330429976e-05 0 0.0010099848211027069 -2.4800513707210139e-05 0 0.00097580670237323375 1.8538692330429976e-05 0 0.0010012870435653657 -3.7138388609902202e-05 0 0.00095116049224854785 -3.4346292919445975e-05 0 0.0010012870435653657 -3.7138388609902202e-05 0 0.001004919511537945 -4.4729571593541119e-05 0 0.00095116049224854785 -3.4346292919445975e-05 0 0.00097580670237323375 1.8538692330429976e-05 0 0.0010012870435653657 -3.7138388609902202e-05 0 0.0010012870435653657 -3.7138388609902202e-05 0 0.001004919511537945 -4.4729571593541119e-05 0 0.0010178914358606173 -4.0365809476252606e-05 0 0.00095116049224854785 -3.4346292919445975e-05 0 0.001004919511537945 -4.4729571593541119e-05 0 0.0010454677435046973 -4.1294622044895114e-05 0 0.001004919511537945 -4.4729571593541119e-05 0 0.0010178914358606173 -4.0365809476252606e-05 0 0.0010454677435046973 -4.1294622044895114e-05 0 0.0010124203680826444 -4.0782010917936209e-05 0 0.0010099848211027069 -2.4800513707210139e-05 0 0.0010012870435653657 -3.7138388609902202e-05 0 0.0010124203680826444 -4.0782010917936209e-05 0 0.0010012870435653657 -3.7138388609902202e-05 0 0.0010178914358606173 -4.0365809476252606e-05 0 0.0010192922484939253 -3.6310317301074443e-05 0 0.0010124203680826444 -4.0782010917936209e-05 0 0.0010178914358606173 -4.0365809476252606e-05 0 0.0014831900010805455 6.9459593244709813e-05 0 0.0012422103571863565 -2.4031967201698575e-05 0 0.0015635237077060052 0.00012449212398939877 0 0.0014423532064898046 0.0001585043554171872 0 0.0014449521641617445 6.5826780890569377e-06 0 0.0014831900010805455 6.9459593244709813e-05 0 0.0011325542778472747 6.4907830944806891e-06 0 0.0010100045096049527 1.2323016172068839e-06 0 0.0010178914358606173 -4.0365809476252606e-05 0 0.0011196999964120957 -1.1844378730887418e-05 0 0.0010178914358606173 -4.0365809476252606e-05 0 0.0011196999964120957 -1.1844378730887418e-05 0 0.0010454677435046973 -4.1294622044895114e-05 0 0.0011196999964120957 -1.1844378730887418e-05 0 0.0011267171939991366 -2.3641621913800565e-05 0 0.0010454677435046973 -4.1294622044895114e-05 0 0.0012083941321049678 -3.4931728421127494e-08 0 0.0011267171939991366 -2.3641621913800565e-05 0 0.00095024038850218711 -8.007560113053817e-08 0 0.001266664674456147 -7.3833041175418983e-06 0 0.0012083941321049678 -3.4931728421127494e-08 0 0.0011267171939991366 -2.3641621913800565e-05 0 0.0011267171939991366 -2.3641621913800565e-05 0 0.00095024038850218711 -8.007560113053817e-08 0 0.0010454677435046973 -4.1294622044895114e-05 0 0.00095116049224854785 -3.4346292919445975e-05 0 0.00095024038850218711 -8.007560113053817e-08 0 0.0010454677435046973 -4.1294622044895114e-05 0 0.0026773689912555055 -0.00021178032013588038 0 0.0026406946865431217 -0.00020605719611198616 0 0.0026729008956858265 -0.00018613154738099987 0 0.0026773689912555055 -0.00021178032013588038 0 0.0026707882231016126 -0.0002448986286057373 0 0.0026406946865431217 -0.00020605719611198616 0 0.0026773689912555055 -0.00021178032013588038 0 0.0027033610102152931 -0.00023829014847209592 0 0.0026852159891579521 -0.00018456671462072831 0 0.0026773689912555055 -0.00021178032013588038 0 0.0026729008956858265 -0.00018613154738099987 0 0.0026852159891579521 -0.00018456671462072831 0 0.0026773689912555055 -0.00021178032013588038 0 0.0027033610102152931 -0.00023829014847209592 0 0.0026707882231016126 -0.0002448986286057373 0 0.0026707882231016126 -0.0002448986286057373 0 0.0026211402582056549 -0.00022878442491814076 0 0.0026149789660824445 -0.00025889856767305887 0 0.0026211402582056549 -0.00022878442491814076 0 0.0026149789660824445 -0.00025889856767305887 0 0.0025879774789210551 -0.00022825131490989564 0 0.0026211402582056549 -0.00022878442491814076 0 0.0026406946865431217 -0.00020605719611198616 0 0.0025946879308219686 -0.00020861648700577513 0 0.0026211402582056549 -0.00022878442491814076 0 0.0025946879308219686 -0.00020861648700577513 0 0.0025879774789210551 -0.00022825131490989564 0 0.0026707882231016126 -0.0002448986286057373 0 0.0026211402582056549 -0.00022878442491814076 0 0.0026406946865431217 -0.00020605719611198616 0 0.0026406946865431217 -0.00020605719611198616 0 0.0026085779190805946 -0.00019103348016018607 0 0.0026401383755133164 -0.00016496080862116367 0 0.0026406946865431217 -0.00020605719611198616 0 0.0025946879308219686 -0.00020861648700577513 0 0.0026085779190805946 -0.00019103348016018607 0 0.0025946879308219686 -0.00020861648700577513 0 0.0026085779190805946 -0.00019103348016018607 0 0.0025884724682851004 -0.0001950805852566624 0 0.0026085779190805946 -0.00019103348016018607 0 0.0025884724682851004 -0.0001950805852566624 0 0.0025599414758709946 -0.00018711929279552637 0 0.0025946879308219686 -0.00020861648700577513 0 0.0025884724682851004 -0.0001950805852566624 0 0.0025723724204138234 -0.00018780464969771316 0 0.0025884724682851004 -0.0001950805852566624 0 0.0025723724204138234 -0.00018780464969771316 0 0.0025599414758709946 -0.00018711929279552637 0 0.0025987356234301591 -0.00018726849354051023 0 0.0025629402700638919 -0.00018780195897577886 0 0.002555489642094086 -0.00020894159483981657 0 0.0025599414758709946 -0.00018711929279552637 0 0.0025399671509209439 -0.00019397307518473258 0 0.0026085779190805946 -0.00019103348016018607 0 0.0026401383755133164 -0.00016496080862116367 0 0.0025599414758709946 -0.00018711929279552637 0 0.0026401383755133164 -0.00016496080862116367 0 0.0026729008956858265 -0.00018613154738099987 0 0.0026762852000477492 -0.00017427634607246155 0 0.0026406946865431217 -0.00020605719611198616 0 0.0026401383755133164 -0.00016496080862116367 0 0.0026729008956858265 -0.00018613154738099987 0 0.0026729008956858265 -0.00018613154738099987 0 0.0026752299042841349 -0.00017798499908743437 0 0.0026762852000477492 -0.00017427634607246155 0 0.0026752299042841349 -0.00017798499908743437 0 0.0026762852000477492 -0.00017427634607246155 0 0.0026699087556931282 -0.00018748679932070801 0 0.0026752299042841349 -0.00017798499908743437 0 0.0026557604844541396 -0.00018626430861485977 0 0.0026699087556931282 -0.00018748679932070801 0 0.0026752299042841349 -0.00017798499908743437 0 0.0026557604844541396 -0.00018626430861485977 0 0.0026548545646672191 -0.00016092001283102907 0 0.0026557604844541396 -0.00018626430861485977 0 0.0026548545646672191 -0.00016092001283102907 0 0.0026142367239560087 -0.00019668816834889977 0 0.0026752299042841349 -0.00017798499908743437 0 0.0026548545646672191 -0.00016092001283102907 0 0.0026852159891579521 -0.00018456671462072831 0 0.0026548545646672191 -0.00016092001283102907 0 0.0026857665974386966 -0.00016082873653037663 0 0.0026852159891579521 -0.00018456671462072831 0 0.0026729008956858265 -0.00018613154738099987 0 0.0026752299042841349 -0.00017798499908743437 0 0.0026852159891579521 -0.00018456671462072831 0 0.0023870424459498402 -0.00017844708420156839 0 0.0026106686720221632 -0.00013635819701545142 0 0.0026840603773341716 -9.9485573057580474e-05 0 0.0023870424459498402 -0.00017844708420156839 0 0.0026106686720221632 -0.00013635819701545142 0 0.002478448935604797 -0.00022484787078222017 0 0.0026129207676331822 -5.3077134582462328e-05 0 0.0026632848364522049 -0.00010502593438585678 0 0.0026106686720221632 -0.00013635819701545142 0 0.002478448935604797 -0.00022484787078222017 0 0.0026142367239560087 -0.00019668816834889977 0 0.0026548545646672191 -0.00016092001283102907 0 0.0026106686720221632 -0.00013635819701545142 0 0.0026142367239560087 -0.00019668816834889977 0 0.0026106686720221632 -0.00013635819701545142 0 0.0026840603773341716 -9.9485573057580474e-05 0 0.0026857665974386966 -0.00016082873653037663 0 0.0026548545646672191 -0.00016092001283102907 0 0.0026106686720221632 -0.00013635819701545142 0 0.0026857665974386966 -0.00016082873653037663 0 0.0026840603773341716 -9.9485573057580474e-05 0 0.0026857665974386966 -0.00016082873653037663 0 0.0027824996707071096 -0.00020512164533404857 0 0.0028466071962414464 -0.00011343514285588127 0 0.0026840603773341716 -9.9485573057580474e-05 0 0.0027824996707071096 -0.00020512164533404857 0 0.0026857665974386966 -0.00016082873653037663 0 0.002717716125170618 -0.00023425810147359601 0 0.0027557175687727359 -0.00025373045258627984 0 0.0028128137189545694 -0.00027015170510968304 0 0.0027824996707071096 -0.00020512164533404857 0 0.0027557175687727359 -0.00025373045258627984 0 0.0026857665974386966 -0.00016082873653037663 0 0.0027824996707071096 -0.00020512164533404857 0 0.0027557175687727359 -0.00025373045258627984 0 0.0026857665974386966 -0.00016082873653037663 0 0.0026852159891579521 -0.00018456671462072831 0 0.002717716125170618 -0.00023425810147359601 0 0.0027033610102152931 -0.00023829014847209592 0 0.0026852159891579521 -0.00018456671462072831 0 0.002717716125170618 -0.00023425810147359601 0 0.0027033610102152931 -0.00023829014847209592 0 0.0027422546612953075 -0.00027774911760196071 0 0.0027237364013369936 -0.00027351761138538273 0 0.0027033610102152931 -0.00023829014847209592 0 0.002717716125170618 -0.00023425810147359601 0 0.0027422546612953075 -0.00027774911760196071 0 0.002717716125170618 -0.00023425810147359601 0 0.0027422546612953075 -0.00027774911760196071 0 0.0027637419158097285 -0.00028649934206251743 0 0.0027422546612953075 -0.00027774911760196071 0 0.0027637419158097285 -0.00028649934206251743 0 0.0027802207305907458 -0.00031204970878529961 0 0.0027422546612953075 -0.00027774911760196071 0 0.002762253222763085 -0.00030039410158168149 0 0.0027237364013369936 -0.00027351761138538273 0 0.0028128137189545694 -0.00027015170510968304 0 0.0027557175687727359 -0.00025373045258627984 0 0.0027940251607551916 -0.00029400746323695725 0 0.002717716125170618 -0.00023425810147359601 0 0.0027557175687727359 -0.00025373045258627984 0 0.0027637419158097285 -0.00028649934206251743 0 0.0027557175687727359 -0.00025373045258627984 0 0.0027637419158097285 -0.00028649934206251743 0 0.0027940251607551916 -0.00029400746323695725 0 0.0027637419158097285 -0.00028649934206251743 0 0.0027940251607551916 -0.00029400746323695725 0 0.0027877859540453419 -0.00030864061872139123 0 0.0028114967891221892 -0.00031160383630465533 0 0.0027940251607551916 -0.00029400746323695725 0 0.0027877859540453419 -0.00030864061872139123 0 0.0028114967891221892 -0.00031160383630465533 0 0.0027877859540453419 -0.00030864061872139123 0 0.0027969163452407171 -0.00031457591119166839 0 0.0027637419158097285 -0.00028649934206251743 0 0.0027877859540453419 -0.00030864061872139123 0 0.0027802207305907458 -0.00031204970878529961 0 0.0027877859540453419 -0.00030864061872139123 0 0.002790524608645365 -0.00031528209984777036 0 0.0027802207305907458 -0.00031204970878529961 0 0.0027874354219337544 -0.00031601814235017391 0 0.002790524608645365 -0.00031528209984777036 0 0.0027802207305907458 -0.00031204970878529961 0 0.0027874354219337544 -0.00031601814235017391 0 0.002790524608645365 -0.00031528209984777036 0 0.0027990630759521314 -0.00032046915972015245 0 0.0028114967891221892 -0.00031160383630465533 0 0.0027990630759521314 -0.00032046915972015245 0 0.0027969163452407171 -0.00031457591119166839 0 0.0027877859540453419 -0.00030864061872139123 0 0.002790524608645365 -0.00031528209984777036 0 0.0027969163452407171 -0.00031457591119166839 0 0.002790524608645365 -0.00031528209984777036 0 0.0027990630759521314 -0.00032046915972015245 0 0.0027969163452407171 -0.00031457591119166839 0 0.0027422546612953075 -0.00027774911760196071 0 0.002762253222763085 -0.00030039410158168149 0 0.0027802207305907458 -0.00031204970878529961 0 0.0028126832652886971 -0.00031703651661259513 0 0.0027874354219337544 -0.00031601814235017391 0 0.0027802207305907458 -0.00031204970878529961 0 0.0028126832652886971 -0.00031703651661259513 0 0.0027802207305907458 -0.00031204970878529961 0 0.0027868697207813044 -0.00031661707350182913 0 0.002762253222763085 -0.00030039410158168149 0 0.0027802207305907458 -0.00031204970878529961 0 0.0027868697207813044 -0.00031661707350182913 0 0.002762253222763085 -0.00030039410158168149 0 0.0027868697207813044 -0.00031661707350182913 0 0.0027489496793485181 -0.00030185498842646128 0 0.0027852674528593305 -0.00033498172594787547 0 0.0027868697207813044 -0.00031661707350182913 0 0.0027489496793485181 -0.00030185498842646128 0 0.0027852674528593305 -0.00033498172594787547 0 0.0027489496793485181 -0.00030185498842646128 0 0.0027149880000383363 -0.00032107770234347728 0 0.0027489496793485181 -0.00030185498842646128 0 0.0027237364013369936 -0.00027351761138538273 0 0.0027007990655109697 -0.00027619615519540924 0 0.0027489496793485181 -0.00030185498842646128 0 0.0027007990655109697 -0.00027619615519540924 0 0.0027149880000383363 -0.00032107770234347728 0 0.002762253222763085 -0.00030039410158168149 0 0.0027489496793485181 -0.00030185498842646128 0 0.0027237364013369936 -0.00027351761138538273 0 0.0026707882231016126 -0.0002448986286057373 0 0.0027237364013369936 -0.00027351761138538273 0 0.0027007990655109697 -0.00027619615519540924 0 0.0026747370083812167 -0.00024706074588469609 0 0.0026892966376276931 -0.00029715910060430404 0 0.0027033610102152931 -0.00023829014847209592 0 0.0026707882231016126 -0.0002448986286057373 0 0.0027237364013369936 -0.00027351761138538273 0 0.0026149789660824445 -0.00025889856767305887 0 0.0026127307324093187 -0.00029635264660344174 0 0.0025858437158885542 -0.00028426924270791065 0 0.0026149789660824445 -0.00025889856767305887 0 0.0026393407283661092 -0.0002880778551379924 0 0.0026127307324093187 -0.00029635264660344174 0 0.0026707882231016126 -0.0002448986286057373 0 0.0026149789660824445 -0.00025889856767305887 0 0.0026393407283661092 -0.0002880778551379924 0 0.0026707882231016126 -0.0002448986286057373 0 0.002680116016860678 -0.00032088377655998857 0 0.0026393407283661092 -0.0002880778551379924 0 0.002680116016860678 -0.00032088377655998857 0 0.0026393407283661092 -0.0002880778551379924 0 0.0026411337972771362 -0.00033264792623925071 0 0.0026393407283661092 -0.0002880778551379924 0 0.0026411337972771362 -0.00033264792623925071 0 0.0026127307324093187 -0.00029635264660344174 0 0.0026127307324093187 -0.00029635264660344174 0 0.0026002144250792942 -0.0003246192433441248 0 0.0025858437158885542 -0.00028426924270791065 0 0.0026411337972771362 -0.00033264792623925071 0 0.0026127307324093187 -0.00029635264660344174 0 0.0026002144250792942 -0.0003246192433441248 0 0.0026411337972771362 -0.00033264792623925071 0 0.0026002144250792942 -0.0003246192433441248 0 0.0026219841109562368 -0.00037143086247407253 0 0.0025913070950522488 -0.00033832723696565562 0 0.0026158381440476641 -0.00037281383506053824 0 0.002680116016860678 -0.00032088377655998857 0 0.0026411337972771362 -0.00033264792623925071 0 0.0026911259691839461 -0.00039704578376372341 0 0.0026892966376276931 -0.00029715910060430404 0 0.0027046233869891445 -0.00036170167385539859 0 0.0026411337972771362 -0.00033264792623925071 0 0.0026219841109562368 -0.00037143086247407253 0 0.0026911259691839461 -0.00039704578376372341 0 0.0026806100338304085 -0.0004262402738730296 0 0.0026219841109562368 -0.00037143086247407253 0 0.0026911259691839461 -0.00039704578376372341 0 0.0026297662778611976 -0.00042682400144111287 0 0.0026219841109562368 -0.00037143086247407253 0 0.0025749696422550537 -0.00037229543551959562 0 0.0026297662778611976 -0.00042682400144111287 0 0.0026806100338304085 -0.0004262402738730296 0 0.0026219841109562368 -0.00037143086247407253 0 0.002657499321942525 -0.00049813434644079935 0 0.0026308654551600867 -0.0004982077121540127 0 0.0026131818992761865 -0.00049616720735063302 0 0.0026453486909565776 -0.00046295309570675795 0 0.0025934048693671248 -0.00043533587582767836 0 0.002579881515507294 -0.00035698625293335623 0 0.0026219841109562368 -0.00037143086247407253 0 0.0025749696422550537 -0.00037229543551959562 0 0.002579881515507294 -0.00035698625293335623 0 0.0025749696422550537 -0.00037229543551959562 0 0.0025569603443764406 -0.00035405319714085307 0 0.0026131818992761865 -0.00049616720735063302 0 0.0026019674650426187 -0.00050678657149283326 0 0.0026160639522822644 -0.00049790171099088946 0 0.0026308654551600867 -0.0004982077121540127 0 0.0026131818992761865 -0.00049616720735063302 0 0.0026160639522822644 -0.00049790171099088946 0 0.0026264951844324003 -0.00050126341651284716 0 0.0026308654551600867 -0.0004982077121540127 0 0.0026160639522822644 -0.00049790171099088946 0 0.0026264951844324003 -0.00050126341651284716 0 0.0026160639522822644 -0.00049790171099088946 0 0.0026151284912089155 -0.00050178477119573034 0 0.0025989829192059198 -0.00051001175768254821 0 0.0026151284912089155 -0.00050178477119573034 0 0.0026150599741735997 -0.00049753638478267906 0 0.0026160639522822644 -0.00049790171099088946 0 0.0026151284912089155 -0.00050178477119573034 0 0.0026150599741735997 -0.00049753638478267906 0 0.0025989829192059198 -0.00051001175768254821 0 0.0025442614412127776 -0.00056059341929827846 0 0.002603801501222921 -0.00054222102181966311 0 0.0026034187963086433 -0.00051527649873888055 0 0.0025989829192059198 -0.00051001175768254821 0 0.002603801501222921 -0.00054222102181966311 0 0.0025955563345096671 -0.00051257035215286075 0 0.0025794849554827497 -0.00053154069209677263 0 0.0024378073152882618 -0.0006523846863160488 0 0.0024013592709938854 -0.00069468012430937804 0 0.0023915950485661926 -0.00065975646471058778 0 0.0025442614412127776 -0.00056059341929827846 0 0.0025477241114073377 -0.00060415483716893138 0 0.002603801501222921 -0.00054222102181966311 0 0.0024918811913268845 -0.00062455104004985101 0 0.0025160777469226264 -0.00062291091579014528 0 0.0026019674650426187 -0.00050678657149283326 0 0.0026160639522822644 -0.00049790171099088946 0 0.0026150599741735997 -0.00049753638478267906 0 0.0026019674650426187 -0.00050678657149283326 0 0.0026150599741735997 -0.00049753638478267906 0 0.0026013486529368815 -0.00052654240261459278 0 0.0025794849554827497 -0.00053154069209677263 0 0.0025530380965517125 -0.00056752481923824443 0 0.0025074445554029894 -0.0006137542516274746 0 0.0025477241114073377 -0.00060415483716893138 0 0.002494571007422168 -0.00060296846861108901 0 0.0025442614412127776 -0.00056059341929827846 0 0.0025074445554029894 -0.0006137542516274746 0 0.0025477241114073377 -0.00060415483716893138 0 0.0024378073152882618 -0.0006523846863160488 0 0.0024559719681910876 -0.00062471207833520901 0 0.0024085492718272242 -0.00062291377977521771 0 0.0024378073152882618 -0.0006523846863160488 0 0.0023915950485661926 -0.00065975646471058778 0 0.0024085492718272242 -0.00062291377977521771 0 0.0024559719681910876 -0.00062471207833520901 0 0.0024085492718272242 -0.00062291377977521771 0 0.0024263045459951035 -0.00058026605051519399 0 0.0024512848925525017 -0.00061878676848269151 0 0.0024360953065625701 -0.00059579932686191562 0 0.0024559719681910876 -0.00062471207833520901 0 0.0024528564981823328 -0.00060510936494612903 0 0.0024341233174321698 -0.00059993931096578228 0 0.0025074445554029894 -0.0006137542516274746 0 0.002494571007422168 -0.00060296846861108901 0 0.0025240089979903222 -0.00057783226143876942 0 0.0024378073152882618 -0.0006523846863160488 0 0.0024559719681910876 -0.00062471207833520901 0 0.002494571007422168 -0.00060296846861108901 0 0.0025530380965517125 -0.00056752481923824443 0 0.0025305041023438984 -0.00057556910262144797 0 0.0024918811913268845 -0.00062455104004985101 0 0.0024981318520681758 -0.00060263524429293139 0 0.0024528564981823328 -0.00060510936494612903 0 0.002494571007422168 -0.00060296846861108901 0 0.0024410684010709627 -0.00059778101425588253 0 0.0024559719681910876 -0.00062471207833520901 0 0.0024528564981823328 -0.00060510936494612903 0 0.002494571007422168 -0.00060296846861108901 0 0.0025448036554729836 -0.00044493006942290477 0 0.0024893033941348155 -0.00046169374118290606 0 0.0025204070588416582 -0.00035292978942097681 0 0.0024923221873643397 -0.00034752757354188275 0 0.0024618532018564057 -0.00034651065821837831 0 0.0025204070588416582 -0.00035292978942097681 0 0.0025071196825000989 -0.00034844845467027285 0 0.0024923221873643397 -0.00034752757354188275 0 0.0026013486529368815 -0.00052654240261459278 0 0.0025702767069935989 -0.00053297636087490125 0 0.0025240089979903222 -0.00057783226143876942 0 0.0025071196825000989 -0.00034844845467027285 0 0.0025334916049560897 -0.00035063708766124659 0 0.0024843413058467032 -0.00034042351424008223 0 0.0025204070588416582 -0.00035292978942097681 0 0.0025071196825000989 -0.00034844845467027285 0 0.0025334916049560897 -0.00035063708766124659 0 0.0025204070588416582 -0.00035292978942097681 0 0.0025334916049560897 -0.00035063708766124659 0 0.0025569603443764406 -0.00035405319714085307 0 0.002579881515507294 -0.00035698625293335623 0 0.0025560778803785785 -0.00032560207315024549 0 0.0025569603443764406 -0.00035405319714085307 0 0.0025913070950522488 -0.00033832723696565562 0 0.0025338462259838646 -0.00034636871369091718 0 0.0025934048693671248 -0.00043533587582767836 0 0.0025448036554729836 -0.00044493006942290477 0 0.0025749696422550537 -0.00037229543551959562 0 0.0025204070588416582 -0.00035292978942097681 0 0.0025569603443764406 -0.00035405319714085307 0 0.0025338462259838646 -0.00034636871369091718 0 0.0025479037227094646 -0.00035134615477911487 0 0.0026019674650426187 -0.00050678657149283326 0 0.0026013486529368815 -0.00052654240261459278 0 0.0025702767069935989 -0.00053297636087490125 0 0.0026131818992761865 -0.00049616720735063302 0 0.0026019674650426187 -0.00050678657149283326 0 0.0025702767069935989 -0.00053297636087490125 0 0.0021192589187627913 -0.0004690069897228383 0 0.0021492514926723591 -0.00047096492380482917 0 0.0021378358406428256 -0.00048969070811067435 0 0.0021492514926723591 -0.00047096492380482917 0 0.0021378358406428256 -0.00048969070811067435 0 0.0021529153442552381 -0.00048758255231711503 0 0.002149244506580621 -0.0005094763261190825 0 0.0021219528451513116 -0.00048661727443561644 0 0.0021378358406428256 -0.00048969070811067435 0 0.0023001707536968391 -0.00048234491450931713 0 0.0020640909319147444 -0.00047752383348129336 0 0.002149244506580621 -0.0005094763261190825 0 0.0021378358406428256 -0.00048969070811067435 0 0.0021493514394228057 -0.00049756733170816807 0 0.0021378358406428256 -0.00048969070811067435 0 0.0021493514394228057 -0.00049756733170816807 0 0.0021529153442552381 -0.00048758255231711503 0 0.0021493514394228057 -0.00049756733170816807 0 0.0021529153442552381 -0.00048758255231711503 0 0.0021588257824536822 -0.00049844037419928241 0 0.0021529153442552381 -0.00048758255231711503 0 0.0021588257824536822 -0.00049844037419928241 0 0.0021725576588535874 -0.00049731152836682637 0 0.0021563163301894428 -0.00050636522027379784 0 0.002149244506580621 -0.0005094763261190825 0 0.0021588257824536822 -0.00049844037419928241 0 0.002149244506580621 -0.0005094763261190825 0 0.0021493514394228057 -0.00049756733170816807 0 0.0021588257824536822 -0.00049844037419928241 0 0.0021662806749165563 -0.00050998370069309999 0 0.0021563163301894428 -0.00050636522027379784 0 0.0021588257824536822 -0.00049844037419928241 0 0.0021752021594178121 -0.00051004715323046837 0 0.0021662806749165563 -0.00050998370069309999 0 0.0021725576588535874 -0.00049731152836682637 0 0.0021662806749165563 -0.00050998370069309999 0 0.0021588257824536822 -0.00049844037419928241 0 0.0021725576588535874 -0.00049731152836682637 0 0.0021529153442552381 -0.00048758255231711503 0 0.0021725576588535874 -0.00049731152836682637 0 0.0021686580850105528 -0.00047844918692077062 0 0.0021492514926723591 -0.00047096492380482917 0 0.0021686580850105528 -0.00047844918692077062 0 0.002179848195878375 -0.00045261707014839284 0 0.0021492514926723591 -0.00047096492380482917 0 0.0021529153442552381 -0.00048758255231711503 0 0.0021686580850105528 -0.00047844918692077062 0 0.0023634478510531367 -0.00068858900804953606 0 0.0023915950485661926 -0.00065975646471058778 0 0.0023473255543807049 -0.00063428038530932024 0 0.0021686580850105528 -0.00047844918692077062 0 0.002188498575889459 -0.00048231922573543977 0 0.002179848195878375 -0.00045261707014839284 0 0.0022665314418780281 -0.00059491481641708117 0 0.0022638416902860605 -0.00054188461037670726 0 0.0021860745051465093 -0.00050971075203868081 0 0.0021725576588535874 -0.00049731152836682637 0 0.002188498575889459 -0.00048231922573543977 0 0.0022024462334819159 -0.00051993230350746674 0 0.0021860745051465093 -0.00050971075203868081 0 0.002188498575889459 -0.00048231922573543977 0 0.0021725576588535874 -0.00049731152836682637 0 0.0021686580850105528 -0.00047844918692077062 0 0.002188498575889459 -0.00048231922573543977 0 0.0023787768466891489 -0.00057520185902063719 0 0.0022665314418780281 -0.00059491481641708117 0 0.0021860745051465093 -0.00050971075203868081 0 0.0021752021594178121 -0.00051004715323046837 0 0.0021725576588535874 -0.00049731152836682637 0 0.0023787768466891489 -0.00057520185902063719 0 0.0025160777469226264 -0.00062291091579014528 0 0.0023731589766828715 -0.00073305045623548348 0 0.0023634478510531367 -0.00068858900804953606 0 0.0024013592709938854 -0.00069468012430937804 0 0.0023634478510531367 -0.00068858900804953606 0 0.0024013592709938854 -0.00069468012430937804 0 0.0023915950485661926 -0.00065975646471058778 0 0.0023915950485661926 -0.00065975646471058778 0 0.0024085492718272242 -0.00062291377977521771 0 0.0023473255543807049 -0.00063428038530932024 0 0.0023781452968442522 -0.00058475098244652537 0 0.0024085492718272242 -0.00062291377977521771 0 0.0024263045459951035 -0.00058026605051519399 0 0.0023781452968442522 -0.00058475098244652537 0 0.0024085492718272242 -0.00062291377977521771 0 0.0023473255543807049 -0.00063428038530932024 0 0.0022638416902860605 -0.00054188461037670726 0 0.0022609470157926664 -0.00049004190831817304 0 0.0023781452968442522 -0.00058475098244652537 0 0.0023473255543807049 -0.00063428038530932024 0 0.0023306333611197495 -0.00056824798039040658 0 0.0021492514926723591 -0.00047096492380482917 0 0.002179848195878375 -0.00045261707014839284 0 0.0021509061546229964 -0.00044237705107804027 0 0.002179848195878375 -0.00045261707014839284 0 0.0021509061546229964 -0.00044237705107804027 0 0.0021751980121113281 -0.00042063824368693812 0 0.0021509061546229964 -0.00044237705107804027 0 0.0021452536618968782 -0.00042046342757336673 0 0.0021751980121113281 -0.00042063824368693812 0 0.0021295302224029395 -0.00045255701977246331 0 0.0021266031634628027 -0.0004327579375725331 0 0.0021509061546229964 -0.00044237705107804027 0 0.0021266031634628027 -0.0004327579375725331 0 0.0021509061546229964 -0.00044237705107804027 0 0.0021452536618968782 -0.00042046342757336673 0 0.0021295302224029395 -0.00045255701977246331 0 0.0021492514926723591 -0.00047096492380482917 0 0.0021509061546229964 -0.00044237705107804027 0 0.0021192589187627913 -0.0004690069897228383 0 0.0021295302224029395 -0.00045255701977246331 0 0.0021492514926723591 -0.00047096492380482917 0 0.0021240645681587858 -0.0003877328655156237 0 0.0021477922650948783 -0.00039529792817195631 0 0.0021428631232033994 -0.00036765818914777436 0 0.002126858434413419 -0.00040868138627745841 0 0.0021240645681587858 -0.0003877328655156237 0 0.0021477922650948783 -0.00039529792817195631 0 0.002126858434413419 -0.00040868138627745841 0 0.0021477922650948783 -0.00039529792817195631 0 0.0021452536618968782 -0.00042046342757336673 0 0.0021266031634628027 -0.0004327579375725331 0 0.002126858434413419 -0.00040868138627745841 0 0.0021452536618968782 -0.00042046342757336673 0 0.0021477922650948783 -0.00039529792817195631 0 0.0021452536618968782 -0.00042046342757336673 0 0.0021751980121113281 -0.00042063824368693812 0 0.0021477922650948783 -0.00039529792817195631 0 0.002170018335422312 -0.00038304866003642047 0 0.0021751980121113281 -0.00042063824368693812 0 0.0021681160332585087 -0.00046636127346831005 0 0.0022609470157926664 -0.00049004190831817304 0 0.0021477922650948783 -0.00039529792817195631 0 0.002170018335422312 -0.00038304866003642047 0 0.0021428631232033994 -0.00036765818914777436 0 0.002315568182796943 -0.00049701615881660318 0 0.0023576106428376264 -0.00051779327288007694 0 0.0023306333611197495 -0.00056824798039040658 0 0.002117397972781692 -0.00051786891642652039 0 0.0022006261238010339 -0.00055874587220774302 0 0.0021735827001591991 -0.00050842787561263003 0 0.0021681160332585087 -0.00046636127346831005 0 0.0022879441940861465 -0.0005423139003065666 0 0.0022006261238010339 -0.00055874587220774302 0 0.0022291575432236738 -0.00052211049020577853 0 0.0021735827001591991 -0.00050842787561263003 0 0.0023781452968442522 -0.00058475098244652537 0 0.0023306333611197495 -0.00056824798039040658 0 0.0023660710447164176 -0.00055239048361656069 0 0.0023576106428376264 -0.00051779327288007694 0 0.0023306333611197495 -0.00056824798039040658 0 0.0023660710447164176 -0.00055239048361656069 0 0.0023781452968442522 -0.00058475098244652537 0 0.0023978387385721772 -0.00053852076462488881 0 0.0024263045459951035 -0.00058026605051519399 0 0.0023781452968442522 -0.00058475098244652537 0 0.0023660710447164176 -0.00055239048361656069 0 0.0023978387385721772 -0.00053852076462488881 0 0.0023390139328257082 -0.00057023325622343045 0 0.0024360953065625701 -0.00059579932686191562 0 0.0022607055593975153 -0.00057061570411453513 0 0.0022641207265890763 -0.0004923830992404159 0 0.0023415228758774096 -0.00050847420596061236 0 0.0023576106428376264 -0.00051779327288007694 0 0.0023660710447164176 -0.00055239048361656069 0 0.0023978387385721772 -0.00053852076462488881 0 0.0022006261238010339 -0.00055874587220774302 0 0.0022846022545487282 -0.0005997476565094735 0 0.0022291575432236738 -0.00052211049020577853 0 0.0023390139328257082 -0.00057023325622343045 0 0.0022033641077878726 -0.00049939718688017556 0 0.0022879441940861465 -0.0005423139003065666 0 0.0023390139328257082 -0.00057023325622343045 0 0.0022607055593975153 -0.00057061570411453513 0 0.0021843380972362963 -0.00048769790709419402 0 0.0022641207265890763 -0.0004923830992404159 0 0.0022641207265890763 -0.0004923830992404159 0 0.0022284965222518216 -0.00044219082446525314 0 0.0023105165842555392 -0.00041892919237826231 0 0.0021843380972362963 -0.00048769790709419402 0 0.0022641207265890763 -0.0004923830992404159 0 0.0022284965222518216 -0.00044219082446525314 0 0.0021843380972362963 -0.00048769790709419402 0 0.0022284965222518216 -0.00044219082446525314 0 0.0021650915590659412 -0.00041201586681828859 0 0.0022284965222518216 -0.00044219082446525314 0 0.0022252134384216794 -0.00039119969932078287 0 0.0021650915590659412 -0.00041201586681828859 0 0.0022284965222518216 -0.00044219082446525314 0 0.0022252134384216794 -0.00039119969932078287 0 0.0023105165842555392 -0.00041892919237826231 0 0.0022252134384216794 -0.00039119969932078287 0 0.0022541971462086614 -0.0003342475223830656 0 0.0023105165842555392 -0.00041892919237826231 0 0.0022252134384216794 -0.00039119969932078287 0 0.0022541971462086614 -0.0003342475223830656 0 0.0021911837658858909 -0.00034095585420536225 0 0.0022541971462086614 -0.0003342475223830656 0 0.0021911837658858909 -0.00034095585420536225 0 0.0022337032959500874 -0.00026261989518495303 0 0.0021911837658858909 -0.00034095585420536225 0 0.0021570376699746752 -0.00026231683426957634 0 0.0022337032959500874 -0.00026261989518495303 0 0.0021911837658858909 -0.00034095585420536225 0 0.0021290093917901193 -0.00035103812447594617 0 0.0021570376699746752 -0.00026231683426957634 0 0.0021911837658858909 -0.00034095585420536225 0 0.0021290093917901193 -0.00035103812447594617 0 0.0021650915590659412 -0.00041201586681828859 0 0.0022252134384216794 -0.00039119969932078287 0 0.0021911837658858909 -0.00034095585420536225 0 0.0021650915590659412 -0.00041201586681828859 0 0.0020422784385713505 -0.00029396008593097388 0 0.0020801307779940675 -0.00044259145609813343 0 0.0018548521352672084 -0.00022705826591308843 0 0.0021290093917901193 -0.00035103812447594617 0 0.0020422784385713505 -0.00029396008593097388 0 0.0020801307779940675 -0.00044259145609813343 0 0.0021290093917901193 -0.00035103812447594617 0 0.0020422784385713505 -0.00029396008593097388 0 0.0021570376699746752 -0.00026231683426957634 0 0.0021077848938022762 -0.00047269219251121593 0 0.0020052944265292303 -0.00052116913481475564 0 0.0021077848938022762 -0.00047269219251121593 0 0.0021439902971169978 -0.00044334395560227256 0 0.0021290093917901193 -0.00035103812447594617 0 0.0020801307779940675 -0.00044259145609813343 0 0.0021650915590659412 -0.00041201586681828859 0 0.0022291575432236738 -0.00052211049020577853 0 0.0021741304168648523 -0.00044523377136291653 0 0.0021735827001591991 -0.00050842787561263003 0 0.0021843380972362963 -0.00048769790709419402 0 0.0021213839806688371 -0.00041818504768259481 0 0.0021650915590659412 -0.00041201586681828859 0 0.0022033641077878726 -0.00049939718688017556 0 0.0021077848938022762 -0.00047269219251121593 0 0.0021741304168648523 -0.00044523377136291653 0 0.0021735827001591991 -0.00050842787561263003 0 0.0021061312163578247 -0.00045461588386019202 0 0.0020768512199315415 -0.00051935911538581099 0 0.0020661202016653791 -0.00045909296250313896 0 0.0019908892804178248 -0.0004691698030586927 0 0.0021681160332585087 -0.00046636127346831005 0 0.0019835555226318437 -0.00045971306763921307 0 0.0020768512199315415 -0.00051935911538581099 0 0.0019908892804178248 -0.0004691698030586927 0 0.0019779090104974006 -0.00047092281553822547 0 0.0021681160332585087 -0.00046636127346831005 0 0.0020052944265292303 -0.00052116913481475564 0 0.002117397972781692 -0.00051786891642652039 0 0.0021735827001591991 -0.00050842787561263003 0 0.0021061312163578247 -0.00045461588386019202 0 0.0020052944265292303 -0.00052116913481475564 0 0.001912459064365279 -0.00051746791102728906 0 0.0018009320260777642 -0.00057910056625256636 0 0.0019333209417098042 -0.00061033720707097784 0 0.0017269291324449045 -0.00063892629187689944 0 0.0018009320260777642 -0.00057910056625256636 0 0.0019333209417098042 -0.00061033720707097784 0 0.0018168753999629587 -0.0005188492385646183 0 0.0018009320260777642 -0.00057910056625256636 0 0.0018168753999629587 -0.0005188492385646183 0 0.0017270792385422767 -0.00055147790328445513 0 0.0020052944265292303 -0.00052116913481475564 0 0.0018745161269165091 -0.00034435734672417796 0 0.0020977860818118502 -0.00056983216835221318 0 0.0019296039268896627 -0.00059257043254604873 0 0.0018768783156712673 -0.00029383014307753736 0 0.0021077848938022762 -0.00047269219251121593 0 0.001861327243723266 -0.00024526573432004676 0 0.0020977860818118502 -0.00056983216835221318 0 0.0018548521352672084 -0.00022705826591308843 0 0.0018768783156712673 -0.00029383014307753736 0 0.0019333209417098042 -0.00061033720707097784 0 0.0018168753999629587 -0.0005188492385646183 0 0.0018768783156712673 -0.00029383014307753736 0 0.0017869119031769947 -0.00038416411926505773 0 0.0017469810825224139 -0.00028497370171221074 0 0.0018768783156712673 -0.00029383014307753736 0 0.0017869119031769947 -0.00038416411926505773 0 0.0018168753999629587 -0.0005188492385646183 0 0.0018768783156712673 -0.00029383014307753736 0 0.0018168753999629587 -0.0005188492385646183 0 0.0017073282755838033 -0.0004401267451359628 0 0.0017270792385422767 -0.00055147790328445513 0 0.0015277897210750192 -0.00055881063550655393 0 0.0016337559695065846 -0.00049135711089021844 0 0.0016276748648334219 -0.00026966118786626435 0 0.00079376141687727817 -0.00081507670727953916 0 0.00057872963650490601 -0.00054743547668691431 0 0.0017869119031769947 -0.00038416411926505773 0 0.0018168753999629587 -0.0005188492385646183 0 0.0017073282755838033 -0.0004401267451359628 0 0.0016759044845192643 -0.0005259002209906335 0 0.0016337559695065846 -0.00049135711089021844 0 0.0016582188540599744 -0.00056538761701517288 0 0.0016759044845192643 -0.0005259002209906335 0 0.0017073282755838033 -0.0004401267451359628 0 0.0016337559695065846 -0.00049135711089021844 0 0.0016759044845192643 -0.0005259002209906335 0 0.0017073282755838033 -0.0004401267451359628 0 0.0017270792385422767 -0.00055147790328445513 0 0.0017869119031769947 -0.00038416411926505773 0 0.0017073282755838033 -0.0004401267451359628 0 0.0017469810825224139 -0.00028497370171221074 0 0.0017073282755838033 -0.0004401267451359628 0 0.0016276748648334219 -0.00026966118786626435 0 0.0017469810825224139 -0.00028497370171221074 0 0.0017073282755838033 -0.0004401267451359628 0 0.0016337559695065846 -0.00049135711089021844 0 0.0016276748648334219 -0.00026966118786626435 0 0.0015277897210750192 -0.00055881063550655393 0 0.0016337559695065846 -0.00049135711089021844 0 0.0016582188540599744 -0.00056538761701517288 0 0.00079376141687727817 -0.00081507670727953916 0 0.001912459064365279 -0.00051746791102728906 0 0.0018392858819930224 -0.0004058632181246258 0 0.0017872775478103735 -0.00038553813380242394 0 0.0017969303870395015 -0.00038382814308061399 0 0.0015277897210750192 -0.00055881063550655393 0 0.0016582188540599744 -0.00056538761701517288 0 0.0017269291324449045 -0.00063892629187689944 0 0.0016759044845192643 -0.0005259002209906335 0 0.0016582188540599744 -0.00056538761701517288 0 0.0017270792385422767 -0.00055147790328445513 0 0.0016582188540599744 -0.00056538761701517288 0 0.0017270792385422767 -0.00055147790328445513 0 0.0017269291324449045 -0.00063892629187689944 0 0.0018009320260777642 -0.00057910056625256636 0 0.0017270792385422767 -0.00055147790328445513 0 0.0017269291324449045 -0.00063892629187689944 0 0.001912459064365279 -0.00051746791102728906 0 0.0019835555226318437 -0.00045971306763921307 0 0.0024572953065214302 -0.00033394578744111453 0 0.0024843413058467032 -0.00034042351424008223 0 0.0024263391236767746 -0.00030567145871708654 0 0.0024664533372530848 -0.00035942105042463058 0 0.0024321636336569383 -0.00030603266732763475 0 0.0024551108745936284 -0.00036321220091774893 0 0.0024263391236767746 -0.00030567145871708654 0 0.0024502909938325791 -0.00031857915586202829 0 0.0024572953065214302 -0.00033394578744111453 0 0.0024345970154273063 -0.00032543594475897207 0 0.0024618532018564057 -0.00034651065821837831 0 0.0024572953065214302 -0.00033394578744111453 0 0.0024345970154273063 -0.00032543594475897207 0 0.0024263391236767746 -0.00030567145871708654 0 0.0024656726606054106 -0.00032994265845858611 0 0.0024784387370490081 -0.00035642458704704649 0 0.0024709865204187017 -0.00030932122050366517 0 0.0024617574166601579 -0.0003407672989594142 0 0.0024551108745936284 -0.00036321220091774893 0 0.0024502909938325791 -0.00031857915586202829 0 0.0024617574166601579 -0.0003407672989594142 0 0.0024656726606054106 -0.00032994265845858611 0 0.0024502909938325791 -0.00031857915586202829 0 0.0024617574166601579 -0.0003407672989594142 0 0.0024784387370490081 -0.00035642458704704649 0 0.0024551108745936284 -0.00036321220091774893 0 0.0024617574166601579 -0.0003407672989594142 0 0.0024656726606054106 -0.00032994265845858611 0 0.0024784387370490081 -0.00035642458704704649 0 0.0024758809306753586 -0.00040953419672325056 0 0.0024784387370490081 -0.00035642458704704649 0 0.0024551108745936284 -0.00036321220091774893 0 0.0025338462259838646 -0.00034636871369091718 0 0.0025327462604970634 -0.00029231683709875385 0 0.0026149789660824445 -0.00025889856767305887 0 0.0025858437158885542 -0.00028426924270791065 0 0.0025879774789210551 -0.00022825131490989564 0 0.0025338462259838646 -0.00034636871369091718 0 0.0024664533372530848 -0.00035942105042463058 0 0.0025702767069935989 -0.00053297636087490125 0 0.002514450486825423 -0.00058478290553894401 0 0.0025240089979903222 -0.00057783226143876942 0 0.0025071196825000989 -0.00034844845467027285 0 0.0024923221873643397 -0.00034752757354188275 0 0.0024843413058467032 -0.00034042351424008223 0 0.0024923221873643397 -0.00034752757354188275 0 0.0024742055509863821 -0.00034324129812640739 0 0.0024843413058467032 -0.00034042351424008223 0 0.0024572953065214302 -0.00033394578744111453 0 0.0024742055509863821 -0.00034324129812640739 0 0.0024843413058467032 -0.00034042351424008223 0 0.0024572953065214302 -0.00033394578744111453 0 0.0024742055509863821 -0.00034324129812640739 0 0.0024618532018564057 -0.00034651065821837831 0 0.0024923221873643397 -0.00034752757354188275 0 0.0024742055509863821 -0.00034324129812640739 0 0.0024618532018564057 -0.00034651065821837831 0 0.002514450486825423 -0.00058478290553894401 0 0.0025240089979903222 -0.00057783226143876942 0 0.0024990582713257268 -0.00058295207412347317 0 0.002494571007422168 -0.00060296846861108901 0 0.0024733549515810424 -0.0005852862554870849 0 0.0024990582713257268 -0.00058295207412347317 0 0.002494571007422168 -0.00060296846861108901 0 0.0025240089979903222 -0.00057783226143876942 0 0.0024990582713257268 -0.00058295207412347317 0 0.002494571007422168 -0.00060296846861108901 0 0.0024733549515810424 -0.0005852862554870849 0 0.0024410684010709627 -0.00059778101425588253 0 0.0024733549515810424 -0.0005852862554870849 0 0.002436569124223385 -0.00056343958788979739 0 0.0024647662193246398 -0.00055244598710155678 0 0.0024733549515810424 -0.0005852862554870849 0 0.0024410684010709627 -0.00059778101425588253 0 0.002436569124223385 -0.00056343958788979739 0 0.0024733549515810424 -0.0005852862554870849 0 0.0024990582713257268 -0.00058295207412347317 0 0.0024647662193246398 -0.00055244598710155678 0 0.002514450486825423 -0.00058478290553894401 0 0.0024990582713257268 -0.00058295207412347317 0 0.0024647662193246398 -0.00055244598710155678 0 0.0022607055593975153 -0.00057061570411453513 0 0.0024410684010709627 -0.00059778101425588253 0 0.0023832505898593228 -0.0005533215460574349 0 0.0024259803598510291 -0.00058919495766417878 0 0.0024410684010709627 -0.00059778101425588253 0 0.0024341233174321698 -0.00059993931096578228 0 0.0023390139328257082 -0.00057023325622343045 0 0.0024321719071437238 -0.00060104748924006486 0 0.0024528564981823328 -0.00060510936494612903 0 0.0024410684010709627 -0.00059778101425588253 0 0.0024341233174321698 -0.00059993931096578228 0 0.0024410684010709627 -0.00059778101425588253 0 0.002436569124223385 -0.00056343958788979739 0 0.0023832505898593228 -0.0005533215460574349 0 0.0022607055593975153 -0.00057061570411453513 0 0.0023832505898593228 -0.0005533215460574349 0 0.0023415228758774096 -0.00050847420596061236 0 0.002436569124223385 -0.00056343958788979739 0 0.0023832505898593228 -0.0005533215460574349 0 0.0024141499484051417 -0.00051805470650992044 0 0.0023832505898593228 -0.0005533215460574349 0 0.0023415228758774096 -0.00050847420596061236 0 0.0024141499484051417 -0.00051805470650992044 0 0.0023415228758774096 -0.00050847420596061236 0 0.0024141499484051417 -0.00051805470650992044 0 0.0023777731038891066 -0.00046747640769056765 0 0.0022641207265890763 -0.0004923830992404159 0 0.0023415228758774096 -0.00050847420596061236 0 0.0023105165842555392 -0.00041892919237826231 0 0.002514450486825423 -0.00058478290553894401 0 0.0024647662193246398 -0.00055244598710155678 0 0.0024437411478260567 -0.00043549413427161686 0 0.0024345970154273063 -0.00032543594475897207 0 0.0024618532018564057 -0.00034651065821837831 0 0.0023914253831033945 -0.00031285511973048932 0 0.0024893033941348155 -0.00046169374118290606 0 0.0024166140430529589 -0.0003729908991987302 0 0.0024647662193246398 -0.00055244598710155678 0 0.0024141499484051417 -0.00051805470650992044 0 0.0024437411478260567 -0.00043549413427161686 0 0.002436569124223385 -0.00056343958788979739 0 0.0024647662193246398 -0.00055244598710155678 0 0.0024141499484051417 -0.00051805470650992044 0 0.0024141499484051417 -0.00051805470650992044 0 0.0024437411478260567 -0.00043549413427161686 0 0.0023777731038891066 -0.00046747640769056765 0 0.0023914253831033945 -0.00031285511973048932 0 0.0023867661568555102 -0.00026514413906174973 0 0.0024263391236767746 -0.00030567145871708654 0 0.0024345970154273063 -0.00032543594475897207 0 0.0023914253831033945 -0.00031285511973048932 0 0.0024263391236767746 -0.00030567145871708654 0 0.0024437411478260567 -0.00043549413427161686 0 0.0023777731038891066 -0.00046747640769056765 0 0.0023105165842555392 -0.00041892919237826231 0 0.0023415228758774096 -0.00050847420596061236 0 0.0023777731038891066 -0.00046747640769056765 0 0.0023105165842555392 -0.00041892919237826231 0 0.0024437411478260567 -0.00043549413427161686 0 0.0023105165842555392 -0.00041892919237826231 0 0.0023457083598960289 -0.00026761267007643989 0 0.0022541971462086614 -0.0003342475223830656 0 0.0023457083598960289 -0.00026761267007643989 0 0.0022337032959500874 -0.00026261989518495303 0 0.0022541971462086614 -0.0003342475223830656 0 0.0023105165842555392 -0.00041892919237826231 0 0.0023457083598960289 -0.00026761267007643989 0 0.0023914253831033945 -0.00031285511973048932 0 0.0023867661568555102 -0.00026514413906174973 0 0.0023179680305866319 -0.00024035365159996879 0 0.0024166140430529589 -0.0003729908991987302 0 0.0023303531226738119 -0.00025332504853554303 0 0.0023867661568555102 -0.00026514413906174973 0 0.0024285008496735287 -0.00027439556502529422 0 0.0024286806234670513 -0.00023509911116887473 0 0.0024285008496735287 -0.00027439556502529422 0 0.0024603844634203042 -0.00026420893173948769 0 0.0024286806234670513 -0.00023509911116887473 0 0.0024285008496735287 -0.00027439556502529422 0 0.0024504615642699967 -0.0002932440837778202 0 0.0024603844634203042 -0.00026420893173948769 0 0.0023867661568555102 -0.00026514413906174973 0 0.0024285008496735287 -0.00027439556502529422 0 0.0024263391236767746 -0.00030567145871708654 0 0.0024263391236767746 -0.00030567145871708654 0 0.0024502909938325791 -0.00031857915586202829 0 0.0024504615642699967 -0.0002932440837778202 0 0.0024285008496735287 -0.00027439556502529422 0 0.0024263391236767746 -0.00030567145871708654 0 0.0024504615642699967 -0.0002932440837778202 0 0.0024784387370490081 -0.00035642458704704649 0 0.0024709865204187017 -0.00030932122050366517 0 0.0024894520008036207 -0.00029033166831870274 0 0.0025946879308219686 -0.00020861648700577513 0 0.0025879774789210551 -0.00022825131490989564 0 0.0025723724204138234 -0.00018780464969771316 0 0.0025327462604970634 -0.00029231683709875385 0 0.002528999995757801 -0.00023616652355400042 0 0.0024502909938325791 -0.00031857915586202829 0 0.0024709865204187017 -0.00030932122050366517 0 0.0024504615642699967 -0.0002932440837778202 0 0.0024656726606054106 -0.00032994265845858611 0 0.0024502909938325791 -0.00031857915586202829 0 0.0024709865204187017 -0.00030932122050366517 0 0.0024709865204187017 -0.00030932122050366517 0 0.0024504615642699967 -0.0002932440837778202 0 0.0024679177914397337 -0.00028995124608724768 0 0.0024709865204187017 -0.00030932122050366517 0 0.0024679177914397337 -0.00028995124608724768 0 0.0024894520008036207 -0.00029033166831870274 0 0.0024894520008036207 -0.00029033166831870274 0 0.0024603844634203042 -0.00026420893173948769 0 0.0025080701341893374 -0.0001869082348164576 0 0.0025723724204138234 -0.00018780464969771316 0 0.0025599414758709946 -0.00018711929279552637 0 0.0025080701341893374 -0.0001869082348164576 0 0.002528999995757801 -0.00023616652355400042 0 0.0025125246663065324 -0.00018575807656935094 0 0.0024504615642699967 -0.0002932440837778202 0 0.0024679177914397337 -0.00028995124608724768 0 0.0024603844634203042 -0.00026420893173948769 0 0.0024679177914397337 -0.00028995124608724768 0 0.0024894520008036207 -0.00029033166831870274 0 0.0024603844634203042 -0.00026420893173948769 0 0.0024603844634203042 -0.00026420893173948769 0 0.0025080701341893374 -0.0001869082348164576 0 0.0024286806234670513 -0.00023509911116887473 0 0.0025080701341893374 -0.0001869082348164576 0 0.0024236244870777086 -0.00018180562819067669 0 0.0024286806234670513 -0.00023509911116887473 0 0.0025080701341893374 -0.0001869082348164576 0 0.0024525057000213263 -0.00014491039455560948 0 0.0024852841155236622 -0.00012394956894509315 0 0.0025080701341893374 -0.0001869082348164576 0 0.0024525057000213263 -0.00014491039455560948 0 0.0024236244870777086 -0.00018180562819067669 0 0.002396871147208773 -0.00013657956802669833 0 0.0024236244870777086 -0.00018180562819067669 0 0.0023551816219609975 -0.00018308421017274986 0 0.0024525057000213263 -0.00014491039455560948 0 0.002396871147208773 -0.00013657956802669833 0 0.0024236244870777086 -0.00018180562819067669 0 0.0023867661568555102 -0.00026514413906174973 0 0.0024286806234670513 -0.00023509911116887473 0 0.0023551816219609975 -0.00018308421017274986 0 0.0024236244870777086 -0.00018180562819067669 0 0.0024286806234670513 -0.00023509911116887473 0 0.0023551816219609975 -0.00018308421017274986 0 0.0023867661568555102 -0.00026514413906174973 0 0.0023179680305866319 -0.00024035365159996879 0 0.0023551816219609975 -0.00018308421017274986 0 0.0023179680305866319 -0.00024035365159996879 0 0.002243499477054209 -0.00013852180081930785 0 0.0023551816219609975 -0.00018308421017274986 0 0.0023457083598960289 -0.00026761267007643989 0 0.002243499477054209 -0.00013852180081930785 0 0.0022118168508051782 -0.00018819897562685376 0 0.0023303531226738119 -0.00025332504853554303 0 0.0022525691532420877 -0.0001433371733849074 0 0.0023457083598960289 -0.00026761267007643989 0 0.0022337032959500874 -0.00026261989518495303 0 0.0022118168508051782 -0.00018819897562685376 0 0.002243499477054209 -0.00013852180081930785 0 0.0023551816219609975 -0.00018308421017274986 0 0.0022946213320901156 -0.00012545412862358167 0 0.002243499477054209 -0.00013852180081930785 0 0.0022569252095449395 -0.00011776701674564948 0 0.0022946213320901156 -0.00012545412862358167 0 0.002243499477054209 -0.00013852180081930785 0 0.0022283991364691609 -0.0001127815491710123 0 0.0022124666081748006 -0.00013335130277603987 0 0.002396871147208773 -0.00013657956802669833 0 0.0023551816219609975 -0.00018308421017274986 0 0.0023461180505038892 -0.00012226752763316694 0 0.0023551816219609975 -0.00018308421017274986 0 0.0023461180505038892 -0.00012226752763316694 0 0.0022946213320901156 -0.00012545412862358167 0 0.0023461180505038892 -0.00012226752763316694 0 0.0023050437206195633 -7.6985574694459822e-05 0 0.0022946213320901156 -0.00012545412862358167 0 0.0023461180505038892 -0.00012226752763316694 0 0.0023050437206195633 -7.6985574694459822e-05 0 0.0023769491184439414 -8.9869750891478746e-05 0 0.0023050437206195633 -7.6985574694459822e-05 0 0.0023544988779835292 -4.5341676023580246e-05 0 0.0023769491184439414 -8.9869750891478746e-05 0 0.002243499477054209 -0.00013852180081930785 0 0.0022283991364691609 -0.0001127815491710123 0 0.0022569252095449395 -0.00011776701674564948 0 0.0022283991364691609 -0.0001127815491710123 0 0.0022569252095449395 -0.00011776701674564948 0 0.0022610308944124189 -9.230743614909241e-05 0 0.0022569252095449395 -0.00011776701674564948 0 0.0022946213320901156 -0.00012545412862358167 0 0.0022610308944124189 -9.230743614909241e-05 0 0.0023050437206195633 -7.6985574694459822e-05 0 0.0022946213320901156 -0.00012545412862358167 0 0.0022610308944124189 -9.230743614909241e-05 0 0.0023050437206195633 -7.6985574694459822e-05 0 0.0022610308944124189 -9.230743614909241e-05 0 0.0022473346238820395 -5.5020323639094919e-05 0 0.0022610308944124189 -9.230743614909241e-05 0 0.0021995426470945685 -6.0051514964442343e-05 0 0.0022473346238820395 -5.5020323639094919e-05 0 0.0022283991364691609 -0.0001127815491710123 0 0.0022610308944124189 -9.230743614909241e-05 0 0.0021995426470945685 -6.0051514964442343e-05 0 0.0021765494458517039 2.7609543839228654e-06 0 0.002291655610040657 -3.3488514646100423e-05 0 0.0023304871799878315 1.4071526142304342e-05 0 0.0021770685582283293 7.2023135225838126e-06 0 0.002170690647021183 9.4147485469959604e-06 0 0.0021995426470945685 -6.0051514964442343e-05 0 0.0022473346238820395 -5.5020323639094919e-05 0 0.0021765494458517039 2.7609543839228654e-06 0 0.0023050437206195633 -7.6985574694459822e-05 0 0.0022473346238820395 -5.5020323639094919e-05 0 0.002291655610040657 -3.3488514646100423e-05 0 0.0022473346238820395 -5.5020323639094919e-05 0 0.0021765494458517039 2.7609543839228654e-06 0 0.002291655610040657 -3.3488514646100423e-05 0 0.0023050437206195633 -7.6985574694459822e-05 0 0.0023544988779835292 -4.5341676023580246e-05 0 0.002291655610040657 -3.3488514646100423e-05 0 0.0023544988779835292 -4.5341676023580246e-05 0 0.002291655610040657 -3.3488514646100423e-05 0 0.0023304871799878315 1.4071526142304342e-05 0 0.0023544988779835292 -4.5341676023580246e-05 0 0.0023304871799878315 1.4071526142304342e-05 0 0.002389148530152682 -2.6039964641304914e-05 0 0.0023304871799878315 1.4071526142304342e-05 0 0.002389148530152682 -2.6039964641304914e-05 0 0.0024222603242322655 -3.2137954143808825e-06 0 0.0023544988779835292 -4.5341676023580246e-05 0 0.002389148530152682 -2.6039964641304914e-05 0 0.002408446723654692 -6.3260128156142844e-05 0 0.0023544988779835292 -4.5341676023580246e-05 0 0.002408446723654692 -6.3260128156142844e-05 0 0.0023769491184439414 -8.9869750891478746e-05 0 0.002389148530152682 -2.6039964641304914e-05 0 0.002408446723654692 -6.3260128156142844e-05 0 0.0024226628435344874 -3.9909230448949454e-05 0 0.002408446723654692 -6.3260128156142844e-05 0 0.0024226628435344874 -3.9909230448949454e-05 0 0.0024436995207531569 -6.5805637333504681e-05 0 0.0024226628435344874 -3.9909230448949454e-05 0 0.0024469799028914241 -4.2226393235228246e-05 0 0.0024222603242322655 -3.2137954143808825e-06 0 0.002389148530152682 -2.6039964641304914e-05 0 0.0024226628435344874 -3.9909230448949454e-05 0 0.0024222603242322655 -3.2137954143808825e-06 0 0.0024469799028914241 -4.2226393235228246e-05 0 0.0024728095587403555 -3.8187522177740581e-05 0 0.0024222603242322655 -3.2137954143808825e-06 0 0.0024469799028914241 -4.2226393235228246e-05 0 0.0024728095587403555 -3.8187522177740581e-05 0 0.0024723845570770444 -6.540045431657586e-05 0 0.0024728095587403555 -3.8187522177740581e-05 0 0.0024723845570770444 -6.540045431657586e-05 0 0.0024924493778325676 -5.9868467046151831e-05 0 0.0024723845570770444 -6.540045431657586e-05 0 0.0024436995207531569 -6.5805637333504681e-05 0 0.0024705521506894557 -8.9834739276854951e-05 0 0.0024469799028914241 -4.2226393235228246e-05 0 0.0024723845570770444 -6.540045431657586e-05 0 0.0024436995207531569 -6.5805637333504681e-05 0 0.0024226628435344874 -3.9909230448949454e-05 0 0.0024469799028914241 -4.2226393235228246e-05 0 0.0024436995207531569 -6.5805637333504681e-05 0 0.0024436995207531569 -6.5805637333504681e-05 0 0.0024705521506894557 -8.9834739276854951e-05 0 0.0024364268880976733 -0.00010188285909209261 0 0.0024705521506894557 -8.9834739276854951e-05 0 0.0024852841155236622 -0.00012394956894509315 0 0.0025032061322626327 -9.1295835534569117e-05 0 0.0024723845570770444 -6.540045431657586e-05 0 0.0024705521506894557 -8.9834739276854951e-05 0 0.0025032061322626327 -9.1295835534569117e-05 0 0.0024525057000213263 -0.00014491039455560948 0 0.0024852841155236622 -0.00012394956894509315 0 0.0024364268880976733 -0.00010188285909209261 0 0.0024705521506894557 -8.9834739276854951e-05 0 0.0024852841155236622 -0.00012394956894509315 0 0.0024364268880976733 -0.00010188285909209261 0 0.0024525057000213263 -0.00014491039455560948 0 0.002396871147208773 -0.00013657956802669833 0 0.0024364268880976733 -0.00010188285909209261 0 0.002396871147208773 -0.00013657956802669833 0 0.0023461180505038892 -0.00012226752763316694 0 0.0023769491184439414 -8.9869750891478746e-05 0 0.002396871147208773 -0.00013657956802669833 0 0.0024364268880976733 -0.00010188285909209261 0 0.0023769491184439414 -8.9869750891478746e-05 0 0.002408446723654692 -6.3260128156142844e-05 0 0.0024364268880976733 -0.00010188285909209261 0 0.0023769491184439414 -8.9869750891478746e-05 0 0.002408446723654692 -6.3260128156142844e-05 0 0.0024436995207531569 -6.5805637333504681e-05 0 0.0024364268880976733 -0.00010188285909209261 0 -0.00057788257214350851 -0.00042002765901259326 0 -0.00033512269009703364 -0.00049134208746913586 0 -0.00045124553337901426 -0.00030152461119242757 0 0.0007178919997687769 -0.00022013752780280913 0 0.00057872963650490601 -0.00054743547668691431 0 0.0017186652001096787 -1.2479531096500163e-05 0 0.0016276748648334219 -0.00026966118786626435 0 0.0017469810825224139 -0.00028497370171221074 0 0.0017186652001096787 -1.2479531096500163e-05 0 0.0017469810825224139 -0.00028497370171221074 0 0.0018548521352672084 -0.00022705826591308843 0 -0.00065902570125985784 -0.00063950735090621868 0 -0.00033512269009703364 -0.00049134208746913586 0 -0.00042695153565491047 -0.00078442383670415769 0 0.0017186652001096787 -1.2479531096500163e-05 0 0.0018548521352672084 -0.00022705826591308843 0 0.0019073650456186669 -6.9367150912620184e-05 0 0.0017469810825224139 -0.00028497370171221074 0 0.0018548521352672084 -0.00022705826591308843 0 0.0018768783156712673 -0.00029383014307753736 0 0.0020422784385713505 -0.00029396008593097388 0 0.0018548521352672084 -0.00022705826591308843 0 0.0020111443470562729 -0.00017814060377052769 0 0.0018548521352672084 -0.00022705826591308843 0 0.0019073650456186669 -6.9367150912620184e-05 0 0.0020111443470562729 -0.00017814060377052769 0 0.0017186652001096787 -1.2479531096500163e-05 0 0.0018960566279495547 7.6906421870821058e-05 0 0.0017905197517361806 0.00022366271367156777 0 0.0019073650456186669 -6.9367150912620184e-05 0 0.0018960566279495547 7.6906421870821058e-05 0 0.0020881219206977143 -4.0877571241727845e-05 0 0.0017186652001096787 -1.2479531096500163e-05 0 0.0019073650456186669 -6.9367150912620184e-05 0 0.0018960566279495547 7.6906421870821058e-05 0 0.0018960566279495547 7.6906421870821058e-05 0 0.0020881219206977143 -4.0877571241727845e-05 0 0.002011358393374504 0.00019151848593166367 0 0.002136082630484384 -0.0001705105273026542 0 0.002179659024874628 -0.00012751625372378793 0 0.0021175590292547546 -9.4242141827534373e-05 0 0.0021178947188715694 -7.472432215384288e-05 0 0.001774856005337603 -0.00020546015605307639 0 0.0019073650456186669 -6.9367150912620184e-05 0 0.0020881219206977143 -4.0877571241727845e-05 0 0.0020111443470562729 -0.00017814060377052769 0 0.0021178947188715694 -7.472432215384288e-05 0 0.0021555434384485572 -0.00025946588774963873 0 0.0020881219206977143 -4.0877571241727845e-05 0 0.0020111443470562729 -0.00017814060377052769 0 0.0021570376699746752 -0.00026231683426957634 0 0.0020422784385713505 -0.00029396008593097388 0 0.0020111443470562729 -0.00017814060377052769 0 0.0021570376699746752 -0.00026231683426957634 0 0.002136082630484384 -0.0001705105273026542 0 0.0021570376699746752 -0.00026231683426957634 0 0.0022118168508051782 -0.00018819897562685376 0 0.0021570376699746752 -0.00026231683426957634 0 0.0022337032959500874 -0.00026261989518495303 0 0.0022118168508051782 -0.00018819897562685376 0 0.002136082630484384 -0.0001705105273026542 0 0.0022118168508051782 -0.00018819897562685376 0 0.002179659024874628 -0.00012751625372378793 0 0.002243499477054209 -0.00013852180081930785 0 0.0022118168508051782 -0.00018819897562685376 0 0.0022124666081748006 -0.00013335130277603987 0 0.0022283991364691609 -0.0001127815491710123 0 0.002179659024874628 -0.00012751625372378793 0 0.0022124666081748006 -0.00013335130277603987 0 0.0022118168508051782 -0.00018819897562685376 0 0.002179659024874628 -0.00012751625372378793 0 0.0022124666081748006 -0.00013335130277603987 0 0.0022283991364691609 -0.0001127815491710123 0 0.0021570034339937162 -6.9365247920005188e-05 0 0.0020852080117075098 -8.8545082531913717e-05 0 0.0022283991364691609 -0.0001127815491710123 0 0.002179659024874628 -0.00012751625372378793 0 0.0021175590292547546 -9.4242141827534373e-05 0 0.0023635127714735299 -8.5980925913731009e-05 0 0.001774856005337603 -0.00020546015605307639 0 0.0022283991364691609 -0.0001127815491710123 0 0.0021995426470945685 -6.0051514964442343e-05 0 0.0021570034339937162 -6.9365247920005188e-05 0 0.0021995426470945685 -6.0051514964442343e-05 0 0.0021765494458517039 2.7609543839228654e-06 0 0.0021550831535435593 -2.928688603268376e-05 0 0.0021995426470945685 -6.0051514964442343e-05 0 0.0021570034339937162 -6.9365247920005188e-05 0 0.0021550831535435593 -2.928688603268376e-05 0 0.0021765494458517039 2.7609543839228654e-06 0 0.0021550831535435593 -2.928688603268376e-05 0 0.0021580636298800114 -5.8595941540283819e-06 0 0.0021550831535435593 -2.928688603268376e-05 0 0.0021314325440470435 -1.6347676188916357e-05 0 0.0021580636298800114 -5.8595941540283819e-06 0 0.0021550831535435593 -2.928688603268376e-05 0 0.0021183574659009571 -4.4030971466907505e-05 0 0.0021314325440470435 -1.6347676188916357e-05 0 0.0021570034339937162 -6.9365247920005188e-05 0 0.0021550831535435593 -2.928688603268376e-05 0 0.0021183574659009571 -4.4030971466907505e-05 0 0.0021183574659009571 -4.4030971466907505e-05 0 0.0021314325440470435 -1.6347676188916357e-05 0 0.0020740282846970228 1.530564539035445e-06 0 0.0021183574659009571 -4.4030971466907505e-05 0 0.0020852080117075098 -8.8545082531913717e-05 0 0.0020740282846970228 1.530564539035445e-06 0 0.0021570034339937162 -6.9365247920005188e-05 0 0.0021183574659009571 -4.4030971466907505e-05 0 0.0020852080117075098 -8.8545082531913717e-05 0 0.0018960566279495547 7.6906421870821058e-05 0 0.002011358393374504 0.00019151848593166367 0 0.0017905197517361806 0.00022366271367156777 0 0.001774856005337603 -0.00020546015605307639 0 0.00045578249321444759 -6.4760803635266376e-05 0 0.00062993301528962086 -0.00042897027332758803 0 0.00016352321686860698 -0.00035858383630433133 0 0.000333617500596401 0.00024207183972574346 0 -0.00027502307752723593 4.2373797107138571e-05 0 0.00065228701024393622 0.00023780053568811733 0 0.001774856005337603 -0.00020546015605307639 0 0.00065228701024393622 0.00023780053568811733 0 0.00062993301528962086 -0.00042897027332758803 0 0.000333617500596401 0.00024207183972574346 0 0.000382959199665688 0.00032145747740994966 0 0.00012336161641532747 -0.00035449182487193835 0 -0.00017436466138885239 5.3834361372295457e-05 0 0.000333617500596401 0.00024207183972574346 0 0.00045578249321444759 -6.4760803635266376e-05 0 0.00023903875867825085 7.5543471632224802e-05 0 -0.00047260891327301777 -0.00024401742116227597 0 0.00012336161641532747 -0.00035449182487193835 0 -0.00017436466138885239 5.3834361372295457e-05 0 -0.00033512269009703364 -0.00049134208746913586 0 -0.0002320714350917157 -0.00018319986707266572 0 -0.00045124553337901426 -0.00030152461119242757 0 -0.00066061859327102039 -0.00019862606721230306 0 0.00045578249321444759 -6.4760803635266376e-05 0 0.0007178919997687769 -0.00022013752780280913 0 0.00045578249321444759 -6.4760803635266376e-05 0 -0.00062361159099446662 -0.00013021747791259011 0 -0.0002320714350917157 -0.00018319986707266572 0 -0.00045124553337901426 -0.00030152461119242757 0 -0.0013922615902055965 0.00015804119965681638 0 -0.0013988294504944543 0.00017102187029995427 0 -0.0013711531540907278 0.00017977162972216483 0 -0.00075233822964986474 0.00028210747782827237 0 -0.00099300280428380968 0.00043624186816972207 0 -0.00079640292148321274 0.0001394477505164787 0 -0.00050141754381718127 0.00069875539942136861 0 -0.00042054293949915841 0.00049719803909499126 0 -0.00079640292148321274 0.0001394477505164787 0 -0.00033400355298830302 0.00035824961680688833 0 -0.00042054293949915841 0.00049719803909499126 0 -0.00075233822964986474 0.00028210747782827237 0 -0.00012268836351534153 0.00048233237316628322 0 -0.00033629521017251006 0.00045728754172753757 0 -1.6508417716149968e-05 0.00047696362442671049 0 2.7480746313982173e-05 0.00058717561282782636 0 -0.00033629521017251006 0.00045728754172753757 0 -8.5861024270505348e-05 0.00030778582061558187 0 -1.6508417716149968e-05 0.00047696362442671049 0 -0.00017436466138885239 5.3834361372295457e-05 0 -8.5861024270505348e-05 0.00030778582061558187 0 0.00016309189019896129 0.00023480244746015743 0 -0.00033629521017251006 0.00045728754172753757 0 -0.00027703932106998204 0.00025541731718466934 0 -8.5861024270505348e-05 0.00030778582061558187 0 -0.00017436466138885239 5.3834361372295457e-05 0 -0.00027703932106998204 0.00025541731718466934 0 -8.5861024270505348e-05 0.00030778582061558187 0 -8.5861024270505348e-05 0.00030778582061558187 0 2.9987480367679075e-05 0.00039785219121512904 0 -1.6508417716149968e-05 0.00047696362442671049 0 2.9987480367679075e-05 0.00039785219121512904 0 0.00016309189019896129 0.00023480244746015743 0 5.7312015218711243e-05 0.00057013345783595416 0 -8.5861024270505348e-05 0.00030778582061558187 0 2.9987480367679075e-05 0.00039785219121512904 0 0.00016309189019896129 0.00023480244746015743 0 0.00065228701024393622 0.00023780053568811733 0 -1.4397920468237885e-05 0.00058193530653034104 0 -0.00017436466138885239 5.3834361372295457e-05 0 0.000333617500596401 0.00024207183972574346 0 0.000382959199665688 0.00032145747740994966 0 5.7312015218711243e-05 0.00057013345783595416 0 2.7480746313982173e-05 0.00058717561282782636 0 0.00033360934884239026 0.0007034439391818769 0 0.00016137878154319859 0.00024865062147705699 0 5.7312015218711243e-05 0.00057013345783595416 0 0.00027325296257639216 0.00048838129128788311 0 5.7312015218711243e-05 0.00057013345783595416 0 0.00027325296257639216 0.00048838129128788311 0 0.00033360934884239026 0.0007034439391818769 0 2.9987480367679075e-05 0.00039785219121512904 0 -1.6508417716149968e-05 0.00047696362442671049 0 5.7312015218711243e-05 0.00057013345783595416 0 -0.00033400355298830302 0.00035824961680688833 0 -0.00021559513103720633 0.00051797660845703212 0 -0.00042054293949915841 0.00049719803909499126 0 -1.6508417716149968e-05 0.00047696362442671049 0 5.7312015218711243e-05 0.00057013345783595416 0 2.7480746313982173e-05 0.00058717561282782636 0 0.00027325296257639216 0.00048838129128788311 0 0.00053278793848976123 0.0004276582559439232 0 0.00033360934884239026 0.0007034439391818769 0 0.0021314325440470435 -1.6347676188916357e-05 0 0.0020740282846970228 1.530564539035445e-06 0 0.0021508095080243908 -8.9070874590431997e-06 0 0.00065228701024393622 0.00023780053568811733 0 0.0013901397587783107 0.00020166328953544999 0 0.00016137878154319859 0.00024865062147705699 0 0.00027325296257639216 0.00048838129128788311 0 0.00053278793848976123 0.0004276582559439232 0 0.0021314325440470435 -1.6347676188916357e-05 0 0.0021580636298800114 -5.8595941540283819e-06 0 0.0021508095080243908 -8.9070874590431997e-06 0 0.0021580636298800114 -5.8595941540283819e-06 0 0.0021508095080243908 -8.9070874590431997e-06 0 0.0021222339456378543 -3.0109860710385369e-05 0 0.00053278793848976123 0.0004276582559439232 0 0.00059265207714162234 0.00063637434484134037 0 0.00090532422351613138 0.00058829332572211588 0 0.00053278793848976123 0.0004276582559439232 0 0.00059265207714162234 0.00063637434484134037 0 0.00033360934884239026 0.0007034439391818769 0 0.00059265207714162234 0.00063637434484134037 0 0.00060890925818807816 0.00082371043998201411 0 0.00033360934884239026 0.0007034439391818769 0 0.00060890925818807816 0.00082371043998201411 0 0.0003289529293133443 0.00087736434894803079 0 0.0001358872784503471 0.00058039000594323881 0 0.00058220547574679377 0.0008098209708009617 0 0.00023139493103447573 0.0006430037081352121 0 -0.00056677087238905105 -2.9164933961722035e-05 0 -0.00093496668752002146 0.0001773433512899537 0 0.00067056603045452978 0.00089863361535362225 0 0.0003289529293133443 0.00087736434894803079 0 0.00013503205280762708 0.0011400910393831161 0 0.00028993983611252564 0.00034614043577266496 0 -0.00093496668752002146 0.0001773433512899537 0 -0.00024377644921168417 -4.3281547327399123e-05 0 -0.00015924140007817547 9.0313925795779029e-05 0 -0.0006595591738031458 0.0004751159393979092 0 -0.00079540139309521832 -0.00010397455554900231 0 -0.001056645033786271 2.3656861393578183e-06 0 -0.00096864126994337702 8.2681840791548204e-05 0 0.00060890925818807816 0.00082371043998201411 0 0.00067056603045452978 0.00089863361535362225 0 0.0003289529293133443 0.00087736434894803079 0 0.00028993983611252564 0.00034614043577266496 0 -0.00054616181013198122 0.00059257664674823194 0 0.0003289529293133443 0.00087736434894803079 0 0.00013503205280762708 0.0011400910393831161 0 8.0767737382506435e-05 0.00090767261741061666 0 0.00013503205280762708 0.0011400910393831161 0 8.0767737382506435e-05 0.00090767261741061666 0 -3.7698441045211282e-05 0.001053525847794387 0 0.00013503205280762708 0.0011400910393831161 0 -3.7698441045211282e-05 0.001053525847794387 0 -0.00019682334754910074 0.0012805768092715353 0 8.0767737382506435e-05 0.00090767261741061666 0 0.0001358872784503471 0.00058039000594323881 0 -0.00015834178827679718 0.00088207083134938266 0 0.0003289529293133443 0.00087736434894803079 0 8.0767737382506435e-05 0.00090767261741061666 0 0.0001358872784503471 0.00058039000594323881 0 -0.00012268836351534153 0.00048233237316628322 0 0.00023139493103447573 0.0006430037081352121 0 -0.00033400355298830302 0.00035824961680688833 0 0.0001358872784503471 0.00058039000594323881 0 -0.00021559513103720633 0.00051797660845703212 0 0.0001358872784503471 0.00058039000594323881 0 -0.00021559513103720633 0.00051797660845703212 0 -0.00024279407064621114 0.00063589874177791262 0 0.0001358872784503471 0.00058039000594323881 0 -0.00024279407064621114 0.00063589874177791262 0 -0.00015834178827679718 0.00088207083134938266 0 -0.00024279407064621114 0.00063589874177791262 0 -0.00050141754381718127 0.00069875539942136861 0 -0.00042054293949915841 0.00049719803909499126 0 -0.00021559513103720633 0.00051797660845703212 0 -0.00024279407064621114 0.00063589874177791262 0 -0.00042054293949915841 0.00049719803909499126 0 -0.00024279407064621114 0.00063589874177791262 0 -0.00015834178827679718 0.00088207083134938266 0 -0.00050141754381718127 0.00069875539942136861 0 -0.00099300280428380968 0.00043624186816972207 0 -0.00071057551526575483 0.00056530132242908521 0 -0.00015834178827679718 0.00088207083134938266 0 -0.00050141754381718127 0.00069875539942136861 0 -0.00019682334754910074 0.0012805768092715353 0 -0.00015834178827679718 0.00088207083134938266 0 -3.7698441045211282e-05 0.001053525847794387 0 -0.00019682334754910074 0.0012805768092715353 0 8.0767737382506435e-05 0.00090767261741061666 0 -0.00015834178827679718 0.00088207083134938266 0 -3.7698441045211282e-05 0.001053525847794387 0 -0.0014003320540400849 0.00018273478166458491 0 -0.0013822651026935734 0.00019792654725993826 0 -0.0013711531540907278 0.00017977162972216483 0 -0.0013822651026935734 0.00019792654725993826 0 -0.0013711531540907278 0.00017977162972216483 0 -0.0013437092125591057 0.00021281084174128983 0 0.0020219917359168213 0.00012498341314043482 0 0.0020031043140048229 -3.9203579844602699e-06 0 0.0018306779650110333 0.00022174780783581384 0 0.00098510372457103292 -0.00033326502108193271 0 0.0014580160833321579 -0.00047613661217208071 0 -3.3901893938319439e-05 -0.00081579270695002605 0 0.00032605804430458431 -0.00078981732706463563 0 0.00039486301512143976 -0.0011366088423432892 0 -3.3901893938319439e-05 -0.00081579270695002605 0 0.00032605804430458431 -0.00078981732706463563 0 0.00014921000781772072 -0.00060632181887322286 0 0.0019310436870641347 -0.00021819819977410721 0 0.0022839851355127543 4.0969279226376108e-06 0 0.0020219917359168213 0.00012498341314043482 0 0.0021183920628657866 2.3189249506625068e-06 0 0.0020200249934803046 -1.3162162782585101e-05 0 0.0020219917359168213 0.00012498341314043482 0 0.0021267523160365363 1.454986926468982e-05 0 0.0021183920628657866 2.3189249506625068e-06 0 0.0024728095587403555 -3.8187522177740581e-05 0 0.0024764306897130796 -1.5382144563221074e-05 0 0.0024222603242322655 -3.2137954143808825e-06 0 0.0024728095587403555 -3.8187522177740581e-05 0 0.0024870220516695798 -1.7379407812536674e-05 0 0.0024888309653848303 -3.1678490647198201e-05 0 0.0024728095587403555 -3.8187522177740581e-05 0 0.0024764306897130796 -1.5382144563221074e-05 0 0.0024870220516695798 -1.7379407812536674e-05 0 0.0014580160833321579 -0.00047613661217208071 0 0.0019310436870641347 -0.00021819819977410721 0 0.0016171677332596746 -0.000307068752905554 0 0.0015873908656097843 -0.0003482925122122019 0 0.0016558718190175933 -0.00033759716640088388 0 0.0019310436870641347 -0.00021819819977410721 0 0.0019103600667341241 -0.00037481782410163768 0 0.0020219917359168213 0.00012498341314043482 0 0.0020200249934803046 -1.3162162782585101e-05 0 0.0020031043140048229 -3.9203579844602699e-06 0 0.002170690647021183 9.4147485469959604e-06 0 0.0022839851355127543 4.0969279226376108e-06 0 0.0020358761061356691 2.171055401669099e-05 0 0.0020200249934803046 -1.3162162782585101e-05 0 0.0020031043140048229 -3.9203579844602699e-06 0 0.0020358761061356691 2.171055401669099e-05 0 0.0020031043140048229 -3.9203579844602699e-06 0 0.0020509655344285961 -7.2516142906980417e-06 0 0.0020358761061356691 2.171055401669099e-05 0 0.0020509655344285961 -7.2516142906980417e-06 0 0.0021113082396741895 -1.2104427898318405e-05 0 0.0020509655344285961 -7.2516142906980417e-06 0 0.0020673358258215709 -3.2935151332287429e-05 0 0.0021113082396741895 -1.2104427898318405e-05 0 0.0020031043140048229 -3.9203579844602699e-06 0 0.0020509655344285961 -7.2516142906980417e-06 0 0.0020673358258215709 -3.2935151332287429e-05 0 0.0021765494458517039 2.7609543839228654e-06 0 0.0020358761061356691 2.171055401669099e-05 0 0.0021113082396741895 -1.2104427898318405e-05 0 0.0021765494458517039 2.7609543839228654e-06 0 0.0021580636298800114 -5.8595941540283819e-06 0 0.0021113082396741895 -1.2104427898318405e-05 0 0.0020673358258215709 -3.2935151332287429e-05 0 0.0021113082396741895 -1.2104427898318405e-05 0 0.0021222339456378543 -3.0109860710385369e-05 0 0.0021580636298800114 -5.8595941540283819e-06 0 0.0021113082396741895 -1.2104427898318405e-05 0 0.0021222339456378543 -3.0109860710385369e-05 0 0.0021508095080243908 -8.9070874590431997e-06 0 0.0021222339456378543 -3.0109860710385369e-05 0 0.0020932706246576224 -8.3404471573819195e-05 0 0.0013901397587783107 0.00020166328953544999 0 0.0016929450787729805 0.0002362615827546591 0 0.0020673358258215709 -3.2935151332287429e-05 0 0.0021222339456378543 -3.0109860710385369e-05 0 0.0020932706246576224 -8.3404471573819195e-05 0 0.0020887310186148483 -8.622428021795357e-05 0 0.0016929450787729805 0.0002362615827546591 0 0.0020031043140048229 -3.9203579844602699e-06 0 0.0017628727090966652 0.00018891608053505244 0 0.0018306779650110333 0.00022174780783581384 0 0.0020031043140048229 -3.9203579844602699e-06 0 0.0020673358258215709 -3.2935151332287429e-05 0 0.0020932706246576224 -8.3404471573819195e-05 0 0.00098510372457103292 -0.00033326502108193271 0 0.0004791067288801416 -0.00022499334206353274 0 0.0020219917359168213 0.00012498341314043482 0 0.0018306779650110333 0.00022174780783581384 0 0.0017967136914241136 0.00032403924655294151 0 -3.3901893938319439e-05 -0.00081579270695002605 0 -0.00047484830216358456 -0.0004878417004573805 0 -0.00039095534008697699 -0.00052288333848842276 0 0.0017183407366177269 0.00014690524628645316 0 0.0018306779650110333 0.00022174780783581384 0 0.0017967136914241136 0.00032403924655294151 0 0.0016929450787729805 0.0002362615827546591 0 0.001777195497075863 0.00023812879547514091 0 0.0004791067288801416 -0.00022499334206353274 0 0.00010596316689667906 -0.00017714680899556088 0 -0.00039095534008697699 -0.00052288333848842276 0 -0.00034359470892267248 -0.00030998078634965668 0 -0.00023063324128399598 -0.00040920224735177492 0 -0.00047954817063965898 -0.00048582016602635654 0 -0.00039095534008697699 -0.00052288333848842276 0 -0.00034359470892267248 -0.00030998078634965668 0 0.00060890925818807816 0.00082371043998201411 0 0.00067056603045452978 0.00089863361535362225 0 0.00090532422351613138 0.00058829332572211588 0 0.00059265207714162234 0.00063637434484134037 0 0.00060890925818807816 0.00082371043998201411 0 0.00090532422351613138 0.00058829332572211588 0 0.00028993983611252564 0.00034614043577266496 0 0.0004791067288801416 -0.00022499334206353274 0 0.0014197046412232465 0.00048244395079751081 0 0.0017183407366177269 0.00014690524628645316 0 0.0017967136914241136 0.00032403924655294151 0 0.00028993983611252564 0.00034614043577266496 0 0.0016929450787729805 0.0002362615827546591 0 -0.00047954817063965898 -0.00048582016602635654 0 -0.00085155025987609576 -0.00018284632609009952 0 -0.00054602193033822491 -0.00013258165371029864 0 -0.00024377644921168417 -4.3281547327399123e-05 0 0.00034102764502095048 -0.00029895666052267634 0 -0.00015924140007817547 9.0313925795779029e-05 0 0.0004791067288801416 -0.00022499334206353274 0 -0.00056677087238905105 -2.9164933961722035e-05 0 -0.00085155025987609576 -0.00018284632609009952 0 -0.00054602193033822491 -0.00013258165371029864 0 -0.00091527173192520214 0.00010434025981795808 0 -0.00047954817063965898 -0.00048582016602635654 0 -0.00034359470892267248 -0.00030998078634965668 0 -0.00054602193033822491 -0.00013258165371029864 0 -0.00034359470892267248 -0.00030998078634965668 0 -0.00054602193033822491 -0.00013258165371029864 0 -0.00023304568751195766 -9.8434387370652902e-05 0 -0.00023304568751195766 -9.8434387370652902e-05 0 -8.9901253487458229e-05 -0.00024433597869751201 0 0.00018176550684037657 7.8907560092467138e-05 0 -0.00034359470892267248 -0.00030998078634965668 0 -0.00023304568751195766 -9.8434387370652902e-05 0 -8.9901253487458229e-05 -0.00024433597869751201 0 -0.00034359470892267248 -0.00030998078634965668 0 -8.9901253487458229e-05 -0.00024433597869751201 0 -0.00023063324128399598 -0.00040920224735177492 0 -8.9901253487458229e-05 -0.00024433597869751201 0 -0.00023063324128399598 -0.00040920224735177492 0 -8.3700119276412682e-05 -0.00052029660492831757 0 -3.3901893938319439e-05 -0.00081579270695002605 0 -0.00039095534008697699 -0.00052288333848842276 0 -8.3700119276412682e-05 -0.00052029660492831757 0 -0.00039095534008697699 -0.00052288333848842276 0 -0.00023063324128399598 -0.00040920224735177492 0 -8.3700119276412682e-05 -0.00052029660492831757 0 -8.9901253487458229e-05 -0.00024433597869751201 0 -8.3700119276412682e-05 -0.00052029660492831757 0 0.00010934837549077524 -0.00040502352474601684 0 -8.3700119276412682e-05 -0.00052029660492831757 0 0.00014921000781772072 -0.00060632181887322286 0 0.00010934837549077524 -0.00040502352474601684 0 -3.3901893938319439e-05 -0.00081579270695002605 0 -8.3700119276412682e-05 -0.00052029660492831757 0 0.00014921000781772072 -0.00060632181887322286 0 0.00032605804430458431 -0.00078981732706463563 0 0.00014921000781772072 -0.00060632181887322286 0 0.00037161677570588891 -0.00043148297656235102 0 0.00014921000781772072 -0.00060632181887322286 0 0.00010934837549077524 -0.00040502352474601684 0 0.00037161677570588891 -0.00043148297656235102 0 -8.9901253487458229e-05 -0.00024433597869751201 0 0.00019262840571346808 -0.00021605061623436504 0 0.00018176550684037657 7.8907560092467138e-05 0 0.00037161677570588891 -0.00043148297656235102 0 0.00019262840571346808 -0.00021605061623436504 0 0.0004422793155137344 -0.00012093408355288226 0 -8.9901253487458229e-05 -0.00024433597869751201 0 0.00010934837549077524 -0.00040502352474601684 0 0.00019262840571346808 -0.00021605061623436504 0 0.00010934837549077524 -0.00040502352474601684 0 0.00037161677570588891 -0.00043148297656235102 0 0.00019262840571346808 -0.00021605061623436504 0 0.00019262840571346808 -0.00021605061623436504 0 0.0004422793155137344 -0.00012093408355288226 0 0.00018176550684037657 7.8907560092467138e-05 0 0.00037161677570588891 -0.00043148297656235102 0 0.0004422793155137344 -0.00012093408355288226 0 0.00057527724620528122 -0.00024314368886832911 0 0.00037161677570588891 -0.00043148297656235102 0 0.00057527724620528122 -0.00024314368886832911 0 0.00064133749896570075 -0.00040340162199309761 0 0.00057527724620528122 -0.00024314368886832911 0 0.00074514981593930393 -0.00021150442689201073 0 0.00064133749896570075 -0.00040340162199309761 0 0.00057527724620528122 -0.00024314368886832911 0 0.00074514981593930393 -0.00021150442689201073 0 0.00067496192316019354 -4.8090125704552252e-05 0 0.0004422793155137344 -0.00012093408355288226 0 0.00057527724620528122 -0.00024314368886832911 0 0.00067496192316019354 -4.8090125704552252e-05 0 0.00084098232526043056 -0.00021736662461963095 0 0.00062377899906525204 -0.00016717194534542616 0 0.00091909856760637859 -0.00021683872807080404 0 0.00074514981593930393 -0.00021150442689201073 0 0.0007748062318682676 -3.7775611711051004e-05 0 0.00091909856760637859 -0.00021683872807080404 0 0.0011330716274494904 -1.8178309461037936e-05 0 0.00078290257356072889 -5.6184504158980977e-05 0 0.00074514981593930393 -0.00021150442689201073 0 0.0007748062318682676 -3.7775611711051004e-05 0 0.00067496192316019354 -4.8090125704552252e-05 0 0.00091909856760637859 -0.00021683872807080404 0 0.00098516882449025431 -0.00047819852380120303 0 0.0010762095040149592 -0.00021812089465816695 0 0.00091909856760637859 -0.00021683872807080404 0 0.00082291473844676468 -0.00038801508415091466 0 0.00098516882449025431 -0.00047819852380120303 0 0.00074514981593930393 -0.00021150442689201073 0 0.00082291473844676468 -0.00038801508415091466 0 0.00064133749896570075 -0.00040340162199309761 0 0.00091909856760637859 -0.00021683872807080404 0 0.00074514981593930393 -0.00021150442689201073 0 0.00082291473844676468 -0.00038801508415091466 0 0.0014540603383050403 -0.00046003562314078222 0 0.0011717961799434522 -0.00080058621443404089 0 0.00082291473844676468 -0.00038801508415091466 0 0.00064133749896570075 -0.00040340162199309761 0 0.00068970278531325945 -0.00080866852077741286 0 0.00082291473844676468 -0.00038801508415091466 0 0.00098516882449025431 -0.00047819852380120303 0 0.00068970278531325945 -0.00080866852077741286 0 0.00037161677570588891 -0.00043148297656235102 0 0.00064133749896570075 -0.00040340162199309761 0 0.00068970278531325945 -0.00080866852077741286 0 0.002406963994599701 -0.0008338519004293237 0 0.0024618937390284185 -0.0008814326961347188 0 0.0024098441346245224 -0.00078168720683393278 0 0.0017045761643821396 -0.0005477653743056149 0 0.0022439071083412685 -0.00072310530928352764 0 0.0023940842556371454 -0.00086011378369638028 0 0.0023292212589538538 -0.00086250132473858542 0 0.002426760374330096 -0.00091975009141555112 0 0.0023940842556371454 -0.00086011378369638028 0 0.002406963994599701 -0.0008338519004293237 0 0.0023615628276635139 -0.00081178477067943842 0 0.0023940842556371454 -0.00086011378369638028 0 0.0024618937390284185 -0.0008814326961347188 0 0.002426760374330096 -0.00091975009141555112 0 0.0017045761643821396 -0.0005477653743056149 0 0.0016433936078417391 -0.00074847366488341247 0 0.0023940842556371454 -0.00086011378369638028 0 0.002406963994599701 -0.0008338519004293237 0 0.0024618937390284185 -0.0008814326961347188 0 0.00098516882449025431 -0.00047819852380120303 0 0.0012675075620210538 -0.00016342371478257457 0 0.0010762095040149592 -0.00021812089465816695 0 0.0014540603383050403 -0.00046003562314078222 0 0.0017045761643821396 -0.0005477653743056149 0 0.0012675075620210538 -0.00016342371478257457 0 0.0010762095040149592 -0.00021812089465816695 0 0.0011330716274494904 -1.8178309461037936e-05 0 0.0017045761643821396 -0.0005477653743056149 0 0.00092658464885620687 -0.00065897899023466971 0 0.00091909856760637859 -0.00021683872807080404 0 0.0010762095040149592 -0.00021812089465816695 0 0.0011330716274494904 -1.8178309461037936e-05 0 0.0018876557940884309 -0.00053337696806921768 0 0.0019817332667109271 -0.00055417905859120374 0 0.001922567085452771 -0.00060209251544276218 0 0.0018876557940884309 -0.00053337696806921768 0 0.0019544883675998259 -0.00046083099791899133 0 0.0019817332667109271 -0.00055417905859120374 0 0.0024618937390284185 -0.0008814326961347188 0 0.0024098441346245224 -0.00078168720683393278 0 0.0024376015137204071 -0.00075656486606800522 0 0.0024098441346245224 -0.00078168720683393278 0 0.0024376015137204071 -0.00075656486606800522 0 0.0023974392428611304 -0.00069669568559813696 0 0.0024098441346245224 -0.00078168720683393278 0 0.0023615628276635139 -0.00081178477067943842 0 0.0023449341414051796 -0.00073510217639774478 0 0.002406963994599701 -0.0008338519004293237 0 0.0024098441346245224 -0.00078168720683393278 0 0.0023615628276635139 -0.00081178477067943842 0 0.0024376015137204071 -0.00075656486606800522 0 0.0023974392428611304 -0.00069669568559813696 0 0.0024052077692939566 -0.00061340749915357335 0 0.0022439071083412685 -0.00072310530928352764 0 0.002383007144018799 -0.00044285107318743356 0 0.0024098441346245224 -0.00078168720683393278 0 0.0023695468490306996 -0.00067422692690705317 0 0.0023974392428611304 -0.00069669568559813696 0 0.0019817332667109271 -0.00055417905859120374 0 0.001922567085452771 -0.00060209251544276218 0 0.0020098593549726959 -0.00064801620485712883 0 0.0024098441346245224 -0.00078168720683393278 0 0.0023695468490306996 -0.00067422692690705317 0 0.0023081142222644009 -0.00063048061586602885 0 0.0023931283235280689 -0.00077734340575566409 0 0.0023615384383254357 -0.00062415496081934328 0 0.0023808019276774536 -0.00065446147171618224 0 0.0023974392428611304 -0.00069669568559813696 0 0.0024052077692939566 -0.00061340749915357335 0 0.0023695297295691121 -0.00064113876418977729 0 0.0023820073472327393 -0.00062843836905068437 0 0.0023808019276774536 -0.00065446147171618224 0 0.0023695297295691121 -0.00064113876418977729 0 0.0023750724742575531 -0.00061881386552299405 0 0.0023820073472327393 -0.00062843836905068437 0 0.0023695297295691121 -0.00064113876418977729 0 0.0023750724742575531 -0.00061881386552299405 0 0.0023521396371617219 -0.000639877781610062 0 0.0024892039652830785 -0.0005078646026629687 0 0.0024873421255086656 -0.00051375662379823158 0 0.0023749265296395222 -0.00061839511142746197 0 0.0023820073472327393 -0.00062843836905068437 0 0.0024052077692939566 -0.00061340749915357335 0 0.0024892039652830785 -0.0005078646026629687 0 0.002383007144018799 -0.00044285107318743356 0 0.0023820073472327393 -0.00062843836905068437 0 0.0023808019276774536 -0.00065446147171618224 0 0.0024052077692939566 -0.00061340749915357335 0 0.0023695297295691121 -0.00064113876418977729 0 0.0023808019276774536 -0.00065446147171618224 0 0.0023695468490306996 -0.00067422692690705317 0 0.0023695297295691121 -0.00064113876418977729 0 0.0023695468490306996 -0.00067422692690705317 0 0.0023521396371617219 -0.000639877781610062 0 0.0023808019276774536 -0.00065446147171618224 0 0.0023695468490306996 -0.00067422692690705317 0 0.0023974392428611304 -0.00069669568559813696 0 0.001922567085452771 -0.00060209251544276218 0 0.0020098593549726959 -0.00064801620485712883 0 0.0018845805114606981 -0.00066827305837430988 0 0.0026278174916322741 -1.8528946985326401e-05 0 0.0025592533461382995 -2.4115229164324394e-05 0 0.0026002750395661529 -6.1965866159570263e-05 0 0.002383007144018799 -0.00044285107318743356 0 0.0022546402771543052 -0.00032700510738771597 0 0.0025592533461382995 -2.4115229164324394e-05 0 0.0025705200317830881 -5.831977184575528e-05 0 0.0026002750395661529 -6.1965866159570263e-05 0 0.0026824503665469094 -0.00036869268708755742 0 0.0026925035959428356 -0.00036693361103763044 0 0.0026842724632859093 -0.00031833758781119644 0 0.0026278174916322741 -1.8528946985326401e-05 0 0.0026002750395661529 -6.1965866159570263e-05 0 0.0026438806495362294 -6.9333077827861392e-05 0 0.002383007144018799 -0.00044285107318743356 0 0.0026748981827422018 -0.00015513359879977716 0 0.00032605804430458431 -0.00078981732706463563 0 0.00037161677570588891 -0.00043148297656235102 0 0.00068970278531325945 -0.00080866852077741286 0 0.00032605804430458431 -0.00078981732706463563 0 0.00039486301512143976 -0.0011366088423432892 0 0.00068970278531325945 -0.00080866852077741286 0 0.0014580160833321579 -0.00047613661217208071 0 0.0011717961799434522 -0.00080058621443404089 0 0.0018876557940884309 -0.00053337696806921768 0 0.001922567085452771 -0.00060209251544276218 0 0.0018183143012014051 -0.00060705774227406614 0 0.001922567085452771 -0.00060209251544276218 0 0.0018183143012014051 -0.00060705774227406614 0 0.0018845805114606981 -0.00066827305837430988 0 0.0025592533461382995 -2.4115229164324394e-05 0 0.0025187630974302451 -4.505933702632003e-05 0 0.0025479590259652758 -6.471502468594565e-05 0 0.0025592533461382995 -2.4115229164324394e-05 0 0.0025479590259652758 -6.471502468594565e-05 0 0.0025705200317830881 -5.831977184575528e-05 0 0.0018183143012014051 -0.00060705774227406614 0 0.0018845805114606981 -0.00066827305837430988 0 0.0017595321743414556 -0.00068620876888615396 0 0.0022546402771543052 -0.00032700510738771597 0 0.0019103600667341241 -0.00037481782410163768 0 0.0025592533461382995 -2.4115229164324394e-05 0 0.0024872841661951182 -2.0008056461445252e-05 0 0.0024927087290818177 -2.4372033817137641e-05 0 0.0017500126415483537 -0.0006789405977985941 0 0.0018183143012014051 -0.00060705774227406614 0 0.0017595321743414556 -0.00068620876888615396 0 0.0025592533461382995 -2.4115229164324394e-05 0 0.0024927087290818177 -2.4372033817137641e-05 0 0.0025187630974302451 -4.505933702632003e-05 0 0.0024870220516695798 -1.7379407812536674e-05 0 0.0024927087290818177 -2.4372033817137641e-05 0 0.0024888309653848303 -3.1678490647198201e-05 0 0.0024927087290818177 -2.4372033817137641e-05 0 0.002499230552068436 -3.664432743566844e-05 0 0.0025187630974302451 -4.505933702632003e-05 0 0.0014580160833321579 -0.00047613661217208071 0 0.0019103600667341241 -0.00037481782410163768 0 0.0019103600667341241 -0.00037481782410163768 0 0.0019706207694005426 -0.00037634566985894868 0 0.0024927087290818177 -2.4372033817137641e-05 0 0.002499230552068436 -3.664432743566844e-05 0 0.0024888309653848303 -3.1678490647198201e-05 0 0.0024728095587403555 -3.8187522177740581e-05 0 0.0024963740806992329 -4.5640486540748889e-05 0 0.0024924493778325676 -5.9868467046151831e-05 0 0.002499230552068436 -3.664432743566844e-05 0 0.0024888309653848303 -3.1678490647198201e-05 0 0.0024963740806992329 -4.5640486540748889e-05 0 0.002499230552068436 -3.664432743566844e-05 0 0.0024963740806992329 -4.5640486540748889e-05 0 0.0025187630974302451 -4.505933702632003e-05 0 0.0024728095587403555 -3.8187522177740581e-05 0 0.0024888309653848303 -3.1678490647198201e-05 0 0.0024963740806992329 -4.5640486540748889e-05 0 0.0024963740806992329 -4.5640486540748889e-05 0 0.0025121824284548028 -6.5742415897128702e-05 0 0.0024924493778325676 -5.9868467046151831e-05 0 0.0025187630974302451 -4.505933702632003e-05 0 0.0025267124482635187 -6.4314516888512956e-05 0 0.0025121824284548028 -6.5742415897128702e-05 0 0.0024963740806992329 -4.5640486540748889e-05 0 0.0025187630974302451 -4.505933702632003e-05 0 0.0025121824284548028 -6.5742415897128702e-05 0 0.0025121824284548028 -6.5742415897128702e-05 0 0.0025289013505275771 -8.3006629739459389e-05 0 0.0025032061322626327 -9.1295835534569117e-05 0 0.0025267124482635187 -6.4314516888512956e-05 0 0.0025121824284548028 -6.5742415897128702e-05 0 0.0025289013505275771 -8.3006629739459389e-05 0 0.0025121824284548028 -6.5742415897128702e-05 0 0.0024924493778325676 -5.9868467046151831e-05 0 0.0025032061322626327 -9.1295835534569117e-05 0 0.0024723845570770444 -6.540045431657586e-05 0 0.0024924493778325676 -5.9868467046151831e-05 0 0.0025032061322626327 -9.1295835534569117e-05 0 0.0025289013505275771 -8.3006629739459389e-05 0 0.0025032061322626327 -9.1295835534569117e-05 0 0.0025385308036625968 -0.00011883477993126833 0 0.0025032061322626327 -9.1295835534569117e-05 0 0.0025385308036625968 -0.00011883477993126833 0 0.0025204719179266993 -0.00013637039543411825 0 0.0024852841155236622 -0.00012394956894509315 0 0.0025032061322626327 -9.1295835534569117e-05 0 0.0025204719179266993 -0.00013637039543411825 0 0.0025664990116753173 -0.00013500248188520097 0 0.0025385308036625968 -0.00011883477993126833 0 0.0025557115198341289 -9.8285517928387513e-05 0 0.0025289013505275771 -8.3006629739459389e-05 0 0.0025385308036625968 -0.00011883477993126833 0 0.0025557115198341289 -9.8285517928387513e-05 0 0.0025664990116753173 -0.00013500248188520097 0 0.0025557115198341289 -9.8285517928387513e-05 0 0.0025819029292975595 -0.00011201391021382674 0 0.0025557115198341289 -9.8285517928387513e-05 0 0.0025479590259652758 -6.471502468594565e-05 0 0.0025751156474478508 -8.3828433383084788e-05 0 0.0025267124482635187 -6.4314516888512956e-05 0 0.0025289013505275771 -8.3006629739459389e-05 0 0.0025479590259652758 -6.471502468594565e-05 0 0.0025289013505275771 -8.3006629739459389e-05 0 0.0025557115198341289 -9.8285517928387513e-05 0 0.0025479590259652758 -6.471502468594565e-05 0 0.0025187630974302451 -4.505933702632003e-05 0 0.0025267124482635187 -6.4314516888512956e-05 0 0.0025479590259652758 -6.471502468594565e-05 0 0.0025479590259652758 -6.471502468594565e-05 0 0.0025705200317830881 -5.831977184575528e-05 0 0.0025751156474478508 -8.3828433383084788e-05 0 0.0025705200317830881 -5.831977184575528e-05 0 0.0026002750395661529 -6.1965866159570263e-05 0 0.0025751156474478508 -8.3828433383084788e-05 0 0.0026002750395661529 -6.1965866159570263e-05 0 0.0026193023904084924 -8.4528398363162771e-05 0 0.0026047972209650196 -0.00010301830442363511 0 0.0026002750395661529 -6.1965866159570263e-05 0 0.0025751156474478508 -8.3828433383084788e-05 0 0.0026047972209650196 -0.00010301830442363511 0 0.0026002750395661529 -6.1965866159570263e-05 0 0.0026438806495362294 -6.9333077827861392e-05 0 0.0026193023904084924 -8.4528398363162771e-05 0 0.0026193023904084924 -8.4528398363162771e-05 0 0.0026306338353479595 -0.00010327653736097167 0 0.0026047972209650196 -0.00010301830442363511 0 0.0026438806495362294 -6.9333077827861392e-05 0 0.0026193023904084924 -8.4528398363162771e-05 0 0.0026306338353479595 -0.00010327653736097167 0 0.0026438806495362294 -6.9333077827861392e-05 0 0.0026306338353479595 -0.00010327653736097167 0 0.0026598261940146499 -0.00012822420664680375 0 0.0026306338353479595 -0.00010327653736097167 0 0.0026245395170159964 -0.00013499315943242549 0 0.0026047972209650196 -0.00010301830442363511 0 0.0026245395170159964 -0.00013499315943242549 0 0.0026047972209650196 -0.00010301830442363511 0 0.0025963290041056898 -0.00013891632432642956 0 0.0026245395170159964 -0.00013499315943242549 0 0.0026406606322910897 -0.00016631588005006784 0 0.0026598261940146499 -0.00012822420664680375 0 0.0026306338353479595 -0.00010327653736097167 0 0.0026245395170159964 -0.00013499315943242549 0 0.0026598261940146499 -0.00012822420664680375 0 0.0025751156474478508 -8.3828433383084788e-05 0 0.0025819029292975595 -0.00011201391021382674 0 0.0026047972209650196 -0.00010301830442363511 0 0.0025557115198341289 -9.8285517928387513e-05 0 0.0025751156474478508 -8.3828433383084788e-05 0 0.0025819029292975595 -0.00011201391021382674 0 0.0025819029292975595 -0.00011201391021382674 0 0.0026047972209650196 -0.00010301830442363511 0 0.0025963290041056898 -0.00013891632432642956 0 0.0025664990116753173 -0.00013500248188520097 0 0.0025819029292975595 -0.00011201391021382674 0 0.0025963290041056898 -0.00013891632432642956 0 0.0025664990116753173 -0.00013500248188520097 0 0.0025963290041056898 -0.00013891632432642956 0 0.0025847411837575029 -0.00017318473231996061 0 0.0025963290041056898 -0.00013891632432642956 0 0.0025847411837575029 -0.00017318473231996061 0 0.002618552096397836 -0.00017166632461831536 0 0.0026245395170159964 -0.00013499315943242549 0 0.0026406606322910897 -0.00016631588005006784 0 0.002618552096397836 -0.00017166632461831536 0 0.0026245395170159964 -0.00013499315943242549 0 0.0025963290041056898 -0.00013891632432642956 0 0.002618552096397836 -0.00017166632461831536 0 0.0026406606322910897 -0.00016631588005006784 0 0.002618552096397836 -0.00017166632461831536 0 0.002636512928887883 -0.00018956195451579703 0 0.0025847411837575029 -0.00017318473231996061 0 0.002618552096397836 -0.00017166632461831536 0 0.002626359966327135 -0.00021050315381734096 0 0.002636512928887883 -0.00018956195451579703 0 0.002626359966327135 -0.00021050315381734096 0 0.0026615205813597807 -0.00020490090653286518 0 0.002618552096397836 -0.00017166632461831536 0 0.002636512928887883 -0.00018956195451579703 0 0.002626359966327135 -0.00021050315381734096 0 0.002555489642094086 -0.00020894159483981657 0 0.0025847411837575029 -0.00017318473231996061 0 0.002626359966327135 -0.00021050315381734096 0 0.0025987356234301591 -0.00018726849354051023 0 0.0026498353407132451 -0.0001932008646795967 0 0.002555489642094086 -0.00020894159483981657 0 0.0025847411837575029 -0.00017318473231996061 0 0.0025513145798683932 -0.00016347825362466255 0 0.002555489642094086 -0.00020894159483981657 0 0.0025399671509209439 -0.00019397307518473258 0 0.0025513145798683932 -0.00016347825362466255 0 0.0025599414758709946 -0.00018711929279552637 0 0.0025080701341893374 -0.0001869082348164576 0 0.0025399671509209439 -0.00019397307518473258 0 0.0025080701341893374 -0.0001869082348164576 0 0.0025399671509209439 -0.00019397307518473258 0 0.0025513145798683932 -0.00016347825362466255 0 0.0025080701341893374 -0.0001869082348164576 0 0.0025204719179266993 -0.00013637039543411825 0 0.0025513145798683932 -0.00016347825362466255 0 0.0025080701341893374 -0.0001869082348164576 0 0.0024852841155236622 -0.00012394956894509315 0 0.0025204719179266993 -0.00013637039543411825 0 0.0025664990116753173 -0.00013500248188520097 0 0.0025385308036625968 -0.00011883477993126833 0 0.0025513145798683932 -0.00016347825362466255 0 0.0025664990116753173 -0.00013500248188520097 0 0.0025847411837575029 -0.00017318473231996061 0 0.0025513145798683932 -0.00016347825362466255 0 0.0025385308036625968 -0.00011883477993126833 0 0.0025204719179266993 -0.00013637039543411825 0 0.0025513145798683932 -0.00016347825362466255 0 0.0023551874280673319 -0.00036949763400822812 0 0.0023129653220562109 -0.00041412920854589621 0 0.0023253373426687218 -0.00045298760345780902 0 0.0023551874280673319 -0.00036949763400822812 0 0.0023468631175182536 -0.00034561065962838316 0 0.0023129653220562109 -0.00041412920854589621 0 0.0022729113226839445 -0.00040796330732690244 0 0.0023468631175182536 -0.00034561065962838316 0 0.0023129653220562109 -0.00041412920854589621 0 0.0022114840777316147 -0.00040907245946124538 0 0.0022729113226839445 -0.00040796330732690244 0 0.0022790699635662991 -0.00035582609653392712 0 0.0022729113226839445 -0.00040796330732690244 0 0.0022790699635662991 -0.00035582609653392712 0 0.0023468631175182536 -0.00034561065962838316 0 0.0022790699635662991 -0.00035582609653392712 0 0.0023468631175182536 -0.00034561065962838316 0 0.0023342199790807997 -0.00029333925489978676 0 0.0023468631175182536 -0.00034561065962838316 0 0.0023342199790807997 -0.00029333925489978676 0 0.002478448935604797 -0.00022484787078222017 0 0.0023551874280673319 -0.00036949763400822812 0 0.0023468631175182536 -0.00034561065962838316 0 0.002478448935604797 -0.00022484787078222017 0 0.0023870424459498402 -0.00017844708420156839 0 0.0023342199790807997 -0.00029333925489978676 0 0.002478448935604797 -0.00022484787078222017 0 0.0024759291518853723 -0.00030320419169012081 0 0.0024625066939739865 -0.0002234076250344575 0 0.0026010314743847769 -0.00026061143000528415 0 0.0026142367239560087 -0.00019668816834889977 0 0.002637342895823752 -0.00022141869180534942 0 0.0026010314743847769 -0.00026061143000528415 0 0.002478448935604797 -0.00022484787078222017 0 0.0026142367239560087 -0.00019668816834889977 0 0.0026557604844541396 -0.00018626430861485977 0 0.0026142367239560087 -0.00019668816834889977 0 0.002637342895823752 -0.00022141869180534942 0 0.0026557604844541396 -0.00018626430861485977 0 0.0026629070319465404 -0.00020956070189299091 0 0.002637342895823752 -0.00022141869180534942 0 0.0026557604844541396 -0.00018626430861485977 0 0.0026629070319465404 -0.00020956070189299091 0 0.0026699087556931282 -0.00018748679932070801 0 0.0026629070319465404 -0.00020956070189299091 0 0.002637342895823752 -0.00022141869180534942 0 0.0026534791770179886 -0.00022423393241624044 0 0.002626359966327135 -0.00021050315381734096 0 0.0026629070319465404 -0.00020956070189299091 0 0.0026615205813597807 -0.00020490090653286518 0 0.0026498353407132451 -0.0001932008646795967 0 0.0026610394934491214 -0.00020662122262330755 0 0.0026762852000477492 -0.00017427634607246155 0 0.0026629070319465404 -0.00020956070189299091 0 0.0026699087556931282 -0.00018748679932070801 0 0.0026629070319465404 -0.00020956070189299091 0 0.0026615205813597807 -0.00020490090653286518 0 0.0026534791770179886 -0.00022423393241624044 0 0.0026615205813597807 -0.00020490090653286518 0 0.0026580452982573064 -0.00022782667819649181 0 0.0026780214236261229 -0.0002686749722774235 0 0.0026406606322910897 -0.00016631588005006784 0 0.0026615205813597807 -0.00020490090653286518 0 0.0026598261940146499 -0.00012822420664680375 0 0.0026629935074705194 -0.00020020057392593603 0 0.0026676960824451599 -0.00020553484435025952 0 0.0026406606322910897 -0.00016631588005006784 0 0.002636512928887883 -0.00018956195451579703 0 0.0026615205813597807 -0.00020490090653286518 0 0.0026615205813597807 -0.00020490090653286518 0 0.0026580452982573064 -0.00022782667819649181 0 0.0026534791770179886 -0.00022423393241624044 0 0.0026010314743847769 -0.00026061143000528415 0 0.0026334840997679992 -0.00025670147674050782 0 0.0026335367064075654 -0.00027759035656120106 0 0.0026010314743847769 -0.00026061143000528415 0 0.002637342895823752 -0.00022141869180534942 0 0.0026369597761077843 -0.00024018299911817445 0 0.002637342895823752 -0.00022141869180534942 0 0.0026369597761077843 -0.00024018299911817445 0 0.0026534791770179886 -0.00022423393241624044 0 0.0026580452982573064 -0.00022782667819649181 0 0.0026534791770179886 -0.00022423393241624044 0 0.0026464516609954018 -0.00024161703367189463 0 0.0026369597761077843 -0.00024018299911817445 0 0.0026534791770179886 -0.00022423393241624044 0 0.0026464516609954018 -0.00024161703367189463 0 0.0026369597761077843 -0.00024018299911817445 0 0.0026464516609954018 -0.00024161703367189463 0 0.0026334840997679992 -0.00025670147674050782 0 0.0026580452982573064 -0.00022782667819649181 0 0.0026464516609954018 -0.00024161703367189463 0 0.0026474635589482562 -0.00025797176911119689 0 0.0026464516609954018 -0.00024161703367189463 0 0.0026334840997679992 -0.00025670147674050782 0 0.0026474635589482562 -0.00025797176911119689 0 0.0026010314743847769 -0.00026061143000528415 0 0.0026369597761077843 -0.00024018299911817445 0 0.0026334840997679992 -0.00025670147674050782 0 0.0024759291518853723 -0.00030320419169012081 0 0.0024982252055360129 -0.00037271602143955579 0 0.0023631837179333144 -0.00046291181881210453 0 0.0023692979122390788 -0.00051809878887176266 0 0.0023253373426687218 -0.00045298760345780902 0 0.0026334840997679992 -0.00025670147674050782 0 0.0026474635589482562 -0.00025797176911119689 0 0.0026335367064075654 -0.00027759035656120106 0 0.0026474635589482562 -0.00025797176911119689 0 0.0026494971061894481 -0.00027735961479509724 0 0.0026335367064075654 -0.00027759035656120106 0 0.0026842724632859093 -0.00031833758781119644 0 0.0026780214236261229 -0.0002686749722774235 0 0.0026572885703655021 -0.00028105462804026816 0 0.0026580452982573064 -0.00022782667819649181 0 0.0026780214236261229 -0.0002686749722774235 0 0.0026572885703655021 -0.00028105462804026816 0 0.0026580452982573064 -0.00022782667819649181 0 0.0026474635589482562 -0.00025797176911119689 0 0.0026644843205621228 -0.00028059973296043912 0 0.002658709423952548 -0.00023916780366701671 0 0.0026627517688064665 -0.00026503797931633785 0 0.0026474635589482562 -0.00025797176911119689 0 0.0026494971061894481 -0.00027735961479509724 0 0.0026644843205621228 -0.00028059973296043912 0 0.0026842724632859093 -0.00031833758781119644 0 0.0026572885703655021 -0.00028105462804026816 0 0.002655181579795197 -0.00032592871226702429 0 0.0026748981827422018 -0.00015513359879977716 0 0.0026676960824451599 -0.00020553484435025952 0 0.0026494971061894481 -0.00027735961479509724 0 0.0026644843205621228 -0.00028059973296043912 0 0.0026632369401018837 -0.00032571924594202372 0 0.0026627517688064665 -0.00026503797931633785 0 0.0025551951997120586 -0.00040451733770825732 0 0.0024982252055360129 -0.00037271602143955579 0 0.0025551951997120586 -0.00040451733770825732 0 0.002334548079924646 -0.00053124372223271811 0 0.0023172249991549325 -0.00045864689857379008 0 0.0023631837179333144 -0.00046291181881210453 0 0.0024111109218930777 -0.00052802584304807232 0 0.0023692979122390788 -0.00051809878887176266 0 0.0022965460276021163 -0.0005549691846169671 0 0.0022780172851913213 -0.00052420413017228084 0 0.0023253373426687218 -0.00045298760345780902 0 0.0026494971061894481 -0.00027735961479509724 0 0.0026335367064075654 -0.00027759035656120106 0 0.0026632369401018837 -0.00032571924594202372 0 0.0022965460276021163 -0.0005549691846169671 0 0.0022780172851913213 -0.00052420413017228084 0 0.0022559700141557616 -0.00057963013759499045 0 0.0022379012905538163 -0.00055179429431072291 0 0.0022780172851913213 -0.00052420413017228084 0 0.0022559700141557616 -0.00057963013759499045 0 0.0022379012905538163 -0.00055179429431072291 0 0.0022129627406888117 -0.00059020256790285339 0 0.0022559700141557616 -0.00057963013759499045 0 0.0022379012905538163 -0.00055179429431072291 0 0.0022190635320279892 -0.00053275864539382718 0 0.0021942768593129864 -0.00057825271190327062 0 0.0022379012905538163 -0.00055179429431072291 0 0.0021942768593129864 -0.00057825271190327062 0 0.0022129627406888117 -0.00059020256790285339 0 0.0022560202553530135 -0.00051765845812242622 0 0.0022780172851913213 -0.00052420413017228084 0 0.0022852524716288629 -0.00047662087896637476 0 0.0022379012905538163 -0.00055179429431072291 0 0.0022560202553530135 -0.00051765845812242622 0 0.0022190635320279892 -0.00053275864539382718 0 0.0022379012905538163 -0.00055179429431072291 0 0.0022560202553530135 -0.00051765845812242622 0 0.0022780172851913213 -0.00052420413017228084 0 0.0022780172851913213 -0.00052420413017228084 0 0.0022852524716288629 -0.00047662087896637476 0 0.0023253373426687218 -0.00045298760345780902 0 0.0023551874280673319 -0.00036949763400822812 0 0.0023631837179333144 -0.00046291181881210453 0 0.0023253373426687218 -0.00045298760345780902 0 0.0022560202553530135 -0.00051765845812242622 0 0.0022852524716288629 -0.00047662087896637476 0 0.0022525301915819508 -0.00047219766048232659 0 0.0022852524716288629 -0.00047662087896637476 0 0.0023129653220562109 -0.00041412920854589621 0 0.0022525301915819508 -0.00047219766048232659 0 0.0022852524716288629 -0.00047662087896637476 0 0.0023129653220562109 -0.00041412920854589621 0 0.0023253373426687218 -0.00045298760345780902 0 0.0022729113226839445 -0.00040796330732690244 0 0.0022525301915819508 -0.00047219766048232659 0 0.0021951881707688078 -0.0004692624594534555 0 0.0022114840777316147 -0.00040907245946124538 0 0.0022729113226839445 -0.00040796330732690244 0 0.0021951881707688078 -0.0004692624594534555 0 0.0022729113226839445 -0.00040796330732690244 0 0.0023129653220562109 -0.00041412920854589621 0 0.0022525301915819508 -0.00047219766048232659 0 0.0022525301915819508 -0.00047219766048232659 0 0.0021951881707688078 -0.0004692624594534555 0 0.0021934687218789573 -0.00051523632023063246 0 0.0021595158539059831 -0.00051650228709207967 0 0.0021951881707688078 -0.0004692624594534555 0 0.0021934687218789573 -0.00051523632023063246 0 0.0021595158539059831 -0.00051650228709207967 0 0.0021934687218789573 -0.00051523632023063246 0 0.0021559095446566701 -0.0005463753107570363 0 0.0022560202553530135 -0.00051765845812242622 0 0.0022525301915819508 -0.00047219766048232659 0 0.0022190635320279892 -0.00053275864539382718 0 0.0022525301915819508 -0.00047219766048232659 0 0.0021934687218789573 -0.00051523632023063246 0 0.0022190635320279892 -0.00053275864539382718 0 0.0021934687218789573 -0.00051523632023063246 0 0.0022190635320279892 -0.00053275864539382718 0 0.002173099620547778 -0.00056317367578956974 0 0.0022190635320279892 -0.00053275864539382718 0 0.002173099620547778 -0.00056317367578956974 0 0.0021942768593129864 -0.00057825271190327062 0 0.0021934687218789573 -0.00051523632023063246 0 0.0021559095446566701 -0.0005463753107570363 0 0.002173099620547778 -0.00056317367578956974 0 0.0021559095446566701 -0.0005463753107570363 0 0.002173099620547778 -0.00056317367578956974 0 0.0021268330977717432 -0.00058683277588544478 0 0.002173099620547778 -0.00056317367578956974 0 0.0021268330977717432 -0.00058683277588544478 0 0.0021481761158993686 -0.00061296803229615444 0 0.0021268330977717432 -0.00058683277588544478 0 0.0021123381947270115 -0.00062267054951797201 0 0.0021481761158993686 -0.00061296803229615444 0 0.0021123381947270115 -0.00062267054951797201 0 0.0021067171063327132 -0.00066078427280667469 0 0.0021481761158993686 -0.00061296803229615444 0 0.0020746598162597546 -0.00064476708021329486 0 0.0021123381947270115 -0.00062267054951797201 0 0.0021067171063327132 -0.00066078427280667469 0 0.0021067171063327132 -0.00066078427280667469 0 0.0021507801949730253 -0.0006505968808258589 0 0.0021481761158993686 -0.00061296803229615444 0 0.0021507801949730253 -0.0006505968808258589 0 0.0021787725339002923 -0.00061429837266702223 0 0.0021481761158993686 -0.00061296803229615444 0 0.0021787725339002923 -0.00061429837266702223 0 0.0021481761158993686 -0.00061296803229615444 0 0.0021942768593129864 -0.00057825271190327062 0 0.002173099620547778 -0.00056317367578956974 0 0.0021481761158993686 -0.00061296803229615444 0 0.0021942768593129864 -0.00057825271190327062 0 0.0021787725339002923 -0.00061429837266702223 0 0.0021942768593129864 -0.00057825271190327062 0 0.0022129627406888117 -0.00059020256790285339 0 0.0021787725339002923 -0.00061429837266702223 0 0.0022129627406888117 -0.00059020256790285339 0 0.0022007751607440724 -0.00063072085633113478 0 0.0022129627406888117 -0.00059020256790285339 0 0.0022559700141557616 -0.00057963013759499045 0 0.0022007751607440724 -0.00063072085633113478 0 0.0022007751607440724 -0.00063072085633113478 0 0.0022057868282179659 -0.00065790223892055535 0 0.0022463891214097045 -0.00063075041693237504 0 0.0022559700141557616 -0.00057963013759499045 0 0.0022007751607440724 -0.00063072085633113478 0 0.0022463891214097045 -0.00063075041693237504 0 0.0021507801949730253 -0.0006505968808258589 0 0.0021787725339002923 -0.00061429837266702223 0 0.0022007751607440724 -0.00063072085633113478 0 0.0022007751607440724 -0.00063072085633113478 0 0.0021595328615391573 -0.00068759836314721801 0 0.0022057868282179659 -0.00065790223892055535 0 0.0021507801949730253 -0.0006505968808258589 0 0.0022007751607440724 -0.00063072085633113478 0 0.0021595328615391573 -0.00068759836314721801 0 0.0021595328615391573 -0.00068759836314721801 0 0.0022057868282179659 -0.00065790223892055535 0 0.0022146976237367505 -0.00068524352556302538 0 0.0022057868282179659 -0.00065790223892055535 0 0.0022463891214097045 -0.00063075041693237504 0 0.0022146976237367505 -0.00068524352556302538 0 0.0021595328615391573 -0.00068759836314721801 0 0.0022146976237367505 -0.00068524352556302538 0 0.0021865865950720415 -0.00073726893969126568 0 0.0021595328615391573 -0.00068759836314721801 0 0.0021249488829238718 -0.0007472165661673427 0 0.0021865865950720415 -0.00073726893969126568 0 0.0021595328615391573 -0.00068759836314721801 0 0.0020889429999925912 -0.00073689953156881442 0 0.0021249488829238718 -0.0007472165661673427 0 0.0020889429999925912 -0.00073689953156881442 0 0.0020741741366276201 -0.00071029743749740867 0 0.0021151926661086549 -0.00069026090069650853 0 0.0021595328615391573 -0.00068759836314721801 0 0.0020889429999925912 -0.00073689953156881442 0 0.0021151926661086549 -0.00069026090069650853 0 0.0020235417700555551 -0.00077830971432473828 0 0.0020889429999925912 -0.00073689953156881442 0 0.0020741741366276201 -0.00071029743749740867 0 0.0021067171063327132 -0.00066078427280667469 0 0.0020741741366276201 -0.00071029743749740867 0 0.0021151926661086549 -0.00069026090069650853 0 0.0020578090506931505 -0.00068679052056778165 0 0.0021067171063327132 -0.00066078427280667469 0 0.0020741741366276201 -0.00071029743749740867 0 0.0021067171063327132 -0.00066078427280667469 0 0.0021507801949730253 -0.0006505968808258589 0 0.0021151926661086549 -0.00069026090069650853 0 0.0021507801949730253 -0.0006505968808258589 0 0.0021595328615391573 -0.00068759836314721801 0 0.0021151926661086549 -0.00069026090069650853 0 0.0024892039652830785 -0.0005078646026629687 0 0.0025551951997120586 -0.00040451733770825732 0 0.0026824503665469094 -0.00036869268708755742 0 0.0026842724632859093 -0.00031833758781119644 0 0.002655181579795197 -0.00032592871226702429 0 0.0025015959591371938 -0.00052481838069600708 0 0.0024576070240274902 -0.00046230316774734451 0 0.0024577564441758391 -0.00051662636588916278 0 0.0024111109218930777 -0.00052802584304807232 0 0.0023692979122390788 -0.00051809878887176266 0 0.0024116656221851111 -0.00058095612696221612 0 0.0025551951997120586 -0.00040451733770825732 0 0.0023654981619110971 -0.00060778605549550318 0 0.0022965460276021163 -0.0005549691846169671 0 0.0023243842051284712 -0.00063561307033435904 0 0.0022850816613933273 -0.00061713781069519091 0 0.002334548079924646 -0.00053124372223271811 0 0.0023654981619110971 -0.00060778605549550318 0 0.0023243842051284712 -0.00063561307033435904 0 0.0022850816613933273 -0.00061713781069519091 0 0.0022681973616158159 -0.00065456251986974157 0 0.0022965460276021163 -0.0005549691846169671 0 0.0022850816613933273 -0.00061713781069519091 0 0.0022716689806459257 -0.00059508481869520913 0 0.0022559700141557616 -0.00057963013759499045 0 0.0022716689806459257 -0.00059508481869520913 0 0.0022463891214097045 -0.00063075041693237504 0 0.0022965460276021163 -0.0005549691846169671 0 0.0022559700141557616 -0.00057963013759499045 0 0.0022716689806459257 -0.00059508481869520913 0 0.0022850816613933273 -0.00061713781069519091 0 0.0022463891214097045 -0.00063075041693237504 0 0.0022681973616158159 -0.00065456251986974157 0 0.0022850816613933273 -0.00061713781069519091 0 0.0022716689806459257 -0.00059508481869520913 0 0.0022463891214097045 -0.00063075041693237504 0 0.0022463891214097045 -0.00063075041693237504 0 0.0022146976237367505 -0.00068524352556302538 0 0.0022681973616158159 -0.00065456251986974157 0 0.0022146976237367505 -0.00068524352556302538 0 0.0022630642813571684 -0.00070607273073626628 0 0.0022681973616158159 -0.00065456251986974157 0 0.0022146976237367505 -0.00068524352556302538 0 0.0022630642813571684 -0.00070607273073626628 0 0.0021865865950720415 -0.00073726893969126568 0 0.0023243842051284712 -0.00063561307033435904 0 0.0022630642813571684 -0.00070607273073626628 0 0.0022681973616158159 -0.00065456251986974157 0 0.0023243842051284712 -0.00063561307033435904 0 0.0022630642813571684 -0.00070607273073626628 0 0.0023117015941287226 -0.00078039852297618012 0 0.0023654981619110971 -0.00060778605549550318 0 0.0023013196834436424 -0.00078238731175248001 0 0.0023166729258461962 -0.00065301860912117234 0 0.0023449341414051796 -0.00073510217639774478 0 0.0023117015941287226 -0.00078039852297618012 0 0.0023102489937494048 -0.00062865561019987261 0 0.0023166729258461962 -0.00065301860912117234 0 0.0023117015941287226 -0.00078039852297618012 0 0.0024098441346245224 -0.00078168720683393278 0 0.0023253829467838175 -0.00065150048005090772 0 0.0023449341414051796 -0.00073510217639774478 0 0.0023654981619110971 -0.00060778605549550318 0 0.0023615384383254357 -0.00062415496081934328 0 0.0023102489937494048 -0.00062865561019987261 0 0.0023166729258461962 -0.00065301860912117234 0 0.002325397994785755 -0.00065155597189914673 0 0.0023574511077001561 -0.0006253507222606662 0 0.0023615384383254357 -0.00062415496081934328 0 0.0023750724742575531 -0.00061881386552299405 0 0.0023081142222644009 -0.00063048061586602885 0 0.0023521396371617219 -0.000639877781610062 0 0.0024892039652830785 -0.0005078646026629687 0 0.0023615384383254357 -0.00062415496081934328 0 0.0023166729258461962 -0.00065301860912117234 0 0.0023253829467838175 -0.00065150048005090772 0 0.0023449341414051796 -0.00073510217639774478 0 0.0023695468490306996 -0.00067422692690705317 0 0.0023081142222644009 -0.00063048061586602885 0 0.0023521396371617219 -0.000639877781610062 0 0.0025015959591371938 -0.00052481838069600708 0 0.0024577564441758391 -0.00051662636588916278 0 0.00246698806568408 -0.0005306749353909913 0 0.0023615628276635139 -0.00081178477067943842 0 0.0023117015941287226 -0.00078039852297618012 0 0.0023292212589538538 -0.00086250132473858542 0 0.0023615628276635139 -0.00081178477067943842 0 0.0023449341414051796 -0.00073510217639774478 0 0.0023117015941287226 -0.00078039852297618012 0 0.0023117015941287226 -0.00078039852297618012 0 0.0022317623626736723 -0.00076544632168506403 0 0.0022315121719249219 -0.00082379004264522483 0 0.0022630642813571684 -0.00070607273073626628 0 0.0023117015941287226 -0.00078039852297618012 0 0.0022317623626736723 -0.00076544632168506403 0 0.0022630642813571684 -0.00070607273073626628 0 0.0022317623626736723 -0.00076544632168506403 0 0.0021865865950720415 -0.00073726893969126568 0 0.0022317623626736723 -0.00076544632168506403 0 0.0021865865950720415 -0.00073726893969126568 0 0.0021493015745689074 -0.00078570264694511314 0 0.0022317623626736723 -0.00076544632168506403 0 0.0022315121719249219 -0.00082379004264522483 0 0.0021493015745689074 -0.00078570264694511314 0 0.0022315121719249219 -0.00082379004264522483 0 0.0021221295862916363 -0.00084107561286661905 0 0.0022607017411915491 -0.00093021421027549174 0 0.0022315121719249219 -0.00082379004264522483 0 0.0021493015745689074 -0.00078570264694511314 0 0.0021221295862916363 -0.00084107561286661905 0 0.0022315121719249219 -0.00082379004264522483 0 0.0023292212589538538 -0.00086250132473858542 0 0.0022607017411915491 -0.00093021421027549174 0 0.0023292212589538538 -0.00086250132473858542 0 0.0022607017411915491 -0.00093021421027549174 0 0.002426760374330096 -0.00091975009141555112 0 0.0023117015941287226 -0.00078039852297618012 0 0.0022315121719249219 -0.00082379004264522483 0 0.0023292212589538538 -0.00086250132473858542 0 0.0023940842556371454 -0.00086011378369638028 0 0.0023615628276635139 -0.00081178477067943842 0 0.0023292212589538538 -0.00086250132473858542 0 0.0020235417700555551 -0.00077830971432473828 0 0.0019740305156135617 -0.00085377463277726859 0 0.0020467929376237971 -0.00080548746779686203 0 0.0020235417700555551 -0.00077830971432473828 0 0.0020889429999925912 -0.00073689953156881442 0 0.0020467929376237971 -0.00080548746779686203 0 0.0020889429999925912 -0.00073689953156881442 0 0.0020467929376237971 -0.00080548746779686203 0 0.0021249488829238718 -0.0007472165661673427 0 0.0021249488829238718 -0.0007472165661673427 0 0.0021865865950720415 -0.00073726893969126568 0 0.0021493015745689074 -0.00078570264694511314 0 0.0020467929376237971 -0.00080548746779686203 0 0.0021249488829238718 -0.0007472165661673427 0 0.0021493015745689074 -0.00078570264694511314 0 0.0020467929376237971 -0.00080548746779686203 0 0.0021493015745689074 -0.00078570264694511314 0 0.0021221295862916363 -0.00084107561286661905 0 0.0019248911536991237 -0.00090265020139223455 0 0.0019784911623182792 -0.0009625973033069009 0 0.0020467929376237971 -0.00080548746779686203 0 0.0021221295862916363 -0.00084107561286661905 0 0.0019542731450789665 -0.00090451319572265783 0 0.0021221295862916363 -0.00084107561286661905 0 0.0019542731450789665 -0.00090451319572265783 0 0.0022607017411915491 -0.00093021421027549174 0 0.0019740305156135617 -0.00085377463277726859 0 0.0020467929376237971 -0.00080548746779686203 0 0.0019542731450789665 -0.00090451319572265783 0 0.0019740305156135617 -0.00085377463277726859 0 0.0019542731450789665 -0.00090451319572265783 0 0.0019458266437857061 -0.00085701525822283985 0 0.0019542731450789665 -0.00090451319572265783 0 0.0019458266437857061 -0.00085701525822283985 0 0.0018560074399789016 -0.00081605740540519403 0 0.0019458266437857061 -0.00085701525822283985 0 0.0018560074399789016 -0.00081605740540519403 0 0.0019493490838844542 -0.0007966124025932885 0 0.0019542731450789665 -0.00090451319572265783 0 0.0018560074399789016 -0.00081605740540519403 0 0.001816521918777976 -0.00085869155857193151 0 0.0019542731450789665 -0.00090451319572265783 0 0.001816521918777976 -0.00085869155857193151 0 0.0015879092635192476 -0.00095045708834025865 0 0.0017746342667816621 -0.00080719399714021534 0 0.0017228860526155747 -0.00084506378696095025 0 0.0016943115161061997 -0.00080245243827513542 0 0.001816521918777976 -0.00085869155857193151 0 0.0017746342667816621 -0.00080719399714021534 0 0.0017228860526155747 -0.00084506378696095025 0 0.0018560074399789016 -0.00081605740540519403 0 0.001816521918777976 -0.00085869155857193151 0 0.0017746342667816621 -0.00080719399714021534 0 0.0018560074399789016 -0.00081605740540519403 0 0.0017746342667816621 -0.00080719399714021534 0 0.0017139798521779701 -0.00075375718081432085 0 0.0017746342667816621 -0.00080719399714021534 0 0.0017096144368777932 -0.00077686694584828194 0 0.0017139798521779701 -0.00075375718081432085 0 0.0017746342667816621 -0.00080719399714021534 0 0.0017096144368777932 -0.00077686694584828194 0 0.0016943115161061997 -0.00080245243827513542 0 0.0017096144368777932 -0.00077686694584828194 0 0.0017139798521779701 -0.00075375718081432085 0 0.0016585222665893462 -0.00075698055801440582 0 0.0024073678309891222 -0.00057772108510043029 0 0.00016817489038457363 -0.0010426526648117998 0 0.0018560074399789016 -0.00081605740540519403 0 0.0017988251908361466 -0.00076795764760048376 0 0.001835050064345201 -0.0007840994451855048 0 0.0018560074399789016 -0.00081605740540519403 0 0.0017139798521779701 -0.00075375718081432085 0 0.0017988251908361466 -0.00076795764760048376 0 0.0015168056025675319 -0.00088146028451922733 0 0.0015879092635192476 -0.00095045708834025865 0 0.0013106931029324702 -0.00092250387424080993 0 0.0015135107785677095 -0.00088612418097297116 0 0.0015174561898328154 -0.00068013218565577424 0 0.0013034000833283214 -0.00091002781792125329 0 0.0019784911623182792 -0.0009625973033069009 0 0.0016433936078417391 -0.00074847366488341247 0 0.0015394225023377841 -0.00088057313279895841 0 0.0012112284004369804 -0.00087292519407920549 0 0.001816521918777976 -0.00085869155857193151 0 0.0015879092635192476 -0.00095045708834025865 0 0.0017228860526155747 -0.00084506378696095025 0 0.0015135107785677095 -0.00088612418097297116 0 0.0017228860526155747 -0.00084506378696095025 0 0.0015884122218368926 -0.00078956998961927168 0 0.0015394225023377841 -0.00088057313279895841 0 0.001696177637323224 -0.00085218986593615378 0 0.0015168056025675319 -0.00088146028451922733 0 0.0015879092635192476 -0.00095045708834025865 0 0.0017228860526155747 -0.00084506378696095025 0 0.0017228860526155747 -0.00084506378696095025 0 0.0016943115161061997 -0.00080245243827513542 0 0.0015884122218368926 -0.00078956998961927168 0 0.0016943115161061997 -0.00080245243827513542 0 0.0016585222665893462 -0.00075698055801440582 0 0.0015954852943233643 -0.0007627956391654695 0 0.0016943115161061997 -0.00080245243827513542 0 0.0015884122218368926 -0.00078956998961927168 0 0.0015174561898328154 -0.00068013218565577424 0 0.0017979939017246668 -0.00082939412452377259 0 0.0011451057526675045 -0.00079929985600219345 0 0.0017096144368777932 -0.00077686694584828194 0 0.0016943115161061997 -0.00080245243827513542 0 0.0016585222665893462 -0.00075698055801440582 0 0.0011451057526675045 -0.00079929985600219345 0 0.0012112284004369804 -0.00087292519407920549 0 0.0015135107785677095 -0.00088612418097297116 0 0.0015884122218368926 -0.00078956998961927168 0 0.0015174561898328154 -0.00068013218565577424 0 0.0011451057526675045 -0.00079929985600219345 0 0.0003392631800873429 -0.00089285250556249115 0 0.000694494962462367 -0.0014281174608571198 0 0.00058724896146796727 -0.0010793616655889742 0 0.00022847088011809853 -0.0011225641606313042 0 0.00058724896146796727 -0.0010793616655889742 0 0.0010629970602374103 -0.0010515278394087348 0 0.00072802612860971023 -0.00077571750770645065 0 0.000694494962462367 -0.0014281174608571198 0 0.00058724896146796727 -0.0010793616655889742 0 0.0010629970602374103 -0.0010515278394087348 0 0.00049459156335682067 -0.001057612685041596 0 0.0003392631800873429 -0.00089285250556249115 0 0.0016585222665893462 -0.00075698055801440582 0 0.0015954852943233643 -0.0007627956391654695 0 0.001624191505538499 -0.00070549478319371646 0 0.0011451057526675045 -0.00079929985600219345 0 0.0013225876983777062 -0.00090209595268733072 0 0.0017139798521779701 -0.00075375718081432085 0 0.0016585222665893462 -0.00075698055801440582 0 0.001624191505538499 -0.00070549478319371646 0 0.0010629970602374103 -0.0010515278394087348 0 0.00095411386067539709 -0.000587174054986909 0 0.00072802612860971023 -0.00077571750770645065 0 0.0010629970602374103 -0.0010515278394087348 0 0.0012206341452426707 -0.00055602105599221463 0 0.00095411386067539709 -0.000587174054986909 0 0.00095411386067539709 -0.000587174054986909 0 0.00072802612860971023 -0.00077571750770645065 0 0.00069245895081898286 -0.00045041595425565482 0 0.00072802612860971023 -0.00077571750770645065 0 0.00069245895081898286 -0.00045041595425565482 0 0.0003618243577131775 -0.00072187563411925122 0 0.00058724896146796727 -0.0010793616655889742 0 0.00072802612860971023 -0.00077571750770645065 0 0.0003618243577131775 -0.00072187563411925122 0 0.0017988251908361466 -0.00076795764760048376 0 0.001764976251627384 -0.00071576341132555555 0 0.001835050064345201 -0.0007840994451855048 0 -0.0027363005979128144 -0.0012119169317955697 0 -0.0024689025192899138 -0.0016329160225848635 0 -0.0025578113470171061 -0.0012024235056784583 0 -0.00055575323012836111 -0.00097908055218114674 0 0.00016817489038457363 -0.0010426526648117998 0 0.0017139798521779701 -0.00075375718081432085 0 0.0017988251908361466 -0.00076795764760048376 0 0.001764976251627384 -0.00071576341132555555 0 0.0017139798521779701 -0.00075375718081432085 0 0.001624191505538499 -0.00070549478319371646 0 0.0016391361731936903 -0.00069910246162694116 0 0.0017139798521779701 -0.00075375718081432085 0 0.001764976251627384 -0.00071576341132555555 0 0.0016391361731936903 -0.00069910246162694116 0 -0.00055575323012836111 -0.00097908055218114674 0 -0.00072791859522536545 -0.00069920940056087105 0 0.001764976251627384 -0.00071576341132555555 0 0.0016391361731936903 -0.00069910246162694116 0 0.0015066879693189947 -0.00058632027069252979 0 0.001764976251627384 -0.00071576341132555555 0 0.0015066879693189947 -0.00058632027069252979 0 0.0014155074047990529 -0.00039940720379611763 0 0.0010629970602374103 -0.0010515278394087348 0 0.0012206341452426707 -0.00055602105599221463 0 0.0015066879693189947 -0.00058632027069252979 0 0.0013225876983777062 -0.00090209595268733072 0 0.0015219200774365875 -0.00059872178495493317 0 0.001624191505538499 -0.00070549478319371646 0 0.0016391361731936903 -0.00069910246162694116 0 0.0015066879693189947 -0.00058632027069252979 0 0.0012206341452426707 -0.00055602105599221463 0 0.0015066879693189947 -0.00058632027069252979 0 0.0014155074047990529 -0.00039940720379611763 0 -0.0027363005979128144 -0.0012119169317955697 0 -0.0027442920042646218 -0.0010593599015793463 0 -0.0028864023035331541 -0.00099466738231827781 0 -0.0027363005979128144 -0.0012119169317955697 0 -0.0027442920042646218 -0.0010593599015793463 0 -0.0026597642936868958 -0.0011261805050699935 0 -0.0027363005979128144 -0.0012119169317955697 0 -0.0026597642936868958 -0.0011261805050699935 0 -0.0025578113470171061 -0.0012024235056784583 0 -0.0027442920042646218 -0.0010593599015793463 0 -0.0026597642936868958 -0.0011261805050699935 0 -0.0026631024301357587 -0.0010533360199308978 0 -0.0026597642936868958 -0.0011261805050699935 0 -0.0026631024301357587 -0.0010533360199308978 0 -0.0025922427069536296 -0.0011105624015199794 0 -0.0026631024301357587 -0.0010533360199308978 0 -0.0027079653737992555 -0.0010062100390196387 0 -0.0026208677175939854 -0.00099842305158390709 0 -0.0027079653737992555 -0.0010062100390196387 0 -0.002706350185937934 -0.00093568751031083259 0 -0.0026208677175939854 -0.00099842305158390709 0 -0.0027442920042646218 -0.0010593599015793463 0 -0.0026631024301357587 -0.0010533360199308978 0 -0.0027079653737992555 -0.0010062100390196387 0 -0.0027442920042646218 -0.0010593599015793463 0 -0.0027079653737992555 -0.0010062100390196387 0 -0.0028065843288068528 -0.00097445509624172059 0 -0.0027079653737992555 -0.0010062100390196387 0 -0.002706350185937934 -0.00093568751031083259 0 -0.0028065843288068528 -0.00097445509624172059 0 -0.002706350185937934 -0.00093568751031083259 0 -0.0027680696384291266 -0.00088331450089220841 0 -0.0028065843288068528 -0.00097445509624172059 0 -0.002706350185937934 -0.00093568751031083259 0 -0.002635800135689394 -0.00089602720905926196 0 -0.0026208677175939854 -0.00099842305158390709 0 -0.002706350185937934 -0.00093568751031083259 0 -0.0027212760222458522 -0.00082706750968025342 0 -0.002635800135689394 -0.00089602720905926196 0 -0.002706350185937934 -0.00093568751031083259 0 -0.0027680696384291266 -0.00088331450089220841 0 -0.0027212760222458522 -0.00082706750968025342 0 -0.0027680696384291266 -0.00088331450089220841 0 -0.0028180981832186609 -0.00080870573099159901 0 -0.0028065843288068528 -0.00097445509624172059 0 -0.0027680696384291266 -0.00088331450089220841 0 -0.0028180981832186609 -0.00080870573099159901 0 -0.0027212760222458522 -0.00082706750968025342 0 -0.0028180981832186609 -0.00080870573099159901 0 -0.0027212760222458522 -0.00082706750968025342 0 -0.0027585464624317489 -0.0007017505047050899 0 -0.0028164032389657039 -0.00096080653410671982 0 -0.0029252234194956156 -0.00068960150038162988 0 -0.0029230048837014552 -0.00083375481255313028 0 -0.0028065843288068528 -0.00097445509624172059 0 -0.0029174121111641958 -0.00065433420732382425 0 -0.0028180981832186609 -0.00080870573099159901 0 -0.0028065843288068528 -0.00097445509624172059 0 -0.0029347030266621537 -0.00072067283560883451 0 -0.0029230048837014552 -0.00083375481255313028 0 -0.0028864023035331541 -0.00099466738231827781 0 -0.0030821896215323386 -0.00074165662531906816 0 -0.0029230048837014552 -0.00083375481255313028 0 -0.0030821896215323386 -0.00074165662531906816 0 -0.0029174121111641958 -0.00065433420732382425 0 -0.0029230048837014552 -0.00083375481255313028 0 -0.0028065843288068528 -0.00097445509624172059 0 -0.0028864023035331541 -0.00099466738231827781 0 -0.0027442920042646218 -0.0010593599015793463 0 -0.0028065843288068528 -0.00097445509624172059 0 -0.0028864023035331541 -0.00099466738231827781 0 0.0014155074047990529 -0.00039940720379611763 0 0.00098168217797304407 -0.00033061732348776198 0 0.00088054534081787538 0.00013962048075055061 0 0.0012206341452426707 -0.00055602105599221463 0 0.0014155074047990529 -0.00039940720379611763 0 0.00098168217797304407 -0.00033061732348776198 0 0.0012206341452426707 -0.00055602105599221463 0 0.00095411386067539709 -0.000587174054986909 0 0.00098168217797304407 -0.00033061732348776198 0 0.00095411386067539709 -0.000587174054986909 0 0.00098168217797304407 -0.00033061732348776198 0 0.00069245895081898286 -0.00045041595425565482 0 0.00098168217797304407 -0.00033061732348776198 0 0.00069245895081898286 -0.00045041595425565482 0 0.00066853391974882042 -0.00018262574872982221 0 0.00069245895081898286 -0.00045041595425565482 0 0.00037559588467074773 -0.00028626264705221933 0 0.0003618243577131775 -0.00072187563411925122 0 0.00069245895081898286 -0.00045041595425565482 0 0.00066853391974882042 -0.00018262574872982221 0 0.00037559588467074773 -0.00028626264705221933 0 0.00042575608404964524 -6.8795254958648475e-06 0 0.00088054534081787538 0.00013962048075055061 0 0.00028853062655599383 0.00028251865222843011 0 0.00066853391974882042 -0.00018262574872982221 0 0.00042575608404964524 -6.8795254958648475e-06 0 0.00088054534081787538 0.00013962048075055061 0 0.00066853391974882042 -0.00018262574872982221 0 0.00042575608404964524 -6.8795254958648475e-06 0 0.00037559588467074773 -0.00028626264705221933 0 -0.00072791859522536545 -0.00069920940056087105 0 -0.0010847201879855266 -0.00030811682629625325 0 0.00098168217797304407 -0.00033061732348776198 0 0.00066853391974882042 -0.00018262574872982221 0 0.00088054534081787538 0.00013962048075055061 0 -0.0030821896215323386 -0.00074165662531906816 0 -0.0030781875065818689 -0.00053288297683551811 0 -0.0029174121111641958 -0.00065433420732382425 0 -0.0030821896215323386 -0.00074165662531906816 0 -0.0032495451134948905 -0.00049564647970930286 0 -0.0030781875065818689 -0.00053288297683551811 0 -0.0010847201879855266 -0.00030811682629625325 0 -0.0014783949005563906 8.3269731084961126e-06 0 0.00088054534081787538 0.00013962048075055061 0 0.00044082878955666266 0.00054970656885797284 0 0.00028853062655599383 0.00028251865222843011 0 -0.0032495451134948905 -0.00049564647970930286 0 -0.0031573249140308527 -0.00036055946293742558 0 -0.0032526749675537247 -0.00036766190232664464 0 -0.0030781875065818689 -0.00053288297683551811 0 -0.0029174121111641958 -0.00065433420732382425 0 -0.0030550877395361313 -0.00036943675326175072 0 -0.0032495451134948905 -0.00049564647970930286 0 -0.0030781875065818689 -0.00053288297683551811 0 -0.0031573249140308527 -0.00036055946293742558 0 -0.0030781875065818689 -0.00053288297683551811 0 -0.0030550877395361313 -0.00036943675326175072 0 -0.0031573249140308527 -0.00036055946293742558 0 -0.0028523616207872617 -0.0005330838442396354 0 -0.0029347030266621537 -0.00072067283560883451 0 -0.0030751957312404985 -0.00040398239322937592 0 -0.0029252234194956156 -0.00068960150038162988 0 -0.0030689619846721817 -0.00038756533399547394 0 -0.0028523616207872617 -0.0005330838442396354 0 -0.0029063875440516283 -0.00039418047811597031 0 -0.0030751957312404985 -0.00040398239322937592 0 -0.0027391727381351461 -0.00044067940887521957 0 -0.0028523616207872617 -0.0005330838442396354 0 -0.0029063875440516283 -0.00039418047811597031 0 -0.0027008679813055516 -0.00057584391443510504 0 -0.0028523616207872617 -0.0005330838442396354 0 -0.0027585464624317489 -0.0007017505047050899 0 -0.0027391727381351461 -0.00044067940887521957 0 -0.0027008679813055516 -0.00057584391443510504 0 -0.0028523616207872617 -0.0005330838442396354 0 -0.0027008679813055516 -0.00057584391443510504 0 -0.0027585464624317489 -0.0007017505047050899 0 -0.0026102623341166696 -0.00067865530124687165 0 -0.0027585464624317489 -0.0007017505047050899 0 -0.0026102623341166696 -0.00067865530124687165 0 -0.0026573034620697763 -0.00076045126490035457 0 -0.0027212760222458522 -0.00082706750968025342 0 -0.0027585464624317489 -0.0007017505047050899 0 -0.0026573034620697763 -0.00076045126490035457 0 -0.0028523616207872617 -0.0005330838442396354 0 -0.0027585464624317489 -0.0007017505047050899 0 -0.0029347030266621537 -0.00072067283560883451 0 -0.0028180981832186609 -0.00080870573099159901 0 -0.0027585464624317489 -0.0007017505047050899 0 -0.0029347030266621537 -0.00072067283560883451 0 -0.0003495258122490143 0.00023268860703535508 0 -0.00079324623395244894 0.00026520635639845646 0 -0.00045051195874678022 0.00054283716019926933 0 -0.00073153821686674158 0.00032155394963853521 0 -0.00047486789071314118 0.0005252244757888336 0 -0.0003495258122490143 0.00023268860703535508 0 -0.00079324623395244894 0.00026520635639845646 0 -0.00050098950164479653 -9.6737106206599619e-05 0 -0.0006909622810951034 0.00036269780892934987 0 -0.00045051195874678022 0.00054283716019926933 0 -0.00085365589994391858 0.00063342452291321202 0 -0.00045051195874678022 0.00054283716019926933 0 -8.7947332737936139e-05 0.00043967202158080247 0 -0.00024370565798691396 0.00073360573905378358 0 -2.9203823432615087e-05 0.00066020059790518305 0 -8.7947332737936139e-05 0.00043967202158080247 0 -0.00024370565798691396 0.00073360573905378358 0 0.00044082878955666266 0.00054970656885797284 0 0.00012637023903487081 0.00055198381837795235 0 5.8557475853965385e-05 0.00079666732654616894 0 -2.9203823432615087e-05 0.00066020059790518305 0 0.00012637023903487081 0.00055198381837795235 0 5.8557475853965385e-05 0.00079666732654616894 0 -2.9203823432615087e-05 0.00066020059790518305 0 0.00012637023903487081 0.00055198381837795235 0 -8.7947332737936139e-05 0.00043967202158080247 0 0.00044082878955666266 0.00054970656885797284 0 0.00012637023903487081 0.00055198381837795235 0 0.00028853062655599383 0.00028251865222843011 0 0.00028853062655599383 0.00028251865222843011 0 -8.7947332737936139e-05 0.00043967202158080247 0 7.0469642953557829e-06 -9.4068906937990584e-06 0 0.00012637023903487081 0.00055198381837795235 0 0.00028853062655599383 0.00028251865222843011 0 -8.7947332737936139e-05 0.00043967202158080247 0 -0.0003495258122490143 0.00023268860703535508 0 -8.7947332737936139e-05 0.00043967202158080247 0 7.0469642953557829e-06 -9.4068906937990584e-06 0 -0.0003495258122490143 0.00023268860703535508 0 -0.00045051195874678022 0.00054283716019926933 0 -8.7947332737936139e-05 0.00043967202158080247 0 7.0469642953557829e-06 -9.4068906937990584e-06 0 -0.00022135577535442616 -0.00030846740316969727 0 -0.00050098950164479653 -9.6737106206599619e-05 0 -0.0003495258122490143 0.00023268860703535508 0 7.0469642953557829e-06 -9.4068906937990584e-06 0 -0.00050098950164479653 -9.6737106206599619e-05 0 0.00042575608404964524 -6.8795254958648475e-06 0 0.00028853062655599383 0.00028251865222843011 0 7.0469642953557829e-06 -9.4068906937990584e-06 0 0.00042575608404964524 -6.8795254958648475e-06 0 7.0469642953557829e-06 -9.4068906937990584e-06 0 0.00037559588467074773 -0.00028626264705221933 0 0.00010750425481340816 -0.00043088320588257571 0 0.00037559588467074773 -0.00028626264705221933 0 0.0003618243577131775 -0.00072187563411925122 0 7.0469642953557829e-06 -9.4068906937990584e-06 0 0.00010750425481340816 -0.00043088320588257571 0 0.00037559588467074773 -0.00028626264705221933 0 0.00010750425481340816 -0.00043088320588257571 0 -0.00022135577535442616 -0.00030846740316969727 0 -0.00012779101382980035 -0.00083410878581487678 0 7.0469642953557829e-06 -9.4068906937990584e-06 0 0.00010750425481340816 -0.00043088320588257571 0 -0.00022135577535442616 -0.00030846740316969727 0 -0.00050098950164479653 -9.6737106206599619e-05 0 -0.00082885718953364671 -0.00040890691364399299 0 -0.00045205305268863812 -0.00057858982297934126 0 -0.00022135577535442616 -0.00030846740316969727 0 -0.00050098950164479653 -9.6737106206599619e-05 0 -0.00045205305268863812 -0.00057858982297934126 0 -0.00079324623395244894 0.00026520635639845646 0 -0.00083157691257299731 -7.2719729729376121e-05 0 -0.001133998601034573 -2.1072533251424694e-05 0 -0.00079324623395244894 0.00026520635639845646 0 -0.00050098950164479653 -9.6737106206599619e-05 0 -0.00083157691257299731 -7.2719729729376121e-05 0 -0.00050098950164479653 -9.6737106206599619e-05 0 -0.00083157691257299731 -7.2719729729376121e-05 0 -0.00082885718953364671 -0.00040890691364399299 0 -0.00082885718953364671 -0.00040890691364399299 0 -0.00075248852027074591 -0.00076204792785166005 0 -0.00045205305268863812 -0.00057858982297934126 0 -0.00082885718953364671 -0.00040890691364399299 0 -0.00075248852027074591 -0.00076204792785166005 0 -0.001193969926014928 -0.00069928670504284922 0 -0.00045205305268863812 -0.00057858982297934126 0 -0.00038215908159760977 -0.0010255825666040605 0 -0.00015227058041946572 -0.00076726022713467714 0 -0.00075248852027074591 -0.00076204792785166005 0 -0.00045205305268863812 -0.00057858982297934126 0 -0.00038215908159760977 -0.0010255825666040605 0 -4.3681260877076029e-05 -0.00073182908781673102 0 -0.00055288099642009439 -0.00045371798054307818 0 -0.00075248852027074591 -0.00076204792785166005 0 -0.00038215908159760977 -0.0010255825666040605 0 -0.00091439908391500828 -0.0010910832088262246 0 0.00010750425481340816 -0.00043088320588257571 0 0.0003618243577131775 -0.00072187563411925122 0 -0.00012779101382980035 -0.00083410878581487678 0 0.0003618243577131775 -0.00072187563411925122 0 -0.00012779101382980035 -0.00083410878581487678 0 0.00023653871632597958 -0.0011032832277167025 0 -0.00022135577535442616 -0.00030846740316969727 0 -0.00045205305268863812 -0.00057858982297934126 0 -0.00012779101382980035 -0.00083410878581487678 0 -0.0004163337266119071 -0.00060737706650809307 0 -0.00015228341639648318 -0.00079730010539708356 0 -4.3681260877076029e-05 -0.00073182908781673102 0 0.0003392631800873429 -0.00089285250556249115 0 0.00025790729700949109 -0.00041540527779710583 0 0.00069054020421882405 -0.00036494624530577157 0 0.00038457523885383722 -0.000501859138286737 0 -0.00038215908159760977 -0.0010255825666040605 0 -0.00015227058041946572 -0.00076726022713467714 0 0.00014789694614359092 -0.00096000850809049669 0 0.00058724896146796727 -0.0010793616655889742 0 0.0003618243577131775 -0.00072187563411925122 0 0.00023653871632597958 -0.0011032832277167025 0 -0.00015228341639648318 -0.00079730010539708356 0 0.0003392631800873429 -0.00089285250556249115 0 0.00097544444042794044 -0.00054972010671685417 0 0.00071965326268337505 -0.00062143474686074016 0 0.00066179548030587262 -0.00089235637659953462 0 0.00097544444042794044 -0.00054972010671685417 0 0.00069054020421882405 -0.00036494624530577157 0 0.00071965326268337505 -0.00062143474686074016 0 0.00069054020421882405 -0.00036494624530577157 0 0.00071965326268337505 -0.00062143474686074016 0 0.00054951730045044655 -0.00068050080609220309 0 0.00071965326268337505 -0.00062143474686074016 0 0.00054951730045044655 -0.00068050080609220309 0 0.00059478928800121606 -0.00078535734551144875 0 0.00069054020421882405 -0.00036494624530577157 0 0.00054951730045044655 -0.00068050080609220309 0 0.00038457523885383722 -0.000501859138286737 0 0.00038457523885383722 -0.000501859138286737 0 0.00048371198153740859 -0.00089488602872854841 0 0.00028327214876391318 -0.00070939240210721091 0 0.00054951730045044655 -0.00068050080609220309 0 0.00038457523885383722 -0.000501859138286737 0 0.00049447991713677606 -0.00091205888866836165 0 0.00028815635430002868 -0.00060409801547917086 0 0.00092658464885620687 -0.00065897899023466971 0 0.00040888267884019267 -0.00090365066802056875 0 0.00048371198153740859 -0.00089488602872854841 0 0.00028327214876391318 -0.00070939240210721091 0 0.0012675075620210538 -0.00016342371478257457 0 0.0011330716274494904 -1.8178309461037936e-05 0 0.0012261592358006985 -8.6182965529542389e-06 0 0.0014345305260935358 -0.00072233763011992204 0 0.0014258926827027834 -0.00069334755282598689 0 0.0014565308205906652 -0.00069879876557170362 0 0.0007672267616178947 -0.00049746621178617216 0 0.00092658464885620687 -0.00065897899023466971 0 0.00054951730045044655 -0.00068050080609220309 0 0.00049447991713677606 -0.00091205888866836165 0 0.00059478928800121606 -0.00078535734551144875 0 0.0015168056025675319 -0.00088146028451922733 0 0.0013106931029324702 -0.00092250387424080993 0 0.0013332576076188095 -0.00089840111451588566 0 0.00071965326268337505 -0.00062143474686074016 0 0.00059478928800121606 -0.00078535734551144875 0 0.00066179548030587262 -0.00089235637659953462 0 0.0010319377304647181 -0.00072566903594577399 0 0.0013489258449582938 -0.00078268833254058168 0 0.0014420549056714279 -0.00068129848640875821 0 0.00092658464885620687 -0.00065897899023466971 0 0.0016433936078417391 -0.00074847366488341247 0 0.00049447991713677606 -0.00091205888866836165 0 0.00059478928800121606 -0.00078535734551144875 0 0.00066179548030587262 -0.00089235637659953462 0 0.00092658464885620687 -0.00065897899023466971 0 0.0012112284004369804 -0.00087292519407920549 0 0.0016433936078417391 -0.00074847366488341247 0 0.0012112284004369804 -0.00087292519407920549 0 -0.00016861380378983866 -0.00046619025194259727 0 -1.7392240445391386e-05 -0.00067811937730904341 0 0.00014499173548632941 -0.00057187195597226451 0 -0.00033863651389576087 -3.0137116020717694e-05 0 -0.00015747817732968057 -0.00028311053220579473 0 -0.00025086019597516301 -0.00028861967910730999 0 -0.00055288099642009439 -0.00045371798054307818 0 -7.7266990457521258e-05 -0.00049645301974869053 0 -1.7392240445391386e-05 -0.00067811937730904341 0 0.00014499173548632941 -0.00057187195597226451 0 0.00028327214876391318 -0.00070939240210721091 0 0.00025790729700949109 -0.00041540527779710583 0 -0.00016861380378983866 -0.00046619025194259727 0 0.00014499173548632941 -0.00057187195597226451 0 0.00038457523885383722 -0.000501859138286737 0 0.00014499173548632941 -0.00057187195597226451 0 0.00028327214876391318 -0.00070939240210721091 0 0.00025790729700949109 -0.00041540527779710583 0 0.00038457523885383722 -0.000501859138286737 0 0.00014499173548632941 -0.00057187195597226451 0 0.00075743890129117487 -0.00040062557488806591 0 0.00043243776042222912 -0.00040179173750961114 0 0.00040303459598470113 -0.00043760157728997768 0 0.0007672267616178947 -0.00049746621178617216 0 0.00062377899906525204 -0.00016717194534542616 0 0.00040888267884019267 -0.00090365066802056875 0 0.00028327214876391318 -0.00070939240210721091 0 0.00013315148772146911 -0.00088672819843757208 0 0.0007672267616178947 -0.00049746621178617216 0 0.00022855828119883339 -0.00046932817793234532 0 -1.7392240445391386e-05 -0.00067811937730904341 0 0.00028327214876391318 -0.00070939240210721091 0 0.00013315148772146911 -0.00088672819843757208 0 0.00075743890129117487 -0.00040062557488806591 0 0.00041327888784882777 -0.00037431719021436313 0 0.00043243776042222912 -0.00040179173750961114 0 0.00022382292544041585 -0.00022954928452711206 0 0.00022855828119883339 -0.00046932817793234532 0 0.00041320538111081721 -0.00037406560499161559 0 0.00043243776042222912 -0.00040179173750961114 0 0.00040303459598470113 -0.00043760157728997768 0 0.00022855828119883339 -0.00046932817793234532 0 0.00023689035273334407 -0.00047042385684401098 0 0.00062377899906525204 -0.00016717194534542616 0 0.00067860441422780079 -0.0001369159889375989 0 0.00071356719707181787 3.4842132440524018e-05 0 0.00077246410864832867 -3.69702404337032e-05 0 0.00067496192316019354 -4.8090125704552252e-05 0 0.00034572391515725823 -0.00036909656682080938 0 0.00041320538111081721 -0.00037406560499161559 0 0.00040303459598470113 -0.00043760157728997768 0 0.00022382292544041585 -0.00022954928452711206 0 0.00062377899906525204 -0.00016717194534542616 0 0.00022382292544041585 -0.00022954928452711206 0 -0.00019838692415479739 7.6424629590815434e-05 0 0.0004422793155137344 -0.00012093408355288226 0 0.00071356719707181787 3.4842132440524018e-05 0 0.00067496192316019354 -4.8090125704552252e-05 0 0.0004422793155137344 -0.00012093408355288226 0 0.00071356719707181787 3.4842132440524018e-05 0 0.00018176550684037657 7.8907560092467138e-05 0 -0.00041153230629563181 0.00013084532845029288 0 -0.00028597253352213858 -1.4927356976481862e-05 0 -0.00057355269709342439 1.4807036250745672e-05 0 -0.00015747817732968057 -0.00028311053220579473 0 -0.00025086019597516301 -0.00028861967910730999 0 -4.099245116392877e-05 -0.00053184823520953264 0 -0.0003569154634579579 -4.8644795716921008e-05 0 0.00022382292544041585 -0.00022954928452711206 0 -0.00015747817732968057 -0.00028311053220579473 0 -4.099245116392877e-05 -0.00053184823520953264 0 2.4923714003292639e-05 -0.00053599931297199771 0 -7.7266990457521258e-05 -0.00049645301974869053 0 0.00022855828119883339 -0.00046932817793234532 0 -0.00041153230629563181 0.00013084532845029288 0 -0.00057355269709342439 1.4807036250745672e-05 0 -0.00059898718099016582 0.00015016775380334059 0 -0.00059898718099016582 0.00015016775380334059 0 -0.00053123347423745192 0.00026219264595396448 0 -0.00070323584135985968 0.00023158234257432755 0 -0.00041153230629563181 0.00013084532845029288 0 -0.00059898718099016582 0.00015016775380334059 0 -0.00053123347423745192 0.00026219264595396448 0 -0.00060965527502420476 -2.1454132052633647e-05 0 -0.00074270979613580304 0.00021297340400380671 0 -0.0003569154634579579 -4.8644795716921008e-05 0 -0.00060965527502420476 -2.1454132052633647e-05 0 -0.00033863651389576087 -3.0137116020717694e-05 0 -0.00025086019597516301 -0.00028861967910730999 0 -0.00045909579849226495 -4.5252279491400807e-05 0 -0.00070323584135985968 0.00023158234257432755 0 -0.00071531553552383806 0.00013513421525602012 0 -0.00085266986620357915 0.0001893382904174527 0 -0.00059898718099016582 0.00015016775380334059 0 -0.00070323584135985968 0.00023158234257432755 0 -0.00071531553552383806 0.00013513421525602012 0 -0.00023304568751195766 -9.8434387370652902e-05 0 0.00018176550684037657 7.8907560092467138e-05 0 -0.0003701281743177903 0.00011647465689009902 0 -0.00057355269709342439 1.4807036250745672e-05 0 -0.00071531553552383806 0.00013513421525602012 0 -0.00081757655865129079 6.7232634699722381e-05 0 -0.00019838692415479739 7.6424629590815434e-05 0 -0.00059185632672772266 8.5498035688996856e-05 0 -0.00057355269709342439 1.4807036250745672e-05 0 -0.00059898718099016582 0.00015016775380334059 0 -0.00071531553552383806 0.00013513421525602012 0 -0.00054602193033822491 -0.00013258165371029864 0 -0.00023304568751195766 -9.8434387370652902e-05 0 -0.0003701281743177903 0.00011647465689009902 0 -0.00054602193033822491 -0.00013258165371029864 0 -0.0003701281743177903 0.00011647465689009902 0 -0.00091527173192520214 0.00010434025981795808 0 -0.00059185632672772266 8.5498035688996856e-05 0 -0.00089433222295700807 0.00010598852552313371 0 -0.00081757655865129079 6.7232634699722381e-05 0 -0.00089138493359045825 0.00015013537955876278 0 -0.00091527173192520214 0.00010434025981795808 0 -0.00089138493359045825 0.00015013537955876278 0 -0.00085266986620357915 0.0001893382904174527 0 -0.00092303564724841827 0.00023559073092656256 0 -0.00089138493359045825 0.00015013537955876278 0 -0.00092303564724841827 0.00023559073092656256 0 -0.00095208941337771502 0.00017680672418114046 0 -0.00089138493359045825 0.00015013537955876278 0 -0.00091527173192520214 0.00010434025981795808 0 -0.00095208941337771502 0.00017680672418114046 0 -0.00081757655865129079 6.7232634699722381e-05 0 -0.00089138493359045825 0.00015013537955876278 0 -0.00085266986620357915 0.0001893382904174527 0 -0.00074270979613580304 0.00021297340400380671 0 -0.00084029831285440022 0.00019413447874163739 0 -0.00071531553552383806 0.00013513421525602012 0 -0.00081757655865129079 6.7232634699722381e-05 0 -0.00085266986620357915 0.0001893382904174527 0 -0.00084792895407090861 0.00023704917683639169 0 -0.00092303564724841827 0.00023559073092656256 0 -0.00089038536048591103 0.00029171400533512459 0 -0.00079055434643212567 0.00019364631658109306 0 -0.00085266986620357915 0.0001893382904174527 0 -0.00084792895407090861 0.00023704917683639169 0 -0.00085266986620357915 0.0001893382904174527 0 -0.00084792895407090861 0.00023704917683639169 0 -0.00092303564724841827 0.00023559073092656256 0 -0.00084792895407090861 0.00023704917683639169 0 -0.00089038536048591103 0.00029171400533512459 0 -0.00077718287819445819 0.00028186967683136609 0 -0.00092303564724841827 0.00023559073092656256 0 -0.00095423514041240685 0.00030660740435188962 0 -0.00099803319579220748 0.0002428894753391603 0 -0.0009590120772955033 0.00030535923652163079 0 -0.0010517022282839476 0.00024742808106108894 0 -0.00092303564724841827 0.00023559073092656256 0 -0.00095423514041240685 0.00030660740435188962 0 -0.00089038536048591103 0.00029171400533512459 0 -0.00095423514041240685 0.00030660740435188962 0 -0.00089038536048591103 0.00029171400533512459 0 -0.00095399210354801746 0.00035981999593518864 0 -0.00095423514041240685 0.00030660740435188962 0 -0.0010584194062959276 0.00034980015113477727 0 -0.00095399210354801746 0.00035981999593518864 0 -0.00089309452880478044 0.00035018488755293628 0 -0.00077718287819445819 0.00028186967683136609 0 -0.00086018083075145037 0.00037671809708301953 0 -0.00089038536048591103 0.00029171400533512459 0 -0.00089309452880478044 0.00035018488755293628 0 -0.00077718287819445819 0.00028186967683136609 0 -0.00089038536048591103 0.00029171400533512459 0 -0.00089309452880478044 0.00035018488755293628 0 -0.00095399210354801746 0.00035981999593518864 0 -0.00094456851882954141 -0.00016717613938695836 0 -0.00086922513133152145 -0.00013014857818356896 0 -0.0010209473664831179 8.5374394482295611e-05 0 -0.00094456851882954141 -0.00016717613938695836 0 -0.0010209473664831179 8.5374394482295611e-05 0 -0.0011015769255043981 1.98382773099715e-05 0 -0.00087380905686466057 5.709591785625781e-05 0 -0.0010017993884773116 0.0001906186889328923 0 -0.0010603855762022847 -0.00045132937913739356 0 -0.0011838902781621419 -6.6259564260988971e-05 0 -0.00055288099642009439 -0.00045371798054307818 0 -0.0010603855762022847 -0.00045132937913739356 0 -0.00071521917611385691 -0.0003461039983228093 0 -0.00078527365791235542 -0.00035458175139917809 0 -0.00086922513133152145 -0.00013014857818356896 0 -0.00060965527502420476 -2.1454132052633647e-05 0 -0.00087380905686466057 5.709591785625781e-05 0 -0.00078527365791235542 -0.00035458175139917809 0 -0.00094456851882954141 -0.00016717613938695836 0 -0.00086922513133152145 -0.00013014857818356896 0 -0.00075248852027074591 -0.00076204792785166005 0 -0.00091439908391500828 -0.0010910832088262246 0 -0.001193969926014928 -0.00069928670504284922 0 -0.00055288099642009439 -0.00045371798054307818 0 -0.00060965527502420476 -2.1454132052633647e-05 0 -0.00071059286244775917 0.00020146655204137501 0 -0.00079055434643212567 0.00019364631658109306 0 -0.00077718287819445819 0.00028186967683136609 0 -0.00079055434643212567 0.00019364631658109306 0 -0.00084792895407090861 0.00023704917683639169 0 -0.00077718287819445819 0.00028186967683136609 0 -0.0013328643754795799 0.00023572705427048421 0 -0.0013171559786400574 0.00025971848400205353 0 -0.0013872848364766871 0.00024687954585940816 0 -0.0013328643754795799 0.00023572705427048421 0 -0.0013486538889723081 0.00022121495642928507 0 -0.0013872848364766871 0.00024687954585940816 0 -0.0013328643754795799 0.00023572705427048421 0 -0.0012930128308745415 0.00022871382959438368 0 -0.0013171559786400574 0.00025971848400205353 0 -0.0013328643754795799 0.00023572705427048421 0 -0.0013220788559333528 0.00021881180459658059 0 -0.0013486538889723081 0.00022121495642928507 0 -0.0013328643754795799 0.00023572705427048421 0 -0.0013220788559333528 0.00021881180459658059 0 -0.0012930128308745415 0.00022871382959438368 0 -0.0013220788559333528 0.00021881180459658059 0 -0.0013486538889723081 0.00022121495642928507 0 -0.0013330520673681232 0.00021222702896427214 0 -0.0013486538889723081 0.00022121495642928507 0 -0.0013485112090161899 0.00020518802797330881 0 -0.0013814706695082619 0.00021673402094229364 0 -0.0013822651026935734 0.00019792654725993826 0 -0.0013589905868448768 0.00021854050935410133 0 -0.0013437092125591057 0.00021281084174128983 0 -0.0013822651026935734 0.00019792654725993826 0 -0.0013485112090161899 0.00020518802797330881 0 -0.0013814706695082619 0.00021673402094229364 0 -0.0013855136089715714 0.00018842459390265988 0 -0.001290535299466204 0.00021759732473595775 0 -0.0013822651026935734 0.00019792654725993826 0 -0.0013249916699584971 0.00019446812287210379 0 -0.0013485112090161899 0.00020518802797330881 0 -0.0013249916699584971 0.00019446812287210379 0 -0.0013485112090161899 0.00020518802797330881 0 -0.0013239427753424788 0.00020473494710058647 0 -0.0013486538889723081 0.00022121495642928507 0 -0.0013485112090161899 0.00020518802797330881 0 -0.0013330520673681232 0.00021222702896427214 0 -0.0013485112090161899 0.00020518802797330881 0 -0.0013330520673681232 0.00021222702896427214 0 -0.0013239427753424788 0.00020473494710058647 0 -0.0013220788559333528 0.00021881180459658059 0 -0.0013330520673681232 0.00021222702896427214 0 -0.0013239427753424788 0.00020473494710058647 0 -0.0013249916699584971 0.00019446812287210379 0 -0.0013239427753424788 0.00020473494710058647 0 -0.0012985562419703593 0.00021156974317789167 0 -0.0012149166391288123 9.3192645591062107e-05 0 -0.0011543053246533216 8.9206074400560229e-05 0 -0.0011444578608468088 0.00012308328986051318 0 -0.0012149166391288123 9.3192645591062107e-05 0 -0.0011444578608468088 0.00012308328986051318 0 -0.0010939137409475528 0.00017654135455445128 0 -0.0012149166391288123 9.3192645591062107e-05 0 -0.0011566739362508115 6.0553773751979393e-05 0 -0.0011543053246533216 8.9206074400560229e-05 0 -0.001290535299466204 0.00021759732473595775 0 -0.00071057551526575483 0.00056530132242908521 0 -0.001056645033786271 2.3656861393578183e-06 0 -0.0011566739362508115 6.0553773751979393e-05 0 -0.0011543053246533216 8.9206074400560229e-05 0 -0.0011327644122173519 0.0001012306794559252 0 -0.0011046496592462889 0.00011340487385123333 0 -0.0011037425835299722 6.9303589250882839e-05 0 -0.0011327644122173519 0.0001012306794559252 0 -0.0011543053246533216 8.9206074400560229e-05 0 -0.0011037425835299722 6.9303589250882839e-05 0 -0.0011327644122173519 0.0001012306794559252 0 -0.0011543053246533216 8.9206074400560229e-05 0 -0.0011444578608468088 0.00012308328986051318 0 -0.0011444578608468088 0.00012308328986051318 0 -0.0011021726152497296 0.00013408767480544302 0 -0.0011046496592462889 0.00011340487385123333 0 -0.0011327644122173519 0.0001012306794559252 0 -0.0011444578608468088 0.00012308328986051318 0 -0.0011046496592462889 0.00011340487385123333 0 -0.0013249916699584971 0.00019446812287210379 0 -0.0012985562419703593 0.00021156974317789167 0 -0.0012281354179220253 0.00020981073994400881 0 -0.0012985562419703593 0.00021156974317789167 0 -0.0012930128308745415 0.00022871382959438368 0 -0.0012281354179220253 0.00020981073994400881 0 -0.001290535299466204 0.00021759732473595775 0 -0.0011602507059476717 0.0001848874551022957 0 -0.0011444578608468088 0.00012308328986051318 0 -0.0010939137409475528 0.00017654135455445128 0 -0.0011021726152497296 0.00013408767480544302 0 -0.0013220788559333528 0.00021881180459658059 0 -0.0013239427753424788 0.00020473494710058647 0 -0.0012985562419703593 0.00021156974317789167 0 -0.0013220788559333528 0.00021881180459658059 0 -0.0012985562419703593 0.00021156974317789167 0 -0.0012930128308745415 0.00022871382959438368 0 -0.0012930128308745415 0.00022871382959438368 0 -0.001259545114975838 0.00024987302945744019 0 -0.0013171559786400574 0.00025971848400205353 0 -0.0012930128308745415 0.00022871382959438368 0 -0.0012281354179220253 0.00020981073994400881 0 -0.001259545114975838 0.00024987302945744019 0 -0.0011602507059476717 0.0001848874551022957 0 -0.0010517022282839476 0.00024742808106108894 0 -0.0010939137409475528 0.00017654135455445128 0 -0.0010177165123819232 0.00017553905779029753 0 -0.00099803319579220748 0.0002428894753391603 0 -0.0010488078105578141 0.00014219006751737249 0 -0.0010939137409475528 0.00017654135455445128 0 -0.0010177165123819232 0.00017553905779029753 0 -0.0010488078105578141 0.00014219006751737249 0 -0.0010939137409475528 0.00017654135455445128 0 -0.0010673966186532211 0.00012329269062276657 0 -0.0010939137409475528 0.00017654135455445128 0 -0.0011021726152497296 0.00013408767480544302 0 -0.0010673966186532211 0.00012329269062276657 0 -0.0011021726152497296 0.00013408767480544302 0 -0.0011046496592462889 0.00011340487385123333 0 -0.0010673966186532211 0.00012329269062276657 0 -0.0011046496592462889 0.00011340487385123333 0 -0.0010673966186532211 0.00012329269062276657 0 -0.0010511010107530738 7.2585305306193261e-05 0 -0.0011046496592462889 0.00011340487385123333 0 -0.0011037425835299722 6.9303589250882839e-05 0 -0.0010511010107530738 7.2585305306193261e-05 0 -0.00054616181013198122 0.00059257664674823194 0 -0.00071057551526575483 0.00056530132242908521 0 -0.001056645033786271 2.3656861393578183e-06 0 -0.0011037425835299722 6.9303589250882839e-05 0 -0.0010511010107530738 7.2585305306193261e-05 0 -0.001056645033786271 2.3656861393578183e-06 0 -0.0011543053246533216 8.9206074400560229e-05 0 -0.0011037425835299722 6.9303589250882839e-05 0 -0.001056645033786271 2.3656861393578183e-06 0 -0.0010511010107530738 7.2585305306193261e-05 0 -0.00096864126994337702 8.2681840791548204e-05 0 -0.00096353516919304668 0.00016123803942218762 0 -0.00093496668752002146 0.0001773433512899537 0 -0.0010673966186532211 0.00012329269062276657 0 -0.0010596845852254527 0.00010388138296961201 0 -0.0010563100425446579 8.5344443482763765e-05 0 -0.0010673966186532211 0.00012329269062276657 0 -0.0010511010107530738 7.2585305306193261e-05 0 -0.00096864126994337702 8.2681840791548204e-05 0 -0.0010248781000481771 0.00014171388337240804 0 -0.00093496668752002146 0.0001773433512899537 0 -0.0010488078105578141 0.00014219006751737249 0 -0.0010673966186532211 0.00012329269062276657 0 -0.0010596845852254527 0.00010388138296961201 0 -0.0010488078105578141 0.00014219006751737249 0 -0.0010596845852254527 0.00010388138296961201 0 -0.0010100247791867442 0.00013553544208276498 0 -0.0010100247791867442 0.00013553544208276498 0 -0.0010616007995825788 6.8522595778663429e-05 0 -0.00091527173192520214 0.00010434025981795808 0 -0.00085155025987609576 -0.00018284632609009952 0 -0.0010616007995825788 6.8522595778663429e-05 0 -0.00091527173192520214 0.00010434025981795808 0 -0.0010596845852254527 0.00010388138296961201 0 -0.0010100247791867442 0.00013553544208276498 0 -0.0010616007995825788 6.8522595778663429e-05 0 -0.0010100247791867442 0.00013553544208276498 0 -0.00091527173192520214 0.00010434025981795808 0 -0.00095208941337771502 0.00017680672418114046 0 -0.0010100247791867442 0.00013553544208276498 0 -0.0010177165123819232 0.00017553905779029753 0 -0.00095208941337771502 0.00017680672418114046 0 -0.0010488078105578141 0.00014219006751737249 0 -0.0010100247791867442 0.00013553544208276498 0 -0.0010177165123819232 0.00017553905779029753 0 -0.0010177165123819232 0.00017553905779029753 0 -0.00095208941337771502 0.00017680672418114046 0 -0.00099803319579220748 0.0002428894753391603 0 -0.00092303564724841827 0.00023559073092656256 0 -0.00095208941337771502 0.00017680672418114046 0 -0.00099803319579220748 0.0002428894753391603 0 -0.0011122520506411651 0.00024136209566471507 0 -0.0011419249077464187 0.00031310873183467016 0 -0.0010584194062959276 0.00034980015113477727 0 -0.0011419249077464187 0.00031310873183467016 0 -0.0010584194062959276 0.00034980015113477727 0 -0.0011239930910072534 0.00040106472693805648 0 -0.00095423514041240685 0.00030660740435188962 0 -0.0011122520506411651 0.00024136209566471507 0 -0.0010584194062959276 0.00034980015113477727 0 -0.0011419249077464187 0.00031310873183467016 0 -0.0012129320353488882 0.00034598432799270616 0 -0.0011239930910072534 0.00040106472693805648 0 -0.0011419249077464187 0.00031310873183467016 0 -0.0012129320353488882 0.00034598432799270616 0 -0.0012032423582717406 0.00026859375871851637 0 -0.0012281354179220253 0.00020981073994400881 0 -0.0012032423582717406 0.00026859375871851637 0 -0.001259545114975838 0.00024987302945744019 0 -0.0012281354179220253 0.00020981073994400881 0 -0.0011122520506411651 0.00024136209566471507 0 -0.0012032423582717406 0.00026859375871851637 0 -0.0011122520506411651 0.00024136209566471507 0 -0.0011419249077464187 0.00031310873183467016 0 -0.0012032423582717406 0.00026859375871851637 0 -0.001259545114975838 0.00024987302945744019 0 -0.001270078590576628 0.00029753717895849023 0 -0.0013171559786400574 0.00025971848400205353 0 -0.0012032423582717406 0.00026859375871851637 0 -0.001259545114975838 0.00024987302945744019 0 -0.001270078590576628 0.00029753717895849023 0 -0.0012129320353488882 0.00034598432799270616 0 -0.0012032423582717406 0.00026859375871851637 0 -0.001270078590576628 0.00029753717895849023 0 -0.0012129320353488882 0.00034598432799270616 0 -0.001270078590576628 0.00029753717895849023 0 -0.0012906275328737177 0.00038773104777688368 0 -0.0013950793789981209 0.00028645586891767465 0 -0.0013255370971538304 0.00035851231680266246 0 -0.0014545620736115706 0.0003345566385338121 0 -0.0013679136534519428 0.00029692396789793193 0 -0.0013068697531180636 0.00037617650024400603 0 -0.001270078590576628 0.00029753717895849023 0 -0.0013423121522471609 0.00030461125654395154 0 -0.0012906275328737177 0.00038773104777688368 0 -0.001270078590576628 0.00029753717895849023 0 -0.0013423121522471609 0.00030461125654395154 0 -0.0013171559786400574 0.00025971848400205353 0 -0.0013423121522471609 0.00030461125654395154 0 -0.0013171559786400574 0.00025971848400205353 0 -0.0013872848364766871 0.00024687954585940816 0 -0.0013511693019850398 0.00048101227569055324 0 -0.0013255370971538304 0.00035851231680266246 0 -0.0014517857131769194 0.00042337290794688156 0 -0.0012906275328737177 0.00038773104777688368 0 -0.0012420447961400407 0.00047237148420751536 0 -0.0012004766330802844 0.00041828616108916097 0 -0.0013068697531180636 0.00037617650024400603 0 -0.0012474487875373157 0.00046678068194422974 0 -0.0012129320353488882 0.00034598432799270616 0 -0.0012906275328737177 0.00038773104777688368 0 -0.0012004766330802844 0.00041828616108916097 0 -0.0013511693019850398 0.00048101227569055324 0 -0.0013255370971538304 0.00035851231680266246 0 -0.0012420447961400407 0.00047237148420751536 0 -0.0012420447961400407 0.00047237148420751536 0 -0.0012004766330802844 0.00041828616108916097 0 -0.0011153415152165204 0.00049064836873898834 0 -0.0012420447961400407 0.00047237148420751536 0 -0.0011153415152165204 0.00049064836873898834 0 -0.0011626161315705047 0.00053840358245617077 0 -0.0012004766330802844 0.00041828616108916097 0 -0.0011239930910072534 0.00040106472693805648 0 -0.0011153415152165204 0.00049064836873898834 0 -0.0012129320353488882 0.00034598432799270616 0 -0.0012004766330802844 0.00041828616108916097 0 -0.0011239930910072534 0.00040106472693805648 0 -0.0010584194062959276 0.00034980015113477727 0 -0.0011239930910072534 0.00040106472693805648 0 -0.0010076402896601726 0.00040709180710654446 0 -0.0011239930910072534 0.00040106472693805648 0 -0.0010590238348194315 0.00045082195134810794 0 -0.0010076402896601726 0.00040709180710654446 0 -0.0011239930910072534 0.00040106472693805648 0 -0.0011153415152165204 0.00049064836873898834 0 -0.0010590238348194315 0.00045082195134810794 0 -0.0011153415152165204 0.00049064836873898834 0 -0.0010590238348194315 0.00045082195134810794 0 -0.00099546365789424367 0.00049522030439876129 0 -0.0011153415152165204 0.00049064836873898834 0 -0.001109281289829178 0.00058443628978821114 0 -0.0011626161315705047 0.00053840358245617077 0 -0.0011153415152165204 0.00049064836873898834 0 -0.001109281289829178 0.00058443628978821114 0 -0.00099546365789424367 0.00049522030439876129 0 -0.0016183437548500407 0.00049401155810181957 0 -0.0014191837167165302 0.00051473678565448105 0 -0.0015829755280469869 0.00074229256450386312 0 -0.0016183437548500407 0.00049401155810181957 0 -0.0018337559792179401 0.00074878430761247299 0 -0.0015829755280469869 0.00074229256450386312 0 -0.0013617805475418094 0.00053905038601109972 0 -0.0015194949101072625 0.00071560864202961086 0 -0.001109281289829178 0.00058443628978821114 0 -0.0012014708738711246 0.00059309773667244809 0 -0.0012022601179391085 0.00068205263901930681 0 -0.0012420447961400407 0.00047237148420751536 0 -0.0012014708738711246 0.00059309773667244809 0 -0.0011626161315705047 0.00053840358245617077 0 -0.001109281289829178 0.00058443628978821114 0 -0.0012014708738711246 0.00059309773667244809 0 -0.0011626161315705047 0.00053840358245617077 0 -0.0013511693019850398 0.00048101227569055324 0 -0.0012420447961400407 0.00047237148420751536 0 -0.0012973952002640987 0.00058344940196215236 0 -0.0012420447961400407 0.00047237148420751536 0 -0.0012014708738711246 0.00059309773667244809 0 -0.0012973952002640987 0.00058344940196215236 0 -0.0012014708738711246 0.00059309773667244809 0 -0.0012973952002640987 0.00058344940196215236 0 -0.0012022601179391085 0.00068205263901930681 0 -0.0012973952002640987 0.00058344940196215236 0 -0.0013285737026931127 0.00068885082881678069 0 -0.0014341066161261808 0.00056674593336660699 0 -0.0013511693019850398 0.00048101227569055324 0 -0.0012973952002640987 0.00058344940196215236 0 -0.0014341066161261808 0.00056674593336660699 0 -0.0011103464343453645 0.00021210942078794297 0 -0.00091658919506868537 0.00019194266027886236 0 -0.0011327286835467654 1.793011240241202e-05 0 -0.0010484346624103137 6.7868011509431166e-05 0 -0.0011838902781621419 -6.6259564260988971e-05 0 -0.0011103464343453645 0.00021210942078794297 0 -0.00091658919506868537 0.00019194266027886236 0 -0.0010599990196783248 0.00043769255268604563 0 -0.00073153821686674158 0.00032155394963853521 0 -0.0010484346624103137 6.7868011509431166e-05 0 -0.00083157691257299731 -7.2719729729376121e-05 0 -0.001133998601034573 -2.1072533251424694e-05 0 -0.0011440054306311081 -0.00032482978872079284 0 -0.00082885718953364671 -0.00040890691364399299 0 -0.001193969926014928 -0.00069928670504284922 0 -0.0011440054306311081 -0.00032482978872079284 0 -0.00083157691257299731 -7.2719729729376121e-05 0 -0.00082885718953364671 -0.00040890691364399299 0 -0.0011440054306311081 -0.00032482978872079284 0 -0.001133998601034573 -2.1072533251424694e-05 0 -0.0011440054306311081 -0.00032482978872079284 0 -0.0014713079796339664 -0.00030069328351248361 0 -0.001193969926014928 -0.00069928670504284922 0 -0.0011440054306311081 -0.00032482978872079284 0 -0.0014713079796339664 -0.00030069328351248361 0 -0.0010017993884773116 0.0001906186889328923 0 -0.0012010544194298355 0.00036613371748148214 0 -0.0011885361386670317 -1.0882249985026144e-05 0 -0.0014016123996234259 0.00024041820570283397 0 -0.0012370750137455436 0.00014445323154059955 0 -0.0011838902781621419 -6.6259564260988971e-05 0 -0.0010017993884773116 0.0001906186889328923 0 -0.00087416523342132924 0.0003253775197430527 0 -0.0010017993884773116 0.0001906186889328923 0 -0.00089309452880478044 0.00035018488755293628 0 -0.00085984481261998076 0.00037961730306636032 0 -0.00095399210354801746 0.00035981999593518864 0 -0.0011001989436170672 6.1174368874140482e-05 0 -0.0011885361386670317 -1.0882249985026144e-05 0 -0.0012370750137455436 0.00014445323154059955 0 -0.00085984481261998076 0.00037961730306636032 0 -0.0010076402896601726 0.00040709180710654446 0 -0.00099546365789424367 0.00049522030439876129 0 -0.00085984481261998076 0.00037961730306636032 0 -0.00095399210354801746 0.00035981999593518864 0 -0.0010076402896601726 0.00040709180710654446 0 -0.0010584194062959276 0.00034980015113477727 0 -0.00095399210354801746 0.00035981999593518864 0 -0.0010076402896601726 0.00040709180710654446 0 -0.0010590238348194315 0.00045082195134810794 0 -0.0010076402896601726 0.00040709180710654446 0 -0.00099546365789424367 0.00049522030439876129 0 -0.0011103464343453645 0.00021210942078794297 0 -0.0011327286835467654 1.793011240241202e-05 0 -0.0012982323908318841 0.00026138188833501171 0 -0.0011838902781621419 -6.6259564260988971e-05 0 -0.0012751229441547978 0.00028867688490149482 0 -0.0011001989436170672 6.1174368874140482e-05 0 -0.0012370750137455436 0.00014445323154059955 0 -0.0012582765337040003 0.00028726050977450761 0 -0.0014016123996234259 0.00024041820570283397 0 -0.0012370750137455436 0.00014445323154059955 0 -0.0012582765337040003 0.00028726050977450761 0 -0.0011103464343453645 0.00021210942078794297 0 -0.0012982323908318841 0.00026138188833501171 0 -0.0011817024121294772 0.00034345702359901725 0 -0.0012982323908318841 0.00026138188833501171 0 -0.0012585156149802735 0.00046215850282955648 0 -0.001457329780994438 0.00050559926110670627 0 -0.0012982323908318841 0.00026138188833501171 0 -0.0011817024121294772 0.00034345702359901725 0 -0.0012585156149802735 0.00046215850282955648 0 -0.0016183437548500407 0.00049401155810181957 0 -0.0014016123996234259 0.00024041820570283397 0 -0.0014191837167165302 0.00051473678565448105 0 -0.0012751229441547978 0.00028867688490149482 0 -0.001436926420979912 0.00050651620195921361 0 -0.0014016123996234259 0.00024041820570283397 0 -0.0012582765337040003 0.00028726050977450761 0 -0.0014191837167165302 0.00051473678565448105 0 -0.0013617805475418094 0.00053905038601109972 0 -0.0012010544194298355 0.00036613371748148214 0 -0.001457329780994438 0.00050559926110670627 0 -0.0013321061995163858 0.00062807064739660323 0 -0.0016089505725114157 0.00074195459164620237 0 -0.001436926420979912 0.00050651620195921361 0 -0.0015978484667787318 0.00074453359586199128 0 -0.0012585156149802735 0.00046215850282955648 0 -0.0013321061995163858 0.00062807064739660323 0 -0.0011384920609145018 0.00058796569093583196 0 -0.0012585156149802735 0.00046215850282955648 0 -0.001457329780994438 0.00050559926110670627 0 -0.0013321061995163858 0.00062807064739660323 0 -0.0013321061995163858 0.00062807064739660323 0 -0.0011384920609145018 0.00058796569093583196 0 -0.0011202156333203609 0.0007592876937917442 0 -0.0011384920609145018 0.00058796569093583196 0 -0.00085365589994391858 0.00063342452291321202 0 -0.0011202156333203609 0.0007592876937917442 0 -0.0011384920609145018 0.00058796569093583196 0 -0.0010599990196783248 0.00043769255268604563 0 -0.00085365589994391858 0.00063342452291321202 0 -0.0012585156149802735 0.00046215850282955648 0 -0.0011384920609145018 0.00058796569093583196 0 -0.0010599990196783248 0.00043769255268604563 0 -0.0011817024121294772 0.00034345702359901725 0 -0.0012585156149802735 0.00046215850282955648 0 -0.0010599990196783248 0.00043769255268604563 0 -0.0011103464343453645 0.00021210942078794297 0 -0.0011817024121294772 0.00034345702359901725 0 -0.0010599990196783248 0.00043769255268604563 0 -0.0006909622810951034 0.00036269780892934987 0 -0.00088097245243824404 0.00040565349719032511 0 -0.00085365589994391858 0.00063342452291321202 0 -0.00091658919506868537 0.00019194266027886236 0 -0.0010599990196783248 0.00043769255268604563 0 -0.00088097245243824404 0.00040565349719032511 0 -0.0006909622810951034 0.00036269780892934987 0 -0.00091658919506868537 0.00019194266027886236 0 -0.00088097245243824404 0.00040565349719032511 0 -0.0010599990196783248 0.00043769255268604563 0 -0.00088097245243824404 0.00040565349719032511 0 -0.00085365589994391858 0.00063342452291321202 0 -0.00085365589994391858 0.00063342452291321202 0 -0.00092185091535208188 0.00092406009551023155 0 -0.0011202156333203609 0.0007592876937917442 0 -0.00092185091535208188 0.00092406009551023155 0 -0.0011121209105766001 0.0010315758849724159 0 -0.0012356330710265072 0.00090137277267970787 0 -0.00092185091535208188 0.00092406009551023155 0 -0.0011121209105766001 0.0010315758849724159 0 -0.00093003101511086406 0.0011271512109108839 0 -0.00092185091535208188 0.00092406009551023155 0 -0.0011202156333203609 0.0007592876937917442 0 -0.0012356330710265072 0.00090137277267970787 0 -0.0011202156333203609 0.0007592876937917442 0 -0.001362519397283736 0.00079400512104736405 0 -0.0012356330710265072 0.00090137277267970787 0 -0.0013321061995163858 0.00062807064739660323 0 -0.0011202156333203609 0.0007592876937917442 0 -0.001362519397283736 0.00079400512104736405 0 -0.0013321061995163858 0.00062807064739660323 0 -0.001362519397283736 0.00079400512104736405 0 -0.0016089505725114157 0.00074195459164620237 0 -0.001362519397283736 0.00079400512104736405 0 -0.0014451023445095999 0.00090787175544231502 0 -0.0016089505725114157 0.00074195459164620237 0 -0.0014451023445095999 0.00090787175544231502 0 -0.0016089505725114157 0.00074195459164620237 0 -0.0015737825250006136 0.00092843524352694917 0 -0.0014451023445095999 0.00090787175544231502 0 -0.0014350773184923639 0.0010384720524593914 0 -0.0012996855648614047 0.0010461277525697454 0 -0.0014350773184923639 0.0010384720524593914 0 -0.0015737825250006136 0.00092843524352694917 0 -0.0015643604363088073 0.0010774204530919669 0 -0.0014451023445095999 0.00090787175544231502 0 -0.0014350773184923639 0.0010384720524593914 0 -0.0015737825250006136 0.00092843524352694917 0 -0.0014451023445095999 0.00090787175544231502 0 -0.0012356330710265072 0.00090137277267970787 0 -0.0012996855648614047 0.0010461277525697454 0 -0.001362519397283736 0.00079400512104736405 0 -0.0014451023445095999 0.00090787175544231502 0 -0.0012356330710265072 0.00090137277267970787 0 -0.0011121209105766001 0.0010315758849724159 0 -0.0012356330710265072 0.00090137277267970787 0 -0.0012996855648614047 0.0010461277525697454 0 -0.0012996855648614047 0.0010461277525697454 0 -0.0013130584743143278 0.0011636417142422343 0 -0.0011825421088464242 0.001150892733165912 0 -0.0011121209105766001 0.0010315758849724159 0 -0.0012996855648614047 0.0010461277525697454 0 -0.0011825421088464242 0.001150892733165912 0 -0.0012996855648614047 0.0010461277525697454 0 -0.0013130584743143278 0.0011636417142422343 0 -0.0013653262255746454 0.0011060760970533002 0 -0.0013130584743143278 0.0011636417142422343 0 -0.0014132171746025616 0.0011757099528829267 0 -0.0013307287819615691 0.0012239304635956274 0 -0.0013130584743143278 0.0011636417142422343 0 -0.0013653262255746454 0.0011060760970533002 0 -0.0014132171746025616 0.0011757099528829267 0 -0.0013130584743143278 0.0011636417142422343 0 -0.0012551358329764056 0.0012354045601423447 0 -0.0013307287819615691 0.0012239304635956274 0 -0.0013130584743143278 0.0011636417142422343 0 -0.0011825421088464242 0.001150892733165912 0 -0.0012551358329764056 0.0012354045601423447 0 -0.0014132171746025616 0.0011757099528829267 0 -0.0015402799510088852 0.0012743347905976986 0 -0.0015643604363088073 0.0010774204530919669 0 -0.0014350773184923639 0.0010384720524593914 0 -0.0014132171746025616 0.0011757099528829267 0 -0.0015643604363088073 0.0010774204530919669 0 -0.0014350773184923639 0.0010384720524593914 0 -0.0012996855648614047 0.0010461277525697454 0 -0.0013653262255746454 0.0011060760970533002 0 -0.0014350773184923639 0.0010384720524593914 0 -0.0013653262255746454 0.0011060760970533002 0 -0.0014132171746025616 0.0011757099528829267 0 -0.0014132171746025616 0.0011757099528829267 0 -0.0015402799510088852 0.0012743347905976986 0 -0.0013408437199593786 0.0013207393593193941 0 -0.0015402799510088852 0.0012743347905976986 0 -0.0013408437199593786 0.0013207393593193941 0 -0.0014223521839267438 0.0014489665367270117 0 -0.0015402799510088852 0.0012743347905976986 0 -0.0016554505523339554 0.0014099815561786056 0 -0.0014223521839267438 0.0014489665367270117 0 -0.0013408437199593786 0.0013207393593193941 0 -0.0011784851672144582 0.0012932758683928743 0 -0.0014223521839267438 0.0014489665367270117 0 -0.0018007600556462753 0.0010818876934852444 0 -0.0020457678362018877 0.001199652526035163 0 -0.0011825421088464242 0.001150892733165912 0 -0.0012551358329764056 0.0012354045601423447 0 -0.0011784851672144582 0.0012932758683928743 0 -0.0012551358329764056 0.0012354045601423447 0 -0.0013408437199593786 0.0013207393593193941 0 -0.0011784851672144582 0.0012932758683928743 0 -0.0014132171746025616 0.0011757099528829267 0 -0.0013307287819615691 0.0012239304635956274 0 -0.0013408437199593786 0.0013207393593193941 0 -0.0012551358329764056 0.0012354045601423447 0 -0.0013307287819615691 0.0012239304635956274 0 -0.0013408437199593786 0.0013207393593193941 0 -0.0011284561521035061 0.0012768561368034974 0 -0.00093399749706005891 0.0012930290398065741 0 -0.00094878072986272265 0.0014584177414433811 0 -0.0011284561521035061 0.0012768561368034974 0 -0.00093399749706005891 0.0012930290398065741 0 -0.00093003101511086406 0.0011271512109108839 0 -0.00093399749706005891 0.0012930290398065741 0 -0.00094878072986272265 0.0014584177414433811 0 -0.00076019882562605517 0.0013465986110202674 0 -0.00092185091535208188 0.00092406009551023155 0 -0.00093003101511086406 0.0011271512109108839 0 -0.00074212127791153254 0.0011827312888204773 0 -0.00093399749706005891 0.0012930290398065741 0 -0.00093003101511086406 0.0011271512109108839 0 -0.00074212127791153254 0.0011827312888204773 0 -0.0018007600556462753 0.0010818876934852444 0 -0.00074487971542161848 0.0011271377830666502 0 -0.0011825421088464242 0.001150892733165912 0 -0.0011784851672144582 0.0012932758683928743 0 -0.00093003101511086406 0.0011271512109108839 0 -0.0011121209105766001 0.0010315758849724159 0 -0.0011825421088464242 0.001150892733165912 0 -0.00093003101511086406 0.0011271512109108839 0 -0.0013285737026931127 0.00068885082881678069 0 -0.0012930321231426848 0.00079454492456508541 0 -0.0013910015473476065 0.0007974558851907964 0 -0.0013285737026931127 0.00068885082881678069 0 -0.0013910015473476065 0.0007974558851907964 0 -0.00142385205005682 0.00071710015170658851 0 -0.0012973952002640987 0.00058344940196215236 0 -0.0013285737026931127 0.00068885082881678069 0 -0.0012022601179391085 0.00068205263901930681 0 -0.0013285737026931127 0.00068885082881678069 0 -0.0012930321231426848 0.00079454492456508541 0 -0.0012022601179391085 0.00068205263901930681 0 -0.0016511210179868238 0.00089682615116930969 0 -0.0015194949101072625 0.00071560864202961086 0 -0.0020332986366497665 0.00099249195670856358 0 -0.0017491044854557785 0.00096311644224026771 0 -0.0018337559792179401 0.00074878430761247299 0 -0.0017491044854557785 0.00096311644224026771 0 -0.0018337559792179401 0.00074878430761247299 0 -0.0015829755280469869 0.00074229256450386312 0 -0.0017378100786022163 0.00094676463009681696 0 -0.0015978484667787318 0.00074453359586199128 0 -0.0017491044854557785 0.00096311644224026771 0 -0.0015737825250006136 0.00092843524352694917 0 -0.0015643604363088073 0.0010774204530919669 0 -0.0017491044854557785 0.00096311644224026771 0 -0.0016089505725114157 0.00074195459164620237 0 -0.0015737825250006136 0.00092843524352694917 0 -0.0015402799510088852 0.0012743347905976986 0 -0.0015643604363088073 0.0010774204530919669 0 -0.0018104710129745014 0.0012155215972170172 0 -0.0017491044854557785 0.00096311644224026771 0 -0.0015643604363088073 0.0010774204530919669 0 -0.0018104710129745014 0.0012155215972170172 0 -0.0015402799510088852 0.0012743347905976986 0 -0.0018104710129745014 0.0012155215972170172 0 -0.0016554505523339554 0.0014099815561786056 0 -0.0018104710129745014 0.0012155215972170172 0 -0.0018419702862380531 0.0014793603057609832 0 -0.0016554505523339554 0.0014099815561786056 0 -0.0020332986366497665 0.00099249195670856358 0 -0.0017491044854557785 0.00096311644224026771 0 -0.0018104710129745014 0.0012155215972170172 0 -0.0020332986366497665 0.00099249195670856358 0 -0.0018104710129745014 0.0012155215972170172 0 -0.0020356034331900407 0.0011895614062980013 0 -0.0018104710129745014 0.0012155215972170172 0 -0.002035941407848409 0.0013513566096037077 0 -0.0018419702862380531 0.0014793603057609832 0 -0.0018104710129745014 0.0012155215972170172 0 -0.0020356034331900407 0.0011895614062980013 0 -0.002035941407848409 0.0013513566096037077 0 -0.0020356034331900407 0.0011895614062980013 0 -0.002035941407848409 0.0013513566096037077 0 -0.00222625123764599 0.0012257890146910083 0 -0.0027076086649280707 0.00096191989812622431 0 -0.0026516062107331605 0.00094697125912043378 0 -0.0026434481517214536 0.001001066276459444 0 -0.0024628348042550255 0.0011258675082283915 0 -0.0018884126725026201 0.0010322864259924901 0 -0.0020332986366497665 0.00099249195670856358 0 -0.0020356034331900407 0.0011895614062980013 0 -0.00222625123764599 0.0012257890146910083 0 -0.0012930321231426848 0.00079454492456508541 0 -0.0013910015473476065 0.0007974558851907964 0 -0.0013886111774738879 0.00091431502417852731 0 -0.0016511210179868238 0.00089682615116930969 0 -0.0018884126725026201 0.0010322864259924901 0 -0.0039111903612698241 0.00060618975099795082 0 -0.0040470654672318061 0.00049499284517608079 0 -0.0039318454763443735 0.00046412032603443154 0 -0.0039111903612698241 0.00060618975099795082 0 -0.0039318454763443735 0.00046412032603443154 0 -0.0038289235062329841 0.00050844469661983033 0 -0.0027076086649280707 0.00096191989812622431 0 -0.0026679466247693994 0.00089854497232602951 0 -0.0027221441159111575 0.00091584298680762025 0 -0.0027076086649280707 0.00096191989812622431 0 -0.0026679466247693994 0.00089854497232602951 0 -0.0026516062107331605 0.00094697125912043378 0 -0.0024628348042550255 0.0011258675082283915 0 -0.0022493947252430618 0.0012433808790835213 0 -0.0027076086649280707 0.00096191989812622431 0 -0.0027221441159111575 0.00091584298680762025 0 -0.0027652164708228798 0.00092368123359108417 0 -0.0033796913793312307 0.00073776082635021477 0 -0.0033940751073769839 0.00068332729966165157 0 -0.0026679466247693994 0.00089854497232602951 0 -0.0027221441159111575 0.00091584298680762025 0 -0.0027437952223899795 0.00087453142300315811 0 -0.0027221441159111575 0.00091584298680762025 0 -0.0027437952223899795 0.00087453142300315811 0 -0.0027710577586340058 0.00089024189743727028 0 -0.0027861537651846374 0.00086068156464272935 0 -0.0027710577586340058 0.00089024189743727028 0 -0.0028168482672292585 0.00088814533118959432 0 -0.0027710577586340058 0.00089024189743727028 0 -0.0027652164708228798 0.00092368123359108417 0 -0.0028168482672292585 0.00088814533118959432 0 -0.0033940751073769839 0.00068332729966165157 0 -0.0032412557344295334 0.00072633686309218979 0 -0.0027437952223899795 0.00087453142300315811 0 -0.0027861537651846374 0.00086068156464272935 0 -0.0027710577586340058 0.00089024189743727028 0 -0.0022493947252430618 0.0012433808790835213 0 -0.0023849682365798637 0.0010067746953902812 0 -0.0027221441159111575 0.00091584298680762025 0 -0.0027710577586340058 0.00089024189743727028 0 -0.0027652164708228798 0.00092368123359108417 0 -0.0018419702862380531 0.0014793603057609832 0 -0.0016554505523339554 0.0014099815561786056 0 -0.0016487762325371781 0.001604954977143129 0 -0.0016554505523339554 0.0014099815561786056 0 -0.0016487762325371781 0.001604954977143129 0 -0.0014223521839267438 0.0014489665367270117 0 -0.0027466119623501622 0.00085706440458893955 0 -0.0027588743125698829 0.00089898696089909039 0 -0.0026940912911874448 0.00089316637374267942 0 -0.0023849682365798637 0.0010067746953902812 0 -0.0028058130862139239 0.00082640751616400176 0 -0.0032412557344295334 0.00072633686309218979 0 -0.0023849682365798637 0.0010067746953902812 0 -0.0027910880645529447 0.00088789197000243029 0 -0.0027466119623501622 0.00085706440458893955 0 -0.0027588743125698829 0.00089898696089909039 0 -0.0034592304043991793 0.00064319763872200788 0 -0.0033914133802446771 0.00066450382247547465 0 -0.0041343326659611492 0.00040637281434556153 0 -0.0041551542760148545 0.000342148266982976 0 -0.0041875165133875578 0.00034304376438693592 0 -0.0041343326659611492 0.00040637281434556153 0 -0.0041551542760148545 0.000342148266982976 0 -0.0041155752157625769 0.00035076318946768934 0 -0.0041408960311415163 0.00030999390462469319 0 -0.0041831952749609193 0.00030144174313283674 0 -0.0041631544776453396 0.00027409196929842393 0 -0.0041551542760148545 0.000342148266982976 0 -0.0041408960311415163 0.00030999390462469319 0 -0.0041831952749609193 0.00030144174313283674 0 -0.0041551542760148545 0.000342148266982976 0 -0.0041408960311415163 0.00030999390462469319 0 -0.0041155752157625769 0.00035076318946768934 0 -0.0041155752157625769 0.00035076318946768934 0 -0.004103269965683257 0.0003141833212925595 0 -0.0040658493807859356 0.0003320957139134979 0 -0.0041408960311415163 0.00030999390462469319 0 -0.0041155752157625769 0.00035076318946768934 0 -0.004103269965683257 0.0003141833212925595 0 -0.0041408960311415163 0.00030999390462469319 0 -0.004103269965683257 0.0003141833212925595 0 -0.0040934541732010271 0.0002658250383654526 0 -0.0040658493807859356 0.0003320957139134979 0 -0.0040301455663372425 0.0002962630424428697 0 -0.0040934541732010271 0.0002658250383654526 0 -0.004103269965683257 0.0003141833212925595 0 -0.0040658493807859356 0.0003320957139134979 0 -0.0040934541732010271 0.0002658250383654526 0 -0.0040470654672318061 0.00049499284517608079 0 -0.0041039152216380903 0.00043589705046461077 0 -0.004069677465438285 0.00039163821513050898 0 -0.0041039152216380903 0.00043589705046461077 0 -0.0041343326659611492 0.00040637281434556153 0 -0.004069677465438285 0.00039163821513050898 0 -0.0041155752157625769 0.00035076318946768934 0 -0.0040658493807859356 0.0003320957139134979 0 -0.004069677465438285 0.00039163821513050898 0 -0.0041343326659611492 0.00040637281434556153 0 -0.0041155752157625769 0.00035076318946768934 0 -0.004069677465438285 0.00039163821513050898 0 -0.0032412557344295334 0.00072633686309218979 0 -0.0034592304043991793 0.00064319763872200788 0 -0.0040470654672318061 0.00049499284517608079 0 -0.004069677465438285 0.00039163821513050898 0 -0.0040014962987032048 0.00041427174290958624 0 -0.0040470654672318061 0.00049499284517608079 0 -0.0040014962987032048 0.00041427174290958624 0 -0.0039318454763443735 0.00046412032603443154 0 -0.004069677465438285 0.00039163821513050898 0 -0.0040014962987032048 0.00041427174290958624 0 -0.004016571587627491 0.00034809159482865169 0 -0.0040658493807859356 0.0003320957139134979 0 -0.004069677465438285 0.00039163821513050898 0 -0.004016571587627491 0.00034809159482865169 0 -0.0040658493807859356 0.0003320957139134979 0 -0.0040301455663372425 0.0002962630424428697 0 -0.004016571587627491 0.00034809159482865169 0 -0.0040301455663372425 0.0002962630424428697 0 -0.0039655790557440156 0.00030257697999322826 0 -0.0039854982146735815 0.00025244521892693741 0 -0.0040301455663372425 0.0002962630424428697 0 -0.004016571587627491 0.00034809159482865169 0 -0.0039655790557440156 0.00030257697999322826 0 -0.004016571587627491 0.00034809159482865169 0 -0.0039655790557440156 0.00030257697999322826 0 -0.0039140564338322418 0.0003591731164779949 0 -0.0039655790557440156 0.00030257697999322826 0 -0.0039301560039691086 0.00025477424322106144 0 -0.0039854982146735815 0.00025244521892693741 0 -0.003911457621246138 0.00030191954973321223 0 -0.0038552657230936545 0.00028877345829468452 0 -0.0039301560039691086 0.00025477424322106144 0 -0.0039655790557440156 0.00030257697999322826 0 -0.003911457621246138 0.00030191954973321223 0 -0.0039301560039691086 0.00025477424322106144 0 -0.0039655790557440156 0.00030257697999322826 0 -0.003911457621246138 0.00030191954973321223 0 -0.0039140564338322418 0.0003591731164779949 0 -0.003911457621246138 0.00030191954973321223 0 -0.0039140564338322418 0.0003591731164779949 0 -0.0038552657230936545 0.00028877345829468452 0 -0.0039140564338322418 0.0003591731164779949 0 -0.0039318454763443735 0.00046412032603443154 0 -0.003852720037333046 0.00039961595842321002 0 -0.0040014962987032048 0.00041427174290958624 0 -0.004016571587627491 0.00034809159482865169 0 -0.0039140564338322418 0.0003591731164779949 0 -0.0040014962987032048 0.00041427174290958624 0 -0.0039140564338322418 0.0003591731164779949 0 -0.0039318454763443735 0.00046412032603443154 0 -0.0026618615493021799 0.00089777446024075702 0 -0.0026654880142190428 0.00088884732750312597 0 -0.0026733921542375946 0.0008981434990259395 0 -0.0026618615493021799 0.00089777446024075702 0 -0.0026733921542375946 0.0008981434990259395 0 -0.0026706990737311084 0.00090357978285850247 0 -0.0026618615493021799 0.00089777446024075702 0 -0.0026617944785013131 0.0009049338690222293 0 -0.0026485289226446341 0.00089900114078406287 0 -0.0016496423137353801 0.0012979331466365729 0 -0.0026112155671504781 0.00074610217269673463 0 -0.0026618615493021799 0.00089777446024075702 0 -0.0026540110997047752 0.00089157721020875498 0 -0.0026485289226446341 0.00089900114078406287 0 -0.0026618615493021799 0.00089777446024075702 0 -0.0026540110997047752 0.00089157721020875498 0 -0.0026654880142190428 0.00088884732750312597 0 -0.0018007600556462753 0.0010818876934852444 0 -0.0016496423137353801 0.0012979331466365729 0 -0.0026597178030262282 0.00088031436335547786 0 -0.0026540110997047752 0.00089157721020875498 0 -0.0026654880142190428 0.00088884732750312597 0 -0.0026597178030262282 0.00088031436335547786 0 -0.0026654880142190428 0.00088884732750312597 0 -0.0026800088646266396 0.00088653632755453357 0 -0.0026654880142190428 0.00088884732750312597 0 -0.0026800088646266396 0.00088653632755453357 0 -0.002682093893120486 0.00089226855393805828 0 -0.0023849682365798637 0.0010067746953902812 0 -0.0020457678362018877 0.001199652526035163 0 -0.0026922042958967682 0.00089239832364345901 0 -0.0026800088646266396 0.00088653632755453357 0 -0.002682093893120486 0.00089226855393805828 0 -0.0026922042958967682 0.00089239832364345901 0 -0.002682093893120486 0.00089226855393805828 0 -0.0026940912911874448 0.00089316637374267942 0 -0.002682093893120486 0.00089226855393805828 0 -0.002682799866896869 0.00089954196971281321 0 -0.0026940912911874448 0.00089316637374267942 0 -0.0026654880142190428 0.00088884732750312597 0 -0.002682093893120486 0.00089226855393805828 0 -0.0026733921542375946 0.0008981434990259395 0 -0.002682093893120486 0.00089226855393805828 0 -0.0026733921542375946 0.0008981434990259395 0 -0.002682799866896869 0.00089954196971281321 0 -0.0033914133802446771 0.00066450382247547465 0 -0.0036408783855467106 0.00036133901741660908 0 -0.0026733921542375946 0.0008981434990259395 0 -0.0026783065270374268 0.0009045935166582125 0 -0.0026706990737311084 0.00090357978285850247 0 -0.0026783065270374268 0.0009045935166582125 0 -0.0026899129479322891 0.00091178227966623069 0 -0.0026773454512850044 0.00090973464671009643 0 -0.0026733921542375946 0.0008981434990259395 0 -0.0026783065270374268 0.0009045935166582125 0 -0.002682799866896869 0.00089954196971281321 0 -0.0026783065270374268 0.0009045935166582125 0 -0.002682799866896869 0.00089954196971281321 0 -0.0026899129479322891 0.00091178227966623069 0 -0.0027588743125698829 0.00089898696089909039 0 -0.0026940912911874448 0.00089316637374267942 0 -0.0026899129479322891 0.00091178227966623069 0 -0.002682799866896869 0.00089954196971281321 0 -0.0026940912911874448 0.00089316637374267942 0 -0.0026899129479322891 0.00091178227966623069 0 -0.0041551542760148545 0.000342148266982976 0 -0.0041875165133875578 0.00034304376438693592 0 -0.0041831952749609193 0.00030144174313283674 0 -0.0041875165133875578 0.00034304376438693592 0 -0.0041831952749609193 0.00030144174313283674 0 -0.0042022007797228068 0.00030786786125740749 0 -0.0041831952749609193 0.00030144174313283674 0 -0.004208888322877356 0.00028477083068956948 0 -0.00419921600449098 0.00026983285219575988 0 -0.0041875165133875578 0.00034304376438693592 0 -0.0042022007797228068 0.00030786786125740749 0 -0.0042343847461825375 0.00030561379651588026 0 -0.004208888322877356 0.00028477083068956948 0 -0.004201557758392746 0.00025997255538120551 0 -0.0042063197356590597 0.00027088316886348025 0 -0.0042022007797228068 0.00030786786125740749 0 -0.004208888322877356 0.00028477083068956948 0 -0.0042343847461825375 0.00030561379651588026 0 -0.0042602541943718925 0.00039820849281472256 0 -0.0036408783855467106 0.00036133901741660908 0 -0.0041831952749609193 0.00030144174313283674 0 -0.0042022007797228068 0.00030786786125740749 0 -0.004208888322877356 0.00028477083068956948 0 -0.0036408783855467106 0.00036133901741660908 0 -0.0040632228302493094 0.00017416411053481235 0 -0.0037692461497035789 0.00018189296602079419 0 -0.0038049999609640638 0.00020199545953019832 0 -0.0038173950578077004 0.00016517410387803855 0 -0.004201557758392746 0.00025997255538120551 0 -0.0041743966414027932 0.00023572802244606762 0 -0.0042063197356590597 0.00027088316886348025 0 -0.0026773454512850044 0.00090973464671009643 0 -0.0026706990737311084 0.00090357978285850247 0 -0.0026617944785013131 0.0009049338690222293 0 -0.0036408783855467106 0.00036133901741660908 0 -0.0032641032561987172 0.00056669661323576783 0 -0.0026783065270374268 0.0009045935166582125 0 -0.0026773454512850044 0.00090973464671009643 0 -0.0026706990737311084 0.00090357978285850247 0 -0.0026618615493021799 0.00089777446024075702 0 -0.0026706990737311084 0.00090357978285850247 0 -0.0026617944785013131 0.0009049338690222293 0 -0.0038049999609640638 0.00020199545953019832 0 -0.0038405572774696988 0.00018071308903189572 0 -0.0038349407429687805 0.00022250562341961006 0 -0.0032641032561987172 0.00056669661323576783 0 -0.0026112155671504781 0.00074610217269673463 0 -0.0038049999609640638 0.00020199545953019832 0 -0.0038173950578077004 0.00016517410387803855 0 -0.0038405572774696988 0.00018071308903189572 0 -0.0040632228302493094 0.00017416411053481235 0 -0.0039498286825798111 0.00019824244114915635 0 -0.0038173950578077004 0.00016517410387803855 0 -0.0038405572774696988 0.00018071308903189572 0 -0.0038618365640350786 0.00016838527795005857 0 -0.0038405572774696988 0.00018071308903189572 0 -0.0038733656974579969 0.00016358547415642913 0 -0.0038618365640350786 0.00016838527795005857 0 -0.0038733656974579969 0.00016358547415642913 0 -0.003856028343723979 0.00018612710608492913 0 -0.0038618365640350786 0.00016838527795005857 0 -0.0035479843744957045 0.0001746735333989354 0 -0.0035422206307457972 0.00029467284369340203 0 -0.0033654411427547263 0.00032932343888714485 0 -0.0035479843744957045 0.0001746735333989354 0 -0.0035422206307457972 0.00029467284369340203 0 -0.0036177772856754893 0.00020713327741410189 0 -0.0039087806312325651 3.7954990664339424e-05 0 -0.0026112155671504781 0.00074610217269673463 0 -0.0038405572774696988 0.00018071308903189572 0 -0.0038733656974579969 0.00016358547415642913 0 -0.0038349407429687805 0.00022250562341961006 0 -0.00078831139782676945 0.001625809920591977 0 -0.00064959243800814435 0.0015450881741893802 0 -0.00075429208420862114 0.0014795870557786355 0 -0.00094878072986272265 0.0014584177414433811 0 -0.00078831139782676945 0.001625809920591977 0 -0.00075429208420862114 0.0014795870557786355 0 -0.0026112155671504781 0.00074610217269673463 0 -0.0020428522598961133 0.00095503901355148391 0 -0.0035422206307457972 0.00029467284369340203 0 -0.0033654411427547263 0.00032932343888714485 0 -0.003480810170108318 0.00040057111980208363 0 -0.0035422206307457972 0.00029467284369340203 0 -0.0035634411531750834 0.00036642295444232426 0 -0.003480810170108318 0.00040057111980208363 0 -0.0035634411531750834 0.00036642295444232426 0 -0.003480810170108318 0.00040057111980208363 0 -0.0035874865893264244 0.00047323139999089697 0 -0.00064959243800814435 0.0015450881741893802 0 -0.00064674521088743794 0.0014093524354982282 0 -0.00051775637807950756 0.0014622905532928508 0 -0.0020428522598961133 0.00095503901355148391 0 -0.0018522796403365302 0.00099528466638677598 0 -0.00064674521088743794 0.0014093524354982282 0 -0.00075429208420862114 0.0014795870557786355 0 -0.00076019882562605517 0.0013465986110202674 0 -0.00094878072986272265 0.0014584177414433811 0 -0.00075429208420862114 0.0014795870557786355 0 -0.00076019882562605517 0.0013465986110202674 0 -0.00064959243800814435 0.0015450881741893802 0 -0.00064674521088743794 0.0014093524354982282 0 -0.00075429208420862114 0.0014795870557786355 0 -0.0036070716088357681 0.00021236683500473085 0 -0.0036340161004921657 0.00018749579777912152 0 -0.0036195846351504582 0.00026661031902528955 0 -0.0036808330570634431 5.3341618409469266e-05 0 -0.0027016185762177942 0.0003070785259107838 0 -0.0034107966506470131 -4.0985049606976582e-05 0 -0.0034812129935044215 7.6072178826669386e-06 0 -0.0034037065340969839 -8.4515617638223511e-05 0 -0.0034107966506470131 -4.0985049606976582e-05 0 -0.0033719713381766001 -7.2657636025632083e-05 0 -0.0034037065340969839 -8.4515617638223511e-05 0 -0.0018522796403365302 0.00099528466638677598 0 -0.0027016185762177942 0.0003070785259107838 0 -0.0035732763826466841 0.00023551793852674994 0 -0.0036070716088357681 0.00021236683500473085 0 -0.0036195846351504582 0.00026661031902528955 0 -0.00033977437694692755 0.0016270368202987407 0 -0.00026817384624859249 0.0014386957484754685 0 -0.00010939944560359047 0.0014863542978110428 0 -0.0035732763826466841 0.00023551793852674994 0 -0.0036070716088357681 0.00021236683500473085 0 -0.0036120998480516303 0.00018512975490606756 0 -0.0018522796403365302 0.00099528466638677598 0 -0.0037816808857180947 5.3238499934235341e-05 0 -0.0035634411531750834 0.00036642295444232426 0 -0.0035874865893264244 0.00047323139999089697 0 -0.0036433249731242286 0.00030000735315428552 0 -0.0035422206307457972 0.00029467284369340203 0 -0.0035634411531750834 0.00036642295444232426 0 -0.0036433249731242286 0.00030000735315428552 0 -0.0036070716088357681 0.00021236683500473085 0 -0.0036340161004921657 0.00018749579777912152 0 -0.0036120998480516303 0.00018512975490606756 0 -0.0034107966506470131 -4.0985049606976582e-05 0 -0.0034812129935044215 7.6072178826669386e-06 0 -0.0034253842457111104 -9.9143385608608601e-06 0 -0.0034812129935044215 7.6072178826669386e-06 0 -0.0034253842457111104 -9.9143385608608601e-06 0 -0.0034610438175190048 2.7050646955535571e-05 0 -0.0036340161004921657 0.00018749579777912152 0 -0.0036510825679916775 0.00016725147156284063 0 -0.0036329403757079403 0.00016090342728725712 0 -0.0034812129935044215 7.6072178826669386e-06 0 -0.0035244189391841758 8.0588724358594273e-05 0 -0.0036329403757079403 0.00016090342728725712 0 -0.0034610438175190048 2.7050646955535571e-05 0 -0.0035244189391841758 8.0588724358594273e-05 0 -0.0034567766424392844 5.5584952614082305e-05 0 -0.0034812129935044215 7.6072178826669386e-06 0 -0.0034610438175190048 2.7050646955535571e-05 0 -0.0035244189391841758 8.0588724358594273e-05 0 -0.0036808330570634431 5.3341618409469266e-05 0 -0.0035876010918243573 0.00018647627601725526 0 -0.0036433249731242286 0.00030000735315428552 0 -0.0036177772856754893 0.00020713327741410189 0 -0.0036510825679916775 0.00016725147156284063 0 -0.0036340161004921657 0.00018749579777912152 0 -0.0036120998480516303 0.00018512975490606756 0 -0.0036510825679916775 0.00016725147156284063 0 -0.0037816808857180947 5.3238499934235341e-05 0 -0.0036119557076656804 0.00025755611225779175 0 -0.0035422206307457972 0.00029467284369340203 0 -0.0036433249731242286 0.00030000735315428552 0 -0.0036177772856754893 0.00020713327741410189 0 -0.0035479843744957045 0.0001746735333989354 0 -0.0036177772856754893 0.00020713327741410189 0 -0.0036707886442338259 0.00017124678882433604 0 -0.0035479843744957045 0.0001746735333989354 0 -0.0036707886442338259 0.00017124678882433604 0 -0.0037375978251928924 0.00018605694282828626 0 -0.0039087806312325651 3.7954990664339424e-05 0 -0.0036454679544392497 0.0002565627936227483 0 -0.0038733656974579969 0.00016358547415642913 0 -0.0037375978251928924 0.00018605694282828626 0 -0.003856028343723979 0.00018612710608492913 0 -0.0036177772856754893 0.00020713327741410189 0 -0.0036510825679916775 0.00016725147156284063 0 -0.0036707886442338259 0.00017124678882433604 0 -0.0036510825679916775 0.00016725147156284063 0 -0.0036707886442338259 0.00017124678882433604 0 -0.0036329403757079403 0.00016090342728725712 0 -0.0035244189391841758 8.0588724358594273e-05 0 -0.0035540157124725144 0.00013086838928108116 0 -0.0034951632196004866 0.00011460747556427852 0 -0.0035244189391841758 8.0588724358594273e-05 0 -0.0035540157124725144 0.00013086838928108116 0 -0.0036329403757079403 0.00016090342728725712 0 -0.0036707886442338259 0.00017124678882433604 0 -0.0036329403757079403 0.00016090342728725712 0 -0.0036585648591952466 0.00019402240866951548 0 -0.0036329403757079403 0.00016090342728725712 0 -0.0035663649403769068 0.00016961174653437743 0 -0.0036585648591952466 0.00019402240866951548 0 -0.0035540157124725144 0.00013086838928108116 0 -0.0036329403757079403 0.00016090342728725712 0 -0.0035663649403769068 0.00016961174653437743 0 -0.0035540157124725144 0.00013086838928108116 0 -0.0035663649403769068 0.00016961174653437743 0 -0.0034951632196004866 0.00011460747556427852 0 -0.0035663649403769068 0.00016961174653437743 0 -0.0034951632196004866 0.00011460747556427852 0 -0.0034736746681574017 0.00017646359413018168 0 -0.0034325311659775979 0.00012348753879467915 0 -0.0033838272876113005 9.0586850513818814e-05 0 -0.0034310963355745246 8.3971542551804034e-05 0 -0.0034951632196004866 0.00011460747556427852 0 -0.0034325311659775979 0.00012348753879467915 0 -0.0034310963355745246 8.3971542551804034e-05 0 -0.0034325311659775979 0.00012348753879467915 0 -0.0034736746681574017 0.00017646359413018168 0 -0.0033877118382527232 0.00015468026661478537 0 -0.0034951632196004866 0.00011460747556427852 0 -0.0034325311659775979 0.00012348753879467915 0 -0.0034736746681574017 0.00017646359413018168 0 -0.0033877118382527232 0.00015468026661478537 0 -0.0033346298577283822 9.9572790481066456e-05 0 -0.0033037244473991365 0.00020545546350152956 0 -0.0034325311659775979 0.00012348753879467915 0 -0.0033877118382527232 0.00015468026661478537 0 -0.0033838272876113005 9.0586850513818814e-05 0 -0.0033877118382527232 0.00015468026661478537 0 -0.0033346298577283822 9.9572790481066456e-05 0 -0.0033838272876113005 9.0586850513818814e-05 0 -0.0033838272876113005 9.0586850513818814e-05 0 -0.0033413019497319867 5.1779304609698535e-05 0 -0.0033874772361915523 3.906954781390073e-05 0 -0.0033346298577283822 9.9572790481066456e-05 0 -0.0033838272876113005 9.0586850513818814e-05 0 -0.0033413019497319867 5.1779304609698535e-05 0 -0.0033346298577283822 9.9572790481066456e-05 0 -0.0033118376034289619 5.4788393680505246e-05 0 -0.0032816329598177696 6.0829202608640223e-05 0 -0.0033346298577283822 9.9572790481066456e-05 0 -0.0033118376034289619 5.4788393680505246e-05 0 -0.0033413019497319867 5.1779304609698535e-05 0 -0.0033118376034289619 5.4788393680505246e-05 0 -0.0033413019497319867 5.1779304609698535e-05 0 -0.0032961960468692285 1.8862725457945666e-05 0 -0.0033413019497319867 5.1779304609698535e-05 0 -0.0033874772361915523 3.906954781390073e-05 0 -0.0033325857663507388 4.1992020760458786e-06 0 -0.0033874772361915523 3.906954781390073e-05 0 -0.0034567766424392844 5.5584952614082305e-05 0 -0.003423108865409545 1.7923977275072618e-05 0 -0.0034610438175190048 2.7050646955535571e-05 0 -0.0034567766424392844 5.5584952614082305e-05 0 -0.003423108865409545 1.7923977275072618e-05 0 -0.0035244189391841758 8.0588724358594273e-05 0 -0.0034951632196004866 0.00011460747556427852 0 -0.0034567766424392844 5.5584952614082305e-05 0 -0.0034951632196004866 0.00011460747556427852 0 -0.0034567766424392844 5.5584952614082305e-05 0 -0.0034310963355745246 8.3971542551804034e-05 0 -0.0033874772361915523 3.906954781390073e-05 0 -0.0034567766424392844 5.5584952614082305e-05 0 -0.0034310963355745246 8.3971542551804034e-05 0 -0.0033838272876113005 9.0586850513818814e-05 0 -0.0033874772361915523 3.906954781390073e-05 0 -0.0034310963355745246 8.3971542551804034e-05 0 -0.0030830322372320685 0.00017155228128306861 0 -0.0030792900455199885 0.00020747675475843073 0 -0.0031009087104008999 0.00020453603495621656 0 -0.0031055405773399492 0.0001735309861754818 0 -0.0030830322372320685 0.00017155228128306861 0 -0.0031009087104008999 0.00020453603495621656 0 -0.0031055405773399492 0.0001735309861754818 0 -0.0030830322372320685 0.00017155228128306861 0 -0.0031062396347623484 0.00012800971652837762 0 -0.0030830322372320685 0.00017155228128306861 0 -0.003069782239241055 0.00019247870220625042 0 -0.003047748864218935 0.00014808140090351351 0 -0.0030830322372320685 0.00017155228128306861 0 -0.003069782239241055 0.00019247870220625042 0 -0.0030792900455199885 0.00020747675475843073 0 -0.003069782239241055 0.00019247870220625042 0 -0.0030659657686923337 0.0002216723096106093 0 -0.003047748864218935 0.00014808140090351351 0 -0.0031808564162138404 0.00014269239405965365 0 -0.0031169583914113638 0.00015585385873135359 0 -0.0033346298577283822 9.9572790481066456e-05 0 -0.0032816329598177696 6.0829202608640223e-05 0 -0.0033037244473991365 0.00020545546350152956 0 -0.0033118376034289619 5.4788393680505246e-05 0 -0.0032816329598177696 6.0829202608640223e-05 0 -0.0032961960468692285 1.8862725457945666e-05 0 -0.0030659657686923337 0.0002216723096106093 0 -0.0030672434509976284 0.0002007410417210352 0 -0.0030696978089807185 0.00021350433749713131 0 -0.0030672434509976284 0.0002007410417210352 0 -0.0030696978089807185 0.00021350433749713131 0 -0.003074493940607661 0.00021472349036936176 0 -0.0030672434509976284 0.0002007410417210352 0 -0.003074493940607661 0.00021472349036936176 0 -0.0030785152624148724 0.00022707294855677459 0 -0.0030696978089807185 0.00021350433749713131 0 -0.003074493940607661 0.00021472349036936176 0 -0.0030792900455199885 0.00020747675475843073 0 -0.003069782239241055 0.00019247870220625042 0 -0.0030659657686923337 0.0002216723096106093 0 -0.0030696978089807185 0.00021350433749713131 0 -0.003069782239241055 0.00019247870220625042 0 -0.0030696978089807185 0.00021350433749713131 0 -0.0030792900455199885 0.00020747675475843073 0 -0.003074493940607661 0.00021472349036936176 0 -0.0030792900455199885 0.00020747675475843073 0 -0.0030878377409731725 0.00021997497770803829 0 -0.003074493940607661 0.00021472349036936176 0 -0.0030878377409731725 0.00021997497770803829 0 -0.0030785152624148724 0.00022707294855677459 0 -0.0030878377409731725 0.00021997497770803829 0 -0.0031009087104008999 0.00020453603495621656 0 -0.0031021980556749222 0.00023502484120237511 0 -0.0030792900455199885 0.00020747675475843073 0 -0.0030878377409731725 0.00021997497770803829 0 -0.0031009087104008999 0.00020453603495621656 0 -0.0030804250346742755 0.00025671541712793899 0 -0.0031021980556749222 0.00023502484120237511 0 -0.0031033428475108352 0.0002613932068561693 0 -0.0030785152624148724 0.00022707294855677459 0 -0.0030804250346742755 0.00025671541712793899 0 -0.0031021980556749222 0.00023502484120237511 0 -0.0030878377409731725 0.00021997497770803829 0 -0.0030785152624148724 0.00022707294855677459 0 -0.0031021980556749222 0.00023502484120237511 0 -0.0030663699854138068 0.00020233018484796733 0 -0.0030541349386747087 0.00019245575172432787 0 -0.0031808564162138404 0.00014269239405965365 0 -0.0031613840436302688 3.6570744207337069e-05 0 -0.0032816329598177696 6.0829202608640223e-05 0 -0.003238597293933167 -3.5373189755129376e-05 0 -0.0032961960468692285 1.8862725457945666e-05 0 -0.0030672434509976284 0.0002007410417210352 0 -0.0030785152624148724 0.00022707294855677459 0 -0.0030804250346742755 0.00025671541712793899 0 -0.0030672434509976284 0.0002007410417210352 0 -0.0030896843267501678 0.0001179121892633676 0 -0.0030231876298869422 0.00012660486641087322 0 -0.0030659657686923337 0.0002216723096106093 0 -0.0030672434509976284 0.0002007410417210352 0 -0.0030896843267501678 0.0001179121892633676 0 -0.003238597293933167 -3.5373189755129376e-05 0 -0.0032961960468692285 1.8862725457945666e-05 0 -0.0032862623128888948 -2.5095487888723711e-05 0 -0.003238597293933167 -3.5373189755129376e-05 0 -0.0032544578737034118 -6.4407865368314491e-05 0 -0.003167125238873776 -0.00011867120525256416 0 -0.003238597293933167 -3.5373189755129376e-05 0 -0.0032862623128888948 -2.5095487888723711e-05 0 -0.0032544578737034118 -6.4407865368314491e-05 0 -0.0030541349386747087 0.00019245575172432787 0 -0.0030060644779336542 0.00014915525617429761 0 -0.0030804250346742755 0.00025671541712793899 0 -0.0031005582129032478 0.00028602343427967206 0 -0.0031033428475108352 0.0002613932068561693 0 -0.0030231876298869422 0.00012660486641087322 0 -0.0030288782336212387 3.6345138787512317e-05 0 -0.0029364666450452394 1.8199072447798889e-05 0 -0.0030896843267501678 0.0001179121892633676 0 -0.0030231876298869422 0.00012660486641087322 0 -0.0030288782336212387 3.6345138787512317e-05 0 -0.0034253842457111104 -9.9143385608608601e-06 0 -0.0033685625893783789 -1.379243290718879e-05 0 -0.003369972042392927 -4.614611497490924e-05 0 -0.0034253842457111104 -9.9143385608608601e-06 0 -0.0034610438175190048 2.7050646955535571e-05 0 -0.003423108865409545 1.7923977275072618e-05 0 -0.0034253842457111104 -9.9143385608608601e-06 0 -0.0033685625893783789 -1.379243290718879e-05 0 -0.003423108865409545 1.7923977275072618e-05 0 -0.0033874772361915523 3.906954781390073e-05 0 -0.0033685625893783789 -1.379243290718879e-05 0 -0.003423108865409545 1.7923977275072618e-05 0 -0.0033874772361915523 3.906954781390073e-05 0 -0.0033685625893783789 -1.379243290718879e-05 0 -0.0033325857663507388 4.1992020760458786e-06 0 -0.0033413019497319867 5.1779304609698535e-05 0 -0.0033325857663507388 4.1992020760458786e-06 0 -0.0032961960468692285 1.8862725457945666e-05 0 -0.0033325857663507388 4.1992020760458786e-06 0 -0.0032961960468692285 1.8862725457945666e-05 0 -0.0032862623128888948 -2.5095487888723711e-05 0 -0.0033325857663507388 4.1992020760458786e-06 0 -0.0032862623128888948 -2.5095487888723711e-05 0 -0.0033125608769088255 -4.5944864402814781e-05 0 -0.0033685625893783789 -1.379243290718879e-05 0 -0.0033325857663507388 4.1992020760458786e-06 0 -0.0033125608769088255 -4.5944864402814781e-05 0 -0.0033125608769088255 -4.5944864402814781e-05 0 -0.0032544578737034118 -6.4407865368314491e-05 0 -0.0032669505816662623 -9.8358407112826777e-05 0 -0.0033125608769088255 -4.5944864402814781e-05 0 -0.0033324891637373502 -7.9929758344031898e-05 0 -0.0032669505816662623 -9.8358407112826777e-05 0 -0.0032862623128888948 -2.5095487888723711e-05 0 -0.0033125608769088255 -4.5944864402814781e-05 0 -0.0032544578737034118 -6.4407865368314491e-05 0 -0.0033125608769088255 -4.5944864402814781e-05 0 -0.003369972042392927 -4.614611497490924e-05 0 -0.0033324891637373502 -7.9929758344031898e-05 0 -0.0033685625893783789 -1.379243290718879e-05 0 -0.0033125608769088255 -4.5944864402814781e-05 0 -0.003369972042392927 -4.614611497490924e-05 0 -0.0034107966506470131 -4.0985049606976582e-05 0 -0.0034253842457111104 -9.9143385608608601e-06 0 -0.003369972042392927 -4.614611497490924e-05 0 -0.0034107966506470131 -4.0985049606976582e-05 0 -0.003369972042392927 -4.614611497490924e-05 0 -0.0033719713381766001 -7.2657636025632083e-05 0 -0.003369972042392927 -4.614611497490924e-05 0 -0.0033719713381766001 -7.2657636025632083e-05 0 -0.0033324891637373502 -7.9929758344031898e-05 0 -0.0033109818619054244 -0.00011097568965500501 0 -0.0033324891637373502 -7.9929758344031898e-05 0 -0.0033509572925616549 -0.00010124979231399552 0 -0.0033719713381766001 -7.2657636025632083e-05 0 -0.0033324891637373502 -7.9929758344031898e-05 0 -0.0033509572925616549 -0.00010124979231399552 0 -0.0033109818619054244 -0.00011097568965500501 0 -0.0033509572925616549 -0.00010124979231399552 0 -0.0033323728749639642 -0.00013953181810173892 0 -0.0033109818619054244 -0.00011097568965500501 0 -0.0032669505816662623 -9.8358407112826777e-05 0 -0.0032692628481785575 -0.00013908061850006261 0 -0.0033109818619054244 -0.00011097568965500501 0 -0.0033324891637373502 -7.9929758344031898e-05 0 -0.0032669505816662623 -9.8358407112826777e-05 0 -0.0032669505816662623 -9.8358407112826777e-05 0 -0.0032159278560643469 -0.00013846734269455475 0 -0.003167125238873776 -0.00011867120525256416 0 -0.0032544578737034118 -6.4407865368314491e-05 0 -0.0032669505816662623 -9.8358407112826777e-05 0 -0.003167125238873776 -0.00011867120525256416 0 -0.0032669505816662623 -9.8358407112826777e-05 0 -0.0032159278560643469 -0.00013846734269455475 0 -0.0032692628481785575 -0.00013908061850006261 0 -0.0032159278560643469 -0.00013846734269455475 0 -0.0032692628481785575 -0.00013908061850006261 0 -0.0032076159643512569 -0.00017845295375309772 0 -0.0032159278560643469 -0.00013846734269455475 0 -0.0031622238286452601 -0.00018034599455855175 0 -0.0032076159643512569 -0.00017845295375309772 0 -0.0032846445940392932 -0.00017895725536081468 0 -0.0032692628481785575 -0.00013908061850006261 0 -0.0032076159643512569 -0.00017845295375309772 0 -0.0032846445940392932 -0.00017895725536081468 0 -0.0032692628481785575 -0.00013908061850006261 0 -0.0033323728749639642 -0.00013953181810173892 0 -0.0033109818619054244 -0.00011097568965500501 0 -0.0032692628481785575 -0.00013908061850006261 0 -0.0033323728749639642 -0.00013953181810173892 0 -0.003000230751377825 -4.3661952362465481e-05 0 -0.0030288782336212387 3.6345138787512317e-05 0 -0.0029364666450452394 1.8199072447798889e-05 0 -0.003000230751377825 -4.3661952362465481e-05 0 -0.0030288782336212387 3.6345138787512317e-05 0 -0.0030982036205660811 -4.7524393460581981e-05 0 -0.0030896843267501678 0.0001179121892633676 0 -0.0030288782336212387 3.6345138787512317e-05 0 -0.0030982036205660811 -4.7524393460581981e-05 0 -0.0031613840436302688 3.6570744207337069e-05 0 -0.0031304055336783421 -8.9103258253842577e-05 0 -0.0030982036205660811 -4.7524393460581981e-05 0 -0.0030053945901642913 -0.0001318851835017339 0 -0.0030846699582491805 -0.00023366248085996341 0 -0.003167125238873776 -0.00011867120525256416 0 -0.0031622238286452601 -0.00018034599455855175 0 -0.0030846699582491805 -0.00023366248085996341 0 -0.0031304055336783421 -8.9103258253842577e-05 0 -0.003091452972518872 -0.00022893468818006659 0 -0.0032159278560643469 -0.00013846734269455475 0 -0.003167125238873776 -0.00011867120525256416 0 -0.0031622238286452601 -0.00018034599455855175 0 -0.003000230751377825 -4.3661952362465481e-05 0 -0.0030982036205660811 -4.7524393460581981e-05 0 -0.0030053945901642913 -0.0001318851835017339 0 -0.003000230751377825 -4.3661952362465481e-05 0 -0.0030053945901642913 -0.0001318851835017339 0 -0.0029341075500209511 -9.7205432599054603e-05 0 -0.003005143969216252 -0.00021213643209493411 0 -0.0030440171377310991 -0.00027063562813490376 0 -0.0029515302845541376 -0.00024558050796237487 0 -0.0030053945901642913 -0.0001318851835017339 0 -0.003005143969216252 -0.00021213643209493411 0 -0.0029346243606134829 -0.00017572994469261831 0 -0.003005143969216252 -0.00021213643209493411 0 -0.0029346243606134829 -0.00017572994469261831 0 -0.0029515302845541376 -0.00024558050796237487 0 -0.0030053945901642913 -0.0001318851835017339 0 -0.003005143969216252 -0.00021213643209493411 0 -0.0030846699582491805 -0.00023366248085996341 0 -0.003005143969216252 -0.00021213643209493411 0 -0.0030846699582491805 -0.00023366248085996341 0 -0.0030440171377310991 -0.00027063562813490376 0 -0.0030846699582491805 -0.00023366248085996341 0 -0.0030440171377310991 -0.00027063562813490376 0 -0.0031421267069094631 -0.00025685670082534992 0 -0.002918177441853945 -0.00027728310527788501 0 -0.0031325981224021721 -0.00025119090214716013 0 -0.0031622238286452601 -0.00018034599455855175 0 -0.0030846699582491805 -0.00023366248085996341 0 -0.0031421267069094631 -0.00025685670082534992 0 -0.0030015085458777483 -0.00032797139669632101 0 -0.0028300883041335119 -0.00027124174229705621 0 -0.0031421267069094631 -0.00025685670082534992 0 -0.0030015085458777483 -0.00032797139669632101 0 -0.0031421267069094631 -0.00025685670082534992 0 -0.0030751957312404985 -0.00040398239322937592 0 -0.0030015085458777483 -0.00032797139669632101 0 -0.0029063875440516283 -0.00039418047811597031 0 -0.0030751957312404985 -0.00040398239322937592 0 -0.0030015085458777483 -0.00032797139669632101 0 -0.0029063875440516283 -0.00039418047811597031 0 -0.0028300883041335119 -0.00027124174229705621 0 -0.0027391727381351461 -0.00044067940887521957 0 -0.0028300883041335119 -0.00027124174229705621 0 -0.0025503550041199056 -0.00034063776794356282 0 -0.0027391727381351461 -0.00044067940887521957 0 -0.0029063875440516283 -0.00039418047811597031 0 -0.0028300883041335119 -0.00027124174229705621 0 -0.0032846445940392932 -0.00017895725536081468 0 -0.0033000083185267472 -0.00023584634388259428 0 -0.0033572777791832501 -0.00017218241031176086 0 -0.0032161324923545413 -0.0002640020642623101 0 -0.0033000083185267472 -0.00023584634388259428 0 -0.0032411820834355107 -0.00029548303594471696 0 -0.0033000083185267472 -0.00023584634388259428 0 -0.0032411820834355107 -0.00029548303594471696 0 -0.0032862111191006129 -0.00030199300613087935 0 -0.0032846445940392932 -0.00017895725536081468 0 -0.0032161324923545413 -0.0002640020642623101 0 -0.0032076159643512569 -0.00017845295375309772 0 -0.0032846445940392932 -0.00017895725536081468 0 -0.0032161324923545413 -0.0002640020642623101 0 -0.0033000083185267472 -0.00023584634388259428 0 -0.0032076159643512569 -0.00017845295375309772 0 -0.0031421267069094631 -0.00025685670082534992 0 -0.0030751957312404985 -0.00040398239322937592 0 -0.0032161324923545413 -0.0002640020642623101 0 -0.0032076159643512569 -0.00017845295375309772 0 -0.0030550877395361313 -0.00036943675326175072 0 -0.0031918248544597922 -0.0001861940365576765 0 -0.0030689619846721817 -0.00038756533399547394 0 -0.0031622238286452601 -0.00018034599455855175 0 -0.0032076159643512569 -0.00017845295375309772 0 -0.0031421267069094631 -0.00025685670082534992 0 -0.0032161324923545413 -0.0002640020642623101 0 -0.0030550877395361313 -0.00036943675326175072 0 -0.0031573249140308527 -0.00036055946293742558 0 -0.0032495451134948905 -0.00049564647970930286 0 -0.0032526749675537247 -0.00036766190232664464 0 -0.0033599541725219321 -0.00029771337479379302 0 -0.0031573249140308527 -0.00036055946293742558 0 -0.0032411820834355107 -0.00029548303594471696 0 -0.0032526749675537247 -0.00036766190232664464 0 -0.0032161324923545413 -0.0002640020642623101 0 -0.0031573249140308527 -0.00036055946293742558 0 -0.0032411820834355107 -0.00029548303594471696 0 -0.0032411820834355107 -0.00029548303594471696 0 -0.0032862111191006129 -0.00030199300613087935 0 -0.0032526749675537247 -0.00036766190232664464 0 -0.0032862111191006129 -0.00030199300613087935 0 -0.0032526749675537247 -0.00036766190232664464 0 -0.0033599541725219321 -0.00029771337479379302 0 -0.0014783949005563906 8.3269731084961126e-06 0 -0.0011256057872527773 0.00048070550376219168 0 0.00044082878955666266 0.00054970656885797284 0 5.8557475853965385e-05 0.00079666732654616894 0 3.4753646844248355e-05 0.00091634483146093367 0 -2.9203823432615087e-05 0.00066020059790518305 0 5.8557475853965385e-05 0.00079666732654616894 0 -0.00010253194915679895 0.00079228849581516208 0 5.8557475853965385e-05 0.00079666732654616894 0 2.0430488023541134e-05 0.00087793586701167018 0 -0.00019414481517276321 0.0009652490060426996 0 5.8557475853965385e-05 0.00079666732654616894 0 -0.00019414481517276321 0.0009652490060426996 0 -0.00010253194915679895 0.00079228849581516208 0 -0.00070993792866039782 0.00075699535762952452 0 -0.0011256057872527773 0.00048070550376219168 0 -0.0033000083185267472 -0.00023584634388259428 0 -0.0032862111191006129 -0.00030199300613087935 0 -0.0033599541725219321 -0.00029771337479379302 0 -0.0011256057872527773 0.00048070550376219168 0 -0.0016004256438657677 0.00054646762224707139 0 -0.0033000083185267472 -0.00023584634388259428 0 -0.0033599541725219321 -0.00029771337479379302 0 -0.0033572777791832501 -0.00017218241031176086 0 2.0430488023541134e-05 0.00087793586701167018 0 -0.00019414481517276321 0.0009652490060426996 0 -5.3176871225443026e-05 0.0011493003409714527 0 -0.00019414481517276321 0.0009652490060426996 0 -0.00010253194915679895 0.00079228849581516208 0 -0.00024370565798691396 0.00073360573905378358 0 -0.00019414481517276321 0.0009652490060426996 0 -0.00024370565798691396 0.00073360573905378358 0 -0.00055788898362157729 0.0009267178129751364 0 -2.9203823432615087e-05 0.00066020059790518305 0 -0.00010253194915679895 0.00079228849581516208 0 -0.00024370565798691396 0.00073360573905378358 0 -0.00045051195874678022 0.00054283716019926933 0 -0.00024370565798691396 0.00073360573905378358 0 -0.00055788898362157729 0.0009267178129751364 0 -0.00045051195874678022 0.00054283716019926933 0 -0.00085365589994391858 0.00063342452291321202 0 -0.00055788898362157729 0.0009267178129751364 0 -0.00085365589994391858 0.00063342452291321202 0 -0.00092185091535208188 0.00092406009551023155 0 -0.00055788898362157729 0.0009267178129751364 0 -0.00092185091535208188 0.00092406009551023155 0 -0.00055788898362157729 0.0009267178129751364 0 -0.00074212127791153254 0.0011827312888204773 0 -0.00019414481517276321 0.0009652490060426996 0 -0.00055788898362157729 0.0009267178129751364 0 -0.00042448740140143903 0.0013142810942887054 0 -0.00062964153604461203 0.00085977212601394133 0 -0.00026444200158413944 0.0014189389226864329 0 -0.00055788898362157729 0.0009267178129751364 0 -0.00055372804409170671 0.0012087593638713883 0 -0.00074212127791153254 0.0011827312888204773 0 -0.00093399749706005891 0.0012930290398065741 0 -0.00074212127791153254 0.0011827312888204773 0 -0.00076019882562605517 0.0013465986110202674 0 -0.00055372804409170671 0.0012087593638713883 0 -0.00074212127791153254 0.0011827312888204773 0 -0.00076019882562605517 0.0013465986110202674 0 -0.00064674521088743794 0.0014093524354982282 0 -0.00051775637807950756 0.0014622905532928508 0 -0.00055372804409170671 0.0012087593638713883 0 -0.0018522796403365302 0.00099528466638677598 0 -0.00026444200158413944 0.0014189389226864329 0 -0.00064674521088743794 0.0014093524354982282 0 -0.00055372804409170671 0.0012087593638713883 0 -0.00076019882562605517 0.0013465986110202674 0 -0.00033977437694692755 0.0016270368202987407 0 -0.00042448740140143903 0.0013142810942887054 0 -0.00026817384624859249 0.0014386957484754685 0 -0.00042448740140143903 0.0013142810942887054 0 -0.00026817384624859249 0.0014386957484754685 0 -0.00020557603009474282 0.0013212289865549649 0 -0.00026817384624859249 0.0014386957484754685 0 -0.00010939944560359047 0.0014863542978110428 0 -0.00020557603009474282 0.0013212289865549649 0 -0.0033706638724378696 -7.9407251473360236e-05 0 -0.0033509572925616549 -0.00010124979231399552 0 -0.0033323728749639642 -0.00013953181810173892 0 -0.0033719713381766001 -7.2657636025632083e-05 0 -0.0034037065340969839 -8.4515617638223511e-05 0 -0.0033509572925616549 -0.00010124979231399552 0 -0.0027016185762177942 0.0003070785259107838 0 -0.00326174962683986 0.00014463663606915 0 -0.00010939944560359047 0.0014863542978110428 0 -5.3176871225443026e-05 0.0011493003409714527 0 -0.00020557603009474282 0.0013212289865549649 0 -0.0032846445940392932 -0.00017895725536081468 0 -0.0033572777791832501 -0.00017218241031176086 0 -0.0033323728749639642 -0.00013953181810173892 0 -0.0027016185762177942 0.0003070785259107838 0 -0.0016004256438657677 0.00054646762224707139 0 -0.0033706638724378696 -7.9407251473360236e-05 0 -0.0033572777791832501 -0.00017218241031176086 0 -0.0033323728749639642 -0.00013953181810173892 0 -0.00019414481517276321 0.0009652490060426996 0 -5.3176871225443026e-05 0.0011493003409714527 0 -0.00020557603009474282 0.0013212289865549649 0 -0.00019414481517276321 0.0009652490060426996 0 -0.00042448740140143903 0.0013142810942887054 0 -0.00020557603009474282 0.0013212289865549649 0 -0.0014956250690436543 4.7922161862759833e-06 0 -0.0012110541235650109 3.2480637614737973e-05 0 -0.001692860020586742 0.00019582336493065861 0 -0.0017258326576798889 0.00020881366172990221 0 -0.0016693291558731143 0.00023033522468546015 0 -0.001692860020586742 0.00019582336493065861 0 -0.0016638587035714514 0.00017970551125929743 0 -0.0016693291558731143 0.00023033522468546015 0 -0.00099998135769889789 -1.2444434000145704e-05 0 -0.0010924602033209581 -1.0284940245733881e-06 0 -0.00091378217621367779 -2.4546452815247929e-05 0 -0.00099998135769889789 -1.2444434000145704e-05 0 -0.001154930998250139 3.2147646045884613e-08 0 -0.00091394184047167266 -2.2548194506110519e-07 0 -0.0013878391351118484 9.2991465979248058e-05 0 -0.0012110541235650109 3.2480637614737973e-05 0 -0.00099998135769889789 -1.2444434000145704e-05 0 -0.00091394184047167266 -2.2548194506110519e-07 0 -0.00092963086471694733 -1.934449543718764e-05 0 -0.00099998135769889789 -1.2444434000145704e-05 0 -0.0010924602033209581 -1.0284940245733881e-06 0 -0.001154930998250139 3.2147646045884613e-08 0 -0.0010924602033209581 -1.0284940245733881e-06 0 -0.001154930998250139 3.2147646045884613e-08 0 -0.0013331178600464069 1.6236043061749296e-06 0 -0.0013878391351118484 9.2991465979248058e-05 0 -0.001490979225244844 4.4848621031589091e-05 0 -0.0016638587035714514 0.00017970551125929743 0 -0.0016928521227225588 0.00017464941185373176 0 -0.001697050840128553 0.00015046453309893923 0 -0.0016638587035714514 0.00017970551125929743 0 -0.001697050840128553 0.00015046453309893923 0 -0.0016794831321992653 0.00013608875091551082 0 -0.001692860020586742 0.00019582336493065861 0 -0.0016638587035714514 0.00017970551125929743 0 -0.0016928521227225588 0.00017464941185373176 0 -0.001692860020586742 0.00019582336493065861 0 -0.0016928521227225588 0.00017464941185373176 0 -0.0017174758082594847 0.00017248516979617923 0 -0.0016928521227225588 0.00017464941185373176 0 -0.0017174758082594847 0.00017248516979617923 0 -0.001697050840128553 0.00015046453309893923 0 -0.0017174758082594847 0.00017248516979617923 0 -0.0017529815318431366 0.00015759079983824835 0 -0.0017339670851075992 0.00012763100912242052 0 -0.0017174758082594847 0.00017248516979617923 0 -0.0017529815318431366 0.00015759079983824835 0 -0.0017258326576798889 0.00020881366172990221 0 -0.0017674261768650973 0.00017507444319766213 0 -0.0017970286276854277 0.00020976140268913962 0 -0.0018080025989392057 0.00016294689656069948 0 -0.0017529815318431366 0.00015759079983824835 0 -0.0017258326576798889 0.00020881366172990221 0 -0.0017774137922309868 0.00018666192404378083 0 -0.0017772578144242665 0.0001830490522077758 0 -0.0016643146106979281 0.00012777125126696952 0 -0.0014956250690436543 4.7922161862759833e-06 0 -0.0016643146106979281 0.00012777125126696952 0 -0.0012267655852825593 -0.00016403635582323765 0 -0.001368626179394932 -9.0102338212825909e-05 0 -0.00142606939214556 -0.00023994897089891666 0 -0.001692860020586742 0.00019582336493065861 0 -0.0017174758082594847 0.00017248516979617923 0 -0.0017258326576798889 0.00020881366172990221 0 -0.0012267655852825593 -0.00016403635582323765 0 -0.001368626179394932 -9.0102338212825909e-05 0 -0.0011998794678731975 -5.3744965758680842e-06 0 -0.001368626179394932 -9.0102338212825909e-05 0 -0.0014035522862147613 6.7019827386113917e-05 0 -0.0011998794678731975 -5.3744965758680842e-06 0 -0.0014035522862147613 6.7019827386113917e-05 0 -0.0011998794678731975 -5.3744965758680842e-06 0 -0.0012759638880472329 0.00013470613609725514 0 -0.0011998794678731975 -5.3744965758680842e-06 0 -0.0010364235230880979 0.00010962697904902476 0 -0.0012759638880472329 0.00013470613609725514 0 -0.0011998794678731975 -5.3744965758680842e-06 0 -0.0010380355332969178 -9.4778253657240469e-05 0 -0.0010364235230880979 0.00010962697904902476 0 -0.0012110541235650109 3.2480637614737973e-05 0 -0.00096719509647077019 5.3272888128592175e-05 0 -0.0012267655852825593 -0.00016403635582323765 0 -0.0011998794678731975 -5.3744965758680842e-06 0 -0.0010380355332969178 -9.4778253657240469e-05 0 -0.00093832715778739077 -6.8381405307414822e-05 0 -0.00088820935056447225 -4.7832617017196896e-05 0 -0.0010364235230880979 0.00010962697904902476 0 -0.00091394184047167266 -2.2548194506110519e-07 0 -0.00088820935056447225 -4.7832617017196896e-05 0 -0.0006738600687747438 3.6650463659822897e-07 0 -0.00091394184047167266 -2.2548194506110519e-07 0 -0.00092963086471694733 -1.934449543718764e-05 0 -0.00088820935056447225 -4.7832617017196896e-05 0 -0.00099998135769889789 -1.2444434000145704e-05 0 -0.00091378217621367779 -2.4546452815247929e-05 0 -0.00092963086471694733 -1.934449543718764e-05 0 -0.0012110541235650109 3.2480637614737973e-05 0 -0.00097172004731720769 4.623663697380831e-05 0 -0.00091378217621367779 -2.4546452815247929e-05 0 -0.00092963086471694733 -1.934449543718764e-05 0 -0.00088820935056447225 -4.7832617017196896e-05 0 -0.00088820935056447225 -4.7832617017196896e-05 0 -0.0006738600687747438 3.6650463659822897e-07 0 -0.0010364235230880979 0.00010962697904902476 0 -0.00067315697954285173 -2.5643241551641484e-08 0 -0.00064012745647833787 0.0001288049637299722 0 -0.0006738600687747438 3.6650463659822897e-07 0 -0.0010364235230880979 0.00010962697904902476 0 -0.00099822182871257175 0.0002897996711121643 0 -0.00067304485952910417 8.9083704350132732e-08 0 -0.00039639463517962109 1.5009132527743201e-08 0 -0.00030115636715491521 2.3709094038648572e-05 0 -0.0010364235230880979 0.00010962697904902476 0 -0.00099822182871257175 0.0002897996711121643 0 -0.0012378058850162086 0.00026803462833166329 0 -0.00099822182871257175 0.0002897996711121643 0 -0.0012140855257631649 0.00040405449696839145 0 -0.0012378058850162086 0.00026803462833166329 0 -0.00039639463517962109 1.5009132527743201e-08 0 -0.00030115636715491521 2.3709094038648572e-05 0 -0.00019112556176093182 -8.1383163816517704e-06 0 -0.00039639463517962109 1.5009132527743201e-08 0 -0.00019112556176093182 -8.1383163816517704e-06 0 -0.00011977938122629814 -4.1522621873254714e-08 0 -0.00019112556176093182 -8.1383163816517704e-06 0 -7.0981150443207984e-05 -2.3203361444699377e-05 0 -0.00011977938122629814 -4.1522621873254714e-08 0 -0.00030115636715491521 2.3709094038648572e-05 0 -0.00019112556176093182 -8.1383163816517704e-06 0 -4.3445309211928396e-05 -1.3665565804749258e-05 0 -0.00064012745647833787 0.0001288049637299722 0 -0.00062908332671059847 0.00019976758682913853 0 -0.00019112556176093182 -8.1383163816517704e-06 0 -4.3445309211928396e-05 -1.3665565804749258e-05 0 -7.0981150443207984e-05 -2.3203361444699377e-05 0 -4.3445309211928396e-05 -1.3665565804749258e-05 0 -7.0981150443207984e-05 -2.3203361444699377e-05 0 -1.2993387943971554e-05 -3.4779176298163182e-05 0 8.8964940399498419e-06 -2.9842220424532451e-05 0 -7.0981150443207984e-05 -2.3203361444699377e-05 0 -1.2993387943971554e-05 -3.4779176298163182e-05 0 8.8964940399498419e-06 -2.9842220424532451e-05 0 -7.0981150443207984e-05 -2.3203361444699377e-05 0 -0.00011977938122629814 -4.1522621873254714e-08 0 -0.0013551090081363156 0.0004535309251335376 0 -0.0013651007414801231 0.00036295920484437079 0 -0.0014585809329669905 0.0004028564066548548 0 -0.0006797441789689907 0.0001251302120266738 0 -0.00062908332671059847 0.00019976758682913853 0 -0.0013551090081363156 0.0004535309251335376 0 -0.0012140855257631649 0.00040405449696839145 0 -0.0013651007414801231 0.00036295920484437079 0 2.2707112668288817e-05 -5.1916461922158302e-05 0 -4.3445309211928396e-05 -1.3665565804749258e-05 0 -1.2993387943971554e-05 -3.4779176298163182e-05 0 -0.0012140855257631649 0.00040405449696839145 0 -0.0013651007414801231 0.00036295920484437079 0 -0.0012378058850162086 0.00026803462833166329 0 -0.0013651007414801231 0.00036295920484437079 0 -0.001490042295005775 0.00032377957141494949 0 -0.0014585809329669905 0.0004028564066548548 0 -0.0013651007414801231 0.00036295920484437079 0 -0.0014296090592739513 0.00023241441084545001 0 -0.001490042295005775 0.00032377957141494949 0 -0.0013651007414801231 0.00036295920484437079 0 -0.0012378058850162086 0.00026803462833166329 0 -0.0014296090592739513 0.00023241441084545001 0 -0.0010364235230880979 0.00010962697904902476 0 -0.0012378058850162086 0.00026803462833166329 0 -0.0012759638880472329 0.00013470613609725514 0 -0.0012378058850162086 0.00026803462833166329 0 -0.0012759638880472329 0.00013470613609725514 0 -0.0014296090592739513 0.00023241441084545001 0 -0.0014035522862147613 6.7019827386113917e-05 0 -0.0012759638880472329 0.00013470613609725514 0 -0.0014296090592739513 0.00023241441084545001 0 -0.0014296090592739513 0.00023241441084545001 0 -0.0015972834620500548 0.00025750084878073664 0 -0.001558249516743461 0.0001420985077483237 0 -0.0015972834620500548 0.00025750084878073664 0 -0.0017308731891351938 0.00022650778975719907 0 -0.001558249516743461 0.0001420985077483237 0 -0.0015972834620500548 0.00025750084878073664 0 -0.001490042295005775 0.00032377957141494949 0 -0.0015868473055024104 0.00032836827858445092 0 -0.0014296090592739513 0.00023241441084545001 0 -0.0015972834620500548 0.00025750084878073664 0 -0.001490042295005775 0.00032377957141494949 0 -0.001490042295005775 0.00032377957141494949 0 -0.0015868473055024104 0.00032836827858445092 0 -0.0014585809329669905 0.0004028564066548548 0 -0.0015814524118178189 0.00036965959868018653 0 -0.0015868473055024104 0.00032836827858445092 0 -0.0014585809329669905 0.0004028564066548548 0 -0.0016095342609932727 0.00034911332237594778 0 -0.0016295061089022244 0.00034354500753888787 0 -0.0016375966836026184 0.00034405597904421431 0 -0.0015814524118178189 0.00036965959868018653 0 -0.0015868473055024104 0.00032836827858445092 0 -0.0016295061089022244 0.00034354500753888787 0 -0.0015814524118178189 0.00036965959868018653 0 -0.0016095342609932727 0.00034911332237594778 0 -0.0016295061089022244 0.00034354500753888787 0 -0.0015868473055024104 0.00032836827858445092 0 -0.0016295061089022244 0.00034354500753888787 0 -0.0017255057684852102 0.00029123984257522112 0 -0.0016295061089022244 0.00034354500753888787 0 -0.0017255057684852102 0.00029123984257522112 0 -0.0016375966836026184 0.00034405597904421431 0 -0.0015972834620500548 0.00025750084878073664 0 -0.0017255057684852102 0.00029123984257522112 0 -0.0017308731891351938 0.00022650778975719907 0 -0.0017147714138320141 0.00029050070119340625 0 -0.0016674013991199129 0.00030141969425572803 0 -0.0015972834620500548 0.00025750084878073664 0 -0.0015868473055024104 0.00032836827858445092 0 -0.0017255057684852102 0.00029123984257522112 0 -0.0017255057684852102 0.00029123984257522112 0 -0.0017656806250095454 0.00028545679716945649 0 -0.0017308731891351938 0.00022650778975719907 0 -0.0017656806250095454 0.00028545679716945649 0 -0.0017778293128675627 0.00030562817981900935 0 -0.001822785918106679 0.00033759809075041905 0 -0.0017778293128675627 0.00030562817981900935 0 -0.0018050746717141041 0.00033066847754775888 0 -0.001822785918106679 0.00033759809075041905 0 -0.0017778293128675627 0.00030562817981900935 0 -0.001811583479985511 0.00031087869622557399 0 -0.0018050746717141041 0.00033066847754775888 0 -0.0017778293128675627 0.00030562817981900935 0 -0.0017308731891351938 0.00022650778975719907 0 -0.001811583479985511 0.00031087869622557399 0 -0.0017656806250095454 0.00028545679716945649 0 -0.0017778293128675627 0.00030562817981900935 0 -0.0017308731891351938 0.00022650778975719907 0 -0.0017369994621802807 0.00022378643142198488 0 -0.0016803435800469199 0.00011262927453433452 0 -0.0017308731891351938 0.00022650778975719907 0 -0.001558249516743461 0.0001420985077483237 0 -0.0015831998564052512 -4.8917613604825024e-05 0 -0.0014035522862147613 6.7019827386113917e-05 0 -0.001558249516743461 0.0001420985077483237 0 -0.0015831998564052512 -4.8917613604825024e-05 0 -0.0014035522862147613 6.7019827386113917e-05 0 -0.0014296090592739513 0.00023241441084545001 0 -0.001558249516743461 0.0001420985077483237 0 -0.001368626179394932 -9.0102338212825909e-05 0 -0.0014035522862147613 6.7019827386113917e-05 0 -0.0015831998564052512 -4.8917613604825024e-05 0 -0.001811583479985511 0.00031087869622557399 0 -0.0018024985260148103 0.00031910486271261945 0 -0.0018050746717141041 0.00033066847754775888 0 -0.001811583479985511 0.00031087869622557399 0 -0.0018087931052356689 0.00031484662928632008 0 -0.0018024985260148103 0.00031910486271261945 0 -0.001368626179394932 -9.0102338212825909e-05 0 -0.0015831998564052512 -4.8917613604825024e-05 0 -0.00142606939214556 -0.00023994897089891666 0 -0.0016803435800469199 0.00011262927453433452 0 -0.0016643146106979281 0.00012777125126696952 0 -0.0017970286276854277 0.00020976140268913962 0 -0.001845330756989224 0.00019252806889637908 0 -0.0018080025989392057 0.00016294689656069948 0 -0.0016643146106979281 0.00012777125126696952 0 -0.0018439413528252343 0.00026244663086084848 0 -0.0018439413528252343 0.00026244663086084848 0 -0.0018503696069121825 0.00024443436538232685 0 -0.0018024985260148103 0.00031910486271261945 0 -0.0018050746717141041 0.00033066847754775888 0 -0.001810216150365056 0.00029965290146970083 0 -0.0018714185278289265 0.00035017665445131427 0 -0.0018050746717141041 0.00033066847754775888 0 -0.001810216150365056 0.00029965290146970083 0 -0.0018714185278289265 0.00035017665445131427 0 -0.0018050746717141041 0.00033066847754775888 0 -0.001822785918106679 0.00033759809075041905 0 -0.0018783209940973502 0.00038177698156030603 0 -0.0018993264466577867 0.00037070725782926327 0 -0.0018219398686998792 0.00034385581071486135 0 -0.0018783209940973502 0.00038177698156030603 0 -0.0018993264466577867 0.00037070725782926327 0 -0.0020261954547670775 0.00039361673814419004 0 -0.0018714185278289265 0.00035017665445131427 0 -0.0018993264466577867 0.00037070725782926327 0 -0.001822785918106679 0.00033759809075041905 0 -0.0018714185278289265 0.00035017665445131427 0 -0.0020261954547670775 0.00039361673814419004 0 -0.0019200813107618994 0.00023001662189973309 0 -0.0018714185278289265 0.00035017665445131427 0 -0.0018993264466577867 0.00037070725782926327 0 -0.0020261954547670775 0.00039361673814419004 0 -0.0018783209940973502 0.00038177698156030603 0 -0.0020261954547670775 0.00039361673814419004 0 -0.0019282741094243966 0.00048198458941005508 0 -0.0018079382045370356 0.00042701945280496892 0 -0.0016939585668269612 0.00048347991478536392 0 -0.0017890519574285336 0.00056830005249377917 0 -0.0019282741094243966 0.00048198458941005508 0 -0.0018079382045370356 0.00042701945280496892 0 -0.0017890519574285336 0.00056830005249377917 0 -0.0018079382045370356 0.00042701945280496892 0 -0.00171866449356757 0.0003869674444943324 0 -0.0016939585668269612 0.00048347991478536392 0 -0.0018783209940973502 0.00038177698156030603 0 -0.0018079382045370356 0.00042701945280496892 0 -0.0017769712262539748 0.00034433008321038564 0 -0.0018783209940973502 0.00038177698156030603 0 -0.0019282741094243966 0.00048198458941005508 0 -0.0018079382045370356 0.00042701945280496892 0 -0.0018079382045370356 0.00042701945280496892 0 -0.0017769712262539748 0.00034433008321038564 0 -0.00171866449356757 0.0003869674444943324 0 -0.0017769712262539748 0.00034433008321038564 0 -0.00171866449356757 0.0003869674444943324 0 -0.0016644354751193607 0.00033122209641251132 0 -0.0017769712262539748 0.00034433008321038564 0 -0.0016644354751193607 0.00033122209641251132 0 -0.0017086401308031634 0.00030843955488029333 0 -0.0017769712262539748 0.00034433008321038564 0 -0.0017721529963533576 0.00030917869245531809 0 -0.0017086401308031634 0.00030843955488029333 0 -0.0017769712262539748 0.00034433008321038564 0 -0.0018219398686998792 0.00034385581071486135 0 -0.0017721529963533576 0.00030917869245531809 0 -0.0018783209940973502 0.00038177698156030603 0 -0.0017769712262539748 0.00034433008321038564 0 -0.0018219398686998792 0.00034385581071486135 0 -0.0018993264466577867 0.00037070725782926327 0 -0.0018219398686998792 0.00034385581071486135 0 -0.001822785918106679 0.00033759809075041905 0 -0.0018219398686998792 0.00034385581071486135 0 -0.001822785918106679 0.00033759809075041905 0 -0.0017721529963533576 0.00030917869245531809 0 -0.0017656806250095454 0.00028545679716945649 0 -0.001822785918106679 0.00033759809075041905 0 -0.0017721529963533576 0.00030917869245531809 0 -0.0017255057684852102 0.00029123984257522112 0 -0.0017656806250095454 0.00028545679716945649 0 -0.0017721529963533576 0.00030917869245531809 0 -0.0017255057684852102 0.00029123984257522112 0 -0.0017721529963533576 0.00030917869245531809 0 -0.0017106025142789591 0.00029080733986746416 0 -0.0017721529963533576 0.00030917869245531809 0 -0.0017106025142789591 0.00029080733986746416 0 -0.0017086401308031634 0.00030843955488029333 0 -0.0017255057684852102 0.00029123984257522112 0 -0.0017106025142789591 0.00029080733986746416 0 -0.0016951408862117103 0.00026554435174724374 0 -0.0017106025142789591 0.00029080733986746416 0 -0.0016951408862117103 0.00026554435174724374 0 -0.0016506477041296421 0.00025625382677110878 0 -0.0015795764842610053 0.00033115885889935449 0 -0.0016095342609932727 0.00034911332237594778 0 -0.0016375966836026184 0.00034405597904421431 0 -0.0016108763438762396 0.0002842864909387324 0 -0.0016674013991199129 0.00030141969425572803 0 -0.001637448774337018 0.00023517611157104429 0 -0.0016951408862117103 0.00026554435174724374 0 -0.0016506477041296421 0.00025625382677110878 0 -0.001546634417702592 0.00022585584292885821 0 -0.0015989649671230314 0.00023903403385830527 0 -0.0015914487298727918 0.00025182692475532112 0 -0.0016095642844194164 0.0002325249982581901 0 -0.0016506477041296421 0.00025625382677110878 0 -0.0015989649671230314 0.00023903403385830527 0 -0.0016506477041296421 0.00025625382677110878 0 -0.0015989649671230314 0.00023903403385830527 0 -0.0015914487298727918 0.00025182692475532112 0 -0.0016506477041296421 0.00025625382677110878 0 -0.0015914487298727918 0.00025182692475532112 0 -0.0016614687245599916 0.00027679559895319741 0 -0.0017106025142789591 0.00029080733986746416 0 -0.0016506477041296421 0.00025625382677110878 0 -0.0016614687245599916 0.00027679559895319741 0 -0.0015914487298727918 0.00025182692475532112 0 -0.0016258309343694639 0.00027921582797808993 0 -0.0016614687245599916 0.00027679559895319741 0 -0.0016258309343694639 0.00027921582797808993 0 -0.0016614687245599916 0.00027679559895319741 0 -0.0017086401308031634 0.00030843955488029333 0 -0.0017106025142789591 0.00029080733986746416 0 -0.0016614687245599916 0.00027679559895319741 0 -0.0017086401308031634 0.00030843955488029333 0 -0.0016644354751193607 0.00033122209641251132 0 -0.0016258309343694639 0.00027921582797808993 0 -0.0017086401308031634 0.00030843955488029333 0 -0.0016644354751193607 0.00033122209641251132 0 -0.0016258309343694639 0.00027921582797808993 0 -0.0015814373114499309 0.00029522538347029776 0 -0.0016644354751193607 0.00033122209641251132 0 -0.0015814373114499309 0.00029522538347029776 0 -0.0015873430028350802 0.000342233895665399 0 -0.0015814373114499309 0.00029522538347029776 0 -0.001533326619644492 0.00031548802819481372 0 -0.0015873430028350802 0.000342233895665399 0 -0.0015814373114499309 0.00029522538347029776 0 -0.001533326619644492 0.00031548802819481372 0 -0.001510411197057065 0.00026535202991764123 0 -0.0015814373114499309 0.00029522538347029776 0 -0.001510411197057065 0.00026535202991764123 0 -0.0015551557506118716 0.00025782377726192091 0 -0.0016258309343694639 0.00027921582797808993 0 -0.0015814373114499309 0.00029522538347029776 0 -0.0015551557506118716 0.00025782377726192091 0 -0.0015914487298727918 0.00025182692475532112 0 -0.0016258309343694639 0.00027921582797808993 0 -0.0015551557506118716 0.00025782377726192091 0 -0.0015914487298727918 0.00025182692475532112 0 -0.0015551557506118716 0.00025782377726192091 0 -0.0015303333292476845 0.00023386080155897267 0 -0.001510411197057065 0.00026535202991764123 0 -0.0015551557506118716 0.00025782377726192091 0 -0.0014899975529961914 0.00023696466595353135 0 -0.0014714192910008264 0.00020586637627261604 0 -0.0015303333292476845 0.00023386080155897267 0 -0.0014899975529961914 0.00023696466595353135 0 -0.0015551557506118716 0.00025782377726192091 0 -0.0015303333292476845 0.00023386080155897267 0 -0.0014899975529961914 0.00023696466595353135 0 -0.001546634417702592 0.00022585584292885821 0 -0.0015914487298727918 0.00025182692475532112 0 -0.0015303333292476845 0.00023386080155897267 0 -0.0013814706695082619 0.00021673402094229364 0 -0.0014412575513331992 0.00021693511871331535 0 -0.0013872848364766871 0.00024687954585940816 0 -0.0013822651026935734 0.00019792654725993826 0 -0.0013814706695082619 0.00021673402094229364 0 -0.0014412575513331992 0.00021693511871331535 0 -0.0014397401953627563 0.00021543258366455887 0 -0.0014134786861000905 0.00024567977759756268 0 -0.0014412575513331992 0.00021693511871331535 0 -0.0014899975529961914 0.00023696466595353135 0 -0.0014395698230175095 0.00024627711826637904 0 -0.0014714192910008264 0.00020586637627261604 0 -0.0014412575513331992 0.00021693511871331535 0 -0.0014899975529961914 0.00023696466595353135 0 -0.001510411197057065 0.00026535202991764123 0 -0.0014899975529961914 0.00023696466595353135 0 -0.0014395698230175095 0.00024627711826637904 0 -0.0013486538889723081 0.00022121495642928507 0 -0.0013814706695082619 0.00021673402094229364 0 -0.0013872848364766871 0.00024687954585940816 0 -0.0013679136534519428 0.00029692396789793193 0 -0.0014134786861000905 0.00024567977759756268 0 -0.0013950793789981209 0.00028645586891767465 0 -0.0014395698230175095 0.00024627711826637904 0 -0.0014673416642697569 0.00028636551254003576 0 -0.001510411197057065 0.00026535202991764123 0 -0.0014395698230175095 0.00024627711826637904 0 -0.0014673416642697569 0.00028636551254003576 0 -0.001533326619644492 0.00031548802819481372 0 -0.001510411197057065 0.00026535202991764123 0 -0.0014673416642697569 0.00028636551254003576 0 -0.001533326619644492 0.00031548802819481372 0 -0.0014673416642697569 0.00028636551254003576 0 -0.0014545620736115706 0.0003345566385338121 0 -0.0013950793789981209 0.00028645586891767465 0 -0.0014673416642697569 0.00028636551254003576 0 -0.0014545620736115706 0.0003345566385338121 0 -0.0013255370971538304 0.00035851231680266246 0 -0.0014545620736115706 0.0003345566385338121 0 -0.0014517857131769194 0.00042337290794688156 0 -0.0014517857131769194 0.00042337290794688156 0 -0.0015285565436274479 0.0004554316734406463 0 -0.0015317679291670539 0.00037636487277364498 0 -0.0014545620736115706 0.0003345566385338121 0 -0.0014517857131769194 0.00042337290794688156 0 -0.0015317679291670539 0.00037636487277364498 0 -0.001533326619644492 0.00031548802819481372 0 -0.0014545620736115706 0.0003345566385338121 0 -0.0015317679291670539 0.00037636487277364498 0 -0.0015317679291670539 0.00037636487277364498 0 -0.0015873430028350802 0.000342233895665399 0 -0.0016204870962192341 0.00040805713931023503 0 -0.001533326619644492 0.00031548802819481372 0 -0.0015317679291670539 0.00037636487277364498 0 -0.0015873430028350802 0.000342233895665399 0 -0.0016644354751193607 0.00033122209641251132 0 -0.0015873430028350802 0.000342233895665399 0 -0.0016204870962192341 0.00040805713931023503 0 -0.00171866449356757 0.0003869674444943324 0 -0.0016644354751193607 0.00033122209641251132 0 -0.0016204870962192341 0.00040805713931023503 0 -0.0015285565436274479 0.0004554316734406463 0 -0.0015317679291670539 0.00037636487277364498 0 -0.0016204870962192341 0.00040805713931023503 0 -0.0016204870962192341 0.00040805713931023503 0 -0.0016939585668269612 0.00048347991478536392 0 -0.0015735112059550079 0.00053441752983714077 0 -0.0015285565436274479 0.0004554316734406463 0 -0.0016204870962192341 0.00040805713931023503 0 -0.0015735112059550079 0.00053441752983714077 0 -0.00171866449356757 0.0003869674444943324 0 -0.0016204870962192341 0.00040805713931023503 0 -0.0016939585668269612 0.00048347991478536392 0 -0.0016939585668269612 0.00048347991478536392 0 -0.0016453021410452763 0.0006359738567381911 0 -0.0017890519574285336 0.00056830005249377917 0 -0.0016939585668269612 0.00048347991478536392 0 -0.0015735112059550079 0.00053441752983714077 0 -0.0016453021410452763 0.0006359738567381911 0 -0.0015735112059550079 0.00053441752983714077 0 -0.0014341066161261808 0.00056674593336660699 0 -0.0015182806917607939 0.00068757665153486378 0 -0.0013511693019850398 0.00048101227569055324 0 -0.0014517857131769194 0.00042337290794688156 0 -0.0014341066161261808 0.00056674593336660699 0 -0.0015285565436274479 0.0004554316734406463 0 -0.0015735112059550079 0.00053441752983714077 0 -0.0014341066161261808 0.00056674593336660699 0 -0.0014517857131769194 0.00042337290794688156 0 -0.0015285565436274479 0.0004554316734406463 0 -0.0014341066161261808 0.00056674593336660699 0 -0.0014610972731145247 0.00078518406928637392 0 -0.0015182806917607939 0.00068757665153486378 0 -0.0015272426711974148 0.00083829180746919428 0 -0.0014610972731145247 0.00078518406928637392 0 -0.00142385205005682 0.00071710015170658851 0 -0.0015182806917607939 0.00068757665153486378 0 -0.0015182806917607939 0.00068757665153486378 0 -0.0016160010472368246 0.00077005604001278494 0 -0.0015272426711974148 0.00083829180746919428 0 -0.0014610972731145247 0.00078518406928637392 0 -0.0013910015473476065 0.0007974558851907964 0 -0.0014563860794658287 0.00087063699890865983 0 -0.0014610972731145247 0.00078518406928637392 0 -0.0013910015473476065 0.0007974558851907964 0 -0.00142385205005682 0.00071710015170658851 0 -0.0013285737026931127 0.00068885082881678069 0 -0.0014341066161261808 0.00056674593336660699 0 -0.00142385205005682 0.00071710015170658851 0 -0.0014341066161261808 0.00056674593336660699 0 -0.00142385205005682 0.00071710015170658851 0 -0.0015182806917607939 0.00068757665153486378 0 -0.0015182806917607939 0.00068757665153486378 0 -0.0016453021410452763 0.0006359738567381911 0 -0.0016160010472368246 0.00077005604001278494 0 -0.0015735112059550079 0.00053441752983714077 0 -0.0015182806917607939 0.00068757665153486378 0 -0.0016453021410452763 0.0006359738567381911 0 -0.0016453021410452763 0.0006359738567381911 0 -0.0017723544074295758 0.00077813229045371908 0 -0.0017890519574285336 0.00056830005249377917 0 -0.0017723544074295758 0.00077813229045371908 0 -0.0016160010472368246 0.00077005604001278494 0 -0.0016395751859173855 0.00092646371514810684 0 -0.0016453021410452763 0.0006359738567381911 0 -0.0017723544074295758 0.00077813229045371908 0 -0.0016160010472368246 0.00077005604001278494 0 -0.0016395751859173855 0.00092646371514810684 0 -0.0015228287753335725 0.00094660333204187746 0 -0.0015272426711974148 0.00083829180746919428 0 -0.0016160010472368246 0.00077005604001278494 0 -0.0016395751859173855 0.00092646371514810684 0 -0.0015272426711974148 0.00083829180746919428 0 -0.0017723544074295758 0.00077813229045371908 0 -0.0016395751859173855 0.00092646371514810684 0 -0.001886305409848394 0.0010594188945645961 0 -0.0025143152006269274 0.0010068763320064001 0 -0.002441522661698559 0.0010308466524846561 0 -0.0016395751859173855 0.00092646371514810684 0 -0.0016688575281595965 0.0010715832635578354 0 -0.001886305409848394 0.0010594188945645961 0 -0.0016395751859173855 0.00092646371514810684 0 -0.0015524690293013952 0.0010303538367958788 0 -0.0015228287753335725 0.00094660333204187746 0 -0.0016688575281595965 0.0010715832635578354 0 -0.0015524690293013952 0.0010303538367958788 0 -0.00148233429667515 0.0011218793791810619 0 -0.0016395751859173855 0.00092646371514810684 0 -0.0016688575281595965 0.0010715832635578354 0 -0.0015524690293013952 0.0010303538367958788 0 -0.0015524690293013952 0.0010303538367958788 0 -0.0014688551015056765 0.0010071664532127209 0 -0.00148233429667515 0.0011218793791810619 0 -0.0015524690293013952 0.0010303538367958788 0 -0.0014688551015056765 0.0010071664532127209 0 -0.0015228287753335725 0.00094660333204187746 0 -0.0015228287753335725 0.00094660333204187746 0 -0.0015272426711974148 0.00083829180746919428 0 -0.0014401785490436741 0.00091578610766711874 0 -0.0014688551015056765 0.0010071664532127209 0 -0.0015228287753335725 0.00094660333204187746 0 -0.0014401785490436741 0.00091578610766711874 0 -0.0014610972731145247 0.00078518406928637392 0 -0.0015272426711974148 0.00083829180746919428 0 -0.0014563860794658287 0.00087063699890865983 0 -0.0015350860148048168 0.00083593871505930316 0 -0.0014057815303030977 0.00093398387027469995 0 -0.0013910015473476065 0.0007974558851907964 0 -0.0014563860794658287 0.00087063699890865983 0 -0.0013886111774738879 0.00091431502417852731 0 -0.0014057815303030977 0.00093398387027469995 0 -0.0018884126725026201 0.0010322864259924901 0 -0.0018884126725026201 0.0010322864259924901 0 -0.0026610070543811675 0.00083185354806125135 0 -0.0014688551015056765 0.0010071664532127209 0 -0.0014401785490436741 0.00091578610766711874 0 -0.001357527166363986 0.00097635565577989527 0 -0.0014688551015056765 0.0010071664532127209 0 -0.001357527166363986 0.00097635565577989527 0 -0.00148233429667515 0.0011218793791810619 0 -0.0026516062107331605 0.00094697125912043378 0 -0.0026434481517214536 0.001001066276459444 0 -0.0025868652099284174 0.00092631351601593745 0 -0.0039111903612698241 0.00060618975099795082 0 -0.0037190606704673272 0.00074025579656006443 0 -0.0037989348160804978 0.00061696002905223442 0 -0.0026679466247693994 0.00089854497232602951 0 -0.0026516062107331605 0.00094697125912043378 0 -0.0025868652099284174 0.00092631351601593745 0 -0.0033796913793312307 0.00073776082635021477 0 -0.0026610070543811675 0.00083185354806125135 0 -0.0037190606704673272 0.00074025579656006443 0 -0.0037221557650355089 0.00064752157951405152 0 -0.0037989348160804978 0.00061696002905223442 0 -0.0033929370671982413 0.00090661760665469813 0 -0.0037231910156831005 0.00075006127001705353 0 -0.0037017826718879427 0.00072323794685431365 0 -0.0037190606704673272 0.00074025579656006443 0 -0.0037017826718879427 0.00072323794685431365 0 -0.0037221557650355089 0.00064752157951405152 0 -0.0026610070543811675 0.00083185354806125135 0 -0.002816968210415426 0.00091176827712955734 0 -0.0037017826718879427 0.00072323794685431365 0 -0.0036732673752907677 0.00065262083256680176 0 -0.0037221557650355089 0.00064752157951405152 0 -0.0037017826718879427 0.00072323794685431365 0 -0.0036732673752907677 0.00065262083256680176 0 -0.003580520553824444 0.00066349878957088393 0 -0.0036732673752907677 0.00065262083256680176 0 -0.0036868412104363491 0.00057880923930663452 0 -0.003580520553824444 0.00066349878957088393 0 -0.0037221557650355089 0.00064752157951405152 0 -0.0036868412104363491 0.00057880923930663452 0 -0.0037596459305373016 0.00056892592317075031 0 -0.0036732673752907677 0.00065262083256680176 0 -0.0037221557650355089 0.00064752157951405152 0 -0.0036868412104363491 0.00057880923930663452 0 -0.0036868412104363491 0.00057880923930663452 0 -0.0037596459305373016 0.00056892592317075031 0 -0.0037571293377399767 0.00050170659150784995 0 -0.0036890710069687289 0.00050956846730308778 0 -0.0036868412104363491 0.00057880923930663452 0 -0.0037571293377399767 0.00050170659150784995 0 -0.0036868412104363491 0.00057880923930663452 0 -0.0036042697638261371 0.00052368204719330073 0 -0.003580520553824444 0.00066349878957088393 0 -0.0036890710069687289 0.00050956846730308778 0 -0.0036868412104363491 0.00057880923930663452 0 -0.0036042697638261371 0.00052368204719330073 0 -0.0039111903612698241 0.00060618975099795082 0 -0.0037989348160804978 0.00061696002905223442 0 -0.0038289235062329841 0.00050844469661983033 0 -0.0037221557650355089 0.00064752157951405152 0 -0.0037989348160804978 0.00061696002905223442 0 -0.0037596459305373016 0.00056892592317075031 0 -0.0037989348160804978 0.00061696002905223442 0 -0.0037596459305373016 0.00056892592317075031 0 -0.0038289235062329841 0.00050844469661983033 0 -0.0037596459305373016 0.00056892592317075031 0 -0.0038289235062329841 0.00050844469661983033 0 -0.0037571293377399767 0.00050170659150784995 0 -0.0039318454763443735 0.00046412032603443154 0 -0.0038289235062329841 0.00050844469661983033 0 -0.003852720037333046 0.00039961595842321002 0 -0.0037752349019154483 0.00042630744099429442 0 -0.0037341022494242868 0.00033343244184107451 0 -0.0038013940644307017 0.00035579427591947259 0 -0.003852720037333046 0.00039961595842321002 0 -0.0037752349019154483 0.00042630744099429442 0 -0.0038013940644307017 0.00035579427591947259 0 -0.0038289235062329841 0.00050844469661983033 0 -0.003852720037333046 0.00039961595842321002 0 -0.0037752349019154483 0.00042630744099429442 0 -0.0038289235062329841 0.00050844469661983033 0 -0.0037752349019154483 0.00042630744099429442 0 -0.0037571293377399767 0.00050170659150784995 0 -0.0036042697638261371 0.00052368204719330073 0 -0.0036906714628999922 0.00043796867369344506 0 -0.0035282860785251806 0.00043739746354889297 0 -0.0037752349019154483 0.00042630744099429442 0 -0.0037571293377399767 0.00050170659150784995 0 -0.0036906714628999922 0.00043796867369344506 0 -0.0036890710069687289 0.00050956846730308778 0 -0.0037571293377399767 0.00050170659150784995 0 -0.0036906714628999922 0.00043796867369344506 0 -0.0036906714628999922 0.00043796867369344506 0 -0.0036390956652386564 0.00031809074301726424 0 -0.0035282860785251806 0.00043739746354889297 0 -0.0036890710069687289 0.00050956846730308778 0 -0.0036042697638261371 0.00052368204719330073 0 -0.0036906714628999922 0.00043796867369344506 0 -0.0037752349019154483 0.00042630744099429442 0 -0.0036906714628999922 0.00043796867369344506 0 -0.0037341022494242868 0.00033343244184107451 0 -0.0037341022494242868 0.00033343244184107451 0 -0.0036390956652386564 0.00031809074301726424 0 -0.0037130608909943744 0.00024952718685150252 0 -0.0036906714628999922 0.00043796867369344506 0 -0.0037341022494242868 0.00033343244184107451 0 -0.0036390956652386564 0.00031809074301726424 0 -0.0036390956652386564 0.00031809074301726424 0 -0.0037130608909943744 0.00024952718685150252 0 -0.0036538672289249119 0.00018383197236707501 0 -0.0037341022494242868 0.00033343244184107451 0 -0.0037130608909943744 0.00024952718685150252 0 -0.0037817729245613863 0.00025822757266045463 0 -0.0037817729245613863 0.00025822757266045463 0 -0.0038552657230936545 0.00028877345829468452 0 -0.0038013940644307017 0.00035579427591947259 0 -0.0037817729245613863 0.00025822757266045463 0 -0.0038552657230936545 0.00028877345829468452 0 -0.0038318650774758702 0.00023707196212597039 0 -0.0038552657230936545 0.00028877345829468452 0 -0.003887480333221349 0.00021620727150320401 0 -0.0039301560039691086 0.00025477424322106144 0 -0.003852720037333046 0.00039961595842321002 0 -0.0038552657230936545 0.00028877345829468452 0 -0.0038013940644307017 0.00035579427591947259 0 -0.0039140564338322418 0.0003591731164779949 0 -0.003852720037333046 0.00039961595842321002 0 -0.0038552657230936545 0.00028877345829468452 0 -0.0037341022494242868 0.00033343244184107451 0 -0.0037817729245613863 0.00025822757266045463 0 -0.0038013940644307017 0.00035579427591947259 0 -0.0033551760105335103 0.00027910400742281883 0 -0.0035074910253958484 0.00029768822403286458 0 -0.0032671378636738016 0.00046005959997210143 0 -0.0033551760105335103 0.00027910400742281883 0 -0.0035074910253958484 0.00029768822403286458 0 -0.0035298382516634917 0.00017740599361355184 0 -0.0036390956652386564 0.00031809074301726424 0 -0.0035074910253958484 0.00029768822403286458 0 -0.0036538672289249119 0.00018383197236707501 0 -0.0036390956652386564 0.00031809074301726424 0 -0.0035074910253958484 0.00029768822403286458 0 -0.0035282860785251806 0.00043739746354889297 0 -0.0035074910253958484 0.00029768822403286458 0 -0.0035282860785251806 0.00043739746354889297 0 -0.0032671378636738016 0.00046005959997210143 0 -0.0035282860785251806 0.00043739746354889297 0 -0.0032671378636738016 0.00046005959997210143 0 -0.0034202966190319713 0.00061017604826539248 0 -0.0032671378636738016 0.00046005959997210143 0 -0.0034202966190319713 0.00061017604826539248 0 -0.0031145237761572827 0.00071218348999344103 0 -0.0036042697638261371 0.00052368204719330073 0 -0.0035282860785251806 0.00043739746354889297 0 -0.0034202966190319713 0.00061017604826539248 0 -0.0036042697638261371 0.00052368204719330073 0 -0.0034202966190319713 0.00061017604826539248 0 -0.003580520553824444 0.00066349878957088393 0 -0.0033929370671982413 0.00090661760665469813 0 -0.0034202966190319713 0.00061017604826539248 0 -0.003580520553824444 0.00066349878957088393 0 -0.0025143152006269274 0.0010068763320064001 0 -0.0026610070543811675 0.00083185354806125135 0 -0.0033929370671982413 0.00090661760665469813 0 -0.0037017826718879427 0.00072323794685431365 0 -0.003580520553824444 0.00066349878957088393 0 -0.0033929370671982413 0.00090661760665469813 0 -0.0034202966190319713 0.00061017604826539248 0 -0.0031145237761572827 0.00071218348999344103 0 -0.0031145237761572827 0.00071218348999344103 0 -0.0027284772769579323 0.00073888715338901647 0 -0.0029689490099446244 0.0010257928095098088 0 -0.0031145237761572827 0.00071218348999344103 0 -0.0029282994139020178 0.00047983821619111791 0 -0.0027284772769579323 0.00073888715338901647 0 -0.0032671378636738016 0.00046005959997210143 0 -0.0031145237761572827 0.00071218348999344103 0 -0.0029282994139020178 0.00047983821619111791 0 -0.0032671378636738016 0.00046005959997210143 0 -0.0029282994139020178 0.00047983821619111791 0 -0.0031732735367775594 0.00024634475914081473 0 -0.0029282994139020178 0.00047983821619111791 0 -0.0031732735367775594 0.00024634475914081473 0 -0.0029071263919933196 0.00018744320836243007 0 -0.0033551760105335103 0.00027910400742281883 0 -0.0032671378636738016 0.00046005959997210143 0 -0.0031732735367775594 0.00024634475914081473 0 -0.0025452624377192241 0.00027539878065456128 0 -0.0027090263526087697 0.00035717061977236708 0 -0.0026906311337202529 4.2554185673688385e-05 0 -0.0029282994139020178 0.00047983821619111791 0 -0.0027090263526087697 0.00035717061977236708 0 -0.0029071263919933196 0.00018744320836243007 0 -0.0029282994139020178 0.00047983821619111791 0 -0.0027090263526087697 0.00035717061977236708 0 -0.0026364042304331012 0.0005748203675855323 0 -0.0027090263526087697 0.00035717061977236708 0 -0.0026364042304331012 0.0005748203675855323 0 -0.0024140039569868835 0.000499089364663666 0 -0.0025452624377192241 0.00027539878065456128 0 -0.0027090263526087697 0.00035717061977236708 0 -0.0024140039569868835 0.000499089364663666 0 -0.0026364042304331012 0.0005748203675855323 0 -0.0024218070093130228 0.00077212004544766359 0 -0.0024140039569868835 0.000499089364663666 0 -0.0029282994139020178 0.00047983821619111791 0 -0.0026364042304331012 0.0005748203675855323 0 -0.0027284772769579323 0.00073888715338901647 0 -0.0026364042304331012 0.0005748203675855323 0 -0.0027284772769579323 0.00073888715338901647 0 -0.0024218070093130228 0.00077212004544766359 0 -0.0027284772769579323 0.00073888715338901647 0 -0.0024218070093130228 0.00077212004544766359 0 -0.0025334067887740324 0.00090902940329666841 0 -0.0024218070093130228 0.00077212004544766359 0 -0.0024203997106889918 0.00097514799714585817 0 -0.0025334067887740324 0.00090902940329666841 0 -0.0025366938588957579 0.00029543762156955473 0 -0.002556270167909421 0.00041579744013824679 0 -0.0025095612411249013 0.00030956001062829995 0 -0.0025063728112750079 0.00055938236773117492 0 -0.0023577880798153756 0.00059424082096083295 0 -0.0019717536024747946 7.4794005607582733e-05 0 -0.00199742526392128 0.00016065950700512322 0 -0.0019375144185356126 0.00012369937341864535 0 -0.0024203997106889918 0.00097514799714585817 0 -0.0023989601319909454 0.0010146607628497154 0 -0.0023945301836103806 0.00090597018272790516 0 -0.0023577880798153756 0.00059424082096083295 0 -0.0021671803399630793 0.00046245613924404206 0 -0.0025517269012014332 0.0011230657960674079 0 -0.0023816329510976324 0.00074136459929660681 0 -0.0023945301836103806 0.00090597018272790516 0 -0.0023577880798153756 0.00059424082096083295 0 -0.0024772712948853051 0.0010465794470763557 0 -0.0023989601319909454 0.0010146607628497154 0 -0.0020184379355108095 0.00084535789950883334 0 -0.0022149915101722021 0.00079716144017586105 0 -0.0023989601319909454 0.0010146607628497154 0 -0.0023945301836103806 0.00090597018272790516 0 -0.0022149915101722021 0.00079716144017586105 0 -0.0024203997106889918 0.00097514799714585817 0 -0.0023989601319909454 0.0010146607628497154 0 -0.0025334067887740324 0.00090902940329666841 0 -0.0027284772769579323 0.00073888715338901647 0 -0.0025334067887740324 0.00090902940329666841 0 -0.0029689490099446244 0.0010257928095098088 0 -0.0023989601319909454 0.0010146607628497154 0 -0.0025334067887740324 0.00090902940329666841 0 -0.0029689490099446244 0.0010257928095098088 0 -0.0033929370671982413 0.00090661760665469813 0 -0.0031145237761572827 0.00071218348999344103 0 -0.0029689490099446244 0.0010257928095098088 0 -0.0017723544074295758 0.00077813229045371908 0 -0.001886305409848394 0.0010594188945645961 0 -0.0020184379355108095 0.00084535789950883334 0 -0.0024145778231327419 0.0010164290740317325 0 -0.002441522661698559 0.0010308466524846561 0 -0.0023989601319909454 0.0010146607628497154 0 -0.001886305409848394 0.0010594188945645961 0 -0.0020184379355108095 0.00084535789950883334 0 -0.0020184379355108095 0.00084535789950883334 0 -0.0019455182324763273 0.00066950720177937572 0 -0.0022149915101722021 0.00079716144017586105 0 -0.0019455182324763273 0.00066950720177937572 0 -0.0020896031802815538 0.00060188942848912741 0 -0.0022149915101722021 0.00079716144017586105 0 -0.0017723544074295758 0.00077813229045371908 0 -0.0020184379355108095 0.00084535789950883334 0 -0.0019455182324763273 0.00066950720177937572 0 -0.0017723544074295758 0.00077813229045371908 0 -0.0017890519574285336 0.00056830005249377917 0 -0.0019455182324763273 0.00066950720177937572 0 -0.0019282741094243966 0.00048198458941005508 0 -0.0017890519574285336 0.00056830005249377917 0 -0.0019455182324763273 0.00066950720177937572 0 -0.0019282741094243966 0.00048198458941005508 0 -0.0019455182324763273 0.00066950720177937572 0 -0.0020896031802815538 0.00060188942848912741 0 -0.0020261954547670775 0.00039361673814419004 0 -0.0019282741094243966 0.00048198458941005508 0 -0.0020896031802815538 0.00060188942848912741 0 -0.0020261954547670775 0.00039361673814419004 0 -0.0020896031802815538 0.00060188942848912741 0 -0.0023816329510976324 0.00074136459929660681 0 -0.0020621241228512784 0.00040605351867931068 0 -0.0021671803399630793 0.00046245613924404206 0 -0.0020261954547670775 0.00039361673814419004 0 -0.0019200813107618994 0.00023001662189973309 0 -0.00199742526392128 0.00016065950700512322 0 -0.0019200813107618994 0.00023001662189973309 0 -0.00199742526392128 0.00016065950700512322 0 -0.0019346030690541693 0.00016929555910907747 0 -0.00199742526392128 0.00016065950700512322 0 -0.0019375144185356126 0.00012369937341864535 0 -0.0019346030690541693 0.00016929555910907747 0 -0.0023816329510976324 0.00074136459929660681 0 -0.0023945301836103806 0.00090597018272790516 0 -0.0022149915101722021 0.00079716144017586105 0 -0.0020896031802815538 0.00060188942848912741 0 -0.0023816329510976324 0.00074136459929660681 0 -0.0022149915101722021 0.00079716144017586105 0 -0.0018769686694173841 0.00014891996318450618 0 -0.0018558015369906306 0.000108041432916526 0 -0.0018931931845459658 0.00011103096337719323 0 -0.0018769686694173841 0.00014891996318450618 0 -0.0019012327736919806 0.00016715329071223132 0 -0.0018931931845459658 0.00011103096337719323 0 -0.0019375144185356126 0.00012369937341864535 0 -0.0019012327736919806 0.00016715329071223132 0 -0.0018931931845459658 0.00011103096337719323 0 -0.0019200813107618994 0.00023001662189973309 0 -0.0019346030690541693 0.00016929555910907747 0 -0.0019012327736919806 0.00016715329071223132 0 -0.0019375144185356126 0.00012369937341864535 0 -0.0019346030690541693 0.00016929555910907747 0 -0.0019012327736919806 0.00016715329071223132 0 -0.0018714185278289265 0.00035017665445131427 0 -0.0019200813107618994 0.00023001662189973309 0 -0.001810216150365056 0.00029965290146970083 0 -0.0019200813107618994 0.00023001662189973309 0 -0.0019012327736919806 0.00016715329071223132 0 -0.0018855654609972691 0.00018923932718822636 0 -0.0019185582309617041 0.00022692291715809514 0 -0.0018503696069121825 0.00024443436538232685 0 -0.0018769686694173841 0.00014891996318450618 0 -0.0019012327736919806 0.00016715329071223132 0 -0.0018855654609972691 0.00018923932718822636 0 -0.0018769686694173841 0.00014891996318450618 0 -0.0018855654609972691 0.00018923932718822636 0 -0.0018484590903854381 0.00015337980297037025 0 -0.001845330756989224 0.00019252806889637908 0 -0.0018855654609972691 0.00018923932718822636 0 -0.0018484590903854381 0.00015337980297037025 0 -0.001845330756989224 0.00019252806889637908 0 -0.0018484590903854381 0.00015337980297037025 0 -0.0018080025989392057 0.00016294689656069948 0 -0.0018484590903854381 0.00015337980297037025 0 -0.0018080025989392057 0.00016294689656069948 0 -0.001806195881476903 0.00011032686275544421 0 -0.0018484590903854381 0.00015337980297037025 0 -0.001806195881476903 0.00011032686275544421 0 -0.0018558015369906306 0.000108041432916526 0 -0.0018769686694173841 0.00014891996318450618 0 -0.0018484590903854381 0.00015337980297037025 0 -0.0018558015369906306 0.000108041432916526 0 -0.0018558015369906306 0.000108041432916526 0 -0.0018316466975556425 6.7638041003149218e-05 0 -0.0018822838470293432 4.9839516442696505e-05 0 -0.001806195881476903 0.00011032686275544421 0 -0.0018558015369906306 0.000108041432916526 0 -0.0018316466975556425 6.7638041003149218e-05 0 -0.001806195881476903 0.00011032686275544421 0 -0.0018316466975556425 6.7638041003149218e-05 0 -0.0017903118198882146 6.3761441599585595e-05 0 -0.0018316466975556425 6.7638041003149218e-05 0 -0.0018042685302297546 3.1735560593240272e-05 0 -0.0017903118198882146 6.3761441599585595e-05 0 -0.0018316466975556425 6.7638041003149218e-05 0 -0.0018042685302297546 3.1735560593240272e-05 0 -0.0018460261011331157 2.4750952803326811e-06 0 -0.0018316466975556425 6.7638041003149218e-05 0 -0.0018822838470293432 4.9839516442696505e-05 0 -0.0018460261011331157 2.4750952803326811e-06 0 -0.0018558015369906306 0.000108041432916526 0 -0.0018822838470293432 4.9839516442696505e-05 0 -0.0018931931845459658 0.00011103096337719323 0 -0.0018822838470293432 4.9839516442696505e-05 0 -0.0018931931845459658 0.00011103096337719323 0 -0.0019212429529465421 7.3852528263910992e-05 0 -0.0019717536024747946 7.4794005607582733e-05 0 -0.0019375144185356126 0.00012369937341864535 0 -0.0019212429529465421 7.3852528263910992e-05 0 -0.0019375144185356126 0.00012369937341864535 0 -0.0018931931845459658 0.00011103096337719323 0 -0.0019212429529465421 7.3852528263910992e-05 0 -0.0019717536024747946 7.4794005607582733e-05 0 -0.0019212429529465421 7.3852528263910992e-05 0 -0.0019406497371849414 9.3700751877143768e-06 0 -0.0023577880798153756 0.00059424082096083295 0 -0.0022134135434628346 9.9365227947063563e-05 0 -0.0018822838470293432 4.9839516442696505e-05 0 -0.0019212429529465421 7.3852528263910992e-05 0 -0.0019406497371849414 9.3700751877143768e-06 0 -0.0025366938588957579 0.00029543762156955473 0 -0.0025095612411249013 0.00030956001062829995 0 -0.0024711989350218663 0.00021515833515297744 0 -0.0019406497371849414 9.3700751877143768e-06 0 -0.0018923025077208714 -5.6487556255879826e-06 0 -0.0019163270863390013 -4.777196671786584e-05 0 -0.0018822838470293432 4.9839516442696505e-05 0 -0.0019406497371849414 9.3700751877143768e-06 0 -0.0018923025077208714 -5.6487556255879826e-06 0 -0.0018923025077208714 -5.6487556255879826e-06 0 -0.0019163270863390013 -4.777196671786584e-05 0 -0.0018702416576048448 -4.3270780225739963e-05 0 -0.0025063728112750079 0.00055938236773117492 0 -0.0023996328926466901 0.00035015583709640955 0 -0.0022134135434628346 9.9365227947063563e-05 0 -0.0020941617649528443 5.6708233488686406e-05 0 -0.0025366938588957579 0.00029543762156955473 0 -0.0024711989350218663 0.00021515833515297744 0 -0.0025203780110592084 0.00019024814089291272 0 -0.0024711989350218663 0.00021515833515297744 0 -0.0025203780110592084 0.00019024814089291272 0 -0.002487081616783801 0.00014709626866036722 0 -0.0024711989350218663 0.00021515833515297744 0 -0.002436951389448873 0.00013051168564794343 0 -0.002487081616783801 0.00014709626866036722 0 -0.0020941617649528443 5.6708233488686406e-05 0 -0.0029386560116379753 5.8141494112434783e-05 0 -0.0019163270863390013 -4.777196671786584e-05 0 -0.0018980555476466538 -0.00010033267957065016 0 -0.0018702416576048448 -4.3270780225739963e-05 0 -0.002436951389448873 0.00013051168564794343 0 -0.002487081616783801 0.00014709626866036722 0 -0.0025058098151706379 9.3788384356069586e-05 0 -0.0037731114305163647 -6.6983165680035181e-05 0 -0.0037680798104298393 -6.0922295015379114e-05 0 -0.0037736471668364888 -5.1714187054082022e-05 0 -0.0037731114305163647 -6.6983165680035181e-05 0 -0.0037639880968680802 -6.4696137385161927e-05 0 -0.0037680798104298393 -6.0922295015379114e-05 0 -0.0037731114305163647 -6.6983165680035181e-05 0 -0.0037904524832481769 -4.8201171855715702e-05 0 -0.0037736471668364888 -5.1714187054082022e-05 0 -0.0029386560116379753 5.8141494112434783e-05 0 -0.002954727944798671 5.4020549522120287e-05 0 -0.0025203780110592084 0.00019024814089291272 0 -0.002487081616783801 0.00014709626866036722 0 -0.0025058098151706379 9.3788384356069586e-05 0 -0.0023996328926466901 0.00035015583709640955 0 -0.002954727944798671 5.4020549522120287e-05 0 -0.0025452624377192241 0.00027539878065456128 0 -0.0024140039569868835 0.000499089364663666 0 -0.0023694331551828928 0.00019811907007179322 0 -0.0037456110473156391 0.00033195354254351062 0 -0.0037266356397428211 0.00051537495775057164 0 -0.0036032765708546048 0.00042742948356517066 0 -0.0037456110473156391 0.00033195354254351062 0 -0.0036032765708546048 0.00042742948356517066 0 -0.0036191092473204386 0.00027565173921373213 0 -0.0039509715176684864 0.0003897776052207379 0 -0.0037456110473156391 0.00033195354254351062 0 -0.0037266356397428211 0.00051537495775057164 0 -0.0039509715176684864 0.0003897776052207379 0 -0.0037456110473156391 0.00033195354254351062 0 -0.003878180471939642 0.00022997128720367673 0 -0.0029386560116379753 5.8141494112434783e-05 0 -0.0038602498656566723 0.00017242105733149206 0 -0.0029386560116379753 5.8141494112434783e-05 0 -0.0027781315821380861 0.00023095391420645682 0 -0.0018980555476466538 -0.00010033267957065016 0 -0.001843160277986613 -7.5973118377808491e-05 0 -0.0018702416576048448 -4.3270780225739963e-05 0 -0.0027781315821380861 0.00023095391420645682 0 -0.0026464033914511487 0.00028653398784125915 0 -0.0037266356397428211 0.00051537495775057164 0 -0.0035059125855809799 0.00063060210082762985 0 -0.0036032765708546048 0.00042742948356517066 0 -0.001843160277986613 -7.5973118377808491e-05 0 -0.0018284237341290807 -3.4142319897427727e-05 0 -0.0018702416576048448 -4.3270780225739963e-05 0 -0.001843160277986613 -7.5973118377808491e-05 0 -0.0018284237341290807 -3.4142319897427727e-05 0 -0.0017888952273421767 -5.1624859199674121e-05 0 -0.0018284237341290807 -3.4142319897427727e-05 0 -0.0018702416576048448 -4.3270780225739963e-05 0 -0.0018460261011331157 2.4750952803326811e-06 0 -0.0018923025077208714 -5.6487556255879826e-06 0 -0.0018702416576048448 -4.3270780225739963e-05 0 -0.0018460261011331157 2.4750952803326811e-06 0 -0.0018822838470293432 4.9839516442696505e-05 0 -0.0018923025077208714 -5.6487556255879826e-06 0 -0.0018460261011331157 2.4750952803326811e-06 0 -0.0018042685302297546 3.1735560593240272e-05 0 -0.0018460261011331157 2.4750952803326811e-06 0 -0.0017960552186806118 -2.9253270565076362e-06 0 -0.0018284237341290807 -3.4142319897427727e-05 0 -0.0018460261011331157 2.4750952803326811e-06 0 -0.0017960552186806118 -2.9253270565076362e-06 0 -0.0017960552186806118 -2.9253270565076362e-06 0 -0.001760091779915463 -1.0287456402893767e-05 0 -0.0017888952273421767 -5.1624859199674121e-05 0 -0.0017960552186806118 -2.9253270565076362e-06 0 -0.001760091779915463 -1.0287456402893767e-05 0 -0.0017600198493860737 2.6459387941648862e-05 0 -0.001760091779915463 -1.0287456402893767e-05 0 -0.0017395835397100391 -2.8859622085140212e-05 0 -0.0017222261344763715 1.2310223753783262e-07 0 -0.0032959839814833262 0.00073158281894077906 0 -0.0034068318834139465 0.0005420429801764494 0 -0.0032462133405407826 0.00058877057290046347 0 -0.001760091779915463 -1.0287456402893767e-05 0 -0.0017395835397100391 -2.8859622085140212e-05 0 -0.0017888952273421767 -5.1624859199674121e-05 0 -0.0032959839814833262 0.00073158281894077906 0 -0.0035059125855809799 0.00063060210082762985 0 -0.0034068318834139465 0.0005420429801764494 0 -0.0025381399105881483 0.00036489103362488873 0 -0.0026464033914511487 0.00028653398784125915 0 -0.0018284237341290807 -3.4142319897427727e-05 0 -0.0017960552186806118 -2.9253270565076362e-06 0 -0.0017888952273421767 -5.1624859199674121e-05 0 -0.0035059125855809799 0.00063060210082762985 0 -0.0034068318834139465 0.0005420429801764494 0 -0.0036032765708546048 0.00042742948356517066 0 -0.0034068318834139465 0.0005420429801764494 0 -0.0036032765708546048 0.00042742948356517066 0 -0.0034765473981937379 0.00041496446375190573 0 -0.0034068318834139465 0.0005420429801764494 0 -0.0033072227445263558 0.00045544772205769542 0 -0.0034765473981937379 0.00041496446375190573 0 -0.0034068318834139465 0.0005420429801764494 0 -0.0033072227445263558 0.00045544772205769542 0 -0.0032462133405407826 0.00058877057290046347 0 -0.0033072227445263558 0.00045544772205769542 0 -0.0034001366269951943 0.00035309108283597558 0 -0.0034765473981937379 0.00041496446375190573 0 -0.0033072227445263558 0.00045544772205769542 0 -0.0034001366269951943 0.00035309108283597558 0 -0.0032998136288172612 0.00033031840220482957 0 -0.0034001366269951943 0.00035309108283597558 0 -0.0035088125455739511 0.00030310126864002864 0 -0.0034765473981937379 0.00041496446375190573 0 -0.0035088125455739511 0.00030310126864002864 0 -0.0036032765708546048 0.00042742948356517066 0 -0.0036191092473204386 0.00027565173921373213 0 -0.0035088125455739511 0.00030310126864002864 0 -0.0036032765708546048 0.00042742948356517066 0 -0.0034765473981937379 0.00041496446375190573 0 -0.0024674788232465594 1.1273779441804413e-08 0 -0.0024001174870595999 5.364717111878817e-07 0 -0.0021724055816312203 -2.8837395587516272e-08 0 -0.0030701532043055741 0.00040712003366188612 0 -0.0031800638342644213 0.00039848139157119681 0 -0.0031255579834523232 0.00048263070431353193 0 -0.0031800638342644213 0.00039848139157119681 0 -0.0031668544224558032 0.00051092548551110362 0 -0.0031255579834523232 0.00048263070431353193 0 -0.0030701532043055741 0.00040712003366188612 0 -0.0031315232606700331 0.00034271276731502598 0 -0.0031044337797382182 0.00029084252872128537 0 -0.0030701532043055741 0.00040712003366188612 0 -0.0031315232606700331 0.00034271276731502598 0 -0.0031800638342644213 0.00039848139157119681 0 -0.0031315232606700331 0.00034271276731502598 0 -0.0031800638342644213 0.00039848139157119681 0 -0.0031958646314010027 0.00028950165157434646 0 -0.0032998136288172612 0.00033031840220482957 0 -0.0031800638342644213 0.00039848139157119681 0 -0.0031958646314010027 0.00028950165157434646 0 -0.0033072227445263558 0.00045544772205769542 0 -0.0032998136288172612 0.00033031840220482957 0 -0.0031800638342644213 0.00039848139157119681 0 -0.0033072227445263558 0.00045544772205769542 0 -0.0031800638342644213 0.00039848139157119681 0 -0.0031668544224558032 0.00051092548551110362 0 -0.0033072227445263558 0.00045544772205769542 0 -0.0031668544224558032 0.00051092548551110362 0 -0.0032462133405407826 0.00058877057290046347 0 -0.0031668544224558032 0.00051092548551110362 0 -0.0032462133405407826 0.00058877057290046347 0 -0.0031675305918143198 0.00059581081767372506 0 -0.0027295923515255126 0.00018407789037611661 0 -0.002654118682530049 0.00033534630615123027 0 -0.0031668544224558032 0.00051092548551110362 0 -0.0031675305918143198 0.00059581081767372506 0 -0.0030836147011143178 0.00061529872772362638 0 -0.0024001174870595999 5.364717111878817e-07 0 -0.0021724055816312203 -2.8837395587516272e-08 0 -0.0021634718278602401 1.2502830033075657e-06 0 -0.0031668544224558032 0.00051092548551110362 0 -0.0031255579834523232 0.00048263070431353193 0 -0.0030836147011143178 0.00061529872772362638 0 -0.0030701532043055741 0.00040712003366188612 0 -0.0031255579834523232 0.00048263070431353193 0 -0.0030836147011143178 0.00061529872772362638 0 -0.0021724055816312203 -2.8837395587516272e-08 0 -0.0021634718278602401 1.2502830033075657e-06 0 -0.0019742074801985449 -1.5618280141423795e-07 0 -0.002654118682530049 0.00033534630615123027 0 -0.0022532246383145812 0.0002411888820114945 0 -0.0030836147011143178 0.00061529872772362638 0 -0.0031744361864509876 0.00066857794715333239 0 -0.0030957868354845267 0.00082743709525054799 0 -0.0031675305918143198 0.00059581081767372506 0 -0.0030836147011143178 0.00061529872772362638 0 -0.0031744361864509876 0.00066857794715333239 0 -0.0032959839814833262 0.00073158281894077906 0 -0.0032462133405407826 0.00058877057290046347 0 -0.0031744361864509876 0.00066857794715333239 0 -0.0032462133405407826 0.00058877057290046347 0 -0.0031675305918143198 0.00059581081767372506 0 -0.0031744361864509876 0.00066857794715333239 0 -0.0017395835397100391 -2.8859622085140212e-05 0 -0.0017072341115069889 -1.1569757507726586e-05 0 -0.0017222261344763715 1.2310223753783262e-07 0 -0.0032959839814833262 0.00073158281894077906 0 -0.0031744361864509876 0.00066857794715333239 0 -0.0030957868354845267 0.00082743709525054799 0 -0.0025381399105881483 0.00036489103362488873 0 -0.0022532246383145812 0.0002411888820114945 0 -0.0021724055816312203 -2.8837395587516272e-08 0 -0.0019742074801985449 -1.5618280141423795e-07 0 -0.0018777404197517172 4.5458242589351608e-08 0 -0.0022532246383145812 0.0002411888820114945 0 -0.0018775266903949706 2.0301311519884349e-07 0 -0.0022532246383145812 0.0002411888820114945 0 -0.0016192429382732834 -0.00011566773239119161 0 -0.0018217149464879953 3.2527628629857074e-05 0 -0.0018771261264994821 6.6957290584902364e-08 0 -0.0016951656536222969 -4.2265052759624444e-06 0 -0.0018771261264994821 6.6957290584902364e-08 0 -0.0016951656536222969 -4.2265052759624444e-06 0 -0.0016367633538780443 4.1199009314417907e-09 0 -0.0016951656536222969 -4.2265052759624444e-06 0 -0.0016121782693498596 1.0238918634106324e-05 0 -0.0016367633538780443 4.1199009314417907e-09 0 -0.0016836207641033139 2.5361732573603538e-05 0 -0.0016121782693498596 1.0238918634106324e-05 0 -0.0016676119566830811 4.443181495101798e-05 0 -0.0016951656536222969 -4.2265052759624444e-06 0 -0.0016836207641033139 2.5361732573603538e-05 0 -0.0016121782693498596 1.0238918634106324e-05 0 -0.0017172873911273096 2.8176827379406631e-05 0 -0.0017499672081508339 8.1048485809477716e-05 0 -0.0016980844917184746 6.4390541395141797e-05 0 -0.0016836207641033139 2.5361732573603538e-05 0 -0.0017172873911273096 2.8176827379406631e-05 0 -0.0016980844917184746 6.4390541395141797e-05 0 -0.0016951656536222969 -4.2265052759624444e-06 0 -0.0016836207641033139 2.5361732573603538e-05 0 -0.0017172873911273096 2.8176827379406631e-05 0 -0.0017072341115069889 -1.1569757507726586e-05 0 -0.0016951656536222969 -4.2265052759624444e-06 0 -0.0017222261344763715 1.2310223753783262e-07 0 -0.0016951656536222969 -4.2265052759624444e-06 0 -0.0017172873911273096 2.8176827379406631e-05 0 -0.0017222261344763715 1.2310223753783262e-07 0 -0.001760091779915463 -1.0287456402893767e-05 0 -0.0017222261344763715 1.2310223753783262e-07 0 -0.0017600198493860737 2.6459387941648862e-05 0 -0.0017172873911273096 2.8176827379406631e-05 0 -0.0017222261344763715 1.2310223753783262e-07 0 -0.0017600198493860737 2.6459387941648862e-05 0 -0.0018042685302297546 3.1735560593240272e-05 0 -0.0017960552186806118 -2.9253270565076362e-06 0 -0.0017600198493860737 2.6459387941648862e-05 0 -0.0018042685302297546 3.1735560593240272e-05 0 -0.0017600198493860737 2.6459387941648862e-05 0 -0.0017903118198882146 6.3761441599585595e-05 0 -0.0017600198493860737 2.6459387941648862e-05 0 -0.0017903118198882146 6.3761441599585595e-05 0 -0.0017499672081508339 8.1048485809477716e-05 0 -0.0017172873911273096 2.8176827379406631e-05 0 -0.0017600198493860737 2.6459387941648862e-05 0 -0.0017499672081508339 8.1048485809477716e-05 0 -0.0017499672081508339 8.1048485809477716e-05 0 -0.0017339670851075992 0.00012763100912242052 0 -0.0017075501079513542 0.00011133582655764013 0 -0.0017499672081508339 8.1048485809477716e-05 0 -0.0017735908442778601 0.00013265357774166838 0 -0.0017339670851075992 0.00012763100912242052 0 -0.001806195881476903 0.00011032686275544421 0 -0.0017499672081508339 8.1048485809477716e-05 0 -0.0017735908442778601 0.00013265357774166838 0 -0.001806195881476903 0.00011032686275544421 0 -0.0017903118198882146 6.3761441599585595e-05 0 -0.0017499672081508339 8.1048485809477716e-05 0 -0.0018080025989392057 0.00016294689656069948 0 -0.001806195881476903 0.00011032686275544421 0 -0.0017735908442778601 0.00013265357774166838 0 -0.0017674261768650973 0.00017507444319766213 0 -0.0018080025989392057 0.00016294689656069948 0 -0.0017735908442778601 0.00013265357774166838 0 -0.0017674261768650973 0.00017507444319766213 0 -0.0017735908442778601 0.00013265357774166838 0 -0.0017339670851075992 0.00012763100912242052 0 -0.0017174758082594847 0.00017248516979617923 0 -0.0017339670851075992 0.00012763100912242052 0 -0.001697050840128553 0.00015046453309893923 0 -0.0017772578144242665 0.0001830490522077758 0 -0.0017301427177327494 0.00012629892694976562 0 -0.001697050840128553 0.00015046453309893923 0 -0.0017075501079513542 0.00011133582655764013 0 -0.0016794831321992653 0.00013608875091551082 0 -0.0017339670851075992 0.00012763100912242052 0 -0.001697050840128553 0.00015046453309893923 0 -0.0017075501079513542 0.00011133582655764013 0 -0.0017075501079513542 0.00011133582655764013 0 -0.0016794831321992653 0.00013608875091551082 0 -0.0016792225751023676 0.00010170620067293647 0 -0.0016638587035714514 0.00017970551125929743 0 -0.0016794831321992653 0.00013608875091551082 0 -0.0016488107779634134 0.00012725411836918204 0 -0.001154930998250139 3.2147646045884613e-08 0 -0.0013956966095649971 2.0533110273200671e-08 0 -0.0013331178600464069 1.6236043061749296e-06 0 -0.0016794831321992653 0.00013608875091551082 0 -0.0016488107779634134 0.00012725411836918204 0 -0.0016792225751023676 0.00010170620067293647 0 -0.0016121782693498596 1.0238918634106324e-05 0 -0.0016488107779634134 0.00012725411836918204 0 -0.0016569392909661009 7.0896017494076439e-05 0 -0.0016121782693498596 1.0238918634106324e-05 0 -0.0016367633538780443 4.1199009314417907e-09 0 -0.0013956966095649971 2.0533110273200671e-08 0 -0.001583342531086337 3.0677284808284502e-06 0 -0.001490979225244844 4.4848621031589091e-05 0 -0.0016488107779634134 0.00012725411836918204 0 -0.0016569392909661009 7.0896017494076439e-05 0 -0.0016792225751023676 0.00010170620067293647 0 -0.0016121782693498596 1.0238918634106324e-05 0 -0.0013956966095649971 2.0533110273200671e-08 0 -0.0013331178600464069 1.6236043061749296e-06 0 -0.0016121782693498596 1.0238918634106324e-05 0 -0.0016569392909661009 7.0896017494076439e-05 0 -0.0016676119566830811 4.443181495101798e-05 0 -0.0017499672081508339 8.1048485809477716e-05 0 -0.0017075501079513542 0.00011133582655764013 0 -0.0016980844917184746 6.4390541395141797e-05 0 -0.0016569392909661009 7.0896017494076439e-05 0 -0.0016676119566830811 4.443181495101798e-05 0 -0.0016980844917184746 6.4390541395141797e-05 0 -0.0016836207641033139 2.5361732573603538e-05 0 -0.0016676119566830811 4.443181495101798e-05 0 -0.0016980844917184746 6.4390541395141797e-05 0 -0.0017075501079513542 0.00011133582655764013 0 -0.0016980844917184746 6.4390541395141797e-05 0 -0.0016792225751023676 0.00010170620067293647 0 -0.0016569392909661009 7.0896017494076439e-05 0 -0.0016980844917184746 6.4390541395141797e-05 0 -0.0016792225751023676 0.00010170620067293647 0 -0.0034942732753520749 -3.071384976314743e-05 0 -0.0035617691682085116 -3.4230923681824627e-05 0 -0.0034148832390085092 -3.0289409331892767e-05 0 -0.003773992621598667 4.747451357577072e-06 0 -0.0038225354656285602 4.6927660229998223e-05 0 -0.0034942732753520749 -3.071384976314743e-05 0 -0.0036475508558622507 -1.5504241457712689e-07 0 -0.0033525531413354944 -3.5164446485549236e-08 0 -0.0034942732753520749 -3.071384976314743e-05 0 -0.0036475508558622507 -1.5504241457712689e-07 0 -0.0035617691682085116 -3.4230923681824627e-05 0 -0.0036475508558622507 -1.5504241457712689e-07 0 -0.0035617691682085116 -3.4230923681824627e-05 0 -0.0037029751307161673 -4.9995561289918938e-06 0 -0.0044275833103954868 0.00020545142561375211 0 -0.0044275788776646403 0.00019828910884585045 0 -0.004442961751414373 0.00018327642163828455 0 -0.0044275833103954868 0.00020545142561375211 0 -0.0044275788776646403 0.00019828910884585045 0 -0.0044207738197617795 0.00018511040535445944 0 -0.0044108517427795908 0.00013927417147449966 0 -0.0043247644717115171 0.00011664673047028481 0 -0.0044522528777037693 0.00020139939352767204 0 -0.0044108517427795908 0.00013927417147449966 0 -0.0042753755483411135 6.8587601108189617e-05 0 -0.0043247644717115171 0.00011664673047028481 0 -0.0044108517427795908 0.00013927417147449966 0 -0.0042753755483411135 6.8587601108189617e-05 0 -0.0043738642101434052 -9.9709731221900077e-05 0 -0.0044343651586591449 0.00019604028432409348 0 -0.0040952186565012807 -0.0001145678556714648 0 -0.0044275788776646403 0.00019828910884585045 0 -0.0044035050561134102 0.0001730006226776612 0 -0.0044207738197617795 0.00018511040535445944 0 -0.0042753755483411135 6.8587601108189617e-05 0 -0.0041392085481605058 1.424051655507786e-05 0 -0.0040834696510005019 -4.2059858424373826e-06 0 -0.0042357223716375375 4.1389606279554114e-05 0 -0.0040952186565012807 -0.0001145678556714648 0 -0.0044035050561134102 0.0001730006226776612 0 -0.0044207738197617795 0.00018511040535445944 0 -0.0044170516435206126 0.00016345467420382791 0 -0.0044275833103954868 0.00020545142561375211 0 -0.0044207738197617795 0.00018511040535445944 0 -0.0044349286871425758 0.00015396698161717801 0 -0.0040777323701788595 6.6914528684785407e-05 0 -0.0040883420491570534 6.6120935994238019e-05 0 -0.0040753539277728137 9.2913692402925532e-05 0 -0.0044207738197617795 0.00018511040535445944 0 -0.0044170516435206126 0.00016345467420382791 0 -0.0044349286871425758 0.00015396698161717801 0 -0.0042980903846527767 0.00014639944192746342 0 -0.0038225354656285602 4.6927660229998223e-05 0 -0.0038225354656285602 4.6927660229998223e-05 0 -0.0036813664871110084 -0.00014174654457651284 0 -0.0044349286871425758 0.00015396698161717801 0 -0.0044097755157137914 0.00014051339611089098 0 -0.0044208127919723008 0.00010441982228147695 0 -0.0044170516435206126 0.00016345467420382791 0 -0.0044349286871425758 0.00015396698161717801 0 -0.0044097755157137914 0.00014051339611089098 0 -0.0040952186565012807 -0.0001145678556714648 0 -0.004000064958386511 -0.00020048831124900318 0 -0.0040952186565012807 -0.0001145678556714648 0 -0.0037858229985255638 -0.00029900855560093388 0 -0.003650608303356828 -0.0006366269390808715 0 -0.0035561736950801 -0.0004932202237611621 0 -0.0036747924116132856 -0.00041883952002569905 0 -0.0044035050561134102 0.0001730006226776612 0 -0.0044170516435206126 0.00016345467420382791 0 -0.0044097755157137914 0.00014051339611089098 0 -0.0041392085481605058 1.424051655507786e-05 0 -0.0039431497944740863 -0.00012188651159079282 0 -0.0039794376848783725 -7.3831868167964593e-05 0 -0.0041392085481605058 1.424051655507786e-05 0 -0.0040834696510005019 -4.2059858424373826e-06 0 -0.0039794376848783725 -7.3831868167964593e-05 0 -0.0039431497944740863 -0.00012188651159079282 0 -0.0039026506699802472 -0.00011335932771349739 0 -0.0039794376848783725 -7.3831868167964593e-05 0 -0.0037858229985255638 -0.00029900855560093388 0 -0.0037521910526941574 -0.00012041004106379354 0 -0.0036747924116132856 -0.00041883952002569905 0 -0.0035869509142459921 -0.00027684844287074973 0 -0.0037265723520197728 -0.00014045157531232422 0 -0.0039431497944740863 -0.00012188651159079282 0 -0.0037265723520197728 -0.00014045157531232422 0 -0.0038326546011429792 -0.0001365119624269844 0 -0.0035561736950801 -0.0004932202237611621 0 -0.0036747924116132856 -0.00041883952002569905 0 -0.0035654363481924202 -0.00038096041712775233 0 -0.0036747924116132856 -0.00041883952002569905 0 -0.0035869509142459921 -0.00027684844287074973 0 -0.0035654363481924202 -0.00038096041712775233 0 -0.0035561736950801 -0.0004932202237611621 0 -0.0035654363481924202 -0.00038096041712775233 0 -0.0034428944000554308 -0.00033117710731025583 0 -0.004000064958386511 -0.00020048831124900318 0 -0.0036813664871110084 -0.00014174654457651284 0 -0.0032604474331543315 -0.00010976849703536341 0 -0.0032582412784070498 -5.4135441604332023e-05 0 -0.003240860501078289 -6.370503686230245e-05 0 -0.0035869509142459921 -0.00027684844287074973 0 -0.0035654363481924202 -0.00038096041712775233 0 -0.0034428944000554308 -0.00033117710731025583 0 -0.0032582412784070498 -5.4135441604332023e-05 0 -0.003240860501078289 -6.370503686230245e-05 0 -0.0032194482623363191 -1.5725781277146405e-05 0 -0.0032565946293530972 -2.1436683536077558e-05 0 -0.0033097964189174375 -2.1902572003196363e-05 0 -0.0032113852276994923 -1.442926704734044e-05 0 -0.0032565946293530972 -2.1436683536077558e-05 0 -0.0032242189627551977 -2.1137039057583964e-05 0 -0.0032058906099136511 -1.7602092155328329e-05 0 -0.0032565946293530972 -2.1436683536077558e-05 0 -0.0033097964189174375 -2.1902572003196363e-05 0 -0.0033406869512992285 -2.1970961047748315e-05 0 -0.0032565946293530972 -2.1436683536077558e-05 0 -0.0033406869512992285 -2.1970961047748315e-05 0 -0.0032242189627551977 -2.1137039057583964e-05 0 -0.0034148832390085092 -3.0289409331892767e-05 0 -0.0033097964189174375 -2.1902572003196363e-05 0 -0.0033406869512992285 -2.1970961047748315e-05 0 -0.0038225354656285602 4.6927660229998223e-05 0 -0.0032623381969271543 -5.5781166207399413e-05 0 -0.0034942732753520749 -3.071384976314743e-05 0 -0.0034148832390085092 -3.0289409331892767e-05 0 -0.0033406869512992285 -2.1970961047748315e-05 0 -0.0034942732753520749 -3.071384976314743e-05 0 -0.0033406869512992285 -2.1970961047748315e-05 0 -0.0033525531413354944 -3.5164446485549236e-08 0 -0.0033406869512992285 -2.1970961047748315e-05 0 -0.0033525531413354944 -3.5164446485549236e-08 0 -0.0032242189627551977 -2.1137039057583964e-05 0 -0.0033525531413354944 -3.5164446485549236e-08 0 -0.0032242189627551977 -2.1137039057583964e-05 0 -0.0030575298535734808 -1.142168710858868e-07 0 -0.0032242189627551977 -2.1137039057583964e-05 0 -0.0031486928077475262 -1.3779776082477572e-05 0 -0.0032058906099136511 -1.7602092155328329e-05 0 -0.0032242189627551977 -2.1137039057583964e-05 0 -0.0030575298535734808 -1.142168710858868e-07 0 -0.0031486928077475262 -1.3779776082477572e-05 0 -0.0031486928077475262 -1.3779776082477572e-05 0 -0.0032058906099136511 -1.7602092155328329e-05 0 -0.0031625915097120839 -1.7250308585790641e-05 0 -0.0031486928077475262 -1.3779776082477572e-05 0 -0.0031625915097120839 -1.7250308585790641e-05 0 -0.0030793870090927407 -1.6435702984692784e-05 0 -0.0030575298535734808 -1.142168710858868e-07 0 -0.0031486928077475262 -1.3779776082477572e-05 0 -0.0030793870090927407 -1.6435702984692784e-05 0 -0.003240860501078289 -6.370503686230245e-05 0 -0.0032194482623363191 -1.5725781277146405e-05 0 -0.0032113852276994923 -1.442926704734044e-05 0 -0.0032623381969271543 -5.5781166207399413e-05 0 -0.0032301585945020868 -1.7800963183681232e-05 0 -0.0036813664871110084 -0.00014174654457651284 0 -0.0032478565656246707 -9.673753845705102e-05 0 -0.0032565946293530972 -2.1436683536077558e-05 0 -0.0032058906099136511 -1.7602092155328329e-05 0 -0.0032113852276994923 -1.442926704734044e-05 0 -0.0032058906099136511 -1.7602092155328329e-05 0 -0.0031625915097120839 -1.7250308585790641e-05 0 -0.0032113852276994923 -1.442926704734044e-05 0 -0.0031625915097120839 -1.7250308585790641e-05 0 -0.0032113852276994923 -1.442926704734044e-05 0 -0.0031662697463171866 -6.2882173503450971e-06 0 -0.0032194482623363191 -1.5725781277146405e-05 0 -0.0032113852276994923 -1.442926704734044e-05 0 -0.0031662697463171866 -6.2882173503450971e-06 0 -0.0032838998519704441 -0.00021534312503825604 0 -0.0033080872588808785 -6.7926037234457108e-05 0 -0.0033590204357250085 -0.00019567872236975838 0 -0.0032838998519704441 -0.00021534312503825604 0 -0.0033080872588808785 -6.7926037234457108e-05 0 -0.0031662697463171866 -6.2882173503450971e-06 0 -0.0032478565656246707 -9.673753845705102e-05 0 -0.0031860658617105554 -2.6621934741865353e-05 0 -0.0031662697463171866 -6.2882173503450971e-06 0 -0.0032688646010371829 4.7209397621656576e-05 0 -0.0031666307498527183 0.00012410013413410501 0 -0.0033080872588808785 -6.7926037234457108e-05 0 -0.0031662697463171866 -6.2882173503450971e-06 0 -0.0032688646010371829 4.7209397621656576e-05 0 -0.0033080872588808785 -6.7926037234457108e-05 0 -0.0032688646010371829 4.7209397621656576e-05 0 -0.0034152621566116616 3.6173507209382304e-05 0 -0.0030575298535734808 -1.142168710858868e-07 0 -0.0030793870090927407 -1.6435702984692784e-05 0 -0.0028879459996472515 1.5446532665836898e-07 0 -0.0031662697463171866 -6.2882173503450971e-06 0 -0.0030793870090927407 -1.6435702984692784e-05 0 -0.00306370698873701 6.3561294640069216e-05 0 -0.0031625915097120839 -1.7250308585790641e-05 0 -0.0031662697463171866 -6.2882173503450971e-06 0 -0.0030793870090927407 -1.6435702984692784e-05 0 -0.0031662697463171866 -6.2882173503450971e-06 0 -0.00306370698873701 6.3561294640069216e-05 0 -0.0031666307498527183 0.00012410013413410501 0 -0.0030793870090927407 -1.6435702984692784e-05 0 -0.00306370698873701 6.3561294640069216e-05 0 -0.0028879459996472515 1.5446532665836898e-07 0 -0.0028874457569864551 2.0765373275289061e-09 0 -0.0027624756631174402 1.3306579295980042e-09 0 -0.0026419524377001517 4.4252086260045925e-07 0 -0.00306370698873701 6.3561294640069216e-05 0 -0.0031666307498527183 0.00012410013413410501 0 -0.0030312068585425377 0.00022369781527956155 0 -0.0028733248347838614 -1.1051201043920432e-05 0 -0.0028324796670959784 9.5124356301800651e-05 0 -0.00306370698873701 6.3561294640069216e-05 0 -0.0028879459996472515 1.5446532665836898e-07 0 -0.0030312068585425377 0.00022369781527956155 0 -0.0031666307498527183 0.00012410013413410501 0 -0.0030312068585425377 0.00022369781527956155 0 -0.0031403130223043576 0.00022128894492474206 0 -0.0032688646010371829 4.7209397621656576e-05 0 -0.0032960288072145594 0.0001327273194183372 0 -0.0034152621566116616 3.6173507209382304e-05 0 -0.0032688646010371829 4.7209397621656576e-05 0 -0.0031666307498527183 0.00012410013413410501 0 -0.0032960288072145594 0.0001327273194183372 0 -0.0032960288072145594 0.0001327273194183372 0 -0.0032252139279482458 0.00019666214996947749 0 -0.0033054457093662755 0.00022845701897524452 0 -0.0031666307498527183 0.00012410013413410501 0 -0.0032960288072145594 0.0001327273194183372 0 -0.0032252139279482458 0.00019666214996947749 0 -0.0031666307498527183 0.00012410013413410501 0 -0.0032252139279482458 0.00019666214996947749 0 -0.0031403130223043576 0.00022128894492474206 0 -0.0032252139279482458 0.00019666214996947749 0 -0.0031958646314010027 0.00028950165157434646 0 -0.0031403130223043576 0.00022128894492474206 0 -0.0032252139279482458 0.00019666214996947749 0 -0.0033054457093662755 0.00022845701897524452 0 -0.0031958646314010027 0.00028950165157434646 0 -0.0032998136288172612 0.00033031840220482957 0 -0.0033054457093662755 0.00022845701897524452 0 -0.0031958646314010027 0.00028950165157434646 0 -0.0031315232606700331 0.00034271276731502598 0 -0.0031958646314010027 0.00028950165157434646 0 -0.0031044337797382182 0.00029084252872128537 0 -0.0024674788232465594 1.1273779441804413e-08 0 -0.0027624756631174402 1.3306579295980042e-09 0 -0.0026419524377001517 4.4252086260045925e-07 0 -0.0027295923515255126 0.00018407789037611661 0 -0.0028324796670959784 9.5124356301800651e-05 0 -0.0024674788232465594 1.1273779441804413e-08 0 -0.0024001174870595999 5.364717111878817e-07 0 -0.0026419524377001517 4.4252086260045925e-07 0 -0.0030701532043055741 0.00040712003366188612 0 -0.0031044337797382182 0.00029084252872128537 0 -0.0030312068585425377 0.00022369781527956155 0 -0.0031044337797382182 0.00029084252872128537 0 -0.0030312068585425377 0.00022369781527956155 0 -0.0031403130223043576 0.00022128894492474206 0 -0.0031958646314010027 0.00028950165157434646 0 -0.0031044337797382182 0.00029084252872128537 0 -0.0031403130223043576 0.00022128894492474206 0 -0.0035403487107105382 0.00019312059897931566 0 -0.0036191092473204386 0.00027565173921373213 0 -0.0036864576329430762 0.00014271065178270148 0 -0.0035088125455739511 0.00030310126864002864 0 -0.0035403487107105382 0.00019312059897931566 0 -0.0036191092473204386 0.00027565173921373213 0 -0.0035088125455739511 0.00030310126864002864 0 -0.0035403487107105382 0.00019312059897931566 0 -0.0034118065417817066 0.00025863785526812242 0 -0.0034001366269951943 0.00035309108283597558 0 -0.0035088125455739511 0.00030310126864002864 0 -0.0034118065417817066 0.00025863785526812242 0 -0.0032998136288172612 0.00033031840220482957 0 -0.0033054457093662755 0.00022845701897524452 0 -0.0034118065417817066 0.00025863785526812242 0 -0.0034001366269951943 0.00035309108283597558 0 -0.0032998136288172612 0.00033031840220482957 0 -0.0034118065417817066 0.00025863785526812242 0 -0.0033054457093662755 0.00022845701897524452 0 -0.0034118065417817066 0.00025863785526812242 0 -0.0034251632410290077 0.0001557187118124079 0 -0.0035403487107105382 0.00019312059897931566 0 -0.0034118065417817066 0.00025863785526812242 0 -0.0034251632410290077 0.0001557187118124079 0 -0.0032960288072145594 0.0001327273194183372 0 -0.0033054457093662755 0.00022845701897524452 0 -0.0034251632410290077 0.0001557187118124079 0 -0.0032960288072145594 0.0001327273194183372 0 -0.0034251632410290077 0.0001557187118124079 0 -0.0034152621566116616 3.6173507209382304e-05 0 -0.0034251632410290077 0.0001557187118124079 0 -0.0035679139464182739 7.4431410645849972e-05 0 -0.0034152621566116616 3.6173507209382304e-05 0 -0.0035403487107105382 0.00019312059897931566 0 -0.0035679139464182739 7.4431410645849972e-05 0 -0.0036864576329430762 0.00014271065178270148 0 -0.0035403487107105382 0.00019312059897931566 0 -0.0034251632410290077 0.0001557187118124079 0 -0.0035679139464182739 7.4431410645849972e-05 0 -0.0035880537653575598 -2.6447594225936021e-05 0 -0.0034430235310804196 -9.3618752050952502e-05 0 -0.0037265723520197728 -0.00014045157531232422 0 -0.0035679139464182739 7.4431410645849972e-05 0 -0.0035880537653575598 -2.6447594225936021e-05 0 -0.0037293699123395652 -2.5287521448715682e-05 0 -0.0035880537653575598 -2.6447594225936021e-05 0 -0.0037265723520197728 -0.00014045157531232422 0 -0.0037293699123395652 -2.5287521448715682e-05 0 -0.0035679139464182739 7.4431410645849972e-05 0 -0.0035880537653575598 -2.6447594225936021e-05 0 -0.0034152621566116616 3.6173507209382304e-05 0 -0.0035880537653575598 -2.6447594225936021e-05 0 -0.0034152621566116616 3.6173507209382304e-05 0 -0.0034430235310804196 -9.3618752050952502e-05 0 -0.0033080872588808785 -6.7926037234457108e-05 0 -0.0034430235310804196 -9.3618752050952502e-05 0 -0.0033590204357250085 -0.00019567872236975838 0 -0.0033080872588808785 -6.7926037234457108e-05 0 -0.0034152621566116616 3.6173507209382304e-05 0 -0.0034430235310804196 -9.3618752050952502e-05 0 -0.0036813664871110084 -0.00014174654457651284 0 -0.0033920371656533366 -0.00020715619865594977 0 -0.0035869509142459921 -0.00027684844287074973 0 -0.0034428944000554308 -0.00033117710731025583 0 -0.0034430235310804196 -9.3618752050952502e-05 0 -0.0033995928222911795 -0.00040283569007434433 0 -0.0034430235310804196 -9.3618752050952502e-05 0 -0.0033590204357250085 -0.00019567872236975838 0 -0.0033995928222911795 -0.00040283569007434433 0 -0.0032838998519704441 -0.00021534312503825604 0 -0.0033590204357250085 -0.00019567872236975838 0 -0.0035869509142459921 -0.00027684844287074973 0 -0.0034430235310804196 -9.3618752050952502e-05 0 -0.0037265723520197728 -0.00014045157531232422 0 -0.0037265723520197728 -0.00014045157531232422 0 -0.0038004773729452246 -9.4778690996414811e-05 0 -0.0038326546011429792 -0.0001365119624269844 0 -0.0038004773729452246 -9.4778690996414811e-05 0 -0.0038044165962182659 -0.00010575998983970673 0 -0.0038326546011429792 -0.0001365119624269844 0 -0.0038004773729452246 -9.4778690996414811e-05 0 -0.0037987312026745287 -4.0845814871223049e-05 0 -0.0037878554174061688 -8.0785917160040643e-05 0 -0.0038004773729452246 -9.4778690996414811e-05 0 -0.0037293699123395652 -2.5287521448715682e-05 0 -0.0037987312026745287 -4.0845814871223049e-05 0 -0.0037265723520197728 -0.00014045157531232422 0 -0.0038004773729452246 -9.4778690996414811e-05 0 -0.0037293699123395652 -2.5287521448715682e-05 0 -0.0035679139464182739 7.4431410645849972e-05 0 -0.0037293699123395652 -2.5287521448715682e-05 0 -0.0036864576329430762 0.00014271065178270148 0 -0.0037293699123395652 -2.5287521448715682e-05 0 -0.0037887931840253726 3.3863728222845189e-05 0 -0.0036864576329430762 0.00014271065178270148 0 -0.0037293699123395652 -2.5287521448715682e-05 0 -0.0037987312026745287 -4.0845814871223049e-05 0 -0.0037887931840253726 3.3863728222845189e-05 0 -0.0037987312026745287 -4.0845814871223049e-05 0 -0.0037887931840253726 3.3863728222845189e-05 0 -0.0037843236659505929 -2.3245046801063871e-05 0 -0.0037887931840253726 3.3863728222845189e-05 0 -0.003878180471939642 0.00022997128720367673 0 -0.0036864576329430762 0.00014271065178270148 0 -0.0037820197313926467 1.0918237629432439e-05 0 -0.0038602498656566723 0.00017242105733149206 0 -0.0037887931840253726 3.3863728222845189e-05 0 -0.0037843236659505929 -2.3245046801063871e-05 0 -0.0037904524832481769 -4.8201171855715702e-05 0 -0.0037843236659505929 -2.3245046801063871e-05 0 -0.0037904524832481769 -4.8201171855715702e-05 0 -0.0037736471668364888 -5.1714187054082022e-05 0 -0.0037456110473156391 0.00033195354254351062 0 -0.0036191092473204386 0.00027565173921373213 0 -0.0036864576329430762 0.00014271065178270148 0 -0.0037456110473156391 0.00033195354254351062 0 -0.003878180471939642 0.00022997128720367673 0 -0.0036864576329430762 0.00014271065178270148 0 -0.0037639880968680802 -6.4696137385161927e-05 0 -0.0037694854369441856 -6.4241069948177496e-05 0 -0.0037646419346290005 -8.1101368451841121e-05 0 -0.0037694854369441856 -6.4241069948177496e-05 0 -0.0037788940125071729 -5.4423336690831848e-05 0 -0.0037646419346290005 -8.1101368451841121e-05 0 -0.0037639880968680802 -6.4696137385161927e-05 0 -0.0037694854369441856 -6.4241069948177496e-05 0 -0.0037680798104298393 -6.0922295015379114e-05 0 -0.0037694854369441856 -6.4241069948177496e-05 0 -0.0037680798104298393 -6.0922295015379114e-05 0 -0.0037736471668364888 -5.1714187054082022e-05 0 -0.0037843236659505929 -2.3245046801063871e-05 0 -0.0037736471668364888 -5.1714187054082022e-05 0 -0.0037788940125071729 -5.4423336690831848e-05 0 -0.0037694854369441856 -6.4241069948177496e-05 0 -0.0037736471668364888 -5.1714187054082022e-05 0 -0.0037788940125071729 -5.4423336690831848e-05 0 -0.0037987312026745287 -4.0845814871223049e-05 0 -0.0037788940125071729 -5.4423336690831848e-05 0 -0.0037878554174061688 -8.0785917160040643e-05 0 -0.0037987312026745287 -4.0845814871223049e-05 0 -0.0037843236659505929 -2.3245046801063871e-05 0 -0.0037788940125071729 -5.4423336690831848e-05 0 -0.0037788940125071729 -5.4423336690831848e-05 0 -0.0037646419346290005 -8.1101368451841121e-05 0 -0.0037878554174061688 -8.0785917160040643e-05 0 -0.0037646419346290005 -8.1101368451841121e-05 0 -0.0037878554174061688 -8.0785917160040643e-05 0 -0.0037501535157107389 -0.00010128451351800957 0 -0.0038004773729452246 -9.4778690996414811e-05 0 -0.0037878554174061688 -8.0785917160040643e-05 0 -0.0038044165962182659 -0.00010575998983970673 0 -0.0037878554174061688 -8.0785917160040643e-05 0 -0.0038044165962182659 -0.00010575998983970673 0 -0.0037738953431978614 -0.00010219129771254038 0 -0.0037878554174061688 -8.0785917160040643e-05 0 -0.0037738953431978614 -0.00010219129771254038 0 -0.0037501535157107389 -0.00010128451351800957 0 -0.0037738953431978614 -0.00010219129771254038 0 -0.0037329305220057353 -8.5603268023479726e-05 0 -0.003737065740692264 -0.00010249289524732485 0 -0.0037738953431978614 -0.00010219129771254038 0 -0.0037844992866361751 -7.4918274494353642e-05 0 -0.0037329305220057353 -8.5603268023479726e-05 0 -0.0037844992866361751 -7.4918274494353642e-05 0 -0.0037500434681606363 -1.6261722040490828e-05 0 -0.0037329305220057353 -8.5603268023479726e-05 0 -0.0037844992866361751 -7.4918274494353642e-05 0 -0.0038245961095618379 -9.3256242909646732e-05 0 -0.0038306984959061261 -2.8517245351527396e-05 0 -0.0038044165962182659 -0.00010575998983970673 0 -0.0037738953431978614 -0.00010219129771254038 0 -0.0038245961095618379 -9.3256242909646732e-05 0 -0.0037738953431978614 -0.00010219129771254038 0 -0.0037844992866361751 -7.4918274494353642e-05 0 -0.0038245961095618379 -9.3256242909646732e-05 0 -0.0038044165962182659 -0.00010575998983970673 0 -0.0038326546011429792 -0.0001365119624269844 0 -0.0038245961095618379 -9.3256242909646732e-05 0 -0.0038326546011429792 -0.0001365119624269844 0 -0.0038832718287534033 -9.4108668912437784e-05 0 -0.0038245961095618379 -9.3256242909646732e-05 0 -0.0038326546011429792 -0.0001365119624269844 0 -0.0039026506699802472 -0.00011335932771349739 0 -0.0038832718287534033 -9.4108668912437784e-05 0 -0.0039431497944740863 -0.00012188651159079282 0 -0.0038326546011429792 -0.0001365119624269844 0 -0.0039026506699802472 -0.00011335932771349739 0 -0.0039026506699802472 -0.00011335932771349739 0 -0.0039794376848783725 -7.3831868167964593e-05 0 -0.0038832718287534033 -9.4108668912437784e-05 0 -0.0039794376848783725 -7.3831868167964593e-05 0 -0.0038832718287534033 -9.4108668912437784e-05 0 -0.0039328247977638486 -5.6002709884954812e-05 0 -0.0039328247977638486 -5.6002709884954812e-05 0 -0.0038652358899865054 -5.9680705109235964e-05 0 -0.0039082721983965379 -1.0860997076186151e-05 0 -0.0038832718287534033 -9.4108668912437784e-05 0 -0.0039328247977638486 -5.6002709884954812e-05 0 -0.0038652358899865054 -5.9680705109235964e-05 0 -0.0040834696510005019 -4.2059858424373826e-06 0 -0.0039794376848783725 -7.3831868167964593e-05 0 -0.0039328247977638486 -5.6002709884954812e-05 0 -0.0038832718287534033 -9.4108668912437784e-05 0 -0.0038245961095618379 -9.3256242909646732e-05 0 -0.0038652358899865054 -5.9680705109235964e-05 0 -0.0038245961095618379 -9.3256242909646732e-05 0 -0.0038652358899865054 -5.9680705109235964e-05 0 -0.0038306984959061261 -2.8517245351527396e-05 0 -0.0038652358899865054 -5.9680705109235964e-05 0 -0.0039082721983965379 -1.0860997076186151e-05 0 -0.0038306984959061261 -2.8517245351527396e-05 0 -0.0039082721983965379 -1.0860997076186151e-05 0 -0.0038860894774937222 6.3981465279983388e-05 0 -0.0038306984959061261 -2.8517245351527396e-05 0 -0.0040834696510005019 -4.2059858424373826e-06 0 -0.0039328247977638486 -5.6002709884954812e-05 0 -0.0039082721983965379 -1.0860997076186151e-05 0 -0.0040834696510005019 -4.2059858424373826e-06 0 -0.0039082721983965379 -1.0860997076186151e-05 0 -0.0038860894774937222 6.3981465279983388e-05 0 -0.0042753755483411135 6.8587601108189617e-05 0 -0.0040834696510005019 -4.2059858424373826e-06 0 -0.0042756264428752419 9.0671421023653332e-05 0 -0.0041248527418804113 -1.839598622696486e-05 0 -0.0040131337199721317 8.4029548572117234e-05 0 -0.0043247644717115171 0.00011664673047028481 0 -0.0042756264428752419 9.0671421023653332e-05 0 -0.0042590878748754108 0.00020650180843560293 0 -0.0042753755483411135 6.8587601108189617e-05 0 -0.0043247644717115171 0.00011664673047028481 0 -0.0042756264428752419 9.0671421023653332e-05 0 -0.0038860894774937222 6.3981465279983388e-05 0 -0.0038290764127450051 4.8789230002019915e-05 0 -0.0038262519537473581 9.2829176984409619e-05 0 -0.0038860894774937222 6.3981465279983388e-05 0 -0.0038290764127450051 4.8789230002019915e-05 0 -0.0038306984959061261 -2.8517245351527396e-05 0 -0.0038290764127450051 4.8789230002019915e-05 0 -0.0037883695098813721 5.3394389164702997e-05 0 -0.0038262519537473581 9.2829176984409619e-05 0 -0.0038290764127450051 4.8789230002019915e-05 0 -0.0037883695098813721 5.3394389164702997e-05 0 -0.0037952121552561895 8.0996649263646923e-06 0 -0.0037500434681606363 -1.6261722040490828e-05 0 -0.0037952121552561895 8.0996649263646923e-06 0 -0.0037455196790451449 3.3478203014306375e-05 0 -0.0037883695098813721 5.3394389164702997e-05 0 -0.0037952121552561895 8.0996649263646923e-06 0 -0.0037455196790451449 3.3478203014306375e-05 0 -0.0037883695098813721 5.3394389164702997e-05 0 -0.0037455196790451449 3.3478203014306375e-05 0 -0.0037643821216230872 6.0553249305936953e-05 0 -0.0037455196790451449 3.3478203014306375e-05 0 -0.0037362780207791683 6.3355152035229518e-05 0 -0.0037643821216230872 6.0553249305936953e-05 0 -0.0037844992866361751 -7.4918274494353642e-05 0 -0.0037500434681606363 -1.6261722040490828e-05 0 -0.0037952121552561895 8.0996649263646923e-06 0 -0.0037844992866361751 -7.4918274494353642e-05 0 -0.0038306984959061261 -2.8517245351527396e-05 0 -0.0037952121552561895 8.0996649263646923e-06 0 -0.0038290764127450051 4.8789230002019915e-05 0 -0.0038306984959061261 -2.8517245351527396e-05 0 -0.0037952121552561895 8.0996649263646923e-06 0 -0.0037014774518208857 -0.00018055068143894924 0 -0.0037373790761474281 -0.00019500696228939694 0 -0.0037203988385040737 -0.00012545562498784133 0 -0.0037500434681606363 -1.6261722040490828e-05 0 -0.0036848623318491013 -4.8395127029734769e-06 0 -0.0037329305220057353 -8.5603268023479726e-05 0 -0.0037500434681606363 -1.6261722040490828e-05 0 -0.0036848623318491013 -4.8395127029734769e-06 0 -0.0037455196790451449 3.3478203014306375e-05 0 -0.0036731098385826434 -8.8275582511058247e-05 0 -0.0037410067646060281 -9.7712869517094694e-05 0 -0.0036848623318491013 -4.8395127029734769e-06 0 -0.0037455196790451449 3.3478203014306375e-05 0 -0.0037101872271030653 4.483342286004583e-05 0 -0.0037455196790451449 3.3478203014306375e-05 0 -0.0037101872271030653 4.483342286004583e-05 0 -0.0037362780207791683 6.3355152035229518e-05 0 -0.0036731098385826434 -8.8275582511058247e-05 0 -0.0038357618518876681 -0.00012502945341421204 0 -0.0036848623318491013 -4.8395127029734769e-06 0 -0.0037101872271030653 4.483342286004583e-05 0 -0.003681898099512069 5.5538406867940492e-05 0 -0.0036848623318491013 -4.8395127029734769e-06 0 -0.0036510159309859425 4.4601982673984186e-05 0 -0.003681898099512069 5.5538406867940492e-05 0 -0.0037014774518208857 -0.00018055068143894924 0 -0.0037304900956185668 -0.00029463361401869427 0 -0.0037350671279815879 -0.0002685740169597029 0 -0.0037350671279815879 -0.0002685740169597029 0 -0.0037688849280809512 -0.00032198844959235206 0 -0.0037727444367117121 -0.00026134611267391336 0 -0.0037209252832964708 -0.00032348966531113186 0 -0.0037350671279815879 -0.0002685740169597029 0 -0.0037688849280809512 -0.00032198844959235206 0 -0.0038357618518876681 -0.00012502945341421204 0 -0.0038000683176320723 -0.00024814630112381439 0 -0.0037350671279815879 -0.0002685740169597029 0 -0.0037727444367117121 -0.00026134611267391336 0 -0.0037373790761474281 -0.00019500696228939694 0 -0.0038097258312531903 -0.00032747585926773442 0 -0.0038422485464210307 -0.00028147056753500909 0 -0.003871219231538838 -0.00036844475249410538 0 -0.0038097258312531903 -0.00032747585926773442 0 -0.0037688849280809512 -0.00032198844959235206 0 -0.0037727444367117121 -0.00026134611267391336 0 -0.0038097258312531903 -0.00032747585926773442 0 -0.0037727444367117121 -0.00026134611267391336 0 -0.0038422485464210307 -0.00028147056753500909 0 -0.0037727444367117121 -0.00026134611267391336 0 -0.0038422485464210307 -0.00028147056753500909 0 -0.0037789343901781726 -0.00021855574600796742 0 -0.0037789343901781726 -0.00021855574600796742 0 -0.0038148572257311777 -0.0002102498235138002 0 -0.0037479397066265182 -0.00015537405706638662 0 -0.0038422485464210307 -0.00028147056753500909 0 -0.0037789343901781726 -0.00021855574600796742 0 -0.0038148572257311777 -0.0002102498235138002 0 -0.0037014774518208857 -0.00018055068143894924 0 -0.0037350671279815879 -0.0002685740169597029 0 -0.0037373790761474281 -0.00019500696228939694 0 -0.0037789343901781726 -0.00021855574600796742 0 -0.0037373790761474281 -0.00019500696228939694 0 -0.0037479397066265182 -0.00015537405706638662 0 -0.0037727444367117121 -0.00026134611267391336 0 -0.0037789343901781726 -0.00021855574600796742 0 -0.0037373790761474281 -0.00019500696228939694 0 -0.0037373790761474281 -0.00019500696228939694 0 -0.0037479397066265182 -0.00015537405706638662 0 -0.0037203988385040737 -0.00012545562498784133 0 -0.0037479397066265182 -0.00015537405706638662 0 -0.0037221815672336235 -0.00010910430361291801 0 -0.0037203988385040737 -0.00012545562498784133 0 -0.0037479397066265182 -0.00015537405706638662 0 -0.0037813855873414367 -0.00016075657553979599 0 -0.0037221815672336235 -0.00010910430361291801 0 -0.0038148572257311777 -0.0002102498235138002 0 -0.0037479397066265182 -0.00015537405706638662 0 -0.0037813855873414367 -0.00016075657553979599 0 -0.0037813855873414367 -0.00016075657553979599 0 -0.0037221815672336235 -0.00010910430361291801 0 -0.0037369327978659041 -0.00013217738202732994 0 -0.0037221815672336235 -0.00010910430361291801 0 -0.0037203988385040737 -0.00012545562498784133 0 -0.0037284651348812375 -0.00010430303401886996 0 -0.0037203988385040737 -0.00012545562498784133 0 -0.003737065740692264 -0.00010249289524732485 0 -0.0037284651348812375 -0.00010430303401886996 0 -0.0037203988385040737 -0.00012545562498784133 0 -0.0037329305220057353 -8.5603268023479726e-05 0 -0.003737065740692264 -0.00010249289524732485 0 -0.0037014774518208857 -0.00018055068143894924 0 -0.0037203988385040737 -0.00012545562498784133 0 -0.0037329305220057353 -8.5603268023479726e-05 0 -0.0037738953431978614 -0.00010219129771254038 0 -0.003737065740692264 -0.00010249289524732485 0 -0.0037501535157107389 -0.00010128451351800957 0 -0.003737065740692264 -0.00010249289524732485 0 -0.0037284651348812375 -0.00010430303401886996 0 -0.0037501535157107389 -0.00010128451351800957 0 -0.0037284651348812375 -0.00010430303401886996 0 -0.0037501535157107389 -0.00010128451351800957 0 -0.003715053714223491 -0.00011081541692743413 0 -0.0037501535157107389 -0.00010128451351800957 0 -0.0037102438500826256 -0.00013820274585783432 0 -0.003715053714223491 -0.00011081541692743413 0 -0.0037646419346290005 -8.1101368451841121e-05 0 -0.0037501535157107389 -0.00010128451351800957 0 -0.0037481454564401782 -0.00010211881840728751 0 -0.0037501535157107389 -0.00010128451351800957 0 -0.0037481454564401782 -0.00010211881840728751 0 -0.0037102438500826256 -0.00013820274585783432 0 -0.0032394992421581007 -2.9287243993179261e-05 0 -0.0033919091560964927 -0.00010102973797725485 0 -0.0027090263526087697 0.00035717061977236708 0 -0.0029071263919933196 0.00018744320836243007 0 -0.0026906311337202529 4.2554185673688385e-05 0 -0.0029071263919933196 0.00018744320836243007 0 -0.0026906311337202529 4.2554185673688385e-05 0 -0.0030896333225870335 -8.4957712995755108e-05 0 -0.0025452624377192241 0.00027539878065456128 0 -0.0023694331551828928 0.00019811907007179322 0 -0.0026906311337202529 4.2554185673688385e-05 0 -0.002954727944798671 5.4020549522120287e-05 0 -0.0032394992421581007 -2.9287243993179261e-05 0 -0.0037639880968680802 -6.4696137385161927e-05 0 -0.0037646419346290005 -8.1101368451841121e-05 0 -0.0037481454564401782 -0.00010211881840728751 0 -0.0033551760105335103 0.00027910400742281883 0 -0.0031732735367775594 0.00024634475914081473 0 -0.0034095622318152888 9.6847508554129272e-05 0 -0.0031732735367775594 0.00024634475914081473 0 -0.0030896333225870335 -8.4957712995755108e-05 0 -0.0034095622318152888 9.6847508554129272e-05 0 -0.0031732735367775594 0.00024634475914081473 0 -0.0029071263919933196 0.00018744320836243007 0 -0.0030896333225870335 -8.4957712995755108e-05 0 -0.0030896333225870335 -8.4957712995755108e-05 0 -0.0035919845485805264 -0.00012519176982671626 0 -0.0034095622318152888 9.6847508554129272e-05 0 -0.0033919091560964927 -0.00010102973797725485 0 -0.0035699845713033601 -0.00012872038147962664 0 -0.0037102438500826256 -0.00013820274585783432 0 -0.003715053714223491 -0.00011081541692743413 0 -0.0035919845485805264 -0.00012519176982671626 0 -0.0037221815672336235 -0.00010910430361291801 0 -0.0037284651348812375 -0.00010430303401886996 0 -0.003715053714223491 -0.00011081541692743413 0 -0.0037221815672336235 -0.00010910430361291801 0 -0.0035919845485805264 -0.00012519176982671626 0 -0.0037369327978659041 -0.00013217738202732994 0 -0.0037221815672336235 -0.00010910430361291801 0 -0.003715053714223491 -0.00011081541692743413 0 -0.0035919845485805264 -0.00012519176982671626 0 -0.0037646472067020698 -0.00012144596082919283 0 -0.0035919845485805264 -0.00012519176982671626 0 -0.0037369327978659041 -0.00013217738202732994 0 -0.0037646472067020698 -0.00012144596082919283 0 -0.0037079642373755136 -6.5657134875254979e-05 0 -0.0038092828307537303 -8.2522443497645083e-05 0 -0.0037646472067020698 -0.00012144596082919283 0 -0.0037079642373755136 -6.5657134875254979e-05 0 -0.0035919845485805264 -0.00012519176982671626 0 -0.0037079642373755136 -6.5657134875254979e-05 0 -0.0035919845485805264 -0.00012519176982671626 0 -0.0036242149280330481 5.2706353589070451e-05 0 -0.0035919845485805264 -0.00012519176982671626 0 -0.0036242149280330481 5.2706353589070451e-05 0 -0.0034095622318152888 9.6847508554129272e-05 0 -0.0037079642373755136 -6.5657134875254979e-05 0 -0.0036242149280330481 5.2706353589070451e-05 0 -0.0037609659749014337 1.757469014436412e-05 0 -0.0036242149280330481 5.2706353589070451e-05 0 -0.0036538672289249119 0.00018383197236707501 0 -0.0035298382516634917 0.00017740599361355184 0 -0.0036242149280330481 5.2706353589070451e-05 0 -0.0036538672289249119 0.00018383197236707501 0 -0.0037149223024796002 0.00010187562467135794 0 -0.0035074910253958484 0.00029768822403286458 0 -0.0036538672289249119 0.00018383197236707501 0 -0.0035298382516634917 0.00017740599361355184 0 -0.0033551760105335103 0.00027910400742281883 0 -0.0035298382516634917 0.00017740599361355184 0 -0.0034095622318152888 9.6847508554129272e-05 0 -0.0036242149280330481 5.2706353589070451e-05 0 -0.0035298382516634917 0.00017740599361355184 0 -0.0034095622318152888 9.6847508554129272e-05 0 -0.0038477381301865255 0.00012674411999364434 0 -0.0038488197207025951 0.00018723606228721894 0 -0.0037756186152349837 0.00017908249574564143 0 -0.0038477381301865255 0.00012674411999364434 0 -0.0037756186152349837 0.00017908249574564143 0 -0.0037872630483444109 0.00010732864579685939 0 -0.0038477381301865255 0.00012674411999364434 0 -0.0038930492648626973 0.0001692293070436856 0 -0.0039084048039697275 0.00012926811304436988 0 -0.0038930492648626973 0.0001692293070436856 0 -0.0038488197207025951 0.00018723606228721894 0 -0.003887480333221349 0.00021620727150320401 0 -0.0038477381301865255 0.00012674411999364434 0 -0.0038930492648626973 0.0001692293070436856 0 -0.0038488197207025951 0.00018723606228721894 0 -0.0038552657230936545 0.00028877345829468452 0 -0.003887480333221349 0.00021620727150320401 0 -0.0038318650774758702 0.00023707196212597039 0 -0.0038488197207025951 0.00018723606228721894 0 -0.003887480333221349 0.00021620727150320401 0 -0.0038318650774758702 0.00023707196212597039 0 -0.0037817729245613863 0.00025822757266045463 0 -0.0038318650774758702 0.00023707196212597039 0 -0.0037756186152349837 0.00017908249574564143 0 -0.0038488197207025951 0.00018723606228721894 0 -0.0038318650774758702 0.00023707196212597039 0 -0.0037756186152349837 0.00017908249574564143 0 -0.0037130608909943744 0.00024952718685150252 0 -0.0037817729245613863 0.00025822757266045463 0 -0.0037756186152349837 0.00017908249574564143 0 -0.0037130608909943744 0.00024952718685150252 0 -0.0036538672289249119 0.00018383197236707501 0 -0.0037756186152349837 0.00017908249574564143 0 -0.0036538672289249119 0.00018383197236707501 0 -0.0037756186152349837 0.00017908249574564143 0 -0.0037149223024796002 0.00010187562467135794 0 -0.0037756186152349837 0.00017908249574564143 0 -0.0037872630483444109 0.00010732864579685939 0 -0.0037149223024796002 0.00010187562467135794 0 -0.0037872630483444109 0.00010732864579685939 0 -0.0037609659749014337 1.757469014436412e-05 0 -0.0038263490956758593 5.6261376933690568e-05 0 -0.0037872630483444109 0.00010732864579685939 0 -0.0037149223024796002 0.00010187562467135794 0 -0.0037609659749014337 1.757469014436412e-05 0 -0.0036242149280330481 5.2706353589070451e-05 0 -0.0037149223024796002 0.00010187562467135794 0 -0.0037609659749014337 1.757469014436412e-05 0 -0.0037609659749014337 1.757469014436412e-05 0 -0.0038263490956758593 5.6261376933690568e-05 0 -0.0038582161304407856 -1.9398854241827736e-05 0 -0.0038263490956758593 5.6261376933690568e-05 0 -0.0038808923339906615 5.91437211642479e-05 0 -0.0038582161304407856 -1.9398854241827736e-05 0 -0.0038477381301865255 0.00012674411999364434 0 -0.0037872630483444109 0.00010732864579685939 0 -0.0038263490956758593 5.6261376933690568e-05 0 -0.0038477381301865255 0.00012674411999364434 0 -0.0038263490956758593 5.6261376933690568e-05 0 -0.0038808923339906615 5.91437211642479e-05 0 -0.0038808923339906615 5.91437211642479e-05 0 -0.0039316658480342019 5.9446734523193055e-05 0 -0.0039084048039697275 0.00012926811304436988 0 -0.0038477381301865255 0.00012674411999364434 0 -0.0038808923339906615 5.91437211642479e-05 0 -0.0039084048039697275 0.00012926811304436988 0 -0.0038808923339906615 5.91437211642479e-05 0 -0.0039011935097439895 4.9046342178840681e-06 0 -0.0038582161304407856 -1.9398854241827736e-05 0 -0.0038808923339906615 5.91437211642479e-05 0 -0.0039011935097439895 4.9046342178840681e-06 0 -0.0039316658480342019 5.9446734523193055e-05 0 -0.0038582161304407856 -1.9398854241827736e-05 0 -0.0038842742198014549 -0.00011270842462732212 0 -0.0039316902940599793 -7.4765524143489645e-05 0 -0.0038582161304407856 -1.9398854241827736e-05 0 -0.0038092828307537303 -8.2522443497645083e-05 0 -0.0038842742198014549 -0.00011270842462732212 0 -0.0039011935097439895 4.9046342178840681e-06 0 -0.0038582161304407856 -1.9398854241827736e-05 0 -0.0039316902940599793 -7.4765524143489645e-05 0 -0.0037609659749014337 1.757469014436412e-05 0 -0.0038582161304407856 -1.9398854241827736e-05 0 -0.0038092828307537303 -8.2522443497645083e-05 0 -0.0037079642373755136 -6.5657134875254979e-05 0 -0.0037609659749014337 1.757469014436412e-05 0 -0.0038092828307537303 -8.2522443497645083e-05 0 -0.0037646472067020698 -0.00012144596082919283 0 -0.0038092828307537303 -8.2522443497645083e-05 0 -0.0038837566606915001 -0.00013566095642092636 0 -0.0038092828307537303 -8.2522443497645083e-05 0 -0.0038842742198014549 -0.00011270842462732212 0 -0.0038837566606915001 -0.00013566095642092636 0 -0.0038842742198014549 -0.00011270842462732212 0 -0.0039316902940599793 -7.4765524143489645e-05 0 -0.0039075385823990364 -0.00015060344911662667 0 -0.0038842742198014549 -0.00011270842462732212 0 -0.0038837566606915001 -0.00013566095642092636 0 -0.0039075385823990364 -0.00015060344911662667 0 -0.0039805792115041923 -0.00020832221105179487 0 -0.0038837566606915001 -0.00013566095642092636 0 -0.0040730540073884106 -0.00015179487632819647 0 -0.0038732874661365508 -0.00018379991327567845 0 -0.0040836775974439085 0.00010820304726267218 0 -0.0039805792115041923 -0.00020832221105179487 0 -0.0040773778255073084 -0.0003003975756949869 0 -0.0040730540073884106 -0.00015179487632819647 0 -0.0040833788609557428 6.1636167405071458e-05 0 -0.0040836775974439085 0.00010820304726267218 0 -0.0039805792115041923 -0.00020832221105179487 0 -0.0038837566606915001 -0.00013566095642092636 0 -0.0038643595195671726 -0.00018215933666854378 0 -0.0039805792115041923 -0.00020832221105179487 0 -0.0038643595195671726 -0.00018215933666854378 0 -0.0039947988391881815 -0.00026263725148492113 0 -0.0037646472067020698 -0.00012144596082919283 0 -0.0037369327978659041 -0.00013217738202732994 0 -0.0038643595195671726 -0.00018215933666854378 0 -0.0037646472067020698 -0.00012144596082919283 0 -0.0038837566606915001 -0.00013566095642092636 0 -0.0038643595195671726 -0.00018215933666854378 0 -0.0037813855873414367 -0.00016075657553979599 0 -0.0037369327978659041 -0.00013217738202732994 0 -0.0038643595195671726 -0.00018215933666854378 0 -0.0037813855873414367 -0.00016075657553979599 0 -0.0038643595195671726 -0.00018215933666854378 0 -0.0038646559510067593 -0.00021366256784865814 0 -0.0038148572257311777 -0.0002102498235138002 0 -0.0037813855873414367 -0.00016075657553979599 0 -0.0038646559510067593 -0.00021366256784865814 0 -0.0038643595195671726 -0.00018215933666854378 0 -0.0039627069832407049 -0.00027022982534386772 0 -0.0039947988391881815 -0.00026263725148492113 0 -0.0038643595195671726 -0.00018215933666854378 0 -0.0039627069832407049 -0.00027022982534386772 0 -0.0038646559510067593 -0.00021366256784865814 0 -0.0038148572257311777 -0.0002102498235138002 0 -0.0038646559510067593 -0.00021366256784865814 0 -0.0039089464113311722 -0.00026796111990660276 0 -0.0039627069832407049 -0.00027022982534386772 0 -0.0038646559510067593 -0.00021366256784865814 0 -0.0039089464113311722 -0.00026796111990660276 0 -0.0038422485464210307 -0.00028147056753500909 0 -0.0038148572257311777 -0.0002102498235138002 0 -0.0039089464113311722 -0.00026796111990660276 0 -0.0038422485464210307 -0.00028147056753500909 0 -0.0039089464113311722 -0.00026796111990660276 0 -0.0039511075297340454 -0.00034466229126577048 0 -0.0039089464113311722 -0.00026796111990660276 0 -0.0039511075297340454 -0.00034466229126577048 0 -0.0040290846981822261 -0.00033312465707892948 0 -0.0038422485464210307 -0.00028147056753500909 0 -0.0039511075297340454 -0.00034466229126577048 0 -0.003871219231538838 -0.00036844475249410538 0 -0.0039627069832407049 -0.00027022982534386772 0 -0.0040290846981822261 -0.00033312465707892948 0 -0.0040865240206711569 -0.00036716467912574832 0 -0.0039627069832407049 -0.00027022982534386772 0 -0.0039089464113311722 -0.00026796111990660276 0 -0.0040290846981822261 -0.00033312465707892948 0 -0.0040833788609557428 6.1636167405071458e-05 0 -0.0040826872253687634 -3.3423481380176078e-06 0 -0.0040865240206711569 -0.00036716467912574832 0 -0.0040773778255073084 -0.0003003975756949869 0 -0.0040932334668926842 -0.00038366855648487076 0 -0.0039805792115041923 -0.00020832221105179487 0 -0.0040773778255073084 -0.0003003975756949869 0 -0.0039947988391881815 -0.00026263725148492113 0 -0.0039627069832407049 -0.00027022982534386772 0 -0.0040865240206711569 -0.00036716467912574832 0 -0.0039947988391881815 -0.00026263725148492113 0 -0.0040865240206711569 -0.00036716467912574832 0 -0.0040773778255073084 -0.0003003975756949869 0 -0.0039947988391881815 -0.00026263725148492113 0 -0.0041689519720742906 -0.00033903165957712935 0 -0.0041498824708336504 -0.00027350982449340759 0 -0.0040932334668926842 -0.00038366855648487076 0 -0.0041689519720742906 -0.00033903165957712935 0 -0.0041498824708336504 -0.00027350982449340759 0 -0.0043520107584386373 -0.00021795120863525041 0 -0.0041689519720742906 -0.00033903165957712935 0 -0.004150747619734549 -0.00039020414445068888 0 -0.0042467257013881878 -0.00034627740194945585 0 -0.0040733471194870146 0.00037345627212307211 0 -0.0040601178217680748 0.00031856539354406125 0 -0.0040855643332298897 0.00033675846668469099 0 -0.0041498824708336504 -0.00027350982449340759 0 -0.0040932334668926842 -0.00038366855648487076 0 -0.0040793397129168119 -0.00022600230872795593 0 -0.0040826872253687634 -3.3423481380176078e-06 0 -0.0040601122086737938 4.3952468492870368e-05 0 -0.0040865240206711569 -0.00036716467912574832 0 -0.0040932334668926842 -0.00038366855648487076 0 -0.004150747619734549 -0.00039020414445068888 0 -0.0041689519720742906 -0.00033903165957712935 0 -0.0040932334668926842 -0.00038366855648487076 0 -0.004150747619734549 -0.00039020414445068888 0 -0.0040865240206711569 -0.00036716467912574832 0 -0.004150747619734549 -0.00039020414445068888 0 -0.0041785586110886334 -0.00044208473422505416 0 -0.0039511075297340454 -0.00034466229126577048 0 -0.0040290846981822261 -0.00033312465707892948 0 -0.0041785586110886334 -0.00044208473422505416 0 -0.0040290846981822261 -0.00033312465707892948 0 -0.0040865240206711569 -0.00036716467912574832 0 -0.0041785586110886334 -0.00044208473422505416 0 -0.004150747619734549 -0.00039020414445068888 0 -0.0041785586110886334 -0.00044208473422505416 0 -0.0042467257013881878 -0.00034627740194945585 0 -0.0039511075297340454 -0.00034466229126577048 0 -0.0039372998471243923 -0.00046234056043341674 0 -0.003871219231538838 -0.00036844475249410538 0 -0.0039511075297340454 -0.00034466229126577048 0 -0.0041785586110886334 -0.00044208473422505416 0 -0.0039372998471243923 -0.00046234056043341674 0 -0.0041974832281592668 -0.00046007111880714191 0 -0.0042324684438497968 -0.00047672183420632998 0 -0.0041785586110886334 -0.00044208473422505416 0 -0.0045522248434317104 -0.00052113894952676666 0 -0.0044819512080422992 -0.00037022685872157033 0 -0.0046428184774300997 -0.00035405949739913869 0 -0.0044819512080422992 -0.00037022685872157033 0 -0.0045743553936414064 -0.00024516514622546358 0 -0.0045522248434317104 -0.00052113894952676666 0 -0.0046428184774300997 -0.00035405949739913869 0 -0.0044819512080422992 -0.00037022685872157033 0 -0.0044819512080422992 -0.00037022685872157033 0 -0.0045743553936414064 -0.00024516514622546358 0 -0.0043845646525669741 -0.00031534748679891048 0 -0.0046428184774300997 -0.00035405949739913869 0 -0.0045743553936414064 -0.00024516514622546358 0 -0.0047190664320686127 -0.00021775668053290894 0 -0.0045743553936414064 -0.00024516514622546358 0 -0.0043845646525669741 -0.00031534748679891048 0 -0.0043520107584386373 -0.00021795120863525041 0 -0.0041785586110886334 -0.00044208473422505416 0 -0.0044819512080422992 -0.00037022685872157033 0 -0.0043845646525669741 -0.00031534748679891048 0 -0.0041785586110886334 -0.00044208473422505416 0 -0.0042467257013881878 -0.00034627740194945585 0 -0.0043845646525669741 -0.00031534748679891048 0 -0.0042467257013881878 -0.00034627740194945585 0 -0.0043845646525669741 -0.00031534748679891048 0 -0.0043520107584386373 -0.00021795120863525041 0 -0.0041689519720742906 -0.00033903165957712935 0 -0.0042467257013881878 -0.00034627740194945585 0 -0.0043520107584386373 -0.00021795120863525041 0 -0.0043520107584386373 -0.00021795120863525041 0 -0.0046590263735497304 -9.7865150805722929e-05 0 -0.0044949576188252245 -5.8026918837180491e-05 0 -0.0043520107584386373 -0.00021795120863525041 0 -0.0044949576188252245 -5.8026918837180491e-05 0 -0.0042998537936599539 -2.2716274675444442e-05 0 -0.0045743553936414064 -0.00024516514622546358 0 -0.0043520107584386373 -0.00021795120863525041 0 -0.0046590263735497304 -9.7865150805722929e-05 0 -0.0045743553936414064 -0.00024516514622546358 0 -0.0046590263735497304 -9.7865150805722929e-05 0 -0.0047190664320686127 -0.00021775668053290894 0 -0.0046590263735497304 -9.7865150805722929e-05 0 -0.0046916342842007195 6.6013421944226324e-05 0 -0.0048000601185409783 2.4840433099766533e-05 0 -0.0046590263735497304 -9.7865150805722929e-05 0 -0.0046916342842007195 6.6013421944226324e-05 0 -0.0044949576188252245 -5.8026918837180491e-05 0 -0.0046916342842007195 6.6013421944226324e-05 0 -0.0044949576188252245 -5.8026918837180491e-05 0 -0.0043919146021568507 9.0722437593963821e-05 0 -0.0044949576188252245 -5.8026918837180491e-05 0 -0.0043919146021568507 9.0722437593963821e-05 0 -0.0042998537936599539 -2.2716274675444442e-05 0 -0.0042998537936599539 -2.2716274675444442e-05 0 -0.0042191613444587366 -0.00017424639138097195 0 -0.0041206137044862215 0.00012262116545749555 0 -0.0043919146021568507 9.0722437593963821e-05 0 -0.0042998537936599539 -2.2716274675444442e-05 0 -0.0042682771565480037 0.00010311065377364104 0 -0.0042998537936599539 -2.2716274675444442e-05 0 -0.0041206137044862215 0.00012262116545749555 0 -0.0042682771565480037 0.00010311065377364104 0 -0.0043520107584386373 -0.00021795120863525041 0 -0.0042998537936599539 -2.2716274675444442e-05 0 -0.0042191613444587366 -0.00017424639138097195 0 -0.0041498824708336504 -0.00027350982449340759 0 -0.0043520107584386373 -0.00021795120863525041 0 -0.0042191613444587366 -0.00017424639138097195 0 -0.0042191613444587366 -0.00017424639138097195 0 -0.0040793397129168119 -0.00022600230872795593 0 -0.0041206137044862215 0.00012262116545749555 0 -0.0041498824708336504 -0.00027350982449340759 0 -0.0042191613444587366 -0.00017424639138097195 0 -0.0040793397129168119 -0.00022600230872795593 0 -0.0040601178217680748 0.00031856539354406125 0 -0.0040814958088083442 0.0003082774989216287 0 -0.0040855643332298897 0.00033675846668469099 0 -0.0040601178217680748 0.00031856539354406125 0 -0.0040814958088083442 0.0003082774989216287 0 -0.0040516889489157337 0.00025326019638675392 0 -0.0040601122086737938 4.3952468492870368e-05 0 -0.0041677988097686865 0.00020602994370158719 0 -0.0041677988097686865 0.00020602994370158719 0 -0.0041870736572830903 0.00022367634199977918 0 -0.0040814958088083442 0.0003082774989216287 0 -0.0040516889489157337 0.00025326019638675392 0 -0.0040959987229369941 0.0002797663891933249 0 -0.0041145481574581385 0.00014247316780385076 0 -0.004270217855374004 0.00023307284671549085 0 -0.0041608080066874416 0.00048347636897166246 0 -0.004270217855374004 0.00023307284671549085 0 -0.0041608080066874416 0.00048347636897166246 0 -0.0043866571551388006 0.00030502368939207427 0 -0.0041677988097686865 0.00020602994370158719 0 -0.0046273641152514543 0.00012506671303099813 0 -0.0043919146021568507 9.0722437593963821e-05 0 -0.0042682771565480037 0.00010311065377364104 0 -0.004270217855374004 0.00023307284671549085 0 -0.0043919146021568507 9.0722437593963821e-05 0 -0.004270217855374004 0.00023307284671549085 0 -0.0043866571551388006 0.00030502368939207427 0 -0.0041677988097686865 0.00020602994370158719 0 -0.0042255804015780638 0.00021138326303852734 0 -0.0041206137044862215 0.00012262116545749555 0 -0.0042682771565480037 0.00010311065377364104 0 -0.004270217855374004 0.00023307284671549085 0 -0.0049555240984651035 3.5120963526977621e-05 0 -0.0049203873398675681 2.5931800741031088e-05 0 -0.0048882934162642628 6.0662889021693559e-05 0 -0.0046273641152514543 0.00012506671303099813 0 -0.0046192987425361671 0.00019278763809177441 0 -0.0043929422588708357 0.00015165563199691078 0 -0.004384901266650496 6.9954642198631568e-05 0 -0.0044496005186665504 7.3255048179626388e-05 0 -0.0049917810866041733 9.8622868295346683e-06 0 -0.0049942413604290338 3.8680971934083611e-06 0 -0.0049990012994389254 3.0227404128813962e-06 0 -0.004384901266650496 6.9954642198631568e-05 0 -0.0044496005186665504 7.3255048179626388e-05 0 -0.0044585550324848545 7.6203296699202391e-06 0 -0.0049942413604290338 3.8680971934083611e-06 0 -0.0049977137883917442 1.5552956996933993e-06 0 -0.0049990012994389254 3.0227404128813962e-06 0 -0.0046273641152514543 0.00012506671303099813 0 -0.0047561973348091398 -2.352003497047453e-05 0 -0.0049679206169034882 7.3903876854931829e-06 0 -0.0049617814032207807 7.0685276682520043e-06 0 -0.0049203873398675681 2.5931800741031088e-05 0 -0.0049555240984651035 3.5120963526977621e-05 0 -0.0049679206169034882 7.3903876854931829e-06 0 -0.0049203873398675681 2.5931800741031088e-05 0 -0.0046273641152514543 0.00012506671303099813 0 -0.0049837289205847011 -5.8847109205292647e-06 0 -0.0049942413604290338 3.8680971934083611e-06 0 -0.0049982922027903554 -1.0837276062953673e-07 0 -0.0049977137883917442 1.5552956996933993e-06 0 -0.0049837289205847011 -5.8847109205292647e-06 0 -0.0049927359553330886 2.2606371397596896e-06 0 -0.0049679206169034882 7.3903876854931829e-06 0 -0.0049982922027903554 -1.0837276062953673e-07 0 -0.0049617814032207807 7.0685276682520043e-06 0 -0.0049982922027903554 -1.0837276062953673e-07 0 -0.0050000035011132172 6.1505480863460531e-10 0 -0.0049999265884287164 -6.2125063277877204e-10 0 -0.0049982922027903554 -1.0837276062953673e-07 0 -0.0050000035011132172 6.1505480863460531e-10 0 -0.0049977137883917442 1.5552956996933993e-06 0 -0.0050000035011132172 6.1505480863460531e-10 0 -0.0049977137883917442 1.5552956996933993e-06 0 -0.0049990012994389254 3.0227404128813962e-06 0 -0.004955318808805659 1.0804310858187304e-05 0 -0.0049999265884287164 -6.2125063277877204e-10 0 -0.0049999129729355711 1.9886833063717863e-08 0 -0.004955318808805659 1.0804310858187304e-05 0 -0.004907778973683866 2.9882948873630547e-05 0 -0.0049999129729355711 1.9886833063717863e-08 0 -0.004955318808805659 1.0804310858187304e-05 0 -0.0049999265884287164 -6.2125063277877204e-10 0 -0.0049617814032207807 7.0685276682520043e-06 0 -0.0049982922027903554 -1.0837276062953673e-07 0 -0.0049999265884287164 -6.2125063277877204e-10 0 -0.0049617814032207807 7.0685276682520043e-06 0 -0.0049617814032207807 7.0685276682520043e-06 0 -0.0049110711103290405 2.1435557041805668e-05 0 -0.0049203873398675681 2.5931800741031088e-05 0 -0.004955318808805659 1.0804310858187304e-05 0 -0.0049617814032207807 7.0685276682520043e-06 0 -0.0049110711103290405 2.1435557041805668e-05 0 -0.004955318808805659 1.0804310858187304e-05 0 -0.0049110711103290405 2.1435557041805668e-05 0 -0.004907778973683866 2.9882948873630547e-05 0 -0.004907778973683866 2.9882948873630547e-05 0 -0.0048175631061466414 4.8418569352282229e-05 0 -0.0048761322076859223 3.969484967256816e-05 0 -0.0049110711103290405 2.1435557041805668e-05 0 -0.004907778973683866 2.9882948873630547e-05 0 -0.0048175631061466414 4.8418569352282229e-05 0 -0.0049203873398675681 2.5931800741031088e-05 0 -0.0048844241957282427 3.6265133709203885e-05 0 -0.0048882934162642628 6.0662889021693559e-05 0 -0.0049110711103290405 2.1435557041805668e-05 0 -0.0048175631061466414 4.8418569352282229e-05 0 -0.0048844241957282427 3.6265133709203885e-05 0 -0.0048175631061466414 4.8418569352282229e-05 0 -0.0048844241957282427 3.6265133709203885e-05 0 -0.0048882934162642628 6.0662889021693559e-05 0 -0.0049110711103290405 2.1435557041805668e-05 0 -0.0049203873398675681 2.5931800741031088e-05 0 -0.0048844241957282427 3.6265133709203885e-05 0 -0.0046916342842007195 6.6013421944226324e-05 0 -0.0048175631061466414 4.8418569352282229e-05 0 -0.0048882934162642628 6.0662889021693559e-05 0 -0.0047085533040511756 7.1101652028143685e-05 0 -0.0046192987425361671 0.00019278763809177441 0 -0.0046916342842007195 6.6013421944226324e-05 0 -0.0043919146021568507 9.0722437593963821e-05 0 -0.0043866571551388006 0.00030502368939207427 0 -0.0046916342842007195 6.6013421944226324e-05 0 -0.0048175631061466414 4.8418569352282229e-05 0 -0.0048000601185409783 2.4840433099766533e-05 0 -0.0048000601185409783 2.4840433099766533e-05 0 -0.0049291793023929515 2.8474787752266805e-05 0 -0.0048761322076859223 3.969484967256816e-05 0 -0.0048175631061466414 4.8418569352282229e-05 0 -0.0048000601185409783 2.4840433099766533e-05 0 -0.0048761322076859223 3.969484967256816e-05 0 -0.0049291793023929515 2.8474787752266805e-05 0 -0.0048761322076859223 3.969484967256816e-05 0 -0.0049406366417397264 2.6517503921357957e-05 0 -0.0049291793023929515 2.8474787752266805e-05 0 -0.0049406366417397264 2.6517503921357957e-05 0 -0.0049554285219996063 1.0389496164067561e-05 0 -0.004907778973683866 2.9882948873630547e-05 0 -0.0048761322076859223 3.969484967256816e-05 0 -0.0049406366417397264 2.6517503921357957e-05 0 -0.004907778973683866 2.9882948873630547e-05 0 -0.0049406366417397264 2.6517503921357957e-05 0 -0.0049999129729355711 1.9886833063717863e-08 0 -0.0049406366417397264 2.6517503921357957e-05 0 -0.0049999129729355711 1.9886833063717863e-08 0 -0.0049999478012314651 2.1213943346307606e-08 0 -0.004999939938324309 -1.5282313959041131e-08 0 -0.0049999478012314651 2.1213943346307606e-08 0 -0.0049554285219996063 1.0389496164067561e-05 0 -0.0049406366417397264 2.6517503921357957e-05 0 -0.0049999478012314651 2.1213943346307606e-08 0 -0.0049554285219996063 1.0389496164067561e-05 0 -0.004999939938324309 -1.5282313959041131e-08 0 -0.0049554285219996063 1.0389496164067561e-05 0 -0.0049565264199351927 -3.4068796609046429e-06 0 -0.0049554285219996063 1.0389496164067561e-05 0 -0.0049289668493332677 7.9880424278066179e-06 0 -0.0049565264199351927 -3.4068796609046429e-06 0 -0.0049554285219996063 1.0389496164067561e-05 0 -0.004930120372120054 2.2033882612100611e-05 0 -0.0049289668493332677 7.9880424278066179e-06 0 -0.0049291793023929515 2.8474787752266805e-05 0 -0.0049554285219996063 1.0389496164067561e-05 0 -0.004930120372120054 2.2033882612100611e-05 0 -0.0049291793023929515 2.8474787752266805e-05 0 -0.004930120372120054 2.2033882612100611e-05 0 -0.0049220398140887881 4.4705267457806898e-05 0 -0.004930120372120054 2.2033882612100611e-05 0 -0.004897638616299921 3.175977081876953e-05 0 -0.0049289668493332677 7.9880424278066179e-06 0 -0.004930120372120054 2.2033882612100611e-05 0 -0.0049220398140887881 4.4705267457806898e-05 0 -0.004897638616299921 3.175977081876953e-05 0 -0.0049220398140887881 4.4705267457806898e-05 0 -0.004891107458791363 7.50584700684143e-05 0 -0.004897638616299921 3.175977081876953e-05 0 -0.0049209151938668918 6.3978687429551382e-05 0 -0.004908621604236987 8.3703589600266743e-05 0 -0.004891107458791363 7.50584700684143e-05 0 -0.0049209151938668918 6.3978687429551382e-05 0 -0.0049220398140887881 4.4705267457806898e-05 0 -0.004891107458791363 7.50584700684143e-05 0 -0.0049209151938668918 6.3978687429551382e-05 0 -0.0049390927376402709 5.6572179621236301e-05 0 -0.0049256970173636241 7.8152940839612523e-05 0 -0.0049209151938668918 6.3978687429551382e-05 0 -0.0049220398140887881 4.4705267457806898e-05 0 -0.0049390927376402709 5.6572179621236301e-05 0 -0.0049209151938668918 6.3978687429551382e-05 0 -0.004908621604236987 8.3703589600266743e-05 0 -0.0049256970173636241 7.8152940839612523e-05 0 -0.0049291793023929515 2.8474787752266805e-05 0 -0.0049220398140887881 4.4705267457806898e-05 0 -0.0049390927376402709 5.6572179621236301e-05 0 -0.0049291793023929515 2.8474787752266805e-05 0 -0.0048180344862123409 -9.6891913618392993e-05 0 -0.0049246290170987077 -0.00014949850771297911 0 -0.0049112255276976486 2.5271941823209742e-05 0 -0.0050018153394329251 -4.7432477679651262e-05 0 -0.0046590263735497304 -9.7865150805722929e-05 0 -0.0048000601185409783 2.4840433099766533e-05 0 -0.0048180344862123409 -9.6891913618392993e-05 0 -0.0048000601185409783 2.4840433099766533e-05 0 -0.0049291793023929515 2.8474787752266805e-05 0 -0.0048180344862123409 -9.6891913618392993e-05 0 -0.0046590263735497304 -9.7865150805722929e-05 0 -0.0048180344862123409 -9.6891913618392993e-05 0 -0.0047190664320686127 -0.00021775668053290894 0 -0.0048180344862123409 -9.6891913618392993e-05 0 -0.0047190664320686127 -0.00021775668053290894 0 -0.004822873381719623 -0.00028564418708026512 0 -0.0048180344862123409 -9.6891913618392993e-05 0 -0.0049246290170987077 -0.00014949850771297911 0 -0.004822873381719623 -0.00028564418708026512 0 -0.0049246290170987077 -0.00014949850771297911 0 -0.004822873381719623 -0.00028564418708026512 0 -0.0049165586024334995 -0.00044334020815197761 0 -0.0050018153394329251 -4.7432477679651262e-05 0 -0.0044353138332842677 -0.00014611490923255649 0 -0.0049268671054076953 0.00010548246111004958 0 -0.0049560983232525575 0.00012085020490749123 0 -0.0049256970173636241 7.8152940839612523e-05 0 -0.0049390927376402709 5.6572179621236301e-05 0 -0.0049560983232525575 0.00012085020490749123 0 -0.0049256970173636241 7.8152940839612523e-05 0 -0.0046428184774300997 -0.00035405949739913869 0 -0.0047190664320686127 -0.00021775668053290894 0 -0.004822873381719623 -0.00028564418708026512 0 -0.004822873381719623 -0.00028564418708026512 0 -0.004762130935598444 -0.00045221064966635916 0 -0.0049165586024334995 -0.00044334020815197761 0 -0.0046428184774300997 -0.00035405949739913869 0 -0.004822873381719623 -0.00028564418708026512 0 -0.004762130935598444 -0.00045221064966635916 0 -0.0047138172616571529 -0.00045539369296056063 0 -0.0044035533717868012 -0.00038796532923703281 0 -0.0042324684438497968 -0.00047672183420632998 0 -0.0044035533717868012 -0.00038796532923703281 0 -0.0045522248434317104 -0.00052113894952676666 0 -0.0046428184774300997 -0.00035405949739913869 0 -0.0048140272647626331 -0.0005177843291566057 0 -0.0038097258312531903 -0.00032747585926773442 0 -0.0037688849280809512 -0.00032198844959235206 0 -0.0038080579614613026 -0.00043847741087917828 0 -0.0039372998471243923 -0.00046234056043341674 0 -0.0038080579614613026 -0.00043847741087917828 0 -0.003871219231538838 -0.00036844475249410538 0 -0.0038097258312531903 -0.00032747585926773442 0 -0.0038080579614613026 -0.00043847741087917828 0 -0.003871219231538838 -0.00036844475249410538 0 -0.0044035533717868012 -0.00038796532923703281 0 -0.0044353138332842677 -0.00014611490923255649 0 -0.0038357618518876681 -0.00012502945341421204 0 -0.0044353138332842677 -0.00014611490923255649 0 -0.004140040834097726 -0.00011328687229543193 0 -0.0043476350473741375 -0.00030596024996267873 0 -0.0041319390633220345 -0.00030558866990124746 0 -0.0037209252832964708 -0.00032348966531113186 0 -0.0037688849280809512 -0.00032198844959235206 0 -0.0038080579614613026 -0.00043847741087917828 0 -0.0038357618518876681 -0.00012502945341421204 0 -0.0044035533717868012 -0.00038796532923703281 0 -0.0036510159309859425 4.4601982673984186e-05 0 -0.0036551533356774684 7.3122889026371436e-05 0 -0.003681898099512069 5.5538406867940492e-05 0 -0.0049268671054076953 0.00010548246111004958 0 -0.0049560983232525575 0.00012085020490749123 0 -0.004789105927987162 0.00014692570570201978 0 -0.0044353138332842677 -0.00014611490923255649 0 -0.0041835977041835498 0.00014007618051434546 0 -0.0049268671054076953 0.00010548246111004958 0 -0.0047158894993166965 0.00013537622673455684 0 -0.004789105927987162 0.00014692570570201978 0 -0.0036551533356774684 7.3122889026371436e-05 0 -0.003681898099512069 5.5538406867940492e-05 0 -0.0037134134824943895 8.0643349590822294e-05 0 -0.0049032474145755565 0.00010865473040461291 0 -0.0048478953915594208 0.00011697491030852655 0 -0.0037101872271030653 4.483342286004583e-05 0 -0.003681898099512069 5.5538406867940492e-05 0 -0.0037134134824943895 8.0643349590822294e-05 0 -0.0037362780207791683 6.3355152035229518e-05 0 -0.0037134134824943895 8.0643349590822294e-05 0 -0.00378711618453253 9.2242712507371248e-05 0 -0.0047158894993166965 0.00013537622673455684 0 -0.004789105927987162 0.00014692570570201978 0 -0.004599705643925609 0.00015118636819373783 0 -0.0037101872271030653 4.483342286004583e-05 0 -0.0037362780207791683 6.3355152035229518e-05 0 -0.0037134134824943895 8.0643349590822294e-05 0 -0.0041835977041835498 0.00014007618051434546 0 -0.0043886133392081386 0.0001185836591509155 0 -0.0049025697098427877 9.5577879076321756e-05 0 -0.004908621604236987 8.3703589600266743e-05 0 -0.004912065999380045 9.6016131427678104e-05 0 -0.0048920761829422789 0.00010856057372536907 0 -0.0049025697098427877 9.5577879076321756e-05 0 -0.004912065999380045 9.6016131427678104e-05 0 -0.004894374412069598 9.0370945249556773e-05 0 -0.004908621604236987 8.3703589600266743e-05 0 -0.004891107458791363 7.50584700684143e-05 0 -0.0048920761829422789 0.00010856057372536907 0 -0.004894374412069598 9.0370945249556773e-05 0 -0.0048763027871370828 9.7080528032269546e-05 0 -0.0048920761829422789 0.00010856057372536907 0 -0.0049025697098427877 9.5577879076321756e-05 0 -0.004894374412069598 9.0370945249556773e-05 0 -0.0049025697098427877 9.5577879076321756e-05 0 -0.004894374412069598 9.0370945249556773e-05 0 -0.004908621604236987 8.3703589600266743e-05 0 -0.004908621604236987 8.3703589600266743e-05 0 -0.0049256970173636241 7.8152940839612523e-05 0 -0.004912065999380045 9.6016131427678104e-05 0 -0.0049268671054076953 0.00010548246111004958 0 -0.0048920761829422789 0.00010856057372536907 0 -0.004912065999380045 9.6016131427678104e-05 0 -0.0049268671054076953 0.00010548246111004958 0 -0.0049256970173636241 7.8152940839612523e-05 0 -0.004912065999380045 9.6016131427678104e-05 0 -0.0047821163612288189 0.00012911909537421262 0 -0.0048569568691495969 0.00012981347438272147 0 -0.0047980251876740482 0.00020925734325035681 0 -0.0047821163612288189 0.00012911909537421262 0 -0.0048569568691495969 0.00012981347438272147 0 -0.0048333984863556216 6.815908727282377e-05 0 -0.0048998288153220236 7.4322341462984838e-05 0 -0.0043692808534547458 0.00017966250071253787 0 -0.0048763027871370828 9.7080528032269546e-05 0 -0.0048554091116331782 9.0963233406472159e-05 0 -0.004891107458791363 7.50584700684143e-05 0 -0.0048763027871370828 9.7080528032269546e-05 0 -0.0048554091116331782 9.0963233406472159e-05 0 -0.0048185792376341371 0.00012382627987830185 0 -0.004894374412069598 9.0370945249556773e-05 0 -0.0048763027871370828 9.7080528032269546e-05 0 -0.004891107458791363 7.50584700684143e-05 0 -0.0048998288153220236 7.4322341462984838e-05 0 -0.0048719403015015771 9.4380483921480756e-05 0 -0.0037362780207791683 6.3355152035229518e-05 0 -0.00378711618453253 9.2242712507371248e-05 0 -0.0037643821216230872 6.0553249305936953e-05 0 -0.0048920761829422789 0.00010856057372536907 0 -0.0048763027871370828 9.7080528032269546e-05 0 -0.0048557386719132204 0.00011966664710568574 0 -0.0048478953915594208 0.00011697491030852655 0 -0.0043886133392081386 0.0001185836591509155 0 -0.0048763027871370828 9.7080528032269546e-05 0 -0.0048557386719132204 0.00011966664710568574 0 -0.0048185792376341371 0.00012382627987830185 0 -0.0037883695098813721 5.3394389164702997e-05 0 -0.00378711618453253 9.2242712507371248e-05 0 -0.0037643821216230872 6.0553249305936953e-05 0 -0.0037883695098813721 5.3394389164702997e-05 0 -0.00378711618453253 9.2242712507371248e-05 0 -0.0038262519537473581 9.2829176984409619e-05 0 -0.0043886133392081386 0.0001185836591509155 0 -0.0043692808534547458 0.00017966250071253787 0 -0.0047821163612288189 0.00012911909537421262 0 -0.0047980251876740482 0.00020925734325035681 0 -0.0046838678826033563 0.00022487821817635976 0 -0.0042756264428752419 9.0671421023653332e-05 0 -0.0041500675691664114 0.00021638740722149693 0 -0.0042590878748754108 0.00020650180843560293 0 -0.0043692808534547458 0.00017966250071253787 0 -0.004489494937728533 0.00021086625330143309 0 -0.0040131337199721317 8.4029548572117234e-05 0 -0.0043692808534547458 0.00017966250071253787 0 -0.004489494937728533 0.00021086625330143309 0 -0.0044542078127041782 0.00020658304661978045 0 -0.0043247644717115171 0.00011664673047028481 0 -0.0042590878748754108 0.00020650180843560293 0 -0.0044522528777037693 0.00020139939352767204 0 -0.0046838678826033563 0.00022487821817635976 0 -0.0044522528777037693 0.00020139939352767204 0 -0.0046598778761103759 0.00011970004441316901 0 -0.0044522528777037693 0.00020139939352767204 0 -0.0046598778761103759 0.00011970004441316901 0 -0.0045799877889385462 0.00010419057387979418 0 -0.0046598778761103759 0.00011970004441316901 0 -0.0046812620627503928 7.3377915908568646e-05 0 -0.0045799877889385462 0.00010419057387979418 0 -0.0047821163612288189 0.00012911909537421262 0 -0.0046838678826033563 0.00022487821817635976 0 -0.0046598778761103759 0.00011970004441316901 0 -0.0047821163612288189 0.00012911909537421262 0 -0.0046598778761103759 0.00011970004441316901 0 -0.0047482015436103031 8.1817308967066307e-05 0 -0.0047482015436103031 8.1817308967066307e-05 0 -0.004756554991166873 4.2641952247830658e-05 0 -0.0048333984863556216 6.815908727282377e-05 0 -0.0047482015436103031 8.1817308967066307e-05 0 -0.0046812620627503928 7.3377915908568646e-05 0 -0.004756554991166873 4.2641952247830658e-05 0 -0.0046598778761103759 0.00011970004441316901 0 -0.0047482015436103031 8.1817308967066307e-05 0 -0.0046812620627503928 7.3377915908568646e-05 0 -0.0046812620627503928 7.3377915908568646e-05 0 -0.004756554991166873 4.2641952247830658e-05 0 -0.0046673881141734794 5.8440012815825715e-05 0 -0.0046812620627503928 7.3377915908568646e-05 0 -0.0046673881141734794 5.8440012815825715e-05 0 -0.0045799877889385462 0.00010419057387979418 0 -0.004756554991166873 4.2641952247830658e-05 0 -0.0047465254008873881 9.5783499208647098e-06 0 -0.0046673881141734794 5.8440012815825715e-05 0 -0.0047958277843059985 1.5378460231154863e-06 0 -0.0046851859655332173 5.6588496494382426e-05 0 -0.004756554991166873 4.2641952247830658e-05 0 -0.0048469627032219501 3.013265324752431e-05 0 -0.0048247234136483998 7.9354663068746979e-06 0 -0.0048469627032219501 3.013265324752431e-05 0 -0.0048333984863556216 6.815908727282377e-05 0 -0.004897638616299921 3.175977081876953e-05 0 -0.004756554991166873 4.2641952247830658e-05 0 -0.0048469627032219501 3.013265324752431e-05 0 -0.0048333984863556216 6.815908727282377e-05 0 -0.0047821163612288189 0.00012911909537421262 0 -0.0047482015436103031 8.1817308967066307e-05 0 -0.0048333984863556216 6.815908727282377e-05 0 -0.0048333984863556216 6.815908727282377e-05 0 -0.004891107458791363 7.50584700684143e-05 0 -0.004897638616299921 3.175977081876953e-05 0 -0.0048569568691495969 0.00012981347438272147 0 -0.0048333984863556216 6.815908727282377e-05 0 -0.004891107458791363 7.50584700684143e-05 0 -0.004897638616299921 3.175977081876953e-05 0 -0.004888483251132743 5.8519674819305548e-06 0 -0.0049289668493332677 7.9880424278066179e-06 0 -0.0048469627032219501 3.013265324752431e-05 0 -0.004897638616299921 3.175977081876953e-05 0 -0.004888483251132743 5.8519674819305548e-06 0 -0.0048469627032219501 3.013265324752431e-05 0 -0.004888483251132743 5.8519674819305548e-06 0 -0.0048247234136483998 7.9354663068746979e-06 0 -0.004888483251132743 5.8519674819305548e-06 0 -0.0049216156039167411 -1.0174342907578451e-05 0 -0.0048530028445070983 -2.0327993724301593e-05 0 -0.004888483251132743 5.8519674819305548e-06 0 -0.0049289668493332677 7.9880424278066179e-06 0 -0.0049216156039167411 -1.0174342907578451e-05 0 -0.0049289668493332677 7.9880424278066179e-06 0 -0.0049565264199351927 -3.4068796609046429e-06 0 -0.0049216156039167411 -1.0174342907578451e-05 0 -0.0049565264199351927 -3.4068796609046429e-06 0 -0.0049216156039167411 -1.0174342907578451e-05 0 -0.0049714473872530286 -1.1232444664094871e-05 0 -0.0049216156039167411 -1.0174342907578451e-05 0 -0.0049714473872530286 -1.1232444664094871e-05 0 -0.0048530028445070983 -2.0327993724301593e-05 0 -0.004999939938324309 -1.5282313959041131e-08 0 -0.004999925345181868 -1.062219801674302e-08 0 -0.0049714473872530286 -1.1232444664094871e-05 0 -0.004999939938324309 -1.5282313959041131e-08 0 -0.0049565264199351927 -3.4068796609046429e-06 0 -0.0049714473872530286 -1.1232444664094871e-05 0 -0.0049999264190869457 -2.5594323267659018e-08 0 -0.0049758416760826343 -1.1935481335436784e-05 0 -0.0049141535214976238 -2.4413332789383146e-05 0 -0.004999925345181868 -1.062219801674302e-08 0 -0.0049714473872530286 -1.1232444664094871e-05 0 -0.0049758416760826343 -1.1935481335436784e-05 0 -0.004999925345181868 -1.062219801674302e-08 0 -0.0049999264190869457 -2.5594323267659018e-08 0 -0.0049758416760826343 -1.1935481335436784e-05 0 -0.0049588586952243061 -1.2356801946227679e-05 0 -0.0048967497098852692 -1.5453826392250572e-05 0 -0.0049714473872530286 -1.1232444664094871e-05 0 -0.0049758416760826343 -1.1935481335436784e-05 0 -0.0049404979675888193 -1.5597335699567648e-05 0 -0.0049758416760826343 -1.1935481335436784e-05 0 -0.0049404979675888193 -1.5597335699567648e-05 0 -0.0049141535214976238 -2.4413332789383146e-05 0 -0.0049404979675888193 -1.5597335699567648e-05 0 -0.004850337934730246 -4.4608548388411518e-06 0 -0.0049141535214976238 -2.4413332789383146e-05 0 -0.0048967497098852692 -1.5453826392250572e-05 0 -0.0047958277843059985 1.5378460231154863e-06 0 -0.004888483251132743 5.8519674819305548e-06 0 -0.0048530028445070983 -2.0327993724301593e-05 0 -0.0048247234136483998 7.9354663068746979e-06 0 -0.004756554991166873 4.2641952247830658e-05 0 -0.0048247234136483998 7.9354663068746979e-06 0 -0.0047465254008873881 9.5783499208647098e-06 0 -0.0048530028445070983 -2.0327993724301593e-05 0 -0.0048247234136483998 7.9354663068746979e-06 0 -0.0047465254008873881 9.5783499208647098e-06 0 -0.004850337934730246 -4.4608548388411518e-06 0 -0.0047797652045349784 -2.869516608061553e-05 0 -0.0049141535214976238 -2.4413332789383146e-05 0 -0.0046951913449989969 -2.6566123981392064e-05 0 -0.0046313805880821698 1.6181649438985825e-06 0 -0.0047797652045349784 -2.869516608061553e-05 0 -0.0048302021346107405 -3.1180904641123597e-05 0 -0.0046114749170061272 -6.0053267131654329e-06 0 -0.0047797652045349784 -2.869516608061553e-05 0 -0.0048907976185829103 -1.879352363214539e-05 0 -0.0048302021346107405 -3.1180904641123597e-05 0 -0.0047797652045349784 -2.869516608061553e-05 0 -0.0049141535214976238 -2.4413332789383146e-05 0 -0.0048907976185829103 -1.879352363214539e-05 0 -0.0049141535214976238 -2.4413332789383146e-05 0 -0.0048907976185829103 -1.879352363214539e-05 0 -0.0049998795974902401 2.4181938209751491e-09 0 -0.0048907976185829103 -1.879352363214539e-05 0 -0.0049998795974902401 2.4181938209751491e-09 0 -0.004945149497346233 -1.060931995137617e-05 0 -0.0049999264190869457 -2.5594323267659018e-08 0 -0.0049141535214976238 -2.4413332789383146e-05 0 -0.0049998795974902401 2.4181938209751491e-09 0 -0.0050000461426508028 1.095407643537927e-07 0 -0.0047056612466708676 -6.5726002506035578e-06 0 -0.0045515805738352974 -3.1543695011806106e-07 0 -0.0049999199085298488 -2.7188006468550678e-08 0 -0.0048252709670556972 -2.0257313414437445e-05 0 -0.0050000461426508028 1.095407643537927e-07 0 -0.0049996322557858408 -5.7214283993398645e-08 0 -0.0047056612466708676 -6.5726002506035578e-06 0 -0.0049998795974902401 2.4181938209751491e-09 0 -0.0049999975925537638 -8.0133366573274646e-09 0 -0.004945149497346233 -1.060931995137617e-05 0 -0.0047056612466708676 -6.5726002506035578e-06 0 -0.0045515805738352974 -3.1543695011806106e-07 0 -0.004552146296437457 -3.8425058093362368e-05 0 -0.0048907976185829103 -1.879352363214539e-05 0 -0.004945149497346233 -1.060931995137617e-05 0 -0.0048302021346107405 -3.1180904641123597e-05 0 -0.0048252709670556972 -2.0257313414437445e-05 0 -0.0046951913449989969 -2.6566123981392064e-05 0 -0.0045515805738352974 -3.1543695011806106e-07 0 -0.004552146296437457 -3.8425058093362368e-05 0 -0.0044142234083514587 -1.4667953165581838e-05 0 -0.0044142234083514587 -1.4667953165581838e-05 0 -0.0039433436757503491 5.433563128379486e-07 0 -0.0043700264950682641 8.147477016662023e-05 0 -0.0045515805738352974 -3.1543695011806106e-07 0 -0.0044142234083514587 -1.4667953165581838e-05 0 -0.0039433436757503491 5.433563128379486e-07 0 -0.0044855766216089533 2.9331476645878526e-05 0 -0.0044142234083514587 -1.4667953165581838e-05 0 -0.0043700264950682641 8.147477016662023e-05 0 -0.0044855766216089533 2.9331476645878526e-05 0 -0.0045106898967865027 9.9601054397959401e-05 0 -0.0043700264950682641 8.147477016662023e-05 0 -0.0044855766216089533 2.9331476645878526e-05 0 -0.0044142234083514587 -1.4667953165581838e-05 0 -0.0046114749170061272 -6.0053267131654329e-06 0 -0.004552146296437457 -3.8425058093362368e-05 0 -0.0044142234083514587 -1.4667953165581838e-05 0 -0.0046114749170061272 -6.0053267131654329e-06 0 -0.004850337934730246 -4.4608548388411518e-06 0 -0.0047797652045349784 -2.869516608061553e-05 0 -0.0046673881141734794 5.8440012815825715e-05 0 -0.0047797652045349784 -2.869516608061553e-05 0 -0.0046114749170061272 -6.0053267131654329e-06 0 -0.0046673881141734794 5.8440012815825715e-05 0 -0.0046673881141734794 5.8440012815825715e-05 0 -0.0046120189727059504 9.3811100228372219e-05 0 -0.0045799877889385462 0.00010419057387979418 0 -0.0046673881141734794 5.8440012815825715e-05 0 -0.004589945324722516 5.0280869155576558e-05 0 -0.0046120189727059504 9.3811100228372219e-05 0 -0.0046114749170061272 -6.0053267131654329e-06 0 -0.0046673881141734794 5.8440012815825715e-05 0 -0.004589945324722516 5.0280869155576558e-05 0 -0.0044855766216089533 2.9331476645878526e-05 0 -0.0046114749170061272 -6.0053267131654329e-06 0 -0.004589945324722516 5.0280869155576558e-05 0 -0.004589945324722516 5.0280869155576558e-05 0 -0.0046120189727059504 9.3811100228372219e-05 0 -0.0045106898967865027 9.9601054397959401e-05 0 -0.0044855766216089533 2.9331476645878526e-05 0 -0.004589945324722516 5.0280869155576558e-05 0 -0.0045106898967865027 9.9601054397959401e-05 0 -0.0045106898967865027 9.9601054397959401e-05 0 -0.0046034345999277455 0.00016946320605251125 0 -0.0043940829930431647 0.00018782627001302562 0 -0.0044156155015677833 8.1841987224168792e-05 0 -0.0040834865023988212 7.3882659094365221e-05 0 -0.0046120189727059504 9.3811100228372219e-05 0 -0.0045106898967865027 9.9601054397959401e-05 0 -0.0046034345999277455 0.00016946320605251125 0 -0.0045113272975677229 8.6715354174538681e-05 0 -0.0044156155015677833 8.1841987224168792e-05 0 -0.0046120189727059504 9.3811100228372219e-05 0 -0.0046130920512906428 8.3208951214148091e-05 0 -0.0045799877889385462 0.00010419057387979418 0 -0.0044156155015677833 8.1841987224168792e-05 0 -0.0046110833262669173 9.9637397702882435e-05 0 -0.0044322816643780393 0.00012831213761515397 0 -0.0045799877889385462 0.00010419057387979418 0 -0.0044597815351718343 0.00017604603015983095 0 -0.0044108517427795908 0.00013927417147449966 0 -0.0044522528777037693 0.00020139939352767204 0 -0.0044597815351718343 0.00017604603015983095 0 -0.0044343651586591449 0.00019604028432409348 0 -0.0044464426669903901 0.00016693198963106358 0 -0.0044522528777037693 0.00020139939352767204 0 -0.0045799877889385462 0.00010419057387979418 0 -0.0044597815351718343 0.00017604603015983095 0 -0.0044275788776646403 0.00019828910884585045 0 -0.0044597815351718343 0.00017604603015983095 0 -0.004442961751414373 0.00018327642163828455 0 -0.0042980903846527767 0.00014639944192746342 0 -0.0044156155015677833 8.1841987224168792e-05 0 -0.0044322816643780393 0.00012831213761515397 0 -0.0044597815351718343 0.00017604603015983095 0 -0.004442961751414373 0.00018327642163828455 0 -0.0044275833103954868 0.00020545142561375211 0 -0.0044322816643780393 0.00012831213761515397 0 -0.004442961751414373 0.00018327642163828455 0 -0.0040883420491570534 6.6120935994238019e-05 0 -0.0040989684511161147 3.5037480123088669e-05 0 -0.0040762544061340973 3.726875771263116e-05 0 -0.0035617691682085116 -3.4230923681824627e-05 0 -0.0037029751307161673 -4.9995561289918938e-06 0 -0.0036396120132343905 0.00010475680596862255 0 -0.0040777323701788595 6.6914528684785407e-05 0 -0.0040883420491570534 6.6120935994238019e-05 0 -0.0040762544061340973 3.726875771263116e-05 0 -0.003773992621598667 4.747451357577072e-06 0 -0.0040834865023988212 7.3882659094365221e-05 0 -0.0036475508558622507 -1.5504241457712689e-07 0 -0.0037029751307161673 -4.9995561289918938e-06 0 -0.003942061474927502 3.0872224462797346e-07 0 -0.0039424832980663764 8.8766533427286766e-08 0 -0.0040834865023988212 7.3882659094365221e-05 0 -0.0039433436757503491 5.433563128379486e-07 0 -0.0043700264950682641 8.147477016662023e-05 0 -0.004375089479096028 0.00017070197804145738 0 -0.0037029751307161673 -4.9995561289918938e-06 0 -0.003942061474927502 3.0872224462797346e-07 0 -0.0036396120132343905 0.00010475680596862255 0 -0.0042187042938716607 0.00012893987156710032 0 -0.0040834865023988212 7.3882659094365221e-05 0 -0.0045106898967865027 9.9601054397959401e-05 0 -0.0043700264950682641 8.147477016662023e-05 0 -0.0043940829930431647 0.00018782627001302562 0 -0.0041889022894095324 0.0004899455685545217 0 -0.00416744605081082 0.00049426417858955158 0 -0.0042504857034167684 0.00050563808447269217 0 -0.0041889022894095324 0.0004899455685545217 0 -0.00416744605081082 0.00049426417858955158 0 -0.0041542475909027198 0.00048492314230488956 0 -0.00416744605081082 0.00049426417858955158 0 -0.00415146008320353 0.00049767698181306028 0 -0.0041488256811956382 0.00048853288945754621 0 -0.00416744605081082 0.00049426417858955158 0 -0.0041488256811956382 0.00048853288945754621 0 -0.0041542475909027198 0.00048492314230488956 0 -0.0041488256811956382 0.00048853288945754621 0 -0.0041440099177823307 0.00049038002342488411 0 -0.0041409253485396444 0.00048684999895649844 0 -0.0041488256811956382 0.00048853288945754621 0 -0.0041542475909027198 0.00048492314230488956 0 -0.0041409253485396444 0.00048684999895649844 0 -0.0041542475909027198 0.00048492314230488956 0 -0.0041349503721286856 0.00048841975489928211 0 -0.0041409253485396444 0.00048684999895649844 0 -0.0041889022894095324 0.0004899455685545217 0 -0.0041542475909027198 0.00048492314230488956 0 -0.0041349503721286856 0.00048841975489928211 0 -0.0041889022894095324 0.0004899455685545217 0 -0.0041349503721286856 0.00048841975489928211 0 -0.0041922496410933836 0.00049403978075552538 0 -0.0041349503721286856 0.00048841975489928211 0 -0.0041466316150493713 0.00049437047661203537 0 -0.0041922496410933836 0.00049403978075552538 0 -0.0041466316150493713 0.00049437047661203537 0 -0.0041648339192384273 0.0004719945821093986 0 -0.0042128495844491022 0.00049152390318430816 0 -0.0041466316150493713 0.00049437047661203537 0 -0.0041922496410933836 0.00049403978075552538 0 -0.0042128495844491022 0.00049152390318430816 0 -0.0042493679137011056 0.00049605869371826844 0 -0.0041922496410933836 0.00049403978075552538 0 -0.0042128495844491022 0.00049152390318430816 0 -0.0042493679137011056 0.00049605869371826844 0 -0.0041922496410933836 0.00049403978075552538 0 -0.0042329717106728351 0.00049717443945582185 0 -0.0041889022894095324 0.0004899455685545217 0 -0.0042329717106728351 0.00049717443945582185 0 -0.0042504857034167684 0.00050563808447269217 0 -0.0041889022894095324 0.0004899455685545217 0 -0.0041922496410933836 0.00049403978075552538 0 -0.0042329717106728351 0.00049717443945582185 0 -0.0042329717106728351 0.00049717443945582185 0 -0.0042504857034167684 0.00050563808447269217 0 -0.004280701141823131 0.00049228395371574238 0 -0.0042504857034167684 0.00050563808447269217 0 -0.004280701141823131 0.00049228395371574238 0 -0.0042972259078035728 0.00048074294435236691 0 -0.0042493679137011056 0.00049605869371826844 0 -0.004280701141823131 0.00049228395371574238 0 -0.0043017596877146643 0.00048395280232331494 0 -0.0042493679137011056 0.00049605869371826844 0 -0.0042329717106728351 0.00049717443945582185 0 -0.004280701141823131 0.00049228395371574238 0 -0.004280701141823131 0.00049228395371574238 0 -0.0043290639225163291 0.00047613331732912614 0 -0.0043017596877146643 0.00048395280232331494 0 -0.0043290639225163291 0.00047613331732912614 0 -0.0043017596877146643 0.00048395280232331494 0 -0.0043595152776670721 0.00046597875835470767 0 -0.0042504857034167684 0.00050563808447269217 0 -0.0042972259078035728 0.00048074294435236691 0 -0.0043040720663453467 0.00048259323583234884 0 -0.004280701141823131 0.00049228395371574238 0 -0.0043290639225163291 0.00047613331732912614 0 -0.0042972259078035728 0.00048074294435236691 0 -0.0043290639225163291 0.00047613331732912614 0 -0.0042972259078035728 0.00048074294435236691 0 -0.0043269990600608597 0.00046817729727021898 0 -0.0042972259078035728 0.00048074294435236691 0 -0.0043142063769098706 0.0004721695971323113 0 -0.0043269990600608597 0.00046817729727021898 0 -0.0043154318416180277 0.00047318622640276498 0 -0.004336798869726652 0.00048176360858243099 0 -0.0043142063769098706 0.0004721695971323113 0 -0.0043274684161988793 0.00048294564342252189 0 -0.0043271378586740052 0.00046994635660387837 0 -0.0043142063769098706 0.0004721695971323113 0 -0.0043040720663453467 0.00048259323583234884 0 -0.004333667570035441 0.00047610320847806014 0 -0.0043040720663453467 0.00048259323583234884 0 -0.0043279734938029375 0.00049888089747769898 0 -0.004333667570035441 0.00047610320847806014 0 -0.0042972259078035728 0.00048074294435236691 0 -0.0043142063769098706 0.0004721695971323113 0 -0.0043040720663453467 0.00048259323583234884 0 -0.0042570009672972444 0.00050609646552495164 0 -0.0042383620179466223 0.00051415380628461204 0 -0.00416744605081082 0.00049426417858955158 0 -0.0042504857034167684 0.00050563808447269217 0 -0.0041757015876081206 0.00052654527441531958 0 -0.0042504857034167684 0.00050563808447269217 0 -0.0043040720663453467 0.00048259323583234884 0 -0.0043279734938029375 0.00049888089747769898 0 -0.0041757015876081206 0.00052654527441531958 0 -0.0041562025886267822 0.00051073884245712799 0 -0.0041498136017756012 0.00052024146200254241 0 -0.00416744605081082 0.00049426417858955158 0 -0.00415146008320353 0.00049767698181306028 0 -0.0041562025886267822 0.00051073884245712799 0 -0.00416744605081082 0.00049426417858955158 0 -0.0041757015876081206 0.00052654527441531958 0 -0.0041562025886267822 0.00051073884245712799 0 -0.0043271378586740052 0.00046994635660387837 0 -0.0043654676627138921 0.00049258694426037165 0 -0.0043868151986179715 0.00049110523842957029 0 -0.0043279734938029375 0.00049888089747769898 0 -0.004333667570035441 0.00047610320847806014 0 -0.0043623157428250951 0.00048661130486478318 0 -0.004336798869726652 0.00048176360858243099 0 -0.0043313529713956507 0.00048538741215063713 0 -0.0048904206851225641 0.00058303492661379087 0 -0.0049821909596556059 0.00058636965672367186 0 -0.0050146116774315939 0.00064069444775058306 0 -0.0043274684161988793 0.00048294564342252189 0 -0.0043654676627138921 0.00049258694426037165 0 -0.0043693190548209273 0.00049781466191163007 0 -0.0046233339694603916 0.00054211197106630556 0 -0.0046508840541881679 0.00046342195508521181 0 -0.0042383620179466223 0.00051415380628461204 0 -0.0043313529713956507 0.00048538741215063713 0 -0.0043274684161988793 0.00048294564342252189 0 -0.0043271378586740052 0.00046994635660387837 0 -0.0043654676627138921 0.00049258694426037165 0 -0.0049821909596556059 0.00058636965672367186 0 -0.0050146116774315939 0.00064069444775058306 0 -0.0050422626557423073 0.00056428499901552489 0 -0.0044723432131425654 0.00038508469476293338 0 -0.0044498450955029589 0.00038639026514869235 0 -0.0044178232818180719 0.0003671859559296028 0 -0.0044237331696533209 0.00046343438249893306 0 -0.0045139907221486107 0.00046306620879593344 0 -0.0043654676627138921 0.00049258694426037165 0 -0.0043820422201567228 0.00049380350895206974 0 -0.0043693190548209273 0.00049781466191163007 0 -0.0043654676627138921 0.00049258694426037165 0 -0.0043818036544725535 0.00049298794911091601 0 -0.0043868151986179715 0.00049110523842957029 0 -0.0045139907221486107 0.00046306620879593344 0 -0.0046508840541881679 0.00046342195508521181 0 -0.0044599951002551926 0.00038813256837539733 0 -0.0044723432131425654 0.00038508469476293338 0 -0.0044498450955029589 0.00038639026514869235 0 -0.0045139907221486107 0.00046306620879593344 0 -0.0043313529713956507 0.00048538741215063713 0 -0.0045514960746396898 0.00042465004700313348 0 -0.0044114072159532796 0.00036032902596776055 0 -0.0046508840541881679 0.00046342195508521181 0 -0.004876097211999793 0.00027713421954455989 0 -0.004627349252982936 0.00036658581503969025 0 -0.0046158709845491724 0.00036064873504253008 0 -0.0047184691714079637 0.00032989427158811377 0 -0.0045971289959521504 0.00044716294700825298 0 -0.004594549169510442 0.00044623506006503564 0 -0.0045958621610497448 0.00044727236175406992 0 -0.0045139907221486107 0.00046306620879593344 0 -0.0045514960746396898 0.00042465004700313348 0 -0.0045514960746396898 0.00042465004700313348 0 -0.0046508840541881679 0.00046342195508521181 0 -0.0050146116774315939 0.00064069444775058306 0 -0.0051104607737807043 0.00061276986609187637 0 -0.0050422626557423073 0.00056428499901552489 0 -0.0049402115919652302 8.7865659404281937e-05 0 -0.0049379854132417488 8.6534712572581949e-05 0 -0.004941770705538061 8.5097320186299636e-05 0 -0.0049336395703306595 9.0394963803565469e-05 0 -0.0049352953346520562 9.3241148228116464e-05 0 -0.0049353244476860736 8.9248633527255528e-05 0 -0.0045514960746396898 0.00042465004700313348 0 -0.0045744739929228628 0.00024725580487138231 0 -0.004627349252982936 0.00036658581503969025 0 -0.0047184691714079637 0.00032989427158811377 0 -0.0047224029592231754 0.00037691663068510975 0 -0.0044589104721587947 0.00038886136944844385 0 -0.004405791770255141 0.00038116889393965898 0 -0.0044178232818180719 0.0003671859559296028 0 -0.004876097211999793 0.00027713421954455989 0 -0.0045744739929228628 0.00024725580487138231 0 -0.0042363474395891408 7.3199760624758479e-05 0 -0.0042366160350175309 7.6047730378324524e-05 0 -0.0042428253408122668 7.763396893647071e-05 0 -0.0041506202609851266 6.2795603427219377e-05 0 -0.004201455008700096 7.9251670832458001e-05 0 -0.0041558486403979822 0.00014008357238130381 0 -0.004405791770255141 0.00038116889393965898 0 -0.0044178232818180719 0.0003671859559296028 0 -0.0044054610628546913 0.00035666018974518128 0 -0.0045744739929228628 0.00024725580487138231 0 -0.0042784719619410249 0.00025015420148805057 0 -0.0044723432131425654 0.00038508469476293338 0 -0.0044178232818180719 0.0003671859559296028 0 -0.0044054610628546913 0.00035666018974518128 0 -0.0041498136017756012 0.00052024146200254241 0 -0.0041355196730825617 0.00050638945046057476 0 -0.004144202609407649 0.0005058320257455692 0 -0.0043313529713956507 0.00048538741215063713 0 -0.0042784719619410249 0.00025015420148805057 0 -0.0041355196730825617 0.00050638945046057476 0 -0.004144202609407649 0.0005058320257455692 0 -0.0041436003882291718 0.00049468515886068396 0 -0.00415146008320353 0.00049767698181306028 0 -0.0041562025886267822 0.00051073884245712799 0 -0.004144202609407649 0.0005058320257455692 0 -0.0041562025886267822 0.00051073884245712799 0 -0.0041498136017756012 0.00052024146200254241 0 -0.004144202609407649 0.0005058320257455692 0 -0.0049205334386039018 9.9614479967761999e-05 0 -0.0048507257654206003 0.00015270235906069828 0 -0.0049342651008510065 8.7086811923971035e-05 0 -0.0049276078847825767 9.4360400669082532e-05 0 -0.0049408751026413355 8.2663908571326794e-05 0 -0.0049342651008510065 8.7086811923971035e-05 0 -0.004932151999317869 8.879628284771947e-05 0 -0.0049276078847825767 9.4360400669082532e-05 0 -0.0049320843540745203 8.6095597162401256e-05 0 -0.0049336350760477146 8.5762361250377455e-05 0 -0.0049313268094197896 7.7032540255122787e-05 0 -0.0049342651008510065 8.7086811923971035e-05 0 -0.004932151999317869 8.879628284771947e-05 0 -0.0049336350760477146 8.5762361250377455e-05 0 -0.0049276078847825767 9.4360400669082532e-05 0 -0.0049320843540745203 8.6095597162401256e-05 0 -0.0049313268094197896 7.7032540255122787e-05 0 -0.004932151999317869 8.879628284771947e-05 0 -0.0049276078847825767 9.4360400669082532e-05 0 -0.0049320843540745203 8.6095597162401256e-05 0 -0.0049336395703306595 9.0394963803565469e-05 0 -0.0049379854132417488 8.6534712572581949e-05 0 -0.0049353244476860736 8.9248633527255528e-05 0 -0.004876097211999793 0.00027713421954455989 0 -0.004973557605180313 6.9959079173273446e-05 0 -0.0049352953346520562 9.3241148228116464e-05 0 -0.0049336350760477146 8.5762361250377455e-05 0 -0.0049353244476860736 8.9248633527255528e-05 0 -0.0045744739929228628 0.00024725580487138231 0 -0.0045906318688255891 4.8824486427196203e-05 0 -0.0049352953346520562 9.3241148228116464e-05 0 -0.0049336350760477146 8.5762361250377455e-05 0 -0.0049313268094197896 7.7032540255122787e-05 0 -0.004932151999317869 8.879628284771947e-05 0 -0.0049320843540745203 8.6095597162401256e-05 0 -0.0049336350760477146 8.5762361250377455e-05 0 -0.0049342651008510065 8.7086811923971035e-05 0 -0.0049336350760477146 8.5762361250377455e-05 0 -0.0049379854132417488 8.6534712572581949e-05 0 -0.0049336350760477146 8.5762361250377455e-05 0 -0.0049379854132417488 8.6534712572581949e-05 0 -0.0049353244476860736 8.9248633527255528e-05 0 -0.0042363474395891408 7.3199760624758479e-05 0 -0.0042428253408122668 7.763396893647071e-05 0 -0.0042522940934496718 6.5333722210302961e-05 0 -0.0042784719619410249 0.00025015420148805057 0 -0.0042001499574896425 7.0762282095971715e-05 0 -0.0049276078847825767 9.4360400669082532e-05 0 -0.0049313268094197896 7.7032540255122787e-05 0 -0.0046695745992539556 5.8626548208833381e-05 0 -0.0042001499574896425 7.0762282095971715e-05 0 -0.0042636044155224947 9.6278505587044373e-05 0 -0.0042428253408122668 7.763396893647071e-05 0 -0.0042522940934496718 6.5333722210302961e-05 0 -0.0042584596997667489 9.5834842333563568e-05 0 -0.004201455008700096 7.9251670832458001e-05 0 -0.0042584596997667489 9.5834842333563568e-05 0 -0.0042124323374532696 0.00014650536135287615 0 -0.0042584596997667489 9.5834842333563568e-05 0 -0.0042124323374532696 0.00014650536135287615 0 -0.0042686273842502597 0.00015014210026127845 0 -0.004201455008700096 7.9251670832458001e-05 0 -0.0042124323374532696 0.00014650536135287615 0 -0.0041558486403979822 0.00014008357238130381 0 -0.0042124323374532696 0.00014650536135287615 0 -0.0041558486403979822 0.00014008357238130381 0 -0.0041606340160836221 0.00021665426462406023 0 -0.0042124323374532696 0.00014650536135287615 0 -0.0041606340160836221 0.00021665426462406023 0 -0.0042287127486559124 0.00019894208048591304 0 -0.0042686273842502597 0.00015014210026127845 0 -0.0042287127486559124 0.00019894208048591304 0 -0.0042849393697834181 0.00020814990720681575 0 -0.0042124323374532696 0.00014650536135287615 0 -0.0042686273842502597 0.00015014210026127845 0 -0.0042287127486559124 0.00019894208048591304 0 -0.00415146008320353 0.00049767698181306028 0 -0.0041488256811956382 0.00048853288945754621 0 -0.0041436003882291718 0.00049468515886068396 0 -0.00415146008320353 0.00049767698181306028 0 -0.004144202609407649 0.0005058320257455692 0 -0.0041436003882291718 0.00049468515886068396 0 -0.0041436003882291718 0.00049468515886068396 0 -0.0041395762983157617 0.00049140816383430293 0 -0.0041440099177823307 0.00049038002342488411 0 -0.0042784719619410249 0.00025015420148805057 0 -0.0041280360870768742 0.00031817873444631671 0 -0.0041355196730825617 0.00050638945046057476 0 -0.0041436003882291718 0.00049468515886068396 0 -0.0041395762983157617 0.00049140816383430293 0 -0.0041395762983157617 0.00049140816383430293 0 -0.0041440099177823307 0.00049038002342488411 0 -0.0041429057870056348 0.00049355739153943807 0 -0.0041280360870768742 0.00031817873444631671 0 -0.0042047704349665021 0.00037251960188883795 0 -0.0041488256811956382 0.00048853288945754621 0 -0.0041436003882291718 0.00049468515886068396 0 -0.0041440099177823307 0.00049038002342488411 0 -0.0041440099177823307 0.00049038002342488411 0 -0.00414290316441541 0.00049627617686114241 0 -0.0041429057870056348 0.00049355739153943807 0 -0.0041440099177823307 0.00049038002342488411 0 -0.00414290316441541 0.00049627617686114241 0 -0.0041409253485396444 0.00048684999895649844 0 -0.00414290316441541 0.00049627617686114241 0 -0.0041429057870056348 0.00049355739153943807 0 -0.0041408321507257892 0.00050009071458417928 0 -0.0038359886699006105 0.00049390040257192417 0 -0.0036666674655404952 0.00032895608856195642 0 -0.0041429057870056348 0.00049355739153943807 0 -0.0041408321507257892 0.00050009071458417928 0 -0.0041382261723567227 0.00049598899394778372 0 -0.0042047704349665021 0.00037251960188883795 0 -0.0036666674655404952 0.00032895608856195642 0 -0.00414290316441541 0.00049627617686114241 0 -0.0041408321507257892 0.00050009071458417928 0 -0.0041305634964965776 0.00051570382284373689 0 -0.0042287127486559124 0.00019894208048591304 0 -0.0042456347716731463 0.00024509642654459813 0 -0.0042849393697834181 0.00020814990720681575 0 -0.0042287127486559124 0.00019894208048591304 0 -0.0041987753252438094 0.00025018739966383921 0 -0.0042456347716731463 0.00024509642654459813 0 -0.0041606340160836221 0.00021665426462406023 0 -0.0042287127486559124 0.00019894208048591304 0 -0.0041987753252438094 0.00025018739966383921 0 -0.0041987753252438094 0.00025018739966383921 0 -0.0042378829721715239 0.00030808210028732244 0 -0.0041636037250515475 0.00028858286594260138 0 -0.0041606340160836221 0.00021665426462406023 0 -0.0041987753252438094 0.00025018739966383921 0 -0.0041636037250515475 0.00028858286594260138 0 -0.0042456347716731463 0.00024509642654459813 0 -0.0042378829721715239 0.00030808210028732244 0 -0.0042778530000382878 0.00026322527507075362 0 -0.0041987753252438094 0.00025018739966383921 0 -0.0042456347716731463 0.00024509642654459813 0 -0.0042378829721715239 0.00030808210028732244 0 -0.0036477138067769308 0.00018387262539515395 0 -0.0036666674655404952 0.00032895608856195642 0 -0.0031169583914113638 0.00015585385873135359 0 -0.0036666674655404952 0.00032895608856195642 0 -0.003098503673618302 9.9986082927901865e-05 0 -0.003047748864218935 0.00014808140090351351 0 -0.0030508349821637575 9.1276928193027604e-05 0 -0.003098503673618302 9.9986082927901865e-05 0 -0.003047748864218935 0.00014808140090351351 0 -0.0031062396347623484 0.00012800971652837762 0 -0.0030830322372320685 0.00017155228128306861 0 -0.003047748864218935 0.00014808140090351351 0 -0.0031062396347623484 0.00012800971652837762 0 -0.003497711092645967 0.0004616218142637788 0 -0.0035633704111722835 0.00026865184394741658 0 -0.0036359469683190045 0.0003875908550925759 0 -0.003497711092645967 0.0004616218142637788 0 -0.0034236046832708707 0.00027101842841126885 0 -0.0035633704111722835 0.00026865184394741658 0 -0.0033037244473991365 0.00020545546350152956 0 -0.0033228373019597219 0.00040646940149024205 0 -0.0034236046832708707 0.00027101842841126885 0 -0.003497711092645967 0.0004616218142637788 0 -0.0033228373019597219 0.00040646940149024205 0 -0.0034236046832708707 0.00027101842841126885 0 -0.0033877118382527232 0.00015468026661478537 0 -0.0033037244473991365 0.00020545546350152956 0 -0.0034236046832708707 0.00027101842841126885 0 -0.0034736746681574017 0.00017646359413018168 0 -0.0034236046832708707 0.00027101842841126885 0 -0.0035633704111722835 0.00026865184394741658 0 -0.0034736746681574017 0.00017646359413018168 0 -0.0033877118382527232 0.00015468026661478537 0 -0.0034236046832708707 0.00027101842841126885 0 -0.0035663649403769068 0.00016961174653437743 0 -0.0034736746681574017 0.00017646359413018168 0 -0.0035633704111722835 0.00026865184394741658 0 -0.0035663649403769068 0.00016961174653437743 0 -0.0035633704111722835 0.00026865184394741658 0 -0.0036585648591952466 0.00019402240866951548 0 -0.0036585648591952466 0.00019402240866951548 0 -0.003711084827750801 0.00026793111439296272 0 -0.0037375978251928924 0.00018605694282828626 0 -0.0035633704111722835 0.00026865184394741658 0 -0.0036585648591952466 0.00019402240866951548 0 -0.003711084827750801 0.00026793111439296272 0 -0.003860754764649965 0.0002212386798295812 0 -0.0037375978251928924 0.00018605694282828626 0 -0.003856028343723979 0.00018612710608492913 0 -0.003711084827750801 0.00026793111439296272 0 -0.003860754764649965 0.0002212386798295812 0 -0.0037375978251928924 0.00018605694282828626 0 -0.0036707886442338259 0.00017124678882433604 0 -0.0036585648591952466 0.00019402240866951548 0 -0.0037375978251928924 0.00018605694282828626 0 -0.003860754764649965 0.0002212386798295812 0 -0.0037985086197759761 0.00035624052046963366 0 -0.0039746288490564614 0.00035482257345499716 0 -0.003711084827750801 0.00026793111439296272 0 -0.003860754764649965 0.0002212386798295812 0 -0.0037985086197759761 0.00035624052046963366 0 -0.0035633704111722835 0.00026865184394741658 0 -0.003711084827750801 0.00026793111439296272 0 -0.0036359469683190045 0.0003875908550925759 0 -0.003711084827750801 0.00026793111439296272 0 -0.0037985086197759761 0.00035624052046963366 0 -0.0036359469683190045 0.0003875908550925759 0 -0.0037985086197759761 0.00035624052046963366 0 -0.0036359469683190045 0.0003875908550925759 0 -0.0037268482816685358 0.00051792083468111736 0 -0.0038359886699006105 0.00049390040257192417 0 -0.0039242855611315705 0.00050834879666068766 0 -0.003497711092645967 0.0004616218142637788 0 -0.0036359469683190045 0.0003875908550925759 0 -0.0037268482816685358 0.00051792083468111736 0 -0.0037985086197759761 0.00035624052046963366 0 -0.0037268482816685358 0.00051792083468111736 0 -0.0040540408097548917 0.00050938218095541857 0 -0.0037985086197759761 0.00035624052046963366 0 -0.0040540408097548917 0.00050938218095541857 0 -0.0039746288490564614 0.00035482257345499716 0 -0.0039242855611315705 0.00050834879666068766 0 -0.0040362081971465017 0.00051573718400844959 0 -0.0041305634964965776 0.00051570382284373689 0 -0.0041409253485396444 0.00048684999895649844 0 -0.0040540408097548917 0.00050938218095541857 0 -0.0041349503721286856 0.00048841975489928211 0 -0.0041409253485396444 0.00048684999895649844 0 -0.0040540408097548917 0.00050938218095541857 0 -0.00414290316441541 0.00049627617686114241 0 -0.0041305634964965776 0.00051570382284373689 0 -0.0041409253485396444 0.00048684999895649844 0 -0.0041349503721286856 0.00048841975489928211 0 -0.0041466316150493713 0.00049437047661203537 0 -0.0040540408097548917 0.00050938218095541857 0 -0.0041466316150493713 0.00049437047661203537 0 -0.0041648339192384273 0.0004719945821093986 0 -0.0040540408097548917 0.00050938218095541857 0 -0.0040540408097548917 0.00050938218095541857 0 -0.0041109198633802625 0.00037303386130933553 0 -0.0039746288490564614 0.00035482257345499716 0 -0.0041648339192384273 0.0004719945821093986 0 -0.0040540408097548917 0.00050938218095541857 0 -0.0041109198633802625 0.00037303386130933553 0 -0.0041648339192384273 0.0004719945821093986 0 -0.0041109198633802625 0.00037303386130933553 0 -0.0041874421833394022 0.00042824976480591458 0 -0.0041109198633802625 0.00037303386130933553 0 -0.0040543230445299096 0.00029001127636469096 0 -0.0041551497069503883 0.00027387031243824965 0 -0.003860754764649965 0.0002212386798295812 0 -0.0039746288490564614 0.00035482257345499716 0 -0.0040543230445299096 0.00029001127636469096 0 -0.0041109198633802625 0.00037303386130933553 0 -0.0039746288490564614 0.00035482257345499716 0 -0.0040543230445299096 0.00029001127636469096 0 -0.0038710590844803099 0.00021924629794068716 0 -0.0039498286825798111 0.00019824244114915635 0 -0.003860754764649965 0.0002212386798295812 0 -0.0040543230445299096 0.00029001127636469096 0 -0.0040884860175610738 0.00020653218246287494 0 -0.003860754764649965 0.0002212386798295812 0 -0.003856028343723979 0.00018612710608492913 0 -0.0038618365640350786 0.00016838527795005857 0 -0.0040543230445299096 0.00029001127636469096 0 -0.0040884860175610738 0.00020653218246287494 0 -0.0041551497069503883 0.00027387031243824965 0 -0.0041743966414027932 0.00023572802244606762 0 -0.0040884860175610738 0.00020653218246287494 0 -0.0041551497069503883 0.00027387031243824965 0 -0.0041551497069503883 0.00027387031243824965 0 -0.0041937575533815014 0.00030706116376475931 0 -0.0042063197356590597 0.00027088316886348025 0 -0.0041743966414027932 0.00023572802244606762 0 -0.0041551497069503883 0.00027387031243824965 0 -0.0042063197356590597 0.00027088316886348025 0 -0.0041109198633802625 0.00037303386130933553 0 -0.0041551497069503883 0.00027387031243824965 0 -0.0041937575533815014 0.00030706116376475931 0 -0.0041128055539602628 0.00037025938330339803 0 -0.0042020925846720462 0.00035210268492811994 0 -0.0042243408838570284 0.0003942792999210809 0 -0.0042613151064449838 0.00041253447705765509 0 -0.0042523319409331047 0.0004337859583760085 0 -0.0041937575533815014 0.00030706116376475931 0 -0.0042063197356590597 0.00027088316886348025 0 -0.0042083574111620049 0.0002662954050383349 0 -0.0042020925846720462 0.00035210268492811994 0 -0.0042320392551998863 0.0003388586972155689 0 -0.0042063197356590597 0.00027088316886348025 0 -0.00419921600449098 0.00026983285219575988 0 -0.0042083574111620049 0.0002662954050383349 0 -0.004208888322877356 0.00028477083068956948 0 -0.0042063197356590597 0.00027088316886348025 0 -0.00419921600449098 0.00026983285219575988 0 -0.00419921600449098 0.00026983285219575988 0 -0.0041631544776453396 0.00027409196929842393 0 -0.0041637207396703442 0.00022874096831985007 0 -0.0041831952749609193 0.00030144174313283674 0 -0.00419921600449098 0.00026983285219575988 0 -0.0041631544776453396 0.00027409196929842393 0 -0.0042613151064449838 0.00041253447705765509 0 -0.0042705102030750315 0.00043799648825167901 0 -0.0042811171245108028 0.00041879625135195101 0 -0.00419921600449098 0.00026983285219575988 0 -0.0042083574111620049 0.0002662954050383349 0 -0.0041637207396703442 0.00022874096831985007 0 -0.0042320392551998863 0.0003388586972155689 0 -0.004219407770812921 0.00032397342857369235 0 -0.0042613151064449838 0.00041253447705765509 0 -0.0042523319409331047 0.0004337859583760085 0 -0.0042705102030750315 0.00043799648825167901 0 -0.0042705102030750315 0.00043799648825167901 0 -0.0042580519792268538 0.00046295208851689768 0 -0.0042724512127708478 0.00046738262073268272 0 -0.0042705102030750315 0.00043799648825167901 0 -0.0042812273686340663 0.00044883636111634303 0 -0.0042724512127708478 0.00046738262073268272 0 -0.0042523319409331047 0.0004337859583760085 0 -0.0042705102030750315 0.00043799648825167901 0 -0.0042580519792268538 0.00046295208851689768 0 -0.0042523319409331047 0.0004337859583760085 0 -0.0042580519792268538 0.00046295208851689768 0 -0.0042269735487416461 0.00045703340546666103 0 -0.0042580519792268538 0.00046295208851689768 0 -0.0042269735487416461 0.00045703340546666103 0 -0.0042444958837817631 0.00047915410649109223 0 -0.0041648339192384273 0.0004719945821093986 0 -0.0042269735487416461 0.00045703340546666103 0 -0.0042128495844491022 0.00049152390318430816 0 -0.0041648339192384273 0.0004719945821093986 0 -0.0042269735487416461 0.00045703340546666103 0 -0.0041874421833394022 0.00042824976480591458 0 -0.0042243408838570284 0.0003942792999210809 0 -0.0042269735487416461 0.00045703340546666103 0 -0.0041874421833394022 0.00042824976480591458 0 -0.0041109198633802625 0.00037303386130933553 0 -0.0042243408838570284 0.0003942792999210809 0 -0.0041874421833394022 0.00042824976480591458 0 -0.0042243408838570284 0.0003942792999210809 0 -0.0042523319409331047 0.0004337859583760085 0 -0.0042269735487416461 0.00045703340546666103 0 -0.0039316658480342019 5.9446734523193055e-05 0 -0.0039687306308551461 0.00011320831480812177 0 -0.0039316902940599793 -7.4765524143489645e-05 0 -0.0039514318986150036 0.000158287884855632 0 -0.0039084048039697275 0.00012926811304436988 0 -0.0039325844487029873 0.00016175314006605231 0 -0.0039316658480342019 5.9446734523193055e-05 0 -0.0039687306308551461 0.00011320831480812177 0 -0.0039084048039697275 0.00012926811304436988 0 -0.004104937255428597 0.00027239808327201637 0 -0.003940511845400241 0.00022041509328712153 0 -0.0038930492648626973 0.0001692293070436856 0 -0.0039084048039697275 0.00012926811304436988 0 -0.0039325844487029873 0.00016175314006605231 0 -0.0039514318986150036 0.000158287884855632 0 -0.0039414385809536292 0.00017452007323698525 0 -0.003952032783840518 0.0001867297758909977 0 -0.0039325844487029873 0.00016175314006605231 0 -0.0039414385809536292 0.00017452007323698525 0 -0.003926629628388514 0.00019364097168065035 0 -0.0039514318986150036 0.000158287884855632 0 -0.0039325844487029873 0.00016175314006605231 0 -0.0039414385809536292 0.00017452007323698525 0 -0.003926629628388514 0.00019364097168065035 0 -0.0039565373606427687 0.00021867137973066562 0 -0.003952032783840518 0.0001867297758909977 0 -0.0039414385809536292 0.00017452007323698525 0 -0.003926629628388514 0.00019364097168065035 0 -0.003952032783840518 0.0001867297758909977 0 -0.0038930492648626973 0.0001692293070436856 0 -0.003887480333221349 0.00021620727150320401 0 -0.003926629628388514 0.00019364097168065035 0 -0.0038930492648626973 0.0001692293070436856 0 -0.0039325844487029873 0.00016175314006605231 0 -0.003926629628388514 0.00019364097168065035 0 -0.003887480333221349 0.00021620727150320401 0 -0.003926629628388514 0.00019364097168065035 0 -0.0039301560039691086 0.00025477424322106144 0 -0.003926629628388514 0.00019364097168065035 0 -0.0039301560039691086 0.00025477424322106144 0 -0.0039565373606427687 0.00021867137973066562 0 -0.0039301560039691086 0.00025477424322106144 0 -0.0039854982146735815 0.00025244521892693741 0 -0.0039565373606427687 0.00021867137973066562 0 -0.0039854982146735815 0.00025244521892693741 0 -0.0039565373606427687 0.00021867137973066562 0 -0.0039866390249739328 0.00020264914249722228 0 -0.0039565373606427687 0.00021867137973066562 0 -0.0039866390249739328 0.00020264914249722228 0 -0.003952032783840518 0.0001867297758909977 0 -0.0039514318986150036 0.000158287884855632 0 -0.0039866390249739328 0.00020264914249722228 0 -0.003952032783840518 0.0001867297758909977 0 -0.0039866390249739328 0.00020264914249722228 0 -0.0040341007837063712 0.00024433538776462801 0 -0.0040741585862771991 0.00019974426223012806 0 -0.0039854982146735815 0.00025244521892693741 0 -0.0039866390249739328 0.00020264914249722228 0 -0.0040341007837063712 0.00024433538776462801 0 -0.0040301455663372425 0.0002962630424428697 0 -0.0039854982146735815 0.00025244521892693741 0 -0.0040341007837063712 0.00024433538776462801 0 -0.0040301455663372425 0.0002962630424428697 0 -0.0040341007837063712 0.00024433538776462801 0 -0.0040934541732010271 0.0002658250383654526 0 -0.004104937255428597 0.00027239808327201637 0 -0.0041831037945382543 0.0003136073276949727 0 -0.0042848105046748054 0.00043312552375724815 0 -0.0042945390763156335 0.00042286574452220357 0 -0.0042962744172043606 0.00042246200056615218 0 -0.0039514318986150036 0.000158287884855632 0 -0.0039866390249739328 0.00020264914249722228 0 -0.0040741585862771991 0.00019974426223012806 0 -0.0041831037945382543 0.0003136073276949727 0 -0.004219407770812921 0.00032397342857369235 0 -0.0042945390763156335 0.00042286574452220357 0 -0.0042811171245108028 0.00041879625135195101 0 -0.0042898896170270239 0.00043196584319068598 0 -0.0040341007837063712 0.00024433538776462801 0 -0.0040741585862771991 0.00019974426223012806 0 -0.0040934541732010271 0.0002658250383654526 0 -0.0040741585862771991 0.00019974426223012806 0 -0.0040934541732010271 0.0002658250383654526 0 -0.0041637207396703442 0.00022874096831985007 0 -0.0041408960311415163 0.00030999390462469319 0 -0.0040934541732010271 0.0002658250383654526 0 -0.0041631544776453396 0.00027409196929842393 0 -0.0040934541732010271 0.0002658250383654526 0 -0.0041631544776453396 0.00027409196929842393 0 -0.0041637207396703442 0.00022874096831985007 0 -0.0042705102030750315 0.00043799648825167901 0 -0.0042811171245108028 0.00041879625135195101 0 -0.0042898896170270239 0.00043196584319068598 0 -0.0042705102030750315 0.00043799648825167901 0 -0.0042812273686340663 0.00044883636111634303 0 -0.0042898896170270239 0.00043196584319068598 0 -0.0042812273686340663 0.00044883636111634303 0 -0.0042898896170270239 0.00043196584319068598 0 -0.0042911616731863061 0.00045937671387486656 0 -0.0042898896170270239 0.00043196584319068598 0 -0.004303081616250341 0.00044658283395202696 0 -0.0042911616731863061 0.00045937671387486656 0 -0.0042945390763156335 0.00042286574452220357 0 -0.0042898896170270239 0.00043196584319068598 0 -0.0042962744172043606 0.00042246200056615218 0 -0.0042898896170270239 0.00043196584319068598 0 -0.0042962744172043606 0.00042246200056615218 0 -0.004303081616250341 0.00044658283395202696 0 -0.0042955605957432363 0.00042780159194831275 0 -0.0043111793515475177 0.00040185064560612616 0 -0.0042962744172043606 0.00042246200056615218 0 -0.00430303665201014 0.00038134664660224654 0 -0.0042706388228778277 0.0004053847593110517 0 -0.00430303665201014 0.00038134664660224654 0 -0.0042706388228778277 0.0004053847593110517 0 -0.0042593334499369659 0.00035113103117962423 0 -0.0041044088585408664 0.00016523288629164342 0 -0.0040836775974439085 0.00010820304726267218 0 -0.0042848105046748054 0.00043312552375724815 0 -0.0042962744172043606 0.00042246200056615218 0 -0.0042706388228778277 0.0004053847593110517 0 -0.004104937255428597 0.00027239808327201637 0 -0.0041044088585408664 0.00016523288629164342 0 -0.0039011935097439895 4.9046342178840681e-06 0 -0.0039316658480342019 5.9446734523193055e-05 0 -0.0039316902940599793 -7.4765524143489645e-05 0 -0.0040963071247184634 0.00043591435638245195 0 -0.0041205896169028058 0.00043197980261909134 0 -0.0041077155401143123 0.00042086448485380913 0 -0.0040836775974439085 0.00010820304726267218 0 -0.0042210015287501013 0.0004542963110928233 0 -0.0040888756644179474 0.00041264975909687793 0 -0.0040963071247184634 0.00043591435638245195 0 -0.0041077155401143123 0.00042086448485380913 0 -0.004303081616250341 0.00044658283395202696 0 -0.0043024463853995974 0.00046918381602491276 0 -0.0042911616731863061 0.00045937671387486656 0 -0.00430303665201014 0.00038134664660224654 0 -0.0042593334499369659 0.00035113103117962423 0 -0.0043075279176737263 0.00033838849596113768 0 -0.0043111793515475177 0.00040185064560612616 0 -0.0042210015287501013 0.0004542963110928233 0 -0.0042210015287501013 0.0004542963110928233 0 -0.0041209174457880714 0.00044759029404504449 0 -0.0041230827650589729 0.00052567630783937713 0 -0.0041762742517259125 0.0005103332521383643 0 -0.0041291691534578205 0.000469043240558161 0 -0.0042210015287501013 0.0004542963110928233 0 -0.0042279735341826099 0.00049611389835256666 0 -0.0043024463853995974 0.00046918381602491276 0 -0.0042865020763985708 0.0004756219232350493 0 -0.0042911616731863061 0.00045937671387486656 0 -0.0042865020763985708 0.0004756219232350493 0 -0.0042911616731863061 0.00045937671387486656 0 -0.0042724512127708478 0.00046738262073268272 0 -0.0042812273686340663 0.00044883636111634303 0 -0.0042911616731863061 0.00045937671387486656 0 -0.0042724512127708478 0.00046738262073268272 0 -0.0042865020763985708 0.0004756219232350493 0 -0.0042724512127708478 0.00046738262073268272 0 -0.004271742006776537 0.00048200521240627885 0 -0.0042279735341826099 0.00049611389835256666 0 -0.0042494724546789471 0.00048775557232857899 0 -0.0041790997899360718 0.00046380467591247926 0 -0.0042258877321785637 0.00049482103056853782 0 -0.0042414198625759757 0.0004597691762282173 0 -0.0041762742517259125 0.0005103332521383643 0 -0.0041790997899360718 0.00046380467591247926 0 -0.0042258877321785637 0.00049482103056853782 0 -0.0041790997899360718 0.00046380467591247926 0 -0.0042074818829516917 0.00043186134823721702 0 -0.0042414198625759757 0.0004597691762282173 0 -0.0041790997899360718 0.00046380467591247926 0 -0.0041291691534578205 0.000469043240558161 0 -0.0041374040300426506 0.00040055156664893239 0 -0.0041790997899360718 0.00046380467591247926 0 -0.0042074818829516917 0.00043186134823721702 0 -0.0041374040300426506 0.00040055156664893239 0 -0.0041762742517259125 0.0005103332521383643 0 -0.0041790997899360718 0.00046380467591247926 0 -0.0041291691534578205 0.000469043240558161 0 -0.0041205896169028058 0.00043197980261909134 0 -0.0041257674741396032 0.00041472744526634153 0 -0.0041077155401143123 0.00042086448485380913 0 -0.0041257674741396032 0.00041472744526634153 0 -0.0041077514811409957 0.00040076964014740469 0 -0.0041077155401143123 0.00042086448485380913 0 -0.0041257674741396032 0.00041472744526634153 0 -0.0041077514811409957 0.00040076964014740469 0 -0.0041374040300426506 0.00040055156664893239 0 -0.0041209174457880714 0.00044759029404504449 0 -0.004137138983356355 0.00040030993951401672 0 -0.0040888756644179474 0.00041264975909687793 0 -0.0040733471194870146 0.00037345627212307211 0 -0.0041077514811409957 0.00040076964014740469 0 -0.0040888756644179474 0.00041264975909687793 0 -0.0041077514811409957 0.00040076964014740469 0 -0.0041077155401143123 0.00042086448485380913 0 -0.0042605401254507272 0.00049191686776632268 0 -0.0042590781490695166 0.00048050708645900123 0 -0.0042617812165529068 0.00048274025987568879 0 -0.0042605401254507272 0.00049191686776632268 0 -0.0042444958837817631 0.00047915410649109223 0 -0.0042590781490695166 0.00048050708645900123 0 -0.0042605401254507272 0.00049191686776632268 0 -0.0042128495844491022 0.00049152390318430816 0 -0.0042444958837817631 0.00047915410649109223 0 -0.0042493679137011056 0.00049605869371826844 0 -0.0042605401254507272 0.00049191686776632268 0 -0.0042128495844491022 0.00049152390318430816 0 -0.0042269735487416461 0.00045703340546666103 0 -0.0042128495844491022 0.00049152390318430816 0 -0.0042444958837817631 0.00047915410649109223 0 -0.0042580519792268538 0.00046295208851689768 0 -0.0042444958837817631 0.00047915410649109223 0 -0.0042590781490695166 0.00048050708645900123 0 -0.0042580519792268538 0.00046295208851689768 0 -0.0042724512127708478 0.00046738262073268272 0 -0.0042590781490695166 0.00048050708645900123 0 -0.0042724512127708478 0.00046738262073268272 0 -0.0042590781490695166 0.00048050708645900123 0 -0.004271742006776537 0.00048200521240627885 0 -0.0042590781490695166 0.00048050708645900123 0 -0.0042617812165529068 0.00048274025987568879 0 -0.004271742006776537 0.00048200521240627885 0 -0.0042617812165529068 0.00048274025987568879 0 -0.0042414198625759757 0.0004597691762282173 0 -0.0042761960304723446 0.00046730248392075916 0 -0.0042617812165529068 0.00048274025987568879 0 -0.0042258877321785637 0.00049482103056853782 0 -0.0042414198625759757 0.0004597691762282173 0 -0.0042605979356994264 0.00048361321707341256 0 -0.0042494724546789471 0.00048775557232857899 0 -0.0042074818829516917 0.00043186134823721702 0 -0.0042414198625759757 0.0004597691762282173 0 -0.0042672382817638306 0.00042080009795408401 0 -0.0042414198625759757 0.0004597691762282173 0 -0.0042761960304723446 0.00046730248392075916 0 -0.0042672382817638306 0.00042080009795408401 0 -0.0042605401254507272 0.00049191686776632268 0 -0.0042617812165529068 0.00048274025987568879 0 -0.0042761960304723446 0.00046730248392075916 0 -0.0042605401254507272 0.00049191686776632268 0 -0.0042761960304723446 0.00046730248392075916 0 -0.0043017596877146643 0.00048395280232331494 0 -0.0042493679137011056 0.00049605869371826844 0 -0.0042605401254507272 0.00049191686776632268 0 -0.0043017596877146643 0.00048395280232331494 0 -0.0042761960304723446 0.00046730248392075916 0 -0.0043017596877146643 0.00048395280232331494 0 -0.004303266192292118 0.00043893767478763444 0 -0.0043017596877146643 0.00048395280232331494 0 -0.004303266192292118 0.00043893767478763444 0 -0.0043595152776670721 0.00046597875835470767 0 -0.004303266192292118 0.00043893767478763444 0 -0.0043622974457410849 0.0003839584317549193 0 -0.0043595152776670721 0.00046597875835470767 0 -0.004303266192292118 0.00043893767478763444 0 -0.0043622974457410849 0.0003839584317549193 0 -0.0042554902506495712 0.00035766507602141785 0 -0.004303266192292118 0.00043893767478763444 0 -0.0042672382817638306 0.00042080009795408401 0 -0.0042554902506495712 0.00035766507602141785 0 -0.0042761960304723446 0.00046730248392075916 0 -0.004303266192292118 0.00043893767478763444 0 -0.0042672382817638306 0.00042080009795408401 0 -0.0042672382817638306 0.00042080009795408401 0 -0.0042507275051099245 0.00033080843936673471 0 -0.0041902146486202524 0.00038230368995295584 0 -0.0042074818829516917 0.00043186134823721702 0 -0.0042672382817638306 0.00042080009795408401 0 -0.0041902146486202524 0.00038230368995295584 0 -0.0042818304179081373 0.00040787405091508721 0 -0.0042770037429028292 0.00033951573962019054 0 -0.0042672382817638306 0.00042080009795408401 0 -0.0042507275051099245 0.00033080843936673471 0 -0.004366693296144729 0.00031032360185809699 0 -0.0042507275051099245 0.00033080843936673471 0 -0.0043132277218767634 0.00023146515715540681 0 -0.004366693296144729 0.00031032360185809699 0 -0.0042507275051099245 0.00033080843936673471 0 -0.0042404214389560073 0.00026096258206129424 0 -0.0041889517379191553 0.0003370263953518103 0 -0.0042507275051099245 0.00033080843936673471 0 -0.0042404214389560073 0.00026096258206129424 0 -0.0043132277218767634 0.00023146515715540681 0 -0.0042404214389560073 0.00026096258206129424 0 -0.0042456173813989508 0.0001936318473913931 0 -0.0043132277218767634 0.00023146515715540681 0 -0.0042456173813989508 0.0001936318473913931 0 -0.0043132277218767634 0.00023146515715540681 0 -0.0043366538257742261 0.00013407846643220125 0 -0.0043132277218767634 0.00023146515715540681 0 -0.0044349625638273101 0.00019933186597455803 0 -0.0043366538257742261 0.00013407846643220125 0 -0.0045918936837261292 0.00020052954805019772 0 -0.004540347093689453 0.00024093783118362769 0 -0.0046368680890524578 0.00021241934230255125 0 -0.0046995640534552635 0.00018612639001326173 0 -0.0046833049761538957 0.00025090824951375432 0 -0.0043055347151093794 0.00019360827289651418 0 -0.0043315889303386394 0.00029437581902438492 0 -0.0044276992791559659 0.00023419669181824228 0 -0.0043622974457410849 0.0003839584317549193 0 -0.0043315889303386394 0.00029437581902438492 0 -0.0044276992791559659 0.00023419669181824228 0 -0.0043622974457410849 0.0003839584317549193 0 -0.0043315889303386394 0.00029437581902438492 0 -0.0042554902506495712 0.00035766507602141785 0 -0.0043055347151093794 0.00019360827289651418 0 -0.0043315889303386394 0.00029437581902438492 0 -0.0042554902506495712 0.00035766507602141785 0 -0.0045918936837261292 0.00020052954805019772 0 -0.0042770037429028292 0.00033951573962019054 0 -0.0043132277218767634 0.00023146515715540681 0 -0.0044349625638273101 0.00019933186597455803 0 -0.004366693296144729 0.00031032360185809699 0 -0.0040733471194870146 0.00037345627212307211 0 -0.0041067352713191983 0.00036124103803962754 0 -0.0040855643332298897 0.00033675846668469099 0 -0.0041067352713191983 0.00036124103803962754 0 -0.0040855643332298897 0.00033675846668469099 0 -0.0041062340675930165 0.00032551798857254511 0 -0.0040733471194870146 0.00037345627212307211 0 -0.0041077514811409957 0.00040076964014740469 0 -0.0041067352713191983 0.00036124103803962754 0 -0.0041077514811409957 0.00040076964014740469 0 -0.0041067352713191983 0.00036124103803962754 0 -0.0041374040300426506 0.00040055156664893239 0 -0.0041067352713191983 0.00036124103803962754 0 -0.0041389757414456744 0.00035203472707482649 0 -0.0041374040300426506 0.00040055156664893239 0 -0.0041067352713191983 0.00036124103803962754 0 -0.0041389757414456744 0.00035203472707482649 0 -0.0041062340675930165 0.00032551798857254511 0 -0.0041389757414456744 0.00035203472707482649 0 -0.0041342586193060873 0.00031228723472922934 0 -0.0041062340675930165 0.00032551798857254511 0 -0.0041389757414456744 0.00035203472707482649 0 -0.0041889517379191553 0.0003370263953518103 0 -0.0041342586193060873 0.00031228723472922934 0 -0.0041389757414456744 0.00035203472707482649 0 -0.0041902146486202524 0.00038230368995295584 0 -0.0041889517379191553 0.0003370263953518103 0 -0.0041389757414456744 0.00035203472707482649 0 -0.0041374040300426506 0.00040055156664893239 0 -0.0041902146486202524 0.00038230368995295584 0 -0.0042074818829516917 0.00043186134823721702 0 -0.0041374040300426506 0.00040055156664893239 0 -0.0041902146486202524 0.00038230368995295584 0 -0.0042507275051099245 0.00033080843936673471 0 -0.0041902146486202524 0.00038230368995295584 0 -0.0041889517379191553 0.0003370263953518103 0 -0.0042404214389560073 0.00026096258206129424 0 -0.0041889517379191553 0.0003370263953518103 0 -0.0041758620995306205 0.00024175122703886428 0 -0.0042456173813989508 0.0001936318473913931 0 -0.0041758620995306205 0.00024175122703886428 0 -0.0041760879796439139 0.00016540425332729961 0 -0.0042404214389560073 0.00026096258206129424 0 -0.0042456173813989508 0.0001936318473913931 0 -0.0041758620995306205 0.00024175122703886428 0 -0.0041758620995306205 0.00024175122703886428 0 -0.0041154688564398337 0.00019465699238590175 0 -0.0041760879796439139 0.00016540425332729961 0 -0.0041758620995306205 0.00024175122703886428 0 -0.0041154688564398337 0.00019465699238590175 0 -0.0040907399383993464 0.00027315224595816597 0 -0.0041889517379191553 0.0003370263953518103 0 -0.0041758620995306205 0.00024175122703886428 0 -0.0040907399383993464 0.00027315224595816597 0 -0.004197165089976424 0.00033817579148110003 0 -0.0040837782992505 0.00029048386959573908 0 -0.0040837782992505 0.00029048386959573908 0 -0.0041870736572830903 0.00022367634199977918 0 -0.0040907399383993464 0.00027315224595816597 0 -0.0040726931532353095 0.00020267579862902449 0 -0.0040244451522673348 0.00020452168509104644 0 -0.0041154688564398337 0.00019465699238590175 0 -0.0040907399383993464 0.00027315224595816597 0 -0.0040726931532353095 0.00020267579862902449 0 -0.0041154688564398337 0.00019465699238590175 0 -0.0040726931532353095 0.00020267579862902449 0 -0.0040773427245467614 0.00015190718150089096 0 -0.0040726931532353095 0.00020267579862902449 0 -0.0040244451522673348 0.00020452168509104644 0 -0.0040773427245467614 0.00015190718150089096 0 -0.0040907399383993464 0.00027315224595816597 0 -0.0040244451522673348 0.00020452168509104644 0 -0.0039852026651190061 0.00021319251384000054 0 -0.0040244451522673348 0.00020452168509104644 0 -0.0039852026651190061 0.00021319251384000054 0 -0.0040469164480887209 9.7217127423793035e-05 0 -0.0040831381811231183 0.00032904781583114202 0 -0.0041870736572830903 0.00022367634199977918 0 -0.0041342586193060873 0.00031228723472922934 0 -0.0040918990360591777 0.00028635650662950634 0 -0.0041062340675930165 0.00032551798857254511 0 -0.0040814958088083442 0.0003082774989216287 0 -0.0040918990360591777 0.00028635650662950634 0 -0.0041062340675930165 0.00032551798857254511 0 -0.0040814958088083442 0.0003082774989216287 0 -0.0040855643332298897 0.00033675846668469099 0 -0.0041062340675930165 0.00032551798857254511 0 -0.0044496005186665504 7.3255048179626388e-05 0 -0.0044966332670428209 0.00011717350285414593 0 -0.0045343729879470177 4.2974348834345624e-05 0 -0.0041870736572830903 0.00022367634199977918 0 -0.0042800136718766776 0.00010107927509704059 0 -0.0043929422588708357 0.00015165563199691078 0 -0.0044496005186665504 7.3255048179626388e-05 0 -0.0044966332670428209 0.00011717350285414593 0 -0.0043929422588708357 0.00015165563199691078 0 -0.0044590322745831279 0.00019078922112545464 0 -0.0044966332670428209 0.00011717350285414593 0 -0.0040244451522673348 0.00020452168509104644 0 -0.0040559473111216812 0.00010879515241337034 0 -0.0040773427245467614 0.00015190718150089096 0 -0.0040244451522673348 0.00020452168509104644 0 -0.0040469164480887209 9.7217127423793035e-05 0 -0.0040960736850596405 9.7968844800644798e-05 0 -0.0040290958569237324 0.00019586797523260736 0 -0.0040780239724075695 0.00010175504653003349 0 -0.0040559473111216812 0.00010879515241337034 0 -0.0040996071875186481 6.6805929729610934e-05 0 -0.0041135053265794622 0.00012183297936199551 0 -0.0040559473111216812 0.00010879515241337034 0 -0.0040773427245467614 0.00015190718150089096 0 -0.0041135053265794622 0.00012183297936199551 0 -0.0040559473111216812 0.00010879515241337034 0 -0.0040996071875186481 6.6805929729610934e-05 0 -0.0040940975539471274 -1.7722942684163756e-05 0 -0.0040960736850596405 9.7968844800644798e-05 0 -0.0041741965291237542 -3.3948194001496733e-05 0 -0.0041255823658298482 -4.6431649699501084e-05 0 -0.0040780239724075695 0.00010175504653003349 0 -0.0041088541757671 -3.4331344976859288e-05 0 -0.0040469164480887209 9.7217127423793035e-05 0 -0.0040960736850596405 9.7968844800644798e-05 0 -0.0041255823658298482 -4.6431649699501084e-05 0 -0.0042800136718766776 0.00010107927509704059 0 -0.0043008751404485599 -5.3367621670995983e-06 0 -0.0041427227023401398 -7.1598172430798756e-06 0 -0.0041323294321484608 4.9367013926952348e-05 0 -0.0040940975539471274 -1.7722942684163756e-05 0 -0.0040996071875186481 6.6805929729610934e-05 0 -0.0041323294321484608 4.9367013926952348e-05 0 -0.0040940975539471274 -1.7722942684163756e-05 0 -0.0041427227023401398 -7.1598172430798756e-06 0 -0.004177383452654726 1.2773481058124436e-05 0 -0.0041728924582411639 -9.436495007417216e-05 0 -0.0041427227023401398 -7.1598172430798756e-06 0 -0.004177383452654726 1.2773481058124436e-05 0 -0.0041323294321484608 4.9367013926952348e-05 0 -0.004177383452654726 1.2773481058124436e-05 0 -0.0041707820814466745 9.4052566435699154e-05 0 -0.0042089074974267851 7.2462913109999205e-05 0 -0.004177383452654726 1.2773481058124436e-05 0 -0.0041323294321484608 4.9367013926952348e-05 0 -0.0041707820814466745 9.4052566435699154e-05 0 -0.0040996071875186481 6.6805929729610934e-05 0 -0.0041323294321484608 4.9367013926952348e-05 0 -0.0041135053265794622 0.00012183297936199551 0 -0.0041323294321484608 4.9367013926952348e-05 0 -0.0041135053265794622 0.00012183297936199551 0 -0.0041707820814466745 9.4052566435699154e-05 0 -0.0041154688564398337 0.00019465699238590175 0 -0.0040773427245467614 0.00015190718150089096 0 -0.0041135053265794622 0.00012183297936199551 0 -0.0041154688564398337 0.00019465699238590175 0 -0.0041135053265794622 0.00012183297936199551 0 -0.0041760879796439139 0.00016540425332729961 0 -0.0041135053265794622 0.00012183297936199551 0 -0.0041760879796439139 0.00016540425332729961 0 -0.0041707820814466745 9.4052566435699154e-05 0 -0.0042456173813989508 0.0001936318473913931 0 -0.0041760879796439139 0.00016540425332729961 0 -0.0042255966238921557 0.00011866491758912399 0 -0.0041707820814466745 9.4052566435699154e-05 0 -0.0042255966238921557 0.00011866491758912399 0 -0.0042089074974267851 7.2462913109999205e-05 0 -0.0041760879796439139 0.00016540425332729961 0 -0.0041707820814466745 9.4052566435699154e-05 0 -0.0042255966238921557 0.00011866491758912399 0 -0.004177383452654726 1.2773481058124436e-05 0 -0.0042557286188432651 6.1218532377137297e-05 0 -0.0042089074974267851 7.2462913109999205e-05 0 -0.0043874050205934293 4.7051483671619229e-05 0 -0.0041795598057017408 -8.74922213464203e-05 0 -0.0042255966238921557 0.00011866491758912399 0 -0.0042557286188432651 6.1218532377137297e-05 0 -0.0042089074974267851 7.2462913109999205e-05 0 -0.004177383452654726 1.2773481058124436e-05 0 -0.0042557286188432651 6.1218532377137297e-05 0 -0.0041728924582411639 -9.436495007417216e-05 0 -0.0046056723733955167 -0.00010142580368244553 0 -0.004709519089524339 -9.0754335434623835e-05 0 -0.004980414059980667 4.6737618966040166e-07 0 -0.004915743161451532 -1.1131597501981739e-05 0 -0.0045434197566378435 5.3420222138627493e-05 0 -0.0043677698025177333 -0.00012996835591921004 0 -0.0045413558803198729 -0.00014361913215820958 0 -0.0043677698025177333 -0.00012996835591921004 0 -0.0042294834466069572 -0.00029165859495561465 0 -0.0045413558803198729 -0.00014361913215820958 0 -0.0045434197566378435 5.3420222138627493e-05 0 -0.0043677698025177333 -0.00012996835591921004 0 -0.0041728924582411639 -9.436495007417216e-05 0 -0.0049888940373528194 -7.8396336917505263e-07 0 -0.0048691458392936537 -3.7237792184615658e-05 0 -0.0048365199542403474 -2.5618050902466671e-05 0 -0.0049888940373528194 -7.8396336917505263e-07 0 -0.0050090893880625608 -6.5262875238420713e-06 0 -0.0048691458392936537 -3.7237792184615658e-05 0 -0.0049962145032626066 5.8691564793311929e-07 0 -0.0049888940373528194 -7.8396336917505263e-07 0 -0.004996022255296848 5.6456514297481646e-06 0 -0.0049962145032626066 5.8691564793311929e-07 0 -0.0049999514340241438 1.5102060682417786e-08 0 -0.0050000011003358304 -1.2644284382723599e-09 0 -0.0049962145032626066 5.8691564793311929e-07 0 -0.0049999514340241438 1.5102060682417786e-08 0 -0.0049888940373528194 -7.8396336917505263e-07 0 -0.0050000007410142058 -8.0929136579894882e-11 0 -0.0049979545636396946 1.7558445942256599e-07 0 -0.0049990011276891547 2.4232998120895741e-08 0 -0.0049998706636628981 -1.0466819825612628e-07 0 -0.0046056723733955167 -0.00010142580368244553 0 -0.0049999514340241438 1.5102060682417786e-08 0 -0.0049888940373528194 -7.8396336917505263e-07 0 -0.0050090893880625608 -6.5262875238420713e-06 0 -0.0049979545636396946 1.7558445942256599e-07 0 -0.0049990011276891547 2.4232998120895741e-08 0 -0.0049976261462110604 1.2190803858006003e-07 0 -0.0050000007410142058 -8.0929136579894882e-11 0 -0.0049990011276891547 2.4232998120895741e-08 0 -0.0049999957386013425 -2.6980093352725576e-10 0 -0.0049999976923466704 -9.6031473464374103e-10 0 -0.0049966880939457748 4.3236289775837285e-06 0 -0.004990266299719469 4.2417901573865356e-10 0 -0.0049997487417063812 -1.1371339108929159e-07 0 -0.0046721078416717505 -1.9569440361152076e-05 0 -0.0049990011276891547 2.4232998120895741e-08 0 -0.0049999957386013425 -2.6980093352725576e-10 0 -0.0049976261462110604 1.2190803858006003e-07 0 -0.0046056723733955167 -0.00010142580368244553 0 -0.0046721078416717505 -1.9569440361152076e-05 0 -0.0046056723733955167 -0.00010142580368244553 0 -0.0041088541757671 -3.4331344976859288e-05 0 -0.0042518269642386683 -0.00017549942054561149 0 -0.004208079967338468 -0.00020038323929594747 0 -0.0041741965291237542 -3.3948194001496733e-05 0 -0.0042294834466069572 -0.00029165859495561465 0 -0.0040940975539471274 -1.7722942684163756e-05 0 -0.0041728924582411639 -9.436495007417216e-05 0 -0.0043677698025177333 -0.00012996835591921004 0 -0.0042294834466069572 -0.00029165859495561465 0 -0.0041728924582411639 -9.436495007417216e-05 0 -0.0041427227023401398 -7.1598172430798756e-06 0 -0.0040940975539471274 -1.7722942684163756e-05 0 -0.0041728924582411639 -9.436495007417216e-05 0 -0.0045719692920526871 -3.0858070198141559e-05 0 -0.0045343729879470177 4.2974348834345624e-05 0 -0.0045298882531635727 -5.2384466891063534e-06 0 -0.004208079967338468 -0.00020038323929594747 0 -0.0041741965291237542 -3.3948194001496733e-05 0 -0.0041255823658298482 -4.6431649699501084e-05 0 -0.0046721078416717505 -1.9569440361152076e-05 0 -0.0043008751404485599 -5.3367621670995983e-06 0 -0.0045343729879470177 4.2974348834345624e-05 0 -0.0045298882531635727 -5.2384466891063534e-06 0 -0.0044585550324848545 7.6203296699202391e-06 0 -0.0045719692920526871 -3.0858070198141559e-05 0 -0.0045298882531635727 -5.2384466891063534e-06 0 -0.0045321254803515759 -5.3673080042923711e-05 0 -0.0045298882531635727 -5.2384466891063534e-06 0 -0.0045321254803515759 -5.3673080042923711e-05 0 -0.0044585550324848545 7.6203296699202391e-06 0 -0.0049999274016598134 7.0792543723917357e-08 0 -0.0049999961421221583 1.8085427077219453e-09 0 -0.0049990012994389254 3.0227404128813962e-06 0 -0.0046721078416717505 -1.9569440361152076e-05 0 -0.0047073548199920668 3.3310015410862661e-05 0 -0.0047073548199920668 3.3310015410862661e-05 0 -0.0049990938632840012 4.9032376022338143e-07 0 -0.0050000035011132172 6.1505480863460531e-10 0 -0.0049999961421221583 1.8085427077219453e-09 0 -0.0049990012994389254 3.0227404128813962e-06 0 -0.0047073548199920668 3.3310015410862661e-05 0 -0.0047561973348091398 -2.352003497047453e-05 0 -0.0044496005186665504 7.3255048179626388e-05 0 -0.0045343729879470177 4.2974348834345624e-05 0 -0.0044585550324848545 7.6203296699202391e-06 0 -0.0049875010197856749 2.5992919183613021e-05 0 -0.0049777899907463693 6.691769038848783e-05 0 -0.0049847503302938214 1.5883779959131816e-05 0 -0.0049759389289482205 6.3944582501203261e-05 0 -0.0048952351680782054 6.0585305436950778e-06 0 -0.0049777899907463693 6.691769038848783e-05 0 -0.0048636456678724056 7.7848083281485228e-05 0 -0.0047943330800581559 -7.7792827314362325e-06 0 -0.0049875010197856749 2.5992919183613021e-05 0 -0.0049847503302938214 1.5883779959131816e-05 0 -0.0049896194884972503 1.3068755308963063e-05 0 -0.0050008169594991988 2.8850487652221321e-05 0 -0.0050166253620362762 4.9329193982111029e-05 0 -0.0050093433324445826 9.1049725929181809e-06 0 -0.0049875010197856749 2.5992919183613021e-05 0 -0.0050008169594991988 2.8850487652221321e-05 0 -0.0049960484329245455 1.6063357484103661e-05 0 -0.0050008169594991988 2.8850487652221321e-05 0 -0.0050166253620362762 4.9329193982111029e-05 0 -0.0049777899907463693 6.691769038848783e-05 0 -0.0049875010197856749 2.5992919183613021e-05 0 -0.0050008169594991988 2.8850487652221321e-05 0 -0.0049777899907463693 6.691769038848783e-05 0 -0.0045918936837261292 0.00020052954805019772 0 -0.0048850833314474981 8.2351762500473553e-05 0 -0.0049420632437685626 0.0002025028762140141 0 -0.0050166253620362762 4.9329193982111029e-05 0 -0.0049777899907463693 6.691769038848783e-05 0 -0.0046368680890524578 0.00021241934230255125 0 -0.0047001051932083577 0.00012217568900943528 0 -0.0046995640534552635 0.00018612639001326173 0 -0.0049420632437685626 0.0002025028762140141 0 -0.0048636456678724056 7.7848083281485228e-05 0 -0.0047824283209851881 0.000123902359641983 0 -0.0049420632437685626 0.0002025028762140141 0 -0.0049777899907463693 6.691769038848783e-05 0 -0.0048636456678724056 7.7848083281485228e-05 0 -0.0045918936837261292 0.00020052954805019772 0 -0.0045766992323193261 0.00013387995187405622 0 -0.0048636456678724056 7.7848083281485228e-05 0 -0.0047824283209851881 0.000123902359641983 0 -0.0047858775490951643 4.787349460487885e-05 0 -0.0042255966238921557 0.00011866491758912399 0 -0.0042557286188432651 6.1218532377137297e-05 0 -0.0043366538257742261 0.00013407846643220125 0 -0.0042456173813989508 0.0001936318473913931 0 -0.0042255966238921557 0.00011866491758912399 0 -0.0043366538257742261 0.00013407846643220125 0 -0.0045434197566378435 5.3420222138627493e-05 0 -0.0047896828846916749 -1.3289181361651928e-05 0 -0.0045413558803198729 -0.00014361913215820958 0 -0.0045434197566378435 5.3420222138627493e-05 0 -0.0047858775490951643 4.787349460487885e-05 0 -0.0047896828846916749 -1.3289181361651928e-05 0 -0.0043874050205934293 4.7051483671619229e-05 0 -0.0045766992323193261 0.00013387995187405622 0 -0.0045434197566378435 5.3420222138627493e-05 0 -0.0047824283209851881 0.000123902359641983 0 -0.0047858775490951643 4.787349460487885e-05 0 -0.0048636456678724056 7.7848083281485228e-05 0 -0.0047858775490951643 4.787349460487885e-05 0 -0.0047943330800581559 -7.7792827314362325e-06 0 -0.0047858775490951643 4.787349460487885e-05 0 -0.0047896828846916749 -1.3289181361651928e-05 0 -0.0047943330800581559 -7.7792827314362325e-06 0 -0.0049847503302938214 1.5883779959131816e-05 0 -0.0049907198037419135 1.0138653807744569e-05 0 -0.0049896194884972503 1.3068755308963063e-05 0 -0.0047896828846916749 -1.3289181361651928e-05 0 -0.0047943330800581559 -7.7792827314362325e-06 0 -0.0048365199542403474 -2.5618050902466671e-05 0 -0.0049847503302938214 1.5883779959131816e-05 0 -0.0049907198037419135 1.0138653807744569e-05 0 -0.004996022255296848 5.6456514297481646e-06 0 -0.0048952351680782054 6.0585305436950778e-06 0 -0.004915743161451532 -1.1131597501981739e-05 0 -0.0049907198037419135 1.0138653807744569e-05 0 -0.0049938894788388319 6.8654219400391481e-06 0 -0.0049945617220038801 5.6160930757714665e-06 0 -0.0049907198037419135 1.0138653807744569e-05 0 -0.0049945617220038801 5.6160930757714665e-06 0 -0.0049896194884972503 1.3068755308963063e-05 0 -0.0049907198037419135 1.0138653807744569e-05 0 -0.0049938894788388319 6.8654219400391481e-06 0 -0.004996022255296848 5.6456514297481646e-06 0 -0.0047896828846916749 -1.3289181361651928e-05 0 -0.0048691458392936537 -3.7237792184615658e-05 0 -0.0048365199542403474 -2.5618050902466671e-05 0 -0.0047893112129087454 -1.8962357473186732e-05 0 -0.004709519089524339 -9.0754335434623835e-05 0 -0.0049938894788388319 6.8654219400391481e-06 0 -0.004996022255296848 5.6456514297481646e-06 0 -0.0049964544265343972 3.890143907065958e-06 0 -0.0049962145032626066 5.8691564793311929e-07 0 -0.004996022255296848 5.6456514297481646e-06 0 -0.0049964544265343972 3.890143907065958e-06 0 -0.0049964544265343972 3.890143907065958e-06 0 -0.0050000011003358304 -1.2644284382723599e-09 0 -0.0049945617220038801 5.6160930757714665e-06 0 -0.0049962145032626066 5.8691564793311929e-07 0 -0.0049964544265343972 3.890143907065958e-06 0 -0.0050000011003358304 -1.2644284382723599e-09 0 -0.0050000011003358304 -1.2644284382723599e-09 0 -0.0049945617220038801 5.6160930757714665e-06 0 -0.0049999863498489446 6.9151657771678341e-09 0 -0.0049938894788388319 6.8654219400391481e-06 0 -0.0049964544265343972 3.890143907065958e-06 0 -0.0049945617220038801 5.6160930757714665e-06 0 -0.0049945617220038801 5.6160930757714665e-06 0 -0.0049999863498489446 6.9151657771678341e-09 0 -0.0049971448059690886 4.5988734267718656e-06 0 -0.0049999863498489446 6.9151657771678341e-09 0 -0.0049971448059690886 4.5988734267718656e-06 0 -0.0050000041839615384 1.1346184847250288e-09 0 -0.0049945617220038801 5.6160930757714665e-06 0 -0.0049971448059690886 4.5988734267718656e-06 0 -0.0049896194884972503 1.3068755308963063e-05 0 -0.0049971448059690886 4.5988734267718656e-06 0 -0.0049896194884972503 1.3068755308963063e-05 0 -0.0049960484329245455 1.6063357484103661e-05 0 -0.0049875010197856749 2.5992919183613021e-05 0 -0.0049896194884972503 1.3068755308963063e-05 0 -0.0049960484329245455 1.6063357484103661e-05 0 -0.0049971448059690886 4.5988734267718656e-06 0 -0.0049960484329245455 1.6063357484103661e-05 0 -0.0050093433324445826 9.1049725929181809e-06 0 -0.0050008169594991988 2.8850487652221321e-05 0 -0.0049960484329245455 1.6063357484103661e-05 0 -0.0050093433324445826 9.1049725929181809e-06 0 -0.0049971448059690886 4.5988734267718656e-06 0 -0.0050000041839615384 1.1346184847250288e-09 0 -0.0050093433324445826 9.1049725929181809e-06 0 -0.0050000041839615384 1.1346184847250288e-09 0 -0.0050000119560553724 3.3110302828185823e-09 0 -0.0050093433324445826 9.1049725929181809e-06 0 -0.0049999655978683749 1.3455199741610237e-08 0 -0.004915076624103459 3.1848150688872131e-05 0 -0.0049997209633682429 -5.1495018619973197e-08 0 -0.0048311438085547513 3.1872618742609851e-05 0 -0.0049462148751762865 2.3983091520728679e-05 0 -0.0048311438085547513 3.1872618742609851e-05 0 -0.0049462148751762865 2.3983091520728679e-05 0 -0.0048730658825094746 8.9903654917799377e-05 0 -0.0049999976494122357 2.5584906161151513e-08 0 -0.0049852011576596768 2.2020945005189785e-05 0 -0.0050000278816457466 -1.2080059230623361e-08 0 -0.0049999976494122357 2.5584906161151513e-08 0 -0.0049462148751762865 2.3983091520728679e-05 0 -0.0049852011576596768 2.2020945005189785e-05 0 -0.0049997209633682429 -5.1495018619973197e-08 0 -0.0049999976494122357 2.5584906161151513e-08 0 -0.0049462148751762865 2.3983091520728679e-05 0 -0.0049852011576596768 2.2020945005189785e-05 0 -0.0049570501226982285 8.1356091939665271e-05 0 -0.0050251836432910297 3.9398113239576364e-05 0 -0.0049462148751762865 2.3983091520728679e-05 0 -0.0049852011576596768 2.2020945005189785e-05 0 -0.0049570501226982285 8.1356091939665271e-05 0 -0.0049570501226982285 8.1356091939665271e-05 0 -0.0048848914874126534 0.00015039711324920464 0 -0.0048730658825094746 8.9903654917799377e-05 0 -0.0049462148751762865 2.3983091520728679e-05 0 -0.0049570501226982285 8.1356091939665271e-05 0 -0.0048730658825094746 8.9903654917799377e-05 0 -0.0048848914874126534 0.00015039711324920464 0 -0.0048730658825094746 8.9903654917799377e-05 0 -0.0048100049407359584 0.00016426132499533343 0 -0.0049570501226982285 8.1356091939665271e-05 0 -0.0048848914874126534 0.00015039711324920464 0 -0.0049574591742998376 0.00018071203956482822 0 -0.0047001051932083577 0.00012217568900943528 0 -0.0048311438085547513 3.1872618742609851e-05 0 -0.0047951122672074287 0.00011347391590570806 0 -0.0048850833314474981 8.2351762500473553e-05 0 -0.004915076624103459 3.1848150688872131e-05 0 -0.0048311438085547513 3.1872618742609851e-05 0 -0.0047951122672074287 0.00011347391590570806 0 -0.0048730658825094746 8.9903654917799377e-05 0 -0.0047951122672074287 0.00011347391590570806 0 -0.0048100049407359584 0.00016426132499533343 0 -0.0047479733270548042 0.00018349436703228041 0 -0.0047951122672074287 0.00011347391590570806 0 -0.0048730658825094746 8.9903654917799377e-05 0 -0.0048100049407359584 0.00016426132499533343 0 -0.0047001051932083577 0.00012217568900943528 0 -0.0047951122672074287 0.00011347391590570806 0 -0.0047357809965765298 0.00015261203789589689 0 -0.0047951122672074287 0.00011347391590570806 0 -0.0047479733270548042 0.00018349436703228041 0 -0.0047357809965765298 0.00015261203789589689 0 -0.0047001051932083577 0.00012217568900943528 0 -0.0047357809965765298 0.00015261203789589689 0 -0.0046995640534552635 0.00018612639001326173 0 -0.0047479733270548042 0.00018349436703228041 0 -0.0047357809965765298 0.00015261203789589689 0 -0.0046995640534552635 0.00018612639001326173 0 -0.0047479733270548042 0.00018349436703228041 0 -0.0046995640534552635 0.00018612639001326173 0 -0.0046833049761538957 0.00025090824951375432 0 -0.0047479733270548042 0.00018349436703228041 0 -0.0046833049761538957 0.00025090824951375432 0 -0.0047355906183873617 0.00023456437094467186 0 -0.0046833049761538957 0.00025090824951375432 0 -0.0046387863941108965 0.00030493321841758427 0 -0.0047355906183873617 0.00023456437094467186 0 -0.004540347093689453 0.00024093783118362769 0 -0.0046463726589661102 0.00030579337486755768 0 -0.0043622974457410849 0.0003839584317549193 0 -0.0044276992791559659 0.00023419669181824228 0 -0.0046387863941108965 0.00030493321841758427 0 -0.0046387863941108965 0.00030493321841758427 0 -0.0047355906183873617 0.00023456437094467186 0 -0.0047550042679951506 0.00029928010317210098 0 -0.0046387863941108965 0.00030493321841758427 0 -0.0047550042679951506 0.00029928010317210098 0 -0.0046765140892244591 0.00039452207238681688 0 -0.0048100049407359584 0.00016426132499533343 0 -0.0047479733270548042 0.00018349436703228041 0 -0.0047355906183873617 0.00023456437094467186 0 -0.0048100049407359584 0.00016426132499533343 0 -0.0047355906183873617 0.00023456437094467186 0 -0.0048414654347614479 0.00023201647612126279 0 -0.0048848914874126534 0.00015039711324920464 0 -0.0048100049407359584 0.00016426132499533343 0 -0.0048414654347614479 0.00023201647612126279 0 -0.0048414654347614479 0.00023201647612126279 0 -0.0049574591742998376 0.00018071203956482822 0 -0.0049390931971227091 0.00027504572533708008 0 -0.0048848914874126534 0.00015039711324920464 0 -0.0048414654347614479 0.00023201647612126279 0 -0.0049574591742998376 0.00018071203956482822 0 -0.0048414654347614479 0.00023201647612126279 0 -0.0049390931971227091 0.00027504572533708008 0 -0.0048534721832333904 0.00031172577709592136 0 -0.0049390931971227091 0.00027504572533708008 0 -0.0048534721832333904 0.00031172577709592136 0 -0.0049175828499676581 0.00037444850293126271 0 -0.0049390931971227091 0.00027504572533708008 0 -0.0049175828499676581 0.00037444850293126271 0 -0.0050045003012892907 0.00034602270341176338 0 -0.0047355906183873617 0.00023456437094467186 0 -0.0048414654347614479 0.00023201647612126279 0 -0.0047550042679951506 0.00029928010317210098 0 -0.0048414654347614479 0.00023201647612126279 0 -0.0048534721832333904 0.00031172577709592136 0 -0.0047550042679951506 0.00029928010317210098 0 -0.0048534721832333904 0.00031172577709592136 0 -0.0047550042679951506 0.00029928010317210098 0 -0.0048038662112972925 0.00039711336860290714 0 -0.0047550042679951506 0.00029928010317210098 0 -0.0048038662112972925 0.00039711336860290714 0 -0.0046765140892244591 0.00039452207238681688 0 -0.0048038662112972925 0.00039711336860290714 0 -0.0048737249836529927 0.00046512211210345954 0 -0.0047442401574054422 0.00054433214019482658 0 -0.0048038662112972925 0.00039711336860290714 0 -0.0047442401574054422 0.00054433214019482658 0 -0.0046765140892244591 0.00039452207238681688 0 -0.0048534721832333904 0.00031172577709592136 0 -0.0048038662112972925 0.00039711336860290714 0 -0.0049175828499676581 0.00037444850293126271 0 -0.0049175828499676581 0.00037444850293126271 0 -0.0049755843861762333 0.00043738350853499537 0 -0.0050045003012892907 0.00034602270341176338 0 -0.0048038662112972925 0.00039711336860290714 0 -0.0049175828499676581 0.00037444850293126271 0 -0.0048737249836529927 0.00046512211210345954 0 -0.0049175828499676581 0.00037444850293126271 0 -0.0048737249836529927 0.00046512211210345954 0 -0.0049755843861762333 0.00043738350853499537 0 -0.0048737249836529927 0.00046512211210345954 0 -0.0049290904024229905 0.0005131854955510635 0 -0.0049755843861762333 0.00043738350853499537 0 -0.0048737249836529927 0.00046512211210345954 0 -0.0049290904024229905 0.0005131854955510635 0 -0.0048769595882591759 0.00053128211645386077 0 -0.0048904206851225641 0.00058303492661379087 0 -0.0048769595882591759 0.00053128211645386077 0 -0.0049357631170135561 0.00055269868320164805 0 -0.0049290904024229905 0.0005131854955510635 0 -0.0048769595882591759 0.00053128211645386077 0 -0.0049357631170135561 0.00055269868320164805 0 -0.0049290904024229905 0.0005131854955510635 0 -0.0049357631170135561 0.00055269868320164805 0 -0.0049954262365097006 0.0005197906238454652 0 -0.0048904206851225641 0.00058303492661379087 0 -0.0049821909596556059 0.00058636965672367186 0 -0.0049357631170135561 0.00055269868320164805 0 -0.0048737249836529927 0.00046512211210345954 0 -0.0048769595882591759 0.00053128211645386077 0 -0.0047442401574054422 0.00054433214019482658 0 -0.0046233339694603916 0.00054211197106630556 0 -0.0045252766939669429 0.00050087365233804826 0 -0.0048904206851225641 0.00058303492661379087 0 -0.0048769595882591759 0.00053128211645386077 0 -0.0047442401574054422 0.00054433214019482658 0 -0.0043142063769098706 0.0004721695971323113 0 -0.0043271378586740052 0.00046994635660387837 0 -0.0043191697872553515 0.00047904594523877418 0 -0.0043142063769098706 0.0004721695971323113 0 -0.0043191697872553515 0.00047904594523877418 0 -0.0043269990600608597 0.00046817729727021898 0 -0.0043191697872553515 0.00047904594523877418 0 -0.004374783393141405 0.00046381249615201419 0 -0.0044657155731540974 0.00044972995291741132 0 -0.0045252766939669429 0.00050087365233804826 0 -0.0044620410124705766 0.00045531948799493204 0 -0.0043191697872553515 0.00047904594523877418 0 -0.0043269990600608597 0.00046817729727021898 0 -0.004374783393141405 0.00046381249615201419 0 -0.0043290639225163291 0.00047613331732912614 0 -0.0043269990600608597 0.00046817729727021898 0 -0.004374783393141405 0.00046381249615201419 0 -0.0043290639225163291 0.00047613331732912614 0 -0.004374783393141405 0.00046381249615201419 0 -0.0043595152776670721 0.00046597875835470767 0 -0.004374783393141405 0.00046381249615201419 0 -0.0043595152776670721 0.00046597875835470767 0 -0.0044657155731540974 0.00044972995291741132 0 -0.0043622974457410849 0.0003839584317549193 0 -0.0043595152776670721 0.00046597875835470767 0 -0.0044657155731540974 0.00044972995291741132 0 -0.0043622974457410849 0.0003839584317549193 0 -0.0046387863941108965 0.00030493321841758427 0 -0.0044657155731540974 0.00044972995291741132 0 -0.0046387863941108965 0.00030493321841758427 0 -0.0044657155731540974 0.00044972995291741132 0 -0.0046765140892244591 0.00039452207238681688 0 -0.0047442401574054422 0.00054433214019482658 0 -0.0044657155731540974 0.00044972995291741132 0 -0.0046765140892244591 0.00039452207238681688 0 -0.0049469399467394707 8.1049537861107868e-05 0 -0.0049436415255136893 8.1684090715991237e-05 0 -0.004957256934752372 7.1553688057053198e-05 0 -0.0049469399467394707 8.1049537861107868e-05 0 -0.0049414433249575203 8.2491670038528764e-05 0 -0.004957256934752372 7.1553688057053198e-05 0 -0.0049436415255136893 8.1684090715991237e-05 0 -0.004957256934752372 7.1553688057053198e-05 0 -0.0049437469186035124 8.4699358200161952e-05 0 -0.0049436415255136893 8.1684090715991237e-05 0 -0.0049437469186035124 8.4699358200161952e-05 0 -0.0049399740508803674 8.413615794667902e-05 0 -0.0049342651008510065 8.7086811923971035e-05 0 -0.0049379854132417488 8.6534712572581949e-05 0 -0.0049436415255136893 8.1684090715991237e-05 0 -0.0049342651008510065 8.7086811923971035e-05 0 -0.0049436415255136893 8.1684090715991237e-05 0 -0.0049408751026413355 8.2663908571326794e-05 0 -0.0049379854132417488 8.6534712572581949e-05 0 -0.0049469399467394707 8.1049537861107868e-05 0 -0.004941770705538061 8.5097320186299636e-05 0 -0.0049379854132417488 8.6534712572581949e-05 0 -0.0049469399467394707 8.1049537861107868e-05 0 -0.0049436415255136893 8.1684090715991237e-05 0 -0.004876097211999793 0.00027713421954455989 0 -0.0050379532581677922 0.00027746976125911908 0 -0.0051104607737807043 0.00061276986609187637 0 -0.0050422626557423073 0.00056428499901552489 0 -0.0050979220079241713 0.00043733048988401648 0 -0.0049402115919652302 8.7865659404281937e-05 0 -0.004941770705538061 8.5097320186299636e-05 0 -0.0049414433249575203 8.2491670038528764e-05 0 -0.0049469399467394707 8.1049537861107868e-05 0 -0.004941770705538061 8.5097320186299636e-05 0 -0.0049414433249575203 8.2491670038528764e-05 0 -0.0050422626557423073 0.00056428499901552489 0 -0.0049954262365097006 0.0005197906238454652 0 -0.0050979220079241713 0.00043733048988401648 0 -0.0049821909596556059 0.00058636965672367186 0 -0.0049357631170135561 0.00055269868320164805 0 -0.0049954262365097006 0.0005197906238454652 0 -0.0049821909596556059 0.00058636965672367186 0 -0.0050422626557423073 0.00056428499901552489 0 -0.0049954262365097006 0.0005197906238454652 0 -0.0049290904024229905 0.0005131854955510635 0 -0.0049954262365097006 0.0005197906238454652 0 -0.0049755843861762333 0.00043738350853499537 0 -0.0049954262365097006 0.0005197906238454652 0 -0.0049755843861762333 0.00043738350853499537 0 -0.0050979220079241713 0.00043733048988401648 0 -0.0049755843861762333 0.00043738350853499537 0 -0.0050979220079241713 0.00043733048988401648 0 -0.0050045003012892907 0.00034602270341176338 0 -0.0050379532581677922 0.00027746976125911908 0 -0.0050077578097915895 0.00015869747512253931 0 -0.0049414433249575203 8.2491670038528764e-05 0 -0.0049469678648366433 5.7665236806068052e-05 0 -0.004957256934752372 7.1553688057053198e-05 0 -0.0049390931971227091 0.00027504572533708008 0 -0.0050727548060455459 0.00026449071375188652 0 -0.0050045003012892907 0.00034602270341176338 0 -0.0050979220079241713 0.00043733048988401648 0 -0.0050727548060455459 0.00026449071375188652 0 -0.0050045003012892907 0.00034602270341176338 0 -0.0049574591742998376 0.00018071203956482822 0 -0.0050727548060455459 0.00026449071375188652 0 -0.0050453914405599858 0.00013085526297008961 0 -0.0049574591742998376 0.00018071203956482822 0 -0.0049390931971227091 0.00027504572533708008 0 -0.0050727548060455459 0.00026449071375188652 0 -0.0049469678648366433 5.7665236806068052e-05 0 -0.0049726224778136336 4.0012313347541452e-05 0 -0.0049609671140603585 2.8121693272051177e-05 0 -0.0050077578097915895 0.00015869747512253931 0 -0.0050039931434426449 8.2213912605897177e-05 0 -0.0049469678648366433 5.7665236806068052e-05 0 -0.0049726224778136336 4.0012313347541452e-05 0 -0.004957256934752372 7.1553688057053198e-05 0 -0.0049726224778136336 4.0012313347541452e-05 0 -0.004957256934752372 7.1553688057053198e-05 0 -0.0049774202603420081 5.2004918130617214e-05 0 -0.0049595998507476272 7.1404994127694223e-05 0 -0.0049551988546981682 7.2519876787383977e-05 0 -0.0049860968583572991 5.8751571784617186e-05 0 -0.0049774202603420081 5.2004918130617214e-05 0 -0.0049880247438509225 4.1706298501540797e-05 0 -0.004957256934752372 7.1553688057053198e-05 0 -0.0049860968583572991 5.8751571784617186e-05 0 -0.0049774202603420081 5.2004918130617214e-05 0 -0.0049726224778136336 4.0012313347541452e-05 0 -0.0049774202603420081 5.2004918130617214e-05 0 -0.0049880247438509225 4.1706298501540797e-05 0 -0.0049726224778136336 4.0012313347541452e-05 0 -0.0049925286785954294 2.1375072999666433e-05 0 -0.0049880247438509225 4.1706298501540797e-05 0 -0.0049726224778136336 4.0012313347541452e-05 0 -0.0049759661586093644 2.318879834617036e-05 0 -0.0049925286785954294 2.1375072999666433e-05 0 -0.0049759661586093644 2.318879834617036e-05 0 -0.0049882931552558581 1.407110701718324e-05 0 -0.0049891481413516549 6.1891571371673854e-06 0 -0.0049759661586093644 2.318879834617036e-05 0 -0.0049882931552558581 1.407110701718324e-05 0 -0.0049925286785954294 2.1375072999666433e-05 0 -0.0049570501226982285 8.1356091939665271e-05 0 -0.0049574591742998376 0.00018071203956482822 0 -0.0050453914405599858 0.00013085526297008961 0 -0.0049726224778136336 4.0012313347541452e-05 0 -0.0049759661586093644 2.318879834617036e-05 0 -0.0049609671140603585 2.8121693272051177e-05 0 -0.0049759661586093644 2.318879834617036e-05 0 -0.0049609671140603585 2.8121693272051177e-05 0 -0.0049792656715308033 9.2078923578374069e-06 0 -0.0049759661586093644 2.318879834617036e-05 0 -0.0049792656715308033 9.2078923578374069e-06 0 -0.0049891481413516549 6.1891571371673854e-06 0 -0.0050039931434426449 8.2213912605897177e-05 0 -0.0050020459149673771 2.702879560480323e-05 0 -0.0049570501226982285 8.1356091939665271e-05 0 -0.0050453914405599858 0.00013085526297008961 0 -0.0050251836432910297 3.9398113239576364e-05 0 -0.0049792656715308033 9.2078923578374069e-06 0 -0.0049999714751396158 2.7889411478989228e-10 0 -0.0049891481413516549 6.1891571371673854e-06 0 -0.0049999714751396158 2.7889411478989228e-10 0 -0.0049891481413516549 6.1891571371673854e-06 0 -0.0049999895740014825 4.2483083033735784e-09 0 -0.0050020459149673771 2.702879560480323e-05 0 -0.0050000012228893758 1.1000976444411409e-08 0 -0.0049852011576596768 2.2020945005189785e-05 0 -0.0050251836432910297 3.9398113239576364e-05 0 -0.0050000278816457466 -1.2080059230623361e-08 0 -0.0049882931552558581 1.407110701718324e-05 0 -0.0049953234521908389 4.1519599483867055e-06 0 -0.0050009310423534776 5.4157664958885028e-06 0 -0.0049882931552558581 1.407110701718324e-05 0 -0.0049891481413516549 6.1891571371673854e-06 0 -0.0049953234521908389 4.1519599483867055e-06 0 -0.0049891481413516549 6.1891571371673854e-06 0 -0.0049999895740014825 4.2483083033735784e-09 0 -0.0049953234521908389 4.1519599483867055e-06 0 -0.0049999895740014825 4.2483083033735784e-09 0 -0.0049953234521908389 4.1519599483867055e-06 0 -0.004999995358732987 1.5587533370104669e-09 0 -0.0049953234521908389 4.1519599483867055e-06 0 -0.004999995358732987 1.5587533370104669e-09 0 -0.0050009310423534776 5.4157664958885028e-06 0 -0.0050009310423534776 5.4157664958885028e-06 0 -0.0050000064819940215 2.2009783540167749e-09 0 -0.0050018076786183399 3.0869851898589187e-06 0 -0.004999995358732987 1.5587533370104669e-09 0 -0.0050009310423534776 5.4157664958885028e-06 0 -0.0050000064819940215 2.2009783540167749e-09 0 -0.0050000064819940215 2.2009783540167749e-09 0 -0.0049999966067055786 5.7150423469914759e-09 0 -0.0050012473134130268 2.2968841872945378e-06 0 -0.0050000064819940215 2.2009783540167749e-09 0 -0.0050018076786183399 3.0869851898589187e-06 0 -0.0050012473134130268 2.2968841872945378e-06 0 -0.0049999966067055786 5.7150423469914759e-09 0 -0.0050012473134130268 2.2968841872945378e-06 0 -0.0049972789286884074 1.9515456065345662e-06 0 -0.0050012473134130268 2.2968841872945378e-06 0 -0.0050042145179417744 4.7735526672760547e-06 0 -0.0049972789286884074 1.9515456065345662e-06 0 -0.0049961131855346484 8.9400130023265061e-06 0 -0.0049928969821944483 1.4101041307169044e-05 0 -0.0049972789286884074 1.9515456065345662e-06 0 -0.0049961131855346484 8.9400130023265061e-06 0 -0.0049928969821944483 1.4101041307169044e-05 0 -0.005002483539091036 2.6035782310962092e-05 0 -0.0049985872118663366 9.6375009664857691e-06 0 -0.0049977372633211248 2.7002863082268635e-06 0 -0.0050018076786183399 3.0869851898589187e-06 0 -0.0050012473134130268 2.2968841872945378e-06 0 -0.0050042145179417744 4.7735526672760547e-06 0 -0.0050009310423534776 5.4157664958885028e-06 0 -0.0050018076786183399 3.0869851898589187e-06 0 -0.0050042145179417744 4.7735526672760547e-06 0 -0.0049985872118663366 9.6375009664857691e-06 0 -0.0049957891482998069 2.5589967885224552e-05 0 -0.0049928969821944483 1.4101041307169044e-05 0 -0.0049940298678088401 2.7063969879609945e-05 0 -0.0049881914718143744 3.2542461836843096e-05 0 -0.0049968807909735544 7.1382453115465805e-06 0 -0.004996100988232657 1.4523747369292013e-05 0 -0.0049928969821944483 1.4101041307169044e-05 0 -0.0049940298678088401 2.7063969879609945e-05 0 -0.005002483539091036 2.6035782310962092e-05 0 -0.0049961131855346484 8.9400130023265061e-06 0 -0.0049936256473882123 -1.0223716808088121e-05 0 -0.0049825276807204614 -8.5547640823480079e-07 0 -0.005002483539091036 2.6035782310962092e-05 0 -0.0049943898841281077 3.5248442684931862e-05 0 -0.0050025245879072866 3.9652967954141169e-05 0 -0.004996100988232657 1.4523747369292013e-05 0 -0.0050114116432603724 -2.3931220459639227e-05 0 -0.0049936256473882123 -1.0223716808088121e-05 0 -0.0049820579642661797 -2.4451005335774022e-05 0 -0.0049879502082724797 -3.0284586589476235e-05 0 -0.0049940298678088401 2.7063969879609945e-05 0 -0.0049943898841281077 3.5248442684931862e-05 0 -0.0049881914718143744 3.2542461836843096e-05 0 -0.0049940298678088401 2.7063969879609945e-05 0 -0.005002483539091036 2.6035782310962092e-05 0 -0.0049943898841281077 3.5248442684931862e-05 0 -0.0049882931552558581 1.407110701718324e-05 0 -0.0050009310423534776 5.4157664958885028e-06 0 -0.0049925286785954294 2.1375072999666433e-05 0 -0.0049943898841281077 3.5248442684931862e-05 0 -0.0049881914718143744 3.2542461836843096e-05 0 -0.0049912153564364466 4.4361251334939031e-05 0 -0.0049957891482998069 2.5589967885224552e-05 0 -0.0049880521651040691 4.0542555900240498e-05 0 -0.0050039355042675532 1.8622879992524605e-05 0 -0.0049925286785954294 2.1375072999666433e-05 0 -0.0049880247438509225 4.1706298501540797e-05 0 -0.0050009310423534776 5.4157664958885028e-06 0 -0.0050039355042675532 1.8622879992524605e-05 0 -0.0049925286785954294 2.1375072999666433e-05 0 -0.0050009310423534776 5.4157664958885028e-06 0 -0.0050042145179417744 4.7735526672760547e-06 0 -0.0050039355042675532 1.8622879992524605e-05 0 -0.0049749038392920735 -2.288867375350571e-06 0 -0.004999972789292993 -1.349643897727461e-08 0 -0.0049903080423462174 1.7367670365800889e-06 0 -0.0049749038392920735 -2.288867375350571e-06 0 -0.004999972789292993 -1.349643897727461e-08 0 -0.0049766949673005949 4.8167903840666344e-07 0 -0.004999972789292993 -1.349643897727461e-08 0 -0.0049766949673005949 4.8167903840666344e-07 0 -0.0049999644532980701 1.0944896931495985e-08 0 -0.0049766949673005949 4.8167903840666344e-07 0 -0.004978621756807535 5.404897967292254e-06 0 -0.0049434495943162741 7.6219548847886074e-06 0 -0.0049749038392920735 -2.288867375350571e-06 0 -0.0049766949673005949 4.8167903840666344e-07 0 -0.0049434495943162741 7.6219548847886074e-06 0 -0.004978621756807535 5.404897967292254e-06 0 -0.0049698673785626528 3.0241177964304742e-06 0 -0.0049434495943162741 7.6219548847886074e-06 0 -0.004978621756807535 5.404897967292254e-06 0 -0.0049877536893392863 6.006590860720402e-06 0 -0.0049698673785626528 3.0241177964304742e-06 0 -0.004978621756807535 5.404897967292254e-06 0 -0.0049999644532980701 1.0944896931495985e-08 0 -0.0049942778231524543 3.3848694030497387e-06 0 -0.0049766949673005949 4.8167903840666344e-07 0 -0.004978621756807535 5.404897967292254e-06 0 -0.0049999644532980701 1.0944896931495985e-08 0 -0.004978621756807535 5.404897967292254e-06 0 -0.0049942778231524543 3.3848694030497387e-06 0 -0.0049877536893392863 6.006590860720402e-06 0 -0.0049999966067055786 5.7150423469914759e-09 0 -0.0049942778231524543 3.3848694030497387e-06 0 -0.0049972789286884074 1.9515456065345662e-06 0 -0.0049961131855346484 8.9400130023265061e-06 0 -0.0049972789286884074 1.9515456065345662e-06 0 -0.0049877536893392863 6.006590860720402e-06 0 -0.0049942778231524543 3.3848694030497387e-06 0 -0.0049972789286884074 1.9515456065345662e-06 0 -0.0049877536893392863 6.006590860720402e-06 0 -0.0049999966067055786 5.7150423469914759e-09 0 -0.0049999644532980701 1.0944896931495985e-08 0 -0.0049942778231524543 3.3848694030497387e-06 0 -0.0049961131855346484 8.9400130023265061e-06 0 -0.0049877536893392863 6.006590860720402e-06 0 -0.0049825276807204614 -8.5547640823480079e-07 0 -0.0049877536893392863 6.006590860720402e-06 0 -0.0049825276807204614 -8.5547640823480079e-07 0 -0.0049698673785626528 3.0241177964304742e-06 0 -0.0049936256473882123 -1.0223716808088121e-05 0 -0.0049825276807204614 -8.5547640823480079e-07 0 -0.0049779006914756124 -1.4640812988257248e-05 0 -0.0049825276807204614 -8.5547640823480079e-07 0 -0.0049779006914756124 -1.4640812988257248e-05 0 -0.0049697691806226173 -5.4940460823002549e-06 0 -0.0049936256473882123 -1.0223716808088121e-05 0 -0.0049820579642661797 -2.4451005335774022e-05 0 -0.0049779006914756124 -1.4640812988257248e-05 0 -0.0049820579642661797 -2.4451005335774022e-05 0 -0.0049723977530225323 -2.6574971109459194e-05 0 -0.0049768670831451438 -3.5300207994547777e-05 0 -0.0049820579642661797 -2.4451005335774022e-05 0 -0.0049723977530225323 -2.6574971109459194e-05 0 -0.0049779006914756124 -1.4640812988257248e-05 0 -0.0049723977530225323 -2.6574971109459194e-05 0 -0.0049557535618539404 -3.5174844528632525e-05 0 -0.0049768670831451438 -3.5300207994547777e-05 0 -0.0049723977530225323 -2.6574971109459194e-05 0 -0.0049779006914756124 -1.4640812988257248e-05 0 -0.0049631232562207554 -1.7037772626725598e-05 0 -0.0049723977530225323 -2.6574971109459194e-05 0 -0.0049631232562207554 -1.7037772626725598e-05 0 -0.0049557535618539404 -3.5174844528632525e-05 0 -0.0049631232562207554 -1.7037772626725598e-05 0 -0.0049557535618539404 -3.5174844528632525e-05 0 -0.0049419317521868936 -1.209030348954082e-05 0 -0.0049631232562207554 -1.7037772626725598e-05 0 -0.0049419317521868936 -1.209030348954082e-05 0 -0.0049495207987025024 -1.5394165391157066e-06 0 -0.0049779006914756124 -1.4640812988257248e-05 0 -0.0049631232562207554 -1.7037772626725598e-05 0 -0.0049697691806226173 -5.4940460823002549e-06 0 -0.0049631232562207554 -1.7037772626725598e-05 0 -0.0049495207987025024 -1.5394165391157066e-06 0 -0.0049697691806226173 -5.4940460823002549e-06 0 -0.0049495207987025024 -1.5394165391157066e-06 0 -0.0049697691806226173 -5.4940460823002549e-06 0 -0.0049698673785626528 3.0241177964304742e-06 0 -0.0049825276807204614 -8.5547640823480079e-07 0 -0.0049697691806226173 -5.4940460823002549e-06 0 -0.0049698673785626528 3.0241177964304742e-06 0 -0.0049495207987025024 -1.5394165391157066e-06 0 -0.0049698673785626528 3.0241177964304742e-06 0 -0.0049434495943162741 7.6219548847886074e-06 0 -0.0049749038392920735 -2.288867375350571e-06 0 -0.0049434495943162741 7.6219548847886074e-06 0 -0.0048884041416365894 4.9237629186415848e-06 0 -0.0049495207987025024 -1.5394165391157066e-06 0 -0.0049434495943162741 7.6219548847886074e-06 0 -0.0048884041416365894 4.9237629186415848e-06 0 -0.0049419317521868936 -1.209030348954082e-05 0 -0.0049495207987025024 -1.5394165391157066e-06 0 -0.0048884041416365894 4.9237629186415848e-06 0 -0.0048884041416365894 4.9237629186415848e-06 0 -0.0049890089100681958 5.7756158193273301e-05 0 -0.0045877058102641345 0.00026903645689688323 0 -0.0047779121604747911 0.00013665133635089151 0 -0.0046028493769462017 0.0002578839713323824 0 -0.0045295689736874955 0.00020127947144241601 0 -0.0048884041416365894 4.9237629186415848e-06 0 -0.0045877058102641345 0.00026903645689688323 0 -0.004579639818138719 0.00021483943135789012 0 -0.0045772822925770782 0.0002614737025746377 0 -0.0045877058102641345 0.00026903645689688323 0 -0.0047533018241425343 8.3974006752126899e-05 0 -0.0048664450847111344 1.1840921564602216e-05 0 -0.0049557535618539404 -3.5174844528632525e-05 0 -0.0049419317521868936 -1.209030348954082e-05 0 -0.0048884041416365894 4.9237629186415848e-06 0 -0.004579639818138719 0.00021483943135789012 0 -0.0046085635523886994 0.00025849942622178609 0 -0.0045772822925770782 0.0002614737025746377 0 -0.0049749038392920735 -2.288867375350571e-06 0 -0.0048884041416365894 4.9237629186415848e-06 0 -0.0049890089100681958 5.7756158193273301e-05 0 -0.0045472537584573935 0.00035732434773382661 0 -0.0045778072487193148 0.00030185502403925503 0 -0.0045924799886077209 0.0003521764546715001 0 -0.0046085635523886994 0.00025849942622178609 0 -0.0045778072487193148 0.00030185502403925503 0 -0.0046309692301115413 0.00030478758857596444 0 -0.0046085635523886994 0.00025849942622178609 0 -0.0045772822925770782 0.0002614737025746377 0 -0.0045778072487193148 0.00030185502403925503 0 -0.0045772822925770782 0.0002614737025746377 0 -0.0045778072487193148 0.00030185502403925503 0 -0.0045667907107331601 0.00028299140461615245 0 -0.0045772822925770782 0.0002614737025746377 0 -0.0045667907107331601 0.00028299140461615245 0 -0.0045877058102641345 0.00026903645689688323 0 -0.0045778072487193148 0.00030185502403925503 0 -0.0045667907107331601 0.00028299140461615245 0 -0.0045475487467481861 0.00031804432179688419 0 -0.0045667907107331601 0.00028299140461615245 0 -0.0045877058102641345 0.00026903645689688323 0 -0.0045500946460383801 0.00029411712618724429 0 -0.0045667907107331601 0.00028299140461615245 0 -0.0045500946460383801 0.00029411712618724429 0 -0.0045475487467481861 0.00031804432179688419 0 -0.0045475487467481861 0.00031804432179688419 0 -0.0045040911112386763 0.00032836370338480832 0 -0.0045132452844867119 0.00037133953622275553 0 -0.0045472537584573935 0.00035732434773382661 0 -0.0045778072487193148 0.00030185502403925503 0 -0.0045475487467481861 0.00031804432179688419 0 -0.0045472537584573935 0.00035732434773382661 0 -0.0045475487467481861 0.00031804432179688419 0 -0.0045132452844867119 0.00037133953622275553 0 -0.0045040911112386763 0.00032836370338480832 0 -0.0044787673805705801 0.00036205887856331553 0 -0.0045132452844867119 0.00037133953622275553 0 -0.0045295689736874955 0.00020127947144241601 0 -0.0045238689397260447 0.00028412107718503438 0 -0.0044614694101310715 0.00029903669496084557 0 -0.0045500946460383801 0.00029411712618724429 0 -0.0045040911112386763 0.00032836370338480832 0 -0.0045238689397260447 0.00028412107718503438 0 -0.0045500946460383801 0.00029411712618724429 0 -0.0045475487467481861 0.00031804432179688419 0 -0.0045040911112386763 0.00032836370338480832 0 -0.0047533018241425343 8.3974006752126899e-05 0 -0.0047077117258183107 0.00013424924294259052 0 -0.0045295689736874955 0.00020127947144241601 0 -0.0045877058102641345 0.00026903645689688323 0 -0.0045238689397260447 0.00028412107718503438 0 -0.0045877058102641345 0.00026903645689688323 0 -0.0045500946460383801 0.00029411712618724429 0 -0.0045238689397260447 0.00028412107718503438 0 -0.0045040911112386763 0.00032836370338480832 0 -0.0045238689397260447 0.00028412107718503438 0 -0.0044614694101310715 0.00029903669496084557 0 -0.0049820579642661797 -2.4451005335774022e-05 0 -0.0049768670831451438 -3.5300207994547777e-05 0 -0.0049879502082724797 -3.0284586589476235e-05 0 -0.0045040911112386763 0.00032836370338480832 0 -0.0044523419051060937 0.0003410604222799273 0 -0.0044787673805705801 0.00036205887856331553 0 -0.0044523419051060937 0.0003410604222799273 0 -0.0044787673805705801 0.00036205887856331553 0 -0.0044245155660591765 0.00035778819910515109 0 -0.0047077117258183107 0.00013424924294259052 0 -0.004768275127393389 0.00014263925010150454 0 -0.0045040911112386763 0.00032836370338480832 0 -0.0044614694101310715 0.00029903669496084557 0 -0.0044523419051060937 0.0003410604222799273 0 -0.0044614694101310715 0.00029903669496084557 0 -0.0044523419051060937 0.0003410604222799273 0 -0.0044231234403148854 0.00033752021447722369 0 -0.0044416350722349483 0.00038977697748238322 0 -0.0044599145190259244 0.00037785147233055218 0 -0.0044239158581454449 0.0003783211826193794 0 -0.0044562182207033667 0.00037118422677735985 0 -0.0044970985705572175 0.0003342661044499314 0 -0.0044599145190259244 0.00037785147233055218 0 -0.004447975782330465 0.00040309131636823853 0 -0.0044636762889449771 0.00041735082990431615 0 -0.0044416350722349483 0.00038977697748238322 0 -0.0044599145190259244 0.00037785147233055218 0 -0.004447975782330465 0.00040309131636823853 0 -0.0044416350722349483 0.00038977697748238322 0 -0.004447975782330465 0.00040309131636823853 0 -0.0044287926502048127 0.00040729338061776141 0 -0.004447975782330465 0.00040309131636823853 0 -0.0044465799344243495 0.00042110184065552285 0 -0.0044287926502048127 0.00040729338061776141 0 -0.0044465799344243495 0.00042110184065552285 0 -0.0044625812067555556 0.00043488991085302326 0 -0.004436123021249844 0.00043515109106852278 0 -0.0044465799344243495 0.00042110184065552285 0 -0.0044625812067555556 0.00043488991085302326 0 -0.0044636762889449771 0.00041735082990431615 0 -0.004447975782330465 0.00040309131636823853 0 -0.0044465799344243495 0.00042110184065552285 0 -0.0044636762889449771 0.00041735082990431615 0 -0.0044625812067555556 0.00043488991085302326 0 -0.0044636762889449771 0.00041735082990431615 0 -0.004480833269673047 0.00043919592987740275 0 -0.0044636762889449771 0.00041735082990431615 0 -0.004480833269673047 0.00043919592987740275 0 -0.0044896477565859174 0.00041257375788788375 0 -0.0044599145190259244 0.00037785147233055218 0 -0.0044896477565859174 0.00041257375788788375 0 -0.0045132452844867119 0.00037133953622275553 0 -0.0044599145190259244 0.00037785147233055218 0 -0.0044636762889449771 0.00041735082990431615 0 -0.0044896477565859174 0.00041257375788788375 0 -0.0044562182207033667 0.00037118422677735985 0 -0.0045158777597824086 0.00037138853567263933 0 -0.0045472537584573935 0.00035732434773382661 0 -0.0045132452844867119 0.00037133953622275553 0 -0.0045150490086876549 0.00040840522515930204 0 -0.0044896477565859174 0.00041257375788788375 0 -0.0045132452844867119 0.00037133953622275553 0 -0.0045150490086876549 0.00040840522515930204 0 -0.0044896477565859174 0.00041257375788788375 0 -0.0045150490086876549 0.00040840522515930204 0 -0.004492206706091996 0.00044506527192997135 0 -0.004480833269673047 0.00043919592987740275 0 -0.0044896477565859174 0.00041257375788788375 0 -0.004492206706091996 0.00044506527192997135 0 -0.0045150490086876549 0.00040840522515930204 0 -0.0045103153213816418 0.00045132120274826861 0 -0.0045483349793510692 0.00039684565776610726 0 -0.0045150490086876549 0.00040840522515930204 0 -0.004492206706091996 0.00044506527192997135 0 -0.0045103153213816418 0.00045132120274826861 0 -0.0045472537584573935 0.00035732434773382661 0 -0.0045483349793510692 0.00039684565776610726 0 -0.0045924799886077209 0.0003521764546715001 0 -0.0045472537584573935 0.00035732434773382661 0 -0.0045150490086876549 0.00040840522515930204 0 -0.0045483349793510692 0.00039684565776610726 0 -0.0049913106397106877 5.2795559796013206e-05 0 -0.0049912153564364466 4.4361251334939031e-05 0 -0.0049942154584230259 4.8627950814688424e-05 0 -0.0049860968583572991 5.8751571784617186e-05 0 -0.0049913106397106877 5.2795559796013206e-05 0 -0.0049912153564364466 4.4361251334939031e-05 0 -0.0049551988546981682 7.2519876787383977e-05 0 -0.0049997465458070742 6.1103210043033314e-05 0 -0.0049881914718143744 3.2542461836843096e-05 0 -0.0049880247438509225 4.1706298501540797e-05 0 -0.0049912153564364466 4.4361251334939031e-05 0 -0.0049860968583572991 5.8751571784617186e-05 0 -0.0049880247438509225 4.1706298501540797e-05 0 -0.0049912153564364466 4.4361251334939031e-05 0 -0.0049951183815481488 4.3704572467948012e-05 0 -0.0050025245879072866 3.9652967954141169e-05 0 -0.0049975126494091974 4.7389704020810741e-05 0 -0.0049912153564364466 4.4361251334939031e-05 0 -0.0049951183815481488 4.3704572467948012e-05 0 -0.0049942154584230259 4.8627950814688424e-05 0 -0.0049943898841281077 3.5248442684931862e-05 0 -0.0049951183815481488 4.3704572467948012e-05 0 -0.0050025245879072866 3.9652967954141169e-05 0 -0.0049943898841281077 3.5248442684931862e-05 0 -0.0049912153564364466 4.4361251334939031e-05 0 -0.0049951183815481488 4.3704572467948012e-05 0 -0.0050025245879072866 3.9652967954141169e-05 0 -0.0050005423581125502 4.9979703743741467e-05 0 -0.0049975126494091974 4.7389704020810741e-05 0 -0.0049768670831451438 -3.5300207994547777e-05 0 -0.0049879502082724797 -3.0284586589476235e-05 0 -0.0049841899557407964 -3.8327618558355545e-05 0 -0.0050114116432603724 -2.3931220459639227e-05 0 -0.004768275127393389 0.00014263925010150454 0 -0.0046696572295523127 0.000251057357647717 0 -0.0047039391568260537 0.00023983253969275556 0 -0.0046679873984797936 0.00023841368136979667 0 -0.004768275127393389 0.00014263925010150454 0 -0.0047766170577823296 0.00020428378976557128 0 -0.0050005423581125502 4.9979703743741467e-05 0 -0.0049975126494091974 4.7389704020810741e-05 0 -0.0049968106928389468 5.2488433557197626e-05 0 -0.0046715376472374172 0.00026570539524426975 0 -0.0046696572295523127 0.000251057357647717 0 -0.0047039391568260537 0.00023983253969275556 0 -0.0047766170577823296 0.00020428378976557128 0 -0.0044970985705572175 0.0003342661044499314 0 -0.0044523419051060937 0.0003410604222799273 0 -0.0044231234403148854 0.00033752021447722369 0 -0.0044238974351059413 0.00034842953539098451 0 -0.0044523419051060937 0.0003410604222799273 0 -0.0044238974351059413 0.00034842953539098451 0 -0.0044245155660591765 0.00035778819910515109 0 -0.004768275127393389 0.00014263925010150454 0 -0.0046125975600039802 0.00026855794111655252 0 -0.0046125975600039802 0.00026855794111655252 0 -0.0044970985705572175 0.0003342661044499314 0 -0.0049997465458070742 6.1103210043033314e-05 0 -0.0047766170577823296 0.00020428378976557128 0 -0.0049913106397106877 5.2795559796013206e-05 0 -0.0049942154584230259 4.8627950814688424e-05 0 -0.0049968106928389468 5.2488433557197626e-05 0 -0.0049942154584230259 4.8627950814688424e-05 0 -0.0049975126494091974 4.7389704020810741e-05 0 -0.0049968106928389468 5.2488433557197626e-05 0 -0.0049951183815481488 4.3704572467948012e-05 0 -0.0049942154584230259 4.8627950814688424e-05 0 -0.0049975126494091974 4.7389704020810741e-05 0 -0.0047766170577823296 0.00020428378976557128 0 -0.0047476998614277644 0.0002244660350275117 0 -0.0049343008533878178 9.1281073004733995e-05 0 -0.004916182150498119 9.3352244103163989e-05 0 -0.0049313429064315817 8.311954433835449e-05 0 -0.0044684284454656895 0.00043429307317474072 0 -0.0044775008917520894 0.00035048093847171502 0 -0.0045978095436542852 0.00033840356834535649 0 -0.0044684284454656895 0.00043429307317474072 0 -0.0044775008917520894 0.00035048093847171502 0 -0.0044418563576025414 0.00039484567692685865 0 -0.0044416350722349483 0.00038977697748238322 0 -0.0044239158581454449 0.0003783211826193794 0 -0.0044287926502048127 0.00040729338061776141 0 -0.0044970985705572175 0.0003342661044499314 0 -0.0044351805218219766 0.00039824301282003789 0 -0.0044012139429325777 0.00043125508259669209 0 -0.0044418563576025414 0.00039484567692685865 0 -0.0044115809485228107 0.00036263397767514192 0 -0.0044684284454656895 0.00043429307317474072 0 -0.0044012139429325777 0.00043125508259669209 0 -0.0044418563576025414 0.00039484567692685865 0 -0.0044115809485228107 0.00036263397767514192 0 -0.0043814620040642524 0.00032781068974131234 0 -0.0044367064762021154 0.00032466270862599553 0 -0.0044775008917520894 0.00035048093847171502 0 -0.0044115809485228107 0.00036263397767514192 0 -0.0044367064762021154 0.00032466270862599553 0 -0.0044775008917520894 0.00035048093847171502 0 -0.0044418563576025414 0.00039484567692685865 0 -0.0044115809485228107 0.00036263397767514192 0 -0.0044009892802103542 0.00043194296668355031 0 -0.0044115809485228107 0.00036263397767514192 0 -0.0043814620040642524 0.00032781068974131234 0 -0.0044970985705572175 0.0003342661044499314 0 -0.0044084189617297452 0.00037743533531814675 0 -0.0044084189617297452 0.00037743533531814675 0 -0.0043392493366251426 0.0003213688246857002 0 -0.0043814620040642524 0.00032781068974131234 0 -0.0044134362838773346 0.00028423067387766949 0 -0.0043857046979952742 0.00023689594498317349 0 -0.0044465799344243495 0.00042110184065552285 0 -0.0044287926502048127 0.00040729338061776141 0 -0.004436123021249844 0.00043515109106852278 0 -0.0043814620040642524 0.00032781068974131234 0 -0.0044134362838773346 0.00028423067387766949 0 -0.0044367064762021154 0.00032466270862599553 0 -0.0044775008917520894 0.00035048093847171502 0 -0.0044367064762021154 0.00032466270862599553 0 -0.0044598195310465282 0.00028219316027817119 0 -0.0044134362838773346 0.00028423067387766949 0 -0.0044367064762021154 0.00032466270862599553 0 -0.0044598195310465282 0.00028219316027817119 0 -0.0044598195310465282 0.00028219316027817119 0 -0.0044160492786400685 0.00024955420127147635 0 -0.0044371570548485586 0.00021507330823609949 0 -0.0044160492786400685 0.00024955420127147635 0 -0.0044371570548485586 0.00021507330823609949 0 -0.0043992990206783026 0.00021297088097698189 0 -0.0044134362838773346 0.00028423067387766949 0 -0.0044598195310465282 0.00028219316027817119 0 -0.0044160492786400685 0.00024955420127147635 0 -0.0043814620040642524 0.00032781068974131234 0 -0.0043857046979952742 0.00023689594498317349 0 -0.0043632921224788972 0.00021878444338606194 0 -0.0044134362838773346 0.00028423067387766949 0 -0.0044160492786400685 0.00024955420127147635 0 -0.0043857046979952742 0.00023689594498317349 0 -0.0044160492786400685 0.00024955420127147635 0 -0.0043857046979952742 0.00023689594498317349 0 -0.0043992990206783026 0.00021297088097698189 0 -0.0043857046979952742 0.00023689594498317349 0 -0.0043651694645322672 0.00021776346871649083 0 -0.0043992990206783026 0.00021297088097698189 0 -0.0043388680188840038 0.00030256869739414446 0 -0.0043392493366251426 0.0003213688246857002 0 -0.0044775008917520894 0.00035048093847171502 0 -0.0045191681195056489 0.00027990148794028235 0 -0.0045978095436542852 0.00033840356834535649 0 -0.0045191681195056489 0.00027990148794028235 0 -0.0045978095436542852 0.00033840356834535649 0 -0.0045676436554263232 0.0002189248473811151 0 -0.0044775008917520894 0.00035048093847171502 0 -0.0044598195310465282 0.00028219316027817119 0 -0.0045191681195056489 0.00027990148794028235 0 -0.0044598195310465282 0.00028219316027817119 0 -0.0044933066079306484 0.00021019401568863361 0 -0.0044371570548485586 0.00021507330823609949 0 -0.0044598195310465282 0.00028219316027817119 0 -0.0045191681195056489 0.00027990148794028235 0 -0.0044933066079306484 0.00021019401568863361 0 -0.0045191681195056489 0.00027990148794028235 0 -0.0045676436554263232 0.0002189248473811151 0 -0.0044933066079306484 0.00021019401568863361 0 -0.0047476998614277644 0.0002244660350275117 0 -0.0048507257654206003 0.00015270235906069828 0 -0.0045978095436542852 0.00033840356834535649 0 -0.0047507587539608901 0.00023262463195474498 0 -0.0045676436554263232 0.0002189248473811151 0 -0.0049343008533878178 9.1281073004733995e-05 0 -0.0049313429064315817 8.311954433835449e-05 0 -0.0049399740508803674 8.413615794667902e-05 0 -0.0049437469186035124 8.4699358200161952e-05 0 -0.0049343008533878178 9.1281073004733995e-05 0 -0.0049399740508803674 8.413615794667902e-05 0 -0.0049436415255136893 8.1684090715991237e-05 0 -0.0049399740508803674 8.413615794667902e-05 0 -0.0049408751026413355 8.2663908571326794e-05 0 -0.0049313429064315817 8.311954433835449e-05 0 -0.0049399740508803674 8.413615794667902e-05 0 -0.0049408751026413355 8.2663908571326794e-05 0 -0.0049276078847825767 9.4360400669082532e-05 0 -0.0047507587539608901 0.00023262463195474498 0 -0.0046695745992539556 5.8626548208833381e-05 0 -0.0045676436554263232 0.0002189248473811151 0 -0.0046695745992539556 5.8626548208833381e-05 0 -0.0045079198931466686 0.00013914757707158738 0 -0.0047507587539608901 0.00023262463195474498 0 -0.0045676436554263232 0.0002189248473811151 0 -0.0046695745992539556 5.8626548208833381e-05 0 -0.0043278652693044123 5.7606722745737157e-05 0 -0.0043077646730071244 0.00010847929021914485 0 -0.0043750546874710356 0.00010707408717035894 0 -0.0045906318688255891 4.8824486427196203e-05 0 -0.0045010255240085758 6.3590193342963783e-05 0 -0.0042522940934496718 6.5333722210302961e-05 0 -0.0042584596997667489 9.5834842333563568e-05 0 -0.0043278652693044123 5.7606722745737157e-05 0 -0.0042584596997667489 9.5834842333563568e-05 0 -0.0043278652693044123 5.7606722745737157e-05 0 -0.0043077646730071244 0.00010847929021914485 0 -0.0042686273842502597 0.00015014210026127845 0 -0.0043077646730071244 0.00010847929021914485 0 -0.0043235958393826835 0.00015146663927255474 0 -0.0042584596997667489 9.5834842333563568e-05 0 -0.0042686273842502597 0.00015014210026127845 0 -0.0043077646730071244 0.00010847929021914485 0 -0.0043077646730071244 0.00010847929021914485 0 -0.0043235958393826835 0.00015146663927255474 0 -0.0043750546874710356 0.00010707408717035894 0 -0.0043235958393826835 0.00015146663927255474 0 -0.0043742614397665313 0.00015802230609489266 0 -0.0043750546874710356 0.00010707408717035894 0 -0.0043235958393826835 0.00015146663927255474 0 -0.0043742614397665313 0.00015802230609489266 0 -0.0043376242120023341 0.00019432314036403251 0 -0.0042686273842502597 0.00015014210026127845 0 -0.0043235958393826835 0.00015146663927255474 0 -0.0042849393697834181 0.00020814990720681575 0 -0.0043235958393826835 0.00015146663927255474 0 -0.0042849393697834181 0.00020814990720681575 0 -0.0043376242120023341 0.00019432314036403251 0 -0.0040532396865041983 0.00033096187320756746 0 -0.0042265665543214743 0.00027352765712737847 0 -0.0041235557865509755 0.00028784801287116821 0 -0.0041139734663317249 0.00028820571963610796 0 -0.0041107538307954541 0.00028446161040785942 0 -0.0041235557865509755 0.00028784801287116821 0 -0.0041107538307954541 0.00028446161040785942 0 -0.0041304077577330057 0.00027356945367935779 0 -0.0044281679060123166 0.00013962542666817442 0 -0.0043742614397665313 0.00015802230609489266 0 -0.0044000911029111181 0.000209249618927016 0 -0.0043742614397665313 0.00015802230609489266 0 -0.0043376242120023341 0.00019432314036403251 0 -0.0044000911029111181 0.000209249618927016 0 -0.0042783122148828436 0.00020655457905739298 0 -0.0042265665543214743 0.00027352765712737847 0 -0.0044281679060123166 0.00013962542666817442 0 -0.0043742614397665313 0.00015802230609489266 0 -0.0043750546874710356 0.00010707408717035894 0 -0.0044281679060123166 0.00013962542666817442 0 -0.0043750546874710356 0.00010707408717035894 0 -0.0044202701760145168 0.00010008345731390069 0 -0.0043750546874710356 0.00010707408717035894 0 -0.0044202701760145168 0.00010008345731390069 0 -0.0044380843136198351 6.9959779330561211e-05 0 -0.0041235557865509755 0.00028784801287116821 0 -0.0041159200782007362 0.00029087507165021501 0 -0.0041177719141164484 0.00029381717804976328 0 -0.0044281679060123166 0.00013962542666817442 0 -0.0044202701760145168 0.00010008345731390069 0 -0.0044302004535878821 7.1800887271787709e-05 0 -0.0042783122148828436 0.00020655457905739298 0 -0.0042731126656801429 0.00018302923164182359 0 -0.0041235557865509755 0.00028784801287116821 0 -0.0041139734663317249 0.00028820571963610796 0 -0.0041159200782007362 0.00029087507165021501 0 -0.0041159200782007362 0.00029087507165021501 0 -0.0041177719141164484 0.00029381717804976328 0 -0.0041158413004398764 0.00029374642621416856 0 -0.0042731126656801429 0.00018302923164182359 0 -0.0042321287411872842 0.00025320787259358742 0 -0.0044302004535878821 7.1800887271787709e-05 0 -0.004415271645199715 0.00011435151326323168 0 -0.0043629489799202935 0.00014707470428010529 0 -0.0041177719141164484 0.00029381717804976328 0 -0.0041180876097425077 0.00029404553698672597 0 -0.0041158413004398764 0.00029374642621416856 0 -0.0044202701760145168 0.00010008345731390069 0 -0.0044302004535878821 7.1800887271787709e-05 0 -0.0044380843136198351 6.9959779330561211e-05 0 -0.0044302004535878821 7.1800887271787709e-05 0 -0.004415271645199715 0.00011435151326323168 0 -0.0044380843136198351 6.9959779330561211e-05 0 -0.004415271645199715 0.00011435151326323168 0 -0.0044380843136198351 6.9959779330561211e-05 0 -0.0044512699641852749 0.00012066468361930629 0 -0.0045010255240085758 6.3590193342963783e-05 0 -0.0044423084434541613 6.6133367249290222e-05 0 -0.0043278652693044123 5.7606722745737157e-05 0 -0.0043750546874710356 0.00010707408717035894 0 -0.0044380843136198351 6.9959779330561211e-05 0 -0.0046695745992539556 5.8626548208833381e-05 0 -0.0044380843136198351 6.9959779330561211e-05 0 -0.0045079198931466686 0.00013914757707158738 0 -0.0044380843136198351 6.9959779330561211e-05 0 -0.0045079198931466686 0.00013914757707158738 0 -0.0044512699641852749 0.00012066468361930629 0 -0.0045079198931466686 0.00013914757707158738 0 -0.0044512699641852749 0.00012066468361930629 0 -0.0044504663381429565 0.00016109315895015342 0 -0.0045079198931466686 0.00013914757707158738 0 -0.0044933066079306484 0.00021019401568863361 0 -0.0044504663381429565 0.00016109315895015342 0 -0.0044933066079306484 0.00021019401568863361 0 -0.0044504663381429565 0.00016109315895015342 0 -0.0044371570548485586 0.00021507330823609949 0 -0.0045676436554263232 0.0002189248473811151 0 -0.0045079198931466686 0.00013914757707158738 0 -0.0044933066079306484 0.00021019401568863361 0 -0.004415271645199715 0.00011435151326323168 0 -0.0044028015972729989 0.00015320826035015338 0 -0.0043629489799202935 0.00014707470428010529 0 -0.0044028015972729989 0.00015320826035015338 0 -0.0043887534981758847 0.00018237833997377168 0 -0.0043629489799202935 0.00014707470428010529 0 -0.004415271645199715 0.00011435151326323168 0 -0.0044028015972729989 0.00015320826035015338 0 -0.0044504663381429565 0.00016109315895015342 0 -0.004415271645199715 0.00011435151326323168 0 -0.0044512699641852749 0.00012066468361930629 0 -0.0044504663381429565 0.00016109315895015342 0 -0.0044028015972729989 0.00015320826035015338 0 -0.0044504663381429565 0.00016109315895015342 0 -0.0044123442689881949 0.00018386610438155351 0 -0.0044504663381429565 0.00016109315895015342 0 -0.0044123442689881949 0.00018386610438155351 0 -0.0044371570548485586 0.00021507330823609949 0 -0.0044123442689881949 0.00018386610438155351 0 -0.0044371570548485586 0.00021507330823609949 0 -0.0043992990206783026 0.00021297088097698189 0 -0.0043392493366251426 0.0003213688246857002 0 -0.0042321287411872842 0.00025320787259358742 0 -0.0043651694645322672 0.00021776346871649083 0 -0.0043887534981758847 0.00018237833997377168 0 -0.0043629489799202935 0.00014707470428010529 0 -0.0043651694645322672 0.00021776346871649083 0 -0.0043992990206783026 0.00021297088097698189 0 -0.0043887534981758847 0.00018237833997377168 0 -0.0044123442689881949 0.00018386610438155351 0 -0.0043992990206783026 0.00021297088097698189 0 -0.0043887534981758847 0.00018237833997377168 0 -0.0044028015972729989 0.00015320826035015338 0 -0.0044123442689881949 0.00018386610438155351 0 -0.0043887534981758847 0.00018237833997377168 0 -0.0044625812067555556 0.00043488991085302326 0 -0.004436123021249844 0.00043515109106852278 0 -0.0044447446221439228 0.00044087771133444404 0 -0.0043392493366251426 0.0003213688246857002 0 -0.0042719694962292621 0.00034070524219831177 0 -0.0042719694962292621 0.00034070524219831177 0 -0.0042951396050158758 0.00036753254779609294 0 -0.0044625812067555556 0.00043488991085302326 0 -0.0044447446221439228 0.00044087771133444404 0 -0.0044798541010223382 0.00045220203005536837 0 -0.0041072709319885685 0.00028368099398536648 0 -0.0041071245066643305 0.00028230092071282925 0 -0.0041066111279024972 0.00028407179070206318 0 -0.0042914037246785577 0.00032465625019063003 0 -0.0042722693528594044 0.00030908220126385743 0 -0.0042841014091275732 0.00028045209276444591 0 -0.0042719694962292621 0.00034070524219831177 0 -0.0042321287411872842 0.00025320787259358742 0 -0.0041072709319885685 0.00028368099398536648 0 -0.0041066900546431065 0.00028338650720350462 0 -0.0041066111279024972 0.00028407179070206318 0 -0.004480833269673047 0.00043919592987740275 0 -0.0044798541010223382 0.00045220203005536837 0 -0.0044806191561115993 0.00045213793800148532 0 -0.0044625812067555556 0.00043488991085302326 0 -0.004480833269673047 0.00043919592987740275 0 -0.0044798541010223382 0.00045220203005536837 0 -0.0041071245066643305 0.00028230092071282925 0 -0.0041360375122427902 0.00027428012244548838 0 -0.0041092339565650914 0.00028659582711643833 0 -0.0042951396050158758 0.00036753254779609294 0 -0.0043044244142582122 0.00034712702292719489 0 -0.0041071245066643305 0.00028230092071282925 0 -0.0041067540414530829 0.00028575299198483868 0 -0.0041092339565650914 0.00028659582711643833 0 -0.0041067540414530829 0.00028575299198483868 0 -0.0041053137617261979 0.00028742667291501334 0 -0.0041065561679528694 0.00029025044696407489 0 -0.0042321287411872842 0.00025320787259358742 0 -0.0041057297093747176 0.00029412146473378336 0 -0.0041066900546431065 0.00028338650720350462 0 -0.0041053137617261979 0.00028742667291501334 0 -0.0041066111279024972 0.00028407179070206318 0 -0.0041067540414530829 0.00028575299198483868 0 -0.0041053137617261979 0.00028742667291501334 0 -0.0041066111279024972 0.00028407179070206318 0 -0.0041071245066643305 0.00028230092071282925 0 -0.0041067540414530829 0.00028575299198483868 0 -0.0041066111279024972 0.00028407179070206318 0 -0.004492206706091996 0.00044506527192997135 0 -0.0045103153213816418 0.00045132120274826861 0 -0.004466553542294114 0.00046111183809436338 0 -0.0045103153213816418 0.00045132120274826861 0 -0.004466553542294114 0.00046111183809436338 0 -0.0044598116463412177 0.00049662310959605171 0 -0.004492206706091996 0.00044506527192997135 0 -0.004466553542294114 0.00046111183809436338 0 -0.0044806191561115993 0.00045213793800148532 0 -0.004480833269673047 0.00043919592987740275 0 -0.004492206706091996 0.00044506527192997135 0 -0.0044806191561115993 0.00045213793800148532 0 -0.0044798541010223382 0.00045220203005536837 0 -0.0044806191561115993 0.00045213793800148532 0 -0.0044741012879916317 0.000413857710460178 0 -0.004466553542294114 0.00046111183809436338 0 -0.0044806191561115993 0.00045213793800148532 0 -0.0044741012879916317 0.000413857710460178 0 -0.004466553542294114 0.00046111183809436338 0 -0.0044147841018536728 0.00043519168884297916 0 -0.0044741012879916317 0.000413857710460178 0 -0.004466553542294114 0.00046111183809436338 0 -0.0044147841018536728 0.00043519168884297916 0 -0.0044598116463412177 0.00049662310959605171 0 -0.0044147841018536728 0.00043519168884297916 0 -0.0044741012879916317 0.000413857710460178 0 -0.004347065637840008 0.00037980391564740621 0 -0.0044741012879916317 0.000413857710460178 0 -0.0042922624681027942 0.00033993781948928037 0 -0.004347065637840008 0.00037980391564740621 0 -0.0043044244142582122 0.00034712702292719489 0 -0.0042984962138544391 0.00034308112936307393 0 -0.0041360375122427902 0.00027428012244548838 0 -0.0041696420166613037 0.00034845932306884947 0 -0.0042922624681027942 0.00033993781948928037 0 -0.0041360375122427902 0.00027428012244548838 0 -0.0041215729048550186 0.00034040822343038796 0 -0.0041062848968880664 0.00030010018434769008 0 -0.0041360375122427902 0.00027428012244548838 0 -0.0041215729048550186 0.00034040822343038796 0 -0.0041696420166613037 0.00034845932306884947 0 -0.0041215729048550186 0.00034040822343038796 0 -0.0040977510318381226 0.00036785939269001874 0 -0.0041443825173306187 0.00038173696949113855 0 -0.0041215729048550186 0.00034040822343038796 0 -0.0041696420166613037 0.00034845932306884947 0 -0.0041443825173306187 0.00038173696949113855 0 -0.0041696420166613037 0.00034845932306884947 0 -0.0041970779886763608 0.00040614754070999082 0 -0.0042922624681027942 0.00033993781948928037 0 -0.0041696420166613037 0.00034845932306884947 0 -0.0041970779886763608 0.00040614754070999082 0 -0.0041443825173306187 0.00038173696949113855 0 -0.0041057297093747176 0.00029412146473378336 0 -0.0041100953518489382 0.00028690269202323511 0 -0.0041159200782007362 0.00029087507165021501 0 -0.0041158413004398764 0.00029374642621416856 0 -0.0041097448255628293 0.00028861778164281782 0 -0.0041053137617261979 0.00028742667291501334 0 -0.0041065561679528694 0.00029025044696407489 0 -0.0041097448255628293 0.00028861778164281782 0 -0.0041139734663317249 0.00028820571963610796 0 -0.0041159200782007362 0.00029087507165021501 0 -0.0041097448255628293 0.00028861778164281782 0 -0.0041065561679528694 0.00029025044696407489 0 -0.0041092339565650914 0.00028659582711643833 0 -0.0041062848968880664 0.00030010018434769008 0 -0.0041067540414530829 0.00028575299198483868 0 -0.0041065561679528694 0.00029025044696407489 0 -0.0041092339565650914 0.00028659582711643833 0 -0.0041065561679528694 0.00029025044696407489 0 -0.0041062848968880664 0.00030010018434769008 0 -0.0041097448255628293 0.00028861778164281782 0 -0.0041360375122427902 0.00027428012244548838 0 -0.0041092339565650914 0.00028659582711643833 0 -0.0041062848968880664 0.00030010018434769008 0 -0.0041062848968880664 0.00030010018434769008 0 -0.0040858681761439652 0.00034583720180304665 0 -0.0040489827794597489 0.00035274327530266731 0 -0.0041215729048550186 0.00034040822343038796 0 -0.0041062848968880664 0.00030010018434769008 0 -0.0040858681761439652 0.00034583720180304665 0 -0.0041215729048550186 0.00034040822343038796 0 -0.0040858681761439652 0.00034583720180304665 0 -0.0040977510318381226 0.00036785939269001874 0 -0.0040858681761439652 0.00034583720180304665 0 -0.0040489827794597489 0.00035274327530266731 0 -0.0040588610048574282 0.00036366636298758613 0 -0.0041186575897135839 0.00029502124078875885 0 -0.0040532396865041983 0.00033096187320756746 0 -0.0041062848968880664 0.00030010018434769008 0 -0.0041097448255628293 0.00028861778164281782 0 -0.0041107538307954541 0.00028446161040785942 0 -0.0041139734663317249 0.00028820571963610796 0 -0.0041097448255628293 0.00028861778164281782 0 -0.0041107538307954541 0.00028446161040785942 0 -0.0040588610048574282 0.00036366636298758613 0 -0.0040266055299679592 0.00038239313184033766 0 -0.0040505092871373043 0.00037014276541736551 0 -0.0040489827794597489 0.00035274327530266731 0 -0.0040588610048574282 0.00036366636298758613 0 -0.0040505092871373043 0.00037014276541736551 0 -0.0040858681761439652 0.00034583720180304665 0 -0.0040588610048574282 0.00036366636298758613 0 -0.0040977510318381226 0.00036785939269001874 0 -0.0040588610048574282 0.00036366636298758613 0 -0.0040977510318381226 0.00036785939269001874 0 -0.0040962726349953 0.00037373927073457933 0 -0.0040588610048574282 0.00036366636298758613 0 -0.0040962726349953 0.00037373927073457933 0 -0.0040266055299679592 0.00038239313184033766 0 -0.0040962726349953 0.00037373927073457933 0 -0.0040266055299679592 0.00038239313184033766 0 -0.0041288579651659902 0.00037090655551021465 0 -0.0041970779886763608 0.00040614754070999082 0 -0.0041366189742629922 0.00039160090574864842 0 -0.004091203032861734 0.00041138826481431414 0 -0.0041970779886763608 0.00040614754070999082 0 -0.0041366189742629922 0.00039160090574864842 0 -0.0041443825173306187 0.00038173696949113855 0 -0.0040977510318381226 0.00036785939269001874 0 -0.0041443825173306187 0.00038173696949113855 0 -0.0041276756838134095 0.00038037474325266135 0 -0.0041366189742629922 0.00039160090574864842 0 -0.0041443825173306187 0.00038173696949113855 0 -0.0041276756838134095 0.00038037474325266135 0 -0.0041276756838134095 0.00038037474325266135 0 -0.0041071698505139699 0.00035695973481081312 0 -0.0041288579651659902 0.00037090655551021465 0 -0.0040977510318381226 0.00036785939269001874 0 -0.0040962726349953 0.00037373927073457933 0 -0.0041276756838134095 0.00038037474325266135 0 -0.0040962726349953 0.00037373927073457933 0 -0.0041276756838134095 0.00038037474325266135 0 -0.0041288579651659902 0.00037090655551021465 0 -0.0041366189742629922 0.00039160090574864842 0 -0.0041071698505139699 0.00035695973481081312 0 -0.0040593410933637752 0.00037443033680582935 0 -0.0041366189742629922 0.00039160090574864842 0 -0.0041276756838134095 0.00038037474325266135 0 -0.0041071698505139699 0.00035695973481081312 0 -0.0039769555812173701 0.00035168240193192868 0 -0.0038915087871568628 0.00027110340394772908 0 -0.0041071698505139699 0.00035695973481081312 0 -0.0041288579651659902 0.00037090655551021465 0 -0.0040826937926001861 0.00027274418398901733 0 -0.0039018967923647274 0.00026971993065859167 0 -0.0037750035954745437 0.00022084467662928799 0 -0.0038202384413206151 0.00018294349704331574 0 -0.0038309456697585686 0.00034250948760604827 0 -0.0037027092967842506 0.00026763239689176263 0 -0.0037750035954745437 0.00022084467662928799 0 -0.0038309456697585686 0.00034250948760604827 0 -0.0039018967923647274 0.00026971993065859167 0 -0.0037750035954745437 0.00022084467662928799 0 -0.0037027092967842506 0.00026763239689176263 0 -0.0037750035954745437 0.00022084467662928799 0 -0.0036939714543052166 0.00020561393029843131 0 -0.0040266055299679592 0.00038239313184033766 0 -0.0039018967923647274 0.00026971993065859167 0 -0.0040416582564038678 0.00031410040558185238 0 -0.0040204552180956206 0.00037980037783606497 0 -0.0039769555812173701 0.00035168240193192868 0 -0.0040266055299679592 0.00038239313184033766 0 -0.0038309456697585686 0.00034250948760604827 0 -0.0039018967923647274 0.00026971993065859167 0 -0.0039018967923647274 0.00026971993065859167 0 -0.0039950608469630881 0.00022490794937251555 0 -0.0038202384413206151 0.00018294349704331574 0 -0.0039018967923647274 0.00026971993065859167 0 -0.0039950608469630881 0.00022490794937251555 0 -0.0040416582564038678 0.00031410040558185238 0 -0.0038116044443381007 0.00017004431800074634 0 -0.0036823774057583242 0.00016420779818617973 0 -0.0039950608469630881 0.00022490794937251555 0 -0.0040416582564038678 0.00031410040558185238 0 -0.0040828530001517389 0.00028192954556009319 0 -0.0040266055299679592 0.00038239313184033766 0 -0.0040416582564038678 0.00031410040558185238 0 -0.0040629051788425722 0.00035513156022960724 0 -0.0040416582564038678 0.00031410040558185238 0 -0.0040880653387343211 0.00032048089959057905 0 -0.0040828530001517389 0.00028192954556009319 0 -0.0040416582564038678 0.00031410040558185238 0 -0.0040880653387343211 0.00032048089959057905 0 -0.0040629051788425722 0.00035513156022960724 0 -0.0040880653387343211 0.00032048089959057905 0 -0.0040971350632118516 0.00035150705672157208 0 -0.0040629051788425722 0.00035513156022960724 0 -0.0036823774057583242 0.00016420779818617973 0 -0.0038646937418106704 0.00020546605857899006 0 -0.0033531531505306606 6.0057682144827723e-05 0 -0.0031890603269838975 7.7825232355009481e-05 0 -0.0032406193187356552 0.00013699652557543502 0 -0.0040880653387343211 0.00032048089959057905 0 -0.0040828530001517389 0.00028192954556009319 0 -0.0041220798052660178 0.00030260513016379354 0 -0.0031572280864019435 0.00014566380958438578 0 -0.0031657885212724203 8.0694537741615339e-05 0 -0.0032406193187356552 0.00013699652557543502 0 -0.0037677386289166888 0.00019804031144636286 0 -0.0038646937418106704 0.00020546605857899006 0 -0.0031657885212724203 8.0694537741615339e-05 0 -0.0031890603269838975 7.7825232355009481e-05 0 -0.0032406193187356552 0.00013699652557543502 0 -0.0031062396347623484 0.00012800971652837762 0 -0.0031657885212724203 8.0694537741615339e-05 0 -0.0031380731749765917 0.00012451847728259762 0 -0.0031062396347623484 0.00012800971652837762 0 -0.0031255254452225859 0.00015069731572491259 0 -0.0031380731749765917 0.00012451847728259762 0 -0.0031055405773399492 0.0001735309861754818 0 -0.0031062396347623484 0.00012800971652837762 0 -0.0031255254452225859 0.00015069731572491259 0 -0.0031572280864019435 0.00014566380958438578 0 -0.0031657885212724203 8.0694537741615339e-05 0 -0.0031380731749765917 0.00012451847728259762 0 -0.0031572280864019435 0.00014566380958438578 0 -0.0031255254452225859 0.00015069731572491259 0 -0.0031380731749765917 0.00012451847728259762 0 -0.0042378829721715239 0.00030808210028732244 0 -0.0043057202975226236 0.00032415276988910746 0 -0.0043023893151312989 0.00028618535456769085 0 -0.0036477138067769308 0.00018387262539515395 0 -0.0037677386289166888 0.00019804031144636286 0 -0.0042378829721715239 0.00030808210028732244 0 -0.0043023893151312989 0.00028618535456769085 0 -0.0042778530000382878 0.00026322527507075362 0 -0.003098503673618302 9.9986082927901865e-05 0 -0.0031062396347623484 0.00012800971652837762 0 -0.0031657885212724203 8.0694537741615339e-05 0 -0.0038646937418106704 0.00020546605857899006 0 -0.0042502329800526055 0.00032222623797913287 0 -0.0043057202975226236 0.00032415276988910746 0 -0.0043154708185179549 0.00032687291468226241 0 -0.0043023893151312989 0.00028618535456769085 0 -0.0043154708185179549 0.00032687291468226241 0 -0.0043023893151312989 0.00028618535456769085 0 -0.0043401172052263447 0.00026945795159724818 0 -0.0040880653387343211 0.00032048089959057905 0 -0.0041220798052660178 0.00030260513016379354 0 -0.0040971350632118516 0.00035150705672157208 0 -0.0043023893151312989 0.00028618535456769085 0 -0.0043107150810239199 0.00024551217755907099 0 -0.0043401172052263447 0.00026945795159724818 0 -0.0043023893151312989 0.00028618535456769085 0 -0.0043107150810239199 0.00024551217755907099 0 -0.0042778530000382878 0.00026322527507075362 0 -0.0043107150810239199 0.00024551217755907099 0 -0.0042778530000382878 0.00026322527507075362 0 -0.0042849393697834181 0.00020814990720681575 0 -0.0042456347716731463 0.00024509642654459813 0 -0.0042778530000382878 0.00026322527507075362 0 -0.0042849393697834181 0.00020814990720681575 0 -0.0043107150810239199 0.00024551217755907099 0 -0.0042849393697834181 0.00020814990720681575 0 -0.0043376242120023341 0.00019432314036403251 0 -0.0043107150810239199 0.00024551217755907099 0 -0.0043376242120023341 0.00019432314036403251 0 -0.0044000911029111181 0.000209249618927016 0 -0.0043107150810239199 0.00024551217755907099 0 -0.0043401172052263447 0.00026945795159724818 0 -0.0043560233527566387 0.00022511296698104363 0 -0.0043773409537133795 0.00021766719416860221 0 -0.0042265665543214743 0.00027352765712737847 0 -0.0042502329800526055 0.00032222623797913287 0 -0.0042265665543214743 0.00027352765712737847 0 -0.0040489827794597489 0.00035274327530266731 0 -0.0040674142870079357 0.00037582973329150087 0 -0.0040505092871373043 0.00037014276541736551 0 -0.0040674142870079357 0.00037582973329150087 0 -0.0040505092871373043 0.00037014276541736551 0 -0.0040629051788425722 0.00035513156022960724 0 -0.0040266055299679592 0.00038239313184033766 0 -0.0040505092871373043 0.00037014276541736551 0 -0.0040629051788425722 0.00035513156022960724 0 -0.0040971350632118516 0.00035150705672157208 0 -0.0040674142870079357 0.00037582973329150087 0 -0.0040629051788425722 0.00035513156022960724 0 -0.0036973128923792667 0.00025118097663166138 0 -0.0036806722335430957 0.00024575018020847448 0 -0.0036841950837693911 0.0002355540838731306 0 -0.0036973128923792667 0.00025118097663166138 0 -0.0036841950837693911 0.0002355540838731306 0 -0.003696578456995839 0.00023804638290217042 0 -0.0037035082968229884 0.00025119479304639336 0 -0.003696578456995839 0.00023804638290217042 0 -0.0037055998155029772 0.00024424434826903136 0 -0.0037035082968229884 0.00025119479304639336 0 -0.0036973128923792667 0.00025118097663166138 0 -0.003696578456995839 0.00023804638290217042 0 -0.0037035082968229884 0.00025119479304639336 0 -0.0037096042797300157 0.00025783148659666203 0 -0.0037025615615397063 0.00025660651116981816 0 -0.0037035082968229884 0.00025119479304639336 0 -0.0036973128923792667 0.00025118097663166138 0 -0.0037025615615397063 0.00025660651116981816 0 -0.0036973128923792667 0.00025118097663166138 0 -0.0037110834605401694 0.00025987481466318999 0 -0.0037025615615397063 0.00025660651116981816 0 -0.0036973128923792667 0.00025118097663166138 0 -0.0036890526899178346 0.00025294010827801047 0 -0.0036806722335430957 0.00024575018020847448 0 -0.0036973128923792667 0.00025118097663166138 0 -0.0036890526899178346 0.00025294010827801047 0 -0.0037110834605401694 0.00025987481466318999 0 -0.0036890526899178346 0.00025294010827801047 0 -0.0037110834605401694 0.00025987481466318999 0 -0.0036745576194108245 0.00027354509334194749 0 -0.0036890526899178346 0.00025294010827801047 0 -0.0036660925636693127 0.00025392677012910932 0 -0.0036745576194108245 0.00027354509334194749 0 -0.0036660925636693127 0.00025392677012910932 0 -0.0036545449859482736 0.00026252125466742624 0 -0.0036745576194108245 0.00027354509334194749 0 -0.0036890526899178346 0.00025294010827801047 0 -0.0036660925636693127 0.00025392677012910932 0 -0.0036806722335430957 0.00024575018020847448 0 -0.0033828400200934514 0.0002775682934842849 0 -0.0024453342000215496 0.00020428717112266301 0 -0.0027373100196040646 0.00035612245617851505 0 -0.0027880534955851593 0.00034879588283319467 0 -0.0027183184099497603 0.00030924501301717342 0 -0.0036513817509086308 0.00025812647734066289 0 -0.0036536604699194302 0.00026164615430814263 0 -0.0036389254592328231 0.00025545699040832647 0 -0.0027373100196040646 0.00035612245617851505 0 -0.0027554759490425649 0.00037455993670831226 0 -0.0027318698384918988 0.00039350889413972465 0 -0.0027373100196040646 0.00035612245617851505 0 -0.0027554759490425649 0.00037455993670831226 0 -0.0027880534955851593 0.00034879588283319467 0 -0.0027554759490425649 0.00037455993670831226 0 -0.0027880534955851593 0.00034879588283319467 0 -0.0027647408320174514 0.00039975843320353978 0 -0.0036660925636693127 0.00025392677012910932 0 -0.0036513817509086308 0.00025812647734066289 0 -0.0036545449859482736 0.00026252125466742624 0 -0.0034254894689984211 0.00030073369962843138 0 -0.0033828400200934514 0.0002775682934842849 0 -0.0036660925636693127 0.00025392677012910932 0 -0.0036513817509086308 0.00025812647734066289 0 -0.0036606998391709687 0.00023453790203348843 0 -0.0036513817509086308 0.00025812647734066289 0 -0.0036606998391709687 0.00023453790203348843 0 -0.0036389254592328231 0.00025545699040832647 0 -0.0015472140477056167 -6.2770829753214146e-05 0 -0.0015499668865401601 -7.2754182303951342e-05 0 -0.0015434237868402652 -7.0729669359081393e-05 0 -0.0026290015621145413 5.7540566127790773e-05 0 -0.0024453342000215496 0.00020428717112266301 0 -0.0036660925636693127 0.00025392677012910932 0 -0.0036806722335430957 0.00024575018020847448 0 -0.0036606998391709687 0.00023453790203348843 0 -0.0036806722335430957 0.00024575018020847448 0 -0.0036606998391709687 0.00023453790203348843 0 -0.0036841950837693911 0.0002355540838731306 0 -0.0036606998391709687 0.00023453790203348843 0 -0.0036738195573350748 0.00022709703915723328 0 -0.0036841950837693911 0.0002355540838731306 0 -0.0026290015621145413 5.7540566127790773e-05 0 -0.0026138786528082615 8.8409371900664249e-05 0 -0.0015472140477056167 -6.2770829753214146e-05 0 -0.0015623300753024184 -6.2100750142821359e-05 0 -0.0015316862897818639 -5.6461516956074363e-05 0 -0.0015623300753024184 -6.2100750142821359e-05 0 -0.0015316862897818639 -5.6461516956074363e-05 0 -0.0015451179812987215 -7.9926885368895596e-05 0 -0.0036738195573350748 0.00022709703915723328 0 -0.0036841950837693911 0.0002355540838731306 0 -0.0036909008761463555 0.00022714989595656242 0 -0.0036841950837693911 0.0002355540838731306 0 -0.003696578456995839 0.00023804638290217042 0 -0.0036909008761463555 0.00022714989595656242 0 -0.003696578456995839 0.00023804638290217042 0 -0.0036987089271611189 0.0002308162748679362 0 -0.0037055998155029772 0.00024424434826903136 0 -0.003696578456995839 0.00023804638290217042 0 -0.0036987089271611189 0.0002308162748679362 0 -0.0036909008761463555 0.00022714989595656242 0 -0.0037227122130579792 0.00023180218472757219 0 -0.0038141335011927088 0.00027274834536976128 0 -0.0037339702087896588 0.00016948115577719114 0 -0.0038141335011927088 0.00027274834536976128 0 -0.0039281012875776065 0.00019559260412085696 0 -0.0037339702087896588 0.00016948115577719114 0 -0.0038141335011927088 0.00027274834536976128 0 -0.0039381071400616374 0.00034917764801228982 0 -0.0038381166813754959 0.00035713426592629737 0 -0.0037139037688514328 0.00023002161813991091 0 -0.0037080276785592149 0.00031237414988834146 0 -0.0038141335011927088 0.00027274834536976128 0 -0.0037467274417206891 0.00036289792175703137 0 -0.0038381166813754959 0.00035713426592629737 0 -0.0037227122130579792 0.00023180218472757219 0 -0.0038141335011927088 0.00027274834536976128 0 -0.0037467274417206891 0.00036289792175703137 0 -0.0039281012875776065 0.00019559260412085696 0 -0.0040278603322960321 0.00031602178031359313 0 -0.0039381071400616374 0.00034917764801228982 0 -0.0038141335011927088 0.00027274834536976128 0 -0.0039281012875776065 0.00019559260412085696 0 -0.0039381071400616374 0.00034917764801228982 0 -0.0037027092967842506 0.00026763239689176263 0 -0.003649200520394324 0.00018875988868919202 0 -0.0036939714543052166 0.00020561393029843131 0 -0.0040826937926001861 0.00027274418398901733 0 -0.0039281012875776065 0.00019559260412085696 0 -0.0040278603322960321 0.00031602178031359313 0 -0.0038915087871568628 0.00027110340394772908 0 -0.0037922062560130465 0.00019643067699953631 0 -0.0041071698505139699 0.00035695973481081312 0 -0.0040826937926001861 0.00027274418398901733 0 -0.0040278603322960321 0.00031602178031359313 0 -0.0040278603322960321 0.00031602178031359313 0 -0.0040593410933637752 0.00037443033680582935 0 -0.0039381071400616374 0.00034917764801228982 0 -0.0041071698505139699 0.00035695973481081312 0 -0.0040278603322960321 0.00031602178031359313 0 -0.0040593410933637752 0.00037443033680582935 0 -0.0040593410933637752 0.00037443033680582935 0 -0.0039381071400616374 0.00034917764801228982 0 -0.0040038026488562984 0.00040840114581779129 0 -0.0039381071400616374 0.00034917764801228982 0 -0.0040038026488562984 0.00040840114581779129 0 -0.0039090587139542525 0.00041954285167102582 0 -0.0040038026488562984 0.00040840114581779129 0 -0.0039090587139542525 0.00041954285167102582 0 -0.0040213359611852234 0.00049060372910456626 0 -0.0039090587139542525 0.00041954285167102582 0 -0.0038824720477423119 0.0005052458698269471 0 -0.0040213359611852234 0.00049060372910456626 0 -0.0041970779886763608 0.00040614754070999082 0 -0.004091203032861734 0.00041138826481431414 0 -0.0040213359611852234 0.00049060372910456626 0 -0.0040593410933637752 0.00037443033680582935 0 -0.0040038026488562984 0.00040840114581779129 0 -0.004091203032861734 0.00041138826481431414 0 -0.0040038026488562984 0.00040840114581779129 0 -0.004091203032861734 0.00041138826481431414 0 -0.0040213359611852234 0.00049060372910456626 0 -0.0041366189742629922 0.00039160090574864842 0 -0.0040593410933637752 0.00037443033680582935 0 -0.004091203032861734 0.00041138826481431414 0 -0.0037467274417206891 0.00036289792175703137 0 -0.0038381166813754959 0.00035713426592629737 0 -0.003825635894856108 0.00042753646636131389 0 -0.0039381071400616374 0.00034917764801228982 0 -0.0038381166813754959 0.00035713426592629737 0 -0.0039090587139542525 0.00041954285167102582 0 -0.0038381166813754959 0.00035713426592629737 0 -0.003825635894856108 0.00042753646636131389 0 -0.0039090587139542525 0.00041954285167102582 0 -0.003825635894856108 0.00042753646636131389 0 -0.0037606730757928446 0.0005049914293978789 0 -0.0038824720477423119 0.0005052458698269471 0 -0.003825635894856108 0.00042753646636131389 0 -0.0039090587139542525 0.00041954285167102582 0 -0.0038824720477423119 0.0005052458698269471 0 -0.0037080276785592149 0.00031237414988834146 0 -0.0038752941130459351 0.00033654507585607229 0 -0.0037467274417206891 0.00036289792175703137 0 -0.003825635894856108 0.00042753646636131389 0 -0.0037606730757928446 0.0005049914293978789 0 -0.0037035082968229884 0.00025119479304639336 0 -0.0037055998155029772 0.00024424434826903136 0 -0.0037096042797300157 0.00025783148659666203 0 -0.0038752941130459351 0.00033654507585607229 0 -0.0040233801549136809 0.00041611568690305678 0 -0.0039846801828960828 0.00023932658066765824 0 -0.0039964129418038992 0.0003655443069064996 0 -0.0038862131314652956 0.00034206137910296436 0 -0.0038752941130459351 0.00033654507585607229 0 -0.0040090337020926882 0.00038014692855563748 0 -0.0040220341232598631 0.00030943014077872702 0 -0.0040985455653955736 0.00038012312880890962 0 -0.0040268652124678499 0.00040618168242808982 0 -0.0041576172975240962 0.00031598675941612794 0 -0.0040985455653955736 0.00038012312880890962 0 -0.0042051123763477676 0.00043485638029637459 0 -0.0040220341232598631 0.00030943014077872702 0 -0.0041576172975240962 0.00031598675941612794 0 -0.0040985455653955736 0.00038012312880890962 0 -0.0040985455653955736 0.00038012312880890962 0 -0.0040778267469718217 0.00044865536490100303 0 -0.0042051123763477676 0.00043485638029637459 0 -0.0040778267469718217 0.00044865536490100303 0 -0.0042051123763477676 0.00043485638029637459 0 -0.0040463430381029184 0.00054192334867625793 0 -0.0040778267469718217 0.00044865536490100303 0 -0.0040268652124678499 0.00040618168242808982 0 -0.0040135048031824218 0.00049548151758560131 0 -0.0039964129418038992 0.0003655443069064996 0 -0.0040135048031824218 0.00049548151758560131 0 -0.0039158324542029593 0.0004401243883128636 0 -0.0040090337020926882 0.00038014692855563748 0 -0.0040148649266479996 0.0004872583324366274 0 -0.0040985455653955736 0.00038012312880890962 0 -0.0040778267469718217 0.00044865536490100303 0 -0.0040268652124678499 0.00040618168242808982 0 -0.0041866792372742276 0.00040931560739028043 0 -0.0041493449883583597 0.00041470999825694079 0 -0.0041970779886763608 0.00040614754070999082 0 -0.0042969447337848563 0.00034447487520901002 0 -0.0042902154428077176 0.00035148428833989276 0 -0.0042922624681027942 0.00033993781948928037 0 -0.0043072434735170534 0.00035183482024792159 0 -0.0042902154428077176 0.00035148428833989276 0 -0.0042922624681027942 0.00033993781948928037 0 -0.0043072434735170534 0.00035183482024792159 0 -0.004347065637840008 0.00037980391564740621 0 -0.0041970779886763608 0.00040614754070999082 0 -0.0042922624681027942 0.00033993781948928037 0 -0.0042902154428077176 0.00035148428833989276 0 -0.0043072434735170534 0.00035183482024792159 0 -0.0042902154428077176 0.00035148428833989276 0 -0.00430865821574583 0.00036018504377070809 0 -0.0041576172975240962 0.00031598675941612794 0 -0.0042969447337848563 0.00034447487520901002 0 -0.0042051123763477676 0.00043485638029637459 0 -0.0042897224401994049 0.00035371828266612325 0 -0.0042415275672587089 0.00039405758775224359 0 -0.0042902154428077176 0.00035148428833989276 0 -0.004286540816311744 0.0003548730276117039 0 -0.00430865821574583 0.00036018504377070809 0 -0.0042969447337848563 0.00034447487520901002 0 -0.0042902154428077176 0.00035148428833989276 0 -0.0042051123763477676 0.00043485638029637459 0 -0.0040233801549136809 0.00041611568690305678 0 -0.0041493449883583597 0.00041470999825694079 0 -0.004286540816311744 0.0003548730276117039 0 -0.00430865821574583 0.00036018504377070809 0 -0.0043484036884403315 0.0004033071221526189 0 -0.00430865821574583 0.00036018504377070809 0 -0.004347065637840008 0.00037980391564740621 0 -0.0043484036884403315 0.0004033071221526189 0 -0.0044147841018536728 0.00043519168884297916 0 -0.004347065637840008 0.00037980391564740621 0 -0.0043484036884403315 0.0004033071221526189 0 -0.0043072434735170534 0.00035183482024792159 0 -0.00430865821574583 0.00036018504377070809 0 -0.004347065637840008 0.00037980391564740621 0 -0.0044147841018536728 0.00043519168884297916 0 -0.0043484036884403315 0.0004033071221526189 0 -0.0044598116463412177 0.00049662310959605171 0 -0.0043484036884403315 0.0004033071221526189 0 -0.0043122961894268832 0.0004456901626419547 0 -0.0044598116463412177 0.00049662310959605171 0 -0.004286540816311744 0.0003548730276117039 0 -0.0043122961894268832 0.0004456901626419547 0 -0.0042102014332770716 0.00046983504598853681 0 -0.004286540816311744 0.0003548730276117039 0 -0.0043484036884403315 0.0004033071221526189 0 -0.0043122961894268832 0.0004456901626419547 0 -0.0043122961894268832 0.0004456901626419547 0 -0.0042655333508158592 0.00055055272619942692 0 -0.0042102014332770716 0.00046983504598853681 0 -0.004473520206144656 0.00050371492582273873 0 -0.0044719242164467767 0.00056726024857980115 0 -0.0042655333508158592 0.00055055272619942692 0 -0.0044598116463412177 0.00049662310959605171 0 -0.0043326890970180167 0.0006804119729209785 0 -0.0043122961894268832 0.0004456901626419547 0 -0.0042655333508158592 0.00055055272619942692 0 -0.0044598116463412177 0.00049662310959605171 0 -0.0040778267469718217 0.00044865536490100303 0 -0.0040463430381029184 0.00054192334867625793 0 -0.0040135048031824218 0.00049548151758560131 0 -0.0040463430381029184 0.00054192334867625793 0 -0.0040135048031824218 0.00049548151758560131 0 -0.0039415481971893139 0.00054557759091044666 0 -0.0040135048031824218 0.00049548151758560131 0 -0.0039415481971893139 0.00054557759091044666 0 -0.0039388039871776871 0.00049661875049870235 0 -0.0042415275672587089 0.00039405758775224359 0 -0.0040760946294596465 0.00050185837801298766 0 -0.004286540816311744 0.0003548730276117039 0 -0.0041068699161607375 0.0004547257778459392 0 -0.0042102014332770716 0.00046983504598853681 0 -0.0041068699161607375 0.0004547257778459392 0 -0.0042102014332770716 0.00046983504598853681 0 -0.0041500093442528542 0.00056264415220414659 0 -0.0042655333508158592 0.00055055272619942692 0 -0.0042102014332770716 0.00046983504598853681 0 -0.0041500093442528542 0.00056264415220414659 0 -0.0042655333508158592 0.00055055272619942692 0 -0.0041500093442528542 0.00056264415220414659 0 -0.0041890467207770518 0.00067465986281608538 0 -0.0041500093442528542 0.00056264415220414659 0 -0.0041890467207770518 0.00067465986281608538 0 -0.0040904925321829004 0.00065249350052979977 0 -0.0040491423771490164 0.00060253781117021303 0 -0.003899586712565148 0.00064299543843117932 0 -0.0040165374931296219 0.00069433962822295259 0 -0.0040760946294596465 0.00050185837801298766 0 -0.0039097014686599197 0.00063530804700476316 0 -0.0041068699161607375 0.0004547257778459392 0 -0.0041500093442528542 0.00056264415220414659 0 -0.0040491423771490164 0.00060253781117021303 0 -0.0041068699161607375 0.0004547257778459392 0 -0.0040491423771490164 0.00060253781117021303 0 -0.003899586712565148 0.00064299543843117932 0 -0.0041500093442528542 0.00056264415220414659 0 -0.0040491423771490164 0.00060253781117021303 0 -0.0040904925321829004 0.00065249350052979977 0 -0.003899586712565148 0.00064299543843117932 0 -0.0038715562501504867 0.00057260603871427389 0 -0.0039415481971893139 0.00054557759091044666 0 -0.0040463430381029184 0.00054192334867625793 0 -0.003899586712565148 0.00064299543843117932 0 -0.0039415481971893139 0.00054557759091044666 0 -0.003899586712565148 0.00064299543843117932 0 -0.0038549187295188348 0.00063888777075039828 0 -0.0038715562501504867 0.00057260603871427389 0 -0.0030001707576073232 0.00072403846411156134 0 -0.0029409817289965724 0.00070609145727941697 0 -0.0029427222193427875 0.00062020400649039444 0 -0.0038549187295188348 0.00063888777075039828 0 -0.0038715562501504867 0.00057260603871427389 0 -0.003751453170586767 0.00051391821972859484 0 -0.003434966079302596 0.00068000768479813589 0 -0.00334968376325653 0.00056822836342150951 0 -0.0030001707576073232 0.00072403846411156134 0 -0.0029409817289965724 0.00070609145727941697 0 -0.0029697288605768637 0.00073932323549065785 0 -0.0038715562501504867 0.00057260603871427389 0 -0.003751453170586767 0.00051391821972859484 0 -0.0038789370980755115 0.00051479036943582232 0 -0.003751453170586767 0.00051391821972859484 0 -0.0038789370980755115 0.00051479036943582232 0 -0.0038017101967825471 0.00042353855293196291 0 -0.0039415481971893139 0.00054557759091044666 0 -0.0038789370980755115 0.00051479036943582232 0 -0.0039388039871776871 0.00049661875049870235 0 -0.0038715562501504867 0.00057260603871427389 0 -0.0039415481971893139 0.00054557759091044666 0 -0.0038789370980755115 0.00051479036943582232 0 -0.0040135048031824218 0.00049548151758560131 0 -0.0039388039871776871 0.00049661875049870235 0 -0.0039158324542029593 0.0004401243883128636 0 -0.0038789370980755115 0.00051479036943582232 0 -0.0039388039871776871 0.00049661875049870235 0 -0.0039158324542029593 0.0004401243883128636 0 -0.0039964129418038992 0.0003655443069064996 0 -0.0039158324542029593 0.0004401243883128636 0 -0.0038862131314652956 0.00034206137910296436 0 -0.0039158324542029593 0.0004401243883128636 0 -0.0038017101967825471 0.00042353855293196291 0 -0.0038862131314652956 0.00034206137910296436 0 -0.0038789370980755115 0.00051479036943582232 0 -0.0039158324542029593 0.0004401243883128636 0 -0.0038017101967825471 0.00042353855293196291 0 -0.003751453170586767 0.00051391821972859484 0 -0.0038017101967825471 0.00042353855293196291 0 -0.0036428302891770951 0.00036128460922802975 0 -0.0038017101967825471 0.00042353855293196291 0 -0.0037719157251485205 0.00033065200047808802 0 -0.0036428302891770951 0.00036128460922802975 0 -0.0038017101967825471 0.00042353855293196291 0 -0.0037719157251485205 0.00033065200047808802 0 -0.0038862131314652956 0.00034206137910296436 0 -0.0037216738260251502 0.00025644624834264714 0 -0.0037722954679468251 0.00025165504137493992 0 -0.0037719157251485205 0.00033065200047808802 0 -0.0037110834605401694 0.00025987481466318999 0 -0.0038524936219987991 0.00024212747335941061 0 -0.0037506215302158348 0.00031810678880830629 0 -0.0036974365053114287 0.000286993372177413 0 -0.0037719157251485205 0.00033065200047808802 0 -0.0037110834605401694 0.00025987481466318999 0 -0.0036745576194108245 0.00027354509334194749 0 -0.0039846801828960828 0.00023932658066765824 0 -0.0038524936219987991 0.00024212747335941061 0 -0.0038862131314652956 0.00034206137910296436 0 -0.0038752941130459351 0.00033654507585607229 0 -0.0037722954679468251 0.00025165504137493992 0 -0.0037719157251485205 0.00033065200047808802 0 -0.0038524936219987991 0.00024212747335941061 0 -0.0038862131314652956 0.00034206137910296436 0 -0.0027880534955851593 0.00034879588283319467 0 -0.0027942840597701556 0.00044233039181470178 0 -0.002871478763273413 0.00049629343294776995 0 -0.0033828400200934514 0.0002775682934842849 0 -0.0032279498480752788 0.00041688775457026446 0 -0.0027942840597701556 0.00044233039181470178 0 -0.002871478763273413 0.00049629343294776995 0 -0.0027941353740272199 0.00051205844741909919 0 -0.0027460459541911479 0.00045037357526588891 0 -0.0027334421564479293 0.00051482127660555036 0 -0.0026933028069552512 0.00046894239747591912 0 -0.0027942840597701556 0.00044233039181470178 0 -0.0027460459541911479 0.00045037357526588891 0 -0.0027941353740272199 0.00051205844741909919 0 -0.0027942840597701556 0.00044233039181470178 0 -0.0027460459541911479 0.00045037357526588891 0 -0.0027647408320174514 0.00039975843320353978 0 -0.0027460459541911479 0.00045037357526588891 0 -0.0027318698384918988 0.00039350889413972465 0 -0.002705437231274992 0.00041218108874957081 0 -0.0027460459541911479 0.00045037357526588891 0 -0.0027318698384918988 0.00039350889413972465 0 -0.0027647408320174514 0.00039975843320353978 0 -0.0027554759490425649 0.00037455993670831226 0 -0.0027318698384918988 0.00039350889413972465 0 -0.0027647408320174514 0.00039975843320353978 0 -0.0027880534955851593 0.00034879588283319467 0 -0.0027942840597701556 0.00044233039181470178 0 -0.0027647408320174514 0.00039975843320353978 0 -0.0033828400200934514 0.0002775682934842849 0 -0.0036974365053114287 0.000286993372177413 0 -0.0037719157251485205 0.00033065200047808802 0 -0.0036600789011101702 0.00026656999030151319 0 -0.0036428302891770951 0.00036128460922802975 0 -0.0035424205901973165 0.00020323515326291691 0 -0.0036600789011101702 0.00026656999030151319 0 -0.0036428302891770951 0.00036128460922802975 0 -0.00334968376325653 0.00056822836342150951 0 -0.0032279498480752788 0.00041688775457026446 0 -0.002871478763273413 0.00049629343294776995 0 -0.0028436441227768024 0.00057589753743654169 0 -0.0027941353740272199 0.00051205844741909919 0 -0.0029427222193427875 0.00062020400649039444 0 -0.002871478763273413 0.00049629343294776995 0 -0.0028436441227768024 0.00057589753743654169 0 -0.0028436441227768024 0.00057589753743654169 0 -0.0027941353740272199 0.00051205844741909919 0 -0.0027564163050030031 0.00058118737568626285 0 -0.0027460459541911479 0.00045037357526588891 0 -0.0027941353740272199 0.00051205844741909919 0 -0.0027334421564479293 0.00051482127660555036 0 -0.0027941353740272199 0.00051205844741909919 0 -0.0027334421564479293 0.00051482127660555036 0 -0.0027564163050030031 0.00058118737568626285 0 -0.0028436441227768024 0.00057589753743654169 0 -0.0027564163050030031 0.00058118737568626285 0 -0.0028457815189262725 0.00066220287879851136 0 -0.0027564163050030031 0.00058118737568626285 0 -0.0028457815189262725 0.00066220287879851136 0 -0.0027420378711048368 0.00065833810597080945 0 -0.0029427222193427875 0.00062020400649039444 0 -0.0028436441227768024 0.00057589753743654169 0 -0.0028457815189262725 0.00066220287879851136 0 -0.0029409817289965724 0.00070609145727941697 0 -0.0029427222193427875 0.00062020400649039444 0 -0.0028457815189262725 0.00066220287879851136 0 -0.0029409817289965724 0.00070609145727941697 0 -0.0028457815189262725 0.00066220287879851136 0 -0.0028845431991617798 0.00072978078017167257 0 -0.0029409817289965724 0.00070609145727941697 0 -0.0028845431991617798 0.00072978078017167257 0 -0.0029463001696416755 0.00076108641877791286 0 -0.0028457815189262725 0.00066220287879851136 0 -0.0028845431991617798 0.00072978078017167257 0 -0.0027649618846259556 0.00074735524854541938 0 -0.0028457815189262725 0.00066220287879851136 0 -0.0027649618846259556 0.00074735524854541938 0 -0.0027420378711048368 0.00065833810597080945 0 -0.0028845431991617798 0.00072978078017167257 0 -0.0027649618846259556 0.00074735524854541938 0 -0.0028880354007434755 0.00078521342408403513 0 -0.0027649618846259556 0.00074735524854541938 0 -0.0028570696869141677 0.00082064165263536306 0 -0.0028880354007434755 0.00078521342408403513 0 -0.0027649618846259556 0.00074735524854541938 0 -0.0028570696869141677 0.00082064165263536306 0 -0.0028111361602726659 0.00083097470215083233 0 -0.0028570696869141677 0.00082064165263536306 0 -0.0028624562260661469 0.00086375525940638213 0 -0.0028111361602726659 0.00083097470215083233 0 -0.0028570696869141677 0.00082064165263536306 0 -0.0028624562260661469 0.00086375525940638213 0 -0.0028946907577332027 0.00084938553743903579 0 -0.0029036058652373996 0.00082432794298678851 0 -0.0029468541317544915 0.00081151019270801934 0 -0.0029311787302261105 0.00084646157904803919 0 -0.0028570696869141677 0.00082064165263536306 0 -0.0029036058652373996 0.00082432794298678851 0 -0.0028946907577332027 0.00084938553743903579 0 -0.0029036058652373996 0.00082432794298678851 0 -0.0028946907577332027 0.00084938553743903579 0 -0.0029311787302261105 0.00084646157904803919 0 -0.0028570696869141677 0.00082064165263536306 0 -0.0029036058652373996 0.00082432794298678851 0 -0.0028880354007434755 0.00078521342408403513 0 -0.0029036058652373996 0.00082432794298678851 0 -0.0028880354007434755 0.00078521342408403513 0 -0.0029468541317544915 0.00081151019270801934 0 -0.0028880354007434755 0.00078521342408403513 0 -0.0029463001696416755 0.00076108641877791286 0 -0.0029468541317544915 0.00081151019270801934 0 -0.0028845431991617798 0.00072978078017167257 0 -0.0028880354007434755 0.00078521342408403513 0 -0.0029463001696416755 0.00076108641877791286 0 -0.0029409817289965724 0.00070609145727941697 0 -0.0029463001696416755 0.00076108641877791286 0 -0.0029697288605768637 0.00073932323549065785 0 -0.0029463001696416755 0.00076108641877791286 0 -0.0029697288605768637 0.00073932323549065785 0 -0.0029898605662680711 0.00076379063120699767 0 -0.0030001707576073232 0.00072403846411156134 0 -0.0029697288605768637 0.00073932323549065785 0 -0.0029898605662680711 0.00076379063120699767 0 -0.0029463001696416755 0.00076108641877791286 0 -0.0029898605662680711 0.00076379063120699767 0 -0.002984301726091567 0.00079279613677557407 0 -0.0029463001696416755 0.00076108641877791286 0 -0.0029468541317544915 0.00081151019270801934 0 -0.002984301726091567 0.00079279613677557407 0 -0.003434966079302596 0.00068000768479813589 0 -0.0034284847522228299 0.00082064108361148448 0 -0.003899586712565148 0.00064299543843117932 0 -0.0039666776604427917 0.00079858796033211615 0 -0.0040165374931296219 0.00069433962822295259 0 -0.0029898605662680711 0.00076379063120699767 0 -0.0030425747385944926 0.00080402161394658078 0 -0.002984301726091567 0.00079279613677557407 0 -0.0030001707576073232 0.00072403846411156134 0 -0.0029898605662680711 0.00076379063120699767 0 -0.0030425747385944926 0.00080402161394658078 0 -0.003899586712565148 0.00064299543843117932 0 -0.0038549187295188348 0.00063888777075039828 0 -0.0039666776604427917 0.00079858796033211615 0 -0.0030425747385944926 0.00080402161394658078 0 -0.002984301726091567 0.00079279613677557407 0 -0.0029910930380394225 0.00082724356780029232 0 -0.0030425747385944926 0.00080402161394658078 0 -0.003019822714423262 0.00085024277571043401 0 -0.0030774758636377317 0.00086974548440582806 0 -0.0030425747385944926 0.00080402161394658078 0 -0.0029910930380394225 0.00082724356780029232 0 -0.003019822714423262 0.00085024277571043401 0 -0.0029468541317544915 0.00081151019270801934 0 -0.002984301726091567 0.00079279613677557407 0 -0.0029910930380394225 0.00082724356780029232 0 -0.0029468541317544915 0.00081151019270801934 0 -0.0029910930380394225 0.00082724356780029232 0 -0.00296457360382374 0.00084125659585446481 0 -0.0029468541317544915 0.00081151019270801934 0 -0.00296457360382374 0.00084125659585446481 0 -0.0029311787302261105 0.00084646157904803919 0 -0.00296457360382374 0.00084125659585446481 0 -0.0029538034713368633 0.00086292152266207703 0 -0.0029872740763766947 0.00086181771357955446 0 -0.00296457360382374 0.00084125659585446481 0 -0.0029538034713368633 0.00086292152266207703 0 -0.0029311787302261105 0.00084646157904803919 0 -0.0029910930380394225 0.00082724356780029232 0 -0.00296457360382374 0.00084125659585446481 0 -0.0029872740763766947 0.00086181771357955446 0 -0.0029872740763766947 0.00086181771357955446 0 -0.002965996380283286 0.00088184024702122558 0 -0.0029976929539416099 0.00088894095341439546 0 -0.0029872740763766947 0.00086181771357955446 0 -0.0030109018499780847 0.00087472060261180188 0 -0.0029976929539416099 0.00088894095341439546 0 -0.0029538034713368633 0.00086292152266207703 0 -0.0029872740763766947 0.00086181771357955446 0 -0.002965996380283286 0.00088184024702122558 0 -0.0029538034713368633 0.00086292152266207703 0 -0.002965996380283286 0.00088184024702122558 0 -0.0029188315385350987 0.00087877053600664181 0 -0.003019822714423262 0.00085024277571043401 0 -0.0030310600977046676 0.00087711146594815091 0 -0.0030774758636377317 0.00086974548440582806 0 -0.0029910930380394225 0.00082724356780029232 0 -0.0029872740763766947 0.00086181771357955446 0 -0.003019822714423262 0.00085024277571043401 0 -0.0029872740763766947 0.00086181771357955446 0 -0.003019822714423262 0.00085024277571043401 0 -0.0030109018499780847 0.00087472060261180188 0 -0.003019822714423262 0.00085024277571043401 0 -0.0030109018499780847 0.00087472060261180188 0 -0.0030310600977046676 0.00087711146594815091 0 -0.0030109018499780847 0.00087472060261180188 0 -0.0030310600977046676 0.00087711146594815091 0 -0.0030229015514530175 0.0008924906063155838 0 -0.0030310600977046676 0.00087711146594815091 0 -0.0030229015514530175 0.0008924906063155838 0 -0.0030041155047013908 0.00089048461308764281 0 -0.0030310600977046676 0.00087711146594815091 0 -0.0030041155047013908 0.00089048461308764281 0 -0.0030774758636377317 0.00086974548440582806 0 -0.0030109018499780847 0.00087472060261180188 0 -0.0030229015514530175 0.0008924906063155838 0 -0.0029976929539416099 0.00088894095341439546 0 -0.0030229015514530175 0.0008924906063155838 0 -0.0030156029909129125 0.00089729968833527545 0 -0.0029976929539416099 0.00088894095341439546 0 -0.0030229015514530175 0.0008924906063155838 0 -0.0030041155047013908 0.00089048461308764281 0 -0.0030398325002407192 0.000908256508135317 0 -0.0030156029909129125 0.00089729968833527545 0 -0.0030398325002407192 0.000908256508135317 0 -0.0029987130042734345 0.00090397974993756351 0 -0.0030229015514530175 0.0008924906063155838 0 -0.0030156029909129125 0.00089729968833527545 0 -0.0030398325002407192 0.000908256508135317 0 -0.0050184139321633927 0.00024410955214905817 0 -0.004941546424640896 0.0002863818766047391 0 -0.0049820397285526997 0.00023019267109871316 0 -0.002965996380283286 0.00088184024702122558 0 -0.0029976929539416099 0.00088894095341439546 0 -0.0029606787251019884 0.00090367981165943769 0 -0.002965996380283286 0.00088184024702122558 0 -0.0029606787251019884 0.00090367981165943769 0 -0.0029188315385350987 0.00087877053600664181 0 -0.0029976929539416099 0.00088894095341439546 0 -0.0029987130042734345 0.00090397974993756351 0 -0.0029606787251019884 0.00090367981165943769 0 -0.0030156029909129125 0.00089729968833527545 0 -0.0029976929539416099 0.00088894095341439546 0 -0.0029987130042734345 0.00090397974993756351 0 -0.0030398325002407192 0.000908256508135317 0 -0.0029814017508080133 0.00092345583757531369 0 -0.0029987130042734345 0.00090397974993756351 0 -0.0029814017508080133 0.00092345583757531369 0 -0.0029987130042734345 0.00090397974993756351 0 -0.0029606787251019884 0.00090367981165943769 0 -0.0029814017508080133 0.00092345583757531369 0 -0.0029606787251019884 0.00090367981165943769 0 -0.0029445210469165577 0.00093303705529470984 0 -0.0029606787251019884 0.00090367981165943769 0 -0.0029187046005649288 0.00091078070407194563 0 -0.0029445210469165577 0.00093303705529470984 0 -0.0029606787251019884 0.00090367981165943769 0 -0.0029187046005649288 0.00091078070407194563 0 -0.0029188315385350987 0.00087877053600664181 0 -0.0029187046005649288 0.00091078070407194563 0 -0.0028760356853499173 0.00090130948330847764 0 -0.0029188315385350987 0.00087877053600664181 0 -0.0028760356853499173 0.00090130948330847764 0 -0.0028624562260661469 0.00086375525940638213 0 -0.0028297880142650273 0.00089870078719842873 0 -0.0028760356853499173 0.00090130948330847764 0 -0.002899460618202556 0.00093532836199693246 0 -0.0028605738764863001 0.00092698407401000705 0 -0.0029187046005649288 0.00091078070407194563 0 -0.0028760356853499173 0.00090130948330847764 0 -0.002899460618202556 0.00093532836199693246 0 -0.0028760356853499173 0.00090130948330847764 0 -0.0028624562260661469 0.00086375525940638213 0 -0.0029188315385350987 0.00087877053600664181 0 -0.0028624562260661469 0.00086375525940638213 0 -0.0028946907577332027 0.00084938553743903579 0 -0.0029188315385350987 0.00087877053600664181 0 -0.0029538034713368633 0.00086292152266207703 0 -0.0029311787302261105 0.00084646157904803919 0 -0.0029188315385350987 0.00087877053600664181 0 -0.0028946907577332027 0.00084938553743903579 0 -0.0029311787302261105 0.00084646157904803919 0 -0.0029188315385350987 0.00087877053600664181 0 -0.0045483349793510692 0.00039684565776610726 0 -0.0046049414984476855 0.00040417211716016086 0 -0.0045924799886077209 0.0003521764546715001 0 -0.0046049414984476855 0.00040417211716016086 0 -0.0046679939144120873 0.00034710773154301977 0 -0.0045924799886077209 0.0003521764546715001 0 -0.0045103153213816418 0.00045132120274826861 0 -0.0045483349793510692 0.00039684565776610726 0 -0.0046049414984476855 0.00040417211716016086 0 -0.0045103153213816418 0.00045132120274826861 0 -0.0046049414984476855 0.00040417211716016086 0 -0.0046224917169622945 0.00046063477240482323 0 -0.0045103153213816418 0.00045132120274826861 0 -0.0044598116463412177 0.00049662310959605171 0 -0.0046224917169622945 0.00046063477240482323 0 -0.0042655333508158592 0.00055055272619942692 0 -0.0043326890970180167 0.0006804119729209785 0 -0.0041890467207770518 0.00067465986281608538 0 -0.0044719242164467767 0.00056726024857980115 0 -0.0044946538257460535 0.00060437992435188317 0 -0.0046049414984476855 0.00040417211716016086 0 -0.0046224917169622945 0.00046063477240482323 0 -0.0047321544736016125 0.00040228927318019451 0 -0.0046049414984476855 0.00040417211716016086 0 -0.0047321544736016125 0.00040228927318019451 0 -0.0046679939144120873 0.00034710773154301977 0 -0.0042044652852868489 0.00083286694034010204 0 -0.0040951184999712016 0.00076905643109735676 0 -0.0040789288869882223 0.0009762851470461704 0 -0.0043326890970180167 0.0006804119729209785 0 -0.0042044652852868489 0.00083286694034010204 0 -0.0041890467207770518 0.00067465986281608538 0 -0.0042044652852868489 0.00083286694034010204 0 -0.0041890467207770518 0.00067465986281608538 0 -0.0040951184999712016 0.00076905643109735676 0 -0.0040951184999712016 0.00076905643109735676 0 -0.0040904925321829004 0.00065249350052979977 0 -0.0040165374931296219 0.00069433962822295259 0 -0.0041890467207770518 0.00067465986281608538 0 -0.0040951184999712016 0.00076905643109735676 0 -0.0040904925321829004 0.00065249350052979977 0 -0.0040491423771490164 0.00060253781117021303 0 -0.0040904925321829004 0.00065249350052979977 0 -0.0040165374931296219 0.00069433962822295259 0 -0.0039666776604427917 0.00079858796033211615 0 -0.0040951184999712016 0.00076905643109735676 0 -0.0040165374931296219 0.00069433962822295259 0 -0.0039666776604427917 0.00079858796033211615 0 -0.0040951184999712016 0.00076905643109735676 0 -0.0040789288869882223 0.0009762851470461704 0 -0.0034284847522228299 0.00082064108361148448 0 -0.0042416078359091567 0.0006448490613544111 0 -0.0039815078271289881 0.00056839362773713272 0 -0.0042416078359091567 0.0006448490613544111 0 -0.0050184139321633927 0.00024410955214905817 0 -0.004914593103096331 0.0003816278849048214 0 -0.004941546424640896 0.0002863818766047391 0 -0.004941546424640896 0.0002863818766047391 0 -0.0049370686280567049 0.00023018479427528758 0 -0.0049820397285526997 0.00023019267109871316 0 -0.004941546424640896 0.0002863818766047391 0 -0.0048689754445338795 0.00029744877411983655 0 -0.0049370686280567049 0.00023018479427528758 0 -0.004914593103096331 0.0003816278849048214 0 -0.004941546424640896 0.0002863818766047391 0 -0.0048689754445338795 0.00029744877411983655 0 -0.0042416078359091567 0.0006448490613544111 0 -0.0048257851579750028 0.00030196216940633176 0 -0.0047947489570399054 0.00027983812773253752 0 -0.0047440807343407266 0.00033268175076560163 0 -0.0047207121764006339 0.0002813932304734158 0 -0.0047947489570399054 0.00027983812773253752 0 -0.0047207121764006339 0.0002813932304734158 0 -0.004808414906906899 0.00021851145843344968 0 -0.0048257851579750028 0.00030196216940633176 0 -0.0048035406386582437 0.00022227438294251337 0 -0.004811933323483758 0.00033666921520726694 0 -0.0047947489570399054 0.00027983812773253752 0 -0.0047440807343407266 0.00033268175076560163 0 -0.0044946538257460535 0.00060437992435188317 0 -0.0042416078359091567 0.0006448490613544111 0 -0.0047321544736016125 0.00040228927318019451 0 -0.0047440807343407266 0.00033268175076560163 0 -0.0046679939144120873 0.00034710773154301977 0 -0.0047321544736016125 0.00040228927318019451 0 -0.004811933323483758 0.00033666921520726694 0 -0.0047440807343407266 0.00033268175076560163 0 -0.0047440807343407266 0.00033268175076560163 0 -0.0046679939144120873 0.00034710773154301977 0 -0.0047207121764006339 0.0002813932304734158 0 -0.0046679939144120873 0.00034710773154301977 0 -0.0047207121764006339 0.0002813932304734158 0 -0.0046309692301115413 0.00030478758857596444 0 -0.0047207121764006339 0.0002813932304734158 0 -0.0046309692301115413 0.00030478758857596444 0 -0.0046659953208743879 0.00025233031212850977 0 -0.0046085635523886994 0.00025849942622178609 0 -0.0046309692301115413 0.00030478758857596444 0 -0.0046659953208743879 0.00025233031212850977 0 -0.0045778072487193148 0.00030185502403925503 0 -0.0046309692301115413 0.00030478758857596444 0 -0.0045924799886077209 0.0003521764546715001 0 -0.0046679939144120873 0.00034710773154301977 0 -0.0046309692301115413 0.00030478758857596444 0 -0.0045924799886077209 0.0003521764546715001 0 -0.0047779121604747911 0.00013665133635089151 0 -0.0048481628894818385 5.4711045635659611e-05 0 -0.004579639818138719 0.00021483943135789012 0 -0.0046534670456458791 0.00020989126572837949 0 -0.0046996503780636616 0.00010080956267450554 0 -0.0049749038392920735 -2.288867375350571e-06 0 -0.0049890089100681958 5.7756158193273301e-05 0 -0.0049893093248723798 -9.2639111134190578e-07 0 -0.004579639818138719 0.00021483943135789012 0 -0.0046085635523886994 0.00025849942622178609 0 -0.0046534670456458791 0.00020989126572837949 0 -0.0046534670456458791 0.00020989126572837949 0 -0.004729683696398891 0.00020152742661638364 0 -0.0046996503780636616 0.00010080956267450554 0 -0.0046085635523886994 0.00025849942622178609 0 -0.0046659953208743879 0.00025233031212850977 0 -0.0046534670456458791 0.00020989126572837949 0 -0.0046659953208743879 0.00025233031212850977 0 -0.0046534670456458791 0.00020989126572837949 0 -0.004729683696398891 0.00020152742661638364 0 -0.0047207121764006339 0.0002813932304734158 0 -0.004729683696398891 0.00020152742661638364 0 -0.004808414906906899 0.00021851145843344968 0 -0.0047207121764006339 0.0002813932304734158 0 -0.0046659953208743879 0.00025233031212850977 0 -0.004729683696398891 0.00020152742661638364 0 -0.004729683696398891 0.00020152742661638364 0 -0.0046996503780636616 0.00010080956267450554 0 -0.0048697128409945986 0.00013379124329502179 0 -0.0048697128409945986 0.00013379124329502179 0 -0.0049750706763348283 6.5573348006697926e-05 0 -0.0049345963445208444 1.5338880670266362e-05 0 -0.0046996503780636616 0.00010080956267450554 0 -0.0048697128409945986 0.00013379124329502179 0 -0.0049345963445208444 1.5338880670266362e-05 0 -0.004729683696398891 0.00020152742661638364 0 -0.0048697128409945986 0.00013379124329502179 0 -0.004808414906906899 0.00021851145843344968 0 -0.0048697128409945986 0.00013379124329502179 0 -0.004889303616959351 0.00020424006586383238 0 -0.0049488553000190715 0.00015622372792285376 0 -0.0048689754445338795 0.00029744877411983655 0 -0.004808414906906899 0.00021851145843344968 0 -0.004889303616959351 0.00020424006586383238 0 -0.0048697128409945986 0.00013379124329502179 0 -0.004808414906906899 0.00021851145843344968 0 -0.004889303616959351 0.00020424006586383238 0 -0.004889303616959351 0.00020424006586383238 0 -0.0049370686280567049 0.00023018479427528758 0 -0.0049488553000190715 0.00015622372792285376 0 -0.0048689754445338795 0.00029744877411983655 0 -0.004889303616959351 0.00020424006586383238 0 -0.0049370686280567049 0.00023018479427528758 0 -0.0049370686280567049 0.00023018479427528758 0 -0.0049820397285526997 0.00023019267109871316 0 -0.0049892235352629929 0.00018611563201597164 0 -0.0049488553000190715 0.00015622372792285376 0 -0.0049892235352629929 0.00018611563201597164 0 -0.0050046026781923429 0.00013219437422056272 0 -0.0049370686280567049 0.00023018479427528758 0 -0.0049488553000190715 0.00015622372792285376 0 -0.0049892235352629929 0.00018611563201597164 0 -0.0048697128409945986 0.00013379124329502179 0 -0.0049488553000190715 0.00015622372792285376 0 -0.0049750706763348283 6.5573348006697926e-05 0 -0.0049488553000190715 0.00015622372792285376 0 -0.0049750706763348283 6.5573348006697926e-05 0 -0.0050046026781923429 0.00013219437422056272 0 -0.0049750706763348283 6.5573348006697926e-05 0 -0.0049771046147638644 1.7106108897182482e-05 0 -0.0049345963445208444 1.5338880670266362e-05 0 -0.0049750706763348283 6.5573348006697926e-05 0 -0.0049771046147638644 1.7106108897182482e-05 0 -0.0050013771126763496 1.2543589631096149e-05 0 -0.0049771046147638644 1.7106108897182482e-05 0 -0.0049999229077781326 -1.3147466910586837e-08 0 -0.0050013771126763496 1.2543589631096149e-05 0 -0.0049999229077781326 -1.3147466910586837e-08 0 -0.0049345963445208444 1.5338880670266362e-05 0 -0.0049999710164961644 2.8921672405507905e-08 0 -0.0049771046147638644 1.7106108897182482e-05 0 -0.0049999229077781326 -1.3147466910586837e-08 0 -0.0049345963445208444 1.5338880670266362e-05 0 -0.0049893093248723798 -9.2639111134190578e-07 0 -0.0049345963445208444 1.5338880670266362e-05 0 -0.0049903080423462174 1.7367670365800889e-06 0 -0.0048481628894818385 5.4711045635659611e-05 0 -0.0049249111090684805 1.6245363375992065e-05 0 -0.0049345963445208444 1.5338880670266362e-05 0 -0.0049999710164961644 2.8921672405507905e-08 0 -0.0049903080423462174 1.7367670365800889e-06 0 -0.004999972789292993 -1.349643897727461e-08 0 -0.0049999710164961644 2.8921672405507905e-08 0 -0.0049903080423462174 1.7367670365800889e-06 0 -0.0049749038392920735 -2.288867375350571e-06 0 -0.0049893093248723798 -9.2639111134190578e-07 0 -0.0049903080423462174 1.7367670365800889e-06 0 -0.0035932373599997379 0.0004185359930352024 0 -0.0033046474634186394 0.00052303395562166709 0 -0.0036674890883957455 0.00010941128396301352 0 -0.0041537250014577216 0.00032585410633697025 0 -0.0046477466270100536 0.00015171861218857814 0 -0.0029229136033102981 0.00098050393616757876 0 -0.0029018123377261645 0.00096240674620887666 0 -0.0029250343527948324 0.00095605351110410088 0 -0.0029229136033102981 0.00098050393616757876 0 -0.0029250343527948324 0.00095605351110410088 0 -0.0029625076465085842 0.00096127336531901843 0 -0.0031726016643553669 0.00076923387400963889 0 -0.0031518312751721788 0.00080540757259328589 0 -0.0029229136033102981 0.00098050393616757876 0 -0.0028921534673459711 0.00098050448261302993 0 -0.0029018123377261645 0.00096240674620887666 0 -0.0028921534673459711 0.00098050448261302993 0 -0.0029018123377261645 0.00096240674620887666 0 -0.0028732821400842411 0.00095330017230696635 0 -0.0029018123377261645 0.00096240674620887666 0 -0.0028732821400842411 0.00095330017230696635 0 -0.002899460618202556 0.00093532836199693246 0 -0.0028732821400842411 0.00095330017230696635 0 -0.002899460618202556 0.00093532836199693246 0 -0.0028605738764863001 0.00092698407401000705 0 -0.002899460618202556 0.00093532836199693246 0 -0.0029250343527948324 0.00095605351110410088 0 -0.0029445210469165577 0.00093303705529470984 0 -0.0029187046005649288 0.00091078070407194563 0 -0.002899460618202556 0.00093532836199693246 0 -0.0029445210469165577 0.00093303705529470984 0 -0.0029018123377261645 0.00096240674620887666 0 -0.002899460618202556 0.00093532836199693246 0 -0.0029250343527948324 0.00095605351110410088 0 -0.0029250343527948324 0.00095605351110410088 0 -0.0029445210469165577 0.00093303705529470984 0 -0.0029625076465085842 0.00096127336531901843 0 -0.0050296778356015582 0.00015582384404896346 0 -0.0050221424539966817 0.00018858000678116218 0 -0.0050740338229344597 0.00012642269707904285 0 -0.0029814017508080133 0.00092345583757531369 0 -0.0029445210469165577 0.00093303705529470984 0 -0.0029625076465085842 0.00096127336531901843 0 -0.0030041155047013908 0.00089048461308764281 0 -0.003306176159615472 0.00068673280051719096 0 -0.0033046474634186394 0.00052303395562166709 0 -0.0039815078271289881 0.00056839362773713272 0 -0.0041537250014577216 0.00032585410633697025 0 -0.0030398325002407192 0.000908256508135317 0 -0.0029814017508080133 0.00092345583757531369 0 -0.0029625076465085842 0.00096127336531901843 0 -0.0030453551741473983 0.00090614660048207111 0 -0.0031518312751721788 0.00080540757259328589 0 -0.0030041155047013908 0.00089048461308764281 0 -0.0030398325002407192 0.000908256508135317 0 -0.003306176159615472 0.00068673280051719096 0 -0.0050184139321633927 0.00024410955214905817 0 -0.0050221424539966817 0.00018858000678116218 0 -0.0050740338229344597 0.00012642269707904285 0 -0.0049820397285526997 0.00023019267109871316 0 -0.0050221424539966817 0.00018858000678116218 0 -0.0049892235352629929 0.00018611563201597164 0 -0.0050184139321633927 0.00024410955214905817 0 -0.0049820397285526997 0.00023019267109871316 0 -0.0050221424539966817 0.00018858000678116218 0 -0.0050296778356015582 0.00015582384404896346 0 -0.0049892235352629929 0.00018611563201597164 0 -0.0050046026781923429 0.00013219437422056272 0 -0.0050296778356015582 0.00015582384404896346 0 -0.0050221424539966817 0.00018858000678116218 0 -0.0049892235352629929 0.00018611563201597164 0 -0.0049750706763348283 6.5573348006697926e-05 0 -0.0050046026781923429 0.00013219437422056272 0 -0.0050313384084606913 9.9344270206308245e-05 0 -0.0050046026781923429 0.00013219437422056272 0 -0.0050313384084606913 9.9344270206308245e-05 0 -0.0050480743558164662 0.00012516929486809913 0 -0.0050296778356015582 0.00015582384404896346 0 -0.0050046026781923429 0.00013219437422056272 0 -0.0050480743558164662 0.00012516929486809913 0 -0.0050313384084606913 9.9344270206308245e-05 0 -0.0050480743558164662 0.00012516929486809913 0 -0.0050652544896461951 6.8262470272990517e-05 0 -0.0050740338229344597 0.00012642269707904285 0 -0.0050480743558164662 0.00012516929486809913 0 -0.0050652544896461951 6.8262470272990517e-05 0 -0.0035932373599997379 0.0004185359930352024 0 -0.003306176159615472 0.00068673280051719096 0 -0.0033046474634186394 0.00052303395562166709 0 -0.0050296778356015582 0.00015582384404896346 0 -0.0050740338229344597 0.00012642269707904285 0 -0.0050480743558164662 0.00012516929486809913 0 -0.0050357330422237372 9.7599185506400726e-05 0 -0.0050736542678230558 3.1678232460837598e-05 0 -0.0050736542678230558 3.1678232460837598e-05 0 -0.0049967029924641504 1.0127221336619304e-05 0 -0.0050313384084606913 9.9344270206308245e-05 0 -0.0050993185664077499 2.1463468756967759e-05 0 -0.0050013771126763496 1.2543589631096149e-05 0 -0.0049750706763348283 6.5573348006697926e-05 0 -0.0050313384084606913 9.9344270206308245e-05 0 -0.0050013771126763496 1.2543589631096149e-05 0 -0.0050027758901636972 6.2446422125843398e-06 0 -0.0050013771126763496 1.2543589631096149e-05 0 -0.0050000281181769406 1.5983215605056215e-08 0 -0.0049999229077781326 -1.3147466910586837e-08 0 -0.0050013771126763496 1.2543589631096149e-05 0 -0.0050000281181769406 1.5983215605056215e-08 0 -0.0050027758901636972 6.2446422125843398e-06 0 -0.0050000281181769406 1.5983215605056215e-08 0 -0.0049999933516676337 -5.1430893622812288e-09 0 -0.0050736542678230558 3.1678232460837598e-05 0 -0.0049999440311539484 1.3814288461284321e-08 0 -0.0049932424884226246 3.2469959861161033e-06 0 -0.0049999898083681951 -8.7644003030920927e-10 0 -0.004996615972545069 1.7333329911836161e-06 0 -0.0049999898083681951 -8.7644003030920927e-10 0 -0.004996615972545069 1.7333329911836161e-06 0 -0.0049999956578281445 5.5820018532727282e-09 0 -0.004996615972545069 1.7333329911836161e-06 0 -0.0049927499439977718 2.3770709194011024e-06 0 -0.0049999956578281445 5.5820018532727282e-09 0 -0.004996615972545069 1.7333329911836161e-06 0 -0.0049949305524371749 2.2519030142237409e-06 0 -0.0049927499439977718 2.3770709194011024e-06 0 -0.0050740338229344597 0.00012642269707904285 0 -0.0050652544896461951 6.8262470272990517e-05 0 -0.0051024531347064759 7.4738577936360297e-05 0 -0.0050736542678230558 3.1678232460837598e-05 0 -0.0046477466270100536 0.00015171861218857814 0 -0.0049932424884226246 3.2469959861161033e-06 0 -0.004996615972545069 1.7333329911836161e-06 0 -0.0049949305524371749 2.2519030142237409e-06 0 -0.0035932373599997379 0.0004185359930352024 0 -0.0036674890883957455 0.00010941128396301352 0 -0.003882125552411918 0.00012875246065910108 0 -0.0046477466270100536 0.00015171861218857814 0 -0.004899958028530947 -3.7132071599029429e-05 0 -0.0029229136033102981 0.00098050393616757876 0 -0.0028921534673459711 0.00098050448261302993 0 -0.0029020657589940387 0.00099941328985163661 0 -0.0028921534673459711 0.00098050448261302993 0 -0.0029020657589940387 0.00099941328985163661 0 -0.002890565865241852 0.00099896993454827855 0 -0.0031726016643553669 0.00076923387400963889 0 -0.0039603864043805869 0.00032472705543367487 0 -0.0049888351926097524 4.7533064252457715e-06 0 -0.0049891520109501585 3.3711682141168771e-06 0 -0.0049927499439977718 2.3770709194011024e-06 0 -0.0049891520109501585 3.3711682141168771e-06 0 -0.0049888563898261911 3.3148625418041106e-06 0 -0.0049927499439977718 2.3770709194011024e-06 0 -0.0046477466270100536 0.00015171861218857814 0 -0.0039603864043805869 0.00032472705543367487 0 -0.0039603864043805869 0.00032472705543367487 0 -0.0046868198210093396 4.2227130227829457e-05 0 -0.0039603864043805869 0.00032472705543367487 0 -0.0044316840614653605 0.0001580893866945103 0 -0.0044316840614653605 0.0001580893866945103 0 -0.0046868198210093396 4.2227130227829457e-05 0 -0.0043721098214106 0.0002006539445886285 0 -0.0044461599663381908 0.00020639182355253809 0 -0.0044143379299215425 0.0001574749781705202 0 -0.0049940430357487686 4.29067387898485e-06 0 -0.004999998069686251 4.1335846267492863e-09 0 -0.0049934557275611146 6.5941041479684907e-06 0 -0.0046868198210093396 4.2227130227829457e-05 0 -0.005000130768157294 9.7806110349255372e-08 0 -0.0049888563898261911 3.3148625418041106e-06 0 -0.0049927499439977718 2.3770709194011024e-06 0 -0.0049999956578281445 5.5820018532727282e-09 0 -0.0049906314989218012 4.4889949072804644e-06 0 -0.0049934557275611146 6.5941041479684907e-06 0 -0.0049798557230041167 1.5570014076028329e-05 0 -0.004999998069686251 4.1335846267492863e-09 0 -0.004999963853756317 1.351794618048272e-08 0 -0.0049934557275611146 6.5941041479684907e-06 0 -0.004999963853756317 1.351794618048272e-08 0 -0.0049934557275611146 6.5941041479684907e-06 0 -0.0049798557230041167 1.5570014076028329e-05 0 -0.0046868198210093396 4.2227130227829457e-05 0 -0.0049830115229300958 -6.2879276734837945e-05 0 -0.0049798557230041167 1.5570014076028329e-05 0 -0.0049596250054634531 3.2232250794317258e-05 0 -0.0049999387818938975 3.4288985905243283e-08 0 -0.004999963853756317 1.351794618048272e-08 0 -0.0049798557230041167 1.5570014076028329e-05 0 -0.0049999387818938975 3.4288985905243283e-08 0 -0.0044316840614653605 0.0001580893866945103 0 -0.0051731056657029059 6.3376510517809759e-07 0 -0.0048787594779858218 2.1435332124314362e-05 0 -0.0049596250054634531 3.2232250794317258e-05 0 -0.0049063160055965692 5.7378565042172778e-05 0 -0.0049906314989218012 4.4889949072804644e-06 0 -0.0049798557230041167 1.5570014076028329e-05 0 -0.0049596250054634531 3.2232250794317258e-05 0 -0.0049906314989218012 4.4889949072804644e-06 0 -0.0049909816018854445 5.1417942272422522e-06 0 -0.0049934557275611146 6.5941041479684907e-06 0 -0.0044316840614653605 0.0001580893866945103 0 -0.0038970507045097548 0.00051758499286200254 0 -0.0028921534673459711 0.00098050448261302993 0 -0.002890565865241852 0.00099896993454827855 0 -0.0028654795345873815 0.0009781974355274844 0 -0.0028732821400842411 0.00095330017230696635 0 -0.0028654795345873815 0.0009781974355274844 0 -0.0028399236218925564 0.00095266209867495119 0 -0.0028921534673459711 0.00098050448261302993 0 -0.0028732821400842411 0.00095330017230696635 0 -0.0028654795345873815 0.0009781974355274844 0 -0.0038970507045097548 0.00051758499286200254 0 -0.0035581481215292165 0.0006588524229636754 0 -0.0049063160055965692 5.7378565042172778e-05 0 -0.0049283108264866031 7.1691988614106853e-05 0 -0.004926715712044105 7.6036252330315376e-05 0 -0.0049596250054634531 3.2232250794317258e-05 0 -0.0049063160055965692 5.7378565042172778e-05 0 -0.0049463029822978859 5.9496344432802383e-05 0 -0.0049063160055965692 5.7378565042172778e-05 0 -0.0049463029822978859 5.9496344432802383e-05 0 -0.0049283108264866031 7.1691988614106853e-05 0 -0.0049463029822978859 5.9496344432802383e-05 0 -0.0049283108264866031 7.1691988614106853e-05 0 -0.0049359303719561766 6.6033204184924417e-05 0 -0.0049298156350182148 7.1636733960861289e-05 0 -0.0049359303719561766 6.6033204184924417e-05 0 -0.004936000282138091 3.8164209903076219e-05 0 -0.0035581481215292165 0.0006588524229636754 0 -0.0038274169293498624 0.00046050482395349152 0 -0.0036638747852204491 0.00050045341619271353 0 -0.0035581481215292165 0.0006588524229636754 0 -0.0049283108264866031 7.1691988614106853e-05 0 -0.0049298156350182148 7.1636733960861289e-05 0 -0.0049359303719561766 6.6033204184924417e-05 0 -0.0035581481215292165 0.0006588524229636754 0 -0.002652360003721261 0.00099233854478282166 0 -0.0028732821400842411 0.00095330017230696635 0 -0.0028399236218925564 0.00095266209867495119 0 -0.0028605738764863001 0.00092698407401000705 0 -0.0028399236218925564 0.00095266209867495119 0 -0.0028605738764863001 0.00092698407401000705 0 -0.0028297880142650273 0.00089870078719842873 0 -0.0048972756051325417 6.102832577805148e-05 0 -0.0049245953121684017 7.350084392733902e-05 0 -0.004861266700572275 0.00010528254167874979 0 -0.0048972756051325417 6.102832577805148e-05 0 -0.0049359303719561766 6.6033204184924417e-05 0 -0.0049245953121684017 7.350084392733902e-05 0 -0.0048972756051325417 6.102832577805148e-05 0 -0.0049359303719561766 6.6033204184924417e-05 0 -0.004936000282138091 3.8164209903076219e-05 0 -0.0049463029822978859 5.9496344432802383e-05 0 -0.0049359303719561766 6.6033204184924417e-05 0 -0.0049245953121684017 7.350084392733902e-05 0 -0.0049463029822978859 5.9496344432802383e-05 0 -0.0049245953121684017 7.350084392733902e-05 0 -0.0049547051027478547 5.0422148089508741e-05 0 -0.0049245953121684017 7.350084392733902e-05 0 -0.0049547051027478547 5.0422148089508741e-05 0 -0.0049162201877027663 8.4799566940783313e-05 0 -0.0049547051027478547 5.0422148089508741e-05 0 -0.0049656300880596034 3.6261011482296231e-05 0 -0.0049162201877027663 8.4799566940783313e-05 0 -0.0049596250054634531 3.2232250794317258e-05 0 -0.0049547051027478547 5.0422148089508741e-05 0 -0.0049999387818938975 3.4288985905243283e-08 0 -0.0049596250054634531 3.2232250794317258e-05 0 -0.0049463029822978859 5.9496344432802383e-05 0 -0.0049547051027478547 5.0422148089508741e-05 0 -0.0049999387818938975 3.4288985905243283e-08 0 -0.0049656300880596034 3.6261011482296231e-05 0 -0.0049999030089948639 5.5271818062614722e-08 0 -0.0049547051027478547 5.0422148089508741e-05 0 -0.0049999387818938975 3.4288985905243283e-08 0 -0.0049656300880596034 3.6261011482296231e-05 0 -0.0049656300880596034 3.6261011482296231e-05 0 -0.0049999030089948639 5.5271818062614722e-08 0 -0.0049389098065436565 5.5287597579521492e-05 0 -0.0049999030089948639 5.5271818062614722e-08 0 -0.0049389098065436565 5.5287597579521492e-05 0 -0.0049999059658728095 2.0469155228065374e-08 0 -0.0049389098065436565 5.5287597579521492e-05 0 -0.004949073992838165 6.4925957506109468e-05 0 -0.0048483863680414928 0.00015852937841010284 0 -0.0049389098065436565 5.5287597579521492e-05 0 -0.0049162201877027663 8.4799566940783313e-05 0 -0.0048483863680414928 0.00015852937841010284 0 -0.0049656300880596034 3.6261011482296231e-05 0 -0.0049389098065436565 5.5287597579521492e-05 0 -0.0049162201877027663 8.4799566940783313e-05 0 -0.0049999059658728095 2.0469155228065374e-08 0 -0.0049936329894057574 5.5050934482283143e-05 0 -0.0050001215730873863 3.0859200025432114e-08 0 -0.0049999059658728095 2.0469155228065374e-08 0 -0.004949073992838165 6.4925957506109468e-05 0 -0.0049936329894057574 5.5050934482283143e-05 0 -0.0049389098065436565 5.5287597579521492e-05 0 -0.0049999059658728095 2.0469155228065374e-08 0 -0.004949073992838165 6.4925957506109468e-05 0 -0.004949073992838165 6.4925957506109468e-05 0 -0.0049936329894057574 5.5050934482283143e-05 0 -0.0049714273776234911 0.00015106854684183505 0 -0.0047548276607429808 0.00020080898156357916 0 -0.0046563571309032638 0.00021753498001917871 0 -0.0049936329894057574 5.5050934482283143e-05 0 -0.0049714273776234911 0.00015106854684183505 0 -0.0050124086094655036 0.00010986090781411038 0 -0.0049714273776234911 0.00015106854684183505 0 -0.0050124086094655036 0.00010986090781411038 0 -0.0050241162787438209 0.00015128827811528242 0 -0.0045580253569897514 0.00026944794466341718 0 -0.0048483863680414928 0.00015852937841010284 0 -0.0047345672195761666 0.00012879711052752064 0 -0.0047548276607429808 0.00020080898156357916 0 -0.0048217024669306822 0.00017140033610748212 0 -0.004949073992838165 6.4925957506109468e-05 0 -0.0049714273776234911 0.00015106854684183505 0 -0.0048483863680414928 0.00015852937841010284 0 -0.0045580253569897514 0.00026944794466341718 0 -0.0045134776252061222 0.00013285006372309549 0 -0.0047345672195761666 0.00012879711052752064 0 -0.0045134776252061222 0.00013285006372309549 0 -0.0043543822492990618 0.0001016184227144346 0 -0.004291901085985904 0.00028265034436563904 0 -0.0045580253569897514 0.00026944794466341718 0 -0.0045134776252061222 0.00013285006372309549 0 -0.004291901085985904 0.00028265034436563904 0 -0.0049245953121684017 7.350084392733902e-05 0 -0.0049162201877027663 8.4799566940783313e-05 0 -0.004861266700572275 0.00010528254167874979 0 -0.0049162201877027663 8.4799566940783313e-05 0 -0.0048483863680414928 0.00015852937841010284 0 -0.004861266700572275 0.00010528254167874979 0 -0.0048483863680414928 0.00015852937841010284 0 -0.0047345672195761666 0.00012879711052752064 0 -0.004861266700572275 0.00010528254167874979 0 -0.0047345672195761666 0.00012879711052752064 0 -0.004861266700572275 0.00010528254167874979 0 -0.0048065611922984558 5.9909492748262913e-05 0 -0.0048972756051325417 6.102832577805148e-05 0 -0.004861266700572275 0.00010528254167874979 0 -0.0048065611922984558 5.9909492748262913e-05 0 -0.0048065611922984558 5.9909492748262913e-05 0 -0.0047521760042170723 -1.4887776766476319e-05 0 -0.0048569969888992521 -2.5620457952132753e-06 0 -0.0048972756051325417 6.102832577805148e-05 0 -0.0048065611922984558 5.9909492748262913e-05 0 -0.0048569969888992521 -2.5620457952132753e-06 0 -0.0047345672195761666 0.00012879711052752064 0 -0.0048065611922984558 5.9909492748262913e-05 0 -0.0046549692955810277 4.8440007872296568e-05 0 -0.0048065611922984558 5.9909492748262913e-05 0 -0.0047521760042170723 -1.4887776766476319e-05 0 -0.0046549692955810277 4.8440007872296568e-05 0 -0.0047521760042170723 -1.4887776766476319e-05 0 -0.0046000469097728855 -4.389062177099419e-05 0 -0.0046852211538440953 -0.00010859557719281585 0 -0.0047521760042170723 -1.4887776766476319e-05 0 -0.0047882037263764351 -0.00015617882905591786 0 -0.0046852211538440953 -0.00010859557719281585 0 -0.0047521760042170723 -1.4887776766476319e-05 0 -0.0046549692955810277 4.8440007872296568e-05 0 -0.0046000469097728855 -4.389062177099419e-05 0 -0.0047521760042170723 -1.4887776766476319e-05 0 -0.0048569969888992521 -2.5620457952132753e-06 0 -0.0047882037263764351 -0.00015617882905591786 0 -0.0048399141523090706 -1.5603886923196256e-05 0 -0.0048479820305399254 -0.00010860874613067309 0 -0.0045134776252061222 0.00013285006372309549 0 -0.0043543822492990618 0.0001016184227144346 0 -0.0044762648532991542 2.3903274828786554e-05 0 -0.0043543822492990618 0.0001016184227144346 0 -0.0044762648532991542 2.3903274828786554e-05 0 -0.0043041105599396475 5.6753598482364763e-06 0 -0.0045134776252061222 0.00013285006372309549 0 -0.0044762648532991542 2.3903274828786554e-05 0 -0.0046549692955810277 4.8440007872296568e-05 0 -0.0045134776252061222 0.00013285006372309549 0 -0.0047345672195761666 0.00012879711052752064 0 -0.0046549692955810277 4.8440007872296568e-05 0 -0.0044762648532991542 2.3903274828786554e-05 0 -0.0046000469097728855 -4.389062177099419e-05 0 -0.0044291525483359795 -8.8455810329430407e-05 0 -0.0044762648532991542 2.3903274828786554e-05 0 -0.0046549692955810277 4.8440007872296568e-05 0 -0.0046000469097728855 -4.389062177099419e-05 0 -0.0044762648532991542 2.3903274828786554e-05 0 -0.0043041105599396475 5.6753598482364763e-06 0 -0.0044291525483359795 -8.8455810329430407e-05 0 -0.0043041105599396475 5.6753598482364763e-06 0 -0.0042812718038046198 -8.7152170399773076e-05 0 -0.0044291525483359795 -8.8455810329430407e-05 0 -0.0043337478406440247 -0.00015465889674098757 0 -0.0044291525483359795 -8.8455810329430407e-05 0 -0.0044589294837221877 -0.00022605443506165933 0 -0.0043337478406440247 -0.00015465889674098757 0 -0.004302636969220011 -0.00024686260635989186 0 -0.0041714033600272777 -0.00014780881375181808 0 -0.0043337478406440247 -0.00015465889674098757 0 -0.0042812718038046198 -8.7152170399773076e-05 0 -0.0044291525483359795 -8.8455810329430407e-05 0 -0.0046000469097728855 -4.389062177099419e-05 0 -0.0044291525483359795 -8.8455810329430407e-05 0 -0.0045757436734465175 -0.00016718508099988966 0 -0.0044291525483359795 -8.8455810329430407e-05 0 -0.0045757436734465175 -0.00016718508099988966 0 -0.0044589294837221877 -0.00022605443506165933 0 -0.0046000469097728855 -4.389062177099419e-05 0 -0.0045757436734465175 -0.00016718508099988966 0 -0.0046852211538440953 -0.00010859557719281585 0 -0.0045757436734465175 -0.00016718508099988966 0 -0.0045345584671738553 -0.00027244914753693056 0 -0.0044589294837221877 -0.00022605443506165933 0 -0.0045345584671738553 -0.00027244914753693056 0 -0.0044404899125931423 -0.00036241523816133331 0 -0.0046571821094543598 -0.00033245845398728363 0 -0.0040378453474003559 -0.00020808219449067772 0 -0.0042208106208677125 -6.1475812519492216e-05 0 -0.0045757436734465175 -0.00016718508099988966 0 -0.0045345584671738553 -0.00027244914753693056 0 -0.0046571821094543598 -0.00033245845398728363 0 -0.0043932727372116157 -0.00025505584578723763 0 -0.0040378453474003559 -0.00020808219449067772 0 -0.0045345584671738553 -0.00027244914753693056 0 -0.0044589294837221877 -0.00022605443506165933 0 -0.0044404899125931423 -0.00036241523816133331 0 -0.0044164649143135695 -0.00036088537132750685 0 -0.004302636969220011 -0.00024686260635989186 0 -0.0041130980859769781 -0.00033724199324770582 0 -0.0044589294837221877 -0.00022605443506165933 0 -0.0044164649143135695 -0.00036088537132750685 0 -0.004302636969220011 -0.00024686260635989186 0 -0.0043337478406440247 -0.00015465889674098757 0 -0.0044589294837221877 -0.00022605443506165933 0 -0.004302636969220011 -0.00024686260635989186 0 -0.0045757436734465175 -0.00016718508099988966 0 -0.0046852211538440953 -0.00010859557719281585 0 -0.0046740628543273698 -0.00022826411284750122 0 -0.0047882037263764351 -0.00015617882905591786 0 -0.0046852211538440953 -0.00010859557719281585 0 -0.0046740628543273698 -0.00022826411284750122 0 -0.0047882037263764351 -0.00015617882905591786 0 -0.0046809199091966775 -0.00033886074853597427 0 -0.0046740628543273698 -0.00022826411284750122 0 -0.0045757436734465175 -0.00016718508099988966 0 -0.0046809199091966775 -0.00033886074853597427 0 -0.0046740628543273698 -0.00022826411284750122 0 -0.0048479820305399254 -0.00010860874613067309 0 -0.0042208106208677125 -6.1475812519492216e-05 0 -0.0047034579073869758 -0.00031688295522279284 0 -0.0042208106208677125 -6.1475812519492216e-05 0 -0.0042208106208677125 -6.1475812519492216e-05 0 -0.0036636390850814304 0.00047872396272097495 0 -0.0048033032789909259 -5.4399124649849557e-05 0 -0.0047500019646033748 -0.00012040088691379229 0 -0.0048335586159245682 -0.00010941432057739055 0 -0.002406861766954147 0.00075090524045869772 0 -0.0025182474173642126 0.00085827154112549377 0 -0.0024952570249202337 0.00078788844573278157 0 -0.002548064936598773 0.00083440275246982434 0 -0.002605681239704674 0.0008782189353903696 0 -0.0027184767754033072 0.00088877986751808257 0 -0.0027141747827840192 0.00089482558714324616 0 -0.0026926425292973944 0.00091165163728003655 0 -0.0027169719260261281 0.00089325262625076303 0 -0.0027141747827840192 0.00089482558714324616 0 -0.0026907815036797916 0.00091112718186391343 0 -0.0027107239497124419 0.00089806934785980838 0 -0.0027184767754033072 0.00088877986751808257 0 -0.0027141747827840192 0.00089482558714324616 0 -0.0036636390850814304 0.00047872396272097495 0 -0.0033540609225743076 0.00049729357822704708 0 -0.002406861766954147 0.00075090524045869772 0 -0.0024655271670376497 0.0007498763549482493 0 -0.0024952570249202337 0.00078788844573278157 0 -0.0048033032789909259 -5.4399124649849557e-05 0 -0.0048335586159245682 -0.00010941432057739055 0 -0.0048912862419557843 -3.5314869671768805e-05 0 -0.0036636390850814304 0.00047872396272097495 0 -0.0038013805090544874 0.00043019806954928578 0 -0.0027141747827840192 0.00089482558714324616 0 -0.0026907815036797916 0.00091112718186391343 0 -0.0026926425292973944 0.00091165163728003655 0 -0.002605681239704674 0.0008782189353903696 0 -0.0026408408686539207 0.00091503203418936356 0 -0.0026907815036797916 0.00091112718186391343 0 -0.0026926425292973944 0.00091165163728003655 0 -0.0026486702463651363 0.00091954256592260541 0 -0.0025182474173642126 0.00085827154112549377 0 -0.0026113248190460276 0.00086862434061604527 0 -0.0026486702463651363 0.00091954256592260541 0 -0.0025182474173642126 0.00085827154112549377 0 -0.0025661338123771455 0.00081107827016016129 0 -0.0026113248190460276 0.00086862434061604527 0 -0.0025182474173642126 0.00085827154112549377 0 -0.0025661338123771455 0.00081107827016016129 0 -0.0024952570249202337 0.00078788844573278157 0 -0.0024655271670376497 0.0007498763549482493 0 -0.0024952570249202337 0.00078788844573278157 0 -0.0025184670594990454 0.00075869181235531217 0 -0.0025661338123771455 0.00081107827016016129 0 -0.0024952570249202337 0.00078788844573278157 0 -0.0025184670594990454 0.00075869181235531217 0 -0.0025661338123771455 0.00081107827016016129 0 -0.0025184670594990454 0.00075869181235531217 0 -0.002598139313687642 0.00074871107310697121 0 -0.0025661338123771455 0.00081107827016016129 0 -0.002598139313687642 0.00074871107310697121 0 -0.002647186767999824 0.0008353391739972586 0 -0.0027640620274342431 0.00075933070419716294 0 -0.0027742689430205357 0.00082717990883958534 0 -0.0027649618846259556 0.00074735524854541938 0 -0.0027095518744602912 0.0008775471313740038 0 -0.002647186767999824 0.0008353391739972586 0 -0.0027649618846259556 0.00074735524854541938 0 -0.002598139313687642 0.00074871107310697121 0 -0.002647186767999824 0.0008353391739972586 0 -0.0027095518744602912 0.0008775471313740038 0 -0.002647186767999824 0.0008353391739972586 0 -0.002661873821978107 0.00089468257138909343 0 -0.0025661338123771455 0.00081107827016016129 0 -0.002647186767999824 0.0008353391739972586 0 -0.0026113248190460276 0.00086862434061604527 0 -0.002647186767999824 0.0008353391739972586 0 -0.0026113248190460276 0.00086862434061604527 0 -0.002661873821978107 0.00089468257138909343 0 -0.0026113248190460276 0.00086862434061604527 0 -0.0026486702463651363 0.00091954256592260541 0 -0.002661873821978107 0.00089468257138909343 0 -0.0026486702463651363 0.00091954256592260541 0 -0.002661873821978107 0.00089468257138909343 0 -0.0026754900524162514 0.00092809423387901974 0 -0.0027742689430205357 0.00082717990883958534 0 -0.002652360003721261 0.00099233854478282166 0 -0.0027095518744602912 0.0008775471313740038 0 -0.002661873821978107 0.00089468257138909343 0 -0.0026754900524162514 0.00092809423387901974 0 -0.0028624562260661469 0.00086375525940638213 0 -0.0028111361602726659 0.00083097470215083233 0 -0.0028297880142650273 0.00089870078719842873 0 -0.0028760356853499173 0.00090130948330847764 0 -0.0028605738764863001 0.00092698407401000705 0 -0.0028297880142650273 0.00089870078719842873 0 -0.0026815553322903237 0.00094154323697812872 0 -0.0026754900524162514 0.00092809423387901974 0 -0.0026556423531765324 0.00092032959408606951 0 -0.0026486702463651363 0.00091954256592260541 0 -0.0026754900524162514 0.00092809423387901974 0 -0.0026556423531765324 0.00092032959408606951 0 -0.0048972756051325417 6.102832577805148e-05 0 -0.0048569969888992521 -2.5620457952132753e-06 0 -0.004936000282138091 3.8164209903076219e-05 0 -0.0048569969888992521 -2.5620457952132753e-06 0 -0.0048912862419557843 -3.5314869671768805e-05 0 -0.004936000282138091 3.8164209903076219e-05 0 -0.0048569969888992521 -2.5620457952132753e-06 0 -0.0048033032789909259 -5.4399124649849557e-05 0 -0.0048912862419557843 -3.5314869671768805e-05 0 -0.0038013805090544874 0.00043019806954928578 0 -0.0038274169293498624 0.00046050482395349152 0 -0.0026907815036797916 0.00091112718186391343 0 -0.0026486702463651363 0.00091954256592260541 0 -0.0026556423531765324 0.00092032959408606951 0 -0.0049996355611331821 1.3853551194500373e-07 0 -0.0048100139022709508 2.7617414690324868e-05 0 -0.0043108168669327958 -2.1885959803412176e-07 0 -0.0046487585901516682 -3.7271615466360605e-05 0 -0.0048100139022709508 2.7617414690324868e-05 0 -0.0043108168669327958 -2.1885959803412176e-07 0 -0.0045853983954214951 5.2036507460247322e-06 0 -0.0047621014151016453 1.7896971347078193e-05 0 -0.0046487585901516682 -3.7271615466360605e-05 0 -0.0048100139022709508 2.7617414690324868e-05 0 -0.0047933806216179002 1.1523291590934922e-05 0 -0.0049996355611331821 1.3853551194500373e-07 0 -0.0048100139022709508 2.7617414690324868e-05 0 -0.004999848331401646 3.1257979521384458e-08 0 -0.0048100139022709508 2.7617414690324868e-05 0 -0.0048935855711382745 1.7726775414714954e-05 0 -0.004999848331401646 3.1257979521384458e-08 0 -0.0048935855711382745 1.7726775414714954e-05 0 -0.0048924572966942033 3.4220667939448411e-06 0 -0.0049601009214507493 1.4519371100158318e-05 0 -0.0048935855711382745 1.7726775414714954e-05 0 -0.004999848331401646 3.1257979521384458e-08 0 -0.0049601009214507493 1.4519371100158318e-05 0 -0.0048935855711382745 1.7726775414714954e-05 0 -0.0048924572966942033 3.4220667939448411e-06 0 -0.0047933806216179002 1.1523291590934922e-05 0 -0.0048100139022709508 2.7617414690324868e-05 0 -0.0048935855711382745 1.7726775414714954e-05 0 -0.0047933806216179002 1.1523291590934922e-05 0 -0.0045195944501256998 3.9616087404557477e-05 0 -0.0047933806216179002 1.1523291590934922e-05 0 -0.0046877497936279235 -3.9728306904531773e-05 0 -0.0047933806216179002 1.1523291590934922e-05 0 -0.0048461908585716194 -3.0672346554117021e-05 0 -0.0046877497936279235 -3.9728306904531773e-05 0 -0.0048924572966942033 3.4220667939448411e-06 0 -0.0047933806216179002 1.1523291590934922e-05 0 -0.0048461908585716194 -3.0672346554117021e-05 0 -0.0048924572966942033 3.4220667939448411e-06 0 -0.0048461908585716194 -3.0672346554117021e-05 0 -0.0049394234400242541 -5.7991304525930657e-05 0 -0.0048924572966942033 3.4220667939448411e-06 0 -0.0049663797997350767 -4.8299767897001768e-06 0 -0.0049394234400242541 -5.7991304525930657e-05 0 -0.0049663797997350767 -4.8299767897001768e-06 0 -0.0049874105328037033 -3.392322714822456e-05 0 -0.0049394234400242541 -5.7991304525930657e-05 0 -0.0045705813504259485 0.00013729532797814283 0 -0.0043652335248097621 2.4569694251629365e-05 0 -0.0048924572966942033 3.4220667939448411e-06 0 -0.0049663797997350767 -4.8299767897001768e-06 0 -0.0049538388639336411 1.4759090164602268e-05 0 -0.0049033963313751842 1.3817691044075171e-06 0 -0.0049546785866538103 1.3968570122725657e-05 0 -0.004999848331401646 3.1257979521384458e-08 0 -0.0049601009214507493 1.4519371100158318e-05 0 -0.0050000027902359929 -4.2212808555177997e-09 0 -0.0049546785866538103 1.3968570122725657e-05 0 -0.004999984287744454 7.9957739940490791e-09 0 -0.0049999532152643 2.9235167798747689e-08 0 -0.0049858436476046299 6.4098195534291502e-06 0 -0.0049999964023246931 3.2635322718163685e-09 0 -0.0049538388639336411 1.4759090164602268e-05 0 -0.0049999532152643 2.9235167798747689e-08 0 -0.0049858436476046299 6.4098195534291502e-06 0 -0.0049663797997350767 -4.8299767897001768e-06 0 -0.0049538388639336411 1.4759090164602268e-05 0 -0.0049858436476046299 6.4098195534291502e-06 0 -0.0049663797997350767 -4.8299767897001768e-06 0 -0.0049858436476046299 6.4098195534291502e-06 0 -0.004997399455204032 3.293887893442155e-06 0 -0.0049858436476046299 6.4098195534291502e-06 0 -0.0049999964023246931 3.2635322718163685e-09 0 -0.004997399455204032 3.293887893442155e-06 0 -0.0049999580092914275 -4.5269591740243045e-09 0 -0.0050908951493339842 4.142891261241251e-05 0 -0.0049999964023246931 3.2635322718163685e-09 0 -0.004999998426117376 -5.0755131784299778e-10 0 -0.004997399455204032 3.293887893442155e-06 0 -0.0049936329894057574 5.5050934482283143e-05 0 -0.0050124086094655036 0.00010986090781411038 0 -0.0050524278290890448 8.669509888758029e-05 0 -0.0049936329894057574 5.5050934482283143e-05 0 -0.0050001215730873863 3.0859200025432114e-08 0 -0.0050524278290890448 8.669509888758029e-05 0 -0.0050124086094655036 0.00010986090781411038 0 -0.0050524278290890448 8.669509888758029e-05 0 -0.0050241162787438209 0.00015128827811528242 0 -0.0050524278290890448 8.669509888758029e-05 0 -0.0050724324592650782 0.00016745261032597637 0 -0.0050241162787438209 0.00015128827811528242 0 -0.0049663797997350767 -4.8299767897001768e-06 0 -0.004997399455204032 3.293887893442155e-06 0 -0.0049874105328037033 -3.392322714822456e-05 0 -0.0050908951493339842 4.142891261241251e-05 0 -0.0045705813504259485 0.00013729532797814283 0 -0.0045705813504259485 0.00013729532797814283 0 -0.0042224899259313024 9.4770661185135494e-05 0 -0.0045705813504259485 0.00013729532797814283 0 -0.0046563571309032638 0.00021753498001917871 0 -0.0040519681331370738 0.00024484945588645294 0 -0.004291901085985904 0.00028265034436563904 0 -0.0042054504885107548 0.00012946090040047886 0 -0.0043543822492990618 0.0001016184227144346 0 -0.004291901085985904 0.00028265034436563904 0 -0.0042054504885107548 0.00012946090040047886 0 -0.0043041105599396475 5.6753598482364763e-06 0 -0.0042054504885107548 0.00012946090040047886 0 -0.0040864576078074233 2.2383180387720934e-05 0 -0.0043543822492990618 0.0001016184227144346 0 -0.0043041105599396475 5.6753598482364763e-06 0 -0.0042054504885107548 0.00012946090040047886 0 -0.0040519681331370738 0.00024484945588645294 0 -0.0042054504885107548 0.00012946090040047886 0 -0.0040824216358902174 0.00011026952862765573 0 -0.0040310387071416627 0.00023637422009277208 0 -0.0040034235200034334 0.00015044280647896787 0 -0.0038974738147569202 0.00010154518896092357 0 -0.0040519681331370738 0.00024484945588645294 0 -0.0040824216358902174 0.00011026952862765573 0 -0.0040034235200034334 0.00015044280647896787 0 -0.0040824216358902174 0.00011026952862765573 0 -0.0040034235200034334 0.00015044280647896787 0 -0.0039968882515584265 7.7309535234091017e-05 0 -0.0040824216358902174 0.00011026952862765573 0 -0.0039968882515584265 7.7309535234091017e-05 0 -0.0040864576078074233 2.2383180387720934e-05 0 -0.0042054504885107548 0.00012946090040047886 0 -0.0040824216358902174 0.00011026952862765573 0 -0.0040864576078074233 2.2383180387720934e-05 0 -0.0040864576078074233 2.2383180387720934e-05 0 -0.0039877924591286036 -6.6836979585120914e-05 0 -0.0039172018608582253 1.4620242375989696e-05 0 -0.0039968882515584265 7.7309535234091017e-05 0 -0.0040864576078074233 2.2383180387720934e-05 0 -0.0039172018608582253 1.4620242375989696e-05 0 -0.0040864576078074233 2.2383180387720934e-05 0 -0.0041698263619452244 -5.1721863249340447e-05 0 -0.0039877924591286036 -6.6836979585120914e-05 0 -0.0043041105599396475 5.6753598482364763e-06 0 -0.0040864576078074233 2.2383180387720934e-05 0 -0.0041698263619452244 -5.1721863249340447e-05 0 -0.0043041105599396475 5.6753598482364763e-06 0 -0.0042812718038046198 -8.7152170399773076e-05 0 -0.0041698263619452244 -5.1721863249340447e-05 0 -0.0042812718038046198 -8.7152170399773076e-05 0 -0.0041698263619452244 -5.1721863249340447e-05 0 -0.0041714033600272777 -0.00014780881375181808 0 -0.0041698263619452244 -5.1721863249340447e-05 0 -0.0041714033600272777 -0.00014780881375181808 0 -0.0039877924591286036 -6.6836979585120914e-05 0 -0.0043337478406440247 -0.00015465889674098757 0 -0.0042812718038046198 -8.7152170399773076e-05 0 -0.0041714033600272777 -0.00014780881375181808 0 -0.004302636969220011 -0.00024686260635989186 0 -0.0041714033600272777 -0.00014780881375181808 0 -0.0041130980859769781 -0.00033724199324770582 0 -0.0041714033600272777 -0.00014780881375181808 0 -0.0039532842825675601 -0.0001648192905548799 0 -0.0041130980859769781 -0.00033724199324770582 0 -0.0039532842825675601 -0.0001648192905548799 0 -0.0037473556410972625 -0.00017722648857085679 0 -0.0041130980859769781 -0.00033724199324770582 0 -0.0039532842825675601 -0.0001648192905548799 0 -0.0039877924591286036 -6.6836979585120914e-05 0 -0.0038128439067573313 -0.00011267455225848916 0 -0.0041714033600272777 -0.00014780881375181808 0 -0.0039532842825675601 -0.0001648192905548799 0 -0.0039877924591286036 -6.6836979585120914e-05 0 -0.003837909959391185 -4.5033814536887911e-05 0 -0.0038128439067573313 -0.00011267455225848916 0 -0.0037395527004541939 -5.6471046694649431e-05 0 -0.0039877924591286036 -6.6836979585120914e-05 0 -0.003837909959391185 -4.5033814536887911e-05 0 -0.0038128439067573313 -0.00011267455225848916 0 -0.0038128439067573313 -0.00011267455225848916 0 -0.0037214922464192039 -9.4669233193935663e-05 0 -0.0037473556410972625 -0.00017722648857085679 0 -0.0039532842825675601 -0.0001648192905548799 0 -0.0038128439067573313 -0.00011267455225848916 0 -0.0037473556410972625 -0.00017722648857085679 0 -0.0038128439067573313 -0.00011267455225848916 0 -0.0037214922464192039 -9.4669233193935663e-05 0 -0.0037395527004541939 -5.6471046694649431e-05 0 -0.0037214922464192039 -9.4669233193935663e-05 0 -0.0037395527004541939 -5.6471046694649431e-05 0 -0.0036759473440441566 -3.4317998715327063e-05 0 -0.0037395527004541939 -5.6471046694649431e-05 0 -0.0037826711638525856 6.4157418563886819e-06 0 -0.0037033067055125871 -3.2220409953226659e-05 0 -0.003837909959391185 -4.5033814536887911e-05 0 -0.0037395527004541939 -5.6471046694649431e-05 0 -0.0037826711638525856 6.4157418563886819e-06 0 -0.0039877924591286036 -6.6836979585120914e-05 0 -0.003837909959391185 -4.5033814536887911e-05 0 -0.0039172018608582253 1.4620242375989696e-05 0 -0.003837909959391185 -4.5033814536887911e-05 0 -0.0037826711638525856 6.4157418563886819e-06 0 -0.0039172018608582253 1.4620242375989696e-05 0 -0.0037826711638525856 6.4157418563886819e-06 0 -0.0039172018608582253 1.4620242375989696e-05 0 -0.0038974738147569202 0.00010154518896092357 0 -0.0040310387071416627 0.00023637422009277208 0 -0.0038974738147569202 0.00010154518896092357 0 -0.0038119619931720294 0.00012358094260393943 0 -0.0039968882515584265 7.7309535234091017e-05 0 -0.0039172018608582253 1.4620242375989696e-05 0 -0.0038974738147569202 0.00010154518896092357 0 -0.0040034235200034334 0.00015044280647896787 0 -0.0039968882515584265 7.7309535234091017e-05 0 -0.0038974738147569202 0.00010154518896092357 0 -0.0037826711638525856 6.4157418563886819e-06 0 -0.0038119619931720294 0.00012358094260393943 0 -0.0037136984908310304 -1.0255660423157115e-07 0 -0.0043652335248097621 2.4569694251629365e-05 0 -0.0042752728955241549 -5.1130958433299508e-05 0 -0.0037826711638525856 6.4157418563886819e-06 0 -0.0038974738147569202 0.00010154518896092357 0 -0.0038119619931720294 0.00012358094260393943 0 -0.0048461908585716194 -3.0672346554117021e-05 0 -0.0049394234400242541 -5.7991304525930657e-05 0 -0.0048238569516041553 -0.0001117760073873389 0 -0.0042752728955241549 -5.1130958433299508e-05 0 -0.0041627597814535974 -9.3116825501019085e-05 0 -0.0048461908585716194 -3.0672346554117021e-05 0 -0.0048238569516041553 -0.0001117760073873389 0 -0.0046877497936279235 -3.9728306904531773e-05 0 -0.0048238569516041553 -0.0001117760073873389 0 -0.0046877497936279235 -3.9728306904531773e-05 0 -0.0045271120019894683 -0.00012822858664066235 0 -0.0037136984908310304 -1.0255660423157115e-07 0 -0.0037033067055125871 -3.2220409953226659e-05 0 -0.0037738954143701109 -8.9887490320149542e-05 0 -0.0037826711638525856 6.4157418563886819e-06 0 -0.0037136984908310304 -1.0255660423157115e-07 0 -0.0037033067055125871 -3.2220409953226659e-05 0 -0.0037395527004541939 -5.6471046694649431e-05 0 -0.0037033067055125871 -3.2220409953226659e-05 0 -0.0036759473440441566 -3.4317998715327063e-05 0 -0.0037214922464192039 -9.4669233193935663e-05 0 -0.0036759473440441566 -3.4317998715327063e-05 0 -0.0036669827505742916 -7.0911701688314941e-05 0 -0.0036759473440441566 -3.4317998715327063e-05 0 -0.0037420821312337473 1.5299815416030273e-06 0 -0.0036135405964379005 8.8795548757287325e-06 0 -0.0037033067055125871 -3.2220409953226659e-05 0 -0.0037420821312337473 1.5299815416030273e-06 0 -0.0037738954143701109 -8.9887490320149542e-05 0 -0.0037033067055125871 -3.2220409953226659e-05 0 -0.0036759473440441566 -3.4317998715327063e-05 0 -0.0037420821312337473 1.5299815416030273e-06 0 -0.0037420821312337473 1.5299815416030273e-06 0 -0.0038093899777182838 1.4288026711614977e-07 0 -0.0036135405964379005 8.8795548757287325e-06 0 -0.0037420821312337473 1.5299815416030273e-06 0 -0.0038093899777182838 1.4288026711614977e-07 0 -0.0041000681551123016 -2.9621399066555412e-07 0 -0.0041015478194872303 -5.5001860906873554e-07 0 -0.0045271120019894683 -0.00012822858664066235 0 -0.0043093134187927309 3.9920847449765892e-07 0 -0.0041007900230080174 -3.4235575394487612e-08 0 -0.0041627597814535974 -9.3116825501019085e-05 0 -0.0037420821312337473 1.5299815416030273e-06 0 -0.0041000681551123016 -2.9621399066555412e-07 0 -0.0037738954143701109 -8.9887490320149542e-05 0 -0.0045195944501256998 3.9616087404557477e-05 0 -0.0046877497936279235 -3.9728306904531773e-05 0 -0.0045271120019894683 -0.00012822858664066235 0 -0.0045195944501256998 3.9616087404557477e-05 0 -0.0045271120019894683 -0.00012822858664066235 0 -0.0043093134187927309 3.9920847449765892e-07 0 -0.0045853983954214951 5.2036507460247322e-06 0 -0.0043100495223855921 -1.2331763114893818e-08 0 -0.0032266070041404586 4.2292973262581975e-08 0 -0.0033632778157771008 -1.0483962909744571e-05 0 -0.003175532151225454 -8.7703295020804522e-06 0 -0.0032266070041404586 4.2292973262581975e-08 0 -0.0033632778157771008 -1.0483962909744571e-05 0 -0.003464315917243283 9.3075829580687815e-06 0 -0.0032266070041404586 4.2292973262581975e-08 0 -0.003464315917243283 9.3075829580687815e-06 0 -0.0035179318753432291 4.4055676807379755e-09 0 -0.0038093899777182838 1.4288026711614977e-07 0 -0.0035179318753432291 4.4055676807379755e-09 0 -0.0036135405964379005 8.8795548757287325e-06 0 -0.003464315917243283 9.3075829580687815e-06 0 -0.0035179318753432291 4.4055676807379755e-09 0 -0.0036135405964379005 8.8795548757287325e-06 0 -0.003464315917243283 9.3075829580687815e-06 0 -0.0036135405964379005 8.8795548757287325e-06 0 -0.0035590661720688354 -1.3266044706429312e-05 0 -0.0036135405964379005 8.8795548757287325e-06 0 -0.003623833140828214 -2.8832002498357445e-05 0 -0.0035590661720688354 -1.3266044706429312e-05 0 -0.0036759473440441566 -3.4317998715327063e-05 0 -0.0036135405964379005 8.8795548757287325e-06 0 -0.003623833140828214 -2.8832002498357445e-05 0 -0.0036759473440441566 -3.4317998715327063e-05 0 -0.003623833140828214 -2.8832002498357445e-05 0 -0.0036669827505742916 -7.0911701688314941e-05 0 -0.003623833140828214 -2.8832002498357445e-05 0 -0.0035590661720688354 -1.3266044706429312e-05 0 -0.0036669827505742916 -7.0911701688314941e-05 0 -0.0033632778157771008 -1.0483962909744571e-05 0 -0.003464315917243283 9.3075829580687815e-06 0 -0.0035590661720688354 -1.3266044706429312e-05 0 -0.0033632778157771008 -1.0483962909744571e-05 0 -0.0035590661720688354 -1.3266044706429312e-05 0 -0.0035038951413521834 -5.6921883385748794e-05 0 -0.0035590661720688354 -1.3266044706429312e-05 0 -0.0035817286148259919 -4.6669426084026145e-05 0 -0.0035038951413521834 -5.6921883385748794e-05 0 -0.0035590661720688354 -1.3266044706429312e-05 0 -0.0035817286148259919 -4.6669426084026145e-05 0 -0.0036502881292711444 -6.5402200301136959e-05 0 -0.0035817286148259919 -4.6669426084026145e-05 0 -0.0036056217958405708 -5.7070683376031294e-05 0 -0.0036502881292711444 -6.5402200301136959e-05 0 -0.0036056217958405708 -5.7070683376031294e-05 0 -0.0036502881292711444 -6.5402200301136959e-05 0 -0.0036244330101098984 -7.3116041371615222e-05 0 -0.0035590661720688354 -1.3266044706429312e-05 0 -0.0036669827505742916 -7.0911701688314941e-05 0 -0.0036502881292711444 -6.5402200301136959e-05 0 -0.0037214922464192039 -9.4669233193935663e-05 0 -0.0036669827505742916 -7.0911701688314941e-05 0 -0.0037473556410972625 -0.00017722648857085679 0 -0.0036669827505742916 -7.0911701688314941e-05 0 -0.0037473556410972625 -0.00017722648857085679 0 -0.0036502881292711444 -6.5402200301136959e-05 0 -0.0037473556410972625 -0.00017722648857085679 0 -0.0036502881292711444 -6.5402200301136959e-05 0 -0.0036516076850645071 -0.00010858242279020914 0 -0.0036502881292711444 -6.5402200301136959e-05 0 -0.0036516076850645071 -0.00010858242279020914 0 -0.0036244330101098984 -7.3116041371615222e-05 0 -0.0036516076850645071 -0.00010858242279020914 0 -0.0035913356327432282 -0.00010061070105305789 0 -0.0036244330101098984 -7.3116041371615222e-05 0 -0.0037473556410972625 -0.00017722648857085679 0 -0.0036516076850645071 -0.00010858242279020914 0 -0.0036003041113766574 -0.00017881809302063784 0 -0.0037738912008985935 -0.00019276172320481689 0 -0.0038472923226348927 -0.00025641872685948125 0 -0.0036003041113766574 -0.00017881809302063784 0 -0.0035913356327432282 -0.00010061070105305789 0 -0.0035393946165595343 -0.00013368349557170366 0 -0.0036516076850645071 -0.00010858242279020914 0 -0.0036003041113766574 -0.00017881809302063784 0 -0.0035913356327432282 -0.00010061070105305789 0 -0.0035913356327432282 -0.00010061070105305789 0 -0.0035830838453423698 -5.8161272021823714e-05 0 -0.0035567031145303267 -7.1361419090489603e-05 0 -0.0035913356327432282 -0.00010061070105305789 0 -0.0036244330101098984 -7.3116041371615222e-05 0 -0.0035830838453423698 -5.8161272021823714e-05 0 -0.0036056217958405708 -5.7070683376031294e-05 0 -0.0036244330101098984 -7.3116041371615222e-05 0 -0.0035830838453423698 -5.8161272021823714e-05 0 -0.0036056217958405708 -5.7070683376031294e-05 0 -0.0035830838453423698 -5.8161272021823714e-05 0 -0.0035678316726755108 -4.3932036199087211e-05 0 -0.0035830838453423698 -5.8161272021823714e-05 0 -0.0035567031145303267 -7.1361419090489603e-05 0 -0.0035604025690258853 -4.3930640228791133e-05 0 -0.0035830838453423698 -5.8161272021823714e-05 0 -0.0035678316726755108 -4.3932036199087211e-05 0 -0.0035604025690258853 -4.3930640228791133e-05 0 -0.0035678316726755108 -4.3932036199087211e-05 0 -0.0035435509988506666 -3.2935858279215164e-05 0 -0.0035604025690258853 -4.3930640228791133e-05 0 -0.0035435509988506666 -3.2935858279215164e-05 0 -0.0035238856859307294 -4.7056163114761801e-05 0 -0.0035166179986646389 -7.1757634479548515e-05 0 -0.0035839893066897943 -1.8159606604937806e-05 0 -0.0033780390534532715 -5.9302132844589085e-05 0 -0.0036056217958405708 -5.7070683376031294e-05 0 -0.0035678316726755108 -4.3932036199087211e-05 0 -0.0035621077345919677 -3.4938147786332742e-05 0 -0.0035678316726755108 -4.3932036199087211e-05 0 -0.0035621077345919677 -3.4938147786332742e-05 0 -0.0035435509988506666 -3.2935858279215164e-05 0 -0.0035621077345919677 -3.4938147786332742e-05 0 -0.0035387015154918146 -2.5388751678656451e-05 0 -0.0035474807706022816 -2.566682756994493e-05 0 -0.0035621077345919677 -3.4938147786332742e-05 0 -0.0035435509988506666 -3.2935858279215164e-05 0 -0.0035387015154918146 -2.5388751678656451e-05 0 -0.0035435509988506666 -3.2935858279215164e-05 0 -0.0035293208668726529 -2.3296216108176451e-05 0 -0.0035387015154918146 -2.5388751678656451e-05 0 -0.0035435509988506666 -3.2935858279215164e-05 0 -0.0035238856859307294 -4.7056163114761801e-05 0 -0.0035248051246211014 -4.3955102739368081e-05 0 -0.0035435509988506666 -3.2935858279215164e-05 0 -0.0035293208668726529 -2.3296216108176451e-05 0 -0.0035248051246211014 -4.3955102739368081e-05 0 -0.0028001138457846866 8.1729607325155677e-05 0 -0.0031349486972112274 5.592509114104052e-05 0 -0.0028001138457846866 8.1729607325155677e-05 0 -0.0024936359275983589 8.0582306119945279e-05 0 -0.0035199408183896044 -2.530700646563147e-05 0 -0.0035222358421386785 -2.0186374720454898e-05 0 -0.0035095785782517991 -1.0189936626285648e-05 0 -0.0028001138457846866 8.1729607325155677e-05 0 -0.0033790887932625135 0.00013230030014501674 0 -0.0035293208668726529 -2.3296216108176451e-05 0 -0.0035222358421386785 -2.0186374720454898e-05 0 -0.0035387015154918146 -2.5388751678656451e-05 0 -0.0035222358421386785 -2.0186374720454898e-05 0 -0.0035254758384201897 -1.6959622016578508e-05 0 -0.0035387015154918146 -2.5388751678656451e-05 0 -0.0035222358421386785 -2.0186374720454898e-05 0 -0.0035095785782517991 -1.0189936626285648e-05 0 -0.0035254758384201897 -1.6959622016578508e-05 0 -0.0035189434215222438 -1.1751761781632241e-05 0 -0.0035353628454593451 -2.0347203047150809e-05 0 -0.0035342122504017476 -1.8332663310511457e-05 0 -0.0035189434215222438 -1.1751761781632241e-05 0 -0.0035353628454593451 -2.0347203047150809e-05 0 -0.0035254758384201897 -1.6959622016578508e-05 0 -0.0035095785782517991 -1.0189936626285648e-05 0 -0.0035189434215222438 -1.1751761781632241e-05 0 -0.0035254758384201897 -1.6959622016578508e-05 0 -0.0035353628454593451 -2.0347203047150809e-05 0 -0.0035387015154918146 -2.5388751678656451e-05 0 -0.0035474807706022816 -2.566682756994493e-05 0 -0.0035353628454593451 -2.0347203047150809e-05 0 -0.0035254758384201897 -1.6959622016578508e-05 0 -0.0035387015154918146 -2.5388751678656451e-05 0 -0.0035474807706022816 -2.566682756994493e-05 0 -0.0035409912282437796 -2.20486200884705e-05 0 -0.0035671743932065595 -3.3627322526906443e-05 0 -0.0035474807706022816 -2.566682756994493e-05 0 -0.0035342122504017476 -1.8332663310511457e-05 0 -0.0035409912282437796 -2.20486200884705e-05 0 -0.0035353628454593451 -2.0347203047150809e-05 0 -0.0035474807706022816 -2.566682756994493e-05 0 -0.0035342122504017476 -1.8332663310511457e-05 0 -0.0035189434215222438 -1.1751761781632241e-05 0 -0.0035342122504017476 -1.8332663310511457e-05 0 -0.0035253181084275577 -1.0797547324283956e-05 0 -0.0035189434215222438 -1.1751761781632241e-05 0 -0.0035253181084275577 -1.0797547324283956e-05 0 -0.0035123750544264203 -8.2085107598480104e-06 0 -0.0035342122504017476 -1.8332663310511457e-05 0 -0.0035253181084275577 -1.0797547324283956e-05 0 -0.0035409912282437796 -2.20486200884705e-05 0 -0.003574167511284226 -0.00026566584920212556 0 -0.0034835016457787356 -0.00032344703247223956 0 -0.0035344647551193899 -0.00041938346567000858 0 -0.0035702304493872117 -0.00016418305805658548 0 -0.0033774643183464982 -9.4545663403963786e-05 0 -0.0035253181084275577 -1.0797547324283956e-05 0 -0.0035409912282437796 -2.20486200884705e-05 0 -0.0035367504797213646 -3.0399896737868138e-06 0 -0.0035683746640886335 2.1243353703617745e-05 0 -0.0033774643183464982 -9.4545663403963786e-05 0 -0.003574167511284226 -0.00026566584920212556 0 -0.0034940997273795807 -0.00022993323900501162 0 -0.0034835016457787356 -0.00032344703247223956 0 -0.003574167511284226 -0.00026566584920212556 0 -0.0035995491613359494 -0.0001265979284047678 0 -0.0034940997273795807 -0.00022993323900501162 0 -0.0035995491613359494 -0.0001265979284047678 0 -0.0034803369552482721 -0.0001424055484604789 0 -0.0034940997273795807 -0.00022993323900501162 0 -0.0035702304493872117 -0.00016418305805658548 0 -0.0035827091935920334 -8.0342937234830825e-05 0 -0.0035621077345919677 -3.4938147786332742e-05 0 -0.0035474807706022816 -2.566682756994493e-05 0 -0.0035671743932065595 -3.3627322526906443e-05 0 -0.0035817286148259919 -4.6669426084026145e-05 0 -0.0036056217958405708 -5.7070683376031294e-05 0 -0.0035995491613359494 -0.0001265979284047678 0 -0.0036011120175543396 -6.1768267918689887e-05 0 -0.0035827091935920334 -8.0342937234830825e-05 0 -0.0036056217958405708 -5.7070683376031294e-05 0 -0.0035621077345919677 -3.4938147786332742e-05 0 -0.0035671743932065595 -3.3627322526906443e-05 0 -0.0035995491613359494 -0.0001265979284047678 0 -0.0035038951413521834 -5.6921883385748794e-05 0 -0.0034803369552482721 -0.0001424055484604789 0 -0.0035817286148259919 -4.6669426084026145e-05 0 -0.0035995491613359494 -0.0001265979284047678 0 -0.0035038951413521834 -5.6921883385748794e-05 0 -0.0035038951413521834 -5.6921883385748794e-05 0 -0.0033948051336292087 -8.3453651974573845e-05 0 -0.0034803369552482721 -0.0001424055484604789 0 -0.0033632778157771008 -1.0483962909744571e-05 0 -0.0033948051336292087 -8.3453651974573845e-05 0 -0.0032384720680404427 -6.7063777257102476e-05 0 -0.0033632778157771008 -1.0483962909744571e-05 0 -0.0035038951413521834 -5.6921883385748794e-05 0 -0.0033948051336292087 -8.3453651974573845e-05 0 -0.0033948051336292087 -8.3453651974573845e-05 0 -0.0033521793600692316 -0.00019332854111652612 0 -0.0034803369552482721 -0.0001424055484604789 0 -0.0033948051336292087 -8.3453651974573845e-05 0 -0.0033521793600692316 -0.00019332854111652612 0 -0.0032384720680404427 -6.7063777257102476e-05 0 -0.0033521793600692316 -0.00019332854111652612 0 -0.0034803369552482721 -0.0001424055484604789 0 -0.0034940997273795807 -0.00022993323900501162 0 -0.0033521793600692316 -0.00019332854111652612 0 -0.0034940997273795807 -0.00022993323900501162 0 -0.0033896667564258078 -0.00029999781871935558 0 -0.0034940997273795807 -0.00022993323900501162 0 -0.0034835016457787356 -0.00032344703247223956 0 -0.0033896667564258078 -0.00029999781871935558 0 -0.0034835016457787356 -0.00032344703247223956 0 -0.0034173120280067367 -0.00039433403148198161 0 -0.0035344647551193899 -0.00041938346567000858 0 -0.0034835016457787356 -0.00032344703247223956 0 -0.0034173120280067367 -0.00039433403148198161 0 -0.0033896667564258078 -0.00029999781871935558 0 -0.0033896667564258078 -0.00029999781871935558 0 -0.0032612265814632277 -0.00031423995226644328 0 -0.0032890897883778537 -0.00040954786841732841 0 -0.0034173120280067367 -0.00039433403148198161 0 -0.0033896667564258078 -0.00029999781871935558 0 -0.0032890897883778537 -0.00040954786841732841 0 -0.0033521793600692316 -0.00019332854111652612 0 -0.0033896667564258078 -0.00029999781871935558 0 -0.0032612265814632277 -0.00031423995226644328 0 -0.0033521793600692316 -0.00019332854111652612 0 -0.0031981461903321119 -0.0002304887490743547 0 -0.0032612265814632277 -0.00031423995226644328 0 -0.0030730003751410547 -0.00011838341012536915 0 -0.002917763460420907 -0.00018505843314960417 0 -0.0032612265814632277 -0.00031423995226644328 0 -0.0031440382871153381 -0.000369345687599876 0 -0.0032890897883778537 -0.00040954786841732841 0 -0.0031981461903321119 -0.0002304887490743547 0 -0.0032612265814632277 -0.00031423995226644328 0 -0.0031440382871153381 -0.000369345687599876 0 -0.0029332041565348567 -3.9356575043833481e-05 0 -0.0026438215186509986 -3.0677844967926851e-08 0 -0.0026470327968387978 -1.7628214636354149e-05 0 -0.0026438215186509986 -3.0677844967926851e-08 0 -0.0026470327968387978 -1.7628214636354149e-05 0 -0.0023525764670082145 -1.1116755948144979e-07 0 -0.0029332041565348567 -3.9356575043833481e-05 0 -0.0026438215186509986 -3.0677844967926851e-08 0 -0.0029352465008012445 -7.3760214671822636e-08 0 -0.0029332041565348567 -3.9356575043833481e-05 0 -0.0029352465008012445 -7.3760214671822636e-08 0 -0.0032384720680404427 -6.7063777257102476e-05 0 -0.0033521793600692316 -0.00019332854111652612 0 -0.0031981461903321119 -0.0002304887490743547 0 -0.0032384720680404427 -6.7063777257102476e-05 0 -0.0030730003751410547 -0.00011838341012536915 0 -0.0032125779803314591 -4.805666743120943e-05 0 -0.0033632778157771008 -1.0483962909744571e-05 0 -0.0032384720680404427 -6.7063777257102476e-05 0 -0.003175532151225454 -8.7703295020804522e-06 0 -0.0029352465008012445 -7.3760214671822636e-08 0 -0.0032384720680404427 -6.7063777257102476e-05 0 -0.003175532151225454 -8.7703295020804522e-06 0 -0.0032266070041404586 4.2292973262581975e-08 0 -0.0029352465008012445 -7.3760214671822636e-08 0 -0.003175532151225454 -8.7703295020804522e-06 0 -0.0024497988210547116 0.0005107368591646238 0 -0.0024804794497457917 0.00056302264977485224 0 -0.0025124304051693429 0.00052955480970121754 0 -0.0024497988210547116 0.0005107368591646238 0 -0.0024764797176579333 0.00047550106710091388 0 -0.0025124304051693429 0.00052955480970121754 0 -0.0024804794497457917 0.00056302264977485224 0 -0.0025124304051693429 0.00052955480970121754 0 -0.0025497522910501885 0.00059400713046847122 0 -0.0024804794497457917 0.00056302264977485224 0 -0.0024294597045608499 0.00055455268875330248 0 -0.0024473854284859089 0.00060564183212729174 0 -0.0024497988210547116 0.0005107368591646238 0 -0.0024804794497457917 0.00056302264977485224 0 -0.0024294597045608499 0.00055455268875330248 0 -0.0024497988210547116 0.0005107368591646238 0 -0.0024294597045608499 0.00055455268875330248 0 -0.0023794369304334043 0.00053413551012907302 0 -0.0024190729166373172 0.00057091093007395188 0 -0.0023161227932291836 0.00057905944103422394 0 -0.0024294597045608499 0.00055455268875330248 0 -0.0023859853295302843 0.00053597348196940864 0 -0.0023971816817755153 0.00060553816411434546 0 -0.0023161227932291836 0.00057905944103422394 0 -0.0022815270371046074 0.00054042061804376634 0 -0.002061472184754747 0.00077227779060366026 0 -0.0021767061801383799 0.00060307111858803875 0 -0.0020136713671298854 0.0005633959774423526 0 -0.0024497988210547116 0.0005107368591646238 0 -0.0023794369304334043 0.00053413551012907302 0 -0.0024113721097408108 0.00045336109620756611 0 -0.0024497988210547116 0.0005107368591646238 0 -0.0024113721097408108 0.00045336109620756611 0 -0.0024764797176579333 0.00047550106710091388 0 -0.0024113721097408108 0.00045336109620756611 0 -0.0024764797176579333 0.00047550106710091388 0 -0.002422356350932377 0.0004336839458874115 0 -0.0024764797176579333 0.00047550106710091388 0 -0.0025458744761485993 0.00045122740644421559 0 -0.002422356350932377 0.0004336839458874115 0 -0.0025458744761485993 0.00045122740644421559 0 -0.0025433833537127507 0.00050035598501626014 0 -0.0026202898776769164 0.00049559231083769108 0 -0.0024764797176579333 0.00047550106710091388 0 -0.0025458744761485993 0.00045122740644421559 0 -0.0025433833537127507 0.00050035598501626014 0 -0.0024764797176579333 0.00047550106710091388 0 -0.0025433833537127507 0.00050035598501626014 0 -0.0025124304051693429 0.00052955480970121754 0 -0.0027373100196040646 0.00035612245617851505 0 -0.0027318698384918988 0.00039350889413972465 0 -0.0026800786336876378 0.00038764453990309996 0 -0.002705437231274992 0.00041218108874957081 0 -0.0026757976863327044 0.00038178065649454603 0 -0.0026933028069552512 0.00046894239747591912 0 -0.0027318698384918988 0.00039350889413972465 0 -0.002705437231274992 0.00041218108874957081 0 -0.0026800786336876378 0.00038764453990309996 0 -0.0026083865747646728 0.00042425845756507589 0 -0.0025397221871109104 0.00038688357787060865 0 -0.0025458744761485993 0.00045122740644421559 0 -0.0026779171822997909 0.00040203769115722883 0 -0.0026202898776769164 0.00049559231083769108 0 -0.0025397221871109104 0.00038688357787060865 0 -0.0026246319830168174 0.00045984064656555374 0 -0.0026757976863327044 0.00038178065649454603 0 -0.0026202898776769164 0.00049559231083769108 0 -0.0026933028069552512 0.00046894239747591912 0 -0.0027460459541911479 0.00045037357526588891 0 -0.002705437231274992 0.00041218108874957081 0 -0.0026933028069552512 0.00046894239747591912 0 -0.0027564163050030031 0.00058118737568626285 0 -0.0026685443464312666 0.00054693756289716589 0 -0.0026462564667931025 0.00061286136640067719 0 -0.0027334421564479293 0.00051482127660555036 0 -0.0026933028069552512 0.00046894239747591912 0 -0.0026685443464312666 0.00054693756289716589 0 -0.0026202898776769164 0.00049559231083769108 0 -0.0026933028069552512 0.00046894239747591912 0 -0.0026685443464312666 0.00054693756289716589 0 -0.0026202898776769164 0.00049559231083769108 0 -0.0026685443464312666 0.00054693756289716589 0 -0.0025847405489988276 0.00054902480288097249 0 -0.0026685443464312666 0.00054693756289716589 0 -0.0025847405489988276 0.00054902480288097249 0 -0.0026462564667931025 0.00061286136640067719 0 -0.0027334421564479293 0.00051482127660555036 0 -0.0027564163050030031 0.00058118737568626285 0 -0.0026685443464312666 0.00054693756289716589 0 -0.0025433833537127507 0.00050035598501626014 0 -0.0025124304051693429 0.00052955480970121754 0 -0.0025847405489988276 0.00054902480288097249 0 -0.0025433833537127507 0.00050035598501626014 0 -0.0026202898776769164 0.00049559231083769108 0 -0.0025847405489988276 0.00054902480288097249 0 -0.0025124304051693429 0.00052955480970121754 0 -0.0025847405489988276 0.00054902480288097249 0 -0.0025497522910501885 0.00059400713046847122 0 -0.0025497522910501885 0.00059400713046847122 0 -0.00255936234317159 0.00065825916341200551 0 -0.0026462564667931025 0.00061286136640067719 0 -0.00255936234317159 0.00065825916341200551 0 -0.0026462564667931025 0.00061286136640067719 0 -0.0026636069095897831 0.00068565550285994863 0 -0.0025847405489988276 0.00054902480288097249 0 -0.0025497522910501885 0.00059400713046847122 0 -0.0026462564667931025 0.00061286136640067719 0 -0.0027564163050030031 0.00058118737568626285 0 -0.0026462564667931025 0.00061286136640067719 0 -0.0027420378711048368 0.00065833810597080945 0 -0.0026462564667931025 0.00061286136640067719 0 -0.0027420378711048368 0.00065833810597080945 0 -0.0026636069095897831 0.00068565550285994863 0 -0.0027649618846259556 0.00074735524854541938 0 -0.0027420378711048368 0.00065833810597080945 0 -0.0026636069095897831 0.00068565550285994863 0 -0.0027649618846259556 0.00074735524854541938 0 -0.002598139313687642 0.00074871107310697121 0 -0.0026636069095897831 0.00068565550285994863 0 -0.002598139313687642 0.00074871107310697121 0 -0.00255936234317159 0.00065825916341200551 0 -0.0025241604974811389 0.00070720880333487721 0 -0.002598139313687642 0.00074871107310697121 0 -0.00255936234317159 0.00065825916341200551 0 -0.0026636069095897831 0.00068565550285994863 0 -0.0025184670594990454 0.00075869181235531217 0 -0.002598139313687642 0.00074871107310697121 0 -0.0025241604974811389 0.00070720880333487721 0 -0.0025184670594990454 0.00075869181235531217 0 -0.0025241604974811389 0.00070720880333487721 0 -0.0024703138203095625 0.00071190774981136514 0 -0.0024655271670376497 0.0007498763549482493 0 -0.0025184670594990454 0.00075869181235531217 0 -0.0024703138203095625 0.00071190774981136514 0 -0.0025241604974811389 0.00070720880333487721 0 -0.0024744723377697407 0.00065943732060642999 0 -0.0024703138203095625 0.00071190774981136514 0 -0.00255936234317159 0.00065825916341200551 0 -0.0025241604974811389 0.00070720880333487721 0 -0.0024744723377697407 0.00065943732060642999 0 -0.0025497522910501885 0.00059400713046847122 0 -0.00255936234317159 0.00065825916341200551 0 -0.0025001726370635605 0.00061486527437796873 0 -0.00255936234317159 0.00065825916341200551 0 -0.0024744723377697407 0.00065943732060642999 0 -0.0025001726370635605 0.00061486527437796873 0 -0.0024744723377697407 0.00065943732060642999 0 -0.0025001726370635605 0.00061486527437796873 0 -0.0024473854284859089 0.00060564183212729174 0 -0.0024804794497457917 0.00056302264977485224 0 -0.0025001726370635605 0.00061486527437796873 0 -0.0024473854284859089 0.00060564183212729174 0 -0.0024804794497457917 0.00056302264977485224 0 -0.0025497522910501885 0.00059400713046847122 0 -0.0025001726370635605 0.00061486527437796873 0 -0.0024294597045608499 0.00055455268875330248 0 -0.0023971816817755153 0.00060553816411434546 0 -0.0024473854284859089 0.00060564183212729174 0 -0.0024744723377697407 0.00065943732060642999 0 -0.0024473854284859089 0.00060564183212729174 0 -0.0024220761866362893 0.00064769278438386998 0 -0.0023971816817755153 0.00060553816411434546 0 -0.0024473854284859089 0.00060564183212729174 0 -0.0024220761866362893 0.00064769278438386998 0 -0.0023971816817755153 0.00060553816411434546 0 -0.0023879260605665156 0.00064799584944508573 0 -0.0024220761866362893 0.00064769278438386998 0 -0.0024220761866362893 0.00064769278438386998 0 -0.0024070532311224369 0.00069654761713348998 0 -0.002439434590061804 0.00068347419160479203 0 -0.0023879260605665156 0.00064799584944508573 0 -0.0024220761866362893 0.00064769278438386998 0 -0.0024070532311224369 0.00069654761713348998 0 -0.0024070532311224369 0.00069654761713348998 0 -0.002439434590061804 0.00068347419160479203 0 -0.0024373316999656823 0.00071738855224596349 0 -0.0024744723377697407 0.00065943732060642999 0 -0.002439434590061804 0.00068347419160479203 0 -0.0024703138203095625 0.00071190774981136514 0 -0.0024744723377697407 0.00065943732060642999 0 -0.0024220761866362893 0.00064769278438386998 0 -0.002439434590061804 0.00068347419160479203 0 -0.002406861766954147 0.00075090524045869772 0 -0.0024655271670376497 0.0007498763549482493 0 -0.0024373316999656823 0.00071738855224596349 0 -0.002439434590061804 0.00068347419160479203 0 -0.0024703138203095625 0.00071190774981136514 0 -0.0024373316999656823 0.00071738855224596349 0 -0.0024655271670376497 0.0007498763549482493 0 -0.0024703138203095625 0.00071190774981136514 0 -0.0024373316999656823 0.00071738855224596349 0 -0.002406861766954147 0.00075090524045869772 0 -0.0024070532311224369 0.00069654761713348998 0 -0.0024373316999656823 0.00071738855224596349 0 -0.0027107239497124419 0.00089806934785980838 0 -0.0027184767754033072 0.00088877986751808257 0 -0.0026789546652216853 0.00083727400948991899 0 -0.0027184767754033072 0.00088877986751808257 0 -0.0026789546652216853 0.00083727400948991899 0 -0.0026846956236308535 0.00082684793152263726 0 -0.0036636390850814304 0.00047872396272097495 0 -0.0029942858772565154 0.00047008867957683877 0 -0.002548064936598773 0.00083440275246982434 0 -0.0026449311679451045 0.00059844852606461441 0 -0.0037505079849302889 0.00025386470239732088 0 -0.0035279364444307216 0.00023148173319200303 0 -0.0036500539865529425 0.00042254141478711537 0 -0.002406861766954147 0.00075090524045869772 0 -0.0024070532311224369 0.00069654761713348998 0 -0.0023255741180529099 0.00064302646891393057 0 -0.0023879260605665156 0.00064799584944508573 0 -0.0024070532311224369 0.00069654761713348998 0 -0.0023255741180529099 0.00064302646891393057 0 -0.0042208106208677125 -6.1475812519492216e-05 0 -0.0034489985764954638 6.3145159882627245e-05 0 -0.0033544503282768924 0.00023288522756236118 0 -0.0033851802149632345 0.00017212934242359358 0 -0.0033058622345466656 0.00015364336527251527 0 -0.0042208106208677125 -6.1475812519492216e-05 0 -0.0029942858772565154 0.00047008867957683877 0 -0.0025500499502069951 0.00050616019018328608 0 -0.0025452957399267405 0.00049169018796683711 0 -0.0025235014207237727 0.0004697215733676294 0 -0.0029942858772565154 0.00047008867957683877 0 -0.0029677079331182537 0.0002628466156575002 0 -0.0033851802149632345 0.00017212934242359358 0 -0.0033058622345466656 0.00015364336527251527 0 -0.0033305986984301416 9.3286490151314055e-05 0 -0.0023161227932291836 0.00057905944103422394 0 -0.0026449311679451045 0.00059844852606461441 0 -0.0025674309704775034 0.00046482362555490535 0 -0.0025511837373442337 0.000499449956679086 0 -0.0025452957399267405 0.00049169018796683711 0 -0.0023859853295302843 0.00053597348196940864 0 -0.0023971816817755153 0.00060553816411434546 0 -0.0023255741180529099 0.00064302646891393057 0 -0.0023971816817755153 0.00060553816411434546 0 -0.0023879260605665156 0.00064799584944508573 0 -0.0023255741180529099 0.00064302646891393057 0 -0.0025500499502069951 0.00050616019018328608 0 -0.0025533562644982945 0.00050022899071582071 0 -0.0025452957399267405 0.00049169018796683711 0 -0.0029942858772565154 0.00047008867957683877 0 -0.0026449311679451045 0.00059844852606461441 0 -0.0026449311679451045 0.00059844852606461441 0 -0.0025735839648612846 0.00051377372747695761 0 -0.0040378453474003559 -0.00020808219449067772 0 -0.0038472923226348927 -0.00025641872685948125 0 -0.0035337738859888761 -0.000179542135066655 0 -0.0036003041113766574 -0.00017881809302063784 0 -0.0035393946165595343 -0.00013368349557170366 0 -0.0040378453474003559 -0.00020808219449067772 0 -0.003634936044449769 -8.0775994300987829e-05 0 -0.003798846826841173 2.2942180980991293e-05 0 -0.0037591879189599908 -2.707283236286318e-07 0 -0.0037542958309565917 -5.1377631528231422e-05 0 -0.0037059523502569235 -3.5756369188227496e-05 0 -0.0037591879189599908 -2.707283236286318e-07 0 -0.0037542958309565917 -5.1377631528231422e-05 0 -0.0037178468555485312 1.3992489219121252e-05 0 -0.003798846826841173 2.2942180980991293e-05 0 -0.0037591879189599908 -2.707283236286318e-07 0 -0.0037178468555485312 1.3992489219121252e-05 0 -0.0037059523502569235 -3.5756369188227496e-05 0 -0.0037591879189599908 -2.707283236286318e-07 0 -0.0034489985764954638 6.3145159882627245e-05 0 -0.0034991735362331212 -2.4624661841059554e-05 0 -0.0037542958309565917 -5.1377631528231422e-05 0 -0.0037144197483858941 -7.595008076569905e-05 0 -0.0037094979600116613 -0.0001166253695211539 0 -0.0037059523502569235 -3.5756369188227496e-05 0 -0.0037542958309565917 -5.1377631528231422e-05 0 -0.0037144197483858941 -7.595008076569905e-05 0 -0.0035913356327432282 -0.00010061070105305789 0 -0.0035393946165595343 -0.00013368349557170366 0 -0.0035567031145303267 -7.1361419090489603e-05 0 -0.0037059523502569235 -3.5756369188227496e-05 0 -0.0037144197483858941 -7.595008076569905e-05 0 -0.0036872200348598973 -0.00010985398730063387 0 -0.003634936044449769 -8.0775994300987829e-05 0 -0.0036446585939968342 -9.8761163390468349e-05 0 -0.0037144197483858941 -7.595008076569905e-05 0 -0.0036872200348598973 -0.00010985398730063387 0 -0.0037094979600116613 -0.0001166253695211539 0 -0.0032552954705574581 7.2225986696663861e-05 0 -0.0032737408418715558 1.219642845342784e-05 0 -0.0033305986984301416 9.3286490151314055e-05 0 -0.0033058622345466656 0.00015364336527251527 0 -0.0032552954705574581 7.2225986696663861e-05 0 -0.0033305986984301416 9.3286490151314055e-05 0 -0.002512163911546642 0.0002796994371592513 0 -0.0029677079331182537 0.0002628466156575002 0 -0.0032552954705574581 7.2225986696663861e-05 0 -0.0032737408418715558 1.219642845342784e-05 0 -0.0032087756609328706 -1.1207622268387706e-05 0 -0.0034991735362331212 -2.4624661841059554e-05 0 -0.0033780390534532715 -5.9302132844589085e-05 0 -0.0036446585939968342 -9.8761163390468349e-05 0 -0.0033780390534532715 -5.9302132844589085e-05 0 -0.002512163911546642 0.0002796994371592513 0 -0.0033780390534532715 -5.9302132844589085e-05 0 -0.0036872200348598973 -0.00010985398730063387 0 -0.0037094979600116613 -0.0001166253695211539 0 -0.0036665819767614225 -0.00017713957566254469 0 -0.0025674309704775034 0.00046482362555490535 0 -0.0025441572513644484 0.00046899479645949328 0 -0.0025344310908001827 0.00044829463666616154 0 -0.0023161227932291836 0.00057905944103422394 0 -0.0021286513007265917 0.00057185466606915589 0 -0.0025674309704775034 0.00046482362555490535 0 -0.0025452957399267405 0.00049169018796683711 0 -0.0025441572513644484 0.00046899479645949328 0 -0.0025452957399267405 0.00049169018796683711 0 -0.0025441572513644484 0.00046899479645949328 0 -0.0025235014207237727 0.0004697215733676294 0 -0.0025441572513644484 0.00046899479645949328 0 -0.0025235014207237727 0.0004697215733676294 0 -0.0025344310908001827 0.00044829463666616154 0 -0.0024980892340591902 0.00043056596578053545 0 -0.0025235014207237727 0.0004697215733676294 0 -0.0025344310908001827 0.00044829463666616154 0 -0.002512163911546642 0.0002796994371592513 0 -0.0021286513007265917 0.00057185466606915589 0 -0.0016774678470170925 0.00057428375482271679 0 -0.001856507221029704 0.00067547600643884636 0 -0.001844811447896152 0.00046674796907385165 0 -0.002061472184754747 0.00077227779060366026 0 -0.001856507221029704 0.00067547600643884636 0 -0.0020136713671298854 0.0005633959774423526 0 -0.001856507221029704 0.00067547600643884636 0 -0.0020136713671298854 0.0005633959774423526 0 -0.001844811447896152 0.00046674796907385165 0 -0.0020136713671298854 0.0005633959774423526 0 -0.001844811447896152 0.00046674796907385165 0 -0.0020148295485787632 0.00040083802250386697 0 -0.001844811447896152 0.00046674796907385165 0 -0.001804781600041702 0.00037032942824955737 0 -0.001887040515006543 0.00034488573175626931 0 -0.001804781600041702 0.00037032942824955737 0 -0.001797855256320252 0.00028500755429802029 0 -0.0017224718479935306 0.00037921206678486152 0 -0.001844811447896152 0.00046674796907385165 0 -0.001804781600041702 0.00037032942824955737 0 -0.0017224718479935306 0.00037921206678486152 0 -0.001797855256320252 0.00028500755429802029 0 -0.001887040515006543 0.00034488573175626931 0 -0.001873400074221238 0.00025655280364208144 0 -0.001804781600041702 0.00037032942824955737 0 -0.001797855256320252 0.00028500755429802029 0 -0.001887040515006543 0.00034488573175626931 0 -0.0019855825183279197 0.00026994648694028391 0 -0.001887040515006543 0.00034488573175626931 0 -0.001873400074221238 0.00025655280364208144 0 -0.001844811447896152 0.00046674796907385165 0 -0.0020148295485787632 0.00040083802250386697 0 -0.001887040515006543 0.00034488573175626931 0 -0.0019855825183279197 0.00026994648694028391 0 -0.0020148295485787632 0.00040083802250386697 0 -0.0020840390018283883 0.00033734756360776126 0 -0.0019855825183279197 0.00026994648694028391 0 -0.0020148295485787632 0.00040083802250386697 0 -0.001887040515006543 0.00034488573175626931 0 -0.0026922587401544762 9.6311043200403426e-05 0 -0.0027328250417135609 0.00010736919830889244 0 -0.0027182026234813437 0.00013172701801349615 0 -0.002512163911546642 0.0002796994371592513 0 -0.0020724003341032731 0.00024681275349193709 0 -0.0027365308091498054 0.00013392684562071622 0 -0.0027328250417135609 0.00010736919830889244 0 -0.0027182026234813437 0.00013172701801349615 0 -0.0027365308091498054 0.00013392684562071622 0 -0.0027182026234813437 0.00013172701801349615 0 -0.0027369917912210676 0.00013696338963742008 0 -0.0031430989020912498 4.9240147949706647e-05 0 -0.0033780390534532715 -5.9302132844589085e-05 0 -0.0016774678470170925 0.00057428375482271679 0 -0.001844811447896152 0.00046674796907385165 0 -0.0017224718479935306 0.00037921206678486152 0 -0.0016774678470170925 0.00057428375482271679 0 -0.001602710673633864 0.00041077149044481425 0 -0.0017224718479935306 0.00037921206678486152 0 -0.001602710673633864 0.00041077149044481425 0 -0.0017224718479935306 0.00037921206678486152 0 -0.0016576260506830233 0.00027131825077612718 0 -0.001797855256320252 0.00028500755429802029 0 -0.0017224718479935306 0.00037921206678486152 0 -0.0017299887368160403 0.00022947177705317926 0 -0.0017224718479935306 0.00037921206678486152 0 -0.0016576260506830233 0.00027131825077612718 0 -0.0017299887368160403 0.00022947177705317926 0 -0.0028001138457846866 8.1729607325155677e-05 0 -0.0020724003341032731 0.00024681275349193709 0 -0.001558713972057407 0.00027858259461575554 0 -0.001602710673633864 0.00041077149044481425 0 -0.0016576260506830233 0.00027131825077612718 0 -0.0027429368729251966 0.00016411850565259205 0 -0.0027182026234813437 0.00013172701801349615 0 -0.0027369917912210676 0.00013696338963742008 0 -0.0031430989020912498 4.9240147949706647e-05 0 -0.0031349486972112274 5.592509114104052e-05 0 -0.001558713972057407 0.00027858259461575554 0 -0.0016576260506830233 0.00027131825077612718 0 -0.0016587588925372156 0.0001737798923587776 0 -0.0016576260506830233 0.00027131825077612718 0 -0.0017299887368160403 0.00022947177705317926 0 -0.0016587588925372156 0.0001737798923587776 0 -0.0017299887368160403 0.00022947177705317926 0 -0.0016587588925372156 0.0001737798923587776 0 -0.0017381233483418665 0.0001331335694565434 0 -0.0016587588925372156 0.0001737798923587776 0 -0.0017381233483418665 0.0001331335694565434 0 -0.0016697231925717113 0.00010376121527404312 0 -0.001558713972057407 0.00027858259461575554 0 -0.0015638051153240896 0.00014066273705559874 0 -0.0016587588925372156 0.0001737798923587776 0 -0.0015638051153240896 0.00014066273705559874 0 -0.0016587588925372156 0.0001737798923587776 0 -0.0016697231925717113 0.00010376121527404312 0 -0.0018912240415135428 0.00018295802412338677 0 -0.001873400074221238 0.00025655280364208144 0 -0.0018049887119860018 0.00019806886568962413 0 -0.0018912240415135428 0.00018295802412338677 0 -0.0019297685271375377 0.00014740112518956983 0 -0.0018626888019874959 0.00012735571228655694 0 -0.0018912240415135428 0.00018295802412338677 0 -0.0019297685271375377 0.00014740112518956983 0 -0.0019871815746454347 0.00019635937750597476 0 -0.0019855825183279197 0.00026994648694028391 0 -0.0018912240415135428 0.00018295802412338677 0 -0.0019871815746454347 0.00019635937750597476 0 -0.0019855825183279197 0.00026994648694028391 0 -0.0019871815746454347 0.00019635937750597476 0 -0.0020364969159167245 0.00022815157933816162 0 -0.0019855825183279197 0.00026994648694028391 0 -0.0018912240415135428 0.00018295802412338677 0 -0.001873400074221238 0.00025655280364208144 0 -0.0017299887368160403 0.00022947177705317926 0 -0.0018049887119860018 0.00019806886568962413 0 -0.0017381233483418665 0.0001331335694565434 0 -0.001797855256320252 0.00028500755429802029 0 -0.001873400074221238 0.00025655280364208144 0 -0.0018049887119860018 0.00019806886568962413 0 -0.001797855256320252 0.00028500755429802029 0 -0.0017299887368160403 0.00022947177705317926 0 -0.0018049887119860018 0.00019806886568962413 0 -0.0018912240415135428 0.00018295802412338677 0 -0.0018049887119860018 0.00019806886568962413 0 -0.0018107838517045474 0.00012548432802488236 0 -0.0018049887119860018 0.00019806886568962413 0 -0.0018107838517045474 0.00012548432802488236 0 -0.0017381233483418665 0.0001331335694565434 0 -0.0018107838517045474 0.00012548432802488236 0 -0.0017381233483418665 0.0001331335694565434 0 -0.0017814423751338615 8.8730763887823181e-05 0 -0.0018107838517045474 0.00012548432802488236 0 -0.0018153758074985525 5.5677170539658928e-05 0 -0.0017814423751338615 8.8730763887823181e-05 0 -0.0018346625154466868 4.453791750172293e-05 0 -0.0019813154855646497 6.1602090909989739e-05 0 -0.0018107838517045474 0.00012548432802488236 0 -0.0018153758074985525 5.5677170539658928e-05 0 -0.0018626888019874959 0.00012735571228655694 0 -0.0019297685271375377 0.00014740112518956983 0 -0.0018153758074985525 5.5677170539658928e-05 0 -0.0020982472935662244 0.00017787982930507509 0 -0.0018153758074985525 5.5677170539658928e-05 0 -0.0018142002065604755 1.1478504424112955e-05 0 -0.0018639455035956191 -7.268160325212656e-05 0 -0.0018912240415135428 0.00018295802412338677 0 -0.0018107838517045474 0.00012548432802488236 0 -0.0018626888019874959 0.00012735571228655694 0 -0.0019297685271375377 0.00014740112518956983 0 -0.0018153758074985525 5.5677170539658928e-05 0 -0.0018626888019874959 0.00012735571228655694 0 -0.0018153758074985525 5.5677170539658928e-05 0 -0.0018142002065604755 1.1478504424112955e-05 0 -0.0017792059365681126 7.0746191769739469e-05 0 -0.0018142002065604755 1.1478504424112955e-05 0 -0.0017022130097965758 2.1024790614793574e-05 0 -0.0017792059365681126 7.0746191769739469e-05 0 -0.0018142002065604755 1.1478504424112955e-05 0 -0.0017022130097965758 2.1024790614793574e-05 0 -0.0017078321442131198 -2.5367893285622019e-05 0 -0.0017078321442131198 -2.5367893285622019e-05 0 -0.0016399967608611407 -4.5267183488053282e-05 0 -0.001679205339291337 -9.0873652462187843e-05 0 -0.0017022130097965758 2.1024790614793574e-05 0 -0.0017078321442131198 -2.5367893285622019e-05 0 -0.0016399967608611407 -4.5267183488053282e-05 0 -0.0018142002065604755 1.1478504424112955e-05 0 -0.0017078321442131198 -2.5367893285622019e-05 0 -0.001679205339291337 -9.0873652462187843e-05 0 -0.0018216852514791088 -3.9746405993266053e-06 0 -0.0017968365941685273 -6.9387633103351175e-05 0 -0.0017022130097965758 2.1024790614793574e-05 0 -0.0016399967608611407 -4.5267183488053282e-05 0 -0.0015370623764101431 -3.2131658929609892e-05 0 -0.0016399967608611407 -4.5267183488053282e-05 0 -0.0015370623764101431 -3.2131658929609892e-05 0 -0.0015899078473686778 -7.4346913816993791e-05 0 -0.0015370623764101431 -3.2131658929609892e-05 0 -0.0015899078473686778 -7.4346913816993791e-05 0 -0.001544364323337264 -7.1045837886549851e-05 0 -0.0015899078473686778 -7.4346913816993791e-05 0 -0.0015852986554620147 -0.00010354671558412233 0 -0.001544364323337264 -7.1045837886549851e-05 0 -0.0016399967608611407 -4.5267183488053282e-05 0 -0.0015899078473686778 -7.4346913816993791e-05 0 -0.001679205339291337 -9.0873652462187843e-05 0 -0.0015899078473686778 -7.4346913816993791e-05 0 -0.001679205339291337 -9.0873652462187843e-05 0 -0.0015852986554620147 -0.00010354671558412233 0 -0.0017968365941685273 -6.9387633103351175e-05 0 -0.0018702584306932821 -5.6119428105924458e-05 0 -0.0018142002065604755 1.1478504424112955e-05 0 -0.0018639455035956191 -7.268160325212656e-05 0 -0.001882568221223121 -9.0257517761348796e-05 0 -0.0019297685271375377 0.00014740112518956983 0 -0.0019871815746454347 0.00019635937750597476 0 -0.0020982472935662244 0.00017787982930507509 0 -0.0018639455035956191 -7.268160325212656e-05 0 -0.001882568221223121 -9.0257517761348796e-05 0 -0.0021387761918032944 8.0341034117133759e-06 0 -0.0019855825183279197 0.00026994648694028391 0 -0.0020364969159167245 0.00022815157933816162 0 -0.0020798482062061403 0.00026571182562892359 0 -0.0019871815746454347 0.00019635937750597476 0 -0.0020982472935662244 0.00017787982930507509 0 -0.0020364969159167245 0.00022815157933816162 0 -0.0020982472935662244 0.00017787982930507509 0 -0.0020364969159167245 0.00022815157933816162 0 -0.0020798482062061403 0.00026571182562892359 0 -0.0019855825183279197 0.00026994648694028391 0 -0.0020798482062061403 0.00026571182562892359 0 -0.0020840390018283883 0.00033734756360776126 0 -0.0020982472935662244 0.00017787982930507509 0 -0.0020798482062061403 0.00026571182562892359 0 -0.0022008748410720117 0.00033163257610839488 0 -0.0020148295485787632 0.00040083802250386697 0 -0.0020840390018283883 0.00033734756360776126 0 -0.0021545713827917918 0.00044001323286284338 0 -0.0022008748410720117 0.00033163257610839488 0 -0.0023638078665087921 0.00039117416730254692 0 -0.0021545713827917918 0.00044001323286284338 0 -0.0020840390018283883 0.00033734756360776126 0 -0.0022008748410720117 0.00033163257610839488 0 -0.0021545713827917918 0.00044001323286284338 0 -0.0020798482062061403 0.00026571182562892359 0 -0.0020840390018283883 0.00033734756360776126 0 -0.0022008748410720117 0.00033163257610839488 0 -0.0020982472935662244 0.00017787982930507509 0 -0.0022008748410720117 0.00033163257610839488 0 -0.0023972939336017042 0.00038944686297581337 0 -0.0021387761918032944 8.0341034117133759e-06 0 -0.0022116512414470644 0.00020254178294327321 0 -0.0024493715653672653 0.00020924572776032899 0 -0.0019813154855646497 6.1602090909989739e-05 0 -0.0023045566933660947 0.00029293726113563634 0 -0.0018639455035956191 -7.268160325212656e-05 0 -0.0021387761918032944 8.0341034117133759e-06 0 -0.0022116512414470644 0.00020254178294327321 0 -0.0022008748410720117 0.00033163257610839488 0 -0.0023972939336017042 0.00038944686297581337 0 -0.0023638078665087921 0.00039117416730254692 0 -0.0022815270371046074 0.00054042061804376634 0 -0.0023689666046883334 0.00038731433768842229 0 -0.0024113721097408108 0.00045336109620756611 0 -0.0023638078665087921 0.00039117416730254692 0 -0.002422356350932377 0.0004336839458874115 0 -0.0025458744761485993 0.00045122740644421559 0 -0.0023972939336017042 0.00038944686297581337 0 -0.002422356350932377 0.0004336839458874115 0 -0.0023972939336017042 0.00038944686297581337 0 -0.0023638078665087921 0.00039117416730254692 0 -0.002422356350932377 0.0004336839458874115 0 -0.0021767061801383799 0.00060307111858803875 0 -0.0020136713671298854 0.0005633959774423526 0 -0.0021545713827917918 0.00044001323286284338 0 -0.0021767061801383799 0.00060307111858803875 0 -0.0023638078665087921 0.00039117416730254692 0 -0.0021545713827917918 0.00044001323286284338 0 -0.0020136713671298854 0.0005633959774423526 0 -0.0020148295485787632 0.00040083802250386697 0 -0.0021545713827917918 0.00044001323286284338 0 -0.0024128007147182088 0.0002101101028890601 0 -0.0020772098543959182 0.00012863293534749235 0 -0.002117391193847051 4.45395894024295e-05 0 -0.0025397221871109104 0.00038688357787060865 0 -0.0022749059998733129 0.00017818086071659577 0 -0.0023308746744996819 0.0003803971349788407 0 -0.0024128007147182088 0.0002101101028890601 0 -0.0020772098543959182 0.00012863293534749235 0 -0.0024453342000215496 0.00020428717112266301 0 -0.0017214293188303584 -7.200940125083278e-05 0 -0.0027373100196040646 0.00035612245617851505 0 -0.0026800786336876378 0.00038764453990309996 0 -0.0027183184099497603 0.00030924501301717342 0 -0.0025397221871109104 0.00038688357787060865 0 -0.0024453342000215496 0.00020428717112266301 0 -0.0025458744761485993 0.00045122740644421559 0 -0.0022116512414470644 0.00020254178294327321 0 -0.0024493715653672653 0.00020924572776032899 0 -0.0025259813825495893 0.00045047482736293426 0 -0.0023045566933660947 0.00029293726113563634 0 -0.0025458744761485993 0.00045122740644421559 0 -0.0026779171822997909 0.00040203769115722883 0 -0.0024493715653672653 0.00020924572776032899 0 -0.0018702584306932821 -5.6119428105924458e-05 0 -0.0017214293188303584 -7.200940125083278e-05 0 -0.0015852986554620147 -0.00010354671558412233 0 -0.0015479963165879575 -8.2326263645011365e-05 0 -0.001544364323337264 -7.1045837886549851e-05 0 -0.0018280037211596285 -0.00011931081072119309 0 -0.0020772098543959182 0.00012863293534749235 0 -0.002117391193847051 4.45395894024295e-05 0 -0.0018702584306932821 -5.6119428105924458e-05 0 -0.0022749059998733129 0.00017818086071659577 0 -0.0015479963165879575 -8.2326263645011365e-05 0 -0.0015434237868402652 -7.0729669359081393e-05 0 -0.001544364323337264 -7.1045837886549851e-05 0 -0.0015499668865401601 -7.2754182303951342e-05 0 -0.0015479963165879575 -8.2326263645011365e-05 0 -0.0015434237868402652 -7.0729669359081393e-05 0 -0.0015434237868402652 -7.0729669359081393e-05 0 -0.001544364323337264 -7.1045837886549851e-05 0 -0.0015316862897818639 -5.6461516956074363e-05 0 -0.0015472140477056167 -6.2770829753214146e-05 0 -0.0015434237868402652 -7.0729669359081393e-05 0 -0.0015316862897818639 -5.6461516956074363e-05 0 -0.0015370623764101431 -3.2131658929609892e-05 0 -0.001544364323337264 -7.1045837886549851e-05 0 -0.0015316862897818639 -5.6461516956074363e-05 0 -0.0015370623764101431 -3.2131658929609892e-05 0 -0.0015316862897818639 -5.6461516956074363e-05 0 -0.0014891772157174586 -7.0601642324081128e-05 0 -0.0015316862897818639 -5.6461516956074363e-05 0 -0.0015152056209159202 -8.6220783971779907e-05 0 -0.0014891772157174586 -7.0601642324081128e-05 0 -0.0015316862897818639 -5.6461516956074363e-05 0 -0.0015152056209159202 -8.6220783971779907e-05 0 -0.0015451179812987215 -7.9926885368895596e-05 0 -0.0014891772157174586 -7.0601642324081128e-05 0 -0.0014907884576557417 -0.0001308067433611378 0 -0.0014427917696203864 -0.00013504467849137711 0 -0.0015152056209159202 -8.6220783971779907e-05 0 -0.0014891772157174586 -7.0601642324081128e-05 0 -0.0014907884576557417 -0.0001308067433611378 0 -0.0015152056209159202 -8.6220783971779907e-05 0 -0.0014907884576557417 -0.0001308067433611378 0 -0.0015413556173472431 -0.00012338889155351631 0 -0.0014907884576557417 -0.0001308067433611378 0 -0.0014427917696203864 -0.00013504467849137711 0 -0.0014444978131880467 -0.00021511244380383428 0 -0.0014427917696203864 -0.00013504467849137711 0 -0.0014444978131880467 -0.00021511244380383428 0 -0.00137648664422212 -0.00018009731488252811 0 -0.0014444978131880467 -0.00021511244380383428 0 -0.0014593087551571095 -0.00027473328113496691 0 -0.0014997874834634566 -0.00019182799804452118 0 -0.0014907884576557417 -0.0001308067433611378 0 -0.0014444978131880467 -0.00021511244380383428 0 -0.0014997874834634566 -0.00019182799804452118 0 -0.00137648664422212 -0.00018009731488252811 0 -0.0013070510414603992 -0.00015168942802369561 0 -0.0014011478486684607 -7.7064544967439617e-05 0 -0.0014427917696203864 -0.00013504467849137711 0 -0.00137648664422212 -0.00018009731488252811 0 -0.0014011478486684607 -7.7064544967439617e-05 0 -0.00137648664422212 -0.00018009731488252811 0 -0.0013070510414603992 -0.00015168942802369561 0 -0.0013158964245850765 -0.00023299175229232481 0 -0.0014444978131880467 -0.00021511244380383428 0 -0.00137648664422212 -0.00018009731488252811 0 -0.0013820972190754053 -0.00025280035145490594 0 -0.00137648664422212 -0.00018009731488252811 0 -0.0013820972190754053 -0.00025280035145490594 0 -0.0013158964245850765 -0.00023299175229232481 0 -0.00153835023111992 -5.4725069212197099e-05 0 -0.0015603105995780453 3.132776021801618e-06 0 -0.0017755570012446466 4.6697206870955652e-05 0 -0.0017280044394284975 0.00010237190376113128 0 -0.0017698404108867929 7.5024604108614267e-05 0 -0.0014891772157174586 -7.0601642324081128e-05 0 -0.0014427917696203864 -0.00013504467849137711 0 -0.0014011478486684607 -7.7064544967439617e-05 0 -0.0015342580141958289 -3.6399235667125702e-05 0 -0.0015603105995780453 3.132776021801618e-06 0 -0.0017022130097965758 2.1024790614793574e-05 0 -0.0015370623764101431 -3.2131658929609892e-05 0 -0.0017280044394284975 0.00010237190376113128 0 -0.0015370623764101431 -3.2131658929609892e-05 0 -0.0014891772157174586 -7.0601642324081128e-05 0 -0.0014011478486684607 -7.7064544967439617e-05 0 -0.0017280044394284975 0.00010237190376113128 0 -0.0017792059365681126 7.0746191769739469e-05 0 -0.0017698404108867929 7.5024604108614267e-05 0 -0.0017022130097965758 2.1024790614793574e-05 0 -0.0017280044394284975 0.00010237190376113128 0 -0.0017792059365681126 7.0746191769739469e-05 0 -0.0018153758074985525 5.5677170539658928e-05 0 -0.0017792059365681126 7.0746191769739469e-05 0 -0.0017864267679451578 7.5512335398099787e-05 0 -0.0017792059365681126 7.0746191769739469e-05 0 -0.0017864267679451578 7.5512335398099787e-05 0 -0.0017698404108867929 7.5024604108614267e-05 0 -0.0018153758074985525 5.5677170539658928e-05 0 -0.0017864267679451578 7.5512335398099787e-05 0 -0.0017814423751338615 8.8730763887823181e-05 0 -0.0017381233483418665 0.0001331335694565434 0 -0.0017814423751338615 8.8730763887823181e-05 0 -0.0017450792279981842 8.3117698087506405e-05 0 -0.0017864267679451578 7.5512335398099787e-05 0 -0.0017814423751338615 8.8730763887823181e-05 0 -0.0017450792279981842 8.3117698087506405e-05 0 -0.0017864267679451578 7.5512335398099787e-05 0 -0.0017450792279981842 8.3117698087506405e-05 0 -0.0017698404108867929 7.5024604108614267e-05 0 -0.0017450792279981842 8.3117698087506405e-05 0 -0.0017698404108867929 7.5024604108614267e-05 0 -0.0016985926159508548 6.0900950463977898e-05 0 -0.0017698404108867929 7.5024604108614267e-05 0 -0.0016985926159508548 6.0900950463977898e-05 0 -0.0017406058883354912 4.8568328606542726e-05 0 -0.0015638051153240896 0.00014066273705559874 0 -0.0016697231925717113 0.00010376121527404312 0 -0.0016119236774735251 6.4890882985359346e-05 0 -0.0017381233483418665 0.0001331335694565434 0 -0.0017450792279981842 8.3117698087506405e-05 0 -0.0016697231925717113 0.00010376121527404312 0 -0.0017450792279981842 8.3117698087506405e-05 0 -0.0016697231925717113 0.00010376121527404312 0 -0.0016985926159508548 6.0900950463977898e-05 0 -0.0016697231925717113 0.00010376121527404312 0 -0.0016985926159508548 6.0900950463977898e-05 0 -0.0016119236774735251 6.4890882985359346e-05 0 -0.0016119236774735251 6.4890882985359346e-05 0 -0.0016149501567810475 2.0109145253782509e-05 0 -0.0015604366479528627 3.368408331966965e-05 0 -0.0016985926159508548 6.0900950463977898e-05 0 -0.0016149501567810475 2.0109145253782509e-05 0 -0.0016958313603797873 1.1934851176478026e-05 0 -0.0016985926159508548 6.0900950463977898e-05 0 -0.0016119236774735251 6.4890882985359346e-05 0 -0.0016149501567810475 2.0109145253782509e-05 0 -0.0016149501567810475 2.0109145253782509e-05 0 -0.0016958313603797873 1.1934851176478026e-05 0 -0.0016669771901349374 -5.1945978980408151e-05 0 -0.0016149501567810475 2.0109145253782509e-05 0 -0.0015754820763792556 -5.4725786736827102e-05 0 -0.0016669771901349374 -5.1945978980408151e-05 0 -0.0016149501567810475 2.0109145253782509e-05 0 -0.0015604366479528627 3.368408331966965e-05 0 -0.0015211288920790398 1.2808102277852935e-05 0 -0.0016149501567810475 2.0109145253782509e-05 0 -0.0015754820763792556 -5.4725786736827102e-05 0 -0.0015211288920790398 1.2808102277852935e-05 0 -0.0017755570012446466 4.6697206870955652e-05 0 -0.0017698404108867929 7.5024604108614267e-05 0 -0.0017406058883354912 4.8568328606542726e-05 0 -0.0017755570012446466 4.6697206870955652e-05 0 -0.0017406058883354912 4.8568328606542726e-05 0 -0.0017569762229169819 -4.3082209088125569e-05 0 -0.0016985926159508548 6.0900950463977898e-05 0 -0.0017406058883354912 4.8568328606542726e-05 0 -0.0016958313603797873 1.1934851176478026e-05 0 -0.0016958313603797873 1.1934851176478026e-05 0 -0.0017569762229169819 -4.3082209088125569e-05 0 -0.0016669771901349374 -5.1945978980408151e-05 0 -0.0017406058883354912 4.8568328606542726e-05 0 -0.0016958313603797873 1.1934851176478026e-05 0 -0.0017569762229169819 -4.3082209088125569e-05 0 -0.0013070510414603992 -0.00015168942802369561 0 -0.0012245583677050267 -0.00023895746621128961 0 -0.0013158964245850765 -0.00023299175229232481 0 -0.00153835023111992 -5.4725069212197099e-05 0 -0.0014919496830154543 -0.00014393891653812177 0 -0.0012245583677050267 -0.00023895746621128961 0 -0.0012132160667969237 -0.0003202487185860698 0 -0.0012718798759624611 -0.00028279334209163105 0 -0.0012245583677050267 -0.00023895746621128961 0 -0.0013158964245850765 -0.00023299175229232481 0 -0.0012718798759624611 -0.00028279334209163105 0 -0.0014919496830154543 -0.00014393891653812177 0 -0.0014453450744631533 -0.00025250852019120552 0 -0.0017569762229169819 -4.3082209088125569e-05 0 -0.0017181743242218224 -0.00018118355482903115 0 -0.0016669771901349374 -5.1945978980408151e-05 0 -0.0011829313188009823 -0.00032589727577880568 0 -0.0012132160667969237 -0.0003202487185860698 0 -0.0011899754237211422 -0.00033664378387559922 0 -0.0012245583677050267 -0.00023895746621128961 0 -0.0011829313188009823 -0.00032589727577880568 0 -0.0012132160667969237 -0.0003202487185860698 0 -0.0012132160667969237 -0.0003202487185860698 0 -0.0011903773730881314 -0.00035065776807993439 0 -0.0012664682183196191 -0.0003198696266962296 0 -0.0012132160667969237 -0.0003202487185860698 0 -0.0012718798759624611 -0.00028279334209163105 0 -0.0012664682183196191 -0.0003198696266962296 0 -0.0015754820763792556 -5.4725786736827102e-05 0 -0.0015272854277023479 -0.00016331750944135605 0 -0.0014571425962659574 -7.747355183796101e-05 0 -0.0015754820763792556 -5.4725786736827102e-05 0 -0.0016669771901349374 -5.1945978980408151e-05 0 -0.0016224835889225744 -0.000136410370390654 0 -0.0017181743242218224 -0.00018118355482903115 0 -0.0016224835889225744 -0.000136410370390654 0 -0.0016003288336670959 -0.00023360822011767653 0 -0.0017181743242218224 -0.00018118355482903115 0 -0.0016669771901349374 -5.1945978980408151e-05 0 -0.0016224835889225744 -0.000136410370390654 0 -0.0015754820763792556 -5.4725786736827102e-05 0 -0.0016224835889225744 -0.000136410370390654 0 -0.0015272854277023479 -0.00016331750944135605 0 -0.0016224835889225744 -0.000136410370390654 0 -0.0015272854277023479 -0.00016331750944135605 0 -0.0016003288336670959 -0.00023360822011767653 0 -0.0015272854277023479 -0.00016331750944135605 0 -0.0016003288336670959 -0.00023360822011767653 0 -0.0014770885961671726 -0.00031686935669256058 0 -0.0016003288336670959 -0.00023360822011767653 0 -0.0016363323475173223 -0.00038500577120532682 0 -0.0014770885961671726 -0.00031686935669256058 0 -0.0011829313188009823 -0.00032589727577880568 0 -0.0012142791587669017 -0.00032771860919865735 0 -0.0011899754237211422 -0.00033664378387559922 0 -0.0017181743242218224 -0.00018118355482903115 0 -0.0016003288336670959 -0.00023360822011767653 0 -0.0016363323475173223 -0.00038500577120532682 0 -0.0014453450744631533 -0.00025250852019120552 0 -0.001463239778435359 -0.00037125685223054187 0 -0.0012142791587669017 -0.00032771860919865735 0 -0.0011822536166271984 -0.00031508649325278487 0 -0.0012093250460102688 -0.00029015348963203844 0 -0.0016363323475173223 -0.00038500577120532682 0 -0.0014935814679688621 -0.0004705665527392308 0 -0.0015160726436673868 -0.00059390740274351927 0 -0.0016363323475173223 -0.00038500577120532682 0 -0.0014935814679688621 -0.0004705665527392308 0 -0.0014770885961671726 -0.00031686935669256058 0 -0.0011903773730881314 -0.00035065776807993439 0 -0.0011553395957860241 -0.00032908094358338443 0 -0.0011490632757434013 -0.00036863014797922252 0 -0.0012132160667969237 -0.0003202487185860698 0 -0.0011903773730881314 -0.00035065776807993439 0 -0.0011899754237211422 -0.00033664378387559922 0 -0.0011903773730881314 -0.00035065776807993439 0 -0.0011899754237211422 -0.00033664378387559922 0 -0.0011822536166271984 -0.00031508649325278487 0 -0.0012142791587669017 -0.00032771860919865735 0 -0.0011899754237211422 -0.00033664378387559922 0 -0.0011822536166271984 -0.00031508649325278487 0 -0.0011822536166271984 -0.00031508649325278487 0 -0.0011553395957860241 -0.00032908094358338443 0 -0.0011363219306531945 -0.00029840975475054453 0 -0.0011903773730881314 -0.00035065776807993439 0 -0.0011822536166271984 -0.00031508649325278487 0 -0.0011553395957860241 -0.00032908094358338443 0 -0.0011553395957860241 -0.00032908094358338443 0 -0.0011085881723194287 -0.00031868628711256473 0 -0.0011363219306531945 -0.00029840975475054453 0 -0.0011085881723194287 -0.00031868628711256473 0 -0.0010824837060445492 -0.00027842703226204247 0 -0.0011363219306531945 -0.00029840975475054453 0 -0.0011085881723194287 -0.00031868628711256473 0 -0.0010709397515553051 -0.00030583250183601732 0 -0.0010824837060445492 -0.00027842703226204247 0 -0.0011553395957860241 -0.00032908094358338443 0 -0.0011085881723194287 -0.00031868628711256473 0 -0.0011490632757434013 -0.00036863014797922252 0 -0.0011490632757434013 -0.00036863014797922252 0 -0.001111869024271082 -0.00039612536448817629 0 -0.0011210535418446574 -0.00041754762259715113 0 -0.0011903773730881314 -0.00035065776807993439 0 -0.0011490632757434013 -0.00036863014797922252 0 -0.001111869024271082 -0.00039612536448817629 0 -0.0011903773730881314 -0.00035065776807993439 0 -0.0013389376847492396 -0.00035855355269592202 0 -0.0012664682183196191 -0.0003198696266962296 0 -0.0011477786731578703 -0.00037522036561679124 0 -0.0010925459329927012 -0.00037794302642000117 0 -0.0011085881723194287 -0.00031868628711256473 0 -0.0011490632757434013 -0.00036863014797922252 0 -0.0010625540053564406 -0.00034250998882995743 0 -0.0011912822834481735 -0.00035676572283076268 0 -0.0012253645881748505 -0.00037228835603398704 0 -0.0012253645881748505 -0.00037228835603398704 0 -0.0013235678942480811 -0.00035180718266193412 0 -0.001111869024271082 -0.00039612536448817629 0 -0.0011210535418446574 -0.00041754762259715113 0 -0.0012134545802535259 -0.00036773132959825228 0 -0.0010625540053564406 -0.00034250998882995743 0 -0.0010709397515553051 -0.00030583250183601732 0 -0.0010460457593265168 -0.00030692995714046671 0 -0.0011085881723194287 -0.00031868628711256473 0 -0.0010625540053564406 -0.00034250998882995743 0 -0.0010709397515553051 -0.00030583250183601732 0 -0.0010227807189997198 -0.00032135722674865764 0 -0.0010460457593265168 -0.00030692995714046671 0 -0.0010236921872109246 -0.00028709545386652321 0 -0.0010625540053564406 -0.00034250998882995743 0 -0.0010227807189997198 -0.00032135722674865764 0 -0.0010460457593265168 -0.00030692995714046671 0 -0.0010925459329927012 -0.00037794302642000117 0 -0.0011574556893202363 -0.00040476212641213648 0 -0.0011574556893202363 -0.00040476212641213648 0 -0.0010149357789175999 -0.00043665398815481731 0 -0.0012260105823294262 -0.00047809338643591204 0 -0.0013716399928942334 -0.00053600327332353358 0 -0.0013555503984295735 -0.00047137908247302289 0 -0.0010227807189997198 -0.00032135722674865764 0 -0.0010034772019236013 -0.00029431180396560563 0 -0.00098739082848773706 -0.00031103345004129872 0 -0.0012260105823294262 -0.00047809338643591204 0 -0.0013229041947954267 -0.00041699939290243155 0 -0.0013555503984295735 -0.00047137908247302289 0 -0.0012260105823294262 -0.00047809338643591204 0 -0.0013229041947954267 -0.00041699939290243155 0 -0.0012134545802535259 -0.00036773132959825228 0 -0.0013235678942480811 -0.00035180718266193412 0 -0.0014423738493867945 -0.00033883594393792132 0 -0.0013229041947954267 -0.00041699939290243155 0 -0.0012134545802535259 -0.00036773132959825228 0 -0.0014484191195841701 -0.00033918114507109227 0 -0.0011210535418446574 -0.00041754762259715113 0 -0.0012260105823294262 -0.00047809338643591204 0 -0.0012134545802535259 -0.00036773132959825228 0 -0.0014284633157346819 -0.00033154358422714882 0 -0.0014235415470115302 -0.00028115206023648698 0 -0.0013849274819742938 -0.00030139389847797182 0 -0.0014284633157346819 -0.00033154358422714882 0 -0.0014593087551571095 -0.00027473328113496691 0 -0.0014484191195841701 -0.00033918114507109227 0 -0.0014284633157346819 -0.00033154358422714882 0 -0.0014235415470115302 -0.00028115206023648698 0 -0.0014593087551571095 -0.00027473328113496691 0 -0.0014444978131880467 -0.00021511244380383428 0 -0.0014235415470115302 -0.00028115206023648698 0 -0.0014593087551571095 -0.00027473328113496691 0 -0.0014444978131880467 -0.00021511244380383428 0 -0.0014235415470115302 -0.00028115206023648698 0 -0.0013820972190754053 -0.00025280035145490594 0 -0.0014235415470115302 -0.00028115206023648698 0 -0.0013820972190754053 -0.00025280035145490594 0 -0.0013849274819742938 -0.00030139389847797182 0 -0.0013820972190754053 -0.00025280035145490594 0 -0.0013158964245850765 -0.00023299175229232481 0 -0.0013307858771270818 -0.00029685203171721599 0 -0.0013158964245850765 -0.00023299175229232481 0 -0.0013307858771270818 -0.00029685203171721599 0 -0.0012718798759624611 -0.00028279334209163105 0 -0.0013389376847492396 -0.00035855355269592202 0 -0.0013307858771270818 -0.00029685203171721599 0 -0.0012664682183196191 -0.0003198696266962296 0 -0.0013307858771270818 -0.00029685203171721599 0 -0.0012718798759624611 -0.00028279334209163105 0 -0.0012664682183196191 -0.0003198696266962296 0 -0.0013389376847492396 -0.00035855355269592202 0 -0.0013307858771270818 -0.00029685203171721599 0 -0.0013849274819742938 -0.00030139389847797182 0 -0.0013389376847492396 -0.00035855355269592202 0 -0.0014284633157346819 -0.00033154358422714882 0 -0.0013849274819742938 -0.00030139389847797182 0 -0.0013820972190754053 -0.00025280035145490594 0 -0.0013307858771270818 -0.00029685203171721599 0 -0.0013849274819742938 -0.00030139389847797182 0 -0.00172457281541861 -6.7790678020621332e-06 0 -0.0020065316651141419 -4.1322323908496163e-07 0 -0.001828929965468791 -0.00014326524712976579 0 -0.00172457281541861 -6.7790678020621332e-06 0 -0.0020065316651141419 -4.1322323908496163e-07 0 -0.001773320565215006 1.5947855108197186e-07 0 -0.00172457281541861 -6.7790678020621332e-06 0 -0.0015671428983368388 -0.00014217136217091925 0 -0.0015397549888374075 -2.4253264432582046e-05 0 -0.00172457281541861 -6.7790678020621332e-06 0 -0.001828929965468791 -0.00014326524712976579 0 -0.0015671428983368388 -0.00014217136217091925 0 -0.0021634756212596208 -2.3214151942266842e-05 0 -0.0021914904447130168 9.4814426952932597e-06 0 -0.0022345574596533868 5.1691801891755709e-06 0 -0.0021110646332168381 -0.00014674022055304796 0 -0.0021509824775066649 -0.00012281414268997074 0 -0.0021465412948825859 -0.00015153545785024584 0 -0.0019910313754695451 -7.1048581629370251e-05 0 -0.0025765168087373792 -0.00018402819202552716 0 -0.0019910313754695451 -7.1048581629370251e-05 0 -0.0018765593662188587 -0.00016245118849166946 0 -0.0020780340961731882 -3.2608302068585429e-08 0 -0.0022606602358420766 2.6310826503187609e-08 0 -0.0021914904447130168 9.4814426952932597e-06 0 -0.0019910313754695451 -7.1048581629370251e-05 0 -0.0020776044636678531 -7.365295316287883e-08 0 -0.0020069539848108966 -5.8768639611493283e-08 0 -0.0019910313754695451 -7.1048581629370251e-05 0 -0.0020072309907809348 1.0805720353014308e-09 0 -0.0020652480092825352 -2.7328660764409228e-07 0 -0.0020773276633904328 -1.3958259745700122e-09 0 -0.0021634756212596208 -2.3214151942266842e-05 0 -0.0020780340961731882 -3.2608302068585429e-08 0 -0.0021914904447130168 9.4814426952932597e-06 0 -0.0021914904447130168 9.4814426952932597e-06 0 -0.002233376342489028 -2.701191665878503e-05 0 -0.0022022345914200015 7.2385376282600374e-06 0 -0.0025423714196827017 -0.00018817866052982159 0 -0.0027468761685848588 -0.00028777699947128037 0 -0.0022612071218142899 -3.7601158397738541e-10 0 -0.0023393321350857654 -3.0055050144871617e-07 0 -0.0023522197032716965 -8.9341410696177339e-10 0 -0.0022606602358420766 2.6310826503187609e-08 0 -0.0021914904447130168 9.4814426952932597e-06 0 -0.002233376342489028 -2.701191665878503e-05 0 -0.0024217690703717833 -6.4280546987518554e-05 0 -0.0025423714196827017 -0.00018817866052982159 0 -0.002917763460420907 -0.00018505843314960417 0 -0.0025423714196827017 -0.00018817866052982159 0 -0.0031440382871153381 -0.000369345687599876 0 -0.0030832541338439517 -0.00051062312049343368 0 -0.0031835301665676919 -0.00046607266355475519 0 -0.0026470327968387978 -1.7628214636354149e-05 0 -0.0023820090566081761 -1.248980490293929e-05 0 -0.0023525764670082145 -1.1116755948144979e-07 0 -0.0025423714196827017 -0.00018817866052982159 0 -0.0023524686245940027 -3.3594847058272902e-07 0 -0.0030832541338439517 -0.00051062312049343368 0 -0.0031835301665676919 -0.00046607266355475519 0 -0.0031850700153578568 -0.00054775005606856413 0 -0.0031440382871153381 -0.000369345687599876 0 -0.0031835301665676919 -0.00046607266355475519 0 -0.0032890897883778537 -0.00040954786841732841 0 -0.0031835301665676919 -0.00046607266355475519 0 -0.0032708110150159331 -0.00050215561688310558 0 -0.0031850700153578568 -0.00054775005606856413 0 -0.0031835301665676919 -0.00046607266355475519 0 -0.0032708110150159331 -0.00050215561688310558 0 -0.0032890897883778537 -0.00040954786841732841 0 -0.0032708110150159331 -0.00050215561688310558 0 -0.0031850700153578568 -0.00054775005606856413 0 -0.0032859296632600367 -0.00058413151111712139 0 -0.0021914904447130168 9.4814426952932597e-06 0 -0.0022022345914200015 7.2385376282600374e-06 0 -0.0022345574596533868 5.1691801891755709e-06 0 -0.0027468761685848588 -0.00028777699947128037 0 -0.0025765168087373792 -0.00018402819202552716 0 -0.0025765168087373792 -0.00018402819202552716 0 -0.0025065572611235819 -0.00016267524992717654 0 -0.0032708110150159331 -0.00050215561688310558 0 -0.0032859296632600367 -0.00058413151111712139 0 -0.0034117978361663309 -0.00050314880703084517 0 -0.0026674878852484488 -0.00019222406973341412 0 -0.0028755878507725806 -5.1894330283087204e-05 0 -0.0028850422416951439 -0.00016230976172535702 0 -0.0025765168087373792 -0.00018402819202552716 0 -0.0031773388376190657 -0.000285769103047084 0 -0.0034173120280067367 -0.00039433403148198161 0 -0.0032890897883778537 -0.00040954786841732841 0 -0.0034117978361663309 -0.00050314880703084517 0 -0.0032708110150159331 -0.00050215561688310558 0 -0.0032890897883778537 -0.00040954786841732841 0 -0.0034117978361663309 -0.00050314880703084517 0 -0.0028755878507725806 -5.1894330283087204e-05 0 -0.0030280833453430198 -0.00010572191865049373 0 -0.0030864377008474149 8.8006830250055742e-05 0 -0.0031773388376190657 -0.000285769103047084 0 -0.0033774643183464982 -9.4545663403963786e-05 0 -0.0034173120280067367 -0.00039433403148198161 0 -0.0034117978361663309 -0.00050314880703084517 0 -0.0035344647551193899 -0.00041938346567000858 0 -0.0026674878852484488 -0.00019222406973341412 0 -0.0028850422416951439 -0.00016230976172535702 0 -0.0029698119376210183 -0.0002990876777618259 0 -0.0028755878507725806 -5.1894330283087204e-05 0 -0.0028850422416951439 -0.00016230976172535702 0 -0.0030280833453430198 -0.00010572191865049373 0 -0.0028850422416951439 -0.00016230976172535702 0 -0.0029698119376210183 -0.0002990876777618259 0 -0.0030280833453430198 -0.00010572191865049373 0 -0.0025065572611235819 -0.00016267524992717654 0 -0.0032763147570057977 -5.1995065825325757e-06 0 -0.0025065572611235819 -0.00016267524992717654 0 -0.001691589998264626 -2.8713512104427302e-05 0 -0.00146384571859825 1.6449789157860364e-05 0 -0.0014543804336196011 3.1504903252434215e-05 0 -0.0014646512629045249 3.0644125279004733e-05 0 -0.0021865533742214532 -0.00013653147379210062 0 -0.0021657496334720342 -0.00014161474467623016 0 -0.0021786023573092672 -0.00015498729467538916 0 -0.0021509824775066649 -0.00012281414268997074 0 -0.0021865533742214532 -0.00013653147379210062 0 -0.0021657496334720342 -0.00014161474467623016 0 -0.0021465412948825859 -0.00015153545785024584 0 -0.0021657496334720342 -0.00014161474467623016 0 -0.0021786023573092672 -0.00015498729467538916 0 -0.0021509824775066649 -0.00012281414268997074 0 -0.0021465412948825859 -0.00015153545785024584 0 -0.0021657496334720342 -0.00014161474467623016 0 -0.0015671428983368388 -0.00014217136217091925 0 -0.0014884649839461694 -7.169078694607673e-05 0 -0.0015397549888374075 -2.4253264432582046e-05 0 -0.0015671428983368388 -0.00014217136217091925 0 -0.0014884649839461694 -7.169078694607673e-05 0 -0.0014094944550902772 -0.00011515164150249505 0 -0.0014884649839461694 -7.169078694607673e-05 0 -0.0014423289303104379 -1.3239114250910664e-05 0 -0.0015397549888374075 -2.4253264432582046e-05 0 -0.0018765593662188587 -0.00016245118849166946 0 -0.001691589998264626 -2.8713512104427302e-05 0 -0.0014884649839461694 -7.169078694607673e-05 0 -0.0014094944550902772 -0.00011515164150249505 0 -0.0014423289303104379 -1.3239114250910664e-05 0 -0.0014543804336196011 3.1504903252434215e-05 0 -0.0014575846034486366 3.1565907273324774e-05 0 -0.0014545413385486847 4.435958279617185e-05 0 -0.001691589998264626 -2.8713512104427302e-05 0 -0.0014433586429244149 1.4769200322973846e-06 0 -0.0014543804336196011 3.1504903252434215e-05 0 -0.0014384740621352075 4.5679546714803428e-05 0 -0.0014545413385486847 4.435958279617185e-05 0 -0.0014927063987706557 7.7892268943452068e-06 0 -0.001691589998264626 -2.8713512104427302e-05 0 -0.0014543804336196011 3.1504903252434215e-05 0 -0.0014437327359332049 2.5914068107951759e-05 0 -0.0014384740621352075 4.5679546714803428e-05 0 -0.0021015347344151432 5.8359380729548516e-05 0 -0.0010067658919962249 0.00010845600961740463 0 -0.00109097708233727 0.00026572008110766317 0 -0.00095482190309125175 0.00051087564764523902 0 -0.00079757723177602605 0.00014600763445736856 0 -0.00109097708233727 0.00026572008110766317 0 -0.00095482190309125175 0.00051087564764523902 0 -0.0013367105244025471 0.0003791352348918422 0 -0.0034929483936030682 -5.1026026332926412e-07 0 -0.0034923979492639972 7.9590735440816312e-07 0 -0.0034967655455228988 -2.8606800961457657e-06 0 -0.0034889101941148635 4.7234245582457995e-06 0 -0.0034929483936030682 -5.1026026332926412e-07 0 -0.0034696378532035207 1.2568342257426324e-05 0 -0.0034889101941148635 4.7234245582457995e-06 0 -0.0034929483936030682 -5.1026026332926412e-07 0 -0.0034923979492639972 7.9590735440816312e-07 0 -0.0034925288073949152 -2.70203731240282e-06 0 -0.0034889101941148635 4.7234245582457995e-06 0 -0.0034923979492639972 7.9590735440816312e-07 0 -0.0025065572611235819 -0.00016267524992717654 0 -0.0021015347344151432 5.8359380729548516e-05 0 -0.0034925288073949152 -2.70203731240282e-06 0 -0.0034923979492639972 7.9590735440816312e-07 0 -0.0034967655455228988 -2.8606800961457657e-06 0 -0.00146384571859825 1.6449789157860364e-05 0 -0.0014543804336196011 3.1504903252434215e-05 0 -0.0014437327359332049 2.5914068107951759e-05 0 -0.0034925288073949152 -2.70203731240282e-06 0 -0.0034967655455228988 -2.8606800961457657e-06 0 -0.0034997744373497638 -5.0230396237708409e-06 0 -0.0034967655455228988 -2.8606800961457657e-06 0 -0.0034997744373497638 -5.0230396237708409e-06 0 -0.0035024900313800379 -5.6827531107372367e-06 0 -0.0032763147570057977 -5.1995065825325757e-06 0 -0.0033774643183464982 -9.4545663403963786e-05 0 -0.0034997744373497638 -5.0230396237708409e-06 0 -0.0035091290626637572 -7.827523251061596e-06 0 -0.0035024900313800379 -5.6827531107372367e-06 0 -0.0035253181084275577 -1.0797547324283956e-05 0 -0.0035091290626637572 -7.827523251061596e-06 0 -0.0035123750544264203 -8.2085107598480104e-06 0 -0.0035091290626637572 -7.827523251061596e-06 0 -0.0035123750544264203 -8.2085107598480104e-06 0 -0.0035024900313800379 -5.6827531107372367e-06 0 -0.0035123750544264203 -8.2085107598480104e-06 0 -0.0035003320669037973 -4.5292537367544326e-06 0 -0.0035024900313800379 -5.6827531107372367e-06 0 -0.0034929483936030682 -5.1026026332926412e-07 0 -0.0034967655455228988 -2.8606800961457657e-06 0 -0.0035024900313800379 -5.6827531107372367e-06 0 -0.0034929483936030682 -5.1026026332926412e-07 0 -0.0035003320669037973 -4.5292537367544326e-06 0 -0.0035024900313800379 -5.6827531107372367e-06 0 -0.0034929483936030682 -5.1026026332926412e-07 0 -0.0035003320669037973 -4.5292537367544326e-06 0 -0.0034877707371811393 -2.7717840136752075e-06 0 -0.0035123750544264203 -8.2085107598480104e-06 0 -0.0035003320669037973 -4.5292537367544326e-06 0 -0.0034877707371811393 -2.7717840136752075e-06 0 -0.0035189434215222438 -1.1751761781632241e-05 0 -0.0035123750544264203 -8.2085107598480104e-06 0 -0.0034877707371811393 -2.7717840136752075e-06 0 -0.0035095785782517991 -1.0189936626285648e-05 0 -0.0035189434215222438 -1.1751761781632241e-05 0 -0.0034877707371811393 -2.7717840136752075e-06 0 -0.0024936359275983589 8.0582306119945279e-05 0 -0.0025792948383878897 -4.3379555488509241e-06 0 -0.0015638051153240896 0.00014066273705559874 0 -0.0016119236774735251 6.4890882985359346e-05 0 -0.0015520253764103261 6.5585321605481805e-05 0 -0.0016119236774735251 6.4890882985359346e-05 0 -0.0015520253764103261 6.5585321605481805e-05 0 -0.0015604366479528627 3.368408331966965e-05 0 -0.0015520253764103261 6.5585321605481805e-05 0 -0.0015604366479528627 3.368408331966965e-05 0 -0.0015296437689464528 1.768400231256267e-05 0 -0.0025792948383878897 -4.3379555488509241e-06 0 -0.0020785894932072641 0.00020629871857849423 0 -0.0034929483936030682 -5.1026026332926412e-07 0 -0.0034877707371811393 -2.7717840136752075e-06 0 -0.0034696378532035207 1.2568342257426324e-05 0 -0.0021015347344151432 5.8359380729548516e-05 0 -0.0020785894932072641 0.00020629871857849423 0 -0.00109097708233727 0.00026572008110766317 0 -0.0013367105244025471 0.0003791352348918422 0 -0.0012932188318115596 0.00014989961462948692 0 -0.0020785894932072641 0.00020629871857849423 0 -0.0013295566724819013 3.0632673011736118e-05 0 -0.0013830680953866486 8.0177392161796094e-05 0 -0.0015211288920790398 1.2808102277852935e-05 0 -0.0013419293157139547 -3.4269746639293625e-05 0 -0.0020785894932072641 0.00020629871857849423 0 -0.0013683109592037492 9.6947218338582408e-05 0 -0.0015604366479528627 3.368408331966965e-05 0 -0.0015296437689464528 1.768400231256267e-05 0 -0.0015211288920790398 1.2808102277852935e-05 0 -0.0015754820763792556 -5.4725786736827102e-05 0 -0.0015211288920790398 1.2808102277852935e-05 0 -0.0014571425962659574 -7.747355183796101e-05 0 -0.0015211288920790398 1.2808102277852935e-05 0 -0.0014571425962659574 -7.747355183796101e-05 0 -0.0013419293157139547 -3.4269746639293625e-05 0 -0.0013295566724819013 3.0632673011736118e-05 0 -0.0012758506725503557 -8.6671971199424495e-05 0 -0.0014571425962659574 -7.747355183796101e-05 0 -0.0013419293157139547 -3.4269746639293625e-05 0 -0.0012621090607160606 -0.00010554708345841269 0 -0.0012932188318115596 0.00014989961462948692 0 -0.0012621090607160606 -0.00010554708345841269 0 -0.0010505087565483328 7.4068187419698775e-05 0 -0.00109097708233727 0.00026572008110766317 0 -0.0012932188318115596 0.00014989961462948692 0 -0.0010505087565483328 7.4068187419698775e-05 0 -0.0012621090607160606 -0.00010554708345841269 0 -0.0014194483021326874 -0.00019057649804477724 0 -0.0013485392257715939 -0.00029480672637582732 0 -0.0015272854277023479 -0.00016331750944135605 0 -0.0014194483021326874 -0.00019057649804477724 0 -0.0014770885961671726 -0.00031686935669256058 0 -0.0014571425962659574 -7.747355183796101e-05 0 -0.0012621090607160606 -0.00010554708345841269 0 -0.0014194483021326874 -0.00019057649804477724 0 -0.0015272854277023479 -0.00016331750944135605 0 -0.0014571425962659574 -7.747355183796101e-05 0 -0.0014194483021326874 -0.00019057649804477724 0 -0.0013485392257715939 -0.00029480672637582732 0 -0.0014770885961671726 -0.00031686935669256058 0 -0.0013642692896544792 -0.00046520262503681225 0 -0.0014194483021326874 -0.00019057649804477724 0 -0.0013485392257715939 -0.00029480672637582732 0 -0.0014770885961671726 -0.00031686935669256058 0 -0.0014935814679688621 -0.0004705665527392308 0 -0.0014770885961671726 -0.00031686935669256058 0 -0.0013642692896544792 -0.00046520262503681225 0 -0.00125769100343418 -0.00043240409282415993 0 -0.0010448409495165164 -0.00024991134732811767 0 -0.00104686570704036 -0.00031132227409595004 0 -0.00092984908806955312 -0.00018988614631513165 0 -0.00090139073738181171 -0.00030276132389155732 0 -0.0013485392257715939 -0.00029480672637582732 0 -0.0013642692896544792 -0.00046520262503681225 0 -0.0011907794889776794 -0.00034594881987562144 0 -0.0012621090607160606 -0.00010554708345841269 0 -0.0013485392257715939 -0.00029480672637582732 0 -0.0011907794889776794 -0.00034594881987562144 0 -0.00092984908806955312 -0.00018988614631513165 0 -0.00083830826005071356 -0.00020150258547524925 0 -0.00089420806449974958 -0.00010092849787524947 0 -0.0010448409495165164 -0.00024991134732811767 0 -0.0009079637229680329 -0.00011395264477399832 0 -0.00083830826005071356 -0.00020150258547524925 0 -0.00090139073738181171 -0.00030276132389155732 0 -0.00071865804715804001 -0.00028100675846442428 0 -0.00092984908806955312 -0.00018988614631513165 0 -0.00083830826005071356 -0.00020150258547524925 0 -0.00090139073738181171 -0.00030276132389155732 0 -0.00090139073738181171 -0.00030276132389155732 0 -0.00071865804715804001 -0.00028100675846442428 0 -0.00079401124881211551 -0.00040960507318897523 0 -0.00071865804715804001 -0.00028100675846442428 0 -0.00074119912863324555 -0.0001704144803494858 0 -0.00054008012882085412 -0.00031295579193087511 0 -0.00071865804715804001 -0.00028100675846442428 0 -0.00062287801782040465 -0.00031675799910694255 0 -0.00054008012882085412 -0.00031295579193087511 0 -0.00074119912863324555 -0.0001704144803494858 0 -0.00089420806449974958 -0.00010092849787524947 0 -0.0007021087749105987 -0.00012914817936448373 0 -0.00083830826005071356 -0.00020150258547524925 0 -0.00074119912863324555 -0.0001704144803494858 0 -0.00089420806449974958 -0.00010092849787524947 0 -0.00083830826005071356 -0.00020150258547524925 0 -0.00071865804715804001 -0.00028100675846442428 0 -0.00074119912863324555 -0.0001704144803494858 0 -0.0010067658919962249 0.00010845600961740463 0 -0.001080291207117658 -2.2937685432978361e-05 0 -0.00089420806449974958 -0.00010092849787524947 0 -0.00079757723177602605 0.00014600763445736856 0 -0.0007021087749105987 -0.00012914817936448373 0 -0.0012621090607160606 -0.00010554708345841269 0 -0.0011907794889776794 -0.00034594881987562144 0 -0.00089420806449974958 -0.00010092849787524947 0 -0.0012621090607160606 -0.00010554708345841269 0 -0.00089420806449974958 -0.00010092849787524947 0 -0.0010505087565483328 7.4068187419698775e-05 0 -0.00109097708233727 0.00026572008110766317 0 -0.0010505087565483328 7.4068187419698775e-05 0 -0.00079757723177602605 0.00014600763445736856 0 -0.00089420806449974958 -0.00010092849787524947 0 -0.0010505087565483328 7.4068187419698775e-05 0 -0.00079757723177602605 0.00014600763445736856 0 -0.0014384740621352075 4.5679546714803428e-05 0 -0.0014545413385486847 4.435958279617185e-05 0 -0.0014520606223287686 6.038973449900538e-05 0 -0.0014433586429244149 1.4769200322973846e-06 0 -0.0014549474846727542 6.0008591000712574e-05 0 -0.0014423289303104379 -1.3239114250910664e-05 0 -0.0015397549888374075 -2.4253264432582046e-05 0 -0.0014520606223287686 6.038973449900538e-05 0 -0.0015397549888374075 -2.4253264432582046e-05 0 -0.0014520606223287686 6.038973449900538e-05 0 -0.0015479575124673363 3.6909758469067529e-05 0 -0.0014520606223287686 6.038973449900538e-05 0 -0.0014262792381317282 8.6224492554392516e-05 0 -0.0014595923723730322 8.3823405103724817e-05 0 -0.0014520606223287686 6.038973449900538e-05 0 -0.0014595923723730322 8.3823405103724817e-05 0 -0.0015479575124673363 3.6909758469067529e-05 0 -0.0014384740621352075 4.5679546714803428e-05 0 -0.0014520606223287686 6.038973449900538e-05 0 -0.0014308485890928719 7.5959213629708523e-05 0 -0.0014520606223287686 6.038973449900538e-05 0 -0.0014308485890928719 7.5959213629708523e-05 0 -0.0014262792381317282 8.6224492554392516e-05 0 -0.001080291207117658 -2.2937685432978361e-05 0 -0.0010645132099985266 -5.866121443348546e-05 0 -0.00074119912863324555 -0.0001704144803494858 0 -0.0007021087749105987 -0.00012914817936448373 0 -0.00069333807077861652 -0.00021375578023833782 0 -0.0014308485890928719 7.5959213629708523e-05 0 -0.0014047649851144331 7.8560628684358851e-05 0 -0.0014262792381317282 8.6224492554392516e-05 0 -0.00073693048172296285 -0.00016237923558095119 0 -0.00058931426072161093 -0.00030225421586411164 0 -0.00074119912863324555 -0.0001704144803494858 0 -0.00069333807077861652 -0.00021375578023833782 0 -0.00070017026449322947 -0.00022127367142843791 0 -0.0014047649851144331 7.8560628684358851e-05 0 -0.0013515795739806938 8.5487207567947412e-05 0 -0.0013045969144592571 1.0342792647271998e-06 0 -0.0014047649851144331 7.8560628684358851e-05 0 -0.0013515795739806938 8.5487207567947412e-05 0 -0.0014262792381317282 8.6224492554392516e-05 0 -0.0013515795739806938 8.5487207567947412e-05 0 -0.0014262792381317282 8.6224492554392516e-05 0 -0.0014595923723730322 8.3823405103724817e-05 0 -0.0014595923723730322 8.3823405103724817e-05 0 -0.0014767141889058353 3.7364093616056798e-05 0 -0.0015809200710628852 3.7330035139216688e-05 0 -0.0014595923723730322 8.3823405103724817e-05 0 -0.0014253831399201825 6.5148817057743962e-07 0 -0.0014767141889058353 3.7364093616056798e-05 0 -0.0014378778473536698 7.4834030204142405e-05 0 -0.0013216274014053858 5.0402096872276744e-05 0 -0.0013515795739806938 8.5487207567947412e-05 0 -0.0012245664565509612 8.9138232400027051e-05 0 -0.0012024701550012256 1.5854949685114272e-05 0 -0.0013515795739806938 8.5487207567947412e-05 0 -0.0014595923723730322 8.3823405103724817e-05 0 -0.0012245664565509612 8.9138232400027051e-05 0 -0.0014253831399201825 6.5148817057743962e-07 0 -0.0013060763906883694 6.7167809781552925e-08 0 -0.0014767141889058353 3.7364093616056798e-05 0 -0.0013060763906883694 6.7167809781552925e-08 0 -0.0015396591579444029 7.0443712888564633e-08 0 -0.0014767141889058353 3.7364093616056798e-05 0 -0.0015396591579444029 7.0443712888564633e-08 0 -0.0014767141889058353 3.7364093616056798e-05 0 -0.0015809200710628852 3.7330035139216688e-05 0 -0.0015396591579444029 7.0443712888564633e-08 0 -0.0015809200710628852 3.7330035139216688e-05 0 -0.001773320565215006 1.5947855108197186e-07 0 -0.0014595923723730322 8.3823405103724817e-05 0 -0.0015809200710628852 3.7330035139216688e-05 0 -0.0015479575124673363 3.6909758469067529e-05 0 -0.00172457281541861 -6.7790678020621332e-06 0 -0.0015809200710628852 3.7330035139216688e-05 0 -0.0015479575124673363 3.6909758469067529e-05 0 -0.00172457281541861 -6.7790678020621332e-06 0 -0.0015397549888374075 -2.4253264432582046e-05 0 -0.0015479575124673363 3.6909758469067529e-05 0 -0.00172457281541861 -6.7790678020621332e-06 0 -0.0015809200710628852 3.7330035139216688e-05 0 -0.001773320565215006 1.5947855108197186e-07 0 -0.00057925441797506522 -4.6659049613148169e-06 0 -0.0008057099713884966 -3.5440198964598863e-07 0 -0.0005239502192261493 1.2032083182463216e-07 0 -0.00049496973980056862 -7.8275712038373404e-05 0 -0.00075461240837849432 -8.4090954629120087e-05 0 -0.00057925441797506522 -4.6659049613148169e-06 0 -0.00044035087386249593 -2.6679701162779086e-05 0 -0.00040906924146570423 -9.9172820949428709e-05 0 -0.00057925441797506522 -4.6659049613148169e-06 0 -0.00040906924146570423 -9.9172820949428709e-05 0 -0.00043115266749342362 -0.00022790571910364274 0 -0.00044035087386249593 -2.6679701162779086e-05 0 -0.00040906924146570423 -9.9172820949428709e-05 0 -0.00036163429203919616 -5.8079881492399287e-05 0 -0.00040906924146570423 -9.9172820949428709e-05 0 -0.00043115266749342362 -0.00022790571910364274 0 -0.0003510964251737428 -0.00024585687361040854 0 -0.00041323968226686456 -0.00014171458388131789 0 -0.00053468001449836784 -0.00014187969847280542 0 -0.00075461240837849432 -8.4090954629120087e-05 0 -0.00053468001449836784 -0.00014187969847280542 0 -0.0011279057197202532 -5.6381912244677213e-05 0 -0.00080709265518578099 -4.694753915925212e-07 0 -0.0010717493588334502 4.0132357749280938e-07 0 -0.00057925441797506522 -4.6659049613148169e-06 0 -0.00050988630383046727 -0.00012761973613609871 0 -0.0008057099713884966 -3.5440198964598863e-07 0 -0.00075461240837849432 -8.4090954629120087e-05 0 -0.00080634889500480185 -2.1962653080386346e-08 0 -0.0011279057197202532 -5.6381912244677213e-05 0 -0.0010717493588334502 4.0132357749280938e-07 0 -0.0012024701550012256 1.5854949685114272e-05 0 -0.0012245664565509612 8.9138232400027051e-05 0 -0.0010717493588334502 4.0132357749280938e-07 0 -0.0012024701550012256 1.5854949685114272e-05 0 -0.0014253831399201825 6.5148817057743962e-07 0 -0.0013060763906883694 6.7167809781552925e-08 0 -0.0010726221247407341 -1.2660954456179125e-07 0 -0.0013216274014053858 5.0402096872276744e-05 0 -0.0010724982118994271 2.8106035382128424e-08 0 -0.0011279057197202532 -5.6381912244677213e-05 0 -0.0012024701550012256 1.5854949685114272e-05 0 -0.0013045969144592571 1.0342792647271998e-06 0 -0.00057708054670974876 -0.00026365783409144651 0 -0.00049262262237050524 -0.00023488526202862698 0 -0.00064844668261262832 -0.00010144626063479449 0 -0.00071253836349489421 -0.00016062116096330918 0 -0.00076720176664868249 -8.4227041627275999e-05 0 -0.00073646956122901217 -0.00015528104897545542 0 -0.00075461240837849432 -8.4090954629120087e-05 0 -0.00086568596795301173 -0.00012574585056661291 0 -0.00086568596795301173 -0.00012574585056661291 0 -0.00053468001449836784 -0.00014187969847280542 0 -0.0013515795739806938 8.5487207567947412e-05 0 -0.0012024701550012256 1.5854949685114272e-05 0 -0.0013045969144592571 1.0342792647271998e-06 0 -0.0010645132099985266 -5.866121443348546e-05 0 -0.00086568596795301173 -0.00012574585056661291 0 -0.00054008012882085412 -0.00031295579193087511 0 -0.00057708054670974876 -0.00026365783409144651 0 -0.00052678257865082089 -0.0003186418361677624 0 -0.00058931426072161093 -0.00030225421586411164 0 -0.00086568596795301173 -0.00012574585056661291 0 -0.00052678257865082089 -0.0003186418361677624 0 -0.00049262262237050524 -0.00023488526202862698 0 -0.00038119402752763589 -0.0002037140458166757 0 -0.00069333807077861652 -0.00021375578023833782 0 -0.00070017026449322947 -0.00022127367142843791 0 -0.00069764813129623608 -0.00023883544484702839 0 -0.00062287801782040465 -0.00031675799910694255 0 -0.00054008012882085412 -0.00031295579193087511 0 -0.00052678257865082089 -0.0003186418361677624 0 -0.00057708054670974876 -0.00026365783409144651 0 -0.00052678257865082089 -0.0003186418361677624 0 -0.00049262262237050524 -0.00023488526202862698 0 -0.00040738945421427039 -0.00014845277280947872 0 -0.00049262262237050524 -0.00023488526202862698 0 -0.00064844668261262832 -0.00010144626063479449 0 -0.00040738945421427039 -0.00014845277280947872 0 -0.00049262262237050524 -0.00023488526202862698 0 -0.00038119402752763589 -0.0002037140458166757 0 -0.00040738945421427039 -0.00014845277280947872 0 -0.00037926256859823133 -0.00010763190064681353 0 -0.00036386889879404987 -9.7257542776663954e-05 0 -0.00040738945421427039 -0.00014845277280947872 0 -0.00036386889879404987 -9.7257542776663954e-05 0 -0.00035780830447796171 -0.00010690180814267511 0 -0.00040321814201792655 -0.0001365948262080857 0 -0.00053468001449836784 -0.00014187969847280542 0 -0.00040738945421427039 -0.00014845277280947872 0 -0.00038872784570739144 -0.00011376862964689785 0 -0.00037926256859823133 -0.00010763190064681353 0 -0.00040906924146570423 -9.9172820949428709e-05 0 -0.00038872784570739144 -0.00011376862964689785 0 -0.00037926256859823133 -0.00010763190064681353 0 -0.00037926256859823133 -0.00010763190064681353 0 -0.00036163429203919616 -5.8079881492399287e-05 0 -0.00036386889879404987 -9.7257542776663954e-05 0 -0.00040906924146570423 -9.9172820949428709e-05 0 -0.00037926256859823133 -0.00010763190064681353 0 -0.00036163429203919616 -5.8079881492399287e-05 0 -0.00036163429203919616 -5.8079881492399287e-05 0 -0.00034030984869917172 -6.080128075995677e-05 0 -0.00036386889879404987 -9.7257542776663954e-05 0 -0.00034030984869917172 -6.080128075995677e-05 0 -0.0003438867124185661 -8.2298072450281252e-05 0 -0.00036386889879404987 -9.7257542776663954e-05 0 -0.00034030984869917172 -6.080128075995677e-05 0 -0.0003438867124185661 -8.2298072450281252e-05 0 -0.00032333653292512988 -5.9991793377189949e-05 0 -0.0003438867124185661 -8.2298072450281252e-05 0 -0.00036386889879404987 -9.7257542776663954e-05 0 -0.00035780830447796171 -0.00010690180814267511 0 -0.00032340884864782586 -8.3287650523090369e-05 0 -0.00030420966187463268 -0.0001142790266014788 0 -0.00034649930636108939 -0.00012431416567636124 0 -0.00035780830447796171 -0.00010690180814267511 0 -0.00032340884864782586 -8.3287650523090369e-05 0 -0.00034649930636108939 -0.00012431416567636124 0 -0.0003438867124185661 -8.2298072450281252e-05 0 -0.00035780830447796171 -0.00010690180814267511 0 -0.00032340884864782586 -8.3287650523090369e-05 0 -0.0003438867124185661 -8.2298072450281252e-05 0 -0.00032340884864782586 -8.3287650523090369e-05 0 -0.00032333653292512988 -5.9991793377189949e-05 0 -0.00032340884864782586 -8.3287650523090369e-05 0 -0.00029212881846975579 -8.400524366562543e-05 0 -0.00028614491381678646 -6.2879441096326788e-05 0 -0.00029212881846975579 -8.400524366562543e-05 0 -0.000265955305367382 -8.8999619896333557e-05 0 -0.00027773067164664652 -7.1780758072971781e-05 0 -0.00029212881846975579 -8.400524366562543e-05 0 -0.00030420966187463268 -0.0001142790266014788 0 -0.000265955305367382 -8.8999619896333557e-05 0 -0.00030420966187463268 -0.0001142790266014788 0 -0.00025643538457282081 -0.00011321913925972646 0 -0.000265955305367382 -8.8999619896333557e-05 0 -0.00032340884864782586 -8.3287650523090369e-05 0 -0.00029212881846975579 -8.400524366562543e-05 0 -0.00030420966187463268 -0.0001142790266014788 0 -0.0003300582322300415 -0.00017327703788488102 0 -0.00034037622869003542 -0.00019428438947585936 0 -0.00035774098165882329 -0.00021506763291240043 0 -0.00033205580181932095 -0.00018264034493164585 0 -0.00030117585855054591 -0.00017383152412774774 0 -0.00030420966187463268 -0.0001142790266014788 0 -0.0003300582322300415 -0.00017327703788488102 0 -0.00025643538457282081 -0.00011321913925972646 0 -0.0003300582322300415 -0.00017327703788488102 0 -0.00035774098165882329 -0.00021506763291240043 0 -0.00035710685956528889 -0.00025438734249698597 0 -0.00030420966187463268 -0.0001142790266014788 0 -0.0003300582322300415 -0.00017327703788488102 0 -0.00034649930636108939 -0.00012431416567636124 0 -0.00040738945421427039 -0.00014845277280947872 0 -0.00035780830447796171 -0.00010690180814267511 0 -0.00034649930636108939 -0.00012431416567636124 0 -0.00040738945421427039 -0.00014845277280947872 0 -0.0003300582322300415 -0.00017327703788488102 0 -0.00034649930636108939 -0.00012431416567636124 0 -0.00040738945421427039 -0.00014845277280947872 0 -0.0003300582322300415 -0.00017327703788488102 0 -0.00038119402752763589 -0.0002037140458166757 0 -0.00053174989651726015 -0.00032055726112079823 0 -0.00058813639627674466 -0.00032345010951557649 0 -0.00062287801782040465 -0.00031675799910694255 0 -0.00052678257865082089 -0.0003186418361677624 0 -0.00079401124881211551 -0.00040960507318897523 0 -0.00071865804715804001 -0.00028100675846442428 0 -0.00062287801782040465 -0.00031675799910694255 0 -0.00079401124881211551 -0.00040960507318897523 0 -0.00052678257865082089 -0.0003186418361677624 0 -0.00038119402752763589 -0.0002037140458166757 0 -0.00034928042793509349 -0.00024249215004065288 0 -0.00034928042793509349 -0.00024249215004065288 0 -0.00034037622869003542 -0.00019428438947585936 0 -0.00036308044436661642 -0.00018140038339705129 0 -0.00058813639627674466 -0.00032345010951557649 0 -0.0006305301405881425 -0.00029401396273522355 0 -0.00090139073738181171 -0.00030276132389155732 0 -0.00079401124881211551 -0.00040960507318897523 0 -0.00098747674207976931 -0.00041650671362344503 0 -0.0003300582322300415 -0.00017327703788488102 0 -0.00038119402752763589 -0.0002037140458166757 0 -0.00034037622869003542 -0.00019428438947585936 0 -0.00038119402752763589 -0.0002037140458166757 0 -0.00034928042793509349 -0.00024249215004065288 0 -0.00034037622869003542 -0.00019428438947585936 0 -0.00034037622869003542 -0.00019428438947585936 0 -0.00036713848006703146 -0.00020775158600770208 0 -0.00035774098165882329 -0.00021506763291240043 0 -0.00034037622869003542 -0.00019428438947585936 0 -0.00037293047706608959 -0.00019528441913371829 0 -0.00036713848006703146 -0.00020775158600770208 0 -0.00038612871458105125 -0.00020898619797566256 0 -0.00037293047706608959 -0.00019528441913371829 0 -0.00040351785478046407 -0.00020273294418056103 0 -0.00038612871458105125 -0.00020898619797566256 0 -0.00037293047706608959 -0.00019528441913371829 0 -0.00036713848006703146 -0.00020775158600770208 0 -0.00037293047706608959 -0.00019528441913371829 0 -0.00036308044436661642 -0.00018140038339705129 0 -0.00039820345782274117 -0.00018390968310061845 0 -0.00034037622869003542 -0.00019428438947585936 0 -0.00037293047706608959 -0.00019528441913371829 0 -0.00036308044436661642 -0.00018140038339705129 0 -0.00104686570704036 -0.00031132227409595004 0 -0.00090139073738181171 -0.00030276132389155732 0 -0.00098747674207976931 -0.00041650671362344503 0 -0.0006305301405881425 -0.00029401396273522355 0 -0.001016671930690678 -0.00035248217251379366 0 -0.00036308044436661642 -0.00018140038339705129 0 -0.00039820345782274117 -0.00018390968310061845 0 -0.00044369597308247368 -0.00016350704391910465 0 -0.00125769100343418 -0.00043240409282415993 0 -0.001016671930690678 -0.00035248217251379366 0 -0.00104686570704036 -0.00031132227409595004 0 -0.00098747674207976931 -0.00041650671362344503 0 -0.0011574501918320088 -0.000430201794238037 0 -0.0014935814679688621 -0.0004705665527392308 0 -0.0013642692896544792 -0.00046520262503681225 0 -0.0014948135324123204 -0.00059159509377564143 0 -0.00041727909307355017 -0.00018594063204875307 0 -0.00039820345782274117 -0.00018390968310061845 0 -0.00044369597308247368 -0.00016350704391910465 0 -0.00041727909307355017 -0.00018594063204875307 0 -0.00044369597308247368 -0.00016350704391910465 0 -0.00043679734844919024 -0.00017724732033955838 0 -0.00041727909307355017 -0.00018594063204875307 0 -0.00040351785478046407 -0.00020273294418056103 0 -0.00042893742277651101 -0.00020079576464036795 0 -0.00041727909307355017 -0.00018594063204875307 0 -0.00043648467093621496 -0.00018903338903539829 0 -0.00043679734844919024 -0.00017724732033955838 0 -0.00041727909307355017 -0.00018594063204875307 0 -0.00042893742277651101 -0.00020079576464036795 0 -0.00043648467093621496 -0.00018903338903539829 0 -0.00041727909307355017 -0.00018594063204875307 0 -0.00039820345782274117 -0.00018390968310061845 0 -0.00040351785478046407 -0.00020273294418056103 0 -0.00037293047706608959 -0.00019528441913371829 0 -0.00039820345782274117 -0.00018390968310061845 0 -0.00040351785478046407 -0.00020273294418056103 0 -0.00038612871458105125 -0.00020898619797566256 0 -0.00040351785478046407 -0.00020273294418056103 0 -0.000403494152185856 -0.00021853263051336961 0 -0.00040351785478046407 -0.00020273294418056103 0 -0.00042351066616867316 -0.00021917875677414698 0 -0.000403494152185856 -0.00021853263051336961 0 -0.00040351785478046407 -0.00020273294418056103 0 -0.00042893742277651101 -0.00020079576464036795 0 -0.00042351066616867316 -0.00021917875677414698 0 -0.00042893742277651101 -0.00020079576464036795 0 -0.00042351066616867316 -0.00021917875677414698 0 -0.00044584552442601612 -0.00021171415440387871 0 -0.00043738707675351079 -0.00023301882494452159 0 -0.00047820622731244194 -0.0002281903674130428 0 -0.00041265057226846203 -0.0002362901386798677 0 -0.00058489402169649765 -0.00020490565176014015 0 -0.0005445323321383674 -0.00028352781406350606 0 -0.00042351066616867316 -0.00021917875677414698 0 -0.00041265057226846203 -0.0002362901386798677 0 -0.00045040472603363665 -0.00023549894634263417 0 -0.00041265057226846203 -0.0002362901386798677 0 -0.00045685614044997571 -0.00030745535814590111 0 -0.0005445323321383674 -0.00028352781406350606 0 -0.00041265057226846203 -0.0002362901386798677 0 -0.00038449536769681207 -0.00022435794175285444 0 -0.00038768131886543554 -0.00025640149050491518 0 -0.00041265057226846203 -0.0002362901386798677 0 -0.00038768131886543554 -0.00025640149050491518 0 -0.00045685614044997571 -0.00030745535814590111 0 -0.00041265057226846203 -0.0002362901386798677 0 -0.000403494152185856 -0.00021853263051336961 0 -0.00038449536769681207 -0.00022435794175285444 0 -0.00042351066616867316 -0.00021917875677414698 0 -0.00041265057226846203 -0.0002362901386798677 0 -0.000403494152185856 -0.00021853263051336961 0 -0.00038612871458105125 -0.00020898619797566256 0 -0.000403494152185856 -0.00021853263051336961 0 -0.00038449536769681207 -0.00022435794175285444 0 -0.00038612871458105125 -0.00020898619797566256 0 -0.00036713848006703146 -0.00020775158600770208 0 -0.00038449536769681207 -0.00022435794175285444 0 -0.00036713848006703146 -0.00020775158600770208 0 -0.00038449536769681207 -0.00022435794175285444 0 -0.00035774098165882329 -0.00021506763291240043 0 -0.00035774098165882329 -0.00021506763291240043 0 -0.00038768131886543554 -0.00025640149050491518 0 -0.00035710685956528889 -0.00025438734249698597 0 -0.00038449536769681207 -0.00022435794175285444 0 -0.00035774098165882329 -0.00021506763291240043 0 -0.00038768131886543554 -0.00025640149050491518 0 -0.00030117585855054591 -0.00017383152412774774 0 -0.00035199661997579784 -0.00024792835163180897 0 -0.00025643538457282081 -0.00011321913925972646 0 -0.000265955305367382 -8.8999619896333557e-05 0 -0.00022153105938604634 -8.1329631950818098e-05 0 -0.00024136628011647721 -6.2076826558927226e-05 0 -0.0002779265726389836 -0.000140206742047105 0 -0.00038768131886543554 -0.00025640149050491518 0 -0.00035710685956528889 -0.00025438734249698597 0 -0.00040698440530704779 -0.00029928155236868685 0 -0.000265955305367382 -8.8999619896333557e-05 0 -0.0002678677026237035 -6.9856311614199576e-05 0 -0.00027773067164664652 -7.1780758072971781e-05 0 -0.000265955305367382 -8.8999619896333557e-05 0 -0.00022153105938604634 -8.1329631950818098e-05 0 -0.00021220678118864867 -6.2440624376488573e-05 0 -0.00044786369239431723 -0.00039146271994750214 0 -0.00045685614044997571 -0.00030745535814590111 0 -0.00056251761475665499 -0.00036653020089840756 0 -0.00045685614044997571 -0.00030745535814590111 0 -0.00056251761475665499 -0.00036653020089840756 0 -0.0005445323321383674 -0.00028352781406350606 0 -0.00040658483534008598 -0.00030224381037450914 0 -0.00035199661997579784 -0.00024792835163180897 0 -0.00038768131886543554 -0.00025640149050491518 0 -0.00044786369239431723 -0.00039146271994750214 0 -0.00045685614044997571 -0.00030745535814590111 0 -0.00035199661997579784 -0.00024792835163180897 0 -0.00054198081457682555 -0.00041652788103182928 0 -0.0003288545655080325 -0.00022508584890160898 0 -0.00035112678174843855 -0.0002716988294523742 0 -0.0004176851159678241 -0.00029177005416033242 0 -0.00024921474610201729 -6.5935575068979603e-05 0 -0.00026000110548941483 -6.9316832535048237e-05 0 -0.00025619061976316651 -6.3296593889811622e-05 0 -0.00024921474610201729 -6.5935575068979603e-05 0 -0.00025619061976316651 -6.3296593889811622e-05 0 -0.0002514694527259393 -6.2956302762278246e-05 0 -0.00035199661997579784 -0.00024792835163180897 0 -0.0002779265726389836 -0.000140206742047105 0 -0.000265955305367382 -8.8999619896333557e-05 0 -0.00024921474610201729 -6.5935575068979603e-05 0 -0.00026000110548941483 -6.9316832535048237e-05 0 -0.000265955305367382 -8.8999619896333557e-05 0 -0.00026000110548941483 -6.9316832535048237e-05 0 -0.0002678677026237035 -6.9856311614199576e-05 0 -0.00026000110548941483 -6.9316832535048237e-05 0 -0.0002678677026237035 -6.9856311614199576e-05 0 -0.00026315079278907145 -6.2012129735581777e-05 0 -0.0002678677026237035 -6.9856311614199576e-05 0 -0.00026315079278907145 -6.2012129735581777e-05 0 -0.00027524798178500784 -6.001738776687947e-05 0 -0.00026315079278907145 -6.2012129735581777e-05 0 -0.00026684196860758886 -5.5994467461345687e-05 0 -0.00027524798178500784 -6.001738776687947e-05 0 -0.00026000110548941483 -6.9316832535048237e-05 0 -0.00026315079278907145 -6.2012129735581777e-05 0 -0.00025619061976316651 -6.3296593889811622e-05 0 -0.00025619061976316651 -6.3296593889811622e-05 0 -0.00025904407947240104 -5.6803065536951745e-05 0 -0.00025290456960718485 -6.0426794866621586e-05 0 -0.00025904407947240104 -5.6803065536951745e-05 0 -0.00025290456960718485 -6.0426794866621586e-05 0 -0.0002546312650241096 -5.8621769679563865e-05 0 -0.00026315079278907145 -6.2012129735581777e-05 0 -0.00025619061976316651 -6.3296593889811622e-05 0 -0.00025904407947240104 -5.6803065536951745e-05 0 -0.00026315079278907145 -6.2012129735581777e-05 0 -0.00026684196860758886 -5.5994467461345687e-05 0 -0.00025904407947240104 -5.6803065536951745e-05 0 -0.00026684196860758886 -5.5994467461345687e-05 0 -0.00025904407947240104 -5.6803065536951745e-05 0 -0.00026782237736293297 -5.1301520175576877e-05 0 -0.00025904407947240104 -5.6803065536951745e-05 0 -0.00026235210026063647 -5.278617883266102e-05 0 -0.00026782237736293297 -5.1301520175576877e-05 0 -0.00024921474610201729 -6.5935575068979603e-05 0 -0.0002514694527259393 -6.2956302762278246e-05 0 -0.00025038323371725022 -6.3269479820191182e-05 0 -0.00025290456960718485 -6.0426794866621586e-05 0 -0.0002514694527259393 -6.2956302762278246e-05 0 -0.00025038323371725022 -6.3269479820191182e-05 0 -0.00025619061976316651 -6.3296593889811622e-05 0 -0.00025290456960718485 -6.0426794866621586e-05 0 -0.0002514694527259393 -6.2956302762278246e-05 0 -0.00025290456960718485 -6.0426794866621586e-05 0 -0.00025056731748498707 -6.2932041459396869e-05 0 -0.00025038323371725022 -6.3269479820191182e-05 0 -0.00025056731748498707 -6.2932041459396869e-05 0 -0.0002466532622187703 -7.1502046133558285e-05 0 -0.00025038323371725022 -6.3269479820191182e-05 0 -0.00025290456960718485 -6.0426794866621586e-05 0 -0.00025056731748498707 -6.2932041459396869e-05 0 -0.0002546312650241096 -5.8621769679563865e-05 0 -0.00025056731748498707 -6.2932041459396869e-05 0 -0.0002466532622187703 -7.1502046133558285e-05 0 -0.0002546312650241096 -5.8621769679563865e-05 0 -0.0002466532622187703 -7.1502046133558285e-05 0 -0.00025336664823666263 -6.2860313974549543e-05 0 -0.0002546312650241096 -5.8621769679563865e-05 0 -0.00025336664823666263 -6.2860313974549543e-05 0 -0.00025815544978488093 -5.5583566575112042e-05 0 -0.0002546312650241096 -5.8621769679563865e-05 0 -0.00025602372145132308 -5.8121115075893396e-05 0 -0.00025336664823666263 -6.2860313974549543e-05 0 -0.00025815544978488093 -5.5583566575112042e-05 0 -0.00025904407947240104 -5.6803065536951745e-05 0 -0.0002546312650241096 -5.8621769679563865e-05 0 -0.00026235210026063647 -5.278617883266102e-05 0 -0.0002546312650241096 -5.8621769679563865e-05 0 -0.00026235210026063647 -5.278617883266102e-05 0 -0.00026299623831737824 -5.045515863518425e-05 0 -0.00025815544978488093 -5.5583566575112042e-05 0 -0.0002546312650241096 -5.8621769679563865e-05 0 -0.00026299623831737824 -5.045515863518425e-05 0 -0.00027052198776300189 -4.5597148180661837e-05 0 -0.00026767688737528925 -4.4681861450176615e-05 0 -0.00026299623831737824 -5.045515863518425e-05 0 -0.00026235210026063647 -5.278617883266102e-05 0 -0.00027052198776300189 -4.5597148180661837e-05 0 -0.00026299623831737824 -5.045515863518425e-05 0 -0.00027052198776300189 -4.5597148180661837e-05 0 -0.00026767688737528925 -4.4681861450176615e-05 0 -0.00027449098049788065 -4.0308553889221158e-05 0 -0.00026767688737528925 -4.4681861450176615e-05 0 -0.00026299623831737824 -5.045515863518425e-05 0 -0.00026159019105248711 -5.0305463550371672e-05 0 -0.00025815544978488093 -5.5583566575112042e-05 0 -0.00026299623831737824 -5.045515863518425e-05 0 -0.00026159019105248711 -5.0305463550371672e-05 0 -0.00026767688737528925 -4.4681861450176615e-05 0 -0.00026159019105248711 -5.0305463550371672e-05 0 -0.00026432668195632415 -4.4210639208450044e-05 0 -0.00025611362512082379 -5.4115399971765505e-05 0 -0.00025602372145132308 -5.8121115075893396e-05 0 -0.00026159019105248711 -5.0305463550371672e-05 0 -0.00025611362512082379 -5.4115399971765505e-05 0 -0.00026159019105248711 -5.0305463550371672e-05 0 -0.00026432668195632415 -4.4210639208450044e-05 0 -0.00025602372145132308 -5.8121115075893396e-05 0 -0.00025815544978488093 -5.5583566575112042e-05 0 -0.00026159019105248711 -5.0305463550371672e-05 0 -0.00025611362512082379 -5.4115399971765505e-05 0 -0.00025372208241761858 -5.058994068424316e-05 0 -0.00026432668195632415 -4.4210639208450044e-05 0 -0.00026432668195632415 -4.4210639208450044e-05 0 -0.00027082818715137678 -3.3878083468389559e-05 0 -0.0002617713606755175 -4.1108437126682433e-05 0 -0.00025372208241761858 -5.058994068424316e-05 0 -0.00026432668195632415 -4.4210639208450044e-05 0 -0.0002617713606755175 -4.1108437126682433e-05 0 -0.00026432668195632415 -4.4210639208450044e-05 0 -0.00027082818715137678 -3.3878083468389559e-05 0 -0.0002717667960844533 -3.8817397467160284e-05 0 -0.00026767688737528925 -4.4681861450176615e-05 0 -0.00026432668195632415 -4.4210639208450044e-05 0 -0.0002717667960844533 -3.8817397467160284e-05 0 -0.0002717667960844533 -3.8817397467160284e-05 0 -0.00027449098049788065 -4.0308553889221158e-05 0 -0.00028097926308283812 -3.402752654311509e-05 0 -0.00026767688737528925 -4.4681861450176615e-05 0 -0.0002717667960844533 -3.8817397467160284e-05 0 -0.00027449098049788065 -4.0308553889221158e-05 0 -0.00027082818715137678 -3.3878083468389559e-05 0 -0.0002717667960844533 -3.8817397467160284e-05 0 -0.00028097926308283812 -3.402752654311509e-05 0 -0.00027082818715137678 -3.3878083468389559e-05 0 -0.00028097926308283812 -3.402752654311509e-05 0 -0.00028055561032511357 -2.5034602101670227e-05 0 -0.00028097926308283812 -3.402752654311509e-05 0 -0.00029175608766025249 -3.1119868433986884e-05 0 -0.00028055561032511357 -2.5034602101670227e-05 0 -0.00028097926308283812 -3.402752654311509e-05 0 -0.00029175608766025249 -3.1119868433986884e-05 0 -0.00029054396376859736 -4.1145080733933061e-05 0 -0.00029175608766025249 -3.1119868433986884e-05 0 -0.00029054396376859736 -4.1145080733933061e-05 0 -0.00030470395687727736 -4.2385444062723687e-05 0 -0.00029054396376859736 -4.1145080733933061e-05 0 -0.00027931580855628468 -4.1665713423714034e-05 0 -0.00027764925728440281 -4.9053346097177602e-05 0 -0.00029054396376859736 -4.1145080733933061e-05 0 -0.00027764925728440281 -4.9053346097177602e-05 0 -0.00028900201337233921 -5.1789344848110457e-05 0 -0.00027449098049788065 -4.0308553889221158e-05 0 -0.00028097926308283812 -3.402752654311509e-05 0 -0.00027931580855628468 -4.1665713423714034e-05 0 -0.00028097926308283812 -3.402752654311509e-05 0 -0.00029054396376859736 -4.1145080733933061e-05 0 -0.00027931580855628468 -4.1665713423714034e-05 0 -0.00027052198776300189 -4.5597148180661837e-05 0 -0.00027931580855628468 -4.1665713423714034e-05 0 -0.00027764925728440281 -4.9053346097177602e-05 0 -0.00027052198776300189 -4.5597148180661837e-05 0 -0.00027449098049788065 -4.0308553889221158e-05 0 -0.00027931580855628468 -4.1665713423714034e-05 0 -0.00026235210026063647 -5.278617883266102e-05 0 -0.00027052198776300189 -4.5597148180661837e-05 0 -0.00026782237736293297 -5.1301520175576877e-05 0 -0.00027052198776300189 -4.5597148180661837e-05 0 -0.00026782237736293297 -5.1301520175576877e-05 0 -0.00027764925728440281 -4.9053346097177602e-05 0 -0.00026684196860758886 -5.5994467461345687e-05 0 -0.00026782237736293297 -5.1301520175576877e-05 0 -0.00027764925728440281 -4.9053346097177602e-05 0 -0.00026684196860758886 -5.5994467461345687e-05 0 -0.00027764925728440281 -4.9053346097177602e-05 0 -0.00027524798178500784 -6.001738776687947e-05 0 -0.00028900201337233921 -5.1789344848110457e-05 0 -0.00027524798178500784 -6.001738776687947e-05 0 -0.00028614491381678646 -6.2879441096326788e-05 0 -0.00027764925728440281 -4.9053346097177602e-05 0 -0.00028900201337233921 -5.1789344848110457e-05 0 -0.00027524798178500784 -6.001738776687947e-05 0 -0.00027524798178500784 -6.001738776687947e-05 0 -0.00027773067164664652 -7.1780758072971781e-05 0 -0.00028614491381678646 -6.2879441096326788e-05 0 -0.0002678677026237035 -6.9856311614199576e-05 0 -0.00027524798178500784 -6.001738776687947e-05 0 -0.00027773067164664652 -7.1780758072971781e-05 0 -0.00029212881846975579 -8.400524366562543e-05 0 -0.00027773067164664652 -7.1780758072971781e-05 0 -0.00028614491381678646 -6.2879441096326788e-05 0 -0.00032340884864782586 -8.3287650523090369e-05 0 -0.00028614491381678646 -6.2879441096326788e-05 0 -0.00030537353662767996 -5.763987701686095e-05 0 -0.00032340884864782586 -8.3287650523090369e-05 0 -0.00030537353662767996 -5.763987701686095e-05 0 -0.00032333653292512988 -5.9991793377189949e-05 0 -0.00030537353662767996 -5.763987701686095e-05 0 -0.00030470395687727736 -4.2385444062723687e-05 0 -0.00032333653292512988 -5.9991793377189949e-05 0 -0.00029054396376859736 -4.1145080733933061e-05 0 -0.00030537353662767996 -5.763987701686095e-05 0 -0.00030470395687727736 -4.2385444062723687e-05 0 -0.00029054396376859736 -4.1145080733933061e-05 0 -0.00028900201337233921 -5.1789344848110457e-05 0 -0.00030537353662767996 -5.763987701686095e-05 0 -0.00028900201337233921 -5.1789344848110457e-05 0 -0.00028614491381678646 -6.2879441096326788e-05 0 -0.00030537353662767996 -5.763987701686095e-05 0 -0.00031778310350742955 -3.9997454925921231e-05 0 -0.00030833149771447615 -2.2291003662385405e-05 0 -0.00030188337279693403 -3.0226146047631767e-05 0 -0.00031778310350742955 -3.9997454925921231e-05 0 -0.00033177176854671349 -3.2782793534101627e-05 0 -0.00030833149771447615 -2.2291003662385405e-05 0 -0.00030470395687727736 -4.2385444062723687e-05 0 -0.00031778310350742955 -3.9997454925921231e-05 0 -0.00030188337279693403 -3.0226146047631767e-05 0 -0.00030470395687727736 -4.2385444062723687e-05 0 -0.00031778310350742955 -3.9997454925921231e-05 0 -0.00032333653292512988 -5.9991793377189949e-05 0 -0.00034030984869917172 -6.080128075995677e-05 0 -0.00031778310350742955 -3.9997454925921231e-05 0 -0.00032333653292512988 -5.9991793377189949e-05 0 -0.00034030984869917172 -6.080128075995677e-05 0 -0.00031778310350742955 -3.9997454925921231e-05 0 -0.00033177176854671349 -3.2782793534101627e-05 0 -0.00036163429203919616 -5.8079881492399287e-05 0 -0.00034030984869917172 -6.080128075995677e-05 0 -0.00033177176854671349 -3.2782793534101627e-05 0 -0.00036163429203919616 -5.8079881492399287e-05 0 -0.00035038599685836467 -2.734813304694259e-05 0 -0.00033177176854671349 -3.2782793534101627e-05 0 -0.00036163429203919616 -5.8079881492399287e-05 0 -0.00035038599685836467 -2.734813304694259e-05 0 -0.00038553492044744389 -1.7512268435373353e-05 0 -0.00035038599685836467 -2.734813304694259e-05 0 -0.00032695342012431381 -9.6331386628993059e-06 0 -0.00038553492044744389 -1.7512268435373353e-05 0 -0.00035038599685836467 -2.734813304694259e-05 0 -0.00032695342012431381 -9.6331386628993059e-06 0 -0.00033177176854671349 -3.2782793534101627e-05 0 -0.00032695342012431381 -9.6331386628993059e-06 0 -0.00033177176854671349 -3.2782793534101627e-05 0 -0.00030833149771447615 -2.2291003662385405e-05 0 -0.00032695342012431381 -9.6331386628993059e-06 0 -0.00028929391244710662 -7.521290285190904e-06 0 -0.00030833149771447615 -2.2291003662385405e-05 0 -0.00032695342012431381 -9.6331386628993059e-06 0 -0.00028779485523100447 2.4251683687687397e-06 0 -0.00028929391244710662 -7.521290285190904e-06 0 -0.00028779485523100447 2.4251683687687397e-06 0 -0.00028929391244710662 -7.521290285190904e-06 0 -0.00024664332206263611 -5.5658920213681299e-06 0 -0.00029110513186177096 -2.0094664578150857e-05 0 -0.00028055561032511357 -2.5034602101670227e-05 0 -0.0002729368433379252 -1.519983836248571e-05 0 -0.00028929391244710662 -7.521290285190904e-06 0 -0.00029110513186177096 -2.0094664578150857e-05 0 -0.0002729368433379252 -1.519983836248571e-05 0 -0.00028929391244710662 -7.521290285190904e-06 0 -0.00029110513186177096 -2.0094664578150857e-05 0 -0.00030833149771447615 -2.2291003662385405e-05 0 -0.00029110513186177096 -2.0094664578150857e-05 0 -0.00030833149771447615 -2.2291003662385405e-05 0 -0.00030188337279693403 -3.0226146047631767e-05 0 -0.00029175608766025249 -3.1119868433986884e-05 0 -0.00029110513186177096 -2.0094664578150857e-05 0 -0.00030188337279693403 -3.0226146047631767e-05 0 -0.00029175608766025249 -3.1119868433986884e-05 0 -0.00030470395687727736 -4.2385444062723687e-05 0 -0.00030188337279693403 -3.0226146047631767e-05 0 -0.00029175608766025249 -3.1119868433986884e-05 0 -0.00029110513186177096 -2.0094664578150857e-05 0 -0.00028055561032511357 -2.5034602101670227e-05 0 -0.00028055561032511357 -2.5034602101670227e-05 0 -0.0002729368433379252 -1.519983836248571e-05 0 -0.00026615236114951136 -2.807293203580263e-05 0 -0.00026615236114951136 -2.807293203580263e-05 0 -0.00025979157603845299 -2.0887339775962423e-05 0 -0.00024968457058469707 -3.5759486543092173e-05 0 -0.0002729368433379252 -1.519983836248571e-05 0 -0.00026615236114951136 -2.807293203580263e-05 0 -0.00025979157603845299 -2.0887339775962423e-05 0 -0.00027082818715137678 -3.3878083468389559e-05 0 -0.00026615236114951136 -2.807293203580263e-05 0 -0.0002617713606755175 -4.1108437126682433e-05 0 -0.00027082818715137678 -3.3878083468389559e-05 0 -0.00028055561032511357 -2.5034602101670227e-05 0 -0.00026615236114951136 -2.807293203580263e-05 0 -0.00026615236114951136 -2.807293203580263e-05 0 -0.0002617713606755175 -4.1108437126682433e-05 0 -0.0002541642309673528 -4.3014480773288427e-05 0 -0.00026615236114951136 -2.807293203580263e-05 0 -0.0002541642309673528 -4.3014480773288427e-05 0 -0.00024968457058469707 -3.5759486543092173e-05 0 -0.00024407428532232617 -5.4891232056147959e-05 0 -0.0002541642309673528 -4.3014480773288427e-05 0 -0.0002438979799582253 -5.0206718557514102e-05 0 -0.0002541642309673528 -4.3014480773288427e-05 0 -0.0002438979799582253 -5.0206718557514102e-05 0 -0.00024968457058469707 -3.5759486543092173e-05 0 -0.00025372208241761858 -5.058994068424316e-05 0 -0.0002617713606755175 -4.1108437126682433e-05 0 -0.0002541642309673528 -4.3014480773288427e-05 0 -0.00024407428532232617 -5.4891232056147959e-05 0 -0.00025372208241761858 -5.058994068424316e-05 0 -0.0002541642309673528 -4.3014480773288427e-05 0 -0.0002649945154825579 -7.7909742381971451e-05 0 -0.00022721670425384274 -3.0235048521614218e-06 0 -0.00019049682963854595 -8.2473663504722242e-05 0 -0.00017794158663540853 -9.2183947325375583e-05 0 -0.00017811149138749016 -1.8148468143193718e-05 0 -0.00023098167765635852 -5.8914988898370538e-05 0 -0.00024968457058469707 -3.5759486543092173e-05 0 -0.00024664332206263611 -5.5658920213681299e-06 0 -7.2240239420958143e-05 -3.1808728110390052e-05 0 -0.00014430310642648696 -8.4735081678565053e-06 0 -0.00019049682963854595 -8.2473663504722242e-05 0 -0.00017811149138749016 -1.8148468143193718e-05 0 -0.00024664332206263611 -5.5658920213681299e-06 0 7.9714999733270794e-05 8.4342210532600566e-06 0 -0.00017811149138749016 -1.8148468143193718e-05 0 -1.1184718023343483e-05 -1.4180322586985673e-06 0 -0.00023098167765635852 -5.8914988898370538e-05 0 -0.0002438979799582253 -5.0206718557514102e-05 0 -0.00024968457058469707 -3.5759486543092173e-05 0 -0.00025979157603845299 -2.0887339775962423e-05 0 -0.00024968457058469707 -3.5759486543092173e-05 0 -0.00024664332206263611 -5.5658920213681299e-06 0 -0.0002729368433379252 -1.519983836248571e-05 0 -0.00025979157603845299 -2.0887339775962423e-05 0 -0.00024664332206263611 -5.5658920213681299e-06 0 -0.00028929391244710662 -7.521290285190904e-06 0 -0.0002729368433379252 -1.519983836248571e-05 0 -0.00024664332206263611 -5.5658920213681299e-06 0 -0.00017811149138749016 -1.8148468143193718e-05 0 -0.00024664332206263611 -5.5658920213681299e-06 0 -0.00024639092126221379 4.6906910331725938e-06 0 -0.00028779485523100447 2.4251683687687397e-06 0 -0.00024664332206263611 -5.5658920213681299e-06 0 -0.00024639092126221379 4.6906910331725938e-06 0 -0.00017811149138749016 -1.8148468143193718e-05 0 -0.00024639092126221379 4.6906910331725938e-06 0 -0.00017235410665992115 1.9968205648837876e-06 0 -0.00024639092126221379 4.6906910331725938e-06 0 -0.00017235410665992115 1.9968205648837876e-06 0 -0.00027790097230965491 7.7238277075592547e-06 0 -0.00017811149138749016 -1.8148468143193718e-05 0 -9.9297761771029972e-05 -7.195386866164145e-06 0 -1.1184718023343483e-05 -1.4180322586985673e-06 0 -0.00017235410665992115 1.9968205648837876e-06 0 -9.9297761771029972e-05 -7.195386866164145e-06 0 -3.3269159292011584e-05 -1.5329966696685373e-06 0 -0.00017811149138749016 -1.8148468143193718e-05 0 -0.00017235410665992115 1.9968205648837876e-06 0 -9.9297761771029972e-05 -7.195386866164145e-06 0 -9.9297761771029972e-05 -7.195386866164145e-06 0 -3.3269159292011584e-05 -1.5329966696685373e-06 0 -1.1184718023343483e-05 -1.4180322586985673e-06 0 4.0679870710982923e-05 2.7006317475569192e-08 0 -0.00017235410665992115 1.9968205648837876e-06 0 -3.3269159292011584e-05 -1.5329966696685373e-06 0 4.0679870710982923e-05 2.7006317475569192e-08 0 -0.00017235410665992115 1.9968205648837876e-06 0 -0.00024154162556317107 -9.12381428473192e-09 0 -0.00017235410665992115 1.9968205648837876e-06 0 -0.00024154162556317107 -9.12381428473192e-09 0 -0.00027790097230965491 7.7238277075592547e-06 0 -0.00024154162556317107 -9.12381428473192e-09 0 -0.00036824202348275954 9.1219959458872993e-06 0 -0.00027790097230965491 7.7238277075592547e-06 0 -0.00024154162556317107 -9.12381428473192e-09 0 -0.00036824202348275954 9.1219959458872993e-06 0 -0.0005239502192261493 1.2032083182463216e-07 0 -0.00036824202348275954 9.1219959458872993e-06 0 -0.00027790097230965491 7.7238277075592547e-06 0 -0.00033827895983138003 8.2331092278128354e-06 0 -0.00024639092126221379 4.6906910331725938e-06 0 -0.00027790097230965491 7.7238277075592547e-06 0 -0.00033827895983138003 8.2331092278128354e-06 0 -0.00028779485523100447 2.4251683687687397e-06 0 -0.00024639092126221379 4.6906910331725938e-06 0 -0.00033827895983138003 8.2331092278128354e-06 0 -0.00032695342012431381 -9.6331386628993059e-06 0 -0.00028779485523100447 2.4251683687687397e-06 0 -0.00033827895983138003 8.2331092278128354e-06 0 -0.00036824202348275954 9.1219959458872993e-06 0 -0.00033827895983138003 8.2331092278128354e-06 0 -0.00044651782104238388 2.1903927518264122e-06 0 -0.00033827895983138003 8.2331092278128354e-06 0 -0.00038553492044744389 -1.7512268435373353e-05 0 -0.00044651782104238388 2.1903927518264122e-06 0 -0.00032695342012431381 -9.6331386628993059e-06 0 -0.00033827895983138003 8.2331092278128354e-06 0 -0.00038553492044744389 -1.7512268435373353e-05 0 -0.00044035087386249593 -2.6679701162779086e-05 0 -0.00036163429203919616 -5.8079881492399287e-05 0 -0.00038553492044744389 -1.7512268435373353e-05 0 -0.00057925441797506522 -4.6659049613148169e-06 0 -0.00044035087386249593 -2.6679701162779086e-05 0 -0.00044651782104238388 2.1903927518264122e-06 0 -0.00044035087386249593 -2.6679701162779086e-05 0 -0.00038553492044744389 -1.7512268435373353e-05 0 -0.00044651782104238388 2.1903927518264122e-06 0 -0.00057925441797506522 -4.6659049613148169e-06 0 -0.0005239502192261493 1.2032083182463216e-07 0 -0.00044651782104238388 2.1903927518264122e-06 0 -0.00036824202348275954 9.1219959458872993e-06 0 -0.0005239502192261493 1.2032083182463216e-07 0 -0.00044651782104238388 2.1903927518264122e-06 0 -0.0010633482666423846 -0.0002537141132597096 0 -0.0010267702648003899 -0.00026110196431194461 0 -0.0010692932847910534 -0.00023175843194847716 0 -0.00060298665281393487 -0.000253293047572509 0 -0.00056808530627646227 -0.00027564657500603345 0 -0.0010633482666423846 -0.0002537141132597096 0 -0.0010267702648003899 -0.00026110196431194461 0 -0.001025611772813141 -0.00031600262823162445 0 -0.00014280615864769249 -0.00024416085079602325 0 -0.00016169473918590651 -0.00024432144179773282 0 -0.00013981342653704535 -0.00023125378155467875 0 -0.00014280615864769249 -0.00024416085079602325 0 -0.00012763013647208561 -0.00023462200801454487 0 -0.00012925951248781391 -0.00024609166999545873 0 -0.00014280615864769249 -0.00024416085079602325 0 -0.00012763013647208561 -0.00023462200801454487 0 -0.00013981342653704535 -0.00023125378155467875 0 -0.00012763013647208561 -0.00023462200801454487 0 -0.00011498080221960542 -0.00022461322556975257 0 -0.00011903623370202559 -0.00023948374353727022 0 -0.00012763013647208561 -0.00023462200801454487 0 -0.00012925951248781391 -0.00024609166999545873 0 -0.00011903623370202559 -0.00023948374353727022 0 -0.0010633482666423846 -0.0002537141132597096 0 -0.0010180314913884965 -0.00024186940134649721 0 -0.0010405126090846102 -0.00025858828312695019 0 -0.00060298665281393487 -0.000253293047572509 0 -0.00058233560379264936 -0.00022653170392147837 0 -0.0010180314913884965 -0.00024186940134649721 0 -0.0010405126090846102 -0.00025858828312695019 0 -0.0010044487295925249 -0.00026990805638314253 0 -0.0010405126090846102 -0.00025858828312695019 0 -0.0010044487295925249 -0.00026990805638314253 0 -0.0010236921872109246 -0.00028709545386652321 0 -0.0010180314913884965 -0.00024186940134649721 0 -0.0010044487295925249 -0.00026990805638314253 0 -0.00096817984901903737 -0.00025380164839838864 0 -0.0010227807189997198 -0.00032135722674865764 0 -0.0010034772019236013 -0.00029431180396560563 0 -0.0010236921872109246 -0.00028709545386652321 0 -0.0010044487295925249 -0.00026990805638314253 0 -0.0010034772019236013 -0.00029431180396560563 0 -0.00097834838107647591 -0.0002829230628240593 0 -0.0010044487295925249 -0.00026990805638314253 0 -0.0010034772019236013 -0.00029431180396560563 0 -0.0010236921872109246 -0.00028709545386652321 0 -0.0010405126090846102 -0.00025858828312695019 0 -0.0010236921872109246 -0.00028709545386652321 0 -0.0010578069143377961 -0.00027958233990046179 0 -0.0010460457593265168 -0.00030692995714046671 0 -0.0010236921872109246 -0.00028709545386652321 0 -0.0010578069143377961 -0.00027958233990046179 0 -0.0010709397515553051 -0.00030583250183601732 0 -0.0010460457593265168 -0.00030692995714046671 0 -0.0010578069143377961 -0.00027958233990046179 0 -0.0010709397515553051 -0.00030583250183601732 0 -0.0010578069143377961 -0.00027958233990046179 0 -0.0010824837060445492 -0.00027842703226204247 0 -0.0010578069143377961 -0.00027958233990046179 0 -0.001060996167540446 -0.00025138196954640395 0 -0.0010824837060445492 -0.00027842703226204247 0 -0.0010633482666423846 -0.0002537141132597096 0 -0.001060996167540446 -0.00025138196954640395 0 -0.0010692932847910534 -0.00023175843194847716 0 -0.0010405126090846102 -0.00025858828312695019 0 -0.0010578069143377961 -0.00027958233990046179 0 -0.001060996167540446 -0.00025138196954640395 0 -0.0010633482666423846 -0.0002537141132597096 0 -0.0010405126090846102 -0.00025858828312695019 0 -0.001060996167540446 -0.00025138196954640395 0 -0.001060996167540446 -0.00025138196954640395 0 -0.0010692932847910534 -0.00023175843194847716 0 -0.0010824837060445492 -0.00027842703226204247 0 -0.0010692932847910534 -0.00023175843194847716 0 -0.0010824837060445492 -0.00027842703226204247 0 -0.0011363219306531945 -0.00029840975475054453 0 -0.0010692932847910534 -0.00023175843194847716 0 -0.0011585951584543403 -0.00026996250837114813 0 -0.0011363219306531945 -0.00029840975475054453 0 -0.0011822536166271984 -0.00031508649325278487 0 -0.0011585951584543403 -0.00026996250837114813 0 -0.0011363219306531945 -0.00029840975475054453 0 -0.0011822536166271984 -0.00031508649325278487 0 -0.0011944543725134166 -0.00026681247915989558 0 -0.0012093250460102688 -0.00029015348963203844 0 -0.0011822536166271984 -0.00031508649325278487 0 -0.0011585951584543403 -0.00026996250837114813 0 -0.0011944543725134166 -0.00026681247915989558 0 -0.0011587095167129571 -0.00022138321375810181 0 -0.0011977760963627197 -0.00023837572429087457 0 -0.0012108864452434573 -0.00021847913318578631 0 -0.0011585951584543403 -0.00026996250837114813 0 -0.0011944543725134166 -0.00026681247915989558 0 -0.0011587095167129571 -0.00022138321375810181 0 -0.0011944543725134166 -0.00026681247915989558 0 -0.0011587095167129571 -0.00022138321375810181 0 -0.0011977760963627197 -0.00023837572429087457 0 -0.0010692932847910534 -0.00023175843194847716 0 -0.0011585951584543403 -0.00026996250837114813 0 -0.0011587095167129571 -0.00022138321375810181 0 -0.0010503013706745035 -0.00022804720245795152 0 -0.0010709953976525703 -0.00020269019854468173 0 -0.0010267702648003899 -0.00026110196431194461 0 -0.0010692932847910534 -0.00023175843194847716 0 -0.00093092326123169085 -0.00018724080778784356 0 -0.0012142791587669017 -0.00032771860919865735 0 -0.0012526744761489138 -0.00027141345942525828 0 -0.0012402480109768611 -0.00027008851681079325 0 -0.001463239778435359 -0.00037125685223054187 0 -0.001097890773658097 -0.00029461206129806095 0 -0.00044369597308247368 -0.00016350704391910465 0 -0.00044972288975368441 -0.00017022635953778959 0 -0.00043679734844919024 -0.00017724732033955838 0 -0.001016671930690678 -0.00035248217251379366 0 -0.00092519473313151356 -0.00028433487532102873 0 -0.0012533796567101955 -0.00026780730959152506 0 -0.0012513556925682501 -0.00027111863215030252 0 -0.0012449244727197584 -0.0002650960987351979 0 -0.001016671930690678 -0.00035248217251379366 0 -0.001097890773658097 -0.00029461206129806095 0 -0.00097584080066250739 -0.0003832612529754169 0 -0.00093890303668597039 -0.0003442849883012099 0 -0.00091910333222935047 -0.00037756756977566565 0 -0.00092519473313151356 -0.00028433487532102873 0 -0.001097890773658097 -0.00029461206129806095 0 -0.0014935814679688621 -0.0004705665527392308 0 -0.0014948135324123204 -0.00059159509377564143 0 -0.0015160726436673868 -0.00059390740274351927 0 -0.0012402480109768611 -0.00027008851681079325 0 -0.0012213808854754759 -0.00026724579350950847 0 -0.0012370701111252419 -0.00026252508725566623 0 -0.001097890773658097 -0.00029461206129806095 0 -0.0011884264594910952 -0.00029463340395635554 0 -0.0012513556925682501 -0.00027111863215030252 0 -0.0012402480109768611 -0.00027008851681079325 0 -0.0012449244727197584 -0.0002650960987351979 0 -0.0012402480109768611 -0.00027008851681079325 0 -0.0012449244727197584 -0.0002650960987351979 0 -0.0012370701111252419 -0.00026252508725566623 0 -0.0012142791587669017 -0.00032771860919865735 0 -0.0012402480109768611 -0.00027008851681079325 0 -0.0012093250460102688 -0.00029015348963203844 0 -0.0012402480109768611 -0.00027008851681079325 0 -0.0012213808854754759 -0.00026724579350950847 0 -0.0012093250460102688 -0.00029015348963203844 0 -0.0011944543725134166 -0.00026681247915989558 0 -0.0012213808854754759 -0.00026724579350950847 0 -0.0012093250460102688 -0.00029015348963203844 0 -0.0011944543725134166 -0.00026681247915989558 0 -0.0012119210263962612 -0.0002519920977815451 0 -0.0011977760963627197 -0.00023837572429087457 0 -0.0011944543725134166 -0.00026681247915989558 0 -0.0012213808854754759 -0.00026724579350950847 0 -0.0012119210263962612 -0.0002519920977815451 0 -0.0011977760963627197 -0.00023837572429087457 0 -0.0012138135026428405 -0.00024057164561629602 0 -0.0012108864452434573 -0.00021847913318578631 0 -0.0012119210263962612 -0.0002519920977815451 0 -0.0011977760963627197 -0.00023837572429087457 0 -0.0012138135026428405 -0.00024057164561629602 0 -0.0012138135026428405 -0.00024057164561629602 0 -0.0012342361678229583 -0.00025345399032344451 0 -0.0012108864452434573 -0.00021847913318578631 0 -0.0012119210263962612 -0.0002519920977815451 0 -0.0012138135026428405 -0.00024057164561629602 0 -0.0012342361678229583 -0.00025345399032344451 0 -0.0012213808854754759 -0.00026724579350950847 0 -0.0012119210263962612 -0.0002519920977815451 0 -0.0012342361678229583 -0.00025345399032344451 0 -0.00092519473313151356 -0.00028433487532102873 0 -0.00083649684544387533 -0.00021939543745621038 0 -0.0012533796567101955 -0.00026780730959152506 0 -0.0012342361678229583 -0.00025345399032344451 0 -0.0012108864452434573 -0.00021847913318578631 0 -0.00044873995078357175 -0.00016969136465200686 0 -0.00046588929014344398 -0.00020028461953976637 0 -0.00050665540050760913 -0.00022680266264973105 0 -0.0012533796567101955 -0.00026780730959152506 0 -0.0012449244727197584 -0.0002650960987351979 0 -0.0012342361678229583 -0.00025345399032344451 0 -0.0012213808854754759 -0.00026724579350950847 0 -0.0012370701111252419 -0.00026252508725566623 0 -0.0012342361678229583 -0.00025345399032344451 0 -0.0012449244727197584 -0.0002650960987351979 0 -0.0012370701111252419 -0.00026252508725566623 0 -0.0012342361678229583 -0.00025345399032344451 0 -0.00046616966659855565 -0.00021361793134515213 0 -0.00046588929014344398 -0.00020028461953976637 0 -0.00050665540050760913 -0.00022680266264973105 0 -0.00046616966659855565 -0.00021361793134515213 0 -0.00046588929014344398 -0.00020028461953976637 0 -0.00045603498329026206 -0.00020115880064942632 0 -0.00046588929014344398 -0.00020028461953976637 0 -0.00045603498329026206 -0.00020115880064942632 0 -0.00045201993188337283 -0.00018999773780856486 0 -0.00045603498329026206 -0.00020115880064942632 0 -0.00044584552442601612 -0.00021171415440387871 0 -0.00044373542843852831 -0.00019856206721204604 0 -0.00046616966659855565 -0.00021361793134515213 0 -0.00045603498329026206 -0.00020115880064942632 0 -0.00044584552442601612 -0.00021171415440387871 0 -0.00042893742277651101 -0.00020079576464036795 0 -0.00044584552442601612 -0.00021171415440387871 0 -0.00044373542843852831 -0.00019856206721204604 0 -0.00044373542843852831 -0.00019856206721204604 0 -0.00043648467093621496 -0.00018903338903539829 0 -0.00045201993188337283 -0.00018999773780856486 0 -0.00044873995078357175 -0.00016969136465200686 0 -0.00046588929014344398 -0.00020028461953976637 0 -0.00045201993188337283 -0.00018999773780856486 0 -0.00042893742277651101 -0.00020079576464036795 0 -0.00044373542843852831 -0.00019856206721204604 0 -0.00043648467093621496 -0.00018903338903539829 0 -0.00045603498329026206 -0.00020115880064942632 0 -0.00044373542843852831 -0.00019856206721204604 0 -0.00045201993188337283 -0.00018999773780856486 0 -0.00092519473313151356 -0.00028433487532102873 0 -0.00069719289068032443 -0.00031198790155365173 0 -0.00044873995078357175 -0.00016969136465200686 0 -0.00043648467093621496 -0.00018903338903539829 0 -0.00045201993188337283 -0.00018999773780856486 0 -0.00044972288975368441 -0.00017022635953778959 0 -0.00043648467093621496 -0.00018903338903539829 0 -0.00043679734844919024 -0.00017724732033955838 0 -0.00046616966659855565 -0.00021361793134515213 0 -0.00045040472603363665 -0.00023549894634263417 0 -0.00050665540050760913 -0.00022680266264973105 0 -0.00047820622731244194 -0.0002281903674130428 0 -0.00083649684544387533 -0.00021939543745621038 0 -0.00058489402169649765 -0.00020490565176014015 0 -0.00068205904863264592 -0.00025449946860888124 0 -0.00074359846063870138 -0.00018653952887098403 0 -0.00042351066616867316 -0.00021917875677414698 0 -0.00044584552442601612 -0.00021171415440387871 0 -0.00045040472603363665 -0.00023549894634263417 0 -0.00046616966659855565 -0.00021361793134515213 0 -0.00044584552442601612 -0.00021171415440387871 0 -0.00045040472603363665 -0.00023549894634263417 0 -0.00058489402169649765 -0.00020490565176014015 0 -0.00068205904863264592 -0.00025449946860888124 0 -0.0005445323321383674 -0.00028352781406350606 0 -0.00068205904863264592 -0.00025449946860888124 0 -0.00076432779465092934 -0.00021016950042812834 0 -0.00074416839222087028 -0.00029832761745123503 0 -0.00068205904863264592 -0.00025449946860888124 0 -0.00076432779465092934 -0.00021016950042812834 0 -0.00074359846063870138 -0.00018653952887098403 0 -0.00081776450448854448 -0.00020639194482781708 0 -0.00083649684544387533 -0.00021939543745621038 0 -0.00076432779465092934 -0.00021016950042812834 0 -0.00074416839222087028 -0.00029832761745123503 0 -0.0008399238457674164 -0.00029334622983994329 0 -0.00074416839222087028 -0.00029832761745123503 0 -0.00076669437188203358 -0.00037241178166039549 0 -0.0008399238457674164 -0.00029334622983994329 0 -0.00076669437188203358 -0.00037241178166039549 0 -0.00066871534417537837 -0.00036118545930614491 0 -0.00073189539026996097 -0.00045718754229537382 0 -0.00074416839222087028 -0.00029832761745123503 0 -0.00076669437188203358 -0.00037241178166039549 0 -0.00066871534417537837 -0.00036118545930614491 0 -0.00068205904863264592 -0.00025449946860888124 0 -0.00074416839222087028 -0.00029832761745123503 0 -0.00066871534417537837 -0.00036118545930614491 0 -0.00066871534417537837 -0.00036118545930614491 0 -0.00056251761475665499 -0.00036653020089840756 0 -0.00060403394600965703 -0.00048989263661988671 0 -0.00068205904863264592 -0.00025449946860888124 0 -0.00066871534417537837 -0.00036118545930614491 0 -0.0005445323321383674 -0.00028352781406350606 0 -0.00066871534417537837 -0.00036118545930614491 0 -0.00056251761475665499 -0.00036653020089840756 0 -0.0005445323321383674 -0.00028352781406350606 0 -0.0010267702648003899 -0.00026110196431194461 0 -0.00093092326123169085 -0.00018724080778784356 0 -0.00094297098310956045 -0.00029051293474987097 0 -0.00093092326123169085 -0.00018724080778784356 0 -0.00076432779465092934 -0.00021016950042812834 0 -0.00074656359080521888 -0.00019016445402578324 0 -0.00093092326123169085 -0.00018724080778784356 0 -0.00094297098310956045 -0.00029051293474987097 0 -0.0008399238457674164 -0.00029334622983994329 0 -0.0010709953976525703 -0.00020269019854468173 0 -0.00083649684544387533 -0.00021939543745621038 0 -0.00093092326123169085 -0.00018724080778784356 0 -0.00076432779465092934 -0.00021016950042812834 0 -0.0008399238457674164 -0.00029334622983994329 0 -0.00094297098310956045 -0.00029051293474987097 0 -0.0008399238457674164 -0.00029334622983994329 0 -0.00088298688817809313 -0.00039392103187754003 0 -0.0008399238457674164 -0.00029334622983994329 0 -0.00081806851120576579 -0.00039503975678599528 0 -0.0008502278191630867 -0.00042066235319246522 0 -0.00084767077072402759 -0.00033092395907888072 0 -0.00065622362524673736 -0.00038028188132777617 0 -0.00076669437188203358 -0.00037241178166039549 0 -0.0008399238457674164 -0.00029334622983994329 0 -0.00081806851120576579 -0.00039503975678599528 0 -0.00076669437188203358 -0.00037241178166039549 0 -0.00081806851120576579 -0.00039503975678599528 0 -0.00078919256583925683 -0.00043280709266833346 0 -0.00056808530627646227 -0.00027564657500603345 0 -0.00065622362524673736 -0.00038028188132777617 0 -0.001025611772813141 -0.00031600262823162445 0 -0.00094297098310956045 -0.00029051293474987097 0 -0.00088298688817809313 -0.00039392103187754003 0 -0.0010267702648003899 -0.00026110196431194461 0 -0.001025611772813141 -0.00031600262823162445 0 -0.00094297098310956045 -0.00029051293474987097 0 -0.0001686654981308318 -0.00023388447949915448 0 -0.00017871663789693464 -0.00022361213760652002 0 -0.0001600336112023744 -0.00022552301569196931 0 -0.0001686654981308318 -0.00023388447949915448 0 -0.00018758390588597643 -0.00024109156574813774 0 -0.00017871663789693464 -0.00022361213760652002 0 -0.00016169473918590651 -0.00024432144179773282 0 -0.0001686654981308318 -0.00023388447949915448 0 -0.00018758390588597643 -0.00024109156574813774 0 -0.0008502278191630867 -0.00042066235319246522 0 -0.00082598999924246466 -0.00046252652550514021 0 -0.00086680554589276643 -0.00054071622420419135 0 -0.00065622362524673736 -0.00038028188132777617 0 -0.00052630805358879873 -0.00039131220999986358 0 -0.00081806851120576579 -0.00039503975678599528 0 -0.00078919256583925683 -0.00043280709266833346 0 -0.00081718641050909755 -0.00042375453706169566 0 -0.00081806851120576579 -0.00039503975678599528 0 -0.0008502278191630867 -0.00042066235319246522 0 -0.00081718641050909755 -0.00042375453706169566 0 -0.0008502278191630867 -0.00042066235319246522 0 -0.0008343975863517939 -0.00043236877363477829 0 -0.00081718641050909755 -0.00042375453706169566 0 -0.0008502278191630867 -0.00042066235319246522 0 -0.0008343975863517939 -0.00043236877363477829 0 -0.00082598999924246466 -0.00046252652550514021 0 -0.0008343975863517939 -0.00043236877363477829 0 -0.00081718641050909755 -0.00042375453706169566 0 -0.00082598999924246466 -0.00046252652550514021 0 -0.00078919256583925683 -0.00043280709266833346 0 -0.00081718641050909755 -0.00042375453706169566 0 -0.00082598999924246466 -0.00046252652550514021 0 -0.00082598999924246466 -0.00046252652550514021 0 -0.00079614878331722141 -0.00051250237602180231 0 -0.00086680554589276643 -0.00054071622420419135 0 -0.00078919256583925683 -0.00043280709266833346 0 -0.00082598999924246466 -0.00046252652550514021 0 -0.00079614878331722141 -0.00051250237602180231 0 -0.00079614878331722141 -0.00051250237602180231 0 -0.00082077676317761784 -0.00059913299100938246 0 -0.00073487761139278264 -0.00056408749810356177 0 -0.00086680554589276643 -0.00054071622420419135 0 -0.00082077676317761784 -0.00059913299100938246 0 -0.00088575992593127302 -0.00063385178547410075 0 -0.00079614878331722141 -0.00051250237602180231 0 -0.00086680554589276643 -0.00054071622420419135 0 -0.00082077676317761784 -0.00059913299100938246 0 -0.00045090319094999513 -0.00033453334523908068 0 -0.00056286355947770541 -0.00040163815483852477 0 -0.00044203381459504879 -0.00030482384601375403 0 -0.00049911585239469233 -0.00036267605526252414 0 -0.00030735228562632125 -0.00020391268781184738 0 -0.00052630805358879873 -0.00039131220999986358 0 -0.00037315096126123895 -0.00031201395505847472 0 -0.00017871663789693464 -0.00022361213760652002 0 -0.00016457984445688502 -0.00021726868206784356 0 -0.00017041989142847856 -0.00020628147485157161 0 -0.00017871663789693464 -0.00022361213760652002 0 -0.00016457984445688502 -0.00021726868206784356 0 -0.0001600336112023744 -0.00022552301569196931 0 -0.00044786369239431723 -0.00039146271994750214 0 -0.00056251761475665499 -0.00036653020089840756 0 -0.00060403394600965703 -0.00048989263661988671 0 -0.00066871534417537837 -0.00036118545930614491 0 -0.00060403394600965703 -0.00048989263661988671 0 -0.00073189539026996097 -0.00045718754229537382 0 -0.00035112678174843855 -0.0002716988294523742 0 -0.0004176851159678241 -0.00029177005416033242 0 -0.00042881545099749004 -0.00031501066960451431 0 -0.0002779265726389836 -0.000140206742047105 0 -0.00033333029409075398 -0.0002358547313597507 0 -0.00079614878331722141 -0.00051250237602180231 0 -0.00073189539026996097 -0.00045718754229537382 0 -0.00073487761139278264 -0.00056408749810356177 0 -0.00060403394600965703 -0.00048989263661988671 0 -0.00073189539026996097 -0.00045718754229537382 0 -0.00073487761139278264 -0.00056408749810356177 0 -0.00076669437188203358 -0.00037241178166039549 0 -0.00078919256583925683 -0.00043280709266833346 0 -0.00073189539026996097 -0.00045718754229537382 0 -0.00078919256583925683 -0.00043280709266833346 0 -0.00079614878331722141 -0.00051250237602180231 0 -0.00073189539026996097 -0.00045718754229537382 0 -0.00023271327770318893 -0.00015443737440051439 0 -0.00026620810123783272 -0.00013732764403126698 0 -0.00022775510069316664 -0.00012307224784729621 0 -0.00069739388364247162 -0.00050212116928724005 0 -0.00049911585239469233 -0.00036267605526252414 0 -0.00033333029409075398 -0.0002358547313597507 0 -0.00049911585239469233 -0.00036267605526252414 0 -0.0004176851159678241 -0.00029177005416033242 0 -0.00042881545099749004 -0.00031501066960451431 0 -0.00050657996443043975 -0.00035788183716877039 0 -0.00028997579696001842 -0.00018686700360530771 0 -0.00026139480855992265 -0.00017088316277528854 0 -0.00026620810123783272 -0.00013732764403126698 0 -0.00026139480855992265 -0.00017088316277528854 0 -0.00023271327770318893 -0.00015443737440051439 0 -0.00026620810123783272 -0.00013732764403126698 0 -0.00054198081457682555 -0.00041652788103182928 0 -0.00049911585239469233 -0.00036267605526252414 0 -0.0002779265726389836 -0.000140206742047105 0 -0.00025503792697819977 -9.7276866071316912e-05 0 -0.00025503792697819977 -9.7276866071316912e-05 0 -0.00024038052207691542 -8.6880777413830666e-05 0 -0.00026620810123783272 -0.00013732764403126698 0 -0.00022775510069316664 -0.00012307224784729621 0 -0.00023738273174923283 -8.6454901480118238e-05 0 -0.00023271327770318893 -0.00015443737440051439 0 -0.00022775510069316664 -0.00012307224784729621 0 -0.00020601992537557225 -0.0001302012846465977 0 -0.00022775510069316664 -0.00012307224784729621 0 -0.00023738273174923283 -8.6454901480118238e-05 0 -0.00020893366485984151 -0.00010923640142418026 0 -0.0002466532622187703 -7.1502046133558285e-05 0 -0.00025038323371725022 -6.3269479820191182e-05 0 -0.00023738273174923283 -8.6454901480118238e-05 0 -0.00023938110969698643 -7.684866674705906e-05 0 -0.0002466532622187703 -7.1502046133558285e-05 0 -0.00023738273174923283 -8.6454901480118238e-05 0 -0.00037315096126123895 -0.00031201395505847472 0 -6.7257627894485968e-05 -0.00015644247297245213 0 -0.00016977521340733845 -0.00021513426868254259 0 -0.00015888819153524731 -0.00019933170212860896 0 -0.00014441254037337933 -0.00019850772953071695 0 -0.00031667351489311063 -0.00020770750143815091 0 -0.00033494199350611636 -0.0002676594030101841 0 -0.00044203381459504879 -0.00030482384601375403 0 -0.00022979645722094656 -0.00017239697086375246 0 -0.00037315096126123895 -0.00031201395505847472 0 -0.00016678393120803163 -0.00020534499446380367 0 -0.00016977521340733845 -0.00021513426868254259 0 -0.00015888819153524731 -0.00019933170212860896 0 -0.00016457984445688502 -0.00021726868206784356 0 -0.00017041989142847856 -0.00020628147485157161 0 -0.00015284306501204555 -0.00021037024391590303 0 -0.00069739388364247162 -0.00050212116928724005 0 -0.00037315096126123895 -0.00031201395505847472 0 -0.00045090319094999513 -0.00033453334523908068 0 -0.00033494199350611636 -0.0002676594030101841 0 -0.00044203381459504879 -0.00030482384601375403 0 -0.00018833740176501948 -0.00011284923439073679 0 -0.00020601992537557225 -0.0001302012846465977 0 -0.00020893366485984151 -0.00010923640142418026 0 -0.00022775510069316664 -0.00012307224784729621 0 -0.00020601992537557225 -0.0001302012846465977 0 -0.00020893366485984151 -0.00010923640142418026 0 -0.00022979645722094656 -0.00017239697086375246 0 -0.00030735228562632125 -0.00020391268781184738 0 -0.00020445721612677372 -9.3720087873076278e-05 0 -0.00018833740176501948 -0.00011284923439073679 0 -0.00020893366485984151 -0.00010923640142418026 0 -0.00020445721612677372 -9.3720087873076278e-05 0 -0.00023738273174923283 -8.6454901480118238e-05 0 -0.00020893366485984151 -0.00010923640142418026 0 -0.00016288285290797232 -0.00013210079340116422 0 -0.00022979645722094656 -0.00017239697086375246 0 -0.00018152069018021139 -9.3850297470165136e-05 0 -0.00020445721612677372 -9.3720087873076278e-05 0 -0.00018833740176501948 -0.00011284923439073679 0 -0.0001564393754367968 -0.00017932948064531068 0 -0.00016573800076142203 -0.00020408497757562924 0 -0.00015888819153524731 -0.00019933170212860896 0 -0.00022979645722094656 -0.00017239697086375246 0 -0.00018912775285946445 -0.00017254918276285458 0 -0.0001564393754367968 -0.00017932948064531068 0 -0.00015888819153524731 -0.00019933170212860896 0 -0.00014852515236083355 -0.00019072950945465015 0 -0.00013476167709955484 -0.00018505597104130658 0 -0.00014852515236083355 -0.00019072950945465015 0 -0.00014441254037337933 -0.00019850772953071695 0 -0.00015888819153524731 -0.00019933170212860896 0 -0.00014852515236083355 -0.00019072950945465015 0 -0.00014441254037337933 -0.00019850772953071695 0 -0.00013476167709955484 -0.00018505597104130658 0 -0.00011220146894481125 -0.00018654222367685822 0 -0.00012709844791960581 -0.00019657504471804751 0 -0.00013476167709955484 -0.00018505597104130658 0 -0.00014441254037337933 -0.00019850772953071695 0 -0.00012709844791960581 -0.00019657504471804751 0 -0.00014441254037337933 -0.00019850772953071695 0 -0.00012709844791960581 -0.00019657504471804751 0 -0.00013768580146631155 -0.00020838713543106535 0 -0.00012338053224388774 -0.00020569232386842722 0 -0.00013768580146631155 -0.00020838713543106535 0 -0.0001313365334205514 -0.00021665330560046938 0 -0.00012709844791960581 -0.00019657504471804751 0 -0.00012338053224388774 -0.00020569232386842722 0 -0.00013768580146631155 -0.00020838713543106535 0 -0.00017041989142847856 -0.00020628147485157161 0 -0.00014441254037337933 -0.00019850772953071695 0 -0.00015284306501204555 -0.00021037024391590303 0 -0.00013768580146631155 -0.00020838713543106535 0 -0.00015284306501204555 -0.00021037024391590303 0 -0.00014813043989111581 -0.00022052035492282768 0 -0.00014441254037337933 -0.00019850772953071695 0 -0.00013768580146631155 -0.00020838713543106535 0 -0.00015284306501204555 -0.00021037024391590303 0 -0.00016457984445688502 -0.00021726868206784356 0 -0.0001600336112023744 -0.00022552301569196931 0 -0.00014813043989111581 -0.00022052035492282768 0 -0.00016457984445688502 -0.00021726868206784356 0 -0.00015284306501204555 -0.00021037024391590303 0 -0.00014813043989111581 -0.00022052035492282768 0 -0.0001600336112023744 -0.00022552301569196931 0 -0.00014813043989111581 -0.00022052035492282768 0 -0.00015532804966675797 -0.00023114750774732817 0 -0.00014813043989111581 -0.00022052035492282768 0 -0.0001313365334205514 -0.00021665330560046938 0 -0.00013981342653704535 -0.00023125378155467875 0 -0.00013768580146631155 -0.00020838713543106535 0 -0.00014813043989111581 -0.00022052035492282768 0 -0.0001313365334205514 -0.00021665330560046938 0 -0.00016169473918590651 -0.00024432144179773282 0 -0.0001686654981308318 -0.00023388447949915448 0 -0.00015532804966675797 -0.00023114750774732817 0 -0.00014813043989111581 -0.00022052035492282768 0 -0.00013981342653704535 -0.00023125378155467875 0 -0.00015532804966675797 -0.00023114750774732817 0 -0.00016169473918590651 -0.00024432144179773282 0 -0.00013981342653704535 -0.00023125378155467875 0 -0.00015532804966675797 -0.00023114750774732817 0 -0.0001686654981308318 -0.00023388447949915448 0 -0.0001600336112023744 -0.00022552301569196931 0 -0.00015532804966675797 -0.00023114750774732817 0 -0.00012763013647208561 -0.00023462200801454487 0 -0.00012218268988505379 -0.00022167838392402419 0 -0.00011498080221960542 -0.00022461322556975257 0 -0.00012218268988505379 -0.00022167838392402419 0 -0.00011116943967141736 -0.00021132108157767083 0 -0.00011498080221960542 -0.00022461322556975257 0 -0.00012763013647208561 -0.00023462200801454487 0 -0.00013981342653704535 -0.00023125378155467875 0 -0.00012218268988505379 -0.00022167838392402419 0 -0.0001313365334205514 -0.00021665330560046938 0 -0.00013981342653704535 -0.00023125378155467875 0 -0.00012218268988505379 -0.00022167838392402419 0 -0.0001313365334205514 -0.00021665330560046938 0 -0.00012218268988505379 -0.00022167838392402419 0 -0.00011755732519573383 -0.00021212353188218995 0 -0.00011755732519573383 -0.00021212353188218995 0 -0.00011116943967141736 -0.00021132108157767083 0 -0.00010926712931474282 -0.00020762265226346023 0 -0.00012218268988505379 -0.00022167838392402419 0 -0.00011755732519573383 -0.00021212353188218995 0 -0.00011116943967141736 -0.00021132108157767083 0 -0.00011116943967141736 -0.00021132108157767083 0 -0.00010926712931474282 -0.00020762265226346023 0 -0.00010335895862104011 -0.00020529619454652328 0 -0.00010926712931474282 -0.00020762265226346023 0 -0.00010384044600768168 -0.00020330142495849729 0 -0.00011337923489255968 -0.00020563737044207702 0 -0.00010926712931474282 -0.00020762265226346023 0 -0.00010384044600768168 -0.00020330142495849729 0 -0.00010335895862104011 -0.00020529619454652328 0 -0.00010384044600768168 -0.00020330142495849729 0 -9.4479276452979379e-05 -0.00020238362314480951 0 -0.00010335895862104011 -0.00020529619454652328 0 -0.00012338053224388774 -0.00020569232386842722 0 -0.0001313365334205514 -0.00021665330560046938 0 -0.00011755732519573383 -0.00021212353188218995 0 -0.00012338053224388774 -0.00020569232386842722 0 -0.00011755732519573383 -0.00021212353188218995 0 -0.00011337923489255968 -0.00020563737044207702 0 -0.00011755732519573383 -0.00021212353188218995 0 -0.00010926712931474282 -0.00020762265226346023 0 -0.00011337923489255968 -0.00020563737044207702 0 -0.00010384044600768168 -0.00020330142495849729 0 -0.00011337923489255968 -0.00020563737044207702 0 -0.00010964948592900489 -0.00019833155964766938 0 -0.00012338053224388774 -0.00020569232386842722 0 -0.00011337923489255968 -0.00020563737044207702 0 -0.00010964948592900489 -0.00019833155964766938 0 -0.00011220146894481125 -0.00018654222367685822 0 -0.00012709844791960581 -0.00019657504471804751 0 -0.00010964948592900489 -0.00019833155964766938 0 -0.00012709844791960581 -0.00019657504471804751 0 -0.00012338053224388774 -0.00020569232386842722 0 -0.00010964948592900489 -0.00019833155964766938 0 -0.00010964948592900489 -0.00019833155964766938 0 -0.00010275154824812215 -0.00019046506104300457 0 -0.00010058199612979453 -0.00019766153309594452 0 -0.00011220146894481125 -0.00018654222367685822 0 -0.00010964948592900489 -0.00019833155964766938 0 -0.00010275154824812215 -0.00019046506104300457 0 -0.00010384044600768168 -0.00020330142495849729 0 -0.00010058199612979453 -0.00019766153309594452 0 -9.4479276452979379e-05 -0.00020238362314480951 0 -0.00010384044600768168 -0.00020330142495849729 0 -0.00010964948592900489 -0.00019833155964766938 0 -0.00010058199612979453 -0.00019766153309594452 0 -9.1239851010842279e-05 -0.00019104616192192156 0 -0.00010275154824812215 -0.00019046506104300457 0 -0.00010058199612979453 -0.00019766153309594452 0 -9.1239851010842279e-05 -0.00019104616192192156 0 -8.2923271282523794e-05 -0.00019653493880207809 0 -9.4479276452979379e-05 -0.00020238362314480951 0 -9.1239851010842279e-05 -0.00019104616192192156 0 -0.00010058199612979453 -0.00019766153309594452 0 -9.4479276452979379e-05 -0.00020238362314480951 0 -8.2923271282523794e-05 -0.00019653493880207809 0 -9.4479276452979379e-05 -0.00020238362314480951 0 -9.773956175887048e-05 -0.00021000344936075076 0 -9.4479276452979379e-05 -0.00020238362314480951 0 -9.773956175887048e-05 -0.00021000344936075076 0 -0.00010400533090550919 -0.00020694572144538116 0 -0.0001061965119886141 -0.00021669224332572 0 -9.773956175887048e-05 -0.00021000344936075076 0 -0.0001135131580612797 -0.00021444086776590567 0 -0.0001061965119886141 -0.00021669224332572 0 -0.0001135131580612797 -0.00021444086776590567 0 -0.00014631002889357173 -0.00023114069413847078 0 -0.0001135131580612797 -0.00021444086776590567 0 -0.00012146618909626646 -0.00020814985245202921 0 -0.00014631002889357173 -0.00023114069413847078 0 -0.0001135131580612797 -0.00021444086776590567 0 -0.00012146618909626646 -0.00020814985245202921 0 -0.00010400533090550919 -0.00020694572144538116 0 -9.773956175887048e-05 -0.00021000344936075076 0 -0.0001135131580612797 -0.00021444086776590567 0 -0.00010400533090550919 -0.00020694572144538116 0 -0.00012146618909626646 -0.00020814985245202921 0 -0.00010400533090550919 -0.00020694572144538116 0 -0.00010853266251538108 -0.00020173664702756715 0 -0.00012146618909626646 -0.00020814985245202921 0 -0.00011600595851134743 -0.00019419697630879547 0 -0.00010853266251538108 -0.00020173664702756715 0 -0.00010335895862104011 -0.00020529619454652328 0 -0.00010400533090550919 -0.00020694572144538116 0 -0.00010853266251538108 -0.00020173664702756715 0 -0.00011116943967141736 -0.00021132108157767083 0 -0.00010335895862104011 -0.00020529619454652328 0 -0.00010853266251538108 -0.00020173664702756715 0 -9.4479276452979379e-05 -0.00020238362314480951 0 -0.00010335895862104011 -0.00020529619454652328 0 -0.00010400533090550919 -0.00020694572144538116 0 -0.00020207498300548382 -0.00025822780316404485 0 -0.00018269851722635172 -0.00032312027920203257 0 -0.00014121699627257748 -0.00027472293662337107 0 -0.00020207498300548382 -0.00025822780316404485 0 -0.00022908918472630373 -0.00028413285441654423 0 -0.00018269851722635172 -0.00032312027920203257 0 -0.00013913709673043492 -0.00021783612341941234 0 -0.00011494841879265718 -0.00021985080182357179 0 -0.00018537831703479155 -0.00023732740390561074 0 -0.0001717004114146679 -0.00024192107196611899 0 -0.0002133870776601782 -0.00027768223751639193 0 -0.00011494841879265718 -0.00021985080182357179 0 -0.00022908918472630373 -0.00028413285441654423 0 -0.00018537831703479155 -0.00023732740390561074 0 -0.00013913709673043492 -0.00021783612341941234 0 -0.00018537831703479155 -0.00023732740390561074 0 -0.00014631002889357173 -0.00023114069413847078 0 -0.00012146618909626646 -0.00020814985245202921 0 -0.00018537831703479155 -0.00023732740390561074 0 -0.00014631002889357173 -0.00023114069413847078 0 -0.00022908918472630373 -0.00028413285441654423 0 -0.00018537831703479155 -0.00023732740390561074 0 -0.00038385291884383935 -0.00038068491624006575 0 -0.00012146618909626646 -0.00020814985245202921 0 -0.00018537831703479155 -0.00023732740390561074 0 -0.00011600595851134743 -0.00019419697630879547 0 -0.00020064324547828502 -0.00025028326071974036 0 -0.00024963853649891837 -0.00029737696363423861 0 -0.00022908918472630373 -0.00028413285441654423 0 -0.00038385291884383935 -0.00038068491624006575 0 -0.00026331574963591283 -0.00037627926660577699 0 -0.00022908918472630373 -0.00028413285441654423 0 -0.00026331574963591283 -0.00037627926660577699 0 -0.00018269851722635172 -0.00032312027920203257 0 -0.00026331574963591283 -0.00037627926660577699 0 -0.00018269851722635172 -0.00032312027920203257 0 -0.0002049092340750992 -0.00043919279770599016 0 -0.00026331574963591283 -0.00037627926660577699 0 -0.0002049092340750992 -0.00043919279770599016 0 -0.00035152806609776099 -0.00049986719568516586 0 -0.00038385291884383935 -0.00038068491624006575 0 -0.00026331574963591283 -0.00037627926660577699 0 -0.00035152806609776099 -0.00049986719568516586 0 -0.00038385291884383935 -0.00038068491624006575 0 -0.00035152806609776099 -0.00049986719568516586 0 -0.00051482236955795722 -0.00055481875187972905 0 -0.00035152806609776099 -0.00049986719568516586 0 -0.00047170229079041888 -0.00064870211703730587 0 -0.00026849811014518978 -0.00066032682397095476 0 -0.00035152806609776099 -0.00049986719568516586 0 -0.00051482236955795722 -0.00055481875187972905 0 -0.00047170229079041888 -0.00064870211703730587 0 -0.0002049092340750992 -0.00043919279770599016 0 -0.00035152806609776099 -0.00049986719568516586 0 -0.00026849811014518978 -0.00066032682397095476 0 -0.00011116943967141736 -0.00021132108157767083 0 -0.00011030233490668897 -0.00021327512898892536 0 -0.00010853266251538108 -0.00020173664702756715 0 -0.00011600595851134743 -0.00019419697630879547 0 -0.00010853266251538108 -0.00020173664702756715 0 -0.00010388627509275928 -0.00021683429167537342 0 -0.00011030233490668897 -0.00021327512898892536 0 -0.00010853266251538108 -0.00020173664702756715 0 -0.00010388627509275928 -0.00021683429167537342 0 -0.00024963853649891837 -0.00029737696363423861 0 -0.00030962167629964112 -0.00038795300429131792 0 -0.00010388627509275928 -0.00021683429167537342 0 -0.00011498080221960542 -0.00022461322556975257 0 -0.00010827315916718777 -0.00023773033442510156 0 -0.00011116943967141736 -0.00021132108157767083 0 -0.00011030233490668897 -0.00021327512898892536 0 -0.00011498080221960542 -0.00022461322556975257 0 -0.00011030233490668897 -0.00021327512898892536 0 -0.00010388627509275928 -0.00021683429167537342 0 -0.00011498080221960542 -0.00022461322556975257 0 -0.00011498080221960542 -0.00022461322556975257 0 -0.00011903623370202559 -0.00023948374353727022 0 -0.00010827315916718777 -0.00023773033442510156 0 -0.00011903623370202559 -0.00023948374353727022 0 -0.00010827315916718777 -0.00023773033442510156 0 -0.00011610081495875127 -0.00025310704404100134 0 -0.00058233560379264936 -0.00022653170392147837 0 -0.0005169829053140269 -0.00039479646666686118 0 -0.00012925951248781391 -0.00024609166999545873 0 -0.00011903623370202559 -0.00023948374353727022 0 -0.00011610081495875127 -0.00025310704404100134 0 -0.00059073922717887463 -0.00070795271377818388 0 -0.00058696932681245992 -0.00071848849274401148 0 -0.00059401732942490832 -0.0007627461445920069 0 -0.00059073922717887463 -0.00070795271377818388 0 -0.00058696932681245992 -0.00071848849274401148 0 -0.00056284563603503624 -0.00069167854442387527 0 -0.00033052825671411076 -0.00048490815036706492 0 -0.0005169829053140269 -0.00039479646666686118 0 -0.00051482236955795722 -0.00055481875187972905 0 -0.00058696932681245992 -0.00071848849274401148 0 -0.00047170229079041888 -0.00064870211703730587 0 -0.00030962167629964112 -0.00038795300429131792 0 -0.00033052825671411076 -0.00048490815036706492 0 -0.00058696932681245992 -0.00071848849274401148 0 -0.00047170229079041888 -0.00064870211703730587 0 -0.00059401732942490832 -0.0007627461445920069 0 -0.00047170229079041888 -0.00064870211703730587 0 -0.00026849811014518978 -0.00066032682397095476 0 -0.00059401732942490832 -0.0007627461445920069 0 -0.00057188388108930506 -0.00082980505284598548 0 -0.00057942480643011012 -0.00076606002119336449 0 -0.0008673854603453799 -0.0010121998792091077 0 -0.00059401732942490832 -0.0007627461445920069 0 -0.00082960911525989118 -0.00068917644501765305 0 -0.0008673854603453799 -0.0010121998792091077 0 -0.00082960911525989118 -0.00068917644501765305 0 -0.00099606508982092541 -0.00078306489277129318 0 -0.00059401732942490832 -0.0007627461445920069 0 -0.00069097457670374033 -0.00063014507107775786 0 -0.00082960911525989118 -0.00068917644501765305 0 -0.00059073922717887463 -0.00070795271377818388 0 -0.00059401732942490832 -0.0007627461445920069 0 -0.00069097457670374033 -0.00063014507107775786 0 -0.00069097457670374033 -0.00063014507107775786 0 -0.00078741408514187506 -0.00058654832879848648 0 -0.00075787027968916214 -0.00049259122907429774 0 -0.00069097457670374033 -0.00063014507107775786 0 -0.00082960911525989118 -0.00068917644501765305 0 -0.00078741408514187506 -0.00058654832879848648 0 -0.00069097457670374033 -0.00063014507107775786 0 -0.00069038454600777463 -0.00053981117232234776 0 -0.00062836452702876619 -0.00062983615217934393 0 -0.00082960911525989118 -0.00068917644501765305 0 -0.00086854980956176098 -0.00054189969882447819 0 -0.0010160996460567692 -0.00061840847116269347 0 -0.00082960911525989118 -0.00068917644501765305 0 -0.00078741408514187506 -0.00058654832879848648 0 -0.00086854980956176098 -0.00054189969882447819 0 -0.00086854980956176098 -0.00054189969882447819 0 -0.00075787027968916214 -0.00049259122907429774 0 -0.00082834024177782281 -0.00042537818576585291 0 -0.00086854980956176098 -0.00054189969882447819 0 -0.00099636942482824787 -0.00050222105399444928 0 -0.00082834024177782281 -0.00042537818576585291 0 -0.00078741408514187506 -0.00058654832879848648 0 -0.00086854980956176098 -0.00054189969882447819 0 -0.00075787027968916214 -0.00049259122907429774 0 -0.00069097457670374033 -0.00063014507107775786 0 -0.00075787027968916214 -0.00049259122907429774 0 -0.00069038454600777463 -0.00053981117232234776 0 -0.00075787027968916214 -0.00049259122907429774 0 -0.00074879497830516507 -0.00043621313348895873 0 -0.00069038454600777463 -0.00053981117232234776 0 -0.00075787027968916214 -0.00049259122907429774 0 -0.00074879497830516507 -0.00043621313348895873 0 -0.00075455722963342392 -0.00052666592139206231 0 -0.00074879497830516507 -0.00043621313348895873 0 -0.00066300836201793557 -0.00050319936899652601 0 -0.00058579278732779716 -0.00047499991441589287 0 -0.00074879497830516507 -0.00043621313348895873 0 -0.00058579278732779716 -0.00047499991441589287 0 -0.00041945875298980825 -0.00033685190763913919 0 -0.00074879497830516507 -0.00043621313348895873 0 -0.00069038454600777463 -0.00053981117232234776 0 -0.00066300836201793557 -0.00050319936899652601 0 -0.00069038454600777463 -0.00053981117232234776 0 -0.00066300836201793557 -0.00050319936899652601 0 -0.00061769148750524176 -0.00054963209677159214 0 -0.00061769148750524176 -0.00054963209677159214 0 -0.00048460558263874621 -0.00053982132019037455 0 -0.00057020633248941455 -0.0006211068829477806 0 -0.00061769148750524176 -0.00054963209677159214 0 -0.00058579278732779716 -0.00047499991441589287 0 -0.00048460558263874621 -0.00053982132019037455 0 -0.00066300836201793557 -0.00050319936899652601 0 -0.00061769148750524176 -0.00054963209677159214 0 -0.00058579278732779716 -0.00047499991441589287 0 -0.00058579278732779716 -0.00047499991441589287 0 -0.00048460558263874621 -0.00053982132019037455 0 -0.00041945875298980825 -0.00033685190763913919 0 -0.0010034772019236013 -0.00029431180396560563 0 -0.00097834838107647591 -0.0002829230628240593 0 -0.00098739082848773706 -0.00031103345004129872 0 -0.00072808823133562329 -0.00040093193458789919 0 -0.0010149357789175999 -0.00043665398815481731 0 -0.00048460558263874621 -0.00053982132019037455 0 -0.00053050008214268712 -0.00069577989511175023 0 -0.00057020633248941455 -0.0006211068829477806 0 -0.00072808823133562329 -0.00040093193458789919 0 -0.0005169829053140269 -0.00039479646666686118 0 -0.0010044487295925249 -0.00026990805638314253 0 -0.00097834838107647591 -0.0002829230628240593 0 -0.00096817984901903737 -0.00025380164839838864 0 -0.00059073922717887463 -0.00070795271377818388 0 -0.00056284563603503624 -0.00069167854442387527 0 -0.00057163705107778778 -0.00068035156544286326 0 -0.0005169829053140269 -0.00039479646666686118 0 -0.00050864307951466485 -0.00045976174470534344 0 -0.00053050008214268712 -0.00069577989511175023 0 -0.00057163705107778778 -0.00068035156544286326 0 -0.00057020633248941455 -0.0006211068829477806 0 -0.00059073922717887463 -0.00070795271377818388 0 -0.00057163705107778778 -0.00068035156544286326 0 -0.00062836452702876619 -0.00062983615217934393 0 -0.00057163705107778778 -0.00068035156544286326 0 -0.00062836452702876619 -0.00062983615217934393 0 -0.00057020633248941455 -0.0006211068829477806 0 -0.00059073922717887463 -0.00070795271377818388 0 -0.00069097457670374033 -0.00063014507107775786 0 -0.00062836452702876619 -0.00062983615217934393 0 -0.00069038454600777463 -0.00053981117232234776 0 -0.00061769148750524176 -0.00054963209677159214 0 -0.00062836452702876619 -0.00062983615217934393 0 -0.00061769148750524176 -0.00054963209677159214 0 -0.00062836452702876619 -0.00062983615217934393 0 -0.00057020633248941455 -0.0006211068829477806 0 -0.0015546823033914376 -0.00068273820009463651 0 -0.001350976770002588 -0.00055119006128270082 0 -0.001340565084194257 -0.00078946748785934978 0 -0.001350976770002588 -0.00055119006128270082 0 -0.0011827661259371383 -0.00070011531996184973 0 -0.001340565084194257 -0.00078946748785934978 0 -0.0015546823033914376 -0.00068273820009463651 0 -0.0015935255988249548 -0.00046792136762103165 0 -0.001350976770002588 -0.00055119006128270082 0 -0.0015935255988249548 -0.00046792136762103165 0 -0.001350976770002588 -0.00055119006128270082 0 -0.0013668006362933197 -0.00026234182704565719 0 -0.001350976770002588 -0.00055119006128270082 0 -0.0011989294966957675 -0.00041922409725685594 0 -0.0013668006362933197 -0.00026234182704565719 0 -0.001350976770002588 -0.00055119006128270082 0 -0.0011989294966957675 -0.00041922409725685594 0 -0.001162489439738245 -0.00054971426369083542 0 -0.0011989294966957675 -0.00041922409725685594 0 -0.001045074964739586 -0.00045102316727786283 0 -0.0010660241338355449 -0.00027310238158413495 0 -0.0011989294966957675 -0.00041922409725685594 0 -0.001162489439738245 -0.00054971426369083542 0 -0.001045074964739586 -0.00045102316727786283 0 -0.00086854980956176098 -0.00054189969882447819 0 -0.00099636942482824787 -0.00050222105399444928 0 -0.0010160996460567692 -0.00061840847116269347 0 -0.0010282942957778039 -0.00049088608799050741 0 -0.0010143106817483492 -0.00059963103189610522 0 -0.001162489439738245 -0.00054971426369083542 0 -0.001045074964739586 -0.00045102316727786283 0 -0.0010160996460567692 -0.00061840847116269347 0 -0.0010160996460567692 -0.00061840847116269347 0 -0.0011827661259371383 -0.00070011531996184973 0 -0.00099606508982092541 -0.00078306489277129318 0 -0.00082960911525989118 -0.00068917644501765305 0 -0.0010160996460567692 -0.00061840847116269347 0 -0.00099606508982092541 -0.00078306489277129318 0 -0.001350976770002588 -0.00055119006128270082 0 -0.001162489439738245 -0.00054971426369083542 0 -0.0011827661259371383 -0.00070011531996184973 0 -0.001162489439738245 -0.00054971426369083542 0 -0.0010160996460567692 -0.00061840847116269347 0 -0.0011827661259371383 -0.00070011531996184973 0 -0.0011827661259371383 -0.00070011531996184973 0 -0.0011468745307058397 -0.00089254502701809264 0 -0.001340565084194257 -0.00078946748785934978 0 -0.0011827661259371383 -0.00070011531996184973 0 -0.00099606508982092541 -0.00078306489277129318 0 -0.0011468745307058397 -0.00089254502701809264 0 -0.0008673854603453799 -0.0010121998792091077 0 -0.00099606508982092541 -0.00078306489277129318 0 -0.0011468745307058397 -0.00089254502701809264 0 -0.0011468745307058397 -0.00089254502701809264 0 -0.0013237878294973945 -0.001012104124720456 0 -0.001340565084194257 -0.00078946748785934978 0 -0.0013237878294973945 -0.001012104124720456 0 -0.001340565084194257 -0.00078946748785934978 0 -0.0014858070489931134 -0.00087612053355352556 0 -0.0013237878294973945 -0.001012104124720456 0 -0.0014858070489931134 -0.00087612053355352556 0 -0.0014761059791551056 -0.0010260903846019643 0 -0.0015546823033914376 -0.00068273820009463651 0 -0.0014858070489931134 -0.00087612053355352556 0 -0.001673259655219816 -0.00081915894106717206 0 -0.0015546823033914376 -0.00068273820009463651 0 -0.001340565084194257 -0.00078946748785934978 0 -0.0014858070489931134 -0.00087612053355352556 0 -0.0014858070489931134 -0.00087612053355352556 0 -0.001673259655219816 -0.00081915894106717206 0 -0.0016145724648351442 -0.0010040880974713747 0 -0.0014858070489931134 -0.00087612053355352556 0 -0.0014761059791551056 -0.0010260903846019643 0 -0.0016145724648351442 -0.0010040880974713747 0 -0.0014761059791551056 -0.0010260903846019643 0 -0.0015516950748870114 -0.0011394908202888951 0 -0.0016145724648351442 -0.0010040880974713747 0 -0.0014761059791551056 -0.0010260903846019643 0 -0.0015516950748870114 -0.0011394908202888951 0 -0.0014072317996971708 -0.0011300899174796538 0 -0.0013237878294973945 -0.001012104124720456 0 -0.0014761059791551056 -0.0010260903846019643 0 -0.0014072317996971708 -0.0011300899174796538 0 -0.0013237878294973945 -0.001012104124720456 0 -0.0014072317996971708 -0.0011300899174796538 0 -0.0012977883203763401 -0.0012112977777186014 0 -0.0012977883203763401 -0.0012112977777186014 0 -0.0014431498391195305 -0.0012621146066917803 0 -0.0013243624948204725 -0.0013731163369355395 0 -0.0014072317996971708 -0.0011300899174796538 0 -0.0012977883203763401 -0.0012112977777186014 0 -0.0014431498391195305 -0.0012621146066917803 0 -0.0015516950748870114 -0.0011394908202888951 0 -0.0014431498391195305 -0.0012621146066917803 0 -0.0016357163882872755 -0.0012872127597025297 0 -0.0015516950748870114 -0.0011394908202888951 0 -0.0014072317996971708 -0.0011300899174796538 0 -0.0014431498391195305 -0.0012621146066917803 0 -0.0011468745307058397 -0.00089254502701809264 0 -0.0013237878294973945 -0.001012104124720456 0 -0.0011062227747562236 -0.0012075189700505987 0 -0.0008673854603453799 -0.0010121998792091077 0 -0.0011468745307058397 -0.00089254502701809264 0 -0.0011062227747562236 -0.0012075189700505987 0 -0.0002049092340750992 -0.00043919279770599016 0 -0.00026849811014518978 -0.00066032682397095476 0 -7.7756972829580177e-05 -0.00050084139223785182 0 -0.00057188388108930506 -0.00082980505284598548 0 -0.00058136978034740755 -0.00084454428930665461 0 -0.0013237878294973945 -0.001012104124720456 0 -0.0012977883203763401 -0.0012112977777186014 0 -0.0011062227747562236 -0.0012075189700505987 0 -0.0012977883203763401 -0.0012112977777186014 0 -0.0011062227747562236 -0.0012075189700505987 0 -0.0013243624948204725 -0.0013731163369355395 0 -0.00058136978034740755 -0.00084454428930665461 0 -0.00069383440870563601 -0.0009163498381401505 0 -0.0002049092340750992 -0.00043919279770599016 0 -7.7756972829580177e-05 -0.00050084139223785182 0 -9.0311482193044929e-05 -0.0003774006140250828 0 -0.00018269851722635172 -0.00032312027920203257 0 -9.0311482193044929e-05 -0.0003774006140250828 0 -8.4484540975629215e-05 -0.00032169932785145936 0 -0.00018269851722635172 -0.00032312027920203257 0 -0.0002049092340750992 -0.00043919279770599016 0 -9.0311482193044929e-05 -0.0003774006140250828 0 -9.0311482193044929e-05 -0.0003774006140250828 0 -2.6990249263266648e-05 -0.00034450405326375596 0 -8.4484540975629215e-05 -0.00032169932785145936 0 -9.0311482193044929e-05 -0.0003774006140250828 0 -2.6990249263266648e-05 -0.00034450405326375596 0 2.9920203380385766e-05 -0.00038422738860879765 0 -7.7756972829580177e-05 -0.00050084139223785182 0 -9.0311482193044929e-05 -0.0003774006140250828 0 2.9920203380385766e-05 -0.00038422738860879765 0 1.4465492097840556e-05 -0.00033038466098499924 0 -2.6990249263266648e-05 -0.00034450405326375596 0 2.9920203380385766e-05 -0.00038422738860879765 0 1.4465492097840556e-05 -0.00033038466098499924 0 -1.7268209993431584e-05 -0.0002973565731628229 0 -2.6990249263266648e-05 -0.00034450405326375596 0 1.4465492097840556e-05 -0.00033038466098499924 0 2.5066413806547256e-05 -0.000290415521176654 0 -1.7268209993431584e-05 -0.0002973565731628229 0 -1.7268209993431584e-05 -0.0002973565731628229 0 -2.6990249263266648e-05 -0.00034450405326375596 0 -8.4484540975629215e-05 -0.00032169932785145936 0 -0.00018269851722635172 -0.00032312027920203257 0 -8.4484540975629215e-05 -0.00032169932785145936 0 -0.00014121699627257748 -0.00027472293662337107 0 -1.7268209993431584e-05 -0.0002973565731628229 0 -8.4484540975629215e-05 -0.00032169932785145936 0 -9.6673204495589232e-05 -0.00026828772819964205 0 -8.4484540975629215e-05 -0.00032169932785145936 0 -9.6673204495589232e-05 -0.00026828772819964205 0 -0.00014121699627257748 -0.00027472293662337107 0 -0.0015070704072094306 -0.0013772596604923514 0 -0.0013243624948204725 -0.0013731163369355395 0 -0.0015116652324621966 -0.0015275804627397326 0 -0.0014431498391195305 -0.0012621146066917803 0 -0.0015070704072094306 -0.0013772596604923514 0 -0.0016357163882872755 -0.0012872127597025297 0 -0.0014431498391195305 -0.0012621146066917803 0 -0.0015070704072094306 -0.0013772596604923514 0 -0.0013243624948204725 -0.0013731163369355395 0 8.4202324006052258e-05 -0.00029070411600257633 0 1.4465492097840556e-05 -0.00033038466098499924 0 0.00019833269068071191 -0.0003310041936220795 0 0.00030598583362758514 -0.00019787889502137588 0 -0.00050620491177144264 -0.00078041831532386214 0 -0.00069383440870563601 -0.0009163498381401505 0 -0.00050620491177144264 -0.00078041831532386214 0 1.4465492097840556e-05 -0.00033038466098499924 0 2.9920203380385766e-05 -0.00038422738860879765 0 6.609309383521242e-05 -0.00033531497946010728 0 8.4202324006052258e-05 -0.00029070411600257633 0 1.4465492097840556e-05 -0.00033038466098499924 0 2.5066413806547256e-05 -0.000290415521176654 0 -0.0015070704072094306 -0.0013772596604923514 0 -0.0015116652324621966 -0.0015275804627397326 0 -0.0016377563316144713 -0.0014237637057563559 0 -0.0013988123564429554 -0.0012763663072780883 0 -0.00050620491177144264 -0.00078041831532386214 0 -0.0017466867282297115 -0.0015468052930553637 0 -0.0015116652324621966 -0.0015275804627397326 0 -0.0016377563316144713 -0.0014237637057563559 0 -0.0016377563316144713 -0.0014237637057563559 0 -0.0017496484530189109 -0.0013895151600583663 0 -0.0016357163882872755 -0.0012872127597025297 0 -0.0015070704072094306 -0.0013772596604923514 0 -0.0016377563316144713 -0.0014237637057563559 0 -0.0016357163882872755 -0.0012872127597025297 0 -0.0017496484530189109 -0.0013895151600583663 0 -0.0018250549574083332 -0.001458729700445243 0 -0.0018293108558215512 -0.0012753027148063249 0 -0.0017496484530189109 -0.0013895151600583663 0 -0.0016357163882872755 -0.0012872127597025297 0 -0.0018293108558215512 -0.0012753027148063249 0 -0.0017466867282297115 -0.0015468052930553637 0 -0.0016377563316144713 -0.0014237637057563559 0 -0.0017496484530189109 -0.0013895151600583663 0 -0.0017466867282297115 -0.0015468052930553637 0 -0.0017496484530189109 -0.0013895151600583663 0 -0.0018250549574083332 -0.001458729700445243 0 -0.0019062620462019456 -0.0015477720862258997 0 -0.0017466867282297115 -0.0015468052930553637 0 -0.0018250549574083332 -0.001458729700445243 0 -0.0019062620462019456 -0.0015477720862258997 0 -0.0018250549574083332 -0.001458729700445243 0 -0.0019019034773040161 -0.0014002624257457024 0 -0.00088144457586871263 -0.0010301031566852792 0 -0.0014798106652400809 -0.0013739147460383779 0 -0.000314165408156581 -0.00089057358727061948 0 -0.00041116140197811844 -0.00090678188183673249 0 -0.00025931550866761371 -0.0010833493983424547 0 -0.00041116140197811844 -0.00090678188183673249 0 -0.00041263358358654501 -0.0011936557386342337 0 -0.00025931550866761371 -0.0010833493983424547 0 -0.00041263358358654501 -0.0011936557386342337 0 -0.00025931550866761371 -0.0010833493983424547 0 -0.00026679611255204871 -0.001286288534826122 0 -0.0014798106652400809 -0.0013739147460383779 0 -0.00078052512279705617 -0.0013475068091815569 0 -0.001963883336410521 -0.0013926879826001389 0 -0.0014798106652400809 -0.0013739147460383779 0 -0.0018250549574083332 -0.001458729700445243 0 -0.0019792890755291649 -0.0013628411155839613 0 -0.0018293108558215512 -0.0012753027148063249 0 -0.0019792890755291649 -0.0013628411155839613 0 -0.0019867580409563958 -0.0011966971176601321 0 -0.0018293108558215512 -0.0012753027148063249 0 -0.0019867580409563958 -0.0011966971176601321 0 -0.0018808475643227629 -0.0011190867952921236 0 -0.0018293108558215512 -0.0012753027148063249 0 -0.0014798106652400809 -0.0013739147460383779 0 -0.0017248518731626699 -0.0012365547240735428 0 -0.0014555972481318448 -0.0013092676853530244 0 -0.0014563556144600294 -0.0012823119898526039 0 -0.0014753031861993728 -0.0012938034103531836 0 -0.0014563556144600294 -0.0012823119898526039 0 -0.0014749425875447779 -0.0012785575288463916 0 -0.0014753031861993728 -0.0012938034103531836 0 -0.0018278901214134531 -0.0011550787578049871 0 -0.0018457621346421066 -0.0011118020843666762 0 -0.0014722322622141538 -0.001258227013194634 0 -0.0015257483206986308 -0.0012465214481035536 0 -0.0014491210834234125 -0.0012371339909919177 0 -0.0017248518731626699 -0.0012365547240735428 0 -0.0018457621346421066 -0.0011118020843666762 0 -0.0014563556144600294 -0.0012823119898526039 0 -0.0014722322622141538 -0.001258227013194634 0 -0.0014491210834234125 -0.0012371339909919177 0 -0.0014563556144600294 -0.0012823119898526039 0 -0.0014749425875447779 -0.0012785575288463916 0 -0.0014722322622141538 -0.001258227013194634 0 -0.0019867580409563958 -0.0011966971176601321 0 -0.0018808475643227629 -0.0011190867952921236 0 -0.0019881372117369991 -0.0010388814380084108 0 -0.0018808475643227629 -0.0011190867952921236 0 -0.0018374424334254844 -0.00099096129703578708 0 -0.0019881372117369991 -0.0010388814380084108 0 -0.0018808475643227629 -0.0011190867952921236 0 -0.0017274494700062807 -0.0011104206045045922 0 -0.0018293108558215512 -0.0012753027148063249 0 -0.0018808475643227629 -0.0011190867952921236 0 -0.0017274494700062807 -0.0011104206045045922 0 -0.0018374424334254844 -0.00099096129703578708 0 -0.0015516950748870114 -0.0011394908202888951 0 -0.0017274494700062807 -0.0011104206045045922 0 -0.0016145724648351442 -0.0010040880974713747 0 -0.0015516950748870114 -0.0011394908202888951 0 -0.0017274494700062807 -0.0011104206045045922 0 -0.0016357163882872755 -0.0012872127597025297 0 -0.0017274494700062807 -0.0011104206045045922 0 -0.0016357163882872755 -0.0012872127597025297 0 -0.0018293108558215512 -0.0012753027148063249 0 0.0019458266437857061 -0.00085701525822283985 0 0.0019493490838844542 -0.0007966124025932885 0 0.0019626769854707918 -0.00085678312958030434 0 0.00016817489038457363 -0.0010426526648117998 0 0.0011281823185699501 -0.00099956640383225877 0 0.0019740305156135617 -0.00085377463277726859 0 0.0019458266437857061 -0.00085701525822283985 0 0.0019626769854707918 -0.00085678312958030434 0 0.00012378464252883013 -0.0010404693961535731 0 2.3501060658348262e-05 -0.0011110310202709559 0 -5.8935437560847375e-05 -0.0010084648854169766 0 0.00021724146221909537 -0.0011755031133469528 0 0.00012378464252883013 -0.0010404693961535731 0 2.3501060658348262e-05 -0.0011110310202709559 0 0.00016817489038457363 -0.0010426526648117998 0 -0.0012054228155911589 -0.0014478406905142438 0 0.00021724146221909537 -0.0011755031133469528 0 2.3501060658348262e-05 -0.0011110310202709559 0 5.1469907629058159e-05 -0.0012703559509610657 0 2.3501060658348262e-05 -0.0011110310202709559 0 -0.00010332826033853862 -0.0011904311220391622 0 5.1469907629058159e-05 -0.0012703559509610657 0 2.3501060658348262e-05 -0.0011110310202709559 0 -0.00010332826033853862 -0.0011904311220391622 0 -5.8935437560847375e-05 -0.0010084648854169766 0 -0.000314165408156581 -0.00089057358727061948 0 -5.8935437560847375e-05 -0.0010084648854169766 0 -0.00025931550866761371 -0.0010833493983424547 0 -0.00010332826033853862 -0.0011904311220391622 0 -5.8935437560847375e-05 -0.0010084648854169766 0 -0.00025931550866761371 -0.0010833493983424547 0 -0.00010332826033853862 -0.0011904311220391622 0 -0.00025931550866761371 -0.0010833493983424547 0 -0.00026679611255204871 -0.001286288534826122 0 -0.00010332826033853862 -0.0011904311220391622 0 -0.00026679611255204871 -0.001286288534826122 0 -0.00013242685344817679 -0.0013746142751221743 0 -0.0014749425875447779 -0.0012785575288463916 0 -0.0014753031861993728 -0.0012938034103531836 0 -0.0014915302953084845 -0.0012804550576542512 0 -0.00078052512279705617 -0.0013475068091815569 0 -0.001093025773362346 -0.0012843559390222209 0 -0.0014749425875447779 -0.0012785575288463916 0 -0.0014722322622141538 -0.001258227013194634 0 -0.0014915302953084845 -0.0012804550576542512 0 -0.0014722322622141538 -0.001258227013194634 0 -0.0015257483206986308 -0.0012465214481035536 0 -0.0015605841304769574 -0.0013027715556876206 0 -0.0016355967512967154 -0.0012985955732273536 0 -0.001093025773362346 -0.0012843559390222209 0 -0.0018278901214134531 -0.0011550787578049871 0 -0.0020681630638449905 -0.0011184607505604792 0 -0.0021930576100367238 -0.0010597410614293973 0 -0.0023582638198138672 -0.0011067130487633226 0 -0.0023140391512599463 -0.00099532970984605486 0 -0.0018796158212452975 -0.0010280948292786369 0 -0.0015986678448080196 -0.0012235762481308083 0 -0.0020155251880075165 -0.0012185366608049853 0 -0.0015257483206986308 -0.0012465214481035536 0 -0.0016194058090901165 -0.0012627855902096494 0 -0.0015605841304769574 -0.0013027715556876206 0 -0.0020681630638449905 -0.0011184607505604792 0 -0.001093025773362346 -0.0012843559390222209 0 -0.0023582638198138672 -0.0011067130487633226 0 -0.002401625943387227 -0.0010795325586782181 0 -0.0023140391512599463 -0.00099532970984605486 0 -0.0015986678448080196 -0.0012235762481308083 0 -0.002050147804860237 -0.0014454540236887717 0 -0.0020155251880075165 -0.0012185366608049853 0 -0.00010332826033853862 -0.0011904311220391622 0 -0.00013242685344817679 -0.0013746142751221743 0 5.1469907629058159e-05 -0.0012703559509610657 0 -0.001093025773362346 -0.0012843559390222209 0 -0.0012054228155911589 -0.0014478406905142438 0 -0.002050147804860237 -0.0014454540236887717 0 -0.0020155251880075165 -0.0012185366608049853 0 -0.0023310888689170857 -0.0013725533838136888 0 -0.0020155251880075165 -0.0012185366608049853 0 -0.002218004064988871 -0.0011085794627011454 0 -0.0023310888689170857 -0.0013725533838136888 0 -0.0020681630638449905 -0.0011184607505604792 0 -0.0023577600216807071 -0.0011336019758306881 0 -0.0018796158212452975 -0.0010280948292786369 0 -0.0020155251880075165 -0.0012185366608049853 0 -0.002218004064988871 -0.0011085794627011454 0 -0.002356638980111072 -0.001110363719119905 0 -0.002401625943387227 -0.0010795325586782181 0 -0.0024793502158238978 -0.0011430045275996211 0 -0.0020681630638449905 -0.0011184607505604792 0 -0.0022894828935290509 -0.0010319383399454601 0 -0.002401625943387227 -0.0010795325586782181 0 -0.0024348659009325877 -0.0010446080615359101 0 -0.0024047306949590698 -0.0010032535607036412 0 -0.002401625943387227 -0.0010795325586782181 0 -0.0024348659009325877 -0.0010446080615359101 0 -0.0024716823288004324 -0.0010794229778587866 0 -0.002401625943387227 -0.0010795325586782181 0 -0.0024716823288004324 -0.0010794229778587866 0 -0.0024793502158238978 -0.0011430045275996211 0 -0.0024716823288004324 -0.0010794229778587866 0 -0.0025488704582754393 -0.0010564033917521091 0 -0.0024784031075863978 -0.0010189011987366795 0 -0.0024348659009325877 -0.0010446080615359101 0 -0.0024716823288004324 -0.0010794229778587866 0 -0.0024784031075863978 -0.0010189011987366795 0 -0.0024716823288004324 -0.0010794229778587866 0 -0.0024793502158238978 -0.0011430045275996211 0 -0.0025290645483794882 -0.001119894642721205 0 -0.0023577600216807071 -0.0011336019758306881 0 -0.0025321082989530736 -0.0011861548285321049 0 -0.0024793502158238978 -0.0011430045275996211 0 -0.0025290645483794882 -0.001119894642721205 0 -0.0025578113470171061 -0.0012024235056784583 0 -0.0024716823288004324 -0.0010794229778587866 0 -0.0025290645483794882 -0.001119894642721205 0 -0.0025488704582754393 -0.0010564033917521091 0 -0.0026631024301357587 -0.0010533360199308978 0 -0.0025488704582754393 -0.0010564033917521091 0 -0.0025922427069536296 -0.0011105624015199794 0 -0.0025290645483794882 -0.001119894642721205 0 -0.0025488704582754393 -0.0010564033917521091 0 -0.0025922427069536296 -0.0011105624015199794 0 -0.0026597642936868958 -0.0011261805050699935 0 -0.0025922427069536296 -0.0011105624015199794 0 -0.0025578113470171061 -0.0012024235056784583 0 -0.0025290645483794882 -0.001119894642721205 0 -0.0025922427069536296 -0.0011105624015199794 0 -0.0025578113470171061 -0.0012024235056784583 0 -0.002218004064988871 -0.0011085794627011454 0 -0.0025578113470171061 -0.0012024235056784583 0 -0.0023310888689170857 -0.0013725533838136888 0 -0.0024689025192899138 -0.0016329160225848635 0 -0.002050147804860237 -0.0014454540236887717 0 -0.0023310888689170857 -0.0013725533838136888 0 -0.0024689025192899138 -0.0016329160225848635 0 -0.0025578113470171061 -0.0012024235056784583 0 -0.0023310888689170857 -0.0013725533838136888 0 -0.0025861675496764995 -0.00082681046005552285 0 -0.0025508372505712307 -0.00074808612047325151 0 -0.0026573034620697763 -0.00076045126490035457 0 -0.0027212760222458522 -0.00082706750968025342 0 -0.0025861675496764995 -0.00082681046005552285 0 -0.0026573034620697763 -0.00076045126490035457 0 -0.0025861675496764995 -0.00082681046005552285 0 -0.0024794495265970952 -0.00080365470507396373 0 -0.0025508372505712307 -0.00074808612047325151 0 -0.0025861675496764995 -0.00082681046005552285 0 -0.0025103097737881564 -0.00087808396281176412 0 -0.0024794495265970952 -0.00080365470507396373 0 -0.0025861675496764995 -0.00082681046005552285 0 -0.0025646228633376331 -0.0009372813334267634 0 -0.0025103097737881564 -0.00087808396281176412 0 -0.0025861675496764995 -0.00082681046005552285 0 -0.002635800135689394 -0.00089602720905926196 0 -0.0025646228633376331 -0.0009372813334267634 0 -0.0027212760222458522 -0.00082706750968025342 0 -0.0025861675496764995 -0.00082681046005552285 0 -0.002635800135689394 -0.00089602720905926196 0 -0.002635800135689394 -0.00089602720905926196 0 -0.0026208677175939854 -0.00099842305158390709 0 -0.0025646228633376331 -0.0009372813334267634 0 -0.0026631024301357587 -0.0010533360199308978 0 -0.0025488704582754393 -0.0010564033917521091 0 -0.0026208677175939854 -0.00099842305158390709 0 -0.0025488704582754393 -0.0010564033917521091 0 -0.0026208677175939854 -0.00099842305158390709 0 -0.0025335216391411167 -0.00099795270108751256 0 -0.0025488704582754393 -0.0010564033917521091 0 -0.0025335216391411167 -0.00099795270108751256 0 -0.0024784031075863978 -0.0010189011987366795 0 -0.0026208677175939854 -0.00099842305158390709 0 -0.0025335216391411167 -0.00099795270108751256 0 -0.0025646228633376331 -0.0009372813334267634 0 -0.0025335216391411167 -0.00099795270108751256 0 -0.0025646228633376331 -0.0009372813334267634 0 -0.0024763834274494152 -0.00094759489893852242 0 -0.0025646228633376331 -0.0009372813334267634 0 -0.0024763834274494152 -0.00094759489893852242 0 -0.0025103097737881564 -0.00087808396281176412 0 -0.0024763834274494152 -0.00094759489893852242 0 -0.0024784031075863978 -0.0010189011987366795 0 -0.0024047306949590698 -0.0010032535607036412 0 -0.0025335216391411167 -0.00099795270108751256 0 -0.0024763834274494152 -0.00094759489893852242 0 -0.0024784031075863978 -0.0010189011987366795 0 -0.0024348659009325877 -0.0010446080615359101 0 -0.0024784031075863978 -0.0010189011987366795 0 -0.0024047306949590698 -0.0010032535607036412 0 -0.0024763834274494152 -0.00094759489893852242 0 -0.0024080724430084644 -0.00092074818820362964 0 -0.002450829998490178 -0.00087586149808837677 0 -0.0024763834274494152 -0.00094759489893852242 0 -0.0024047306949590698 -0.0010032535607036412 0 -0.0024080724430084644 -0.00092074818820362964 0 -0.0024047306949590698 -0.0010032535607036412 0 -0.0024080724430084644 -0.00092074818820362964 0 -0.0023650163023583091 -0.00095292998912605269 0 -0.0024080724430084644 -0.00092074818820362964 0 -0.0024004295581508705 -0.00083861653921561956 0 -0.002450829998490178 -0.00087586149808837677 0 -0.0024004295581508705 -0.00083861653921561956 0 -0.002450829998490178 -0.00087586149808837677 0 -0.0024794495265970952 -0.00080365470507396373 0 -0.0025103097737881564 -0.00087808396281176412 0 -0.002450829998490178 -0.00087586149808837677 0 -0.0024794495265970952 -0.00080365470507396373 0 -0.0024763834274494152 -0.00094759489893852242 0 -0.0025103097737881564 -0.00087808396281176412 0 -0.002450829998490178 -0.00087586149808837677 0 -0.0024004295581508705 -0.00083861653921561956 0 -0.0024794495265970952 -0.00080365470507396373 0 -0.0024065367198510871 -0.00074699021876785073 0 -0.0024004295581508705 -0.00083861653921561956 0 -0.0023392729658451641 -0.00079230921174444234 0 -0.0024065367198510871 -0.00074699021876785073 0 -0.002280940255028575 -0.00082599332820436496 0 -0.0022278842523980433 -0.00078072273406978431 0 -0.0022919283662311486 -0.00074907321731809218 0 -0.0023392729658451641 -0.00079230921174444234 0 -0.002280940255028575 -0.00082599332820436496 0 -0.0022919283662311486 -0.00074907321731809218 0 -0.0023392729658451641 -0.00079230921174444234 0 -0.002280940255028575 -0.00082599332820436496 0 -0.002333849820363984 -0.00089203525196258784 0 -0.002280940255028575 -0.00082599332820436496 0 -0.002333849820363984 -0.00089203525196258784 0 -0.0022382583668341979 -0.00088591137020036046 0 -0.0024004295581508705 -0.00083861653921561956 0 -0.0023392729658451641 -0.00079230921174444234 0 -0.002333849820363984 -0.00089203525196258784 0 -0.0024080724430084644 -0.00092074818820362964 0 -0.0024004295581508705 -0.00083861653921561956 0 -0.002333849820363984 -0.00089203525196258784 0 -0.0024080724430084644 -0.00092074818820362964 0 -0.002333849820363984 -0.00089203525196258784 0 -0.0023650163023583091 -0.00095292998912605269 0 -0.002333849820363984 -0.00089203525196258784 0 -0.0023650163023583091 -0.00095292998912605269 0 -0.0023140391512599463 -0.00099532970984605486 0 -0.002401625943387227 -0.0010795325586782181 0 -0.0024047306949590698 -0.0010032535607036412 0 -0.0023140391512599463 -0.00099532970984605486 0 -0.0024047306949590698 -0.0010032535607036412 0 -0.0023650163023583091 -0.00095292998912605269 0 -0.0023140391512599463 -0.00099532970984605486 0 -0.002333849820363984 -0.00089203525196258784 0 -0.0023140391512599463 -0.00099532970984605486 0 -0.0022382583668341979 -0.00088591137020036046 0 -0.0023140391512599463 -0.00099532970984605486 0 -0.0022053066688556776 -0.00096802928685963026 0 -0.0022382583668341979 -0.00088591137020036046 0 -0.0021930576100367238 -0.0010597410614293973 0 -0.0023140391512599463 -0.00099532970984605486 0 -0.0022053066688556776 -0.00096802928685963026 0 -0.0021930576100367238 -0.0010597410614293973 0 -0.0022053066688556776 -0.00096802928685963026 0 -0.0021195085406513305 -0.00097501000040450055 0 -0.0022053066688556776 -0.00096802928685963026 0 -0.0021195085406513305 -0.00097501000040450055 0 -0.0021323395478872798 -0.00090051394384539076 0 -0.0022053066688556776 -0.00096802928685963026 0 -0.0022382583668341979 -0.00088591137020036046 0 -0.0021323395478872798 -0.00090051394384539076 0 -0.0022382583668341979 -0.00088591137020036046 0 -0.0021536360877312901 -0.00080970687659342425 0 -0.0021323395478872798 -0.00090051394384539076 0 -0.0022382583668341979 -0.00088591137020036046 0 -0.0022278842523980433 -0.00078072273406978431 0 -0.0021536360877312901 -0.00080970687659342425 0 -0.002280940255028575 -0.00082599332820436496 0 -0.0022382583668341979 -0.00088591137020036046 0 -0.0022278842523980433 -0.00078072273406978431 0 -0.0022278842523980433 -0.00078072273406978431 0 -0.0021536360877312901 -0.00080970687659342425 0 -0.0021618527921703581 -0.00071709385150972008 0 -0.0022278842523980433 -0.00078072273406978431 0 -0.0022450678459556114 -0.00069365551511902691 0 -0.0022919283662311486 -0.00074907321731809218 0 -0.0022278842523980433 -0.00078072273406978431 0 -0.0021618527921703581 -0.00071709385150972008 0 -0.0022450678459556114 -0.00069365551511902691 0 -0.0021618527921703581 -0.00071709385150972008 0 -0.0022450678459556114 -0.00069365551511902691 0 -0.0022138902442369202 -0.00063660150673083664 0 -0.0022450678459556114 -0.00069365551511902691 0 -0.0022138902442369202 -0.00063660150673083664 0 -0.0022948521549830589 -0.00061708352775991133 0 -0.0021618527921703581 -0.00071709385150972008 0 -0.0022138902442369202 -0.00063660150673083664 0 -0.0021013419756578952 -0.00063950027174087068 0 -0.0025217309917233291 -0.00050196275276556191 0 -0.0023502786846738856 -0.00053380014034483771 0 -0.0025217309917233291 -0.00050196275276556191 0 -0.0020764770560816408 -0.00064737033667711563 0 -0.0022138902442369202 -0.00063660150673083664 0 -0.002267935407280445 -0.00051327379303666126 0 -0.0021013419756578952 -0.00063950027174087068 0 -0.002341022609671198 -0.00049528968025233211 0 -0.0021368894416508993 -0.00063082169726909473 0 -0.0021448070078658702 -0.00054361615022664495 0 -0.0022138902442369202 -0.00063660150673083664 0 -0.0022948521549830589 -0.00061708352775991133 0 -0.002267935407280445 -0.00051327379303666126 0 -0.002267935407280445 -0.00051327379303666126 0 -0.0023765530336529285 -0.00056897786050612732 0 -0.0024138157740375135 -0.00047203366242056329 0 -0.0022948521549830589 -0.00061708352775991133 0 -0.002267935407280445 -0.00051327379303666126 0 -0.0023765530336529285 -0.00056897786050612732 0 -0.0023765530336529285 -0.00056897786050612732 0 -0.0023606721427319169 -0.0006309865350175944 0 -0.0024267913923498043 -0.00064682230037177446 0 -0.0022948521549830589 -0.00061708352775991133 0 -0.0023765530336529285 -0.00056897786050612732 0 -0.0023606721427319169 -0.0006309865350175944 0 -0.0022948521549830589 -0.00061708352775991133 0 -0.0023606721427319169 -0.0006309865350175944 0 -0.0023369095246500576 -0.00069524526177629654 0 -0.0023369095246500576 -0.00069524526177629654 0 -0.0024065367198510871 -0.00074699021876785073 0 -0.0024267913923498043 -0.00064682230037177446 0 -0.0023606721427319169 -0.0006309865350175944 0 -0.0023369095246500576 -0.00069524526177629654 0 -0.0024267913923498043 -0.00064682230037177446 0 -0.0022450678459556114 -0.00069365551511902691 0 -0.0022948521549830589 -0.00061708352775991133 0 -0.0023369095246500576 -0.00069524526177629654 0 -0.0023392729658451641 -0.00079230921174444234 0 -0.0023369095246500576 -0.00069524526177629654 0 -0.0022919283662311486 -0.00074907321731809218 0 -0.0022450678459556114 -0.00069365551511902691 0 -0.0023369095246500576 -0.00069524526177629654 0 -0.0022919283662311486 -0.00074907321731809218 0 -0.0023392729658451641 -0.00079230921174444234 0 -0.0023369095246500576 -0.00069524526177629654 0 -0.0024065367198510871 -0.00074699021876785073 0 -0.0024794495265970952 -0.00080365470507396373 0 -0.00247846149799715 -0.00070809077944082089 0 -0.0025508372505712307 -0.00074808612047325151 0 -0.0024794495265970952 -0.00080365470507396373 0 -0.0024065367198510871 -0.00074699021876785073 0 -0.00247846149799715 -0.00070809077944082089 0 -0.00247846149799715 -0.00070809077944082089 0 -0.0025237735618465875 -0.00063391451374402948 0 -0.0024267913923498043 -0.00064682230037177446 0 -0.00247846149799715 -0.00070809077944082089 0 -0.0025237735618465875 -0.00063391451374402948 0 -0.0025508372505712307 -0.00074808612047325151 0 -0.0024065367198510871 -0.00074699021876785073 0 -0.00247846149799715 -0.00070809077944082089 0 -0.0024267913923498043 -0.00064682230037177446 0 -0.0023765530336529285 -0.00056897786050612732 0 -0.0024267913923498043 -0.00064682230037177446 0 -0.0024816336040789444 -0.00055145017782745652 0 -0.0023765530336529285 -0.00056897786050612732 0 -0.0024816336040789444 -0.00055145017782745652 0 -0.0024138157740375135 -0.00047203366242056329 0 -0.0025237735618465875 -0.00063391451374402948 0 -0.0024267913923498043 -0.00064682230037177446 0 -0.0024816336040789444 -0.00055145017782745652 0 -0.0025237735618465875 -0.00063391451374402948 0 -0.0025819391517168141 -0.00055838803382246864 0 -0.0026102623341166696 -0.00067865530124687165 0 -0.0025237735618465875 -0.00063391451374402948 0 -0.0024816336040789444 -0.00055145017782745652 0 -0.0025819391517168141 -0.00055838803382246864 0 -0.0024816336040789444 -0.00055145017782745652 0 -0.0025819391517168141 -0.00055838803382246864 0 -0.0025596237010923504 -0.00043357029001116036 0 -0.0027391727381351461 -0.00044067940887521957 0 -0.0027008679813055516 -0.00057584391443510504 0 -0.0025828905772817875 -0.00051325756957203942 0 -0.0025945971076706789 -0.00053655441716944706 0 -0.0026073200983171689 -0.00065880742681610652 0 -0.0027008679813055516 -0.00057584391443510504 0 -0.0025828905772817875 -0.00051325756957203942 0 -0.0026102623341166696 -0.00067865530124687165 0 -0.0025237735618465875 -0.00063391451374402948 0 -0.0026102623341166696 -0.00067865530124687165 0 -0.0025508372505712307 -0.00074808612047325151 0 -0.0026102623341166696 -0.00067865530124687165 0 -0.0025508372505712307 -0.00074808612047325151 0 -0.0026573034620697763 -0.00076045126490035457 0 -0.0018333158664779997 -0.00078731153117199827 0 -0.001728365080662842 -0.00093271384662608418 0 -0.001918599833246062 -0.00087061502019910111 0 -0.0018333158664779997 -0.00078731153117199827 0 -0.001673259655219816 -0.00081915894106717206 0 -0.001728365080662842 -0.00093271384662608418 0 -0.001673259655219816 -0.00081915894106717206 0 -0.001728365080662842 -0.00093271384662608418 0 -0.0016145724648351442 -0.0010040880974713747 0 -0.0017274494700062807 -0.0011104206045045922 0 -0.001728365080662842 -0.00093271384662608418 0 -0.0016145724648351442 -0.0010040880974713747 0 -0.001728365080662842 -0.00093271384662608418 0 -0.0018374424334254844 -0.00099096129703578708 0 -0.001918599833246062 -0.00087061502019910111 0 -0.0017274494700062807 -0.0011104206045045922 0 -0.001728365080662842 -0.00093271384662608418 0 -0.0018374424334254844 -0.00099096129703578708 0 -0.0019069630343639243 -0.00099213182004377512 0 -0.0018457621346421066 -0.0011118020843666762 0 -0.0018374424334254844 -0.00099096129703578708 0 -0.0020319927406441114 -0.00092522409815727928 0 -0.001918599833246062 -0.00087061502019910111 0 -0.0018374424334254844 -0.00099096129703578708 0 -0.0020328685510395844 -0.0010332715047635288 0 -0.0020319927406441114 -0.00092522409815727928 0 -0.0021930576100367238 -0.0010597410614293973 0 -0.0021195085406513305 -0.00097501000040450055 0 -0.0020299552041398148 -0.0010175067159696291 0 -0.0021195085406513305 -0.00097501000040450055 0 -0.0020299552041398148 -0.0010175067159696291 0 -0.0020319927406441114 -0.00092522409815727928 0 -0.0018457621346421066 -0.0011118020843666762 0 -0.0019771625655918197 -0.0009333799068626205 0 -0.0021195085406513305 -0.00097501000040450055 0 -0.0020319927406441114 -0.00092522409815727928 0 -0.0021323395478872798 -0.00090051394384539076 0 -0.0020463897436525636 -0.00083235418426474972 0 -0.001948805177161027 -0.0007454708572615787 0 -0.0020849635906881 -0.00074870099202126086 0 -0.0021536360877312901 -0.00080970687659342425 0 -0.0021323395478872798 -0.00090051394384539076 0 -0.0020463897436525636 -0.00083235418426474972 0 -0.0020319927406441114 -0.00092522409815727928 0 -0.0021323395478872798 -0.00090051394384539076 0 -0.0020463897436525636 -0.00083235418426474972 0 -0.0021536360877312901 -0.00080970687659342425 0 -0.0020463897436525636 -0.00083235418426474972 0 -0.0020849635906881 -0.00074870099202126086 0 -0.0020319927406441114 -0.00092522409815727928 0 -0.0020463897436525636 -0.00083235418426474972 0 -0.001918599833246062 -0.00087061502019910111 0 -0.0020463897436525636 -0.00083235418426474972 0 -0.001918599833246062 -0.00087061502019910111 0 -0.001948805177161027 -0.0007454708572615787 0 -0.0018333158664779997 -0.00078731153117199827 0 -0.001918599833246062 -0.00087061502019910111 0 -0.001948805177161027 -0.0007454708572615787 0 -0.001948805177161027 -0.0007454708572615787 0 -0.0021368894416508993 -0.00063082169726909473 0 -0.0019675705031961649 -0.00059508935466085096 0 -0.001948805177161027 -0.0007454708572615787 0 -0.0019675705031961649 -0.00059508935466085096 0 -0.0018413478383447032 -0.00062327531621565605 0 -0.0019756716956662386 -0.00073216848126367111 0 -0.0020764770560816408 -0.00064737033667711563 0 -0.001948805177161027 -0.0007454708572615787 0 -0.0020849635906881 -0.00074870099202126086 0 -0.0021013419756578952 -0.00063950027174087068 0 -0.0021536360877312901 -0.00080970687659342425 0 -0.0021618527921703581 -0.00071709385150972008 0 -0.0020849635906881 -0.00074870099202126086 0 -0.0021618527921703581 -0.00071709385150972008 0 -0.0020849635906881 -0.00074870099202126086 0 -0.0021013419756578952 -0.00063950027174087068 0 -0.0025263967609104642 -0.00053413529592183319 0 -0.0021983314122261542 -0.00059343257408507632 0 -0.0023692817016265403 -0.00034254890224387995 0 -0.0021368894416508993 -0.00063082169726909473 0 -0.0021448070078658702 -0.00054361615022664495 0 -0.0019675705031961649 -0.00059508935466085096 0 -0.0023502786846738856 -0.00053380014034483771 0 -0.0020787252811848168 -0.00059186810423498355 0 -0.0021983314122261542 -0.00059343257408507632 0 -0.0018413478383447032 -0.00062327531621565605 0 -0.002024566691619825 -0.00033413581802935069 0 -0.0020787252811848168 -0.00059186810423498355 0 -0.0018680585511569282 -0.00062531806021557106 0 -0.0018413478383447032 -0.00062327531621565605 0 -0.0017929990007917054 -0.00041966908608275324 0 -0.002024566691619825 -0.00033413581802935069 0 -0.0018333158664779997 -0.00078731153117199827 0 -0.001673259655219816 -0.00081915894106717206 0 -0.0018413478383447032 -0.00062327531621565605 0 -0.0018333158664779997 -0.00078731153117199827 0 -0.001948805177161027 -0.0007454708572615787 0 -0.0018413478383447032 -0.00062327531621565605 0 -0.0015546823033914376 -0.00068273820009463651 0 -0.001673259655219816 -0.00081915894106717206 0 -0.0018413478383447032 -0.00062327531621565605 0 -0.0015546823033914376 -0.00068273820009463651 0 -0.0015935255988249548 -0.00046792136762103165 0 -0.0018413478383447032 -0.00062327531621565605 0 -0.0015935255988249548 -0.00046792136762103165 0 -0.0018413478383447032 -0.00062327531621565605 0 -0.0017929990007917054 -0.00041966908608275324 0 -0.0015935255988249548 -0.00046792136762103165 0 -0.0017929990007917054 -0.00041966908608275324 0 -0.0017780449243334274 -0.00021717864674939563 0 -0.0017780449243334274 -0.00021717864674939563 0 -0.0019858852648036922 2.4121164364167288e-05 0 -0.0015609046225515957 -5.6368858853634051e-05 0 -0.002024566691619825 -0.00033413581802935069 0 -0.0022624851494964723 -0.00014236737733661778 0 -0.0019858852648036922 2.4121164364167288e-05 0 -0.0017780449243334274 -0.00021717864674939563 0 -0.002024566691619825 -0.00033413581802935069 0 -0.0019858852648036922 2.4121164364167288e-05 0 -0.0017929990007917054 -0.00041966908608275324 0 -0.0017780449243334274 -0.00021717864674939563 0 -0.002024566691619825 -0.00033413581802935069 0 -0.002024566691619825 -0.00033413581802935069 0 -0.0023692817016265403 -0.00034254890224387995 0 -0.0022624851494964723 -0.00014236737733661778 0 -0.0021983314122261542 -0.00059343257408507632 0 -0.002024566691619825 -0.00033413581802935069 0 -0.0023692817016265403 -0.00034254890224387995 0 -0.0023692817016265403 -0.00034254890224387995 0 -0.0025112856591588107 -0.00018017806656710179 0 -0.0022624851494964723 -0.00014236737733661778 0 -0.0025263967609104642 -0.00053413529592183319 0 -0.0023692817016265403 -0.00034254890224387995 0 -0.0025947848750422229 -0.00035220826682625381 0 -0.0023692817016265403 -0.00034254890224387995 0 -0.0025112856591588107 -0.00018017806656710179 0 -0.0025947848750422229 -0.00035220826682625381 0 -0.0025112856591588107 -0.00018017806656710179 0 -0.0022624851494964723 -0.00014236737733661778 0 -0.0024411820664185018 7.9581831556946791e-05 0 -0.0025112856591588107 -0.00018017806656710179 0 -0.0024411820664185018 7.9581831556946791e-05 0 -0.0027336672513126217 -4.2064073859501491e-05 0 -0.0022624851494964723 -0.00014236737733661778 0 -0.0024411820664185018 7.9581831556946791e-05 0 -0.0019858852648036922 2.4121164364167288e-05 0 -0.0024411820664185018 7.9581831556946791e-05 0 -0.0021721553940624943 0.00031680651104881616 0 -0.0019858852648036922 2.4121164364167288e-05 0 -0.0032141484703367266 0.00036163276762641975 0 -0.0033603986594845274 0.00037446197228901284 0 -0.0032466024465673034 0.00027853192236277746 0 -0.0024411820664185018 7.9581831556946791e-05 0 -0.0025998160445132703 0.00036484461507128602 0 -0.0021721553940624943 0.00031680651104881616 0 -0.0029073126431553627 0.0003573280923114229 0 -0.0027641155681270941 0.00034430229961548493 0 -0.0033603986594845274 0.00037446197228901284 0 -0.0034989944929542521 0.0003687252212559531 0 -0.003446829660827697 0.00027635233257805488 0 -0.0027641155681270941 0.00034430229961548493 0 -0.0026494597775896011 0.00030243630788101821 0 -0.0034989944929542521 0.0003687252212559531 0 -0.0035224331754275832 0.00029207761834071757 0 -0.0035657601904313893 0.00031054188375283221 0 -0.0034989944929542521 0.0003687252212559531 0 -0.0035224331754275832 0.00029207761834071757 0 -0.003446829660827697 0.00027635233257805488 0 -0.001784061525292227 0.00024125632031893977 0 -0.0019858852648036922 2.4121164364167288e-05 0 -0.0015609046225515957 -5.6368858853634051e-05 0 -0.0021721553940624943 0.00031680651104881616 0 -0.001784061525292227 0.00024125632031893977 0 -0.0019858852648036922 2.4121164364167288e-05 0 -0.0032723697455852817 -8.4326304126610213e-05 0 -0.0033252629819788986 -0.00036492444071767723 0 -0.0032477770067255644 -0.00015072029731502754 0 -0.0028654878141398691 -0.00020631127362497845 0 -0.0029041747440740843 -0.0002532481553087746 0 -0.0028848256971187327 -0.00031558261157312527 0 -0.0030689065861564777 -0.00016590677958338527 0 -0.0028136051714713595 -0.00033733305565565651 0 -0.0029346243606134829 -0.00017572994469261831 0 -0.0029110185501121789 -0.00021957759929812094 0 -0.0029515302845541376 -0.00024558050796237487 0 -0.0029346243606134829 -0.00017572994469261831 0 -0.0029008594706301707 -0.00018805514786978913 0 -0.0029110185501121789 -0.00021957759929812094 0 -0.0029346243606134829 -0.00017572994469261831 0 -0.0029008594706301707 -0.00018805514786978913 0 -0.0028920743381870579 -0.00015064891348729104 0 -0.0029008594706301707 -0.00018805514786978913 0 -0.0028654878141398691 -0.00020631127362497845 0 -0.0028920743381870579 -0.00015064891348729104 0 -0.0029008594706301707 -0.00018805514786978913 0 -0.0028654878141398691 -0.00020631127362497845 0 -0.0029110185501121789 -0.00021957759929812094 0 -0.0028654878141398691 -0.00020631127362497845 0 -0.0029110185501121789 -0.00021957759929812094 0 -0.0029041747440740843 -0.0002532481553087746 0 -0.0029110185501121789 -0.00021957759929812094 0 -0.0029041747440740843 -0.0002532481553087746 0 -0.0029515302845541376 -0.00024558050796237487 0 -0.0030440171377310991 -0.00027063562813490376 0 -0.0029515302845541376 -0.00024558050796237487 0 -0.0028848256971187327 -0.00031558261157312527 0 -0.002918177441853945 -0.00027728310527788501 0 -0.0028136051714713595 -0.00033733305565565651 0 -0.0029041747440740843 -0.0002532481553087746 0 -0.0029515302845541376 -0.00024558050796237487 0 -0.0028848256971187327 -0.00031558261157312527 0 -0.0027391727381351461 -0.00044067940887521957 0 -0.0025828905772817875 -0.00051325756957203942 0 -0.0025503550041199056 -0.00034063776794356282 0 -0.0025945971076706789 -0.00053655441716944706 0 -0.0028136051714713595 -0.00033733305565565651 0 -0.0033252629819788986 -0.00036492444071767723 0 -0.0031515426092420169 -0.00030510585614677838 0 -0.0032477770067255644 -0.00015072029731502754 0 -0.0033252629819788986 -0.00036492444071767723 0 -0.0031131946699143069 -0.00036616295229142894 0 -0.0030078351123336514 -0.00045400328337087963 0 -0.0024816336040789444 -0.00055145017782745652 0 -0.0025596237010923504 -0.00043357029001116036 0 -0.0024138157740375135 -0.00047203366242056329 0 -0.0031515426092420169 -0.00030510585614677838 0 -0.0032477770067255644 -0.00015072029731502754 0 -0.0029636130084301289 -0.00033619599661675724 0 -0.0028136051714713595 -0.00033733305565565651 0 -0.0027186310152562026 -0.00046174933262153531 0 -0.0033252629819788986 -0.00036492444071767723 0 -0.0031131946699143069 -0.00036616295229142894 0 -0.0031515426092420169 -0.00030510585614677838 0 -0.0031131946699143069 -0.00036616295229142894 0 -0.0030078351123336514 -0.00045400328337087963 0 -0.0029636130084301289 -0.00033619599661675724 0 -0.0031131946699143069 -0.00036616295229142894 0 -0.0031515426092420169 -0.00030510585614677838 0 -0.0029636130084301289 -0.00033619599661675724 0 -0.0032110247420167421 -0.00017523593882436822 0 -0.0030410460444025848 -0.00029616274723191462 0 -0.0030933294881405099 -0.00013729050785595795 0 -0.0032477770067255644 -0.00015072029731502754 0 -0.003051712763413567 -0.00029482404529916921 0 -0.0030933294881405099 -0.00013729050785595795 0 -0.0032477770067255644 -0.00015072029731502754 0 -0.0031734732510957271 -8.4574676870769808e-05 0 -0.0032723697455852817 -8.4326304126610213e-05 0 -0.0031734732510957271 -8.4574676870769808e-05 0 -0.0031389137124864346 2.0974961855508872e-05 0 -0.0032723697455852817 -8.4326304126610213e-05 0 -0.0032477770067255644 -0.00015072029731502754 0 -0.0031734732510957271 -8.4574676870769808e-05 0 -0.0030933294881405099 -0.00013729050785595795 0 -0.0031734732510957271 -8.4574676870769808e-05 0 -0.0031389137124864346 2.0974961855508872e-05 0 -0.0030933294881405099 -0.00013729050785595795 0 -0.0029861940858162332 -1.5308693226726392e-05 0 -0.0031389137124864346 2.0974961855508872e-05 0 -0.0029861940858162332 -1.5308693226726392e-05 0 -0.0028541542089887354 -0.00016555502523347325 0 -0.0027336672513126217 -4.2064073859501491e-05 0 -0.0029861940858162332 -1.5308693226726392e-05 0 -0.0028541542089887354 -0.00016555502523347325 0 -0.0029862946541629166 -0.00018635888176643249 0 -0.0028541542089887354 -0.00016555502523347325 0 -0.0029862946541629166 -0.00018635888176643249 0 -0.0028917150447920269 -0.0002702109474913013 0 -0.0030933294881405099 -0.00013729050785595795 0 -0.0029862946541629166 -0.00018635888176643249 0 -0.003051712763413567 -0.00029482404529916921 0 -0.0030933294881405099 -0.00013729050785595795 0 -0.0029861940858162332 -1.5308693226726392e-05 0 -0.0029862946541629166 -0.00018635888176643249 0 -0.0026663884780575155 -0.00054134977077365518 0 -0.0030078351123336514 -0.00045400328337087963 0 -0.0029636130084301289 -0.00033619599661675724 0 -0.0025217309917233291 -0.00050196275276556191 0 -0.0027186310152562026 -0.00046174933262153531 0 -0.0029862946541629166 -0.00018635888176643249 0 -0.003051712763413567 -0.00029482404529916921 0 -0.0028917150447920269 -0.0002702109474913013 0 -0.0025217309917233291 -0.00050196275276556191 0 -0.0030410460444025848 -0.00029616274723191462 0 -0.0028361249141081028 -0.0004560010865418667 0 -0.003051712763413567 -0.00029482404529916921 0 -0.0028917150447920269 -0.0002702109474913013 0 -0.0028541542089887354 -0.00016555502523347325 0 -0.0028917150447920269 -0.0002702109474913013 0 -0.0027244614870702731 -0.00025083783673069077 0 -0.0028361249141081028 -0.0004560010865418667 0 -0.0025263967609104642 -0.00053413529592183319 0 -0.0025947848750422229 -0.00035220826682625381 0 -0.0028361249141081028 -0.0004560010865418667 0 -0.0027244614870702731 -0.00025083783673069077 0 -0.0025947848750422229 -0.00035220826682625381 0 -0.0028361249141081028 -0.0004560010865418667 0 -0.0028917150447920269 -0.0002702109474913013 0 -0.0027244614870702731 -0.00025083783673069077 0 -0.0025112856591588107 -0.00018017806656710179 0 -0.0027244614870702731 -0.00025083783673069077 0 -0.0025947848750422229 -0.00035220826682625381 0 -0.0025112856591588107 -0.00018017806656710179 0 -0.0027244614870702731 -0.00025083783673069077 0 -0.0027336672513126217 -4.2064073859501491e-05 0 -0.0028541542089887354 -0.00016555502523347325 0 -0.0027244614870702731 -0.00025083783673069077 0 -0.0027336672513126217 -4.2064073859501491e-05 0 -0.0024411820664185018 7.9581831556946791e-05 0 -0.0025998160445132703 0.00036484461507128602 0 -0.0028352964955126766 0.00016986840069832955 0 -0.0024411820664185018 7.9581831556946791e-05 0 -0.0027336672513126217 -4.2064073859501491e-05 0 -0.0028352964955126766 0.00016986840069832955 0 -0.0025998160445132703 0.00036484461507128602 0 -0.0028352964955126766 0.00016986840069832955 0 -0.003060341722539159 0.00032806378438016408 0 -0.0032141484703367266 0.00036163276762641975 0 -0.003060341722539159 0.00032806378438016408 0 -0.003151463601837815 0.00029649780498602668 0 -0.0029073126431553627 0.0003573280923114229 0 -0.0030455345503647272 0.0003372851533169235 0 -0.0028352964955126766 0.00016986840069832955 0 -0.003060341722539159 0.00032806378438016408 0 -0.0030696927812167911 0.00017630192487016918 0 -0.0029861940858162332 -1.5308693226726392e-05 0 -0.0027336672513126217 -4.2064073859501491e-05 0 -0.0028352964955126766 0.00016986840069832955 0 -0.0029861940858162332 -1.5308693226726392e-05 0 -0.0028352964955126766 0.00016986840069832955 0 -0.0030696927812167911 0.00017630192487016918 0 -0.0030689065861564777 -0.00016590677958338527 0 -0.0030873263458419328 8.2842224523988002e-05 0 -0.0032723697455852817 -8.4326304126610213e-05 0 -0.0031389137124864346 2.0974961855508872e-05 0 -0.0032267196976772765 0.00013443206166430049 0 -0.0029861940858162332 -1.5308693226726392e-05 0 -0.0031389137124864346 2.0974961855508872e-05 0 -0.0030696927812167911 0.00017630192487016918 0 -0.0031427015696993887 7.4654200715175959e-05 0 -0.0030873263458419328 8.2842224523988002e-05 0 -0.0031389137124864346 2.0974961855508872e-05 0 -0.003197050701973304 0.00012648239482696875 0 -0.0030696927812167911 0.00017630192487016918 0 -0.0030873263458419328 8.2842224523988002e-05 0 -0.0031288419075271279 0.00031755719718974825 0 -0.003060341722539159 0.00032806378438016408 0 -0.0030696927812167911 0.00017630192487016918 0 -0.0031274499602629972 0.00028841898624964237 0 -0.003197050701973304 0.00012648239482696875 0 -0.0030696927812167911 0.00017630192487016918 0 -0.0031274499602629972 0.00028841898624964237 0 -0.0028458853860101785 -0.0001002873839886429 0 -0.0029364666450452394 1.8199072447798889e-05 0 -0.0029341075500209511 -9.7205432599054603e-05 0 -0.003000230751377825 -4.3661952362465481e-05 0 -0.0029364666450452394 1.8199072447798889e-05 0 -0.0029341075500209511 -9.7205432599054603e-05 0 -0.003121996812196538 0.00030976393550336001 0 -0.0031274499602629972 0.00028841898624964237 0 -0.0031005582129032478 0.00028602343427967206 0 -0.0031274499602629972 0.00028841898624964237 0 -0.0031005582129032478 0.00028602343427967206 0 -0.0031142611708833007 0.00027433993755765805 0 -0.0030873263458419328 8.2842224523988002e-05 0 -0.0030060644779336542 0.00014915525617429761 0 -0.0028654878141398691 -0.00020631127362497845 0 -0.0028458853860101785 -0.0001002873839886429 0 -0.0028920743381870579 -0.00015064891348729104 0 -0.0028458853860101785 -0.0001002873839886429 0 -0.0029341075500209511 -9.7205432599054603e-05 0 -0.0028920743381870579 -0.00015064891348729104 0 -0.0029346243606134829 -0.00017572994469261831 0 -0.0029341075500209511 -9.7205432599054603e-05 0 -0.0028920743381870579 -0.00015064891348729104 0 -0.0030053945901642913 -0.0001318851835017339 0 -0.0029346243606134829 -0.00017572994469261831 0 -0.0029341075500209511 -9.7205432599054603e-05 0 -0.0031021980556749222 0.00023502484120237511 0 -0.0031149686713680146 0.00025242153049364328 0 -0.0031270830398116116 0.00022216153794895805 0 -0.0031021980556749222 0.00023502484120237511 0 -0.0031033428475108352 0.0002613932068561693 0 -0.0031149686713680146 0.00025242153049364328 0 -0.0031033428475108352 0.0002613932068561693 0 -0.0031142611708833007 0.00027433993755765805 0 -0.0031149686713680146 0.00025242153049364328 0 -0.0031005582129032478 0.00028602343427967206 0 -0.0031033428475108352 0.0002613932068561693 0 -0.0031142611708833007 0.00027433993755765805 0 -0.0031274499602629972 0.00028841898624964237 0 -0.0031004866526148965 0.00028141023426262406 0 -0.0031142611708833007 0.00027433993755765805 0 -0.003060341722539159 0.00032806378438016408 0 -0.0031274499602629972 0.00028841898624964237 0 -0.0031004866526148965 0.00028141023426262406 0 -0.0031004866526148965 0.00028141023426262406 0 -0.0031142611708833007 0.00027433993755765805 0 -0.0031149686713680146 0.00025242153049364328 0 -0.0031004866526148965 0.00028141023426262406 0 -0.0031149686713680146 0.00025242153049364328 0 -0.0031379897197066891 0.00022872858633346562 0 -0.0031494093953089819 0.00024442206175349321 0 -0.0031680784090319459 0.00022631157517823833 0 -0.0031379897197066891 0.00022872858633346562 0 -0.0031004866526148965 0.00028141023426262406 0 -0.0031494093953089819 0.00024442206175349321 0 -0.0031379897197066891 0.00022872858633346562 0 -0.003060341722539159 0.00032806378438016408 0 -0.0031004866526148965 0.00028141023426262406 0 -0.003151463601837815 0.00029649780498602668 0 -0.0031004866526148965 0.00028141023426262406 0 -0.003151463601837815 0.00029649780498602668 0 -0.0031494093953089819 0.00024442206175349321 0 -0.003151463601837815 0.00029649780498602668 0 -0.0031494093953089819 0.00024442206175349321 0 -0.0032466024465673034 0.00027853192236277746 0 -0.0032141484703367266 0.00036163276762641975 0 -0.003151463601837815 0.00029649780498602668 0 -0.0032466024465673034 0.00027853192236277746 0 -0.0031494093953089819 0.00024442206175349321 0 -0.0031680784090319459 0.00022631157517823833 0 -0.0032096712943135001 0.00025291383064830313 0 -0.0031561998031942044 0.00024271582208860133 0 -0.0032324668198440614 0.00022726264006525692 0 -0.0031494093953089819 0.00024442206175349321 0 -0.0032466024465673034 0.00027853192236277746 0 -0.0032435414623927443 0.00020331757889924189 0 -0.0032631489725246728 0.00022858452774940884 0 -0.003399980045738926 0.00023380217851172384 0 -0.0031680784090319459 0.00022631157517823833 0 -0.0031536936202046779 0.00020795982006726333 0 -0.0032023264121159674 0.00019894449582934565 0 -0.0035023344213489008 0.00019004044015183546 0 -0.0033708615466768151 0.00025561426122861939 0 -0.0036029568116550609 0.00027468314917739587 0 -0.0036174102595615374 0.00010345201097125148 0 -0.0033531531505306606 6.0057682144827723e-05 0 -0.0035023344213489008 0.00019004044015183546 0 -0.0033531531505306606 6.0057682144827723e-05 0 -0.0035023344213489008 0.00019004044015183546 0 -0.0033708615466768151 0.00025561426122861939 0 -0.0033531531505306606 6.0057682144827723e-05 0 -0.0033708615466768151 0.00025561426122861939 0 -0.0032406193187356552 0.00013699652557543502 0 -0.0033708615466768151 0.00025561426122861939 0 -0.0032406193187356552 0.00013699652557543502 0 -0.0031622846734081825 0.0002047920346958048 0 -0.0032631489725246728 0.00022858452774940884 0 -0.0031690207318966785 0.00020826587822112935 0 -0.0031680784090319459 0.00022631157517823833 0 -0.0031536936202046779 0.00020795982006726333 0 -0.0031379897197066891 0.00022872858633346562 0 -0.0031536936202046779 0.00020795982006726333 0 -0.0031379897197066891 0.00022872858633346562 0 -0.0031622846734081825 0.0002047920346958048 0 -0.0031379897197066891 0.00022872858633346562 0 -0.0031622846734081825 0.0002047920346958048 0 -0.0031270830398116116 0.00022216153794895805 0 -0.0031149686713680146 0.00025242153049364328 0 -0.0031379897197066891 0.00022872858633346562 0 -0.0031270830398116116 0.00022216153794895805 0 -0.0031572280864019435 0.00014566380958438578 0 -0.0032406193187356552 0.00013699652557543502 0 -0.0031622846734081825 0.0002047920346958048 0 -0.0031572280864019435 0.00014566380958438578 0 -0.0031622846734081825 0.0002047920346958048 0 -0.0031270467288345141 0.00018906211916134251 0 -0.0031622846734081825 0.0002047920346958048 0 -0.0031270467288345141 0.00018906211916134251 0 -0.0031270830398116116 0.00022216153794895805 0 -0.0031572280864019435 0.00014566380958438578 0 -0.0031255254452225859 0.00015069731572491259 0 -0.0031270467288345141 0.00018906211916134251 0 -0.0031055405773399492 0.0001735309861754818 0 -0.0031255254452225859 0.00015069731572491259 0 -0.0031270467288345141 0.00018906211916134251 0 -0.0031055405773399492 0.0001735309861754818 0 -0.0031009087104008999 0.00020453603495621656 0 -0.0031270467288345141 0.00018906211916134251 0 -0.0031009087104008999 0.00020453603495621656 0 -0.0031270467288345141 0.00018906211916134251 0 -0.0031270830398116116 0.00022216153794895805 0 -0.0031009087104008999 0.00020453603495621656 0 -0.0031021980556749222 0.00023502484120237511 0 -0.0031270830398116116 0.00022216153794895805 0 -0.0034454605386684809 0.00018529800827025633 0 -0.003358782005034366 0.00017048401684523895 0 -0.0034798231224578953 0.00015389608323862963 0 -0.0034217729760453808 0.00021283631134160852 0 -0.0034783959360374732 0.00020843359476978486 0 -0.003446829660827697 0.00027635233257805488 0 -0.0034217729760453808 0.00021283631134160852 0 -0.003446829660827697 0.00027635233257805488 0 -0.0033724971698298641 0.0002309367792195372 0 -0.0034217729760453808 0.00021283631134160852 0 -0.0033724971698298641 0.0002309367792195372 0 -0.003358782005034366 0.00017048401684523895 0 -0.0034217729760453808 0.00021283631134160852 0 -0.0034454605386684809 0.00018529800827025633 0 -0.003358782005034366 0.00017048401684523895 0 -0.0034217729760453808 0.00021283631134160852 0 -0.0034454605386684809 0.00018529800827025633 0 -0.0034783959360374732 0.00020843359476978486 0 -0.0034454605386684809 0.00018529800827025633 0 -0.0034846962812176839 0.00018309831899558353 0 -0.0034798231224578953 0.00015389608323862963 0 -0.0034846962812176839 0.00018309831899558353 0 -0.0035111891340334116 0.00020232358927061049 0 -0.0035073633695471371 0.00016392863645744749 0 -0.0034846962812176839 0.00018309831899558353 0 -0.0035111891340334116 0.00020232358927061049 0 -0.0034783959360374732 0.00020843359476978486 0 -0.0034454605386684809 0.00018529800827025633 0 -0.0034846962812176839 0.00018309831899558353 0 -0.0034783959360374732 0.00020843359476978486 0 -0.0035111891340334116 0.00020232358927061049 0 -0.0035073633695471371 0.00016392863645744749 0 -0.0035635818741726198 0.00021140619633538743 0 -0.0035111891340334116 0.00020232358927061049 0 -0.0035177986488423062 0.00024318686356916892 0 -0.0035635818741726198 0.00021140619633538743 0 -0.0034783959360374732 0.00020843359476978486 0 -0.0035177986488423062 0.00024318686356916892 0 -0.003446829660827697 0.00027635233257805488 0 -0.0035111891340334116 0.00020232358927061049 0 -0.0034783959360374732 0.00020843359476978486 0 -0.0035177986488423062 0.00024318686356916892 0 -0.0035177986488423062 0.00024318686356916892 0 -0.0035224331754275832 0.00029207761834071757 0 -0.003446829660827697 0.00027635233257805488 0 -0.0035177986488423062 0.00024318686356916892 0 -0.0035224331754275832 0.00029207761834071757 0 -0.0035722037683518421 0.00026161335000101889 0 -0.003446829660827697 0.00027635233257805488 0 -0.0033443909124550903 0.00027670540230382483 0 -0.0033724971698298641 0.0002309367792195372 0 -0.0033603986594845274 0.00037446197228901284 0 -0.003446829660827697 0.00027635233257805488 0 -0.0033443909124550903 0.00027670540230382483 0 -0.0033603986594845274 0.00037446197228901284 0 -0.0033443909124550903 0.00027670540230382483 0 -0.0032466024465673034 0.00027853192236277746 0 -0.0033443909124550903 0.00027670540230382483 0 -0.0032466024465673034 0.00027853192236277746 0 -0.0033091044728784606 0.00023034911562399879 0 -0.0032466024465673034 0.00027853192236277746 0 -0.0032435414623927443 0.00020331757889924189 0 -0.0033091044728784606 0.00023034911562399879 0 -0.0032324668198440614 0.00022726264006525692 0 -0.0033113338107494785 0.00021192116630618579 0 -0.0032435414623927443 0.00020331757889924189 0 -0.0033091044728784606 0.00023034911562399879 0 -0.003358782005034366 0.00017048401684523895 0 -0.0032096712943135001 0.00025291383064830313 0 -0.0033015226392195235 0.00024670959150646757 0 -0.0032437288760773153 0.0002211202886419755 0 -0.0033724971698298641 0.0002309367792195372 0 -0.0033091044728784606 0.00023034911562399879 0 -0.003358782005034366 0.00017048401684523895 0 -0.0033443909124550903 0.00027670540230382483 0 -0.0033724971698298641 0.0002309367792195372 0 -0.0033091044728784606 0.00023034911562399879 0 -0.0037862218140206931 0.00023130755576481073 0 -0.0036029568116550609 0.00027468314917739587 0 -0.0037141628382115674 0.00020023673165538831 0 -0.0033015226392195235 0.00024670959150646757 0 -0.0032968431356658577 0.00020433077741553556 0 -0.0032437288760773153 0.0002211202886419755 0 -0.0037862218140206931 0.00023130755576481073 0 -0.0037945266813158652 0.00020443424479849994 0 -0.0037141628382115674 0.00020023673165538831 0 -0.0031680784090319459 0.00022631157517823833 0 -0.0032096712943135001 0.00025291383064830313 0 -0.0032023264121159674 0.00019894449582934565 0 -0.0032096712943135001 0.00025291383064830313 0 -0.0032023264121159674 0.00019894449582934565 0 -0.0032437288760773153 0.0002211202886419755 0 -0.0032968431356658577 0.00020433077741553556 0 -0.0032023264121159674 0.00019894449582934565 0 -0.0032437288760773153 0.0002211202886419755 0 -0.0035418869862392679 0.00021864306885660924 0 -0.003399980045738926 0.00023380217851172384 0 -0.0036174102595615374 0.00010345201097125148 0 -0.0036029568116550609 0.00027468314917739587 0 -0.0037141628382115674 0.00020023673165538831 0 -0.0036174102595615374 0.00010345201097125148 0 -0.0035023344213489008 0.00019004044015183546 0 -0.0036029568116550609 0.00027468314917739587 0 -0.0036174102595615374 0.00010345201097125148 0 -0.0037141628382115674 0.00020023673165538831 0 -0.0038202384413206151 0.00018294349704331574 0 -0.0038116044443381007 0.00017004431800074634 0 -0.0038170607479497908 0.00017840063763033829 0 -0.0037945266813158652 0.00020443424479849994 0 -0.0037141628382115674 0.00020023673165538831 0 -0.0038202384413206151 0.00018294349704331574 0 -0.0037750035954745437 0.00022084467662928799 0 -0.0038202384413206151 0.00018294349704331574 0 -0.0037891451765126477 0.0001875224907033549 0 -0.0037750035954745437 0.00022084467662928799 0 -0.0037891451765126477 0.0001875224907033549 0 -0.0037390273406524353 0.00018399051144399949 0 -0.0037945266813158652 0.00020443424479849994 0 -0.0038202384413206151 0.00018294349704331574 0 -0.0037891451765126477 0.0001875224907033549 0 -0.0035418869862392679 0.00021864306885660924 0 -0.003547788553406928 0.00017998254575493124 0 -0.0037862218140206931 0.00023130755576481073 0 -0.0037945266813158652 0.00020443424479849994 0 -0.0037891451765126477 0.0001875224907033549 0 -0.0033113338107494785 0.00021192116630618579 0 -0.003547788553406928 0.00017998254575493124 0 -0.0033015226392195235 0.00024670959150646757 0 -0.0032968431356658577 0.00020433077741553556 0 -0.0034183905576781045 0.00022464121172851236 0 -0.0037862218140206931 0.00023130755576481073 0 -0.0037770340511009818 0.0001806858868727304 0 -0.0037598124160280011 0.00014857851348453849 0 -0.0037862218140206931 0.00023130755576481073 0 -0.0037891451765126477 0.0001875224907033549 0 -0.0037770340511009818 0.0001806858868727304 0 -0.0037891451765126477 0.0001875224907033549 0 -0.0037770340511009818 0.0001806858868727304 0 -0.0037390273406524353 0.00018399051144399949 0 -0.003547788553406928 0.00017998254575493124 0 -0.0036645315659241495 0.00015688363526221655 0 -0.0037598124160280011 0.00014857851348453849 0 -0.0037390273406524353 0.00018399051144399949 0 -0.0036383741667981662 0.00016991604063427491 0 -0.0035073633695471371 0.00016392863645744749 0 -0.0034791246398308841 0.0001512155518754542 0 -0.0036383741667981662 0.00016991604063427491 0 -0.0035193382116808464 0.00017234213520129487 0 -0.003547788553406928 0.00017998254575493124 0 -0.0034846962812176839 0.00018309831899558353 0 -0.0035073633695471371 0.00016392863645744749 0 -0.0034798231224578953 0.00015389608323862963 0 -0.0037770340511009818 0.0001806858868727304 0 -0.0037598124160280011 0.00014857851348453849 0 -0.0037390273406524353 0.00018399051144399949 0 -0.0037750035954745437 0.00022084467662928799 0 -0.0037390273406524353 0.00018399051144399949 0 -0.0036939714543052166 0.00020561393029843131 0 -0.003649200520394324 0.00018875988868919202 0 -0.0036939714543052166 0.00020561393029843131 0 -0.0036383741667981662 0.00016991604063427491 0 -0.0037390273406524353 0.00018399051144399949 0 -0.0036939714543052166 0.00020561393029843131 0 -0.0036383741667981662 0.00016991604063427491 0 -0.003649200520394324 0.00018875988868919202 0 -0.0036383741667981662 0.00016991604063427491 0 -0.0036694292522936847 0.00019267375571312031 0 -0.0036383741667981662 0.00016991604063427491 0 -0.0036307640061767144 0.00021987645800625508 0 -0.0036694292522936847 0.00019267375571312031 0 -0.0035073633695471371 0.00016392863645744749 0 -0.0036383741667981662 0.00016991604063427491 0 -0.0035635818741726198 0.00021140619633538743 0 -0.0035635818741726198 0.00021140619633538743 0 -0.0036307640061767144 0.00021987645800625508 0 -0.0035722037683518421 0.00026161335000101889 0 -0.0036383741667981662 0.00016991604063427491 0 -0.0035635818741726198 0.00021140619633538743 0 -0.0036307640061767144 0.00021987645800625508 0 -0.0035177986488423062 0.00024318686356916892 0 -0.0035635818741726198 0.00021140619633538743 0 -0.0035722037683518421 0.00026161335000101889 0 -0.0036307640061767144 0.00021987645800625508 0 -0.0036636679537470646 0.00023495720860359687 0 -0.0036694292522936847 0.00019267375571312031 0 -0.0036307640061767144 0.00021987645800625508 0 -0.0036265706642286499 0.00028162124186436916 0 -0.0035722037683518421 0.00026161335000101889 0 -0.0036307640061767144 0.00021987645800625508 0 -0.0036265706642286499 0.00028162124186436916 0 -0.0036636679537470646 0.00023495720860359687 0 -0.0036265706642286499 0.00028162124186436916 0 -0.0035722037683518421 0.00026161335000101889 0 -0.0035657601904313893 0.00031054188375283221 0 -0.0035224331754275832 0.00029207761834071757 0 -0.0035722037683518421 0.00026161335000101889 0 -0.0035657601904313893 0.00031054188375283221 0 -0.0036863131388861193 0.00024978028060111733 0 -0.0037024596848346802 0.00023739761898092159 0 -0.0037024942059669472 0.00026643763880085863 0 -0.0036863131388861193 0.00024978028060111733 0 -0.0037024942059669472 0.00026643763880085863 0 -0.0036777318281248669 0.00027529048159554001 0 -0.0036863131388861193 0.00024978028060111733 0 -0.0036651052600402516 0.00026745977370824971 0 -0.0036777318281248669 0.00027529048159554001 0 -0.0036863131388861193 0.00024978028060111733 0 -0.0036651052600402516 0.00026745977370824971 0 -0.0036636679537470646 0.00023495720860359687 0 -0.0036265706642286499 0.00028162124186436916 0 -0.0036651052600402516 0.00026745977370824971 0 -0.0036636679537470646 0.00023495720860359687 0 -0.0036636679537470646 0.00023495720860359687 0 -0.0036989150570515064 0.00020848706459393587 0 -0.0036694292522936847 0.00019267375571312031 0 -0.0036863131388861193 0.00024978028060111733 0 -0.0036989150570515064 0.00020848706459393587 0 -0.0037024596848346802 0.00023739761898092159 0 -0.0036863131388861193 0.00024978028060111733 0 -0.0036636679537470646 0.00023495720860359687 0 -0.0036989150570515064 0.00020848706459393587 0 -0.0036989150570515064 0.00020848706459393587 0 -0.0037217944703520005 0.00017657963822596056 0 -0.0037024596848346802 0.00023739761898092159 0 -0.0036989150570515064 0.00020848706459393587 0 -0.0037339702087896588 0.00016948115577719114 0 -0.0037217944703520005 0.00017657963822596056 0 -0.0036989150570515064 0.00020848706459393587 0 -0.0036694292522936847 0.00019267375571312031 0 -0.0037339702087896588 0.00016948115577719114 0 -0.003649200520394324 0.00018875988868919202 0 -0.0036694292522936847 0.00019267375571312031 0 -0.0037339702087896588 0.00016948115577719114 0 -0.0037922062560130465 0.00019643067699953631 0 -0.0037412878041683706 0.00017178606083016572 0 -0.0037227122130579792 0.00023180218472757219 0 -0.0037339702087896588 0.00016948115577719114 0 -0.0037217944703520005 0.00017657963822596056 0 -0.0036987089271611189 0.0002308162748679362 0 -0.0036909008761463555 0.00022714989595656242 0 -0.0036938179941999392 0.00022579760593417701 0 -0.0036909008761463555 0.00022714989595656242 0 -0.0036944895105560814 0.00022705460062695667 0 -0.0036938179941999392 0.00022579760593417701 0 -0.0037139037688514328 0.00023002161813991091 0 -0.0037067542695028801 0.00020328965033648903 0 -0.0036738195573350748 0.00022709703915723328 0 -0.0036909008761463555 0.00022714989595656242 0 -0.0036848629926747971 0.00022473650744803895 0 -0.0036909008761463555 0.00022714989595656242 0 -0.0036848629926747971 0.00022473650744803895 0 -0.0036944895105560814 0.00022705460062695667 0 -0.0036848629926747971 0.00022473650744803895 0 -0.0036944895105560814 0.00022705460062695667 0 -0.0037001242025635765 0.00023130292237965921 0 -0.0026412859854305034 6.4404211355859208e-05 0 -0.0026627409044983107 3.7246106980622856e-05 0 -0.0015946135954302404 -9.4198638518646385e-05 0 -0.0015816622704998842 -0.00013570158336842985 0 -0.0016345833028734782 -0.00014882806090051547 0 -0.0036944895105560814 0.00022705460062695667 0 -0.0036938179941999392 0.00022579760593417701 0 -0.0037024596848346802 0.00023739761898092159 0 -0.0026138786528082615 8.8409371900664249e-05 0 -0.0026412859854305034 6.4404211355859208e-05 0 -0.0015623300753024184 -6.2100750142821359e-05 0 -0.0015946135954302404 -9.4198638518646385e-05 0 -0.0015451179812987215 -7.9926885368895596e-05 0 -0.0015946135954302404 -9.4198638518646385e-05 0 -0.0015413556173472431 -0.00012338889155351631 0 -0.0015816622704998842 -0.00013570158336842985 0 -0.0015946135954302404 -9.4198638518646385e-05 0 -0.0015451179812987215 -7.9926885368895596e-05 0 -0.0015413556173472431 -0.00012338889155351631 0 -0.0015152056209159202 -8.6220783971779907e-05 0 -0.0015451179812987215 -7.9926885368895596e-05 0 -0.0015413556173472431 -0.00012338889155351631 0 -0.0014907884576557417 -0.0001308067433611378 0 -0.0015413556173472431 -0.00012338889155351631 0 -0.0014997874834634566 -0.00019182799804452118 0 -0.0015413556173472431 -0.00012338889155351631 0 -0.0015594445917922689 -0.00018365902663973257 0 -0.0014997874834634566 -0.00019182799804452118 0 -0.0015413556173472431 -0.00012338889155351631 0 -0.0015816622704998842 -0.00013570158336842985 0 -0.0015594445917922689 -0.00018365902663973257 0 -0.0015594445917922689 -0.00018365902663973257 0 -0.0016141942257951721 -0.00020377486098273266 0 -0.0015651876841952445 -0.00026061320459880467 0 -0.0015594445917922689 -0.00018365902663973257 0 -0.0014997874834634566 -0.00019182799804452118 0 -0.0015101501976526198 -0.00023909359321533816 0 -0.0037067542695028801 0.00020328965033648903 0 -0.0037037480399011082 0.00023266328713377851 0 -0.0036944895105560814 0.00022705460062695667 0 -0.0037024596848346802 0.00023739761898092159 0 -0.0037001242025635765 0.00023130292237965921 0 -0.0015816622704998842 -0.00013570158336842985 0 -0.0015594445917922689 -0.00018365902663973257 0 -0.0016345833028734782 -0.00014882806090051547 0 -0.0015594445917922689 -0.00018365902663973257 0 -0.0016345833028734782 -0.00014882806090051547 0 -0.0016141942257951721 -0.00020377486098273266 0 -0.0016345833028734782 -0.00014882806090051547 0 -0.0016141942257951721 -0.00020377486098273266 0 -0.0016859288054351729 -0.00022216908987922245 0 -0.0037024596848346802 0.00023739761898092159 0 -0.0037001242025635765 0.00023130292237965921 0 -0.0037024942059669472 0.00026643763880085863 0 -0.0026627409044983107 3.7246106980622856e-05 0 -0.0027368225155939927 5.4972692648208945e-05 0 -0.0027368225155939927 5.4972692648208945e-05 0 -0.0023052823294660196 -0.00026069334348695415 0 -0.0016859288054351729 -0.00022216908987922245 0 -0.0016316357835303242 -0.00026485861385487582 0 -0.001681533533123567 -0.0003292739925186829 0 -0.0016141942257951721 -0.00020377486098273266 0 -0.0016859288054351729 -0.00022216908987922245 0 -0.0016316357835303242 -0.00026485861385487582 0 -0.0016141942257951721 -0.00020377486098273266 0 -0.0016316357835303242 -0.00026485861385487582 0 -0.0015651876841952445 -0.00026061320459880467 0 -0.0016316357835303242 -0.00026485861385487582 0 -0.0016034978723392683 -0.00031874574906005378 0 -0.0015651876841952445 -0.00026061320459880467 0 -0.0016316357835303242 -0.00026485861385487582 0 -0.0016034978723392683 -0.00031874574906005378 0 -0.001681533533123567 -0.0003292739925186829 0 -0.0016034978723392683 -0.00031874574906005378 0 -0.001681533533123567 -0.0003292739925186829 0 -0.0016260782501139018 -0.00040030935049982253 0 -0.0016859288054351729 -0.00022216908987922245 0 -0.001681533533123567 -0.0003292739925186829 0 -0.0017449468953405437 -0.00032034093194051192 0 -0.001681533533123567 -0.0003292739925186829 0 -0.001755271853441504 -0.00035669815829492211 0 -0.0017658495496792924 -0.00031318026808674218 0 -0.0015537455907785667 -0.00035213536895681763 0 -0.0023052823294660196 -0.00026069334348695415 0 -0.0014593087551571095 -0.00027473328113496691 0 -0.0015101501976526198 -0.00023909359321533816 0 -0.0014921765070054363 -0.00028474227836193007 0 -0.0014593087551571095 -0.00027473328113496691 0 -0.0014997874834634566 -0.00019182799804452118 0 -0.0015101501976526198 -0.00023909359321533816 0 -0.0015101501976526198 -0.00023909359321533816 0 -0.0015651876841952445 -0.00026061320459880467 0 -0.0014921765070054363 -0.00028474227836193007 0 -0.0015594445917922689 -0.00018365902663973257 0 -0.0015101501976526198 -0.00023909359321533816 0 -0.0015651876841952445 -0.00026061320459880467 0 -0.0016034978723392683 -0.00031874574906005378 0 -0.001520799514871011 -0.00030871079043515436 0 -0.0015686295325644142 -0.00036402859187074389 0 -0.0016034978723392683 -0.00031874574906005378 0 -0.0015651876841952445 -0.00026061320459880467 0 -0.001520799514871011 -0.00030871079043515436 0 -0.0015651876841952445 -0.00026061320459880467 0 -0.001520799514871011 -0.00030871079043515436 0 -0.0014921765070054363 -0.00028474227836193007 0 -0.0014593087551571095 -0.00027473328113496691 0 -0.0014921765070054363 -0.00028474227836193007 0 -0.0014484191195841701 -0.00033918114507109227 0 -0.001520799514871011 -0.00030871079043515436 0 -0.0014921765070054363 -0.00028474227836193007 0 -0.0014484191195841701 -0.00033918114507109227 0 -0.0013229041947954267 -0.00041699939290243155 0 -0.0013927485696915076 -0.00041073955312988681 0 -0.0013555503984295735 -0.00047137908247302289 0 -0.0013927485696915076 -0.00041073955312988681 0 -0.0013829457320938929 -0.00045472850436399393 0 -0.0013555503984295735 -0.00047137908247302289 0 -0.0013229041947954267 -0.00041699939290243155 0 -0.0013927485696915076 -0.00041073955312988681 0 -0.0014484191195841701 -0.00033918114507109227 0 -0.0013927485696915076 -0.00041073955312988681 0 -0.0014484191195841701 -0.00033918114507109227 0 -0.0014666492084472384 -0.00042601134922155338 0 -0.0013927485696915076 -0.00041073955312988681 0 -0.0014666492084472384 -0.00042601134922155338 0 -0.0013829457320938929 -0.00045472850436399393 0 -0.001520799514871011 -0.00030871079043515436 0 -0.0014484191195841701 -0.00033918114507109227 0 -0.0014666492084472384 -0.00042601134922155338 0 -0.001520799514871011 -0.00030871079043515436 0 -0.0014666492084472384 -0.00042601134922155338 0 -0.0015686295325644142 -0.00036402859187074389 0 -0.0014666492084472384 -0.00042601134922155338 0 -0.0015538672597139715 -0.00042479436005977858 0 -0.0015686295325644142 -0.00036402859187074389 0 -0.00072457253653169325 -0.0004137451956455323 0 -0.0010149357789175999 -0.00043665398815481731 0 -0.0014666492084472384 -0.00042601134922155338 0 -0.0015546291796600428 -0.00050497589487418166 0 -0.0013301926722461381 -0.00051085002083048402 0 -0.00074879497830516507 -0.00043621313348895873 0 -0.00075455722963342392 -0.00052666592139206231 0 -0.0013301926722461381 -0.00051085002083048402 0 -0.0011634792151716637 -0.00050815515373391995 0 -0.0013154254461782799 -0.00051213361138771716 0 -0.0014666492084472384 -0.00042601134922155338 0 -0.0015538672597139715 -0.00042479436005977858 0 -0.0015546291796600428 -0.00050497589487418166 0 -0.00074879497830516507 -0.00043621313348895873 0 -0.0013301926722461381 -0.00051085002083048402 0 -0.0013972956267246906 -0.0004670494579667686 0 -0.0014666492084472384 -0.00042601134922155338 0 -0.0013829457320938929 -0.00045472850436399393 0 -0.0013301926722461381 -0.00051085002083048402 0 -0.0013829457320938929 -0.00045472850436399393 0 -0.0013301926722461381 -0.00051085002083048402 0 -0.0013555503984295735 -0.00047137908247302289 0 -0.0013301926722461381 -0.00051085002083048402 0 -0.0013972956267246906 -0.0004670494579667686 0 -0.0013555503984295735 -0.00047137908247302289 0 -0.0010149357789175999 -0.00043665398815481731 0 -0.0012394229486033361 -0.00052151442435986154 0 -0.0017216605334697259 -0.00038802279468911862 0 -0.0016809851630718532 -0.00048980925272932912 0 -0.0017693683563529219 -0.00042909992125420216 0 -0.0017216605334697259 -0.00038802279468911862 0 -0.0016260782501139018 -0.00040030935049982253 0 -0.0016809851630718532 -0.00048980925272932912 0 -0.001681533533123567 -0.0003292739925186829 0 -0.0017216605334697259 -0.00038802279468911862 0 -0.0016260782501139018 -0.00040030935049982253 0 -0.001681533533123567 -0.0003292739925186829 0 -0.0017216605334697259 -0.00038802279468911862 0 -0.001755271853441504 -0.00035669815829492211 0 -0.0015538672597139715 -0.00042479436005977858 0 -0.0015546291796600428 -0.00050497589487418166 0 -0.0016260782501139018 -0.00040030935049982253 0 -0.0016034978723392683 -0.00031874574906005378 0 -0.0016260782501139018 -0.00040030935049982253 0 -0.0015686295325644142 -0.00036402859187074389 0 -0.0015538672597139715 -0.00042479436005977858 0 -0.0016260782501139018 -0.00040030935049982253 0 -0.0015686295325644142 -0.00036402859187074389 0 -0.0015546291796600428 -0.00050497589487418166 0 -0.0016260782501139018 -0.00040030935049982253 0 -0.0016809851630718532 -0.00048980925272932912 0 -0.0011634792151716637 -0.00050815515373391995 0 -0.0012907875551914866 -0.00047309156207918585 0 -0.00075787027968916214 -0.00049259122907429774 0 -0.00075455722963342392 -0.00052666592139206231 0 -0.00082834024177782281 -0.00042537818576585291 0 -0.00099636942482824787 -0.00050222105399444928 0 -0.00082834024177782281 -0.00042537818576585291 0 -0.0010065013661487915 -0.00039774865199387351 0 -0.0016809851630718532 -0.00048980925272932912 0 -0.0018089798051099039 -0.00048407892168522904 0 -0.0017693683563529219 -0.00042909992125420216 0 -0.0012907875551914866 -0.00047309156207918585 0 -0.0012443071765300387 -0.0003049390083804946 0 -0.0010282942957778039 -0.00049088608799050741 0 -0.0012443071765300387 -0.0003049390083804946 0 -0.0018269603214481022 -0.00039345454803068247 0 -0.0017964920416497839 -0.00037417174131590159 0 -0.0018487978651186177 -0.00028570615824243353 0 -0.0018089798051099039 -0.00048407892168522904 0 -0.0017693683563529219 -0.00042909992125420216 0 -0.0018269603214481022 -0.00039345454803068247 0 -0.0012443071765300387 -0.0003049390083804946 0 -0.0014873996182789202 -0.00028841814996061877 0 -0.0017693683563529219 -0.00042909992125420216 0 -0.0018269603214481022 -0.00039345454803068247 0 -0.0017964920416497839 -0.00037417174131590159 0 -0.0017216605334697259 -0.00038802279468911862 0 -0.0017964920416497839 -0.00037417174131590159 0 -0.001755271853441504 -0.00035669815829492211 0 -0.0017216605334697259 -0.00038802279468911862 0 -0.0017693683563529219 -0.00042909992125420216 0 -0.0017964920416497839 -0.00037417174131590159 0 -0.0010801390047443435 -0.00026460407516683054 0 -0.0011017485528505943 -8.3370697971744023e-05 0 -0.0012225061201558258 -0.00013194322040883222 0 -0.0012225061201558258 -0.00013194322040883222 0 -0.0013560761789192938 -5.7261983748464674e-05 0 -0.001248344535882528 -1.3542016584084403e-06 0 -0.0011017485528505943 -8.3370697971744023e-05 0 -0.0012225061201558258 -0.00013194322040883222 0 -0.001248344535882528 -1.3542016584084403e-06 0 -0.0011989294966957675 -0.00041922409725685594 0 -0.0010660241338355449 -0.00027310238158413495 0 -0.0013668006362933197 -0.00026234182704565719 0 -0.0010801390047443435 -0.00026460407516683054 0 -0.0012225061201558258 -0.00013194322040883222 0 -0.0013668006362933197 -0.00026234182704565719 0 -0.0012443071765300387 -0.0003049390083804946 0 -0.0012800394252920387 -0.00025546779813940835 0 -0.0015935255988249548 -0.00046792136762103165 0 -0.0017780449243334274 -0.00021717864674939563 0 -0.0015609046225515957 -5.6368858853634051e-05 0 -0.0015935255988249548 -0.00046792136762103165 0 -0.0013668006362933197 -0.00026234182704565719 0 -0.0015609046225515957 -5.6368858853634051e-05 0 -0.0012225061201558258 -0.00013194322040883222 0 -0.0013668006362933197 -0.00026234182704565719 0 -0.0013560761789192938 -5.7261983748464674e-05 0 -0.0013668006362933197 -0.00026234182704565719 0 -0.0015609046225515957 -5.6368858853634051e-05 0 -0.0013560761789192938 -5.7261983748464674e-05 0 -0.0013560761789192938 -5.7261983748464674e-05 0 -0.0014393921426590968 0.0001657947859150751 0 -0.001248344535882528 -1.3542016584084403e-06 0 -0.0015609046225515957 -5.6368858853634051e-05 0 -0.0013560761789192938 -5.7261983748464674e-05 0 -0.0014393921426590968 0.0001657947859150751 0 -0.0026494597775896011 0.00030243630788101821 0 -0.0024783329992062501 0.00027387179733323976 0 -0.001784061525292227 0.00024125632031893977 0 -0.0015609046225515957 -5.6368858853634051e-05 0 -0.0014393921426590968 0.0001657947859150751 0 -0.0034989944929542521 0.0003687252212559531 0 -0.0035972222604005624 0.00034390268823205499 0 -0.0035657601904313893 0.00031054188375283221 0 -0.0036265706642286499 0.00028162124186436916 0 -0.0035972222604005624 0.00034390268823205499 0 -0.0036633556636685833 0.00029522312845322018 0 -0.0036265706642286499 0.00028162124186436916 0 -0.0035972222604005624 0.00034390268823205499 0 -0.0035657601904313893 0.00031054188375283221 0 -0.0036265706642286499 0.00028162124186436916 0 -0.0036651052600402516 0.00026745977370824971 0 -0.0036633556636685833 0.00029522312845322018 0 -0.0035083788189577544 0.00041782981131511761 0 -0.0025832574892264513 5.3833857578611292e-05 0 -0.0036651052600402516 0.00026745977370824971 0 -0.0036633556636685833 0.00029522312845322018 0 -0.0036777318281248669 0.00027529048159554001 0 -0.0037024942059669472 0.00026643763880085863 0 -0.0036747020837152758 0.00029133324508850278 0 -0.0036734572876509102 0.00030977818981474186 0 -0.0036633556636685833 0.00029522312845322018 0 -0.0036777318281248669 0.00027529048159554001 0 -0.0036747020837152758 0.00029133324508850278 0 -0.0037024942059669472 0.00026643763880085863 0 -0.0036777318281248669 0.00027529048159554001 0 -0.0036747020837152758 0.00029133324508850278 0 -0.0036633556636685833 0.00029522312845322018 0 -0.0036747020837152758 0.00029133324508850278 0 -0.0036572190339847054 0.00030564588764935935 0 -0.0036747020837152758 0.00029133324508850278 0 -0.0036734572876509102 0.00030977818981474186 0 -0.0036572190339847054 0.00030564588764935935 0 -0.0023052823294660196 -0.00026069334348695415 0 -0.0025832574892264513 5.3833857578611292e-05 0 -0.0018952358964307819 -0.00026824840567344938 0 -0.0023052823294660196 -0.00026069334348695415 0 -0.0017964920416497839 -0.00037417174131590159 0 -0.001755271853441504 -0.00035669815829492211 0 -0.0017658495496792924 -0.00031318026808674218 0 -0.0017964920416497839 -0.00037417174131590159 0 -0.001765260434519226 -0.00029884898493092078 0 -0.0018487978651186177 -0.00028570615824243353 0 -0.0024783329992062501 0.00027387179733323976 0 -0.0025832574892264513 5.3833857578611292e-05 0 -0.0011017485528505943 -8.3370697971744023e-05 0 -0.001248344535882528 -1.3542016584084403e-06 0 -0.0011288636133107649 0.00010381685926741683 0 -0.0014393921426590968 0.0001657947859150751 0 -0.001248344535882528 -1.3542016584084403e-06 0 -0.0011288636133107649 0.00010381685926741683 0 -0.0014873996182789202 -0.00028841814996061877 0 -0.0025832574892264513 5.3833857578611292e-05 0 -0.0035972222604005624 0.00034390268823205499 0 -0.0036633556636685833 0.00029522312845322018 0 -0.0036610295400686574 0.00033315380305605296 0 
</DataArray>
</PointData>
<CellData Scalars="region_id,cross_section_updated," Vectors="" Tensors="stress,">
<DataArray type="Float64" Name="region_id" format="ascii">
5 5 5 5 5 5 5 5 6 5 5 5 5 6 6 6 5 5 5 5 5 6 5 6 5 5 5 5 5 5 5 5 6 5 5 5 5 6 5 5 5 5 5 5 5 5 5 5 5 6 5 5 5 6 5 5 6 5 6 5 5 6 5 5 5 6 6 5 6 6 5 6 5 5 5 5 5 5 5 5 6 5 5 6 5 6 5 5 5 5 5 6 5 5 6 5 5 6 5 5 5 5 5 5 5 5 5 5 6 5 5 5 5 6 5 5 5 5 5 6 5 6 5 5 5 6 6 6 5 5 5 5 6 5 5 5 5 6 5 5 5 5 5 5 5 6 5 5 5 5 5 6 5 5 5 5 5 5 5 5 5 5 5 5 5 5 5 5 5 5 5 6 6 5 5 5 5 5 5 5 5 5 5 5 5 5 5 6 5 5 5 5 5 6 5 5 5 5 5 5 6 5 5 5 5 5 5 5 5 6 5 5 5 5 6 5 5 5 5 5 6 5 5 5 6 5 5 5 5 5 5 5 6 5 5 5 6 6 5 5 5 5 5 5 5 6 5 5 6 5 5 5 5 5 5 5 5 5 5 6 5 5 5 5 5 6 5 6 5 5 6 5 5 5 5 5 5 5 5 6 5 5 6 5 5 5 6 5 6 5 5 5 5 5 6 5 6 6 5 5 5 5 5 5 6 5 5 5 5 5 5 5 5 5 5 5 5 5 5 5 5 5 5 5 5 5 5 5 5 5 5 6 5 5 6 5 5 5 5 5 5 5 5 5 5 5 5 5 5 5 5 6 5 5 5 5 5 5 5 6 5 5 5 5 5 5 5 5 5 5 5 5 5 5 5 5 5 5 5 6 5 5 5 5 5 5 6 5 5 5 5 5 5 5 5 5 5 5 5 5 5 5 5 5 6 6 5 5 5 5 5 5 5 5 6 5 5 6 5 5 6 5 5 5 5 5 6 5 5 5 5 6 5 5 5 5 5 5 6 5 5 5 5 5 5 5 5 5 5 6 5 5 5 6 5 5 5 5 5 6 5 5 5 5 6 5 5 5 5 5 5 5 6 5 5 5 5 5 5 6 5 5 6 5 5 5 5 5 5 5 5 5 5 5 5 5 6 5 5 5 5 6 5 5 5 5 6 5 5 6 5 6 5 5 5 6 5 5 5 5 5 6 5 5 5 5 5 5 6 5 5 5 5 5 5 5 5 6 5 5 6 5 5 6 5 5 6 5 5 6 5 5 5 5 6 5 5 5 5 5 5 5 6 5 5 6 5 5 5 5 6 5 5 5 5 5 5 6 6 6 5 5 5 5 5 5 6 5 5 5 5 5 5 5 5 5 5 5 5 5 5 5 5 5 5 5 5 5 5 5 5 5 5 5 5 5 5 5 5 5 5 6 5 5 5 5 5 5 5 6 5 5 5 5 6 5 5 5 5 5 5 5 5 5 5 5 5 5 5 5 5 5 5 5 5 5 5 6 5 5 6 5 5 5 5 5 6 5 5 6 5 5 6 5 6 5 5 5 5 5 6 5 5 5 5 6 5 5 5 5 5 5 5 5 6 5 5 5 6 6 6 6 5 5 5 5 5 5 5 5 5 5 6 5 6 5 5 6 5 5 5 5 5 5 5 5 5 5 5 5 5 5 6 6 6 5 5 6 5 5 6 6 5 5 5 5 6 5 5 6 5 5 6 5 5 5 5 5 5 5 5 5 5 5 5 6 5 5 5 5 5 6 5 6 5 5 6 6 5 5 5 5 5 6 5 5 6 5 5 6 5 5 6 5 5 6 6 5 5 6 5 5 6 5 6 6 5 5 5 5 6 5 5 5 6 5 6 5 5 5 6 5 5 5 6 5 5 5 6 5 5 6 6 5 5 5 6 5 5 5 5 6 5 6 5 5 5 6 5 6 5 5 5 5 5 5 5 5 5 5 5 5 5 5 5 5 5 6 5 5 5 5 5 5 5 6 5 5 5 5 5 5 5 5 5 5 5 5 5 5 5 5 5 5 5 5 5 5 5 5 5 5 5 5 5 5 5 5 5 5 5 5 5 5 6 5 5 5 5 5 5 5 5 5 5 5 5 5 5 5 5 5 5 5 5 5 5 5 5 5 5 5 5 5 5 5 5 5 5 5 5 5 5 5 5 5 6 5 5 6 5 6 5 5 5 5 5 6 6 6 5 5 5 5 5 5 5 5 6 5 5 5 5 5 5 5 5 5 5 6 5 5 5 5 5 6 5 5 5 5 5 5 6 5 5 5 5 5 6 6 5 5 5 5 5 5 5 5 5 5 5 5 6 6 5 5 5 5 5 5 5 5 6 5 5 5 5 5 5 6 5 5 5 5 5 5 5 5 5 5 5 5 5 5 5 5 5 5 5 5 5 5 5 5 5 5 5 5 5 5 5 6 5 5 5 5 5 5 6 5 5 5 5 5 6 5 5 5 5 6 5 6 5 5 5 5 6 5 5 5 5 5 6 5 5 5 5 5 6 5 5 5 6 5 5 5 6 5 5 5 5 5 5 5 5 5 5 5 5 5 5 5 5 6 5 6 5 5 5 5 6 5 5 5 6 5 5 6 5 5 5 6 6 5 5 5 5 5 5 5 5 5 5 5 5 5 5 5 5 5 5 5 5 6 5 5 6 5 5 5 5 6 5 5 5 6 5 5 5 5 6 5 5 5 5 5 5 5 5 5 5 5 5 5 5 5 5 5 5 5 5 5 5 5 6 5 5 5 5 5 5 5 5 5 5 5 5 5 5 5 5 5 5 5 5 5 5 5 5 5 6 6 5 5 5 5 5 5 5 5 5 5 5 5 5 5 5 5 5 5 5 5 5 5 5 5 5 5 6 5 5 5 5 5 5 5 5 5 5 5 5 5 5 5 5 5 5 5 5 5 5 5 5 5 5 5 6 5 5 5 5 5 5 5 6 5 5 5 5 5 5 5 5 5 5 5 5 5 5 5 5 5 5 5 5 6 6 5 5 5 5 5 5 5 5 5 5 5 5 5 5 5 5 5 5 6 6 5 5 6 5 5 5 5 5 5 5 5 5 6 6 6 5 5 5 5 6 5 5 6 5 5 5 5 6 5 5 5 5 5 5 5 6 5 5 5 5 5 5 6 6 6 5 5 5 5 5 5 5 5 5 5 5 5 5 5 5 6 5 5 5 5 5 5 6 5 5 5 5 5 5 5 5 5 5 5 6 6 5 5 5 5 6 5 5 5 6 5 5 5 5 5 5 5 5 5 5 5 5 5 5 5 5 6 6 5 6 6 5 5 5 6 5 6 5 5 5 5 5 6 5 5 5 5 5 5 5 5 5 6 5 5 5 5 5 6 5 5 5 6 5 6 5 5 5 5 6 5 6 5 5 5 5 5 6 5 5 5 5 5 5 5 5 5 5 5 5 5 5 5 6 5 5 5 5 6 5 5 5 5 5 5 5 5 5 5 5 5 5 5 5 5 5 5 5 5 5 5 5 5 5 5 5 5 5 5 5 5 5 5 5 5 5 5 5 5 5 5 5 6 5 6 5 6 5 5 5 5 5 5 5 6 5 5 5 6 5 5 5 5 5 5 5 5 6 5 5 5 5 5 5 5 5 6 5 5 5 5 5 5 5 5 5 5 5 5 5 5 5 5 5 5 5 5 5 5 5 5 5 5 5 5 5 5 5 5 5 5 5 5 5 5 5 5 5 5 5 5 5 5 5 5 5 5 5 5 5 5 5 5 5 6 5 5 5 5 5 5 5 5 5 6 5 5 6 5 5 6 5 5 5 6 6 5 6 6 5 5 5 6 5 5 6 5 5 5 5 5 5 6 5 5 5 5 5 5 5 5 5 5 5 5 5 6 6 5 5 5 6 5 5 5 5 5 6 5 5 5 5 6 5 5 6 5 6 5 6 5 6 5 6 5 6 5 5 5 5 5 5 5 5 6 6 5 5 5 5 5 5 5 5 5 5 5 5 5 5 5 5 5 5 5 5 5 5 5 5 5 5 5 5 5 5 5 6 5 5 5 5 5 5 6 5 5 5 5 5 5 6 5 5 5 5 6 5 6 5 5 5 5 5 5 5 5 5 5 6 5 5 5 6 5 5 5 5 5 5 5 5 5 5 5 6 5 5 5 5 5 5 5 5 5 5 5 5 5 5 6 5 5 5 6 6 5 6 5 5 6 5 5 5 6 6 5 5 5 5 5 6 5 5 6 5 5 6 5 5 5 5 6 5 5 5 5 5 5 5 5 5 5 5 5 5 5 5 6 5 5 5 5 5 5 5 6 5 5 5 5 5 5 5 6 5 5 5 5 5 5 5 5 5 5 5 5 5 5 5 5 5 5 5 5 5 6 5 5 5 5 5 6 5 5 6 5 5 6 5 5 5 5 5 5 5 5 5 5 5 5 5 5 5 5 5 5 5 5 5 5 5 5 5 5 5 5 5 5 5 5 5 5 5 5 5 5 5 5 5 5 5 5 5 5 5 5 5 5 6 5 5 6 5 5 5 6 5 5 5 5 5 5 5 5 5 5 5 5 5 6 5 5 5 5 5 5 6 5 5 5 6 5 5 5 6 5 5 6 5 5 5 5 6 5 5 5 5 5 5 5 5 6 5 5 5 5 5 5 5 5 5 5 5 6 5 5 5 5 5 5 5 5 5 5 6 5 5 5 6 5 5 5 5 5 5 5 5 5 5 5 6 5 6 5 5 5 6 5 5 5 5 5 5 5 5 6 5 5 5 5 5 5 5 6 5 5 5 5 6 5 6 5 5 5 5 6 5 5 5 5 5 5 6 5 5 5 5 5 5 5 5 5 5 5 5 5 6 5 5 5 5 6 5 5 5 5 5 6 5 5 5 5 5 5 5 5 5 5 5 5 5 6 5 5 6 5 5 5 5 5 5 5 5 5 5 5 5 5 5 6 6 5 5 5 5 5 5 5 5 5 5 5 5 5 5 5 5 5 5 5 5 5 5 5 5 6 5 5 5 5 5 6 5 5 5 5 5 5 5 5 6 5 5 5 5 6 5 5 5 5 5 5 5 5 5 5 5 5 5 5 5 5 5 5 5 5 6 5 5 6 5 6 5 5 5 5 5 5 5 5 5 5 5 5 5 5 5 5 5 5 5 5 5 5 5 5 6 5 5 5 5 5 5 5 5 5 5 5 6 5 5 5 5 5 6 5 5 5 5 5 5 5 5 5 5 5 5 5 5 5 5 5 5 5 5 5 5 5 5 5 5 5 5 5 5 5 5 5 5 5 5 5 5 5 5 6 5 5 5 5 5 5 5 5 5 5 5 6 5 5 6 5 5 5 6 5 5 5 5 5 5 5 5 5 5 5 5 5 5 5 5 5 5 5 5 5 5 5 5 5 5 5 5 5 5 5 5 5 6 5 5 5 6 5 6 5 5 5 6 5 5 5 5 6 5 5 5 5 5 5 5 5 5 5 6 5 5 5 5 5 5 6 6 5 5 5 5 6 5 5 5 5 6 5 5 5 5 5 5 5 5 5 6 5 5 5 5 5 5 5 6 5 5 6 6 5 5 5 5 5 5 5 5 5 5 5 6 5 6 5 6 5 5 5 5 6 5 5 5 5 5 6 5 6 5 6 5 5 5 5 5 5 5 5 5 5 6 5 6 5 5 6 5 6 5 5 5 5 6 5 5 5 5 5 5 5 5 5 5 5 5 5 6 5 5 5 5 5 5 6 5 5 6 5 5 5 5 5 5 5 5 5 6 5 5 5 5 5 5 5 6 5 5 5 5 5 6 5 5 5 5 5 5 5 5 5 5 5 5 6 5 5 6 5 5 5 5 6 5 5 5 5 5 5 5 5 5 5 5 5 5 5 5 5 5 5 5 5 5 5 5 5 5 5 5 5 5 5 5 5 5 5 5 5 5 5 6 6 5 5 5 5 5 5 5 5 5 5 5 5 5 6 5 5 5 5 5 5 5 5 5 5 5 5 5 6 5 5 5 5 5 5 5 5 5 5 5 5 5 5 5 6 5 5 5 5 5 5 5 5 5 6 5 6 5 5 5 6 5 5 6 5 5 5 5 5 5 5 5 5 5 5 5 5 5 5 5 5 5 5 5 6 5 6 5 5 6 5 5 5 5 5 5 5 5 5 5 6 6 5 5 6 5 5 5 5 5 5 5 5 6 5 5 5 6 5 5 5 6 5 6 5 6 5 6 5 5 5 5 5 5 5 5 5 5 5 5 5 5 5 6 5 5 5 5 5 5 5 5 5 5 5 5 5 5 5 5 5 5 5 6 5 5 5 5 5 5 5 5 5 6 5 5 5 5 5 6 5 5 5 5 5 5 5 5 5 5 6 5 6 5 5 5 5 6 6 5 5 5 5 5 5 5 5 5 5 5 5 5 5 5 6 5 5 5 5 5 6 5 5 5 5 5 5 5 5 5 5 5 5 6 5 5 5 5 6 5 5 5 5 5 5 5 6 6 5 5 5 6 5 5 5 5 5 5 5 5 5 5 5 6 5 6 5 5 5 5 6 5 5 5 5 5 5 6 5 5 5 5 5 5 6 5 5 5 5 5 5 6 5 5 6 5 5 5 5 5 5 5 5 5 5 5 5 5 5 5 5 6 5 5 5 5 5 5 5 5 5 6 5 5 5 5 5 5 5 5 5 5 5 5 5 5 5 5 5 5 5 5 5 6 5 5 6 5 5 5 6 5 5 6 5 6 5 5 5 5 5 5 5 6 5 5 5 5 5 5 5 5 5 5 5 5 6 6 5 5 5 5 5 6 5 5 6 5 5 6 5 5 5 5 5 6 5 6 5 5 5 5 6 5 5 5 5 5 5 5 5 6 5 6 6 5 5 5 5 6 5 6 5 5 6 5 5 5 6 5 5 6 5 6 5 5 6 5 6 6 5 6 5 5 5 6 5 6 5 5 5 6 6 5 5 5 5 5 6 5 5 6 5 6 5 5 5 5 6 5 6 5 5 6 5 6 5 5 5 6 5 5 6 6 5 6 6 5 5 5 6 5 6 5 5 6 5 5 5 6 6 6 5 6 5 5 6 6 5 5 6 5 5 5 5 6 5 6 5 5 5 5 6 5 5 5 5 5 5 5 5 6 5 6 5 6 5 5 5 5 5 6 6 5 6 5 5 5 5 5 5 5 5 5 5 6 6 6 5 5 5 5 5 5 5 5 5 5 6 5 6 5 5 6 6 5 5 5 5 6 5 5 5 5 5 5 5 5 5 5 5 6 5 5 5 5 5 6 5 5 5 5 5 6 5 5 5 5 6 5 6 5 6 5 5 6 5 5 6 5 5 5 5 5 5 5 6 5 5 5 5 5 5 5 5 5 5 5 5 5 5 5 5 5 5 5 5 5 6 5 5 5 5 5 6 5 5 5 6 6 5 5 5 5 5 5 5 5 5 5 5 5 6 5 5 5 5 5 5 5 6 5 5 5 5 5 5 5 5 5 6 5 6 5 5 6 6 6 5 5 6 5 5 5 5 5 5 5 5 6 5 5 5 5 5 5 5 6 5 6 5 6 5 5 5 5 5 5 6 6 5 5 6 5 5 5 5 5 5 5 5 5 5 5 5 5 6 5 5 5 6 5 5 5 5 5 5 5 5 5 5 5 5 5 5 5 5 5 5 5 5 5 5 5 5 5 5 5 5 5 5 5 5 5 6 5 5 6 5 5 5 5 5 5 5 5 5 5 6 5 5 5 5 5 5 5 5 5 5 5 5 5 6 5 6 5 5 5 6 5 5 5 5 6 5 5 5 5 5 5 5 5 5 5 5 6 5 5 5 5 5 5 5 5 5 5 5 5 5 5 6 6 5 5 5 5 6 5 5 5 5 5 5 5 6 5 5 5 6 5 5 5 5 5 5 5 5 5 5 5 5 5 5 5 5 6 5 5 5 5 6 5 6 5 5 5 5 5 5 5 6 5 5 5 5 5 5 5 5 5 5 5 5 5 5 5 5 5 5 5 5 5 5 5 5 6 5 6 6 5 5 5 5 5 5 5 5 5 5 5 5 5 6 5 5 5 5 5 5 6 5 5 5 6 5 5 5 5 5 5 5 5 6 5 5 5 5 6 6 6 5 6 5 5 5 5 5 6 5 5 5 5 5 5 5 6 5 5 5 5 5 5 5 5 5 6 6 5 5 5 5 5 5 5 5 5 5 5 5 5 5 5 5 5 5 5 5 5 5 5 6 5 5 5 5 5 5 6 6 5 5 5 5 6 5 6 5 5 6 5 5 5 5 6 5 5 5 6 5 5 5 5 5 5 5 5 6 5 6 6 5 5 5 5 5 5 5 6 5 5 5 5 6 5 5 5 5 5 5 5 5 5 5 5 5 5 5 5 5 6 6 5 6 5 6 5 6 5 5 5 5 5 5 5 6 5 5 5 5 5 5 5 5 5 5 5 5 5 5 5 5 5 5 5 5 5 5 5 5 5 5 6 5 6 5 5 5 6 5 6 5 5 5 5 5 5 5 5 5 5 5 5 5 5 5 5 5 5 5 5 5 5 5 5 5 6 6 5 5 6 5 6 5 5 5 5 5 5 5 5 6 5 5 5 5 6 5 6 5 5 5 5 5 5 5 6 5 5 6 5 5 5 5 5 5 5 5 5 5 5 5 5 5 5 5 5 5 5 5 5 5 5 5 5 5 5 5 5 5 6 5 6 5 5 5 5 5 5 6 6 5 5 5 5 6 5 5 5 5 6 6 5 6 5 5 5 5 6 5 5 5 5 5 6 6 5 5 6 5 5 5 6 5 5 6 5 5 5 5 5 5 5 5 5 5 6 5 5 5 6 5 6 5 5 6 5 5 5 5 5 6 5 6 5 5 6 6 5 5 5 6 6 5 5 6 6 5 6 5 5 5 6 6 6 5 6 5 5 6 5 5 5 5 5 5 5 5 5 6 6 5 5 5 6 5 5 6 6 6 6 5 5 5 6 6 5 5 5 5 5 6 5 5 5 5 5 5 5 5 5 5 5 5 5 6 5 5 5 6 5 5 5 6 5 5 5 5 5 5 6 5 5 5 5 5 5 5 5 5 5 5 5 5 6 5 6 5 5 5 5 5 6 5 5 5 5 5 5 6 5 6 5 5 5 5 5 5 5 5 5 5 5 5 5 6 5 5 5 5 5 5 5 5 5 5 5 5 5 5 5 5 5 6 5 5 5 6 5 5 5 5 5 5 5 5 5 5 5 5 5 6 5 5 6 6 5 6 5 5 6 5 5 5 5 5 5 5 5 5 5 5 5 5 5 5 5 5 5 5 5 6 5 5 5 5 5 5 5 5 5 5 5 5 5 5 5 6 5 6 5 5 5 5 6 5 5 6 5 6 5 5 5 5 5 5 5 6 5 5 5 5 5 6 5 5 5 5 5 5 5 5 5 5 5 5 5 5 5 5 5 5 5 5 5 5 5 5 6 5 5 5 5 5 6 5 5 5 5 5 5 5 5 5 5 5 5 5 5 5 5 5 5 5 5 5 5 5 5 5 5 5 5 5 5 5 5 5 5 5 5 5 5 5 5 5 5 5 5 5 5 6 5 5 5 5 6 5 6 5 5 5 6 5 5 5 5 5 5 6 5 5 6 5 5 5 5 5 5 5 6 5 5 5 5 5 5 5 5 5 5 5 5 5 5 5 5 5 5 5 5 5 5 5 5 5 5 5 5 5 5 5 5 5 5 5 5 5 5 5 5 5 5 6 5 5 6 5 5 5 5 5 5 6 5 5 5 5 6 5 6 5 5 6 5 5 6 5 5 5 5 5 5 5 6 5 5 5 5 5 5 5 5 5 5 5 6 5 5 5 5 6 5 5 5 6 6 5 5 6 5 5 5 6 5 5 6 5 5 5 5 5 5 5 5 6 5 5 6 5 5 6 5 5 5 6 5 5 5 6 5 5 5 5 5 6 5 5 5 5 5 6 5 5 5 5 5 5 5 5 5 6 5 5 5 5 6 5 5 5 5 5 5 5 5 6 5 6 5 5 5 5 5 5 5 5 5 5 6 5 5 5 5 5 5 6 5 5 6 5 5 6 5 5 5 5 5 5 5 5 5 6 5 5 5 5 5 5 6 5 5 6 5 5 5 5 5 5 5 5 5 5 6 6 5 5 5 6 6 5 5 5 5 6 5 5 6 6 5 5 6 5 5 5 6 5 5 6 6 5 5 5 5 5 5 5 6 5 5 5 5 5 5 5 5 5 5 5 5 5 5 5 6 5 5 5 5 5 5 5 6 5 5 6 6 5 6 5 6 5 5 6 5 5 5 6 6 5 5 5 5 6 5 5 6 5 5 6 5 5 6 5 5 5 5 6 6 5 5 5 6 5 5 5 5 5 5 5 5 5 5 5 5 5 5 5 5 5 5 5 5 5 5 5 5 5 5 5 5 5 5 5 5 5 5 5 5 5 5 5 5 5 5 5 5 5 5 5 5 6 5 5 5 5 6 5 5 5 5 5 5 6 5 5 5 5 6 6 5 5 5 5 5 5 5 5 5 5 5 5 5 5 5 5 5 5 5 5 5 5 6 5 5 5 5 5 5 5 5 5 5 5 5 5 5 5 5 6 5 5 5 5 6 5 5 5 5 5 5 5 5 6 5 5 5 5 5 5 5 5 6 5 5 5 5 6 5 6 5 5 5 5 5 5 5 5 5 5 5 5 5 5 5 5 5 5 5 5 5 5 5 5 5 5 5 6 5 5 5 5 5 5 5 6 5 5 5 5 5 5 5 5 5 5 5 6 5 5 5 5 5 5 5 5 6 5 5 5 5 5 5 5 5 5 5 6 5 6 5 5 5 5 6 5 5 5 5 6 5 5 6 5 5 5 5 5 5 6 5 5 5 5 5 5 5 5 5 6 5 5 5 6 5 6 5 5 6 5 6 5 5 6 5 5 5 5 5 5 5 6 5 5 5 5 5 6 5 5 5 5 5 5 5 5 5 5 5 5 6 5 5 5 6 5 5 5 5 6 5 5 5 5 5 6 5 5 6 5 5 5 6 5 5 5 5 6 5 5 6 6 5 5 5 5 5 5 5 5 5 5 5 6 5 5 5 5 5 5 5 5 5 5 5 5 5 5 6 5 6 5 5 5 5 5 5 5 5 5 5 5 5 5 5 5 5 5 5 5 5 5 5 5 6 5 5 5 5 5 5 5 5 5 5 5 5 5 5 6 5 5 5 5 5 5 5 5 5 5 5 5 5 5 5 5 5 5 5 5 5 5 5 5 5 5 5 5 5 5 5 5 5 5 5 5 5 5 5 5 6 5 5 5 5 5 5 5 5 5 5 6 5 6 5 5 5 5 5 6 5 5 5 5 5 5 5 5 5 5 6 5 5 6 5 5 6 5 5 5 5 5 6 5 5 5 6 6 5 5 6 5 5 5 5 5 5 5 6 6 5 6 5 5 5 5 5 6 5 5 5 5 5 5 5 5 5 5 5 5 5 5 6 5 5 5 6 5 6 5 5 5 5 5 6 5 5 5 5 5 5 5 5 5 5 5 5 5 5 6 5 5 5 6 5 5 5 5 5 6 5 5 5 6 6 5 5 5 5 5 5 5 5 5 5 5 5 5 5 5 5 6 6 5 5 5 6 5 5 6 5 6 5 6 5 5 5 6 5 6 5 5 5 5 5 5 6 5 5 5 5 5 5 5 5 6 5 5 5 5 5 6 5 6 5 5 5 5 5 5 5 5 5 6 5 6 5 5 5 5 5 5 5 5 5 5 5 5 5 5 5 5 6 5 5 5 5 5 5 5 5 5 6 5 5 5 5 5 5 5 5 5 5 5 6 5 5 5 5 5 5 5 5 6 5 5 5 5 5 5 6 5 5 5 5 5 5 5 5 5 5 5 5 5 6 5 5 5 5 5 5 5 5 5 5 5 5 5 5 5 5 5 6 5 5 5 5 5 5 5 5 5 5 5 5 5 5 5 5 5 5 5 5 5 5 5 5 5 5 5 5 5 5 6 5 5 5 5 5 5 5 5 5 5 5 5 6 5 6 5 5 5 5 5 5 5 5 5 5 6 5 5 5 5 5 5 5 5 5 5 5 6 5 6 6 5 5 6 5 5 6 6 5 5 6 5 5 6 5 5 5 5 5 5 5 5 6 5 5 5 5 5 5 5 5 5 6 5 5 5 5 5 5 5 6 6 5 6 5 5 5 6 5 5 5 5 5 6 5 5 5 5 5 5 6 5 5 5 5 5 5 6 5 5 6 5 5 5 5 5 6 5 6 5 6 5 5 5 5 5 5 5 5 5 5 6 5 6 5 5 6 5 5 5 6 6 5 5 5 5 6 5 6 5 5 6 5 5 5 5 5 5 5 5 5 5 5 5 5 5 5 5 5 5 5 5 5 5 5 5 6 5 5 5 5 5 5 5 6 5 5 5 5 6 5 5 5 6 5 5 6 5 6 5 5 5 5 5 5 5 5 6 5 5 5 6 5 5 5 5 6 5 6 5 5 5 5 5 5 6 5 5 5 6 5 5 6 5 5 5 5 5 6 5 5 5 5 5 6 6 5 5 5 5 5 5 5 5 5 5 5 5 5 5 5 5 5 5 5 5 5 5 5 5 5 5 5 5 5 5 5 5 5 5 5 5 5 5 5 5 5 5 5 5 5 5 5 6 5 5 5 5 5 5 5 5 5 5 5 5 5 5 5 5 5 5 6 5 5 5 5 5 5 5 6 5 5 5 5 6 5 5 5 5 5 5 5 5 5 5 5 6 5 5 5 5 5 5 6 5 5 6 5 6 6 6 5 5 5 5 5 5 5 5 5 5 5 5 5 5 5 5 5 5 5 5 5 5 5 5 5 5 5 5 5 5 5 5 5 5 5 5 5 5 5 5 5 5 5 5 5 5 5 5 5 5 5 5 5 5 5 5 6 5 5 5 6 5 6 5 5 5 5 5 5 5 5 5 5 5 6 5 5 5 6 5 6 5 6 5 5 5 5 5 5 5 5 5 5 5 5 5 5 5 5 5 5 5 5 5 5 6 5 5 5 5 5 5 5 5 5 5 5 5 5 5 5 6 5 5 5 5 6 6 5 5 6 5 5 5 5 6 5 6 5 6 5 5 5 6 5 6 5 5 5 5 5 5 5 5 6 5 5 5 6 5 5 5 6 5 5 5 5 5 5 5 5 5 5 5 5 5 5 5 5 5 5 5 6 5 5 5 5 5 5 5 5 5 5 5 5 5 5 5 5 6 5 5 5 6 5 5 5 5 5 5 6 5 5 5 5 5 5 5 5 5 5 6 5 5 5 5 5 5 5 5 5 5 5 5 5 5 5 5 5 5 5 5 5 5 5 5 5 5 5 5 5 6 5 5 5 5 6 6 5 5 5 6 5 5 5 5 5 5 5 6 5 5 5 6 5 5 5 5 6 5 6 6 5 5 6 5 5 5 5 5 6 5 6 5 5 6 5 6 6 5 5 6 6 5 5 5 5 6 5 6 5 5 5 6 6 5 5 5 5 5 6 5 5 5 6 5 5 5 5 5 6 5 5 5 5 5 5 6 5 5 5 5 5 5 5 5 6 6 6 5 6 5 5 6 5 5 5 5 5 5 5 5 5 5 5 6 5 5 5 5 5 5 5 5 5 6 5 5 5 5 5 5 5 5 6 5 5 5 5 5 6 5 5 5 5 5 5 5 6 5 5 5 6 5 5 6 5 5 5 5 5 5 5 5 5 5 5 5 5 5 5 5 5 5 5 5 5 5 5 6 5 5 5 5 5 6 5 5 5 5 5 5 5 5 5 5 5 5 5 5 6 5 5 5 5 5 5 5 5 5 6 5 6 5 5 5 5 5 6 5 6 6 5 5 5 5 5 5 5 6 5 5 5 5 5 5 6 5 6 5 6 5 5 5 5 5 5 5 5 5 5 5 5 5 5 5 5 5 5 5 5 5 5 5 5 5 5 5 5 5 5 5 5 5 5 5 5 5 5 5 5 5 5 6 5 5 5 5 5 5 5 5 5 6 5 5 5 5 5 5 6 5 5 6 5 5 5 5 5 5 5 5 5 5 5 5 6 5 5 6 5 5 5 5 6 5 6 5 5 5 5 6 5 6 5 5 5 5 6 6 5 6 5 5 5 5 5 5 5 5 5 5 5 5 5 5 6 5 5 5 5 5 5 5 5 5 5 5 5 5 5 5 5 5 5 5 6 5 5 6 5 5 5 6 5 5 5 5 5 6 5 5 5 5 5 5 5 5 5 5 5 5 6 5 6 5 5 5 6 5 5 5 6 5 6 5 5 5 5 5 6 5 5 5 6 5 5 5 5 6 5 5 5 5 6 5 5 6 5 5 5 6 5 5 5 5 5 5 5 5 5 6 5 5 6 5 5 5 6 5 5 5 5 5 5 5 5 5 5 5 5 5 5 5 5 5 5 5 5 5 5 5 5 5 5 5 5 5 5 5 5 5 5 5 6 5 5 5 5 5 5 5 5 5 5 5 5 5 5 5 6 6 5 5 5 5 5 5 5 6 5 5 5 5 5 5 5 5 5 5 5 5 5 5 5 5 5 5 5 5 5 5 5 5 5 5 5 5 5 5 5 5 5 5 5 5 6 5 5 6 5 5 5 5 5 5 5 5 5 6 5 5 5 5 5 5 5 5 5 5 5 5 5 5 6 5 5 5 5 5 5 5 6 5 5 5 5 6 5 6 5 5 5 5 5 5 5 5 5 5 6 5 5 5 5 6 5 5 5 5 5 5 6 5 5 6 5 5 5 6 5 5 5 5 6 5 5 5 6 5 5 5 5 5 5 5 5 5 6 6 5 5 5 5 5 5 5 6 5 5 5 5 5 6 5 5 6 5 5 5 5 5 5 5 5 6 5 5 5 5 5 6 5 5 5 5 5 5 5 5 5 5 5 5 5 5 5 5 5 5 5 5 5 6 5 5 5 5 5 5 5 6 5 5 5 5 5 5 5 6 5 6 6 5 5 5 5 5 5 5 5 5 5 5 5 5 5 5 5 5 5 5 5 5 5 5 5 5 5 5 5 5 6 5 5 5 5 5 5 5 5 5 5 5 5 5 5 5 5 5 5 5 5 5 5 5 5 6 5 5 5 5 6 5 5 5 5 5 5 5 5 5 5 5 5 5 5 5 5 5 5 5 5 5 5 5 5 5 5 5 5 5 5 5 5 5 5 5 5 5 5 6 5 5 5 5 5 5 5 5 5 6 5 6 6 5 5 5 5 5 6 5 5 5 6 5 5 5 5 5 5 5 5 5 5 5 5 5 5 5 5 5 5 5 5 5 5 5 5 5 5 5 5 5 5 5 5 5 5 5 5 5 5 5 5 5 5 5 5 6 5 5 5 5 5 5 5 5 5 5 5 5 5 5 5 5 5 5 5 6 5 5 6 5 6 5 5 5 5 5 5 5 6 5 5 5 5 5 5 5 5 5 6 5 5 5 5 5 5 5 5 5 5 5 5 6 5 5 5 5 5 5 5 5 5 5 5 5 5 5 5 5 5 5 6 5 5 5 5 5 6 6 5 5 5 6 5 5 5 5 5 6 5 6 5 5 5 5 5 6 6 5 6 5 5 5 5 5 5 5 5 5 5 5 5 5 5 6 5 5 5 5 5 5 5 5 5 5 5 5 5 5 5 5 5 5 5 5 5 6 5 5 5 5 5 6 5 5 5 5 5 5 6 5 6 6 5 5 5 5 5 5 5 5 5 5 5 5 5 5 5 5 5 5 5 5 5 5 5 5 6 5 5 5 5 5 5 5 5 6 5 5 5 5 5 5 5 5 5 6 5 5 5 5 5 5 5 5 6 5 5 6 5 5 5 5 6 6 5 5 6 6 5 5 5 5 5 6 5 5 5 5 5 6 5 5 5 5 5 5 5 5 6 5 5 5 5 5 5 5 5 5 5 6 6 5 5 5 5 5 5 6 5 5 5 5 5 5 5 5 5 5 6 5 5 5 5 5 5 5 5 5 5 5 5 6 5 5 5 5 5 5 5 5 5 5 5 5 5 5 5 5 5 5 5 5 5 5 5 5 6 5 5 5 5 5 5 5 5 5 5 5 5 5 5 6 5 5 5 5 5 5 5 5 5 5 5 5 5 5 5 5 5 5 5 5 5 5 5 5 5 5 5 5 5 5 5 5 5 5 5 5 5 5 5 6 5 5 5 5 5 5 5 5 5 5 5 5 5 5 5 5 6 5 5 6 5 5 5 5 5 6 5 5 5 5 5 5 5 5 5 5 5 5 5 5 5 5 5 5 5 5 5 5 5 5 5 6 5 5 5 6 5 5 5 5 5 6 5 5 5 5 5 5 5 5 5 5 5 5 5 5 5 5 5 5 5 5 5 5 5 5 5 5 5 5 5 5 5 5 5 5 5 5 5 5 5 5 5 5 5 5 5 5 5 5 5 6 5 6 5 5 5 5 5 5 5 5 5 5 5 5 5 5 5 5 5 6 5 5 5 5 5 5 5 5 5 6 5 5 5 5 5 5 5 5 6 5 5 5 5 5 5 5 5 5 5 5 5 5 5 5 5 5 5 5 5 5 5 5 5 5 5 5 6 6 5 5 5 6 5 5 6 5 5 6 5 5 5 5 6 5 5 6 5 6 5 5 5 5 5 5 5 5 5 5 5 5 5 5 5 5 5 5 6 5 5 5 5 5 5 5 5 5 5 5 5 5 5 5 5 5 5 5 5 5 5 5 5 5 5 6 5 5 5 5 5 5 6 5 5 5 5 5 6 6 5 5 5 5 6 6 5 5 6 5 5 6 5 5 6 5 5 5 5 6 5 5 5 5 5 5 5 5 5 5 5 6 5 5 5 6 5 5 6 5 5 5 6 5 5 6 6 6 5 5 5 5 5 5 5 5 5 5 5 5 6 5 5 5 5 5 5 5 5 5 5 5 5 5 5 5 5 5 5 5 6 5 5 5 6 5 5 5 5 6 5 5 5 5 5 5 5 6 5 5 5 5 6 5 5 5 5 5 5 5 5 5 5 5 5 5 5 5 5 6 5 6 5 6 5 5 6 5 5 6 5 5 5 5 5 6 5 6 5 5 6 5 5 5 5 5 5 5 5 5 5 5 5 5 5 5 5 5 5 5 5 5 5 5 5 5 5 5 6 5 5 5 5 6 5 5 5 5 5 5 5 6 5 5 6 6 5 5 5 6 5 5 6 5 6 6 6 5 5 6 6 5 5 5 6 5 5 6 5 5 5 6 5 5 6 5 5 5 6 5 5 5 5 5 5 5 6 5 6 5 5 5 5 5 6 5 6 5 5 5 5 5 5 5 5 5 5 5 6 5 5 6 5 5 5 5 6 5 6 5 5 5 5 5 5 5 5 6 6 5 5 5 5 5 5 5 5 5 5 5 5 5 5 5 5 5 5 5 5 5 5 6 5 5 5 6 5 5 5 5 5 5 5 5 5 5 5 6 5 5 5 5 5 5 5 6 5 5 6 5 5 5 5 5 5 6 5 5 5 5 5 5 5 5 5 5 5 5 5 5 6 5 5 5 5 5 5 5 5 5 5 5 5 5 5 5 5 5 5 6 5 5 6 5 5 5 5 5 5 5 5 5 5 5 6 5 5 6 5 6 5 5 6 5 5 5 6 6 5 6 5 5 5 5 6 5 5 5 5 5 5 5 5 5 6 5 5 5 5 5 5 5 5 5 5 5 5 5 6 5 5 5 5 5 5 5 5 5 5 5 5 5 6 5 5 5 5 5 5 5 6 5 5 5 5 5 6 5 5 5 5 5 5 5 5 5 5 5 5 5 5 5 5 5 5 5 6 6 5 5 5 5 5 5 6 5 5 5 5 6 5 5 5 5 6 5 5 5 5 6 5 6 5 5 5 5 5 5 5 5 5 5 5 5 5 5 5 6 5 5 6 6 5 5 5 5 5 5 5 5 5 6 5 5 5 5 6 5 6 6 5 5 5 5 5 5 6 5 5 5 5 6 6 5 6 5 5 6 5 5 5 5 5 5 6 5 5 5 5 6 5 5 5 5 5 6 5 5 5 5 5 5 6 5 5 5 5 6 5 5 5 5 5 5 5 5 5 5 5 5 5 5 5 6 5 5 5 5 5 5 5 5 5 5 5 5 6 5 5 5 5 5 5 5 5 5 5 6 5 5 5 5 5 5 5 5 5 5 5 5 5 5 5 5 5 5 5 5 5 5 5 5 5 5 5 5 6 5 5 5 5 6 5 5 5 5 5 5 5 5 5 5 5 5 5 5 5 5 6 5 5 5 5 5 5 5 5 5 6 5 5 5 5 5 5 6 5 5 6 5 5 5 5 5 5 5 5 5 5 5 6 5 5 5 6 5 5 5 5 5 5 5 5 5 5 5 5 5 5 6 5 5 6 5 6 5 5 5 6 5 5 5 5 5 6 5 5 5 5 5 5 5 5 5 5 5 5 5 5 5 5 5 5 5 5 5 5 5 5 5 5 5 5 5 5 5 5 5 5 5 5 5 5 6 5 5 6 5 5 5 5 5 5 5 5 5 5 5 5 5 5 5 5 5 5 6 5 5 5 5 5 5 6 5 5 5 6 5 5 5 5 5 5 5 5 5 5 5 6 5 5 5 5 5 5 5 5 5 5 6 5 5 5 5 5 5 5 5 6 5 6 5 5 6 5 5 6 6 6 5 5 5 6 5 5 5 5 6 5 5 5 5 5 5 6 6 5 5 5 5 5 5 5 5 5 5 5 5 6 5 5 5 5 5 5 6 5 5 5 5 5 5 5 5 5 6 5 5 5 5 5 5 5 5 5 6 5 5 5 5 6 5 5 5 5 5 6 5 5 6 5 5 5 5 5 6 5 5 5 5 5 5 5 5 5 5 5 5 5 5 6 5 5 5 5 5 6 6 5 5 5 6 5 5 5 5 6 5 5 6 5 5 5 5 5 5 5 5 5 5 5 5 5 6 5 5 5 5 5 5 5 6 5 5 5 5 5 5 5 5 5 5 5 6 5 5 5 5 5 5 5 5 5 5 5 5 5 5 5 5 5 6 5 5 5 5 5 5 6 5 5 5 6 5 5 5 5 5 6 5 5 5 6 5 5 5 5 5 5 5 6 5 5 6 5 5 5 5 5 5 5 5 5 5 6 6 5 5 5 5 5 5 5 5 5 5 5 5 5 5 5 5 5 6 5 5 5 5 5 5 6 5 5 5 6 5 5 5 6 5 5 5 5 5 5 5 5 5 6 5 5 5 5 5 5 6 5 5 5 5 5 5 5 5 5 5 5 5 5 5 5 5 6 5 5 6 5 6 5 5 5 5 5 5 5 6 5 6 5 5 5 5 5 5 6 5 5 6 5 5 5 5 5 5 5 5 5 6 5 5 5 5 5 6 5 5 5 5 5 5 6 5 5 5 5 5 5 5 5 6 5 5 5 5 5 5 5 5 5 5 5 5 5 6 5 6 5 5 6 5 5 6 5 5 5 5 5 5 5 5 6 5 5 6 5 5 5 5 5 5 5 5 5 5 5 5 5 5 5 5 5 5 5 5 5 5 5 5 5 5 5 5 5 5 6 5 5 5 5 5 5 5 5 5 5 5 5 5 5 5 5 5 5 5 5 5 5 5 5 5 5 5 5 5 5 5 5 5 5 5 5 5 5 5 5 5 5 5 5 5 5 5 5 5 5 5 5 5 6 5 5 5 5 5 5 5 5 5 5 6 6 5 5 5 5 6 5 5 6 5 6 5 5 5 5 5 5 5 5 6 5 5 5 5 5 5 5 5 5 5 5 5 5 5 5 5 5 5 5 5 5 5 5 5 5 5 5 5 6 5 5 5 5 6 5 5 6 5 5 5 5 5 5 5 5 5 5 5 6 5 6 5 5 5 5 5 5 5 5 5 5 5 5 5 6 6 5 5 5 5 5 6 5 5 5 5 5 6 5 5 6 5 5 6 5 5 6 6 6 6 5 5 6 5 5 5 5 6 5 5 6 5 5 5 6 5 5 5 6 5 5 5 5 5 6 6 5 6 5 5 5 5 5 5 5 5 5 5 5 5 5 5 5 5 5 5 5 5 5 5 6 5 5 5 6 5 5 5 5 5 5 5 5 5 5 5 5 5 5 5 5 5 6 5 5 5 5 5 5 5 5 5 5 5 5 5 5 5 5 6 5 6 5 5 5 5 5 5 5 5 6 6 6 5 5 6 5 5 5 6 5 5 6 5 6 5 5 5 5 5 5 5 5 6 5 5 5 5 5 5 5 6 5 5 5 5 5 5 5 5 6 5 5 5 6 5 5 5 5 5 5 5 5 5 5 5 5 5 6 5 6 5 6 5 5 5 5 5 6 5 5 5 5 5 5 6 6 6 5 5 5 5 5 5 5 5 5 5 5 5 5 5 5 5 5 5 5 5 5 5 5 5 5 5 5 5 5 5 5 5 5 5 5 5 5 5 6 5 5 6 5 5 5 5 5 5 5 5 5 5 5 5 6 5 5 5 6 5 5 5 5 5 5 5 5 5 5 5 5 5 5 5 5 5 5 5 5 5 5 5 6 5 5 5 5 5 5 5 5 5 5 6 5 5 5 5 5 5 5 6 6 5 6 5 5 5 5 5 5 5 5 5 5 5 5 5 5 5 6 5 6 5 5 5 6 5 5 6 5 5 5 5 5 5 5 5 5 5 5 5 5 5 5 5 5 6 5 5 5 5 5 5 5 6 5 5 5 5 5 5 5 5 5 6 5 6 5 5 5 5 5 5 5 5 5 5 5 6 5 6 5 5 5 5 5 5 5 5 5 5 5 5 5 5 5 5 5 5 5 5 5 5 5 5 5 5 5 5 5 5 5 5 5 5 5 5 5 5 5 5 5 5 5 5 5 6 6 5 5 5 6 5 6 5 6 5 6 5 5 5 5 6 6 6 5 6 5 5 5 5 6 5 5 5 5 6 5 5 5 6 5 6 6 6 5 5 6 5 5 5 5 6 5 5 5 5 5 5 5 5 5 5 5 5 5 5 6 5 5 6 5 5 5 5 5 6 5 5 6 5 5 5 5 5 5 5 5 5 5 5 5 5 5 5 5 5 5 5 6 5 5 5 5 5 5 5 5 5 5 5 6 5 5 5 5 5 5 6 5 5 5 5 5 5 5 5 5 5 5 5 5 5 6 5 5 6 5 5 5 5 5 5 5 6 5 6 5 6 5 6 5 6 5 5 6 5 5 5 5 5 5 5 5 5 5 5 5 5 5 5 5 5 5 5 5 6 5 5 6 5 5 5 5 5 5 5 5 5 5 5 5 5 5 5 5 5 5 5 5 5 5 5 5 5 5 5 5 5 6 5 5 6 5 5 5 5 5 5 5 5 5 5 5 5 5 5 5 6 5 5 5 5 5 5 5 5 5 5 5 5 5 5 5 5 6 5 6 6 5 5 5 5 5 6 6 5 5 5 5 6 5 5 5 5 5 5 5 5 5 5 5 5 5 5 5 5 5 5 5 5 5 6 6 5 6 6 5 5 5 6 5 5 6 6 5 5 6 5 5 5 5 5 5 6 6 5 5 6 5 5 5 6 5 5 5 5 6 6 5 5 5 5 5 5 5 5 6 5 5 6 5 6 5 6 5 5 5 5 5 5 6 5 5 5 5 6 5 5 5 5 5 5 5 5 5 5 6 5 5 5 6 5 6 5 6 5 6 5 5 5 6 5 5 5 5 5 5 5 5 5 5 6 5 5 5 5 6 5 5 5 5 5 5 5 5 6 5 5 5 5 5 5 6 5 5 5 5 5 5 6 5 5 6 5 5 5 5 5 5 6 5 5 5 5 5 5 5 5 5 5 5 6 5 5 5 5 6 6 5 5 6 5 5 5 6 5 5 5 6 6 5 6 5 6 5 5 5 5 5 5 5 5 6 5 5 5 5 5 5 5 5 5 5 5 5 5 5 5 5 5 5 6 5 5 5 5 5 5 6 5 5 5 5 6 5 5 5 5 5 5 5 5 5 5 6 5 6 5 5 5 5 5 5 5 5 5 5 5 5 5 6 5 5 5 5 5 5 5 5 5 5 5 5 6 5 6 5 5 5 5 5 6 5 6 5 5 5 6 5 5 5 5 5 5 5 5 5 5 5 5 5 5 5 5 5 5 5 5 5 5 5 5 5 5 5 5 5 5 5 5 5 5 5 5 5 5 5 5 5 5 5 5 5 5 5 5 5 5 5 5 5 5 5 5 5 5 5 5 5 5 5 5 5 5 5 5 5 5 5 5 5 5 5 5 5 5 5 5 5 5 5 5 5 5 5 5 5 5 5 5 5 5 5 5 5 5 5 5 6 5 5 6 5 5 5 5 5 5 5 5 5 5 5 5 5 5 5 5 5 5 5 5 5 5 5 5 5 5 5 5 5 5 5 5 6 5 5 5 5 5 5 5 6 5 5 5 5 5 5 5 5 5 5 5 5 5 5 5 5 5 5 5 5 5 5 5 5 6 5 5 6 5 6 5 6 5 6 5 5 6 5 5 5 5 5 5 5 5 5 5 5 5 6 5 5 5 5 5 5 5 5 5 5 5 5 5 5 5 6 5 5 5 6 5 5 5 5 5 5 6 5 5 5 5 5 5 5 5 5 5 5 6 5 5 5 6 5 5 6 5 5 5 5 5 5 6 5 5 5 5 5 5 5 5 5 5 5 5 6 6 5 5 5 5 5 6 5 5 5 5 5 6 6 5 5 5 6 6 6 5 5 5 5 5 6 5 5 6 5 5 6 5 5 5 6 5 5 6 5 5 6 5 5 5 5 5 5 5 5 5 5 5 5 5 5 5 5 5 5 5 5 5 5 5 5 5 5 5 5 5 5 5 5 5 5 5 5 5 5 5 5 5 5 5 5 5 5 5 5 5 5 5 5 5 5 5 5 5 5 5 5 6 5 5 5 5 5 6 5 5 5 5 5 5 5 5 5 5 5 5 6 5 5 5 5 5 6 5 5 5 6 5 6 5 5 6 5 5 5 5 5 5 5 5 5 5 5 5 5 5 5 5 5 5 5 5 5 5 5 5 6 5 6 5 5 6 5 5 5 5 5 5 5 5 5 5 5 5 5 5 5 6 5 5 5 5 5 5 5 5 5 5 5 5 5 5 5 5 5 5 5 5 5 5 5 5 5 5 6 5 5 6 5 5 5 5 5 5 5 5 5 5 5 5 5 5 5 5 5 6 6 5 5 5 6 5 5 5 5 5 5 5 5 5 6 5 5 5 6 6 5 5 5 6 5 5 6 5 6 5 5 5 5 5 5 5 5 5 5 6 5 5 5 6 5 5 5 5 5 5 5 5 6 5 5 6 6 5 5 5 6 5 5 5 6 5 5 6 5 5 6 5 5 5 5 5 5 6 5 5 5 5 5 5 5 5 5 5 5 5 5 5 5 5 5 5 5 5 5 5 5 5 5 5 5 5 5 5 5 5 5 5 5 5 5 5 5 5 5 5 5 5 5 5 5 5 5 5 5 5 5 5 5 5 5 5 5 5 6 6 5 5 5 5 5 5 5 5 5 5 5 5 5 5 5 5 5 5 5 5 5 5 5 5 5 5 6 5 5 5 5 5 5 5 5 5 6 5 5 5 5 6 5 5 5 5 5 5 5 5 5 5 6 5 5 5 5 5 6 5 6 5 5 5 5 5 5 5 5 5 5 5 5 5 5 5 5 5 5 5 5 5 5 6 5 6 5 5 5 5 5 5 6 5 5 5 5 5 5 5 5 6 5 5 6 5 5 5 5 6 5 5 5 6 5 5 5 5 5 5 5 5 5 5 5 5 6 5 6 5 5 5 5 5 5 5 5 5 5 5 5 6 5 5 5 6 5 5 6 5 6 5 5 5 5 5 5 6 5 5 5 5 5 5 5 5 5 5 5 5 5 5 5 5 5 5 5 6 5 6 5 5 5 5 5 5 6 5 5 5 5 5 5 5 5 5 5 5 5 5 5 5 5 5 5 5 5 5 5 5 5 5 5 5 5 5 5 5 5 5 6 5 5 5 5 5 5 5 5 5 5 6 5 5 5 6 5 5 5 5 6 5 6 5 5 5 5 6 5 5 6 5 5 5 5 5 5 5 5 5 5 5 5 5 5 5 5 5 5 5 5 5 5 5 5 5 5 5 5 6 5 5 5 6 5 5 5 6 5 5 6 5 5 5 5 5 5 5 5 5 6 5 5 5 5 5 6 6 5 5 5 5 5 5 5 5 6 5 5 5 5 5 5 5 5 5 5 5 5 5 5 5 5 5 6 5 5 6 5 5 5 5 5 6 5 5 5 5 5 5 5 5 6 5 5 5 6 6 5 5 6 5 5 5 5 5 5 5 5 6 5 5 5 5 5 5 6 5 5 5 5 5 6 5 5 5 5 5 5 6 6 5 5 6 5 5 6 5 
</DataArray>
<DataArray type="Float64" Name="stress" NumberOfComponents="9" format="ascii">
-496.87180390002595 42.741590766879632 0 42.741590766879632 20.232279721201937 0 0 0 0 -499.84537360462787 57.951625687586258 0 57.951625687586258 -18.586188249379347 0 0 0 0 -416.83554467504655 2.5931151154770582 0 2.5931151154770582 16.813329640379546 0 0 0 0 -407.06644929811409 11.672655104988134 0 11.672655104988134 -0.051842946045810079 0 0 0 0 -424.34151556758934 73.138307933057874 0 73.138307933057874 -30.312377538435371 0 0 0 0 -460.50663277222338 22.818386202953981 0 22.818386202953981 39.183072283327881 0 0 0 0 -26.090591252799641 4.3228392692815838 0 4.3228392692815838 0.1648000867983761 0 0 0 0 -366.34861543651641 15.45086306551309 0 15.45086306551309 7.2058519016985922 0 0 0 0 -2.5533346071526219 3.0625845941326411 0 3.0625845941326411 0.79465466953242758 0 0 0 0 -229.57410408407168 -127.85455113206058 0 -127.85455113206058 -9.5749074922764521 0 0 0 0 -555.38397252916548 -21.930575349480144 0 -21.930575349480144 24.727294020916545 0 0 0 0 -468.62027072808269 -20.630457632743088 0 -20.630457632743088 -14.680736203890476 0 0 0 0 -300.07250782945812 118.92533946800106 0 118.92533946800106 -51.633894991809797 0 0 0 0 -2.0916548609100261 -1.7545587818083952 0 -1.7545587818083952 0.10414891768881585 0 0 0 0 -2.7007544350073402 0.19767254532124667 0 0.19767254532124667 -0.0010173613637140325 0 0 0 0 -1.6381358365915037 3.6000556106626362 0 3.6000556106626362 -0.05464517362400742 0 0 0 0 -513.23959773159368 -53.438303993263276 0 -53.438303993263276 11.323464075241185 0 0 0 0 -20.204288289168289 6.049033714312988 0 6.049033714312988 0.10559924991132696 0 0 0 0 -18.388385168191235 2.0111426283955405 0 2.0111426283955405 -0.021195414041308425 0 0 0 0 -1150.8978210821715 -48.395490976204279 0 -48.395490976204279 -0.12144735417440584 0 0 0 0 -510.68131228342463 44.018982625051038 0 44.018982625051038 -5.3255699703841515 0 0 0 0 -1.5871042336857162 -0.88982265401469718 0 -0.88982265401469718 -0.15956850860253147 0 0 0 0 -1141.3599184755658 -21.895965988060407 0 -21.895965988060407 -0.36007368584525828 0 0 0 0 -1.5128487763202605 1.395275566145699 0 1.395275566145699 0.16153517560558717 0 0 0 0 -10.892595451237412 7.6854725532335042 0 7.6854725532335042 -0.0064474566224308931 0 0 0 0 -33.238469928093764 2.1709438470319338 0 2.1709438470319338 0.48046941681870159 0 0 0 0 -23.024482433509547 7.6951926060217497 0 7.6951926060217497 0.003350769780419404 0 0 0 0 -27.010843301693967 2.5187576247603953 0 2.5187576247603953 -1.3940411957625845 0 0 0 0 -33.136005873999238 6.9548253154082484 0 6.9548253154082484 -0.0023223449771771418 0 0 0 0 0.026869049741890194 -2.2455203146901614 0 -2.2455203146901614 4.3872632076324862 0 0 0 0 -3.6821238724314753 15.0654970308278 0 15.0654970308278 0.049984971166985311 0 0 0 0 -39.125167400823557 4.58847383819508 0 4.58847383819508 2.4976098408796954 0 0 0 0 -0.026456990724080587 0.10793609052118924 0 0.10793609052118924 0.047671745043249288 0 0 0 0 19.612555642278267 3.3135517157493366 0 3.3135517157493366 -2.4690615172818866 0 0 0 0 2.5444270677653549 1.0330671643154865 0 1.0330671643154865 4.0448127461285637 0 0 0 0 2.4346507823938737 2.1831542461907065 0 2.1831542461907065 -3.1257345443890614 0 0 0 0 9.5710389935338753 5.2082905396627055 0 5.2082905396627055 -2.9457996595979594 0 0 0 0 -0.039470472703077908 0.24329451879085084 0 0.24329451879085084 0.17568655003845149 0 0 0 0 -26.782266041198227 3.8743199197196416 0 3.8743199197196416 0.32468483048891628 0 0 0 0 2.8726307983524748 1.9910182488258883 0 1.9910182488258883 0.37897133706022146 0 0 0 0 -24.17190080907676 4.5370032636266089 0 4.5370032636266089 -0.073467904153144303 0 0 0 0 -24.087634210287433 3.9141241952061883 0 3.9141241952061883 0.12169785644648812 0 0 0 0 -23.153541872778078 3.0774769905023405 0 3.0774769905023405 0.49945429919431916 0 0 0 0 -24.221247551779015 5.084225651998743 0 5.084225651998743 -0.80600638826882687 0 0 0 0 -19.627378287710599 0.90307690286692122 0 0.90307690286692122 1.6881703580588194 0 0 0 0 -21.639968342298744 4.7077973727598419 0 4.7077973727598419 -2.864068898660534 0 0 0 0 -24.66884550053237 1.9577933625746979 0 1.9577933625746979 -1.7770732628595312 0 0 0 0 -0.74699156668248179 4.9311802667987195 0 4.9311802667987195 0.24190191240873471 0 0 0 0 -2.8080138374443777 4.2625888754121348 0 4.2625888754121348 5.7486450637863129 0 0 0 0 -0.017094452559893725 0.32071278522133539 0 0.32071278522133539 0.36182292039436403 0 0 0 0 -18.526610247876306 3.3819353492762474 0 3.3819353492762474 -0.99953894834801105 0 0 0 0 -3.5112696259266158 3.1435730970708562 0 3.1435730970708562 1.9658948202123838 0 0 0 0 2.8366671791045519 -2.5484551736850278 0 -2.5484551736850278 -2.4307977711368665 0 0 0 0 0.016374419614246349 0.067701961550096001 0 0.067701961550096001 -0.0066506362395327701 0 0 0 0 -4.1209830519164825 -2.3863253296495657 0 -2.3863253296495657 1.6582929780917368 0 0 0 0 -1.6700400132212962 4.5031738384999755 0 4.5031738384999755 -2.8950763172815357 0 0 0 0 -1.5541679729707383 -0.71011706510339145 0 -0.71011706510339145 -0.21327524156981037 0 0 0 0 -3.4447960783127201 -1.4607863117462543 0 -1.4607863117462543 2.6002934154573154 0 0 0 0 -0.62008641895282679 0.045233423921391847 0 0.045233423921391847 0.097997237613206334 0 0 0 0 -5.2528096470050514 -0.28483571564086674 0 -0.28483571564086674 1.0370423942141542 0 0 0 0 -10.651176756970244 2.0455123095108343 0 2.0455123095108343 -3.2788357314617969 0 0 0 0 -0.24687182256240847 0.28247455979410674 0 0.28247455979410674 0.53541913129229579 0 0 0 0 -17.880765580768639 1.5948958364558266 0 1.5948958364558266 1.620150415184014 0 0 0 0 -0.82465449908158917 -3.4055433626340985 0 -3.4055433626340985 -2.2731619412091248 0 0 0 0 -8.2014405452300707 1.096199582680299 0 1.096199582680299 0.086854763874441687 0 0 0 0 -2.2212477759960905 -0.69107531770778508 0 -0.69107531770778508 0.74101236075465948 0 0 0 0 0.038204222667062027 -0.083927086035881615 0 -0.083927086035881615 0.061640078164130419 0 0 0 0 -6.151533834705333 1.315802132670342 0 1.315802132670342 -1.3707080136049754 0 0 0 0 -2.1234900248578796 -0.011133167189193216 0 -0.011133167189193216 -0.56750103372502769 0 0 0 0 -1.4911989191155754 0.5209074285435058 0 0.5209074285435058 -0.54801254981956604 0 0 0 0 -6.3459226434733864 1.4452907529742411 0 1.4452907529742411 -0.62983511713446205 0 0 0 0 -1.8469848978249672 -0.97301296462662812 0 -0.97301296462662812 0.42310260135236177 0 0 0 0 -5.7832349008735946 -0.035689442675725047 0 -0.035689442675725047 -2.1784305828487618 0 0 0 0 -2.0789884510777483 2.0104146375977052 0 2.0104146375977052 -1.4591168799196339 0 0 0 0 -23.877412443407593 3.3582606612767822 0 3.3582606612767822 -4.2668098570531896 0 0 0 0 -23.216563956664686 1.2605756492240232 0 1.2605756492240232 0.852013931660764 0 0 0 0 -15.553654269215258 -2.2509224436274877 0 -2.2509224436274877 -0.80049808167856895 0 0 0 0 -17.703793765227601 2.0438448435346288 0 2.0438448435346288 -3.8378294641393467 0 0 0 0 -31.147408460985389 1.4496113818748668 0 1.4496113818748668 0.26244329401041 0 0 0 0 -201.62422787152173 19.734921503250433 0 19.734921503250433 -10.868033479658152 0 0 0 0 -1.767752374459552 6.3901180554616381 0 6.3901180554616381 -1.9369235029434759 0 0 0 0 -224.14165267033786 -15.746559366818644 0 -15.746559366818644 -58.007241165981441 0 0 0 0 -447.17701584376482 -16.784435603723978 0 -16.784435603723978 34.836291312008314 0 0 0 0 -0.91477918858009577 0.52088879956532352 0 0.52088879956532352 3.7960112174129037 0 0 0 0 -171.39881679643076 95.003792908457342 0 95.003792908457342 -37.576948108453735 0 0 0 0 -0.62606870989930119 0.51582826280421656 0 0.51582826280421656 -0.45039608876034176 0 0 0 0 -61.435115802387372 3.701028245199133 0 3.701028245199133 25.182364658034146 0 0 0 0 -309.17871194886175 -6.2337366427379379 0 -6.2337366427379379 19.36430276445958 0 0 0 0 -270.28778614187831 -16.335973543316072 0 -16.335973543316072 21.358890377471596 0 0 0 0 -565.39794554753007 18.060525474499087 0 18.060525474499087 35.744351130999348 0 0 0 0 -36.733804392197271 -5.1172107916027585 0 -5.1172107916027585 -41.229014383659944 0 0 0 0 -1.2058270008800429 -2.5462189292541169 0 -2.5462189292541169 0.83831665161810354 0 0 0 0 -474.39731354484138 -39.200587960249322 0 -39.200587960249322 -33.507684560530379 0 0 0 0 -499.03391885171186 41.850280142300392 0 41.850280142300392 -5.9768742320713208 0 0 0 0 -1.5461901034872434 -1.419520566335958 0 -1.419520566335958 -1.7936163952237052 0 0 0 0 -436.06642315239151 20.942598029392116 0 20.942598029392116 12.91415884774338 0 0 0 0 -415.66038059476705 -31.809066246553357 0 -31.809066246553357 30.736888312952004 0 0 0 0 -1.7405127769238313 0.12331165949857592 0 0.12331165949857592 -1.6619496702996901 0 0 0 0 -301.06429815854062 -12.7469716374531 0 -12.7469716374531 -20.892272598173065 0 0 0 0 -503.58035394559556 45.698230059573511 0 45.698230059573511 -7.5753768387284666 0 0 0 0 -412.16015057797267 16.544104328793992 0 16.544104328793992 8.8724370595861046 0 0 0 0 -394.93372488902605 29.211891832518802 0 29.211891832518802 3.8299754121546812 0 0 0 0 -424.45639437664249 1.62810978168784 0 1.62810978168784 0.089666628657028014 0 0 0 0 -405.02257667031154 10.61270467065151 0 10.61270467065151 -15.088398192705711 0 0 0 0 -466.84506882947971 55.620073477137979 0 55.620073477137979 -1.8023410623853806 0 0 0 0 -421.63739648628689 0.93599356430621583 0 0.93599356430621583 -3.4760887428960814 0 0 0 0 -505.68997700073851 43.941927501387852 0 43.941927501387852 -4.4496196080845909 0 0 0 0 -423.96826850867637 0.95210019121087797 0 0.95210019121087797 -2.4306507883743507 0 0 0 0 -1.2583569163806141 -3.9117102544846674 0 -3.9117102544846674 0.71690086316848689 0 0 0 0 -423.85418073788969 -0.87374469367860286 0 -0.87374469367860286 -3.0167995357112858 0 0 0 0 -423.16022596544826 -0.08496130929943746 0 -0.08496130929943746 -7.3440854378577569 0 0 0 0 -433.18245831434251 -0.25797935960973906 0 -0.25797935960973906 -1.2585313602849872 0 0 0 0 -424.14039175666767 7.6559574707241751 0 7.6559574707241751 3.2894090608767357 0 0 0 0 -0.74866922080574216 -0.0023922672135867629 0 -0.0023922672135867629 -0.68195483760935383 0 0 0 0 -359.00073555585914 40.921912245041987 0 40.921912245041987 -60.492134284032645 0 0 0 0 -379.73422240274886 53.716593450781239 0 53.716593450781239 4.3416449390565788 0 0 0 0 -393.61545678120729 19.547109016085273 0 19.547109016085273 -78.614491821647519 0 0 0 0 -62.114496939993842 19.126726008238336 0 19.126726008238336 -22.142453387294154 0 0 0 0 -500.30012853581684 -27.452659679905423 0 -27.452659679905423 53.628467765812502 0 0 0 0 -2.1820268365970588 -4.725551457078204 0 -4.725551457078204 0.65594501476764311 0 0 0 0 -59.150684521744552 -1.5107424516756982 0 -1.5107424516756982 2.9749329724072595 0 0 0 0 -1.8314369153338825 5.0252646568416104 0 5.0252646568416104 -1.0512340722934645 0 0 0 0 -411.05284410572312 -32.951904926398925 0 -32.951904926398925 -34.540419398965696 0 0 0 0 -331.27415189998442 31.726847832220507 0 31.726847832220507 -37.399729368280418 0 0 0 0 -30.935371448049409 3.3087902779708926 0 3.3087902779708926 -0.36472398708077236 0 0 0 0 -2.0012834600286968 5.9391015603364252 0 5.9391015603364252 -2.0008368522538404 0 0 0 0 -0.58471866361853886 2.8734462233401104 0 2.8734462233401104 2.8353044645751906 0 0 0 0 -1.2397154099536696 -0.55854155366424152 0 -0.55854155366424152 -0.35073626669300806 0 0 0 0 -47.964244026985853 -0.63752040186660253 0 -0.63752040186660253 -5.4374915913387554 0 0 0 0 -51.325988808586771 2.1710902507027399 0 2.1710902507027399 0.31691392030677434 0 0 0 0 -9.9564454879391633 1.6357094903937139 0 1.6357094903937139 -3.6239604993528012 0 0 0 0 -10.058986514975913 -6.1372175846003074 0 -6.1372175846003074 6.2934870684981377 0 0 0 0 -0.22864227374816792 0.36682602311262968 0 0.36682602311262968 -0.49493425546729836 0 0 0 0 -7.5223718919332896 18.921295570571743 0 18.921295570571743 -13.290198939242458 0 0 0 0 -22.201613039545919 -11.529819081561914 0 -11.529819081561914 -4.1715479113196174 0 0 0 0 -11.258917458802898 -4.4397053239628201 0 -4.4397053239628201 -4.2485366996821821 0 0 0 0 -23.378190299459675 -11.781263430458292 0 -11.781263430458292 -3.4665231910681484 0 0 0 0 -0.22237369626182968 0.1828916265267857 0 0.1828916265267857 -0.18286338181592499 0 0 0 0 -15.095789193916971 -5.0200844318587041 0 -5.0200844318587041 -0.0095826658488592127 0 0 0 0 -93.073326954483491 35.795609069012826 0 35.795609069012826 6.6283759853082245 0 0 0 0 -76.935826883243863 8.2381262543799316 0 8.2381262543799316 9.792679710504844 0 0 0 0 -71.836739493285677 28.643348213863067 0 28.643348213863067 -0.01229800547630399 0 0 0 0 -107.86473563373511 9.3857746925189325 0 9.3857746925189325 18.706828726766911 0 0 0 0 -65.746815957083527 18.2400240146047 0 18.2400240146047 13.860623173979629 0 0 0 0 -65.661775819595277 12.257736874045811 0 12.257736874045811 9.512913003341545 0 0 0 0 -0.12479165162224248 0.059640496052072223 0 0.059640496052072223 0.10855467378609107 0 0 0 0 -57.391346006257663 30.710919775970581 0 30.710919775970581 -14.212254094429895 0 0 0 0 -33.044863148261356 -1.9421156626180647 0 -1.9421156626180647 -3.3130868344097024 0 0 0 0 -29.430121196432992 24.575093690184723 0 24.575093690184723 -14.356370777294046 0 0 0 0 -55.13158113434838 6.271043797193272 0 6.271043797193272 -6.3973658477741644 0 0 0 0 -72.188351329325087 28.843066147592992 0 28.843066147592992 -4.5770890077685777 0 0 0 0 -0.21411250299719597 0.011887096829152455 0 0.011887096829152455 0.13610149499189517 0 0 0 0 -74.033649240104751 25.998267178056928 0 25.998267178056928 -8.5438993844563242 0 0 0 0 -86.824513179752103 46.10134124309446 0 46.10134124309446 -18.515786776214924 0 0 0 0 -118.73498465542434 26.050358662478104 0 26.050358662478104 8.6963742252072151 0 0 0 0 -88.243314157831264 -15.807161222687824 0 -15.807161222687824 10.945524064258137 0 0 0 0 -28.243372856513815 -11.362934609082778 0 -11.362934609082778 -0.40081259763971389 0 0 0 0 -70.297368079026455 4.8525222442510092 0 4.8525222442510092 6.5192139077309719 0 0 0 0 -46.836977232464051 1.155372340599456 0 1.155372340599456 5.1501661048659813 0 0 0 0 -68.845273983570223 8.0956906838192708 0 8.0956906838192708 13.671885995264002 0 0 0 0 -81.143618208201588 27.302840850864492 0 27.302840850864492 -2.6863822159192097 0 0 0 0 -64.083295511833057 12.216646273689427 0 12.216646273689427 2.3965736387511569 0 0 0 0 -63.423683980083297 15.156394547097486 0 15.156394547097486 7.5779890478339915 0 0 0 0 -57.215905350371031 16.633952725779096 0 16.633952725779096 0.010534208649670342 0 0 0 0 -66.006667033665508 16.844728202411577 0 16.844728202411577 6.6315616327431073 0 0 0 0 -48.699623540905122 7.1861433218214881 0 7.1861433218214881 4.0618484038431149 0 0 0 0 -63.67086267499559 8.5232774297711575 0 8.5232774297711575 6.5169513318226961 0 0 0 0 -9.3008008752149181 12.234864080862875 0 12.234864080862875 -2.8627553861856327 0 0 0 0 -43.044872406009745 12.700366365362687 0 12.700366365362687 2.4679309190644503 0 0 0 0 -41.482794881451809 14.673702681096387 0 14.673702681096387 0.014166452014906614 0 0 0 0 -12.424401863345338 -6.1763112681730261 0 -6.1763112681730261 7.4739639063713135 0 0 0 0 -0.08375577073160656 0.013038674904993997 0 0.013038674904993997 0.012067285357447631 0 0 0 0 -0.08112283477714044 0.016612834384600816 0 0.016612834384600816 0.014904517851942776 0 0 0 0 2.9815594269130088 10.058728847390617 0 10.058728847390617 -0.0028958911905434298 0 0 0 0 1.4767720102499879 -1.0886916001476354 0 -1.0886916001476354 -5.5232067823363593 0 0 0 0 -0.83586965678841807 -1.7716577544402377 0 -1.7716577544402377 4.8437874588313541 0 0 0 0 -2.476659475141787 1.3077775067772635 0 1.3077775067772635 -0.56704266080302546 0 0 0 0 1.3598790165447099 6.8893762682753916 0 6.8893762682753916 -5.3369798620381772 0 0 0 0 -5.5121814946633094 7.99876120139254 0 7.99876120139254 -4.734490015769139 0 0 0 0 -13.548542146902037 0.80043078669368128 0 0.80043078669368128 -3.7689887282795382 0 0 0 0 -24.772846459187349 5.5844776451022824 0 5.5844776451022824 -1.1767486507128311 0 0 0 0 -4.0465863330282446 0.6209178250446854 0 0.6209178250446854 -4.9491073568665627 0 0 0 0 -5.240369966986691 5.6918105359722162 0 5.6918105359722162 1.1046132890662648 0 0 0 0 -5.3337190388992894 6.3755928424211845 0 6.3755928424211845 7.6065373421106983 0 0 0 0 -0.89031370604880067 4.3552240206297217 0 4.3552240206297217 1.3518635822049134 0 0 0 0 -5.9833882479324529 2.3230633163173025 0 2.3230633163173025 15.814731155093853 0 0 0 0 -8.0324524018196826 9.6223698401071829 0 9.6223698401071829 3.5478474335139936 0 0 0 0 -1.2868519564330825 -0.56297617126533517 0 -0.56297617126533517 -0.16168559345633765 0 0 0 0 -40.724563186223349 -20.45503388634263 0 -20.45503388634263 -2.808782833892792 0 0 0 0 -28.57996837276005 1.7898633898305292 0 1.7898633898305292 -5.789671373441422 0 0 0 0 -3.2417285144329071 -4.2210840703984047 0 -4.2210840703984047 16.451191920844764 0 0 0 0 -1.6032576417219389 -0.695511235223222 0 -0.695511235223222 8.8640511678531198 0 0 0 0 -2.1439485719238291 5.0000661109486089 0 5.0000661109486089 2.1520430335621938 0 0 0 0 -1.246265341821065 -0.37103251609731913 0 -0.37103251609731913 -0.034217998919325809 0 0 0 0 -2.1400089851943278 -0.32146785369255659 0 -0.32146785369255659 3.010587167926019 0 0 0 0 -25.58738027608706 10.406439514902488 0 10.406439514902488 -18.045415989980523 0 0 0 0 -129.19401296247997 57.826509012304626 0 57.826509012304626 -30.80296650442375 0 0 0 0 -25.129291794573874 12.761543931103105 0 12.761543931103105 -12.376357176003708 0 0 0 0 0.50429383851405873 6.6627835968376274 0 6.6627835968376274 -8.1365125732629622 0 0 0 0 -12.484298854091321 -18.390103820054577 0 -18.390103820054577 -7.5485861856215877 0 0 0 0 -0.58299972175203152 -0.069193038900584369 0 -0.069193038900584369 0.0059196794049702905 0 0 0 0 -86.870983583025009 36.104899879810816 0 36.104899879810816 -0.45654949942152356 0 0 0 0 -136.77326624248099 21.387274935085077 0 21.387274935085077 -1.4983074235640004 0 0 0 0 -88.276852592800424 22.103583521297722 0 22.103583521297722 13.161477746847375 0 0 0 0 -87.615078532210561 16.398865855171515 0 16.398865855171515 -13.913669283855114 0 0 0 0 -87.845660273389512 31.438942109219397 0 31.438942109219397 -28.629595000520865 0 0 0 0 -70.894015095349459 24.094501848937284 0 24.094501848937284 -5.284033515124122 0 0 0 0 -111.44410420293298 29.979850764591767 0 29.979850764591767 -11.352548353411322 0 0 0 0 -67.673093236229761 18.166946285300384 0 18.166946285300384 -16.479899624259446 0 0 0 0 -0.2000816442905311 -0.024413426156723261 0 -0.024413426156723261 0.025711509469260374 0 0 0 0 -121.40848883262879 36.194462351694909 0 36.194462351694909 -11.179914615575782 0 0 0 0 -110.71810562984319 57.022811856422216 0 57.022811856422216 -9.3692926350710763 0 0 0 0 -131.85586476451135 57.202125839203291 0 57.202125839203291 -9.3498112994229992 0 0 0 0 -10.301861282722143 -30.988041043683356 0 -30.988041043683356 9.6775927173477498 0 0 0 0 -0.5956588244675558 -0.21776199627962001 0 -0.21776199627962001 -0.077546603966142824 0 0 0 0 -156.8780487626891 13.625632443135768 0 13.625632443135768 -11.996623385543558 0 0 0 0 -61.914465661857321 23.20003552604183 0 23.20003552604183 -11.707220444811639 0 0 0 0 -71.039050389606928 25.152363331467583 0 25.152363331467583 0.720343332168909 0 0 0 0 -1.2876349438552097 1.2708875639449175 0 1.2708875639449175 0.070553440430558112 0 0 0 0 -66.323438144281681 20.614821859131279 0 20.614821859131279 -0.74748821758913664 0 0 0 0 -0.080015691225939989 0.06936125625259848 0 0.06936125625259848 -0.083516080550301686 0 0 0 0 -27.069319516023825 -5.5630567524062258 0 -5.5630567524062258 5.8886772519594466 0 0 0 0 -56.129379549869554 28.576853134801325 0 28.576853134801325 -16.629061691788678 0 0 0 0 -67.893867549450079 17.437170719582966 0 17.437170719582966 -4.8931734919095646 0 0 0 0 0.16178661409824535 0.07726439762496895 0 0.07726439762496895 -0.18730280447212128 0 0 0 0 -23.147345850888087 -5.8492912117532176 0 -5.8492912117532176 -2.7633208808801868 0 0 0 0 -55.483551493721279 32.11123855794159 0 32.11123855794159 -16.474062979818356 0 0 0 0 -16.521044837507361 2.170553073842143 0 2.170553073842143 -22.586882593232815 0 0 0 0 -1.4491739881041212 -4.0130913198673532 0 -4.0130913198673532 -2.5696394535462233 0 0 0 0 -18.440874794177944 -1.0600866541565424 0 -1.0600866541565424 -0.13921287005896588 0 0 0 0 -9.1637979431670828 -10.413094393202993 0 -10.413094393202993 0.64694086302314702 0 0 0 0 0.57746162442981586 6.9777552864465449 0 6.9777552864465449 -18.579999126287532 0 0 0 0 0.095473706212294118 0.081751229242360779 0 0.081751229242360779 -0.13678207522070263 0 0 0 0 -16.815131066516187 0.19929326838907002 0 0.19929326838907002 3.8213649392236739 0 0 0 0 1.8008736854335439 1.4407184259334258 0 1.4407184259334258 -0.90625722306038625 0 0 0 0 -6.0784332556886511 0.15716961005739805 0 0.15716961005739805 1.1192868887024101 0 0 0 0 -1.8307989737458783 0.14332289087903405 0 0.14332289087903405 0.15633428332026256 0 0 0 0 -1.4399432687190679 -0.14655000595257661 0 -0.14655000595257661 0.093328264819105583 0 0 0 0 -19.968199302967491 5.8124942830297961 0 5.8124942830297961 7.3679059141099827 0 0 0 0 -20.513522559084208 13.007894653601671 0 13.007894653601671 -1.9024327910391898 0 0 0 0 0.42100629261040012 3.5719626667899682 0 3.5719626667899682 -1.1468551590937608 0 0 0 0 9.3670585624840896 2.6944464739001148 0 2.6944464739001148 -2.069957956478838 0 0 0 0 0.40024375585107919 -1.53875331155567 0 -1.53875331155567 2.8051043080962756 0 0 0 0 -4.8135259505797876 0.18173062169037557 0 0.18173062169037557 1.6907982979807485 0 0 0 0 -1.2721779617495486 1.280312563695702 0 1.280312563695702 0.071390086279585319 0 0 0 0 -0.15857519101858841 0.30415740434481364 0 0.30415740434481364 -0.48742304097105427 0 0 0 0 11.522684460053824 6.4507841075710388 0 6.4507841075710388 -5.8779278824212327 0 0 0 0 -2.0902180268903976 -21.567818432529464 0 -21.567818432529464 27.939724587270348 0 0 0 0 -1.6482372689848646 -0.75676542929807056 0 -0.75676542929807056 0.91418317830565599 0 0 0 0 7.3828811737676006 -13.327501141008042 0 -13.327501141008042 6.4242527063800026 0 0 0 0 -18.922856694159691 22.045875988746644 0 22.045875988746644 79.933163676131244 0 0 0 0 -20.569704330322566 33.146712508288601 0 33.146712508288601 5.9314345656121077 0 0 0 0 30.301462121386976 44.100603951776293 0 44.100603951776293 14.377833377074694 0 0 0 0 -172.97937438441295 64.951761882003211 0 64.951761882003211 43.746735515042474 0 0 0 0 -90.189948382914736 24.496610489147542 0 24.496610489147542 45.989382662031858 0 0 0 0 -147.13278739555244 -8.3765468331232569 0 -8.3765468331232569 98.785478039782902 0 0 0 0 -103.20002608698269 38.87073190948604 0 38.87073190948604 51.784486685872707 0 0 0 0 -75.201997987513096 -38.004754667379416 0 -38.004754667379416 66.915797641659992 0 0 0 0 -55.518423830620577 21.203870934435542 0 21.203870934435542 45.646002484279052 0 0 0 0 -2.3964044074050825 -0.17104623399803476 0 -0.17104623399803476 0.43324756796505248 0 0 0 0 -14.865624357618799 -25.874816843899225 0 -25.874816843899225 -18.084776765111201 0 0 0 0 13.335698549369226 1.89456358617349 0 1.89456358617349 8.2237857598049686 0 0 0 0 -18.728236370759987 25.199766982553456 0 25.199766982553456 -16.787569593562466 0 0 0 0 -0.84146040101768449 -7.0332252706939471 0 -7.0332252706939471 1.6256985821623857 0 0 0 0 -18.80597331321087 -5.4914076729372319 0 -5.4914076729372319 13.672479091224673 0 0 0 0 -11.723169386936576 -3.8106124470043321 0 -3.8106124470043321 -0.43683484835635827 0 0 0 0 -18.585179483236061 5.7864945601213478 0 5.7864945601213478 9.7127951568667683 0 0 0 0 -3.8762685207546301 3.5962861779116793 0 3.5962861779116793 1.7447521423763994 0 0 0 0 -19.579626982734226 -2.7051885763170134 0 -2.7051885763170134 4.958724152883633 0 0 0 0 -15.59473131967934 2.8155230043702133 0 2.8155230043702133 2.3552466119010269 0 0 0 0 -4.4071506921517276 2.6527112456624486 0 2.6527112456624486 3.1741258806110739 0 0 0 0 -16.769175937632099 -0.32060891515908452 0 -0.32060891515908452 2.8250897660999499 0 0 0 0 -17.145056570887391 3.2718752123336117 0 3.2718752123336117 -8.0460584463507701 0 0 0 0 -21.991326400147955 3.1101479095009381 0 3.1101479095009381 7.7410266949468678 0 0 0 0 -22.122391287273786 5.9522909584121635 0 5.9522909584121635 -5.5545595427061016 0 0 0 0 -28.232763980468008 4.4848597143306961 0 4.4848597143306961 13.035012368016623 0 0 0 0 -27.834051618039666 0.8475125666736858 0 0.8475125666736858 44.66236931198091 0 0 0 0 -24.238148757600356 -29.07608928434513 0 -29.07608928434513 65.438598202657431 0 0 0 0 -28.567928475858935 -13.582816552583154 0 -13.582816552583154 10.601142838514079 0 0 0 0 1.9439569237502425 -0.76131701119394002 0 -0.76131701119394002 -0.43803982168842071 0 0 0 0 -17.445499834244401 -18.651117773479086 0 -18.651117773479086 4.1436909894323435 0 0 0 0 -12.168376899084251 -12.792353195487522 0 -12.792353195487522 8.8081090397205344 0 0 0 0 -8.7760832690194057 -5.7315783904396103 0 -5.7315783904396103 -1.5160484951453479 0 0 0 0 -11.618725622323836 -6.7063114187706105 0 -6.7063114187706105 7.0112956659484098 0 0 0 0 -9.6719488104226912 -6.00917316049334 0 -6.00917316049334 -1.4271494280485442 0 0 0 0 -9.6673609625595418 -6.2190923815965391 0 -6.2190923815965391 2.7736731651658033 0 0 0 0 -10.308199782513576 -3.7155947592483489 0 -3.7155947592483489 -0.0018893956703321668 0 0 0 0 19.242923084632821 12.474135151211257 0 12.474135151211257 -24.012869412593233 0 0 0 0 -1.4820103856261717 -0.58203001118690523 0 -0.58203001118690523 -0.4190137267224191 0 0 0 0 -15.182367912730115 -4.9564647508727262 0 -4.9564647508727262 1.7885385174011788 0 0 0 0 -4.3895218495686095 12.661810845330921 0 12.661810845330921 4.4934177912501809 0 0 0 0 -15.200645502540283 -13.281785273563912 0 -13.281785273563912 20.1714755301727 0 0 0 0 2.7618724344238217 -3.6616400617583054 0 -3.6616400617583054 3.4498984929711014 0 0 0 0 6.3859781582577853 -39.818009012966513 0 -39.818009012966513 2.0294317697652673 0 0 0 0 -7.5829480032640273 -7.9543275545871879 0 -7.9543275545871879 -1.8008465079871145 0 0 0 0 13.541475136549707 -1.4390060682803778 0 -1.4390060682803778 -4.2177683770091789 0 0 0 0 -5.4080546035921202 -5.5471489672717738 0 -5.5471489672717738 -3.8632060183381438 0 0 0 0 -1.3187343020326594 -1.863486307003754 0 -1.863486307003754 -1.311412526982342 0 0 0 0 -9.1332062653355024 1.4136547836152431 0 1.4136547836152431 8.5368258593448445 0 0 0 0 19.364193566507311 -25.632161632178736 0 -25.632161632178736 -22.536310291602831 0 0 0 0 -21.821762581640542 -10.552481324135329 0 -10.552481324135329 26.550789580615401 0 0 0 0 17.22966992176589 -42.165719912696659 0 -42.165719912696659 -175.86165893239013 0 0 0 0 -35.725685445539057 21.225410220650929 0 21.225410220650929 39.548724741118008 0 0 0 0 -34.221477310496994 27.942679712048744 0 27.942679712048744 9.8960348132370655 0 0 0 0 -1.5651836130482835 -1.1618867771320431 0 -1.1618867771320431 2.0328754010965593 0 0 0 0 -29.44296333764396 31.197364393150337 0 31.197364393150337 4.8577509421382956 0 0 0 0 -52.236384346353589 -92.748166800200124 0 -92.748166800200124 -16.853853630584553 0 0 0 0 -58.433741193440255 -250.97227431451552 0 -250.97227431451552 273.1950027205794 0 0 0 0 -55.978073603087978 -168.80810590377882 0 -168.80810590377882 49.501920405623423 0 0 0 0 -138.91504146204534 -56.425500825893778 0 -56.425500825893778 155.9432409766905 0 0 0 0 -141.77147585779676 -24.996329170918671 0 -24.996329170918671 76.959608647567165 0 0 0 0 -102.45257511208911 -30.753756460489967 0 -30.753756460489967 101.10782372893118 0 0 0 0 -41.970736392620893 -40.427832383586519 0 -40.427832383586519 32.853736589265282 0 0 0 0 -162.24165384733351 -16.205543507924631 0 -16.205543507924631 107.42807076796066 0 0 0 0 -217.93517185437668 23.29537884772526 0 23.29537884772526 85.013262608476907 0 0 0 0 -184.62482514949443 -50.454797267603226 0 -50.454797267603226 55.179828587114571 0 0 0 0 -102.56375963037863 1.0229003226359055 0 1.0229003226359055 266.65331004645344 0 0 0 0 79.024684618070751 36.424354230540303 0 36.424354230540303 82.284110924461856 0 0 0 0 -39.611794485084829 -33.615173069138109 0 -33.615173069138109 50.832894354252858 0 0 0 0 6.3643915185239166 -45.994451979780024 0 -45.994451979780024 51.440277043713195 0 0 0 0 76.413371836781437 -48.994163937344027 0 -48.994163937344027 22.129215341053623 0 0 0 0 -6.999454991233506 -44.624818483208401 0 -44.624818483208401 67.555361146188034 0 0 0 0 32.618110560397326 -58.581163094417207 0 -58.581163094417207 24.516773448509639 0 0 0 0 0.87110771232255502 -28.71138982667344 0 -28.71138982667344 45.927227576959922 0 0 0 0 -5.4008300455402605 -9.9955934490644722 0 -9.9955934490644722 17.874653563943866 0 0 0 0 8.9074568907999492 -9.6008020832780403 0 -9.6008020832780403 -5.3012898595598017 0 0 0 0 2.902654038167384 -36.462937343379963 0 -36.462937343379963 38.403659213864557 0 0 0 0 -8.6627650737354998 -26.635476007514626 0 -26.635476007514626 46.112535722962093 0 0 0 0 9.2720269166820799 -48.84704182071448 0 -48.84704182071448 38.342533940268822 0 0 0 0 16.958808177874744 -23.729169867713836 0 -23.729169867713836 30.71684366143927 0 0 0 0 -6.6824524053627101 33.103129024066675 0 33.103129024066675 16.214405043553029 0 0 0 0 -5.2588414579452269 -4.2208954506098237 0 -4.2208954506098237 -3.1260653008294659 0 0 0 0 8.9411879409753965 -30.406797723753243 0 -30.406797723753243 2.1287783519364893 0 0 0 0 4.1237259260306018 -73.887928962642036 0 -73.887928962642036 -53.869730184678531 0 0 0 0 -1.0896730965361456 -0.43212043052265869 0 -0.43212043052265869 -0.14737947605062174 0 0 0 0 -70.819351326681499 92.683993616512566 0 92.683993616512566 -57.564172647443385 0 0 0 0 -110.66705646520313 5.076814583075361 0 5.076814583075361 -5.9070722093103996 0 0 0 0 -103.55114841879549 16.734639873516528 0 16.734639873516528 10.438269245091305 0 0 0 0 -120.9358074525735 18.412425471930646 0 18.412425471930646 11.392908329109787 0 0 0 0 -92.086125958594494 16.013157573627609 0 16.013157573627609 -2.9170842830337449 0 0 0 0 24.918472874626787 -0.67328937995350913 0 -0.67328937995350913 -23.993488703643948 0 0 0 0 -74.049888187193574 42.945690232907538 0 42.945690232907538 14.831400339017584 0 0 0 0 -47.314289933477994 20.633992453258571 0 20.633992453258571 -21.267953290872441 0 0 0 0 -4.0201533367430784 13.213551398870148 0 13.213551398870148 -33.198855797585992 0 0 0 0 -13.467383094995967 -21.647279225419688 0 -21.647279225419688 -17.701528214940424 0 0 0 0 -5.092027718817917 -6.7677203327299829 0 -6.7677203327299829 -12.749803708319213 0 0 0 0 -62.674784107940013 37.641396974214061 0 37.641396974214061 -66.676511762068884 0 0 0 0 -57.299384735353669 8.4193109951621317 0 8.4193109951621317 -9.8639752583125784 0 0 0 0 -144.41327051434564 56.346096433133717 0 56.346096433133717 -5.8405291862463065 0 0 0 0 -86.360448085363714 -18.476129546834287 0 -18.476129546834287 -39.828789602610833 0 0 0 0 -166.74542646881309 16.60940905956992 0 16.60940905956992 13.656388133828006 0 0 0 0 -1.3155769509832353 0.10966382527194085 0 0.10966382527194085 0.12904174158245518 0 0 0 0 -163.97353542895979 71.90048556003596 0 71.90048556003596 -16.638689542482211 0 0 0 0 -78.934805330827658 97.294434555737553 0 97.294434555737553 -102.2128623846064 0 0 0 0 -24.037341255246247 30.652261192256006 0 30.652261192256006 -41.729624119508571 0 0 0 0 -21.348007570968548 -31.580990735910447 0 -31.580990735910447 17.302290617360541 0 0 0 0 -144.92247987779683 8.4852311686271396 0 8.4852311686271396 11.681261688400653 0 0 0 0 -3.1557473867233057 6.8625041209428037 0 6.8625041209428037 -20.399649888801839 0 0 0 0 -9.8744368922652939 21.636692412896341 0 21.636692412896341 4.6908363188595992 0 0 0 0 -2.8948255736210484 -0.45500218592618502 0 -0.45500218592618502 0.073180198327017484 0 0 0 0 -32.718447083244428 17.647481272151872 0 17.647481272151872 -14.085896911104129 0 0 0 0 -12.355786596523103 -1.1907109954170281 0 -1.1907109954170281 30.194511206447118 0 0 0 0 -19.307621718116934 26.365811369686895 0 26.365811369686895 -30.355550934763698 0 0 0 0 -51.328854861143554 36.328549900442056 0 36.328549900442056 -27.4695010116248 0 0 0 0 -51.274302212721523 27.816626236933246 0 27.816626236933246 -12.035268800555514 0 0 0 0 -85.116432804374199 40.40055293633344 0 40.40055293633344 -20.512007394201589 0 0 0 0 -85.04023315147424 39.366096441599154 0 39.366096441599154 -7.3226412344992298 0 0 0 0 -117.0743691037942 23.196301599270456 0 23.196301599270456 -13.763661567838085 0 0 0 0 -71.377558992638114 30.696745324131115 0 30.696745324131115 -22.167689172601172 0 0 0 0 -71.840577563278202 31.48151378867783 0 31.48151378867783 -19.93288212049157 0 0 0 0 -97.078540506199715 -1.4741947057713674 0 -1.4741947057713674 -62.804516809070947 0 0 0 0 -70.00881969429247 57.753265515948328 0 57.753265515948328 -30.061867301779728 0 0 0 0 -65.940649405447402 38.313366273932331 0 38.313366273932331 -6.4348958421487623 0 0 0 0 -34.791776676753216 25.408422379606577 0 25.408422379606577 -20.316062237800338 0 0 0 0 -80.227692045664298 45.56462757188342 0 45.56462757188342 -4.8861307383659494 0 0 0 0 -69.898002429508779 27.254582140256076 0 27.254582140256076 -10.901886941861449 0 0 0 0 -62.566284416830968 44.013295664154526 0 44.013295664154526 -4.7581517821586203 0 0 0 0 -81.162329430429963 57.447570202434974 0 57.447570202434974 14.593781342569969 0 0 0 0 -70.072819315191623 27.917278580601753 0 27.917278580601753 12.409428544965635 0 0 0 0 -3.8870873062817211 -2.8884023472442717 0 -2.8884023472442717 -1.7208071262900835 0 0 0 0 -71.275081785333896 37.961430167545444 0 37.961430167545444 -27.006815713308924 0 0 0 0 32.357310968954152 -14.485586200324576 0 -14.485586200324576 66.736296601099184 0 0 0 0 -70.254971013400791 52.272590307327391 0 52.272590307327391 -53.694122663291637 0 0 0 0 -103.18434958064609 83.093538169928479 0 83.093538169928479 -55.619616578505358 0 0 0 0 -94.703745109431111 41.200111101197081 0 41.200111101197081 -11.721922477568341 0 0 0 0 -0.44080327144365583 -110.48571075866289 0 -110.48571075866289 90.994921192987476 0 0 0 0 -1.4208128769023673 -0.98621541520080669 0 -0.98621541520080669 -0.57668253299621552 0 0 0 0 -184.76443807960823 91.184180597216709 0 91.184180597216709 -22.915894174406048 0 0 0 0 -88.385107350281032 -65.6844194678647 0 -65.6844194678647 100.30250918025661 0 0 0 0 -195.59134660391828 -17.640547180143699 0 -17.640547180143699 -1.0208813058579835 0 0 0 0 -126.3437975236593 -65.776270476385889 0 -65.776270476385889 115.93964494839202 0 0 0 0 -186.71017226495314 -20.389856210718335 0 -20.389856210718335 182.91792174384682 0 0 0 0 -69.347619474454405 -55.849857601347821 0 -55.849857601347821 104.4246401501623 0 0 0 0 -68.06651495999904 24.292827608033576 0 24.292827608033576 141.19443264583515 0 0 0 0 -75.843882896089781 -9.2218797124849061 0 -9.2218797124849061 77.23226794787297 0 0 0 0 -83.518645499425475 -38.96935622759429 0 -38.96935622759429 131.91275542435505 0 0 0 0 -44.568902454600902 -33.352248799220888 0 -33.352248799220888 61.135589685476589 0 0 0 0 -66.353293923813453 -19.674298399607636 0 -19.674298399607636 64.994798228620766 0 0 0 0 -50.377464728102495 -20.582718437737014 0 -20.582718437737014 53.008335010075825 0 0 0 0 -64.914964362978935 -28.067023410824504 0 -28.067023410824504 66.147618516973921 0 0 0 0 -54.907212297897786 -17.327362978349697 0 -17.327362978349697 13.65633963225855 0 0 0 0 -38.363795081331773 9.8099102638355475 0 9.8099102638355475 8.2400813140857281 0 0 0 0 -51.465736012176421 -2.6803809193517054 0 -2.6803809193517054 74.262948254749062 0 0 0 0 -3.1525122032762738 -62.266473211900347 0 -62.266473211900347 46.943880169946624 0 0 0 0 -6.815060717025915 -0.73094655628623961 0 -0.73094655628623961 -1.8942031021380679 0 0 0 0 0.18604686586759556 -0.040676076865208799 0 -0.040676076865208799 -0.20707222938334624 0 0 0 0 -36.618028647661049 18.619578631463696 0 18.619578631463696 29.113292253224245 0 0 0 0 68.747069697314146 -62.428466048415657 0 -62.428466048415657 14.140614971616287 0 0 0 0 49.641826695828058 -7.0756308482726809 0 -7.0756308482726809 -12.621197815960841 0 0 0 0 10.253430350003327 -44.102861385283632 0 -44.102861385283632 28.589904199884359 0 0 0 0 -12.673838572896784 -50.33324174181439 0 -50.33324174181439 66.73086352615644 0 0 0 0 -10.570481662427483 1.6727893229046913 0 1.6727893229046913 39.575274141116893 0 0 0 0 -33.706836659889632 13.078435776247829 0 13.078435776247829 7.6708025949667444 0 0 0 0 41.862337878816106 -15.578530186156001 0 -15.578530186156001 -7.6174719376632538 0 0 0 0 -18.988059905618741 -0.52481622869067945 0 -0.52481622869067945 0.41969833219880193 0 0 0 0 -40.664924024105858 -1.779057481148925 0 -1.779057481148925 47.428014184822587 0 0 0 0 -16.673347912942518 3.6652903205552434 0 3.6652903205552434 -19.470849737686336 0 0 0 0 -19.985221992436223 0.12314495938456813 0 0.12314495938456813 0.78819622370902553 0 0 0 0 2.8685774139594287 1.6893426718598903 0 1.6893426718598903 -20.479973834335397 0 0 0 0 -34.105881194715892 6.1615085457096015 0 6.1615085457096015 -14.689345225322995 0 0 0 0 -2.0200525243940746 -1.6724901314130847 0 -1.6724901314130847 -0.92669032144807062 0 0 0 0 -35.640414738676554 41.120289588728838 0 41.120289588728838 -15.892651233548492 0 0 0 0 7.0212818265708847 -16.790218195073408 0 -16.790218195073408 22.487717547383454 0 0 0 0 20.42196336876259 -42.50370355458108 0 -42.50370355458108 56.059006416850593 0 0 0 0 32.571223419152375 -31.87555566983383 0 -31.87555566983383 43.256759258772263 0 0 0 0 16.928572909890136 -24.192421581606141 0 -24.192421581606141 48.172702632421078 0 0 0 0 -0.061598324207643884 -0.14647027264002865 0 -0.14647027264002865 -0.018575396207658024 0 0 0 0 14.345259370871645 -28.77275271652627 0 -28.77275271652627 23.120316675460174 0 0 0 0 21.878869065947583 -40.633572091056521 0 -40.633572091056521 36.67388260447342 0 0 0 0 45.392910326623678 -38.883549991809332 0 -38.883549991809332 21.897139616316736 0 0 0 0 50.68416595385861 -35.427748262539239 0 -35.427748262539239 23.431381502559816 0 0 0 0 0.10595662627552827 -0.092962790615832347 0 -0.092962790615832347 -0.12364254577331391 0 0 0 0 36.42417791155458 -66.495577383635009 0 -66.495577383635009 48.902552519842629 0 0 0 0 3.3005652149677189 -43.418036000935331 0 -43.418036000935331 20.081290029293086 0 0 0 0 -5.829054261953388 -2.5328697131749323 0 -2.5328697131749323 22.463249317120471 0 0 0 0 -31.336922937083727 -41.77081434781303 0 -41.77081434781303 14.225140761363946 0 0 0 0 -111.33149186270703 62.602524049098179 0 62.602524049098179 -44.319271018613108 0 0 0 0 10.205477231525947 -36.446848871678185 0 -36.446848871678185 14.903077730593679 0 0 0 0 -0.41315096108260008 -0.27015716205656304 0 -0.27015716205656304 -0.25916781122823984 0 0 0 0 43.835499725413683 -13.020647171454129 0 -13.020647171454129 15.48374311294765 0 0 0 0 -142.23710121089971 8.2546872735824763 0 8.2546872735824763 -85.131057905219222 0 0 0 0 -181.52788981466438 28.155649081933007 0 28.155649081933007 -17.082081905171435 0 0 0 0 -145.10260630573612 -35.384237259684596 0 -35.384237259684596 40.347117025483158 0 0 0 0 -146.15606635029326 -0.73621634251776413 0 -0.73621634251776413 -30.419151285107091 0 0 0 0 -142.35469082960935 0.92005132746578511 0 0.92005132746578511 -34.140695731550295 0 0 0 0 -68.791345000069214 -2.8933150468235169 0 -2.8933150468235169 0.85403344522956104 0 0 0 0 -46.29749133183941 42.927745776750953 0 42.927745776750953 -51.70499395936713 0 0 0 0 -31.30505738300235 48.704432870489313 0 48.704432870489313 -45.899226737333493 0 0 0 0 -44.067887419656017 27.485378768600128 0 27.485378768600128 -2.8426021782388489 0 0 0 0 -1.5200219518627023 -0.79886930199595874 0 -0.79886930199595874 -0.34985754577342476 0 0 0 0 -8.7726682113730021 6.9970529615315513 0 6.9970529615315513 -11.68820492944792 0 0 0 0 -24.958648316589461 29.987558882359849 0 29.987558882359849 19.228430671054412 0 0 0 0 -41.640547521551071 -8.0782852471590445 0 -8.0782852471590445 69.723986073016476 0 0 0 0 -20.11654736655591 -0.41180335401105372 0 -0.41180335401105372 0.60222830067114341 0 0 0 0 -21.928585766937431 7.7432850583654727 0 7.7432850583654727 -24.883491747111478 0 0 0 0 -20.822626346465768 16.330247087242469 0 16.330247087242469 8.5170177860541116 0 0 0 0 -14.696988868880908 -30.145378566870136 0 -30.145378566870136 -1.5887783982932433 0 0 0 0 -25.768194727291302 -0.63976209169283038 0 -0.63976209169283038 -9.9187524208107334 0 0 0 0 -9.562780192057744 20.284692137014076 0 20.284692137014076 -45.730230963799386 0 0 0 0 -19.857697752119982 -0.71515969129457602 0 -0.71515969129457602 0.45315235810564003 0 0 0 0 -6.4174606629712798 -11.24988460871532 0 -11.24988460871532 -25.15298362133808 0 0 0 0 -28.211365866440246 -17.646022379604688 0 -17.646022379604688 56.138402235373064 0 0 0 0 15.164552398378873 20.533896487357197 0 20.533896487357197 -6.283351489843426 0 0 0 0 -6.8252540869261793 -30.636226459589381 0 -30.636226459589381 -29.605237540789403 0 0 0 0 -1.4811441013986979 1.4653007501700603 0 1.4653007501700603 -1.0840211662042538 0 0 0 0 -10.48045038429882 -21.212413896489807 0 -21.212413896489807 -30.58611248017769 0 0 0 0 -59.087903949835891 -25.971135919443668 0 -25.971135919443668 -1.0534617562398125 0 0 0 0 -99.01590890328589 7.1444997211365262 0 7.1444997211365262 -31.372059142530134 0 0 0 0 -40.953033890917141 -10.230393372905837 0 -10.230393372905837 -26.222639826195518 0 0 0 0 -47.027833185165036 -46.366583028355421 0 -46.366583028355421 -47.783024930546162 0 0 0 0 -100.96505298660031 -34.070911612388159 0 -34.070911612388159 -50.244909176797137 0 0 0 0 -10.263280651681271 -12.926535086818149 0 -12.926535086818149 18.087642110601735 0 0 0 0 -0.87752754289888912 0.25061912562867938 0 0.25061912562867938 -0.05501746321955947 0 0 0 0 -142.8131690701166 6.4910306470573573 0 6.4910306470573573 -39.318169328391377 0 0 0 0 -80.006954879543628 61.095113423516977 0 61.095113423516977 -1.9635180945783759 0 0 0 0 -9.3214928812321887 23.77471708379619 0 23.77471708379619 53.904968497254231 0 0 0 0 13.592362470933949 -44.003523668372736 0 -44.003523668372736 53.917954071003351 0 0 0 0 50.301731074858253 28.832801586505127 0 28.832801586505127 -4.3419088463001572 0 0 0 0 -190.91176423623983 -55.542866529757283 0 -55.542866529757283 -132.51747519638312 0 0 0 0 -0.37951422704313487 0.0043313968348854814 0 0.0043313968348854814 0.99786214229008585 0 0 0 0 -363.64599518917782 25.836087038658551 0 25.836087038658551 67.196854775248454 0 0 0 0 -354.14854626805209 -71.733135252728772 0 -71.733135252728772 35.906812619639041 0 0 0 0 -3.0932534879000002 0.49991879949541307 0 0.49991879949541307 0.013115845589742575 0 0 0 0 -77.347148909642783 -67.732994331274782 0 -67.732994331274782 13.704349179017392 0 0 0 0 99.512208657484734 125.38163688419398 0 125.38163688419398 71.319412239284532 0 0 0 0 -314.06341374836666 -39.894072599236182 0 -39.894072599236182 133.17223707649401 0 0 0 0 -153.1349828019047 -110.07104663985457 0 -110.07104663985457 -71.683888119527765 0 0 0 0 -245.60346052737077 -132.53582288801996 0 -132.53582288801996 42.260430995439393 0 0 0 0 -203.33756584217008 -13.016219458312008 0 -13.016219458312008 13.297846226201671 0 0 0 0 -235.81084721658044 -22.422787466791632 0 -22.422787466791632 21.236927919552976 0 0 0 0 -133.10205648630472 -54.634360812210758 0 -54.634360812210758 -72.848424899092365 0 0 0 0 -342.2376696848969 35.051401232871108 0 35.051401232871108 44.118011853092426 0 0 0 0 -499.36404225202295 -31.242273711563666 0 -31.242273711563666 98.056913381654596 0 0 0 0 -524.26023157208601 50.861767242760536 0 50.861767242760536 59.511420158679712 0 0 0 0 -345.38100910497269 -38.745689896248109 0 -38.745689896248109 -25.190452431253703 0 0 0 0 -633.5642151222246 -66.913106444537277 0 -66.913106444537277 74.357804131763245 0 0 0 0 -0.88608706771288759 0.34443410543090103 0 0.34443410543090103 -0.2037858855155209 0 0 0 0 -451.33900838013506 -55.093995968153081 0 -55.093995968153081 -66.335691539421461 0 0 0 0 -446.84871792077809 0.79476604986610078 0 0.79476604986610078 23.453253430700428 0 0 0 0 -303.03691377857012 -120.99855548660135 0 -120.99855548660135 68.348024767323125 0 0 0 0 -718.67545922586396 14.427850533828718 0 14.427850533828718 54.000344580591218 0 0 0 0 -0.74132549505237932 -0.71422232249432582 0 -0.71422232249432582 0.34983678652285621 0 0 0 0 -17.901952469225762 -5.1534639735336114 0 -5.1534639735336114 -102.84651042994051 0 0 0 0 -500.20130238492402 45.297670841261684 0 45.297670841261684 -5.1343484422687462 0 0 0 0 -123.89907045982818 -117.22835209991132 0 -117.22835209991132 -103.61346874713212 0 0 0 0 -555.17294871298327 -55.608108070107477 0 -55.608108070107477 -25.887829507227735 0 0 0 0 -1.090020164599939 1.4499831440034008 0 1.4499831440034008 -0.70270872306105037 0 0 0 0 -20.805466076206358 -0.64925578944874474 0 -0.64925578944874474 1.0177578953798729 0 0 0 0 -22.918340405672097 3.9856341148243075 0 3.9856341148243075 -8.052021097468355 0 0 0 0 -0.60610489827616165 -0.63432742620121729 0 -0.63432742620121729 -0.74834229028059185 0 0 0 0 -408.1953591359852 -21.321539918194844 0 -21.321539918194844 -59.281768155163263 0 0 0 0 -1.2740455914408901 2.0832857640916842 0 2.0832857640916842 -0.55800306364233609 0 0 0 0 -382.15448122886482 12.597134564050634 0 12.597134564050634 -48.772788189631456 0 0 0 0 -92.152827335833535 7.5155246398085183 0 7.5155246398085183 77.312412275980421 0 0 0 0 -307.51637380936518 -0.82300924007697063 0 -0.82300924007697063 48.961878015095266 0 0 0 0 -0.30820187378271724 0.18360416675163904 0 0.18360416675163904 2.7137381722923632 0 0 0 0 -335.9194485114258 34.841260290549073 0 34.841260290549073 35.062286065389628 0 0 0 0 -260.16965100418565 21.018378363797609 0 21.018378363797609 36.66164460004569 0 0 0 0 -275.93097695644246 109.39957373966099 0 109.39957373966099 -43.361048070529179 0 0 0 0 -114.88930131089455 60.375319085381562 0 60.375319085381562 -30.527939036173777 0 0 0 0 -236.87009195956625 -26.057021402936769 0 -26.057021402936769 31.917785444023707 0 0 0 0 -3.8040444511584024 6.2332110443229958 0 6.2332110443229958 -0.82722023947741063 0 0 0 0 -270.44006269597958 -14.213840064614175 0 -14.213840064614175 43.119658671949196 0 0 0 0 -19.421698419185304 4.1501724470641221 0 4.1501724470641221 -3.4110007590490312 0 0 0 0 -26.237516813531329 0.45276350363144502 0 0.45276350363144502 2.6996886345275541 0 0 0 0 -17.234010848188291 17.69584567425558 0 17.69584567425558 -1.0827302026574444 0 0 0 0 -10.276155692577049 -2.7785329071151494 0 -2.7785329071151494 -4.3024541076069909 0 0 0 0 -37.353203069255869 -20.60162914588841 0 -20.60162914588841 12.12107669847785 0 0 0 0 -14.996508065729799 -1.991564744531356 0 -1.991564744531356 1.9919197772642563 0 0 0 0 -3.4630083319334517 14.184464927018009 0 14.184464927018009 -15.391620902672074 0 0 0 0 -4.9269397184943955 14.539715863261204 0 14.539715863261204 -10.191346298765495 0 0 0 0 -6.8053177153760771 9.8607781061013409 0 9.8607781061013409 1.382409733817493 0 0 0 0 -9.6299952563385887 5.9707992959477849 0 5.9707992959477849 -14.234782478482188 0 0 0 0 -5.6035336316926987 8.5770817890424134 0 8.5770817890424134 -12.613889786980657 0 0 0 0 -11.676696883307159 11.831468287465061 0 11.831468287465061 -2.4813104632518659 0 0 0 0 -19.592060074448455 5.9040554052296557 0 5.9040554052296557 3.5819983395334702 0 0 0 0 -17.08838424744954 -2.2002771304194226 0 -2.2002771304194226 5.4865080729309597 0 0 0 0 -11.985671674168422 -0.45955855191278872 0 -0.45955855191278872 1.5822011556211426 0 0 0 0 -17.44629829250789 9.2630980547338257 0 9.2630980547338257 -1.9280287254221662 0 0 0 0 -17.892652459738201 7.8582048583360358 0 7.8582048583360358 -6.3283695408720178 0 0 0 0 -0.41522275892821803 3.606644438188674 0 3.606644438188674 -4.1547048948906662 0 0 0 0 -16.013135451463313 6.2538767383383629 0 6.2538767383383629 -9.3331540660734333 0 0 0 0 -16.464119773590937 8.2226035069967338 0 8.2226035069967338 -11.234027235001435 0 0 0 0 0.26741693710584524 -0.61152661785666496 0 -0.61152661785666496 -0.19755573307910618 0 0 0 0 -15.417806393035789 3.8155951933937899 0 3.8155951933937899 6.3503244231864215 0 0 0 0 -11.599267351708477 10.584214746339256 0 10.584214746339256 -11.686264136196883 0 0 0 0 -0.0052237174595113345 3.3676541962680311 0 3.3676541962680311 -2.1612229631236959 0 0 0 0 -16.436552947012387 10.32833757065475 0 10.32833757065475 -0.80722680778520584 0 0 0 0 -6.4820782781971502 9.9332472264801481 0 9.9332472264801481 -1.7116382414436728 0 0 0 0 -4.8806403411186494 0.70852421897169915 0 0.70852421897169915 -0.18251562953425488 0 0 0 0 1.139385907095857 1.193616285491359 0 1.193616285491359 -2.0622836364751365 0 0 0 0 -10.762059894510458 4.4867330365307367 0 4.4867330365307367 -0.1519750487195779 0 0 0 0 -7.7978591990004134 5.4803397024836755 0 5.4803397024836755 -17.385038959970757 0 0 0 0 -1.4121327680786635 8.7594519854997088 0 8.7594519854997088 -15.314767468597324 0 0 0 0 1.0913211049182481 4.2717178562334386 0 4.2717178562334386 -1.958186456801251 0 0 0 0 0.88674541058753675 3.8201470093611078 0 3.8201470093611078 -11.563636497609878 0 0 0 0 -5.1090280839889601 9.6457818818070109 0 9.6457818818070109 -1.9172001432651768 0 0 0 0 -5.2296649204472487 5.925554726202563 0 5.925554726202563 -8.1546904830483982 0 0 0 0 -17.435051186221244 10.467144634840452 0 10.467144634840452 -7.2237501120130219 0 0 0 0 -18.341028703836855 8.5671171457152866 0 8.5671171457152866 -6.1406857677040989 0 0 0 0 -28.898234773096192 25.144502230966623 0 25.144502230966623 -12.926678508766145 0 0 0 0 -35.714934999345132 24.527036999957545 0 24.527036999957545 -13.106491897964617 0 0 0 0 -1.2672234627815726 -0.29444640770463426 0 -0.29444640770463426 -0.0611623410527386 0 0 0 0 112.76034650665588 201.58058226758362 0 201.58058226758362 -45.224978498043193 0 0 0 0 10.116457777061441 16.570930698223734 0 16.570930698223734 -12.641000421539999 0 0 0 0 -3.7715169912371289 -0.083816658422332324 0 -0.083816658422332324 1.3879347609441417 0 0 0 0 -25.700387183480416 -27.731415408598316 0 -27.731415408598316 -64.34310963471809 0 0 0 0 -61.882070734196532 1.3436232737707812 0 1.3436232737707812 -1.8771303552495375 0 0 0 0 -8.0200612598937369 14.488518183747516 0 14.488518183747516 11.045793369718607 0 0 0 0 -26.512467015829316 24.991210624956288 0 24.991210624956288 -20.991163046452591 0 0 0 0 -5.1437518168500205 0.66076761633826919 0 0.66076761633826919 -0.21764584156930411 0 0 0 0 -38.020980634826628 17.512640489507163 0 17.512640489507163 -4.9705390310930326 0 0 0 0 -1.2575370309514255 16.247755513443806 0 16.247755513443806 -5.5402878385112757 0 0 0 0 -95.517764659134173 26.65453013788742 0 26.65453013788742 5.7041493055104695 0 0 0 0 -57.404603874894747 -15.352699384003699 0 -15.352699384003699 -13.103799534820482 0 0 0 0 -41.013878521389415 -22.510358020532422 0 -22.510358020532422 45.311434049639743 0 0 0 0 8.3269102888298221 9.6790209065672386 0 9.6790209065672386 -22.907739624611793 0 0 0 0 2.3176770276845815 3.8246246269952167 0 3.8246246269952167 -3.9410374205897689 0 0 0 0 1.9931553904949695 3.0845735044833642 0 3.0845735044833642 -4.7074002731495206 0 0 0 0 -1.3067346744410351 0.97974484087655966 0 0.97974484087655966 -0.50641744321146875 0 0 0 0 -78.991242813654026 27.496237381871595 0 27.496237381871595 -2.5398452647233398 0 0 0 0 -42.273632296654796 -14.960033924102522 0 -14.960033924102522 -16.252426168762906 0 0 0 0 -53.634444517503653 35.040598784719919 0 35.040598784719919 -10.494624443961925 0 0 0 0 -53.892217849912868 19.555911892551286 0 19.555911892551286 0.72245702106101817 0 0 0 0 -27.0813235913065 14.469486130559289 0 14.469486130559289 -17.707501369242664 0 0 0 0 -6.2052545764854585 -0.025074350150589453 0 -0.025074350150589453 -12.34713999153422 0 0 0 0 -1.8140597073956037 1.206601515252137 0 1.206601515252137 -0.38391420867505799 0 0 0 0 -11.845425153376709 11.615984617057677 0 11.615984617057677 -2.2928241036959207 0 0 0 0 -12.902348997906302 26.391498304815173 0 26.391498304815173 -11.325209673106656 0 0 0 0 -24.860633038712876 10.010359767014762 0 10.010359767014762 14.713020405494262 0 0 0 0 -21.248688672745629 10.865484356513889 0 10.865484356513889 -5.3176625913631597 0 0 0 0 -13.543750862183515 20.582068374975279 0 20.582068374975279 -13.838036968279198 0 0 0 0 -18.621284722781638 15.038244817299415 0 15.038244817299415 -17.650612401365606 0 0 0 0 -29.486989887893287 22.139894791001552 0 22.139894791001552 -19.044225636004114 0 0 0 0 -20.215176602483552 8.344979611620488 0 8.344979611620488 -22.9046147235631 0 0 0 0 -39.051502028924006 24.96447664551215 0 24.96447664551215 -18.130682015996598 0 0 0 0 -67.220278525743197 16.073205263407317 0 16.073205263407317 -14.311401384741885 0 0 0 0 -33.245494550879812 15.094444233729519 0 15.094444233729519 -30.22231763568243 0 0 0 0 -129.14880120647831 28.860032616076978 0 28.860032616076978 -13.948845778026225 0 0 0 0 -62.340616377014157 27.65566252062149 0 27.65566252062149 -29.198436600865762 0 0 0 0 -135.86060003825696 -56.27184951391564 0 -56.27184951391564 -47.533418826940306 0 0 0 0 110.83288266265299 30.05977317731049 0 30.05977317731049 -129.1683663528097 0 0 0 0 -33.59687558261794 64.067927614560176 0 64.067927614560176 0.88602771186742757 0 0 0 0 -47.69749757266618 79.310298064553535 0 79.310298064553535 76.458313311452912 0 0 0 0 -44.513321457826464 31.785253560287238 0 31.785253560287238 -24.269627218057394 0 0 0 0 -47.269653810806631 -18.110076246533481 0 -18.110076246533481 -54.170334146868299 0 0 0 0 -76.369289618785842 20.361969968646918 0 20.361969968646918 -27.393769725425955 0 0 0 0 -143.75833400662304 19.235883325884743 0 19.235883325884743 -19.959314566675857 0 0 0 0 -66.604330367639704 4.2143103399162101 0 4.2143103399162101 -31.348609404329636 0 0 0 0 -27.715034562923393 22.252387721222249 0 22.252387721222249 -20.8093665694023 0 0 0 0 -43.87048525971295 30.228611124517215 0 30.228611124517215 -23.000679671067246 0 0 0 0 -38.851784632075578 28.507853644794977 0 28.507853644794977 9.1048493339757783 0 0 0 0 -39.325792359801881 39.053124760434102 0 39.053124760434102 7.2429607692574791 0 0 0 0 -37.33801651649992 25.004657807433432 0 25.004657807433432 -17.984525814767949 0 0 0 0 -26.843917675111243 27.921706440645195 0 27.921706440645195 -11.493837176129091 0 0 0 0 -22.098188607464181 19.932942469077034 0 19.932942469077034 -1.21656837479145 0 0 0 0 -21.272991162893959 4.2459076259581252 0 4.2459076259581252 10.099959383015971 0 0 0 0 -31.975777123595662 18.214010431601508 0 18.214010431601508 -0.82714175027058445 0 0 0 0 -33.372236888897078 12.471280392219541 0 12.471280392219541 32.176325052011634 0 0 0 0 -38.668287501192026 15.603486124723872 0 15.603486124723872 48.212729110791088 0 0 0 0 -10.288657908478854 -20.209551298378528 0 -20.209551298378528 23.843687334029937 0 0 0 0 -6.581941613228202 0.29987256272379881 0 0.29987256272379881 1.7151787383559292 0 0 0 0 -42.267983094257943 19.75793539049846 0 19.75793539049846 53.938505184344649 0 0 0 0 -33.590538036020007 -0.79397130925917736 0 -0.79397130925917736 16.56447621434404 0 0 0 0 -65.443344359671755 34.609589349798171 0 34.609589349798171 100.42463447384353 0 0 0 0 -33.67365551586731 -16.784047321878926 0 -16.784047321878926 71.674834116683996 0 0 0 0 -5.4068641293961264 12.851331715602612 0 12.851331715602612 -12.105000908554302 0 0 0 0 -12.096678253861683 11.257827994968096 0 11.257827994968096 -6.7311156857620631 0 0 0 0 -23.350752540964095 16.284050247604455 0 16.284050247604455 -7.3920374475767403 0 0 0 0 1.9056277908370323 3.1551986837570869 0 3.1551986837570869 -3.8167271547912511 0 0 0 0 -23.039400333087542 9.8476932446022829 0 9.8476932446022829 -4.3209439748901559 0 0 0 0 -26.034342116920925 13.380506767379529 0 13.380506767379529 1.2525180318741604 0 0 0 0 -11.038989411668808 6.3417006870010653 0 6.3417006870010653 -1.5066267787437937 0 0 0 0 -5.925357921871182 3.7544658249422582 0 3.7544658249422582 -9.7926961416789595 0 0 0 0 -0.43597009113923235 -0.9385304347772756 0 -0.9385304347772756 -0.88411973971710811 0 0 0 0 -524.1544523360983 229.17556914813036 0 229.17556914813036 8.9234098855704715 0 0 0 0 -132.23203749110689 38.058488877806489 0 38.058488877806489 -13.985367143592809 0 0 0 0 -9.7329367898446435 9.7225398104720284 0 9.7225398104720284 -8.0994361328814648 0 0 0 0 -197.21349721206479 149.62247840482854 0 149.62247840482854 -47.882093586019856 0 0 0 0 -92.391556475664856 66.65463646107348 0 66.65463646107348 -24.2849263977064 0 0 0 0 -238.75042944357938 46.776906833699229 0 46.776906833699229 14.802011867193514 0 0 0 0 -242.80648307071965 37.697304022284527 0 37.697304022284527 30.198180101026594 0 0 0 0 -250.16981161755575 17.819198505922451 0 17.819198505922451 3.708278310830579 0 0 0 0 -362.6312249205148 36.088322355595025 0 36.088322355595025 43.537005985630337 0 0 0 0 -161.61705649887244 23.753941690478115 0 23.753941690478115 2.3260629132058881 0 0 0 0 -96.059459421956035 5.9132969975764453 0 5.9132969975764453 -6.6755993720309164 0 0 0 0 -436.07321514933619 94.89201437704584 0 94.89201437704584 89.75308162153533 0 0 0 0 -443.80489084605233 83.531855712012387 0 83.531855712012387 73.289702467522929 0 0 0 0 -359.81335751074948 41.885598253202168 0 41.885598253202168 38.276763566492988 0 0 0 0 -360.63652677750088 97.323595328922778 0 97.323595328922778 57.033805643329288 0 0 0 0 -371.39002959393292 72.656999864813059 0 72.656999864813059 69.7597514121004 0 0 0 0 -475.42811932930545 148.3080805757447 0 148.3080805757447 63.796262304324742 0 0 0 0 -386.47094996515625 80.270334668986791 0 80.270334668986791 65.926884022545408 0 0 0 0 -387.41578463252699 105.27341909026966 0 105.27341909026966 54.839663483021496 0 0 0 0 -500.13842313138389 74.947183111889416 0 74.947183111889416 -221.45886348130762 0 0 0 0 -333.70978261557411 269.77842574700384 0 269.77842574700384 -136.00964870621092 0 0 0 0 -127.39040669278347 159.284187367241 0 159.284187367241 -150.56098563718831 0 0 0 0 -3.9670700957832814 0.046449136695859261 0 0.046449136695859261 -0.57966694148836229 0 0 0 0 -21.037672425845813 -37.219866347393079 0 -37.219866347393079 -141.51526098300968 0 0 0 0 -302.14060796066997 331.85726243849558 0 331.85726243849558 -318.71869489426035 0 0 0 0 -1.8500226443817809 1.4132058811879986 0 1.4132058811879986 0.096272553555076412 0 0 0 0 -109.5233164697629 -257.41361428649395 0 -257.41361428649395 -160.82929595779629 0 0 0 0 -8.859247678145266 1.9961991169952 0 1.9961991169952 -6.1311215634432301 0 0 0 0 -10.01503185567617 7.037206676111964 0 7.037206676111964 -5.8250396059438572 0 0 0 0 -221.74812999045025 136.51660893787249 0 136.51660893787249 -38.037403697768113 0 0 0 0 -116.69432198475749 58.849679254361313 0 58.849679254361313 -92.545608359338473 0 0 0 0 -1.8642331504287419 -0.50987506037580843 0 -0.50987506037580843 -2.098191144073676 0 0 0 0 86.319350713211861 62.522082327739994 0 62.522082327739994 -110.13962397126437 0 0 0 0 -15.21144386771266 3.4436814346034907 0 3.4436814346034907 19.224345773529436 0 0 0 0 -7.1478208537417878 1.8140970562810574 0 1.8140970562810574 0.79118615497045941 0 0 0 0 -8.74152615737421 14.584153949165312 0 14.584153949165312 -7.6003034425195892 0 0 0 0 -11.791481830565317 10.930111546444884 0 10.930111546444884 2.4721618462233579 0 0 0 0 -8.0482890561689047 2.888110406182002 0 2.888110406182002 0.14389275621672304 0 0 0 0 3.0137621148187463 18.426011272097028 0 18.426011272097028 -5.0791569926919351 0 0 0 0 -2.5976957541219576 1.2964822926521284 0 1.2964822926521284 -0.56675248051242644 0 0 0 0 0.29904852140407456 15.284225536964986 0 15.284225536964986 9.1775525062770793 0 0 0 0 -2.4669245164259337 -1.2934160555282688 0 -1.2934160555282688 -11.622772561466491 0 0 0 0 -4.8656183288303509 9.6699835855192759 0 9.6699835855192759 -16.073909714017134 0 0 0 0 -2.7113807118948898 -2.6863395874085896 0 -2.6863395874085896 -15.096942327455324 0 0 0 0 -154.87311771905024 -19.839938636584371 0 -19.839938636584371 21.682767786094487 0 0 0 0 -1.0114524284867379 0.33583457558680108 0 0.33583457558680108 -0.1470648649757389 0 0 0 0 -30.890207368411211 40.778957922913861 0 40.778957922913861 -29.855794038473974 0 0 0 0 -171.83719091080229 24.1081308125768 0 24.1081308125768 2.3584234666298727 0 0 0 0 -3.7540300748653408 -24.458257870722427 0 -24.458257870722427 -10.043263349121709 0 0 0 0 10.741735642693129 9.9715675744113064 0 9.9715675744113064 -18.315291946525875 0 0 0 0 -2.2763577232606949 -1.3032791811442648 0 -1.3032791811442648 -1.0208962449129286 0 0 0 0 -3.0443108133495116 -1.7300458144163713 0 -1.7300458144163713 -0.066153625840669861 0 0 0 0 -280.38613539200924 -109.05307972442452 0 -109.05307972442452 0.80355743712077299 0 0 0 0 -130.09987177866969 -60.128218212563738 0 -60.128218212563738 -53.479490409845965 0 0 0 0 -1022.3964474500817 -76.518463813358551 0 -76.518463813358551 -53.660102071051917 0 0 0 0 -116.40634771657096 -96.249144519859541 0 -96.249144519859541 13.858434006572963 0 0 0 0 -500.05780930819537 3.2281935524306893 0 3.2281935524306893 71.544419437336856 0 0 0 0 -483.05207674671328 -47.712347722966598 0 -47.712347722966598 -42.607489516654077 0 0 0 0 -289.9058793450854 169.86100981475187 0 169.86100981475187 -50.29276684704498 0 0 0 0 -1.8373435863246339 -0.8592507753446057 0 -0.8592507753446057 -0.57787231796721172 0 0 0 0 -27.698561081460866 -75.239459419339369 0 -75.239459419339369 -70.484567855994499 0 0 0 0 -51.255479731838022 -29.281159788490825 0 -29.281159788490825 -25.029438573836956 0 0 0 0 -2.0732905595177726 -2.6368948345270837 0 -2.6368948345270837 1.279082984732554 0 0 0 0 -2.5311219328344858 -0.93717432629191944 0 -0.93717432629191944 -0.41202297876477317 0 0 0 0 -1.9063805145313424 -1.2238789792084597 0 -1.2238789792084597 -0.66159775513032915 0 0 0 0 -2.9266612681130386 -1.2664288878555467 0 -1.2664288878555467 -0.42993340219251153 0 0 0 0 -1.2357393686077753 -0.45081713343009344 0 -0.45081713343009344 0.76008490345131852 0 0 0 0 -0.58216599462093654 3.7884604856266151 0 3.7884604856266151 5.184927699177365 0 0 0 0 -1.5240372286248203 -1.0585442020522073 0 -1.0585442020522073 0.12045397161608662 0 0 0 0 7.4796440419722785 4.8492782672182688 0 4.8492782672182688 1.4698627212382867 0 0 0 0 -3.2461235499895338 7.2521370037911055 0 7.2521370037911055 0.93313932439116343 0 0 0 0 -11.298633862097631 34.062021815512345 0 34.062021815512345 -3.2074105998639482 0 0 0 0 -8.6673085656311741 1.525803618064856 0 1.525803618064856 40.012250042959153 0 0 0 0 7.7240538573337005 3.5869141383673941 0 3.5869141383673941 -49.363468225873326 0 0 0 0 -29.795197245486634 -35.359335411668908 0 -35.359335411668908 -19.388731870610926 0 0 0 0 -7.3286741685205925 -3.3551786203204514 0 -3.3551786203204514 18.866228336177898 0 0 0 0 9.351223210623175 -5.8081289072969327 0 -5.8081289072969327 -12.473064114360852 0 0 0 0 -0.048927356060707083 -0.79211495903695628 0 -0.79211495903695628 -0.045849679751533451 0 0 0 0 11.689297778199034 -3.6625775016213993 0 -3.6625775016213993 -6.9291671169691842 0 0 0 0 -4.0830120111108528 -2.3401027813608195 0 -2.3401027813608195 0.5014814907561389 0 0 0 0 -22.456133862236129 -6.6796522646129404 0 -6.6796522646129404 -3.3255739145484 0 0 0 0 -76.642928049199782 50.722194346467688 0 50.722194346467688 -28.646302455790789 0 0 0 0 0.51708907267598114 -0.79174837785714336 0 -0.79174837785714336 -0.036211243062473114 0 0 0 0 -255.59981515411573 -42.676877876271142 0 -42.676877876271142 65.402342672276617 0 0 0 0 -500.07178722949902 28.073691316814834 0 28.073691316814834 93.454939667665997 0 0 0 0 -421.11282208505304 81.107098849323293 0 81.107098849323293 64.800583405239806 0 0 0 0 -479.05502583146745 61.72584700607436 0 61.72584700607436 -71.324357330909308 0 0 0 0 -299.39797317033845 -131.86290726856865 0 -131.86290726856865 -40.93964738162547 0 0 0 0 -487.24146358803188 -66.932886472224794 0 -66.932886472224794 97.223218374505649 0 0 0 0 -309.77600369793799 4.3412425218002397 0 4.3412425218002397 68.776508924579545 0 0 0 0 -31.65015897350122 -24.83136858490829 0 -24.83136858490829 -36.227914458726517 0 0 0 0 -8.4695795644820464 -3.1937159537446291 0 -3.1937159537446291 -0.42816777115862337 0 0 0 0 -8.2590146134114093 -5.2646985260802639 0 -5.2646985260802639 0.84083763558381719 0 0 0 0 -5.1506327998102961 -0.97681057382434311 0 -0.97681057382434311 0.099605511266872782 0 0 0 0 -6.7858941806350117 0.56435191722088174 0 0.56435191722088174 0.023423088804861436 0 0 0 0 -6.369591031224445 -1.3092548965589419 0 -1.3092548965589419 -1.0985279158814429 0 0 0 0 -8.9625473362416415 -3.8625490838165604 0 -3.8625490838165604 1.893627615641627 0 0 0 0 -0.98013693617474251 -0.81089881305175027 0 -0.81089881305175027 0.34338334570684714 0 0 0 0 -1.7141943931624533 -0.5774259613039936 0 -0.5774259613039936 -0.28698419512769402 0 0 0 0 -8.1882902343062351 -0.68245765131229019 0 -0.68245765131229019 0.18933019113866228 0 0 0 0 12.934969923851469 0.82976671208342623 0 0.82976671208342623 -5.9501449413925229 0 0 0 0 -31.834993275844141 -1.5913835651743966 0 -1.5913835651743966 24.535597492875468 0 0 0 0 -1.2093300884545317 0.9978294296204 0 0.9978294296204 -0.81166507858619008 0 0 0 0 13.283761777614785 6.3396550504775178 0 6.3396550504775178 1.5186364523348175 0 0 0 0 -0.37562870683359506 2.1916191963452434 0 2.1916191963452434 -3.5220804490774071 0 0 0 0 0.0049567486932042826 0.0097065539546148383 0 0.0097065539546148383 -0.18854040423946666 0 0 0 0 -6.793110565150978 1.9857867716220039 0 1.9857867716220039 -0.58574890311647632 0 0 0 0 -31.216558116034605 -20.281378363307795 0 -20.281378363307795 -2.1963619764765099 0 0 0 0 -9.0863835756131266 -5.5396933389730236 0 -5.5396933389730236 3.5751623608159235 0 0 0 0 -16.469394294235713 3.0669106357133273 0 3.0669106357133273 21.754053360304852 0 0 0 0 9.5482708821032816 0.88983892694818678 0 0.88983892694818678 -18.238187314072661 0 0 0 0 -1.9952125076503515 -0.66285636877660115 0 -0.66285636877660115 0.4391560740058692 0 0 0 0 -13.743830483961574 0.15156745488696721 0 0.15156745488696721 7.1149408798814902 0 0 0 0 -6.1078983877684436 -13.498558761941581 0 -13.498558761941581 8.7764556846628921 0 0 0 0 -8.7941735694847836 -0.17328986502571464 0 -0.17328986502571464 0.2973355902788235 0 0 0 0 -9.1284109668972633 0.35655303894841595 0 0.35655303894841595 3.1938983626989774 0 0 0 0 -3.7244577746400864 -2.4563377631398566 0 -2.4563377631398566 2.1781826472418686 0 0 0 0 -4.59023685676806 -1.3777910314996014 0 -1.3777910314996014 0.50809285069601229 0 0 0 0 0.391491761953489 1.0057295455798467 0 1.0057295455798467 -0.18130797146420718 0 0 0 0 -7.5414191864829263 5.1618014376294568 0 5.1618014376294568 -0.80175630835508116 0 0 0 0 -15.036799929685913 0.69404493573166803 0 0.69404493573166803 3.1930848334540087 0 0 0 0 -10.148730470956934 2.051950318864626 0 2.051950318864626 3.5440939209579021 0 0 0 0 -23.467037108243858 5.8178989715767884 0 5.8178989715767884 0.73369635301413894 0 0 0 0 -9.9237455809334278 5.7471779119976532 0 5.7471779119976532 -16.657872124664607 0 0 0 0 -6.4423573959784335 -2.4133991731453364 0 -2.4133991731453364 -0.28129383220324833 0 0 0 0 -3.2482908771567054 -9.0813689328664111 0 -9.0813689328664111 8.6290011845667607 0 0 0 0 2.9808269788559301 -2.2481513409711624 0 -2.2481513409711624 -6.5349692485826267 0 0 0 0 -1.2434289067505233 -0.055536694855277347 0 -0.055536694855277347 -4.7595297401076664 0 0 0 0 -26.755854905155502 -7.7224755234177564 0 -7.7224755234177564 -4.9165140594847685 0 0 0 0 9.4970718499039322 15.515679579149449 0 15.515679579149449 -7.1047411631292903 0 0 0 0 -0.097767814483264104 0.12017798840981353 0 0.12017798840981353 -0.097891621319821875 0 0 0 0 -37.700483251695914 0.98119862188940488 0 0.98119862188940488 7.0013865771173727 0 0 0 0 5.4147684055133141 6.1980413662085709 0 6.1980413662085709 6.497025152667959 0 0 0 0 -34.612028053980566 3.3955909661878536 0 3.3955909661878536 5.5002746218733307 0 0 0 0 -21.76882346908765 -11.663248002595685 0 -11.663248002595685 -5.7406286785898573 0 0 0 0 -3.8569272049330721 4.7698359750195465 0 4.7698359750195465 -8.3142902125821223 0 0 0 0 -0.26514818623346237 -0.062333898345419581 0 -0.062333898345419581 -0.17649760984496488 0 0 0 0 -2.862179401784033 1.3095746016332299 0 1.3095746016332299 7.8718308409520432 0 0 0 0 -0.4100173982883053 0.17607203610015176 0 0.17607203610015176 -0.32929670252937304 0 0 0 0 -4.2773267261302408 -2.433101757430066 0 -2.433101757430066 7.0415237936719564 0 0 0 0 -3.27982208928006 -1.2209043123238814 0 -1.2209043123238814 -2.5433862991793319 0 0 0 0 -0.59850429767542845 -0.25363907074249958 0 -0.25363907074249958 0.71258322854797296 0 0 0 0 -2.9423504169724071 0.067322527977902169 0 0.067322527977902169 0.42864787450158359 0 0 0 0 -8.6482712535798782 2.7484783088580969 0 2.7484783088580969 7.7178629020476137 0 0 0 0 -7.7342128044108449 -1.2284412393313673 0 -1.2284412393313673 17.845934061746163 0 0 0 0 -26.488462258891559 13.947260044115779 0 13.947260044115779 21.314250622325162 0 0 0 0 -4.2067236376105939 1.7123740906578462 0 1.7123740906578462 -33.643812044470224 0 0 0 0 -13.936521285213075 -12.792825891168178 0 -12.792825891168178 3.734959949066706 0 0 0 0 -1.580138086991147 -0.2570577825785465 0 -0.2570577825785465 -0.82321247920458784 0 0 0 0 -9.8243923811237437 20.735097798805299 0 20.735097798805299 -6.9981989770576547 0 0 0 0 0.16242710897631696 16.453258533621522 0 16.453258533621522 -10.819385888500378 0 0 0 0 -1.0439127713251786 -1.2111577802479476 0 -1.2111577802479476 0.26970887562877971 0 0 0 0 -13.224075314693437 23.480623711592898 0 23.480623711592898 -9.8429155938564463 0 0 0 0 -8.2620081608883993 2.1520315872640339 0 2.1520315872640339 -13.362703783571988 0 0 0 0 -9.8820688999159181 -1.4973211969183797 0 -1.4973211969183797 0.60164752136667488 0 0 0 0 -28.056049321870887 0.17031395070489452 0 0.17031395070489452 7.3306595052285957 0 0 0 0 -3.1836877086709592 -1.259320036204052 0 -1.259320036204052 -0.5399858153518835 0 0 0 0 -2.8850595481981332 0.52281540947299376 0 0.52281540947299376 -1.3379964511547644 0 0 0 0 8.056642625789209 1.9301551706319726 0 1.9301551706319726 -2.948551898431667 0 0 0 0 -6.029758511900468 -1.4267672923799992 0 -1.4267672923799992 1.0449160801917969 0 0 0 0 -3.8124551302597744 0.08646823594845543 0 0.08646823594845543 -0.18750726441604249 0 0 0 0 -5.001644067892995 -1.2331356782039031 0 -1.2331356782039031 0.30629996847221841 0 0 0 0 -6.3318219247348679 1.4325571544335958 0 1.4325571544335958 0.24536063901966543 0 0 0 0 -3.7693609435518738 0.99515700119954431 0 0.99515700119954431 -0.84042459134471414 0 0 0 0 -4.4501880582800695 -0.04059394940025296 0 -0.04059394940025296 -0.35773837481697113 0 0 0 0 -7.6227206903392357 -27.479202040083344 0 -27.479202040083344 7.7042241099253488 0 0 0 0 -5.9765855692194236 -3.3455508092730497 0 -3.3455508092730497 1.3076526202173397 0 0 0 0 -5.6964165603220884 -0.18995090811118942 0 -0.18995090811118942 -0.27012778064135157 0 0 0 0 -25.052528288893654 11.324173239628692 0 11.324173239628692 7.229212958900689 0 0 0 0 -6.0136929736935478 -0.56990084865674273 0 -0.56990084865674273 0.090032122049186758 0 0 0 0 -2.9924424431698036 -1.3172596244979671 0 -1.3172596244979671 -1.2290626742942934 0 0 0 0 -8.0340850889089097 3.6959108111661152 0 3.6959108111661152 -2.9056245572127182 0 0 0 0 -8.1471035316080815 -3.4130867667136613 0 -3.4130867667136613 3.6937572117831223 0 0 0 0 -6.0941457193011956 0.22197345608560681 0 0.22197345608560681 -1.2557832967451077 0 0 0 0 -9.4110244245948707 1.9920025212944665 0 1.9920025212944665 0.64734734780813596 0 0 0 0 -5.3958295520456723 0.5055982398094705 0 0.5055982398094705 -0.64278371927048328 0 0 0 0 -9.7715871856789818 -0.83740147963754907 0 -0.83740147963754907 0.52612554711663506 0 0 0 0 -8.9406988328487387 2.2039927109211419 0 2.2039927109211419 -2.5169704817742513 0 0 0 0 -4.8078134056631825 -0.34651717680799266 0 -0.34651717680799266 1.4505791504188892 0 0 0 0 -0.3001437891593195 -0.14970606975882639 0 -0.14970606975882639 0.10399815209978969 0 0 0 0 -11.34951425327381 0.66899789313106339 0 0.66899789313106339 -0.16423993824781746 0 0 0 0 -2.0666386357563971 1.8594339206176418 0 1.8594339206176418 -0.10743533306495956 0 0 0 0 -3.3479598666272068 4.8801707965344576 0 4.8801707965344576 -4.1653746283018336 0 0 0 0 -15.166280360806013 4.7108510781268933 0 4.7108510781268933 0.6608834920647837 0 0 0 0 -9.4831429527448563 7.9397936905351116 0 7.9397936905351116 -5.0339549959140584 0 0 0 0 -2.6372151018728918 2.4268389752436654 0 2.4268389752436654 -2.5197195851205709 0 0 0 0 -14.273583908363889 1.9712799277847353 0 1.9712799277847353 2.499250402005373 0 0 0 0 -8.1107677465943198 -0.059314178235524651 0 -0.059314178235524651 -2.8367692846188675 0 0 0 0 -4.6458177637350673 3.7554204064186933 0 3.7554204064186933 1.3196485855686433 0 0 0 0 -15.432285204923307 0.88850382706783493 0 0.88850382706783493 -0.010411889928450435 0 0 0 0 -24.369740146100412 6.4309791012898359 0 6.4309791012898359 1.3836626095364863 0 0 0 0 -5.1307934418496188 3.3587780493750188 0 3.3587780493750188 -6.557268244255738 0 0 0 0 -8.4468644239350397 4.1400203154965993 0 4.1400203154965993 -1.2788936098152988 0 0 0 0 -0.85453401835850684 4.1986773836008826 0 4.1986773836008826 -3.2263285048773165 0 0 0 0 31.478322069511705 -11.005040592081514 0 -11.005040592081514 -1.4197926114511574 0 0 0 0 -17.206019106721214 9.1866900295563028 0 9.1866900295563028 10.656901639933494 0 0 0 0 -2.4691762266180675 -0.11563551841019404 0 -0.11563551841019404 0.54879183993259772 0 0 0 0 2.6025442483839987 -6.409674323931835 0 -6.409674323931835 -2.1580213017561616 0 0 0 0 124.67875361620827 -14.552495215496492 0 -14.552495215496492 -3.4687905570363 0 0 0 0 -65.626135562190029 -110.70291953212791 0 -110.70291953212791 50.936067497744148 0 0 0 0 13.558109861668527 -31.698966119913734 0 -31.698966119913734 -6.1138029124890636 0 0 0 0 -1.21136090927935 -3.3440300684401167 0 -3.3440300684401167 -0.11304393200700602 0 0 0 0 -11.079634149098638 3.2294961341663111 0 3.2294961341663111 -5.2599859396027568 0 0 0 0 -107.66741775572336 -17.00361461393473 0 -17.00361461393473 56.680121984153629 0 0 0 0 -4.7341712906218163 -9.3546160301850136 0 -9.3546160301850136 1.2995150523229313 0 0 0 0 -59.542875855449893 35.937415752811944 0 35.937415752811944 -6.1048207728249508 0 0 0 0 -0.61338914838443159 -0.66400173409930296 0 -0.66400173409930296 -0.60063615084084909 0 0 0 0 -26.471128598132054 -1.4322682706075511 0 -1.4322682706075511 15.276662476207434 0 0 0 0 -18.542398511562993 -1.1439807931508728 0 -1.1439807931508728 0.87699680517500567 0 0 0 0 -44.474827798188926 -14.584423565449356 0 -14.584423565449356 12.065780611041873 0 0 0 0 -16.861416237192316 -5.4718419930771915 0 -5.4718419930771915 1.5784289175157937 0 0 0 0 49.940396352097196 51.596012778515615 0 51.596012778515615 -69.506820683232661 0 0 0 0 -9.968429521128753 -3.5547009247358963 0 -3.5547009247358963 0.71356548111367291 0 0 0 0 -109.06828583025163 31.067599831563996 0 31.067599831563996 -264.31463274433099 0 0 0 0 -26.433916015046496 -2.4953192895893563 0 -2.4953192895893563 0.51821826256105818 0 0 0 0 -27.772949597003389 22.713545880691413 0 22.713545880691413 31.279382504517486 0 0 0 0 -35.8528371276916 9.5951240579770456 0 9.5951240579770456 2.5388815178883988 0 0 0 0 -3.6298216580507869 9.7410048902694371 0 9.7410048902694371 -7.3071125120575289 0 0 0 0 -19.083670069136133 36.974468096570945 0 36.974468096570945 30.719025416822319 0 0 0 0 -13.753490572374176 37.833343540894703 0 37.833343540894703 30.470217799500006 0 0 0 0 -22.684680583055524 32.489038169026685 0 32.489038169026685 35.631538357230056 0 0 0 0 -21.924556590001998 41.520854909787502 0 41.520854909787502 57.44773553210598 0 0 0 0 -20.936595106972163 33.135851242420813 0 33.135851242420813 40.18590324299339 0 0 0 0 -9.1850199588479882 48.577167303327542 0 48.577167303327542 51.662548032234895 0 0 0 0 -19.896792838615511 44.424999614557009 0 44.424999614557009 53.733758224316261 0 0 0 0 -12.179832643839291 37.942010171949391 0 37.942010171949391 34.911346676742596 0 0 0 0 -108.56626316158236 11.082192115301808 0 11.082192115301808 89.627203556443874 0 0 0 0 -51.113441716268426 13.098206110926185 0 13.098206110926185 33.92179958596455 0 0 0 0 -84.117217246071959 42.982473585053867 0 42.982473585053867 131.22699511740348 0 0 0 0 -32.156208829404932 37.893752823575596 0 37.893752823575596 59.019727936692675 0 0 0 0 -333.57870339239514 -311.5530860691764 0 -311.5530860691764 -63.828420130127029 0 0 0 0 -51.64495922016431 85.279659789588322 0 85.279659789588322 140.98277057500246 0 0 0 0 -1.8537465468593783 0.40853688419144873 0 0.40853688419144873 0.35465730137611029 0 0 0 0 21.732873847678093 117.17912761079003 0 117.17912761079003 106.55874202489019 0 0 0 0 -1.5610312581211474 76.472027998567 0 76.472027998567 81.852535617255853 0 0 0 0 -24.00693224096176 55.02848469258538 0 55.02848469258538 87.937210834237703 0 0 0 0 -8.8186883074249636 57.635775501776266 0 57.635775501776266 71.292918724388073 0 0 0 0 12.995790719800425 81.705774036454159 0 81.705774036454159 85.223563967186692 0 0 0 0 -4.8943740886959404 60.935403574168106 0 60.935403574168106 66.410815324432861 0 0 0 0 -11.730431386819191 -7.9949218517116449 0 -7.9949218517116449 -3.5551287133794176 0 0 0 0 -1.9052937021958054 -1.9057728328136347 0 -1.9057728328136347 -0.88963107527901908 0 0 0 0 11.82123241730369 21.769761179089073 0 21.769761179089073 58.789425296694731 0 0 0 0 16.601364253316206 35.028768191463541 0 35.028768191463541 54.581840883546647 0 0 0 0 10.616948411148087 6.5307666343046833 0 6.5307666343046833 46.647636782238351 0 0 0 0 24.775291853453382 9.6203302950802367 0 9.6203302950802367 66.000673723746331 0 0 0 0 75.332853419614366 84.219921348368871 0 84.219921348368871 56.876767844787423 0 0 0 0 46.43187318274795 37.990189445002443 0 37.990189445002443 58.302834984424408 0 0 0 0 90.121138394677473 49.651824277896026 0 49.651824277896026 45.505297975884332 0 0 0 0 39.516273445220577 27.959367432906902 0 27.959367432906902 50.950464314344345 0 0 0 0 36.776401122842799 61.596279825662805 0 61.596279825662805 66.075823797894827 0 0 0 0 6.1542424010108334 21.503487373520812 0 21.503487373520812 44.609177949854711 0 0 0 0 29.105386457746135 50.08930141542703 0 50.08930141542703 51.500331457463972 0 0 0 0 14.237493169122899 52.127667585991276 0 52.127667585991276 58.450750707086172 0 0 0 0 -1.0170888115944763 41.03549929307917 0 41.03549929307917 45.226671196366169 0 0 0 0 -12.02421587603385 34.339604547925774 0 34.339604547925774 51.503104142613211 0 0 0 0 -8.2444625418138457 23.842963025639619 0 23.842963025639619 46.721392261065375 0 0 0 0 -8.4797353377234685 13.28685455575669 0 13.28685455575669 45.977518240443032 0 0 0 0 -4.7370561292646016 2.0519227135139317 0 2.0519227135139317 29.769815553328726 0 0 0 0 -17.41591548080487 4.9229654715196602 0 4.9229654715196602 30.07429710161523 0 0 0 0 -15.70162246910877 -2.8298345792659347 0 -2.8298345792659347 13.93547352260066 0 0 0 0 -25.438946934910746 15.639531677157777 0 15.639531677157777 33.412536598687893 0 0 0 0 -32.635647000330209 -6.9922066810763681 0 -6.9922066810763681 15.175446026342797 0 0 0 0 -26.233820558721163 0.73788188172989067 0 0.73788188172989067 6.4716274423494724 0 0 0 0 -14.493161144609985 -4.9741146465851216 0 -4.9741146465851216 -8.0018675079154491 0 0 0 0 -16.277055259040935 25.62905250683616 0 25.62905250683616 30.059355843098729 0 0 0 0 -22.02133652104385 39.595912553545986 0 39.595912553545986 50.509114066615439 0 0 0 0 -11.614638446881145 13.130125131197474 0 13.130125131197474 32.314647569635554 0 0 0 0 -11.523251372562299 36.613804999803733 0 36.613804999803733 46.942447974430706 0 0 0 0 -33.532258377535072 26.017083396368406 0 26.017083396368406 33.573948556542291 0 0 0 0 -39.954285629479273 0.30167509717875873 0 0.30167509717875873 22.411861607126639 0 0 0 0 -31.497876046661986 37.143698850797136 0 37.143698850797136 34.411942038430425 0 0 0 0 -37.176211426456575 13.599111215886069 0 13.599111215886069 19.422617081146427 0 0 0 0 -38.859666545256914 22.754603065961646 0 22.754603065961646 27.384242197497429 0 0 0 0 -24.738128207056434 -20.312110852968544 0 -20.312110852968544 -10.5295283107871 0 0 0 0 -73.73911867679999 -6.4830200276169307 0 -6.4830200276169307 10.941670724134156 0 0 0 0 -59.075147416748223 13.760298658639385 0 13.760298658639385 22.085680995953908 0 0 0 0 -43.079941513559788 -8.2463039016799939 0 -8.2463039016799939 -14.00130090669245 0 0 0 0 -55.499423313602165 30.072202299406626 0 30.072202299406626 -112.60684009615034 0 0 0 0 -64.26514739853701 -29.874305844282105 0 -29.874305844282105 -17.876689867426649 0 0 0 0 -4.4501779122053691 1.364160196133557 0 1.364160196133557 2.2683304012936247 0 0 0 0 -13.675139310107625 -13.487452276970316 0 -13.487452276970316 -26.440793447402712 0 0 0 0 -25.086726921068475 -20.060915197823988 0 -20.060915197823988 -16.202436282987264 0 0 0 0 -39.798261293126416 -8.2604574466754457 0 -8.2604574466754457 -20.824397136328116 0 0 0 0 -54.200632831674739 -7.9075777714856486 0 -7.9075777714856486 6.7426946393803746 0 0 0 0 -6.916374253871254 2.0046453504692181 0 2.0046453504692181 -32.520871870022575 0 0 0 0 -21.900564087554812 11.284974304415414 0 11.284974304415414 -16.923143386408015 0 0 0 0 -27.34263062672926 2.6630909282055768 0 2.6630909282055768 12.502639262179059 0 0 0 0 -7.5261045759070839 -5.4658167219095617 0 -5.4658167219095617 6.6207182948987793 0 0 0 0 -8.2728396594357037 -7.2493740717164883 0 -7.2493740717164883 -4.828815406179956 0 0 0 0 -16.761567989503419 -10.075313765183637 0 -10.075313765183637 7.6505586444859546 0 0 0 0 -11.184208740485701 1.5819492893125471 0 1.5819492893125471 -12.947851213935337 0 0 0 0 -28.795422114853864 4.3088065293588329 0 4.3088065293588329 23.726439860581422 0 0 0 0 -32.269299888911974 -2.5875784241030857 0 -2.5875784241030857 1.5822714527639619 0 0 0 0 -20.042763476096297 -3.3585462548996929 0 -3.3585462548996929 1.4579094405919903 0 0 0 0 -33.158246441332267 1.2365927745128147 0 1.2365927745128147 24.030655900281658 0 0 0 0 -17.615249909331396 -2.3579804881758264 0 -2.3579804881758264 34.315109544075881 0 0 0 0 -30.997930399709276 -4.5102925787118124 0 -4.5102925787118124 39.299790415097959 0 0 0 0 -18.544692475701595 3.3605489254525764 0 3.3605489254525764 29.567343655786544 0 0 0 0 -4.9630465384852869 -4.140504357687405 0 -4.140504357687405 33.657718135522487 0 0 0 0 -19.540699490886254 4.3936411652305196 0 4.3936411652305196 29.860512486537232 0 0 0 0 -13.696877039797982 -9.1749075539573823 0 -9.1749075539573823 20.180257457267999 0 0 0 0 -11.151473029716726 -3.9647175945262916 0 -3.9647175945262916 37.86280918118473 0 0 0 0 -17.492367173696039 7.411816181357608 0 7.411816181357608 48.853439233676681 0 0 0 0 1.5646548262375291 4.2304722155687386 0 4.2304722155687386 51.876876824526789 0 0 0 0 -7.3573937762296282 10.539078870047177 0 10.539078870047177 47.655047798210717 0 0 0 0 10.769036212085666 35.801802548721909 0 35.801802548721909 70.714729451494918 0 0 0 0 32.43477694243677 51.341876255079391 0 51.341876255079391 51.980296152782898 0 0 0 0 2.0619450367514673 24.416163045762332 0 24.416163045762332 66.993678725667223 0 0 0 0 -0.77667868009768881 6.9747095955285232 0 6.9747095955285232 43.367461456396313 0 0 0 0 -15.298608254285682 8.03275706381703 0 8.03275706381703 47.215924221669695 0 0 0 0 23.809606021821992 17.876608536926057 0 17.876608536926057 30.141378385175358 0 0 0 0 -4.514631824657954 21.500481584946328 0 21.500481584946328 34.495101526426197 0 0 0 0 -31.792972734015621 -14.436915064411721 0 -14.436915064411721 20.048801514283582 0 0 0 0 -14.547854709973763 8.2844792570092523 0 8.2844792570092523 41.157353424219593 0 0 0 0 -2.2970916530775867 13.499199653535015 0 13.499199653535015 1.0969460478822839 0 0 0 0 -33.314643811125279 40.661332481495947 0 40.661332481495947 23.238048011915282 0 0 0 0 -13.743083636726624 20.368669359990861 0 20.368669359990861 41.900927198724958 0 0 0 0 -69.172231288777311 3.8768410191761404 0 3.8768410191761404 26.287603886216516 0 0 0 0 43.762174793055237 16.780755824611674 0 16.780755824611674 23.462666784333123 0 0 0 0 -144.05628597811119 -178.40037317090736 0 -178.40037317090736 -161.67925635160179 0 0 0 0 -15.148418568309808 -6.6343645640701965 0 -6.6343645640701965 1.1153976385376652 0 0 0 0 -1.254557085126768 0.33495129059419027 0 0.33495129059419027 0.50182330962381183 0 0 0 0 -7.6434471217135069 1.9281158043812638 0 1.9281158043812638 -3.4611959988995977 0 0 0 0 -6.7706916706415683 -2.6010444950252545 0 -2.6010444950252545 -1.9357071984516097 0 0 0 0 -1.126443459661628 0.34121822005567282 0 0.34121822005567282 -0.55044929594679282 0 0 0 0 -15.31743263489534 -3.9632208783841634 0 -3.9632208783841634 -5.4111255936340967 0 0 0 0 -3.3387678398573151 -0.17772708784114322 0 -0.17772708784114322 0.81004944129833989 0 0 0 0 -7.390397544919324 -2.5206642270608199 0 -2.5206642270608199 -1.1694157080164587 0 0 0 0 -16.856522390964528 -11.460677733800054 0 -11.460677733800054 1.8748115529617735 0 0 0 0 -125.65502127198852 -198.83776236769847 0 -198.83776236769847 -296.88333984790916 0 0 0 0 -22.005305721308105 -2.6905303591383927 0 -2.6905303591383927 -4.7511967876725976 0 0 0 0 -10.438665629864772 -8.3454755531738556 0 -8.3454755531738556 -6.0320974303413095 0 0 0 0 -1.746029557562192 -3.0966537706300268 0 -3.0966537706300268 -1.5315227959751621 0 0 0 0 0.33367548057175433 -0.28680792699718405 0 -0.28680792699718405 -0.41587149279272628 0 0 0 0 -5.2082075322061279 1.8237832566345089 0 1.8237832566345089 0.75275090562901337 0 0 0 0 -233.97460229952503 -118.49348664183094 0 -118.49348664183094 -68.77821492716771 0 0 0 0 18.394643059411464 14.67917835898038 0 14.67917835898038 72.769234898769042 0 0 0 0 82.565408635463882 23.91572150912782 0 23.91572150912782 52.051031309832979 0 0 0 0 58.426697128665182 12.806928186153755 0 12.806928186153755 63.625557428681986 0 0 0 0 6.3118819750575312 -20.499027091333545 0 -20.499027091333545 43.398268110373692 0 0 0 0 0.60143678479698792 18.670152998770249 0 18.670152998770249 1.0019514025195804 0 0 0 0 -14.37095684189012 -10.907125797763264 0 -10.907125797763264 44.955769474848182 0 0 0 0 -29.496231382390306 14.598829340948129 0 14.598829340948129 30.751138868981172 0 0 0 0 -0.33191314773610259 -0.15607836054093566 0 -0.15607836054093566 0.015497047456270674 0 0 0 0 6.6714667814667337 -5.3521216900852124 0 -5.3521216900852124 28.295258409333741 0 0 0 0 -27.335783765181986 1.9799684662585832 0 1.9799684662585832 8.6361438945131113 0 0 0 0 -29.183449059382326 16.434776974839711 0 16.434776974839711 4.7016664471556169 0 0 0 0 -29.952983409251374 5.4486133453396235 0 5.4486133453396235 4.0390587330202834 0 0 0 0 -25.94288656947765 7.7221363878931299 0 7.7221363878931299 0.4004459175160946 0 0 0 0 -22.226804703286689 0.96386216882831377 0 0.96386216882831377 1.7278059524360714 0 0 0 0 -22.293149386118785 13.679907569365582 0 13.679907569365582 16.827586801743905 0 0 0 0 -34.19697303604471 9.9851933881682555 0 9.9851933881682555 44.775601421236047 0 0 0 0 -55.215376084452828 1.8358848238637222 0 1.8358848238637222 45.527003792010476 0 0 0 0 -40.710263487267184 29.522873202074976 0 29.522873202074976 90.384741521946637 0 0 0 0 -0.61723050880007868 -0.27892143000603209 0 -0.27892143000603209 0.040225860826150997 0 0 0 0 -18.391761678471767 -28.640255866412602 0 -28.640255866412602 -28.638345472406002 0 0 0 0 -3.9653068031457224 12.370896666153271 0 12.370896666153271 25.355684031126444 0 0 0 0 -6.0058128569858127 -5.2393772853760652 0 -5.2393772853760652 4.2147371948655064 0 0 0 0 -6.2685590051341933 -7.027350766756598 0 -7.027350766756598 -0.21720121429348183 0 0 0 0 -5.3344757097156617 31.416082684147227 0 31.416082684147227 31.873235376165184 0 0 0 0 -1.4357523052258809 -0.64762919036716549 0 -0.64762919036716549 0.071246686660827313 0 0 0 0 -27.554537053375839 -19.705475382093525 0 -19.705475382093525 97.56981649033844 0 0 0 0 -5.0395040079270075 -5.0761334827675455 0 -5.0761334827675455 2.0852941661707654 0 0 0 0 -1.7960754122346998 -2.1889389293864667 0 -2.1889389293864667 2.7323908999385935 0 0 0 0 -2.7125993974377707 0.10996553037793433 0 0.10996553037793433 5.2597649762863057 0 0 0 0 -3.2997542466973755 -1.7779423136000787 0 -1.7779423136000787 7.5270028503223898 0 0 0 0 0.75187022503507706 -21.833888481715363 0 -21.833888481715363 62.93005520036013 0 0 0 0 -1.6032626655403028 -0.87344753447247869 0 -0.87344753447247869 0.02959652807814464 0 0 0 0 -8.2162424909179208 -12.606231710124334 0 -12.606231710124334 85.968439942340865 0 0 0 0 -36.074716419135825 -51.904196561534043 0 -51.904196561534043 53.30170076113199 0 0 0 0 10.650813194840964 36.73116042252628 0 36.73116042252628 6.3431482314082643 0 0 0 0 -6.9578156102401181 2.7644930488768775 0 2.7644930488768775 2.1491370647275119 0 0 0 0 -1.9369738478133058 -1.9524144787782944 0 -1.9524144787782944 -1.3642030719453118 0 0 0 0 -4.9376388910413711 0.14576457061909642 0 0.14576457061909642 0.17302870594085762 0 0 0 0 -5.4080308547366487 0.18916273034747677 0 0.18916273034747677 0.041491808743211851 0 0 0 0 -7.0139252229437261 -1.7825168281052015 0 -1.7825168281052015 2.7135103888009837 0 0 0 0 -10.364805676987089 -3.2311477514865032 0 -3.2311477514865032 6.5128986755855749 0 0 0 0 -15.811647610867738 -10.585018830022555 0 -10.585018830022555 -12.739552634303152 0 0 0 0 -50.390747994774415 -8.3484174756278051 0 -8.3484174756278051 102.06139363093369 0 0 0 0 1.7316082103069448 10.146991855424496 0 10.146991855424496 41.881899627452128 0 0 0 0 -36.224848583038806 -12.663124209620413 0 -12.663124209620413 40.564319399705184 0 0 0 0 -11.690440879792959 -13.045067576880236 0 -13.045067576880236 25.735057260924535 0 0 0 0 -0.67780695095780175 -38.23340065170224 0 -38.23340065170224 -10.763410962144732 0 0 0 0 -4.7831204519328736 -36.25831360608862 0 -36.25831360608862 -15.932446660236096 0 0 0 0 -23.656186513759394 -38.274284515694625 0 -38.274284515694625 -7.7517364051642588 0 0 0 0 -9.6912691753626632 -9.8601729542678989 0 -9.8601729542678989 28.312668408780212 0 0 0 0 25.173749554146184 -44.459021432210314 0 -44.459021432210314 50.913475650841924 0 0 0 0 -2.0092069050176455 1.9632307068443833 0 1.9632307068443833 0.9044397216498189 0 0 0 0 -11.296197796007579 0.23282806051435867 0 0.23282806051435867 0.25865966046817052 0 0 0 0 -22.950265071541139 5.4315947279302961 0 5.4315947279302961 14.177089905952847 0 0 0 0 -11.455398651379255 -5.4214120948197433 0 -5.4214120948197433 14.43995909484272 0 0 0 0 -10.371330456926273 -3.2151400142922704 0 -3.2151400142922704 9.5122683134936779 0 0 0 0 -8.7112425309569517 -5.1560026132031567 0 -5.1560026132031567 4.2265040260008959 0 0 0 0 -8.4906687124130258 -7.1279911346884433 0 -7.1279911346884433 7.4675579305219344 0 0 0 0 -8.5697334321779408 -7.5482147507285404 0 -7.5482147507285404 9.9674265211351667 0 0 0 0 -12.121577273228468 -8.3155214790060654 0 -8.3155214790060654 10.783545135687973 0 0 0 0 -19.69478485628315 -0.5922667089025424 0 -0.5922667089025424 37.108523019104723 0 0 0 0 -11.630750447749598 1.302620939602033 0 1.302620939602033 0.16617108128758401 0 0 0 0 -10.751085525718963 1.7622954394353556 0 1.7622954394353556 24.890251686372949 0 0 0 0 -11.450605528903907 -15.381831762929892 0 -15.381831762929892 1.5311220937213648 0 0 0 0 -18.86526841803493 0.84289670045853882 0 0.84289670045853882 10.005364470322903 0 0 0 0 -32.610683756499384 -16.406559493873488 0 -16.406559493873488 20.037764196096532 0 0 0 0 2.7080049671576489 -0.24222318642921437 0 -0.24222318642921437 26.911482885777559 0 0 0 0 -29.830792198657946 4.6545875441197495 0 4.6545875441197495 29.003823771765724 0 0 0 0 -2.8154518559743771 -0.86266379864662779 0 -0.86266379864662779 1.5108882535010579 0 0 0 0 -56.327565933929691 -58.804457039386371 0 -58.804457039386371 -62.97112633050817 0 0 0 0 -8.0190210198356908 -29.482549572345448 0 -29.482549572345448 -65.106875118283995 0 0 0 0 -19.89424668641584 -27.577278725870315 0 -27.577278725870315 -14.028755472695551 0 0 0 0 -11.690114727149307 -27.434979168422299 0 -27.434979168422299 -27.976910243283044 0 0 0 0 -27.625722302625832 -58.879319934756609 0 -58.879319934756609 -29.38973690988302 0 0 0 0 -32.647811804214825 -44.517869536297866 0 -44.517869536297866 -18.29107271630609 0 0 0 0 -56.259511238682308 -70.200518401068123 0 -70.200518401068123 -44.601257963192921 0 0 0 0 -42.811063649147854 -53.789145516232523 0 -53.789145516232523 -12.231358121088057 0 0 0 0 -62.420407062893531 -59.135002656682417 0 -59.135002656682417 -13.251692487805357 0 0 0 0 -32.022741848903081 -48.826423142549942 0 -48.826423142549942 -19.19618599868366 0 0 0 0 -58.44008319497334 -41.480019287601721 0 -41.480019287601721 -0.84039264585952367 0 0 0 0 -40.72614543587855 -36.686123487200398 0 -36.686123487200398 -18.490198600678823 0 0 0 0 -31.697761298982584 -20.59494983805898 0 -20.59494983805898 -16.502039592300608 0 0 0 0 -36.024904843605441 -39.343451195538961 0 -39.343451195538961 -18.982889151175478 0 0 0 0 -35.792113563276352 -36.817049114271981 0 -36.817049114271981 -27.258925223505145 0 0 0 0 -29.973172382938515 -36.689820333233911 0 -36.689820333233911 -32.295779834499214 0 0 0 0 -40.56627798775861 -10.09018806722159 0 -10.09018806722159 -62.237916137140601 0 0 0 0 -37.974674134866063 -17.887759583085256 0 -17.887759583085256 -42.17877482386271 0 0 0 0 -32.901765873959022 -45.376975887992643 0 -45.376975887992643 -28.00193132475539 0 0 0 0 -23.435236680979301 -53.428988338775831 0 -53.428988338775831 -21.23082949620391 0 0 0 0 -25.026263410302267 -25.267700188475374 0 -25.267700188475374 -16.715287244846181 0 0 0 0 -27.250225735562083 -44.405582388481058 0 -44.405582388481058 -42.464160907235467 0 0 0 0 -62.160246024787682 -1.4594312150072444 0 -1.4594312150072444 -9.463781247529198 0 0 0 0 -83.665312504044948 1.3019012929844251 0 1.3019012929844251 -37.80186188354979 0 0 0 0 -77.497017625203256 11.061665898601518 0 11.061665898601518 -40.046713520320139 0 0 0 0 -240.0488209691656 -15.65443766395245 0 -15.65443766395245 -5.6341825693609167 0 0 0 0 -165.9507814686504 78.928987788954075 0 78.928987788954075 -76.224631841592668 0 0 0 0 -41.269145741712691 -24.264534420805838 0 -24.264534420805838 -112.34569562623521 0 0 0 0 -123.3341429288115 36.096365091662648 0 36.096365091662648 6.4257817254925698 0 0 0 0 -18.160728370448624 -7.3037113650140135 0 -7.3037113650140135 0.42906057448479373 0 0 0 0 -7.7046099304316158 -3.8200294146469815 0 -3.8200294146469815 -0.64015391421628465 0 0 0 0 -0.27887926026298082 0.27019848273209979 0 0.27019848273209979 0.12332125199615063 0 0 0 0 -3.0897333835532663 -2.0505036811880473 0 -2.0505036811880473 -3.0405121296005007 0 0 0 0 -4.3170204581247162 -1.1018833849488203 0 -1.1018833849488203 0.1728462300055611 0 0 0 0 -2.1063989473277616 2.7594916246690673 0 2.7594916246690673 2.8479860716117003 0 0 0 0 -6.6488589634936943 -0.48318701581968071 0 -0.48318701581968071 1.3984674295082442 0 0 0 0 -7.4851436836818266 -3.1567733297566392 0 -3.1567733297566392 -1.552305559423786 0 0 0 0 -4.9704390327092369 -0.21776816930778864 0 -0.21776816930778864 -0.88604855079097433 0 0 0 0 -0.34968573942505943 0.44572298861676929 0 0.44572298861676929 -0.092970420513414309 0 0 0 0 -2.8631302289961837 -0.39520506939117839 0 -0.39520506939117839 -1.5766831053646513 0 0 0 0 -1.5262979733527118 -3.2230929025014206 0 -3.2230929025014206 -5.8038340749811965 0 0 0 0 -86.640239145459873 -111.33286139113278 0 -111.33286139113278 -141.57748000185603 0 0 0 0 -141.64286096804108 -115.00305552780998 0 -115.00305552780998 -102.91572984573692 0 0 0 0 -1.9977124176236885 1.5408270573904588 0 1.5408270573904588 -0.25756716280039882 0 0 0 0 -0.50546597562504481 -0.73103714173215817 0 -0.73103714173215817 0.80460330198970176 0 0 0 0 -198.74903797568777 -70.895047402973034 0 -70.895047402973034 -87.820749027438012 0 0 0 0 -122.66983901192589 -102.77638814587306 0 -102.77638814587306 -99.926464312665075 0 0 0 0 -13.190362141179321 39.602655138794518 0 39.602655138794518 29.767239910502866 0 0 0 0 -208.40981192100344 -70.503775594003713 0 -70.503775594003713 -71.628143599570535 0 0 0 0 -8.5976695271922008 3.2265452164853734 0 3.2265452164853734 0.17726599908590246 0 0 0 0 9.4813964948034481 11.008543096229062 0 11.008543096229062 19.769340977781383 0 0 0 0 -0.023724954658763231 -0.19576739448873992 0 -0.19576739448873992 -0.15275900376763438 0 0 0 0 -503.83088982038316 -138.12071923498354 0 -138.12071923498354 -53.486304440706924 0 0 0 0 -212.32160411493987 -207.32647411864855 0 -207.32647411864855 -201.02379660372918 0 0 0 0 40.489365772240717 -111.01307198418399 0 -111.01307198418399 -104.28087642943899 0 0 0 0 -217.25166607110441 -219.53183995328803 0 -219.53183995328803 -17.547685764852361 0 0 0 0 0.44968226399852029 1.9361069072983994 0 1.9361069072983994 -0.38321911264465736 0 0 0 0 -18.900312505643797 5.5241909443569739 0 5.5241909443569739 -71.638539845873339 0 0 0 0 -34.396493241935332 -23.540729991460502 0 -23.540729991460502 3.4199010585316536 0 0 0 0 -104.84483800825217 -19.09017996760079 0 -19.09017996760079 -79.428327032441501 0 0 0 0 -300.33035026634843 -133.59705000671559 0 -133.59705000671559 -55.202463468935846 0 0 0 0 -14.772245013400834 40.701990196151435 0 40.701990196151435 -2.4369053317416345 0 0 0 0 -1.2593387087917756 0.10757758380126925 0 0.10757758380126925 0.26407724616389955 0 0 0 0 -289.65039076179687 -198.78032734000067 0 -198.78032734000067 -55.810506820955325 0 0 0 0 -140.49522450536881 4.4164683518505967 0 4.4164683518505967 19.697172696470616 0 0 0 0 -56.608634442672042 -63.841327730813255 0 -63.841327730813255 -88.865491213563729 0 0 0 0 -131.26033819694226 -88.675836648155354 0 -88.675836648155354 -25.557123400218416 0 0 0 0 4.0621289819032427 -6.4899499464007562 0 -6.4899499464007562 -1.2029582541338133 0 0 0 0 -2.2558345061321674 -1.696515343405508 0 -1.696515343405508 -0.24639440216241018 0 0 0 0 -10.184645900900879 -21.569860006015539 0 -21.569860006015539 -1.7145489489520003 0 0 0 0 -48.89175497044414 1.665977356328888 0 1.665977356328888 12.827128710463509 0 0 0 0 -5.1972264069281664 4.87387992252998 0 4.87387992252998 -2.0743735817666789 0 0 0 0 -3.0538139903444441 -2.54053310117432 0 -2.54053310117432 -1.1022524286573609 0 0 0 0 6.8734382882436194 -12.008399058040691 0 -12.008399058040691 -4.2252386238434099 0 0 0 0 7.4787712728364504 -5.163433736913138 0 -5.163433736913138 -1.250063132407206 0 0 0 0 -18.182680679592181 9.2864346772858326 0 9.2864346772858326 -1.2332897246445071 0 0 0 0 -0.86879738176994681 -1.0846221013365493 0 -1.0846221013365493 0.011116912561357467 0 0 0 0 -59.884975840069927 -48.110859143717818 0 -48.110859143717818 -4.5357938252928847 0 0 0 0 -68.439849358317474 -46.886496186619361 0 -46.886496186619361 -3.4002964309296999 0 0 0 0 -49.471302626654847 -16.567828168101421 0 -16.567828168101421 -2.2953998698407503 0 0 0 0 -71.241188031885372 -9.4591193703901482 0 -9.4591193703901482 8.2389885329342363 0 0 0 0 -39.021372226865651 -22.313843236048424 0 -22.313843236048424 1.1962531610436997 0 0 0 0 -28.868968510501531 -8.3362630530568111 0 -8.3362630530568111 5.9951055776447966 0 0 0 0 -44.304528849941732 -24.036735903375067 0 -24.036735903375067 -1.91622286657649 0 0 0 0 -37.471668867769154 -30.279772484943095 0 -30.279772484943095 -6.0153798740812725 0 0 0 0 -19.027067530044235 -11.094304727819079 0 -11.094304727819079 -7.7423730348909174 0 0 0 0 -20.644314311030371 -9.4842693154112681 0 -9.4842693154112681 -5.3831289019563364 0 0 0 0 -0.44643143893244996 1.5828083527850296 0 1.5828083527850296 -3.2135829739434385 0 0 0 0 2.6159933365148049 -9.6058359024905684 0 -9.6058359024905684 -1.2936266948129145 0 0 0 0 -1.0651074002244059 -6.6776279346696867 0 -6.6776279346696867 9.5549521078730777 0 0 0 0 -28.237098464274425 -9.7890703343811438 0 -9.7890703343811438 9.1904230879835609 0 0 0 0 1.6816548953037227 -5.302794077900117 0 -5.302794077900117 1.575124891464462 0 0 0 0 -2.0554099765749925 -1.6369851976686789 0 -1.6369851976686789 -1.0611986446594557 0 0 0 0 -2.0743987865877451 -1.272412397743707 0 -1.272412397743707 -0.50338584809737041 0 0 0 0 -1.1061523265854021 -5.8329603792247298 0 -5.8329603792247298 1.4743020134845679 0 0 0 0 -3.4261071797450278 -0.64829413134966862 0 -0.64829413134966862 0.34475690686662308 0 0 0 0 -2.8491635620480338 -0.21881791136785012 0 -0.21881791136785012 -0.061200565526917217 0 0 0 0 -9.3297187342694201 3.6236269401664138 0 3.6236269401664138 5.6601010531127827 0 0 0 0 -5.605686951223106 -14.019638834184946 0 -14.019638834184946 0.72774523256321544 0 0 0 0 -5.7872779556446403 -0.36098451967502854 0 -0.36098451967502854 0.68103674538967596 0 0 0 0 -3.7893756462033936 0.1189824170196303 0 0.1189824170196303 0.77021883178378658 0 0 0 0 -3.1526929330909752 -1.0087204123227878 0 -1.0087204123227878 -1.2655930810294791 0 0 0 0 -4.0219781683329074 0.10151197889621244 0 0.10151197889621244 -2.2287428156508327 0 0 0 0 -4.5006495151906165 -1.4179796999363958 0 -1.4179796999363958 -1.257547588163888 0 0 0 0 -1.2776221386811442 0.8780933222058277 0 0.8780933222058277 -0.4674385487081516 0 0 0 0 -4.3836233580638009 -0.76900504594688357 0 -0.76900504594688357 -0.37866258779317263 0 0 0 0 -8.2998647863037149 -0.66525315769192161 0 -0.66525315769192161 -1.3554324663516013 0 0 0 0 -1.7413099986515956 -1.4361133836479936 0 -1.4361133836479936 -0.8535543155776627 0 0 0 0 2.3703593497951374 -3.2363735600757195 0 -3.2363735600757195 -1.7618456539240697 0 0 0 0 0.59448625175116376 0.057642764179743011 0 0.057642764179743011 -1.2160559344320205 0 0 0 0 1.7059424770371834 -0.92857694421645931 0 -0.92857694421645931 -2.563363842309883 0 0 0 0 -0.5107328915155942 -0.16891882635862498 0 -0.16891882635862498 -0.04952585681050492 0 0 0 0 -1.1385367983217423 -0.24917185039139578 0 -0.24917185039139578 -0.70592049995198569 0 0 0 0 -2.3715440105803509 -0.10244988576460301 0 -0.10244988576460301 -1.9826721344091851 0 0 0 0 -1.0491138414023595 -0.14120394049283713 0 -0.14120394049283713 -2.7191799312450229 0 0 0 0 -1.094247289208516 0.76143405814886422 0 0.76143405814886422 -1.4645259650626627 0 0 0 0 0.62594790127107558 2.8747147422285231 0 2.8747147422285231 -0.93145753594633263 0 0 0 0 0.41120156904639771 1.4479255732402407 0 1.4479255732402407 -0.99213855010153806 0 0 0 0 0.80724393814801942 1.6335210313257331 0 1.6335210313257331 -4.6580998676288914 0 0 0 0 1.8347110395236541 -0.033951727578966029 0 -0.033951727578966029 -5.5780492287420458 0 0 0 0 1.9204457901495289 -1.9763464872448822 0 -1.9763464872448822 -3.7540926849802005 0 0 0 0 2.1949073041052216 -1.8757938346498912 0 -1.8757938346498912 -3.7535886959620655 0 0 0 0 2.668493594619548 -5.2205283385469734 0 -5.2205283385469734 -8.5092892002254388 0 0 0 0 0.95594816402643801 0.21741252495962371 0 0.21741252495962371 -6.818365909613604 0 0 0 0 -2.9159541977474248 -2.6603438133649426 0 -2.6603438133649426 -6.3871269220411335 0 0 0 0 -15.419588616000709 -10.464248160041468 0 -10.464248160041468 -15.407175475686628 0 0 0 0 -5.5437849221594888 1.1472548411628907 0 1.1472548411628907 -11.0221156603632 0 0 0 0 -31.324264360606833 -21.300031113017717 0 -21.300031113017717 -15.172036012888384 0 0 0 0 -9.7891856989266444 9.3453963808067826 0 9.3453963808067826 -13.373764663861181 0 0 0 0 -8.0943334348054634 -1.5351070855932285 0 -1.5351070855932285 6.8299018466442085 0 0 0 0 1.4007179025317669 2.6246960896353944 0 2.6246960896353944 -7.8769480930568321 0 0 0 0 10.34788337572877 -6.4613938570105391 0 -6.4613938570105391 -24.952162535106879 0 0 0 0 -26.214526770361658 23.734212147875205 0 23.734212147875205 11.955343856583225 0 0 0 0 -0.16820443960751819 0.02835527207453914 0 0.02835527207453914 -0.011411408893995188 0 0 0 0 1.9233403507448656 24.800306134032994 0 24.800306134032994 -43.423727109454902 0 0 0 0 -18.033283765696865 -8.4488627289060645 0 -8.4488627289060645 -0.56208143642007258 0 0 0 0 -2.6253683488163189 -0.51448346854237115 0 -0.51448346854237115 -0.049901700437917577 0 0 0 0 -19.895581120074866 -7.1001837609037803 0 -7.1001837609037803 24.340496543119798 0 0 0 0 -10.244160500146847 15.999717399196541 0 15.999717399196541 -4.5153387417120712 0 0 0 0 -10.858230895573058 -0.65705905224762873 0 -0.65705905224762873 5.8114476128431889 0 0 0 0 0.63951304975097401 -2.5712027460083675 0 -2.5712027460083675 -15.377895181470357 0 0 0 0 -2.8837176288217692 -0.53499599655231234 0 -0.53499599655231234 -0.045618120899236295 0 0 0 0 1.2973700989006787 7.6357455912067245 0 7.6357455912067245 -24.737733495990369 0 0 0 0 -3.5131181894540759 10.745844490510827 0 10.745844490510827 -12.82594961423505 0 0 0 0 -7.5499695696129407 6.1281925987071233 0 6.1281925987071233 -4.6527149419895011 0 0 0 0 -1.2077503225791153 0.02579066328622831 0 0.02579066328622831 0.044207861533880677 0 0 0 0 -1.6457015261742072 0.48210891542881562 0 0.48210891542881562 -0.21289117598611629 0 0 0 0 -1.2432361954300291 0.25487767334360711 0 0.25487767334360711 -1.4199330876131739 0 0 0 0 -0.6876080840298755 0.35416354388706317 0 0.35416354388706317 -0.95568700220714331 0 0 0 0 -0.89845579844313761 0.71359451149422171 0 0.71359451149422171 -0.80980457925382154 0 0 0 0 -0.63651917960632975 0.063748133321299499 0 0.063748133321299499 0.036150094481343667 0 0 0 0 0.56701718457598815 13.437868868566166 0 13.437868868566166 -29.379172371897571 0 0 0 0 -0.92686870976763203 0.89063846119470913 0 0.89063846119470913 1.7666572223228467 0 0 0 0 -119.31282789425407 14.596096121109358 0 14.596096121109358 -17.114877481596707 0 0 0 0 -104.4636412592437 -10.258239425644586 0 -10.258239425644586 -8.4621289594868472 0 0 0 0 -144.01652118204791 -2.4927863095763314 0 -2.4927863095763314 -9.2863713724169941 0 0 0 0 -127.9241204590808 29.838729004023318 0 29.838729004023318 -30.671301624809047 0 0 0 0 -100.70700477010539 13.983079725854438 0 13.983079725854438 -21.462743938065501 0 0 0 0 -136.78523230642656 29.266865315629527 0 29.266865315629527 -24.695335201254885 0 0 0 0 -128.84329966759216 -28.661446191334459 0 -28.661446191334459 -13.278300676353979 0 0 0 0 -40.654258070399862 -23.773311169465487 0 -23.773311169465487 -23.028679268381595 0 0 0 0 -53.621471589365569 -18.042337644238394 0 -18.042337644238394 -32.246010348966422 0 0 0 0 -102.41869858769539 -16.268333422192772 0 -16.268333422192772 -20.181236834549182 0 0 0 0 -46.300729844642603 -12.59419315510759 0 -12.59419315510759 -34.28591223580213 0 0 0 0 -28.977590984178164 -17.371626200607643 0 -17.371626200607643 -28.047803302749102 0 0 0 0 -46.220188591092537 -13.625457775972535 0 -13.625457775972535 -21.591062184663031 0 0 0 0 -33.672908937775247 -25.842175516116725 0 -25.842175516116725 -30.086296039547761 0 0 0 0 -20.972577427207511 -5.1283794636746833 0 -5.1283794636746833 -19.238182454050847 0 0 0 0 -16.866587625299417 -7.5703673580104152 0 -7.5703673580104152 -33.511035822470596 0 0 0 0 -33.338179663354538 -4.9149914870091802 0 -4.9149914870091802 -24.806639168600924 0 0 0 0 15.74263707905402 9.0951105761594651 0 9.0951105761594651 -30.3746823791518 0 0 0 0 5.5139766472727274 11.532347205633911 0 11.532347205633911 -36.431574139219464 0 0 0 0 -69.720962434972748 56.223862492310083 0 56.223862492310083 -40.271029387918176 0 0 0 0 -23.45697732228529 -39.165120204267396 0 -39.165120204267396 -20.124033051642108 0 0 0 0 -1.1686499091926472 -0.20098923503485339 0 -0.20098923503485339 -0.065844306191824922 0 0 0 0 -135.64431941280884 -22.870233209107919 0 -22.870233209107919 -9.7384872646127576 0 0 0 0 -88.76760496966611 -14.876377429827897 0 -14.876377429827897 -9.2478378200580948 0 0 0 0 -132.14191947270055 26.143813519779954 0 26.143813519779954 -13.064355238204541 0 0 0 0 -76.365064918441476 -35.340262745057018 0 -35.340262745057018 -12.436396858737567 0 0 0 0 -63.653070857875818 -29.102291680450946 0 -29.102291680450946 -31.881450183210333 0 0 0 0 -86.549531788491066 -17.222258049460642 0 -17.222258049460642 -11.421650370755486 0 0 0 0 -98.163260328055401 -37.012406440254587 0 -37.012406440254587 -43.218999883719277 0 0 0 0 -83.439861119729684 -0.44063935251092801 0 -0.44063935251092801 -67.117958496995641 0 0 0 0 -84.087530890089283 -5.3390786571935189 0 -5.3390786571935189 -19.656908458491273 0 0 0 0 -71.176149438290608 -32.675360090402592 0 -32.675360090402592 -11.045427277518854 0 0 0 0 -72.63300522097181 -31.859862816974328 0 -31.859862816974328 -9.0428347024347886 0 0 0 0 -63.548297547767632 -27.058337812584199 0 -27.058337812584199 -11.803897468023706 0 0 0 0 -70.7402552368182 -33.171000400593243 0 -33.171000400593243 -8.2721317346068872 0 0 0 0 -69.686824304059314 -27.540753201836239 0 -27.540753201836239 -6.3782783027097949 0 0 0 0 -81.062403648904734 -18.902719401654167 0 -18.902719401654167 -7.2167573275321786 0 0 0 0 -67.21657926489533 -17.995496968392501 0 -17.995496968392501 -8.0324082127549445 0 0 0 0 -50.872614488633275 -18.482321645053418 0 -18.482321645053418 -11.906866711346652 0 0 0 0 -17.927850611656027 2.1389825010679147 0 2.1389825010679147 -26.358402070665534 0 0 0 0 -57.212954228164904 -2.0287463878648282 0 -2.0287463878648282 -7.1293364214634494 0 0 0 0 -66.797428841141254 24.446466927344488 0 24.446466927344488 -13.030275453636893 0 0 0 0 -52.170327161781444 21.01323416711395 0 21.01323416711395 -31.657037703254872 0 0 0 0 -48.493998392836602 24.704889047698373 0 24.704889047698373 -29.639555320619323 0 0 0 0 -7.0570145553558632 8.1897106551324015 0 8.1897106551324015 -46.056300540470744 0 0 0 0 -47.982448212121852 40.153696116290092 0 40.153696116290092 -28.766571700552959 0 0 0 0 -2.5113359479929613 -13.194364571332173 0 -13.194364571332173 -15.852181958169524 0 0 0 0 -0.059633918836884348 -0.051696214902819615 0 -0.051696214902819615 -0.24398522314202342 0 0 0 0 0.03247020316130983 -0.031789106070163387 0 -0.031789106070163387 -0.67149680771010889 0 0 0 0 4.5177323584868532 -0.010475502758851007 0 -0.010475502758851007 -7.4156252807259762 0 0 0 0 -6.881970290189571 8.159659756526338 0 8.159659756526338 -3.3020176523879172 0 0 0 0 -4.332306370197557 6.7521165604334783 0 6.7521165604334783 -3.3153300969174779 0 0 0 0 -7.8426917161372032 2.1318413784272572 0 2.1318413784272572 -0.63944941635611485 0 0 0 0 -8.7086922005187688 6.8038078484872955 0 6.8038078484872955 -6.5503882744235398 0 0 0 0 -22.036284716228295 1.3062735827718939 0 1.3062735827718939 -5.1219416333530035 0 0 0 0 -27.175881173690719 -4.4112550777310773 0 -4.4112550777310773 -10.52516326384216 0 0 0 0 -24.819190376417694 -3.2777804902814012 0 -3.2777804902814012 -11.630988712553517 0 0 0 0 -27.598494522686337 -2.2475158096156349 0 -2.2475158096156349 3.80241201618594 0 0 0 0 -25.457824323365344 3.1963758695430897 0 3.1963758695430897 -2.2048138959703749 0 0 0 0 -39.184417635218153 -11.774491276779827 0 -11.774491276779827 -15.986056325184336 0 0 0 0 -42.628356302503391 -4.284439068526666 0 -4.284439068526666 -3.3848099995637426 0 0 0 0 -55.283424151286681 -15.888463725645579 0 -15.888463725645579 -8.0279505631096413 0 0 0 0 -25.465274823084798 4.5946997814384645 0 4.5946997814384645 -8.0320840598155314 0 0 0 0 -34.150532349450316 -0.90085099084132025 0 -0.90085099084132025 -6.157737404110776 0 0 0 0 -32.328946592255988 -6.9720834190812866 0 -6.9720834190812866 -16.800949193404904 0 0 0 0 -40.748207603865069 -5.6124011349403418 0 -5.6124011349403418 -13.342940057986027 0 0 0 0 -41.658578298872641 -20.65753156580989 0 -20.65753156580989 -29.42396879312173 0 0 0 0 -58.561499748520134 -21.348888722349443 0 -21.348888722349443 -20.889451691688436 0 0 0 0 -57.385698557761856 -29.74278826034012 0 -29.74278826034012 -25.056880908775838 0 0 0 0 -47.798545249123265 -18.305294235086194 0 -18.305294235086194 -16.41643002874801 0 0 0 0 -48.759609844346301 -17.930676458022958 0 -17.930676458022958 -14.59758813423025 0 0 0 0 -60.342747262432184 -27.457696205888638 0 -27.457696205888638 -17.422095127957505 0 0 0 0 -6.6503917438451481 9.8595829221369371 0 9.8595829221369371 -8.360390132192812 0 0 0 0 -3.1008356756905187 10.870130941041637 0 10.870130941041637 -12.421130027876117 0 0 0 0 -10.12596344457657 8.3807411369981502 0 8.3807411369981502 0.58049640056157159 0 0 0 0 -2.6038007469983695 -0.43603316804106429 0 -0.43603316804106429 -0.012053046388970645 0 0 0 0 -4.1457583550832595 -1.4847278837441227 0 -1.4847278837441227 5.7190747276505647 0 0 0 0 -5.9285581675619596 0.71879131374805638 0 0.71879131374805638 -0.96892751851051884 0 0 0 0 -2.7616722007865562 6.9988834056116254 0 6.9988834056116254 -10.525854473364717 0 0 0 0 1.5702360910769642 2.2693751244563458 0 2.2693751244563458 -17.560189823294593 0 0 0 0 -8.149917167513081 17.663806963514944 0 17.663806963514944 -20.726853233688772 0 0 0 0 -15.737534858262507 16.804726340271372 0 16.804726340271372 -15.863786154167428 0 0 0 0 -5.6410835531021348 18.282832124479526 0 18.282832124479526 -24.607517473901382 0 0 0 0 -14.190724313619967 21.138057703719582 0 21.138057703719582 -15.95541241171307 0 0 0 0 -10.040959895611138 20.538033437220747 0 20.538033437220747 -16.89985839695143 0 0 0 0 -18.192919203450344 19.146972849210172 0 19.146972849210172 -13.703915683089321 0 0 0 0 -12.362709853063052 12.91809152679599 0 12.91809152679599 -7.0507840575272098 0 0 0 0 -6.8308910236634119 17.808329416213844 0 17.808329416213844 -19.439154840432252 0 0 0 0 -16.177245911579234 24.287586303238015 0 24.287586303238015 -23.692806342071719 0 0 0 0 -27.797305499318782 10.839146289832314 0 10.839146289832314 -18.436033427868281 0 0 0 0 -14.239386490865456 15.042198655458431 0 15.042198655458431 -11.667925697578369 0 0 0 0 -11.304626671133974 16.640640907096454 0 16.640640907096454 -16.481769246134917 0 0 0 0 -9.3774254879549233 5.8369256808920529 0 5.8369256808920529 -18.33945658340474 0 0 0 0 -7.1943901870295122 14.638217706730316 0 14.638217706730316 -23.614789438422619 0 0 0 0 -5.3765079052671467 12.59803180264695 0 12.59803180264695 -26.239697382238319 0 0 0 0 -6.9883087678006177 11.554780630529365 0 11.554780630529365 -20.591374350793359 0 0 0 0 -8.6952060800319941 13.047061705006399 0 13.047061705006399 -16.905265801061944 0 0 0 0 -2.5134714362042132 11.520595528415086 0 11.520595528415086 -17.058530741919583 0 0 0 0 -4.1369392975657746 2.9788687899663877 0 2.9788687899663877 -9.773827112121495 0 0 0 0 -9.9060798522193636 11.89119156012412 0 11.89119156012412 -4.6840518108690787 0 0 0 0 0.46340490621093977 3.0043327312139496 0 3.0043327312139496 -3.6761704813348022 0 0 0 0 -9.5620649695562179 -0.36483124496847097 0 -0.36483124496847097 21.777312322348877 0 0 0 0 -11.240101861061092 5.2088221142042705 0 5.2088221142042705 -3.1770971266049024 0 0 0 0 -1.9762461390202517 -0.2834777036504294 0 -0.2834777036504294 0.024890547480091785 0 0 0 0 3.7343950513642383 1.3181707095316719 0 1.3181707095316719 -16.492319651052767 0 0 0 0 -4.6918742485338214 -3.3590108563229393 0 -3.3590108563229393 -1.9124343166632265 0 0 0 0 -19.325087807789146 14.772027346712248 0 14.772027346712248 -10.303079016095257 0 0 0 0 -18.62586963437505 -2.7373557134089008 0 -2.7373557134089008 -11.721090298502748 0 0 0 0 -13.536183509895992 11.842265145073924 0 11.842265145073924 -14.437815457957292 0 0 0 0 -52.331564400259253 37.866404728043342 0 37.866404728043342 -22.254653206901821 0 0 0 0 -28.408398050796166 -23.53063817835303 0 -23.53063817835303 17.225327215580563 0 0 0 0 -0.79964681261174242 -0.075091583378803062 0 -0.075091583378803062 0.016814076919039384 0 0 0 0 -45.699222479860168 -8.4355316524040234 0 -8.4355316524040234 16.228143871939693 0 0 0 0 -30.432566352733943 -0.82883390680846958 0 -0.82883390680846958 -2.9165916183278568 0 0 0 0 -30.136273553148058 -4.4847401139844454 0 -4.4847401139844454 5.002027831333379 0 0 0 0 -0.14761089658946958 -11.079477391837337 0 -11.079477391837337 -1.7112324759675346 0 0 0 0 -2.2561822685638617 9.9238094166729525 0 9.9238094166729525 1.6380210704921438 0 0 0 0 -15.677617897865503 10.213832476743349 0 10.213832476743349 -13.135363003950204 0 0 0 0 -27.271096472666386 1.7294949188862176 0 1.7294949188862176 -1.8312108984636666 0 0 0 0 -14.738940644761101 9.1953163240324614 0 9.1953163240324614 -14.471128245839537 0 0 0 0 -32.591756139858603 7.7768531649808565 0 7.7768531649808565 -6.8917503676656793 0 0 0 0 -44.519083425268036 3.3325407823505628 0 3.3325407823505628 5.5511349315486509 0 0 0 0 -44.498744316482544 3.0027006440067083 0 3.0027006440067083 8.0044360472817004 0 0 0 0 -54.468718278377082 1.6698735794926733 0 1.6698735794926733 14.618576637072685 0 0 0 0 -42.953650392436202 6.5087620717408186 0 6.5087620717408186 14.223845531887791 0 0 0 0 -36.17352838743102 -1.323070877291542 0 -1.323070877291542 13.029449894105539 0 0 0 0 -45.236497169313679 8.3657857132327251 0 8.3657857132327251 10.662241408824912 0 0 0 0 -36.165914647581189 -4.4512663656959433 0 -4.4512663656959433 14.238025172513886 0 0 0 0 -38.724175024974784 -5.5878738066367433 0 -5.5878738066367433 19.201910675694876 0 0 0 0 -6.0355331448095058 2.8075175337971601 0 2.8075175337971601 -0.4778977606807473 0 0 0 0 -42.80237807315234 1.2935687040472317 0 1.2935687040472317 21.528465717098854 0 0 0 0 -305.38944313227762 -18.00592549215839 0 -18.00592549215839 -1.8109789082696466 0 0 0 0 -1.6239134248259788 -1.5651538996801619 0 -1.5651538996801619 -1.3740454709037389 0 0 0 0 -1.6754169105531433 -0.29015287634126508 0 -0.29015287634126508 0.46460906653681677 0 0 0 0 -25.781093127902977 19.90107119185636 0 19.90107119185636 2.5664190199746599 0 0 0 0 -58.108965244311435 30.678537079768489 0 30.678537079768489 -0.67984464704156267 0 0 0 0 -71.442817085113575 -8.5661917802858341 0 -8.5661917802858341 16.654817321009382 0 0 0 0 -450.12865098958821 -34.852326607561132 0 -34.852326607561132 12.714077270372192 0 0 0 0 -422.56728344593608 -30.019477374253338 0 -30.019477374253338 13.508241501412886 0 0 0 0 -461.82967478621185 41.997637591329088 0 41.997637591329088 5.9297126124635451 0 0 0 0 -425.11712269358827 -15.137268983026729 0 -15.137268983026729 -11.534703425690349 0 0 0 0 -366.95906860861203 33.588368246338177 0 33.588368246338177 3.1224865671520377 0 0 0 0 -360.50595290782422 -23.48584073173059 0 -23.48584073173059 19.08993817065479 0 0 0 0 -355.98861515290969 -30.424779644353052 0 -30.424779644353052 21.930153059754417 0 0 0 0 -405.3829425316145 -43.962406907073479 0 -43.962406907073479 21.535008719257505 0 0 0 0 -499.96424407183963 -51.825917557815437 0 -51.825917557815437 56.862137215492389 0 0 0 0 -400.09912465956558 -92.531459472891655 0 -92.531459472891655 62.228549423595965 0 0 0 0 -500.03411682285025 -103.72289088182004 0 -103.72289088182004 64.318772243413846 0 0 0 0 -292.84914369459261 -33.822681453955632 0 -33.822681453955632 25.215137376412024 0 0 0 0 -324.02254165011931 -157.54446773935885 0 -157.54446773935885 -13.593491045715899 0 0 0 0 -59.740720182097164 1.5764632788676778 0 1.5764632788676778 6.7938801980083383 0 0 0 0 4.1281703539791579 -21.707935170766646 0 -21.707935170766646 -31.750471483299858 0 0 0 0 -2.573100744806327 3.585232407334884 0 3.585232407334884 -0.90608852560184483 0 0 0 0 -2.8804341637489879 -6.0992068225622438 0 -6.0992068225622438 0.10470996758789697 0 0 0 0 -209.12449159281027 -34.962376250755405 0 -34.962376250755405 -3.8767804310489566 0 0 0 0 -76.981966375631146 -0.1253501955614027 0 -0.1253501955614027 -2.4074195589774945 0 0 0 0 -1.0632409926448587 3.488046289214553 0 3.488046289214553 -0.28779777906010318 0 0 0 0 -100.19120045713191 -48.322892268159059 0 -48.322892268159059 -35.419544641772802 0 0 0 0 -60.608659699878444 11.441547705772173 0 11.441547705772173 4.8676107445124757 0 0 0 0 -64.509034329548484 20.164741507579979 0 20.164741507579979 -5.9904164996642635 0 0 0 0 -14.363014500249449 -16.145027097946105 0 -16.145027097946105 7.7566363474557019 0 0 0 0 -38.335440629002591 7.76057443973645 0 7.76057443973645 -0.65227223413467073 0 0 0 0 -22.583150428758245 -1.3411629093064192 0 -1.3411629093064192 4.2031371017140344 0 0 0 0 -3.7940047828042793 10.80883158834297 0 10.80883158834297 54.80169189050828 0 0 0 0 -65.025820173906965 -2.0311828704501167 0 -2.0311828704501167 -17.697101955700361 0 0 0 0 -86.665116676493199 -29.10522083732495 0 -29.10522083732495 -0.28089394946606205 0 0 0 0 -1.9981878950833893 -6.3267769708679218 0 -6.3267769708679218 0.40497190802610922 0 0 0 0 0.97091320017909943 0.77112618724437576 0 0.77112618724437576 -0.76565811456272148 0 0 0 0 -1.1369010927081491 0.19077535844936921 0 0.19077535844936921 -0.019949229408796731 0 0 0 0 -76.480546574880151 -11.804625737063276 0 -11.804625737063276 23.251766589428144 0 0 0 0 -2.4743473550759063 -27.534576659279104 0 -27.534576659279104 -19.606688106588372 0 0 0 0 -32.167722942143428 -28.813523778200366 0 -28.813523778200366 22.545731076601228 0 0 0 0 -16.194639495015608 -5.4037050720666695 0 -5.4037050720666695 1.6783005747267623 0 0 0 0 -1.9011326323916962 -6.2846904645154238 0 -6.2846904645154238 0.99522004244844253 0 0 0 0 -499.2519727983688 -326.39838224321187 0 -326.39838224321187 -164.22748251923238 0 0 0 0 -219.87092741055312 -119.17712646977388 0 -119.17712646977388 -19.240755266227424 0 0 0 0 -5.3694768463613816 1.6191563205157617 0 1.6191563205157617 0.25378672758295628 0 0 0 0 -230.26894108120189 -93.048275939319723 0 -93.048275939319723 -41.943620392129219 0 0 0 0 -36.976311639932192 -31.385364020834693 0 -31.385364020834693 69.609170378517661 0 0 0 0 -20.894309050006086 -65.619636815132367 0 -65.619636815132367 -13.60651138905167 0 0 0 0 -68.756453919826981 167.20381095032377 0 167.20381095032377 -49.937696898304146 0 0 0 0 -2.6320491242021902 0.30986484765021372 0 0.30986484765021372 -0.13110240337076365 0 0 0 0 -499.11655168061515 118.62192510246444 0 118.62192510246444 -37.095257098132002 0 0 0 0 -414.03172320853355 202.90964420932818 0 202.90964420932818 7.9205385913276434 0 0 0 0 6.9373499388943856 -31.199772714155948 0 -31.199772714155948 -80.523943341502729 0 0 0 0 -222.500349457619 -61.422584504057184 0 -61.422584504057184 -6.3395033602642989 0 0 0 0 -83.516031330660553 21.686793277955026 0 21.686793277955026 -45.690861866269366 0 0 0 0 -91.178036981721107 -75.107708054583441 0 -75.107708054583441 -25.213578988892611 0 0 0 0 -257.62790146568068 145.40767838351942 0 145.40767838351942 -63.189609515045476 0 0 0 0 -1.6755499925402866 0.18602183528880611 0 0.18602183528880611 0.072972212247960605 0 0 0 0 -425.24086619216541 39.53831516740722 0 39.53831516740722 41.741936823943419 0 0 0 0 -16.204283681630343 -3.0628195541583167 0 -3.0628195541583167 2.3137323350800898 0 0 0 0 8.0349405511751684 -0.99188436995059703 0 -0.99188436995059703 -0.96009908806774291 0 0 0 0 -25.786112749110998 -22.085839990093426 0 -22.085839990093426 16.449584625134854 0 0 0 0 16.473578318162254 2.8522890115173709 0 2.8522890115173709 -38.777590462492334 0 0 0 0 7.6033055912116652 -1.8148645609094451 0 -1.8148645609094451 1.1009748027834121 0 0 0 0 -2.470753975652638 -1.8951131185561674 0 -1.8951131185561674 0.14101342632574787 0 0 0 0 -3.3277944624488844 -5.88610298117481 0 -5.88610298117481 1.7558372938190345 0 0 0 0 -7.2969249690930988 -1.471007521368761 0 -1.471007521368761 0.49051935848440736 0 0 0 0 -12.651223723601859 -0.078681320990597214 0 -0.078681320990597214 1.6163500995320419 0 0 0 0 -12.253776770252784 -4.1111466678742659 0 -4.1111466678742659 3.430905219640465 0 0 0 0 -15.185355319705479 -4.2366260281755217 0 -4.2366260281755217 3.6575656557546097 0 0 0 0 -15.653963306103947 -4.0136186916224119 0 -4.0136186916224119 1.5155276836427305 0 0 0 0 -18.926300779880648 1.0800985401936032 0 1.0800985401936032 1.5186651814903769 0 0 0 0 -13.238766112824862 -0.32629696649121342 0 -0.32629696649121342 1.5120018662869938 0 0 0 0 -11.802681726332843 5.2950385015938579 0 5.2950385015938579 1.1909897543970374 0 0 0 0 -13.373174002525758 6.98829535602124 0 6.98829535602124 -0.28669078837194206 0 0 0 0 -5.9749054697219321 6.4310266018007383 0 6.4310266018007383 -0.62288021290117968 0 0 0 0 -8.6725688274563808 0.073072429495908864 0 0.073072429495908864 7.4181966919619526 0 0 0 0 0.72525814424543 0.18794931594186437 0 0.18794931594186437 -4.7643733391396381 0 0 0 0 -7.0559879554149916 -0.8184491896296322 0 -0.8184491896296322 1.5309582342694057 0 0 0 0 -9.1379052015381887 17.162001625129619 0 17.162001625129619 -19.691841281622374 0 0 0 0 -1.9850332368710326 -20.008094885736739 0 -20.008094885736739 -31.95737889832094 0 0 0 0 1.4920183516265126 6.3677834221603575 0 6.3677834221603575 -9.779455721321483 0 0 0 0 -0.3541860195127835 0.33284339725040646 0 0.33284339725040646 -0.17364833157323456 0 0 0 0 -39.504612603934007 27.53552536514735 0 27.53552536514735 -4.5247876747889677 0 0 0 0 -19.807867427942327 12.409937292083271 0 12.409937292083271 7.0851301179765187 0 0 0 0 -14.403958841262579 15.949832959888909 0 15.949832959888909 -9.016166216404514 0 0 0 0 -3.9520521746038639 0.54236287610875422 0 0.54236287610875422 -0.79232003959862141 0 0 0 0 -44.773332952809284 53.057644883166844 0 53.057644883166844 -27.792034666388645 0 0 0 0 -63.019861378798431 -27.396000557359869 0 -27.396000557359869 26.843518056992252 0 0 0 0 0.007888679798224333 0.7225823244689884 0 0.7225823244689884 -0.85924176262053242 0 0 0 0 -3.3050547014539688 0.3345250774875268 0 0.3345250774875268 -0.72564851119800267 0 0 0 0 14.379738823752902 -14.953681377941791 0 -14.953681377941791 0.86520483418956928 0 0 0 0 -15.155990841252105 4.4364902912033983 0 4.4364902912033983 3.820062816153154 0 0 0 0 -13.19010263169141 3.9824714995652073 0 3.9824714995652073 3.9198779398041381 0 0 0 0 -13.925557128825147 7.1044907893802076 0 7.1044907893802076 2.3626823239387704 0 0 0 0 -13.951968290005018 5.9897342586131117 0 5.9897342586131117 5.4461516429134917 0 0 0 0 -12.200832597031237 5.1310598261960649 0 5.1310598261960649 1.6385514950461726 0 0 0 0 -15.609031595346835 7.563626642511494 0 7.563626642511494 1.1768460342286744 0 0 0 0 -5.8570655353551864 0.83822794157478597 0 0.83822794157478597 0.376650137203832 0 0 0 0 -12.603829277580559 5.2996304855716971 0 5.2996304855716971 -1.3846654983807412 0 0 0 0 -8.2622891200784494 8.5963227070600396 0 8.5963227070600396 -5.2584194744187585 0 0 0 0 -0.40902273264347266 0.16479354628093157 0 0.16479354628093157 0.04770031850056855 0 0 0 0 -0.15819588846605431 0.41157096027916218 0 0.41157096027916218 -0.85636141035254676 0 0 0 0 -0.93304375391273453 2.7949379879073888 0 2.7949379879073888 -6.8534573356091357 0 0 0 0 -1.8442862901446233 0.21464045864850334 0 0.21464045864850334 -0.57313718106723677 0 0 0 0 -2.2979539124163608 0.86273907265983185 0 0.86273907265983185 -0.85088347866303593 0 0 0 0 -6.6750332672494936 7.1049293669874913 0 7.1049293669874913 -19.874488667282847 0 0 0 0 -0.63396743436586744 0.4377776558209332 0 0.4377776558209332 -0.12306549121932805 0 0 0 0 -4.952751421795611 6.0419095536401821 0 6.0419095536401821 -16.314739738469974 0 0 0 0 0.29629788152809056 0.75377488021697303 0 0.75377488021697303 -16.257300949527433 0 0 0 0 -6.7109100685549947 9.5841664224308687 0 9.5841664224308687 -7.1110234264452261 0 0 0 0 -0.24816345695586764 0.12008599971618436 0 0.12008599971618436 -0.012329712721793611 0 0 0 0 -1.0616826714399963 6.3413440481746992 0 6.3413440481746992 -20.412481458729363 0 0 0 0 -16.32486534540331 11.502144898693416 0 11.502144898693416 -3.4942231973921345 0 0 0 0 -20.609401294399618 5.8125665236071598 0 5.8125665236071598 -16.255081862676271 0 0 0 0 -23.876561407831019 5.9129244692609433 0 5.9129244692609433 -0.72257066785346069 0 0 0 0 -22.65149354849035 -0.89686453465414218 0 -0.89686453465414218 -5.2405437663076953 0 0 0 0 -26.259063656224782 4.1388540070196029 0 4.1388540070196029 -1.9407087179356211 0 0 0 0 -19.043844461764252 -2.9501749345361645 0 -2.9501749345361645 0.17056945239587407 0 0 0 0 -19.683327999938228 -2.9691434987076093 0 -2.9691434987076093 1.2479653453775654 0 0 0 0 -16.180588554389516 1.0540985398972254 0 1.0540985398972254 0.65810972964392533 0 0 0 0 -18.331238038839672 4.1589909439104105 0 4.1589909439104105 1.0360244776109333 0 0 0 0 -23.156664588883601 3.7353706687521608 0 3.7353706687521608 -0.26611619390223495 0 0 0 0 3.6977326588448705 17.822395086545271 0 17.822395086545271 -4.9146845464592843 0 0 0 0 0.74676717421425565 10.992574024673786 0 10.992574024673786 -7.7067298673165396 0 0 0 0 -2.5630994853672746 1.2894669837644415 0 1.2894669837644415 7.2993051048611051 0 0 0 0 -8.9541440851853622 1.85295725087542 0 1.85295725087542 1.4094859971814913 0 0 0 0 -11.806625074676049 4.6512951946859289 0 4.6512951946859289 0.26863342410740643 0 0 0 0 -6.2626875232994585 1.4792761210167091 0 1.4792761210167091 0.87948129109176254 0 0 0 0 -7.7735287946307334 3.4333917152415934 0 3.4333917152415934 3.0606750150462316 0 0 0 0 -7.8991728817218245 2.5446621535638769 0 2.5446621535638769 5.3226326352410069 0 0 0 0 -8.8107461828625482 -1.1206558578746684 0 -1.1206558578746684 -0.097521245518631172 0 0 0 0 -8.5197955922363047 6.3457567846433793 0 6.3457567846433793 4.0823266684935637 0 0 0 0 -11.637054809679739 0.034620799919196088 0 0.034620799919196088 -4.1843660980412096 0 0 0 0 -11.158543406898389 1.6817801609468006 0 1.6817801609468006 0.17394365354198982 0 0 0 0 -6.8535559846895922 0.34902201187668425 0 0.34902201187668425 1.4677822833207301 0 0 0 0 -5.5670457409466261 1.3973468207231985 0 1.3973468207231985 0.47753302663188624 0 0 0 0 -24.679521803278476 -6.4044098216868406 0 -6.4044098216868406 -1.8687901753080496 0 0 0 0 -2.0718373421478162 -0.22649778215844041 0 -0.22649778215844041 0.41281211768293602 0 0 0 0 -14.775179962200127 -2.8552348538487422 0 -2.8552348538487422 -0.72091139882923017 0 0 0 0 -11.262668797628066 -5.9046458647237614 0 -5.9046458647237614 -5.741993911587997 0 0 0 0 -10.167822914350381 -6.6273100491455352 0 -6.6273100491455352 -11.361513451318842 0 0 0 0 -7.3662703096383666 -6.3746253742103818 0 -6.3746253742103818 -18.255236384335831 0 0 0 0 -14.125584576572692 -8.4535859828383764 0 -8.4535859828383764 -4.0911836321947703 0 0 0 0 -1.8958856352262341 0.40938902374174946 0 0.40938902374174946 0.51885281497011615 0 0 0 0 -7.8140665412033741 0.73250880084140135 0 0.73250880084140135 -12.245305450793239 0 0 0 0 -11.504722582384602 1.5786878813905787 0 1.5786878813905787 -0.11002062842135274 0 0 0 0 -7.3388687771230252 -10.734610025340885 0 -10.734610025340885 -14.941756389666466 0 0 0 0 -11.919545128551363 -12.878256191930177 0 -12.878256191930177 -0.82524181838516597 0 0 0 0 -9.1670187100050953 5.7594517595319985 0 5.7594517595319985 14.136322267000423 0 0 0 0 -16.044123710071744 19.427137801389449 0 19.427137801389449 -10.811827488226008 0 0 0 0 -2.059943494621848 -6.172722142564794 0 -6.172722142564794 -14.625386399042554 0 0 0 0 -8.3056615026862346 -15.139391966411495 0 -15.139391966411495 -13.257308473293293 0 0 0 0 -30.312574313574714 5.3169261588244581 0 5.3169261588244581 -1.2323669328053484 0 0 0 0 -0.3792359762640185 0.87703196541331208 0 0.87703196541331208 -0.060076442189978818 0 0 0 0 -8.5378187424074099 11.337045672452149 0 11.337045672452149 5.4697739552024132 0 0 0 0 0.26878597633321988 1.9830994055903375 0 1.9830994055903375 -2.7142660378797245 0 0 0 0 -5.7438969824745527 1.6195361205208201 0 1.6195361205208201 -19.240943179684223 0 0 0 0 -26.592058494506716 13.237653314460918 0 13.237653314460918 54.074536699301916 0 0 0 0 14.225177654829622 19.002825834955615 0 19.002825834955615 -3.7842276953615794 0 0 0 0 -11.342020062298397 8.1029078546517077 0 8.1029078546517077 1.2748200977128665 0 0 0 0 -17.06315280472154 1.5258510859826657 0 1.5258510859826657 5.8180208666805555 0 0 0 0 -25.685742334725546 0.24502655356049274 0 0.24502655356049274 26.44337187210391 0 0 0 0 -15.605892937031967 -4.0239494968293457 0 -4.0239494968293457 1.4089897728192113 0 0 0 0 -10.681626199539227 7.4023289984684952 0 7.4023289984684952 2.3479676715644526 0 0 0 0 -20.139031128849638 -3.4173391172202798 0 -3.4173391172202798 1.4089715241665317 0 0 0 0 -6.4516589299552383 -2.0655362508780168 0 -2.0655362508780168 0.91064578925297146 0 0 0 0 -19.392046284465664 1.8591469410247825 0 1.8591469410247825 0.59746128972869883 0 0 0 0 -13.057409454087974 2.3047946730320774 0 2.3047946730320774 0.58049335289643977 0 0 0 0 -16.823110626303333 -0.56037309546897163 0 -0.56037309546897163 18.674938750648209 0 0 0 0 -6.834660116915984 -2.6170613943282888 0 -2.6170613943282888 4.406660368768101 0 0 0 0 -0.080356098778256779 0.59646573910228717 0 0.59646573910228717 -0.95094260450597856 0 0 0 0 -9.1400087146375881 10.281526918961163 0 10.281526918961163 -5.4941314803603234 0 0 0 0 -2.8750971200718674 -0.75911432994249317 0 -0.75911432994249317 2.7519788525929636 0 0 0 0 -7.019500780828821 -0.50312059774432782 0 -0.50312059774432782 11.945719177690393 0 0 0 0 -48.653610341364583 12.293048159582639 0 12.293048159582639 7.158243020639091 0 0 0 0 -28.691890285610498 -2.3813339413838008 0 -2.3813339413838008 2.4585852856740757 0 0 0 0 -22.761780691167871 6.4212436769553651 0 6.4212436769553651 -2.1505806172190773 0 0 0 0 -11.795405716217829 -1.6530442033821373 0 -1.6530442033821373 0.16269391660455312 0 0 0 0 -2.4846830829788118 -3.5331657636347202 0 -3.5331657636347202 -3.5439784997923836 0 0 0 0 34.237534783339242 -76.751823505481411 0 -76.751823505481411 36.503103859910425 0 0 0 0 -279.9889313346448 33.10888292459174 0 33.10888292459174 -32.045538058030616 0 0 0 0 21.935895556875039 -29.857617377666941 0 -29.857617377666941 14.61717493380457 0 0 0 0 -25.839596610675471 2.7941031716933225 0 2.7941031716933225 11.580862087548439 0 0 0 0 -21.14044149557742 -13.250331858618797 0 -13.250331858618797 20.93851429556355 0 0 0 0 -138.15035265234565 40.130279372109499 0 40.130279372109499 -24.066281285022797 0 0 0 0 -190.04378309890672 62.314527719780585 0 62.314527719780585 -13.356055503098105 0 0 0 0 -268.2554267931373 53.085474580861046 0 53.085474580861046 -11.649280021797097 0 0 0 0 -136.38504397515396 28.378058757782185 0 28.378058757782185 -21.843663671295872 0 0 0 0 -164.16100879559963 11.741913055339865 0 11.741913055339865 0.56866904265564244 0 0 0 0 -144.25438542178017 14.761586564687946 0 14.761586564687946 -6.651229910967686 0 0 0 0 -183.22562547979578 23.13316056050553 0 23.13316056050553 -8.4000031421339827 0 0 0 0 -146.89650397937839 18.870764233383966 0 18.870764233383966 -12.037912563862392 0 0 0 0 -135.56554223298917 31.275832751943994 0 31.275832751943994 -28.502970629499032 0 0 0 0 2.8009351098780826 -20.509621140051593 0 -20.509621140051593 10.934053055068318 0 0 0 0 -3.3114774457448259 -4.8740591706287422 0 -4.8740591706287422 -5.2782866965008628 0 0 0 0 -151.0749249741275 39.646297786021933 0 39.646297786021933 -6.4882127417367883 0 0 0 0 -124.98439296081779 15.337130406852339 0 15.337130406852339 -24.887593334990697 0 0 0 0 -194.47092555822746 63.815890337747078 0 63.815890337747078 -16.43577318653297 0 0 0 0 -56.383996812131954 95.045557737561467 0 95.045557737561467 -47.791194765241556 0 0 0 0 -0.10669834150008484 -2.2300807579091395 0 -2.2300807579091395 -1.1224078529328145 0 0 0 0 -11.098586818305193 8.4999100155209817 0 8.4999100155209817 -34.31722686226567 0 0 0 0 -32.220631521372525 -4.0850965024599191 0 -4.0850965024599191 -5.057132711178383 0 0 0 0 -49.482869077961368 10.52970047766803 0 10.52970047766803 -7.9120976755646097 0 0 0 0 -41.392666716032636 12.861555017524438 0 12.861555017524438 -5.0710032487836543 0 0 0 0 -68.099346998184046 11.07348632511048 0 11.07348632511048 -2.8431830431459275 0 0 0 0 -62.403665486213868 19.790557312358487 0 19.790557312358487 -10.812770901189651 0 0 0 0 -44.643704724011513 7.2570861156613091 0 7.2570861156613091 -8.2379049577721162 0 0 0 0 -63.949478176371485 14.327707158629437 0 14.327707158629437 -4.7239549277246624 0 0 0 0 -88.37167363842218 25.861979097933272 0 25.861979097933272 -6.0556929946651508 0 0 0 0 -88.066498482407042 14.176328080729036 0 14.176328080729036 0.49949123209989921 0 0 0 0 -68.014354671824549 10.307585795201248 0 10.307585795201248 -0.2896552871543463 0 0 0 0 -92.011114548802652 18.519510492362087 0 18.519510492362087 0.78242120546929073 0 0 0 0 -107.56955715196818 22.518026646800081 0 22.518026646800081 1.1509596591781133 0 0 0 0 -92.022655643994312 14.353648454115728 0 14.353648454115728 1.2512270228944544 0 0 0 0 -116.29234313308189 18.682071971422374 0 18.682071971422374 0.85815445824755443 0 0 0 0 -90.071326316417981 33.11044923008194 0 33.11044923008194 -6.4819207989312417 0 0 0 0 -68.163722583383787 22.911399807154339 0 22.911399807154339 -8.7637914513438773 0 0 0 0 -60.6106156617534 29.911647004770202 0 29.911647004770202 -18.807780672663284 0 0 0 0 -59.70573283291742 27.441301937290518 0 27.441301937290518 -16.444398682687279 0 0 0 0 -87.770273698373785 28.54235812675779 0 28.54235812675779 -8.5928974893286068 0 0 0 0 -1.2820460640614328 38.068302151719536 0 38.068302151719536 -51.014384133006388 0 0 0 0 -62.754614435858457 42.545614356020678 0 42.545614356020678 -20.064688975980971 0 0 0 0 -78.67198594054571 37.496720390000519 0 37.496720390000519 -16.308812771787416 0 0 0 0 -26.580831637604206 93.686727922596674 0 93.686727922596674 -63.460818441692027 0 0 0 0 -85.163004161913705 47.324210781773218 0 47.324210781773218 -15.66538440016393 0 0 0 0 -130.59024917557872 37.348680834708716 0 37.348680834708716 -3.9261504211099236 0 0 0 0 -123.87326702521477 14.467456538457327 0 14.467456538457327 -7.4651171330633588 0 0 0 0 -134.1237265273885 24.155822485138287 0 24.155822485138287 -13.881191487545493 0 0 0 0 -129.89621019684091 12.726761887546445 0 12.726761887546445 -5.7732353211108602 0 0 0 0 -131.81336987509576 9.1318499131784563 0 9.1318499131784563 -7.5801212242195106 0 0 0 0 -129.77084769738713 1.7206763618696073 0 1.7206763618696073 6.4565392640834034 0 0 0 0 -125.65162021337528 13.887798357229713 0 13.887798357229713 3.425896733411264 0 0 0 0 -127.44998688881606 8.295544220296506 0 8.295544220296506 0.16007221591644338 0 0 0 0 -120.85508159226447 22.158342060318773 0 22.158342060318773 -1.4526049436849462 0 0 0 0 -115.05215503867839 7.268895064604294 0 7.268895064604294 7.1423267659774865 0 0 0 0 -121.28349669312593 11.456172523465284 0 11.456172523465284 9.8873104439562667 0 0 0 0 -108.41574307161864 5.9091836397883526 0 5.9091836397883526 8.765169193424299 0 0 0 0 -119.75875357704581 5.0571054201081438 0 5.0571054201081438 7.1550738642299621 0 0 0 0 -137.79568011774063 -3.6679074163405403 0 -3.6679074163405403 16.752004302127261 0 0 0 0 -140.3583863449785 -0.55584193360482459 0 -0.55584193360482459 13.119718349406554 0 0 0 0 -155.71260480824276 -1.9591126827629068 0 -1.9591126827629068 13.336472563497409 0 0 0 0 -139.50054337259735 3.142789377919712 0 3.142789377919712 3.552902603621078 0 0 0 0 -141.71119786932832 6.8971807134298615 0 6.8971807134298615 4.8722169829293307 0 0 0 0 -11.191134895162193 -2.9301261273531614 0 -2.9301261273531614 0.38139317083954238 0 0 0 0 -25.227327628791954 3.4188609810920383 0 3.4188609810920383 11.217990282500523 0 0 0 0 -1.3343829083670649 1.4511617649866686 0 1.4511617649866686 3.1915312382497341 0 0 0 0 -14.333360054636614 -6.7624975857906122 0 -6.7624975857906122 8.7911045700425348 0 0 0 0 -9.8246985855261677 -3.1515497864093218 0 -3.1515497864093218 0.082207333402637445 0 0 0 0 -14.686283297738555 -7.4701220817269416 0 -7.4701220817269416 7.3755957363694336 0 0 0 0 -14.903787113229555 0.88653642059421145 0 0.88653642059421145 -4.6908971760723261 0 0 0 0 -24.967885422824111 5.9145577316819526 0 5.9145577316819526 4.1990382693760999 0 0 0 0 -3.8371110164598576 -8.6089727816749928 0 -8.6089727816749928 -7.1518819909249487 0 0 0 0 -20.725526683297176 -4.3377021454446094 0 -4.3377021454446094 -7.5960810206770475 0 0 0 0 -23.18748896877878 7.5768297959493793 0 7.5768297959493793 -12.347745244942871 0 0 0 0 -9.9677075572890317 -5.4347074804459226 0 -5.4347074804459226 3.0207551822846934 0 0 0 0 -5.6908063862862042 -1.115145295771895 0 -1.115145295771895 -0.30663077117658233 0 0 0 0 -8.1150232078307454 -4.424748033068397 0 -4.424748033068397 -4.1802874937652632 0 0 0 0 -12.041928132636713 -4.403092845679339 0 -4.403092845679339 -7.7607912525463689 0 0 0 0 -4.0937312908613421 0.70188668386037989 0 0.70188668386037989 -1.5890875207898034 0 0 0 0 -3.1102308980019941 2.2641253381006141 0 2.2641253381006141 -0.35709372999724476 0 0 0 0 -3.9146103707151951 -2.3993534582949323 0 -2.3993534582949323 -10.76199567980575 0 0 0 0 -15.034665721601414 -6.7715126698499262 0 -6.7715126698499262 -1.6983388179514805 0 0 0 0 -21.402661326212183 3.6587244536951857 0 3.6587244536951857 -8.6462549991801154 0 0 0 0 -39.748485983266619 6.7310192825768809 0 6.7310192825768809 -6.0002101136087731 0 0 0 0 -31.91286941614544 -3.1744194636653447 0 -3.1744194636653447 -4.0848749889264582 0 0 0 0 -34.801443262818793 3.7387509362733908 0 3.7387509362733908 -2.7186500430788669 0 0 0 0 -13.504169315448962 -7.1851066687415823 0 -7.1851066687415823 -1.8984268112708378 0 0 0 0 -13.273708398247436 9.0243938097569298 0 9.0243938097569298 -2.2428677786788285 0 0 0 0 -4.9674709791053289 2.0309052088504886 0 2.0309052088504886 -0.52468343684648744 0 0 0 0 -22.465723141869603 3.0461967693013321 0 3.0461967693013321 5.1160042747005718 0 0 0 0 -22.722055009023961 -0.53075948556470109 0 -0.53075948556470109 -5.5180451841024478 0 0 0 0 -27.791994128812803 3.7965234884613892 0 3.7965234884613892 -1.5697198466525606 0 0 0 0 -31.693602833208388 -6.8924082110662539 0 -6.8924082110662539 -5.2693540220971045 0 0 0 0 -11.842242267216534 -0.13993839938393648 0 -0.13993839938393648 -7.2747620448008092 0 0 0 0 -21.084621294723547 -7.468330267796091 0 -7.468330267796091 -0.82449062289288122 0 0 0 0 -27.237927752569703 -0.7168519994959297 0 -0.7168519994959297 -2.9531281831787055 0 0 0 0 -10.770955653738611 0.22210001650080358 0 0.22210001650080358 2.3270171005085558 0 0 0 0 -10.488110118389157 2.835459858113774 0 2.835459858113774 0.93706747076317187 0 0 0 0 -8.4383857253551469 -1.9165299852625139 0 -1.9165299852625139 -3.957750086347005 0 0 0 0 -125.08550989850482 -16.341165435160974 0 -16.341165435160974 24.706871817189494 0 0 0 0 -125.44011191720529 -14.229127585372453 0 -14.229127585372453 19.991946692780402 0 0 0 0 -124.05141779151779 -11.004926254301253 0 -11.004926254301253 22.048809960472681 0 0 0 0 -142.36564275019191 -7.7180973776369228 0 -7.7180973776369228 22.278366926032504 0 0 0 0 -125.13790278694978 -2.1528887564898014 0 -2.1528887564898014 16.247560683760639 0 0 0 0 -123.38083184245272 -3.5046517776461314 0 -3.5046517776461314 16.975746362541031 0 0 0 0 -116.58470364055393 -6.9224945416171977 0 -6.9224945416171977 16.835802451446398 0 0 0 0 -117.58436098636753 1.7492378547964336 0 1.7492378547964336 13.292713646669654 0 0 0 0 -96.532603236977593 7.4741228405823676 0 7.4741228405823676 8.3317964919845053 0 0 0 0 -97.641819378182845 1.0063840002958386 0 1.0063840002958386 12.499056041381664 0 0 0 0 -114.60623951727393 -8.7081533829657474 0 -8.7081533829657474 17.059295379798641 0 0 0 0 -106.71214375727141 -8.2662508266289478 0 -8.2662508266289478 16.784600370069711 0 0 0 0 -100.82161443307359 -11.967456252362808 0 -11.967456252362808 12.939664643407923 0 0 0 0 -70.055030925151186 -8.7342904431895931 0 -8.7342904431895931 4.0143188175370597 0 0 0 0 -81.128293496485639 -1.3162821877865554 0 -1.3162821877865554 8.2200140066938729 0 0 0 0 -95.134131238263762 -1.4562292105805454 0 -1.4562292105805454 8.6049129462253404 0 0 0 0 -95.217399090296567 6.0619693315207996 0 6.0619693315207996 4.676698533434319 0 0 0 0 -72.221220736901159 4.0629678481900555 0 4.0629678481900555 3.6886782501510424 0 0 0 0 -72.308880144645855 4.6902700069396985 0 4.6902700069396985 0.23761967389509664 0 0 0 0 -47.379675347827288 6.9470245625980169 0 6.9470245625980169 -4.3399974502253826 0 0 0 0 -46.414991528792598 2.9444276064486985 0 2.9444276064486985 -3.9712947260536566 0 0 0 0 -58.764574220702343 1.5800530916417301 0 1.5800530916417301 0.059695438329299577 0 0 0 0 -39.320975078729134 -4.3839803477804935 0 -4.3839803477804935 -3.4300262212527741 0 0 0 0 -49.63043405040662 -0.42978404482983024 0 -0.42978404482983024 -1.501384312993423 0 0 0 0 -44.224049636042764 -0.047293898113821342 0 -0.047293898113821342 -1.049731759911765 0 0 0 0 -54.202418941536052 -11.574226654651511 0 -11.574226654651511 0.1490963835731236 0 0 0 0 -57.698932594932558 -9.2045971482548339 0 -9.2045971482548339 1.5751204733351187 0 0 0 0 -38.744822202354044 -8.8728556926234887 0 -8.8728556926234887 -4.1808629750039472 0 0 0 0 -38.535762885380791 -9.737391067962335 0 -9.737391067962335 -0.72845823924217257 0 0 0 0 -71.402825358225527 -18.326966244273308 0 -18.326966244273308 5.2119593966081084 0 0 0 0 -70.030194041524737 -22.695846590271685 0 -22.695846590271685 4.7309461445734087 0 0 0 0 -53.195350847208829 -19.961438145789998 0 -19.961438145789998 -1.8313073173644625 0 0 0 0 -80.879733225601285 -18.654419314574852 0 -18.654419314574852 8.7292348687269623 0 0 0 0 -72.948273344931295 -5.1043807801111143 0 -5.1043807801111143 4.9221176255218779 0 0 0 0 -99.265825897300601 -9.995653031841357 0 -9.995653031841357 12.922544016354021 0 0 0 0 -104.92375384377374 -19.216538346694847 0 -19.216538346694847 17.470215670947255 0 0 0 0 -93.362491918096566 -15.535877427933883 0 -15.535877427933883 9.0641923863556713 0 0 0 0 -92.701574274293307 -25.987779928829241 0 -25.987779928829241 10.228709317266521 0 0 0 0 -93.492633284948695 -29.019150972262416 0 -29.019150972262416 9.4997380071008592 0 0 0 0 -141.37657772880993 -27.992346025224037 0 -27.992346025224037 24.524081724963253 0 0 0 0 -120.72861189436821 -25.319786821575576 0 -25.319786821575576 23.632241750247886 0 0 0 0 -119.34174491634803 -21.355705906936237 0 -21.355705906936237 17.630428284662685 0 0 0 0 -144.89299936758925 -65.558737952664842 0 -65.558737952664842 0.17869486830159076 0 0 0 0 -82.229447465892008 -38.524646212983498 0 -38.524646212983498 1.2312981576997117 0 0 0 0 -118.88917146344465 -46.040613658016809 0 -46.040613658016809 6.6841405577679325 0 0 0 0 -92.130670153087976 -27.411315099569947 0 -27.411315099569947 5.492979428732724 0 0 0 0 -79.865993208486543 -30.226405385275257 0 -30.226405385275257 0.61313118888392637 0 0 0 0 -29.68924456140212 -34.91711420943011 0 -34.91711420943011 -31.495154647907384 0 0 0 0 -61.581424354912087 -28.139899455834438 0 -28.139899455834438 -2.3003562031285583 0 0 0 0 -54.786581927234238 -16.572601195362267 0 -16.572601195362267 -0.35446223723829462 0 0 0 0 -27.317654801916433 -0.015949780471601116 0 -0.015949780471601116 3.2986939404800069 0 0 0 0 -30.703057697861368 -24.742404531611101 0 -24.742404531611101 -17.538631687576526 0 0 0 0 -24.678241446872562 -4.7801789234927128 0 -4.7801789234927128 -6.5999070077432407 0 0 0 0 -25.19473931065113 0.037521783530337416 0 0.037521783530337416 -1.8490178860770357 0 0 0 0 0.96962734352746338 -8.633013786919264 0 -8.633013786919264 -20.17425723908616 0 0 0 0 4.4673537343073804 11.415227901841234 0 11.415227901841234 -12.879410345403812 0 0 0 0 -9.6854207044401885 7.3397460738880369 0 7.3397460738880369 0.867754275844284 0 0 0 0 2.3588884753617094 20.701071363493611 0 20.701071363493611 -6.214393975289795 0 0 0 0 30.497167470201006 39.506399100587259 0 39.506399100587259 -44.031685727049535 0 0 0 0 -19.423712969871303 -38.553033357528193 0 -38.553033357528193 -72.78796632528406 0 0 0 0 -4.1489532971858125 1.2883273379429738 0 1.2883273379429738 -5.3462852024672429 0 0 0 0 -26.224105989774809 19.361705762330644 0 19.361705762330644 37.829087553518548 0 0 0 0 -42.372553556303771 -22.003770172064264 0 -22.003770172064264 -10.230222922344183 0 0 0 0 7.8630557048244327 51.995453666897902 0 51.995453666897902 17.994852694554083 0 0 0 0 -34.460067349703678 -12.023455947927005 0 -12.023455947927005 10.581293057752418 0 0 0 0 -3.9252344234810153 16.799740354523237 0 16.799740354523237 3.283253092362429 0 0 0 0 -11.307201014316339 7.0880386672953302 0 7.0880386672953302 0.69411610358972453 0 0 0 0 -26.400855841369776 -5.0224146502509939 0 -5.0224146502509939 0.47338502914681158 0 0 0 0 -22.684654569053237 0.88665885127284128 0 0.88665885127284128 8.5620150790145999 0 0 0 0 3.2234981751446838 3.2787074507644229 0 3.2787074507644229 -2.0491733013015483 0 0 0 0 -86.996183786983295 8.5721121713468165 0 8.5721121713468165 24.75484710152773 0 0 0 0 -23.227941025204615 -1.0300342941889085 0 -1.0300342941889085 -16.810832089683572 0 0 0 0 -0.81840470134054744 0.59792957703979699 0 0.59792957703979699 -0.28542937526451917 0 0 0 0 -34.293224085900817 -50.009541674089178 0 -50.009541674089178 -80.576652322947098 0 0 0 0 -64.445229149172263 -63.366444687770809 0 -63.366444687770809 -51.874352494319396 0 0 0 0 -21.259221650413451 -23.256430961671413 0 -23.256430961671413 -25.830776310403508 0 0 0 0 -0.31031968453063796 0.85992932450110082 0 0.85992932450110082 0.17169469368242107 0 0 0 0 0.14440150119916728 3.759311667783078 0 3.759311667783078 1.0087421623398569 0 0 0 0 -2.4276720211037173 2.8524976170247101 0 2.8524976170247101 1.6262842829353303 0 0 0 0 -6.5719411104359082 -0.38763191726942026 0 -0.38763191726942026 -0.33499299072838795 0 0 0 0 -2.5360751283490597 2.33369415462007 0 2.33369415462007 -0.56601940449664667 0 0 0 0 -14.019213423370729 -27.112043943762728 0 -27.112043943762728 -45.846880864721925 0 0 0 0 -12.710736606679831 -31.451041366973413 0 -31.451041366973413 -70.296498297662197 0 0 0 0 -9.9306419864046802 -2.1425041674237946 0 -2.1425041674237946 -3.2793005403256075 0 0 0 0 -11.675456407625219 -3.5278976053393549 0 -3.5278976053393549 -0.21656849335619199 0 0 0 0 -6.7062983373193674 -1.0824720019029428 0 -1.0824720019029428 -3.9533066295953176 0 0 0 0 -6.4627343346775206 -1.5755774083493748 0 -1.5755774083493748 -3.1835563858794558 0 0 0 0 -6.2556726367765751 1.0097309235114453 0 1.0097309235114453 -0.091351532636459343 0 0 0 0 -10.100614678741294 -2.8807050903892559 0 -2.8807050903892559 -4.9041697844108967 0 0 0 0 -31.754214178793575 -8.8623067760563572 0 -8.8623067760563572 -7.2782620108409901 0 0 0 0 -17.089429265758085 -22.905672531397954 0 -22.905672531397954 -17.436750681639751 0 0 0 0 -17.740059765804631 -19.284137663855063 0 -19.284137663855063 -1.95582718981791 0 0 0 0 -9.2122645629195432 -14.217737785621921 0 -14.217737785621921 -21.753076818225054 0 0 0 0 -15.968890918682519 4.9619517053254185 0 4.9619517053254185 11.848338722473727 0 0 0 0 -11.222876263756199 1.1101709901677967 0 1.1101709901677967 1.0420029545672578 0 0 0 0 -14.06216797889843 9.9627961741787203 0 9.9627961741787203 23.013650891869702 0 0 0 0 -9.437156268229046 3.5374501201604573 0 3.5374501201604573 1.9992576833346902 0 0 0 0 -2.9386674166740647 2.5141406008451668 0 2.5141406008451668 -27.087888652490165 0 0 0 0 -37.240129482437837 -12.497873563271469 0 -12.497873563271469 12.240438973733035 0 0 0 0 -11.962159663447551 8.8118170203816248 0 8.8118170203816248 18.751866480745548 0 0 0 0 -4.9849857404133218 -0.92064173951098383 0 -0.92064173951098383 -0.23582818489421697 0 0 0 0 -13.242755118189962 -3.7307416060998548 0 -3.7307416060998548 1.0760227910482172 0 0 0 0 -10.674976774123934 -5.465981976234616 0 -5.465981976234616 -5.9088807119950388 0 0 0 0 -15.716468476609407 2.1864415918169016 0 2.1864415918169016 -4.4316476442714929 0 0 0 0 -12.958005704640527 -7.6812881538630791 0 -7.6812881538630791 -7.3451577432856539 0 0 0 0 -19.947698575089817 -2.0985164558935594 0 -2.0985164558935594 4.0577433353637389 0 0 0 0 -13.282249033171865 -4.065406350539547 0 -4.065406350539547 7.6805425104976166 0 0 0 0 -13.337731488415415 -7.8858028230556556 0 -7.8858028230556556 -3.1949277221892771 0 0 0 0 -8.6856980957268117 0.060466672524875698 0 0.060466672524875698 0.84813043665258503 0 0 0 0 0.071796672244345272 -0.38852744080885548 0 -0.38852744080885548 -5.4883462217053651 0 0 0 0 -7.558083093191164 -9.3996501308931215 0 -9.3996501308931215 -10.424992643261248 0 0 0 0 -26.492769870337384 1.5841830646227208 0 1.5841830646227208 18.985427738817634 0 0 0 0 -17.328704983508487 -8.194516227393251 0 -8.194516227393251 12.971898871389158 0 0 0 0 -10.004449132365318 0.92608346699074495 0 0.92608346699074495 1.1957317681981716 0 0 0 0 -8.8777252168382432 -4.3217913084672546 0 -4.3217913084672546 1.6339579077621238 0 0 0 0 -24.881675511681976 -23.808250091650848 0 -23.808250091650848 -19.042731572094453 0 0 0 0 -2.9395812230033016 -7.2427676208449157 0 -7.2427676208449157 -38.542974479766826 0 0 0 0 -207.23123229324142 117.52591642756101 0 117.52591642756101 4.8279285461929931 0 0 0 0 -4.9658449412107544 -5.0999123022602362 0 -5.0999123022602362 -15.871946119247696 0 0 0 0 1.3569718131341615 0.12707113679911397 0 0.12707113679911397 -6.4883526652479837 0 0 0 0 143.30359704350985 138.83506931356595 0 138.83506931356595 -217.86108319185263 0 0 0 0 -232.66368837766595 -119.2255736320181 0 -119.2255736320181 138.92744356530318 0 0 0 0 -61.880157210866173 -21.914482983165726 0 -21.914482983165726 -22.780229029018681 0 0 0 0 -6.7965977092760568 -18.813884783833146 0 -18.813884783833146 -22.928941803096052 0 0 0 0 -0.66457393744674276 -0.62605261232334541 0 -0.62605261232334541 -1.4646433568303658 0 0 0 0 -3.8616436857162171 -27.204142286308752 0 -27.204142286308752 -10.46522537870502 0 0 0 0 15.694097058138141 -0.66246930085071654 0 -0.66246930085071654 -10.921666464980149 0 0 0 0 -5.7873040697057876 0.72283452115932256 0 0.72283452115932256 -0.93023157455038152 0 0 0 0 -9.124272442466463 -2.5487589433992071 0 -2.5487589433992071 -4.8913619364930128 0 0 0 0 -0.73659791092842153 0.56995883128905778 0 0.56995883128905778 -0.88267945908415779 0 0 0 0 -3.745239375913286 -1.7545295017221179 0 -1.7545295017221179 -6.7150730869088875 0 0 0 0 -2.4131963246186388 -1.8005036305096418 0 -1.8005036305096418 -4.5650552520065313 0 0 0 0 -7.7583035769430353 -3.2898850382023284 0 -3.2898850382023284 -7.236446651902952 0 0 0 0 -2.4705486026898384 -2.3162582206515401 0 -2.3162582206515401 -4.1833303367322809 0 0 0 0 -2.1808552636442187 -2.0412001442130077 0 -2.0412001442130077 -2.2768044525864752 0 0 0 0 -1.0940188879957797 -0.85811993917619478 0 -0.85811993917619478 -0.5786567337029016 0 0 0 0 -8.8425495606443292 -5.2258717377058019 0 -5.2258717377058019 -5.8642075829702662 0 0 0 0 -3.2570460481472243 -2.237220599354302 0 -2.237220599354302 -4.6326945609324923 0 0 0 0 -9.9920467916485904 -3.6031052631549301 0 -3.6031052631549301 -3.2357489293935942 0 0 0 0 -10.694289763108287 -6.2561708995833101 0 -6.2561708995833101 -2.4213403996250236 0 0 0 0 -10.918351812103992 -4.8733574108382527 0 -4.8733574108382527 -4.8584166917171387 0 0 0 0 -11.967862417151736 -5.2637842439116582 0 -5.2637842439116582 -2.2877687101477022 0 0 0 0 -12.362962304121538 -3.4622709312507141 0 -3.4622709312507141 -3.2245336211713891 0 0 0 0 -5.7721847397567672 -5.4807130270628477 0 -5.4807130270628477 -3.6198101603833948 0 0 0 0 -12.109479848001371 9.9961120453627572 0 9.9961120453627572 -0.39309855750184397 0 0 0 0 -7.1269413618393855 -6.7595141945326986 0 -6.7595141945326986 -4.6669036020466592 0 0 0 0 -6.2030405572610947 -5.3300233000239832 0 -5.3300233000239832 -4.7679126777789964 0 0 0 0 -7.3063223410295581 -4.4580291297950048 0 -4.4580291297950048 -2.6705727180390268 0 0 0 0 -25.58281011296765 22.883984106573166 0 22.883984106573166 -38.020255248651665 0 0 0 0 -11.73940316556525 -17.88198751584946 0 -17.88198751584946 3.209334962633605 0 0 0 0 -12.30608541360516 9.1164671383183986 0 9.1164671383183986 -24.015145574947269 0 0 0 0 -45.039195825088427 28.896089130962991 0 28.896089130962991 -7.4982649546295761 0 0 0 0 -42.846140709006093 24.871805694739912 0 24.871805694739912 -4.6069630811887237 0 0 0 0 -77.076372388712116 -0.77203477081798155 0 -0.77203477081798155 -3.523250390278065 0 0 0 0 -34.160084628717073 -3.2686275487565695 0 -3.2686275487565695 -4.5104474732481776 0 0 0 0 -76.604869185374525 34.724991846519117 0 34.724991846519117 -4.7529787003015826 0 0 0 0 -50.375579410546834 29.418860147389751 0 29.418860147389751 -3.6865403477124801 0 0 0 0 -45.967376334577466 39.758072614860794 0 39.758072614860794 -18.711956757612668 0 0 0 0 -55.414955063044886 11.438579401887239 0 11.438579401887239 -2.6077098021293068 0 0 0 0 -126.52082029972303 17.822919003797836 0 17.822919003797836 -2.7801379442058334 0 0 0 0 -31.022686229084115 19.408535144923746 0 19.408535144923746 -0.99849198676679407 0 0 0 0 -27.567333199141899 32.78893747231848 0 32.78893747231848 -22.35416652317366 0 0 0 0 -47.66501269196749 37.749430479171338 0 37.749430479171338 -11.673687338557215 0 0 0 0 -50.809183868387436 44.93546076485643 0 44.93546076485643 -19.443641105915475 0 0 0 0 -53.176672056433901 37.997329829681661 0 37.997329829681661 -8.8362571607206064 0 0 0 0 -43.120296818036422 38.451689081481163 0 38.451689081481163 -12.769992792839957 0 0 0 0 -38.42594377387114 29.288649160912399 0 29.288649160912399 -9.3440029176560984 0 0 0 0 -48.065576936329819 33.222636450712344 0 33.222636450712344 -8.5702506585059837 0 0 0 0 -49.545149315286181 39.70366140277315 0 39.70366140277315 -16.918251710979462 0 0 0 0 -48.532170349274907 38.177227541980074 0 38.177227541980074 -9.5370267509368887 0 0 0 0 -43.183562625543026 32.371242388558763 0 32.371242388558763 -18.327178394798239 0 0 0 0 -45.978579922058657 36.588801861552838 0 36.588801861552838 -21.194675245698591 0 0 0 0 -52.819701242960747 39.859659420337493 0 39.859659420337493 -32.439859012655006 0 0 0 0 -46.163437374908725 30.642888026544231 0 30.642888026544231 -24.085692740665763 0 0 0 0 -62.024296461987177 28.735354961032954 0 28.735354961032954 -21.963707448644364 0 0 0 0 -52.113926150655175 31.176346533759272 0 31.176346533759272 -51.84673553278526 0 0 0 0 -57.039395186923564 30.29608413149947 0 30.29608413149947 -22.774053264826648 0 0 0 0 -54.770414017402203 17.98591765219669 0 17.98591765219669 -5.5494963344939379 0 0 0 0 -44.482051925834895 29.715013129532167 0 29.715013129532167 -21.99941205107698 0 0 0 0 -0.33324662245915437 0.046599555451103392 0 0.046599555451103392 -0.32657873618911903 0 0 0 0 -1.2707263216547631 9.0905047847795117 0 9.0905047847795117 -38.092852668750538 0 0 0 0 -43.621261099877152 5.6323136651286632 0 5.6323136651286632 -2.3323251689099607 0 0 0 0 -8.4405441420141187 17.561290088906389 0 17.561290088906389 -43.306592868891812 0 0 0 0 10.051518317010395 -10.841223265473673 0 -10.841223265473673 -2.1527030055292471 0 0 0 0 -33.250964666556129 -8.9764883402067426 0 -8.9764883402067426 3.9521830063595189 0 0 0 0 -5.1531878029794598 2.0134468370761169 0 2.0134468370761169 -0.81584698559584012 0 0 0 0 -2.4016765348815117 -0.72841301441597672 0 -0.72841301441597672 0.74124091471503029 0 0 0 0 -30.368764927246545 12.40754345688282 0 12.40754345688282 2.663972620898619 0 0 0 0 -36.200193037900732 30.308040108375565 0 30.308040108375565 -10.185036162101937 0 0 0 0 -18.114217119293837 16.16117129642754 0 16.16117129642754 -9.5234556053554797 0 0 0 0 -26.900168589952713 13.849666840406172 0 13.849666840406172 1.8644695706373113 0 0 0 0 -8.8251760846292058 -7.5141886193398335 0 -7.5141886193398335 7.7603347653587527 0 0 0 0 -10.070011643182063 12.645332223024953 0 12.645332223024953 -11.576839681618594 0 0 0 0 -2.9562256184424589 0.16279946311723931 0 0.16279946311723931 1.1386455627233039 0 0 0 0 -4.9016754334624011 2.1143300236917923 0 2.1143300236917923 1.1823992764010427 0 0 0 0 -3.5319239905845734 1.5611915169644135 0 1.5611915169644135 -0.69306764084126371 0 0 0 0 -10.644429913757449 16.011277024008336 0 16.011277024008336 59.844948915843361 0 0 0 0 -24.388407085080416 15.882180576135625 0 15.882180576135625 62.487414695497989 0 0 0 0 -3.9556517669428297 1.3795643684399177 0 1.3795643684399177 0.0013801769116918994 0 0 0 0 6.4876341930107628 -30.367280137026967 0 -30.367280137026967 120.5519794373613 0 0 0 0 -0.93426314028251234 1.4471592594139908 0 1.4471592594139908 0.62316713128154344 0 0 0 0 -32.692268677475113 54.149186893350418 0 54.149186893350418 89.014247785353234 0 0 0 0 18.38134158672392 19.841948538001731 0 19.841948538001731 10.993814904272256 0 0 0 0 -148.94746891467821 -0.50524599423431482 0 -0.50524599423431482 160.53719179620697 0 0 0 0 -150.93332287927115 -63.937478125338885 0 -63.937478125338885 83.828981908402511 0 0 0 0 -92.970393862492301 -33.997231048542176 0 -33.997231048542176 -17.106683348333263 0 0 0 0 -73.313753437838841 17.083246136206412 0 17.083246136206412 69.411261761514652 0 0 0 0 -147.15318744409569 1.0474306409514611 0 1.0474306409514611 127.13988066473894 0 0 0 0 -70.434090030149264 -26.833065214527551 0 -26.833065214527551 12.243347203054896 0 0 0 0 -148.08564626069438 -38.991297631809857 0 -38.991297631809857 93.141874303984309 0 0 0 0 26.680182504484492 -38.08492443265493 0 -38.08492443265493 11.670993584018465 0 0 0 0 -2.1880517509979667 0.26812015126361322 0 0.26812015126361322 -0.10370941015574797 0 0 0 0 -102.04390069099372 -120.39957348194818 0 -120.39957348194818 -72.942479902383639 0 0 0 0 -90.259655902014003 77.540183327742682 0 77.540183327742682 -36.363178523241913 0 0 0 0 -21.070546763785615 53.006800790012107 0 53.006800790012107 -67.711698364961762 0 0 0 0 -6.1412218861557744 1.2076539723478823 0 1.2076539723478823 0.51888068471711812 0 0 0 0 -41.025780313803523 42.545561118799014 0 42.545561118799014 -29.052982933651265 0 0 0 0 -22.346889726651114 13.986453178582138 0 13.986453178582138 -0.60555977847940312 0 0 0 0 -2.8427883928527535 8.7598050615990246 0 8.7598050615990246 -30.515305727423772 0 0 0 0 -72.708608688135769 -35.143108022893443 0 -35.143108022893443 -17.535647788236716 0 0 0 0 -79.230563540986424 -38.747078907616356 0 -38.747078907616356 -25.888240438561979 0 0 0 0 -63.367332521780895 -27.204139021564629 0 -27.204139021564629 -19.426249804216198 0 0 0 0 -54.883457525687135 -27.330541607778372 0 -27.330541607778372 -35.152870676382122 0 0 0 0 -63.652443151630052 -21.543039432847536 0 -21.543039432847536 -33.025712164154271 0 0 0 0 -79.433988394829441 -45.456658494539681 0 -45.456658494539681 -41.32627258930836 0 0 0 0 -111.89076328914568 -24.494932691142196 0 -24.494932691142196 -21.432139355331515 0 0 0 0 -164.23031000417365 -112.04838971522207 0 -112.04838971522207 -30.253066686063221 0 0 0 0 -0.10626969823410448 -0.24364978963007139 0 -0.24364978963007139 -0.10555047360691039 0 0 0 0 -151.70872190803721 -51.615106561243635 0 -51.615106561243635 -16.572627156947988 0 0 0 0 -64.695994190682711 -66.674171321766494 0 -66.674171321766494 -67.405347487024869 0 0 0 0 -83.988855642625708 -35.072096843824511 0 -35.072096843824511 -22.107063728279542 0 0 0 0 -97.978879890882013 -21.450539603888387 0 -21.450539603888387 5.7012780076297531 0 0 0 0 -87.233733063776839 -25.560021102776801 0 -25.560021102776801 -27.228666531230942 0 0 0 0 -47.894483616643072 -7.8941319718698537 0 -7.8941319718698537 -3.523395608833539 0 0 0 0 -78.42330225541923 -9.0934875202781313 0 -9.0934875202781313 0.8470476590614453 0 0 0 0 -26.695274281469608 1.1990960501598806 0 1.1990960501598806 -2.4105503222874702 0 0 0 0 -38.11010622406053 -17.059018763761401 0 -17.059018763761401 -0.59867565900788122 0 0 0 0 -85.914290149618751 -22.726504741275107 0 -22.726504741275107 7.1200486865105859 0 0 0 0 -50.799077135814855 -42.990629144940272 0 -42.990629144940272 4.0270720469090975 0 0 0 0 -27.515538713148658 23.710043181069295 0 23.710043181069295 13.98258033355296 0 0 0 0 0.89052268681791702 -23.130042403949744 0 -23.130042403949744 9.2103855002873161 0 0 0 0 -3.8965824810202037 -3.1698026638193824 0 -3.1698026638193824 -4.3413778253923283 0 0 0 0 -1.0606498941529594 -0.045465611901135849 0 -0.045465611901135849 0.069954898387789566 0 0 0 0 -4.2407469157560627 -2.4879639056393898 0 -2.4879639056393898 -0.26462406571999963 0 0 0 0 -8.837292466413885 4.5095849300683426 0 4.5095849300683426 3.3174485554878572 0 0 0 0 -4.7195806842596539 0.57253112928827932 0 0.57253112928827932 -1.0727861391432043 0 0 0 0 -2.7451305496217211 1.4853989569133272 0 1.4853989569133272 -0.34444124424024558 0 0 0 0 -0.90696460306412585 0.086431010439443012 0 0.086431010439443012 0.27565097016367135 0 0 0 0 1.7984143863495774 7.6375756216964419 0 7.6375756216964419 -6.400221360009283 0 0 0 0 -1.3391614654961768 0.73408916273921743 0 0.73408916273921743 -0.20853766567599052 0 0 0 0 -3.7800728396624521 0.58213368740814531 0 0.58213368740814531 0.03959002081012386 0 0 0 0 -4.1330042175679864 1.1766201305594564 0 1.1766201305594564 -0.45749894229993515 0 0 0 0 -3.1010425439951916 1.8300679440842991 0 1.8300679440842991 -0.92282732591487782 0 0 0 0 2.3100265719704112 29.44012294559252 0 29.44012294559252 34.873930037819946 0 0 0 0 -2.4933852243004822 1.4644444030277555 0 1.4644444030277555 0.62989053575012122 0 0 0 0 7.4537827426269843 4.4820182668026689 0 4.4820182668026689 -10.479883823783211 0 0 0 0 -1.4254268671089851 1.1314860080015308 0 1.1314860080015308 -0.62247773297636488 0 0 0 0 0.60211576305892811 1.1756440869631413 0 1.1756440869631413 -1.0453954684240054 0 0 0 0 -57.880433623667983 -14.176920499578728 0 -14.176920499578728 3.6762578643047163 0 0 0 0 4.0066162636848537 -8.7795090111413856 0 -8.7795090111413856 -15.43351895305625 0 0 0 0 -42.06309261097465 18.286425171443454 0 18.286425171443454 -3.3891039966911194 0 0 0 0 -126.61146984874253 -65.805156642038071 0 -65.805156642038071 -17.469701984257568 0 0 0 0 -2.1790326086677467 0.086457415118957215 0 0.086457415118957215 5.4863113764504305 0 0 0 0 -0.42060097619882497 0.2366478710001933 0 0.2366478710001933 -0.20748789573483295 0 0 0 0 -3.9504089559764708 12.185938635691912 0 12.185938635691912 -2.5167809127550527 0 0 0 0 4.8456201073865515 -1.7330403497018096 0 -1.7330403497018096 -0.38283558972534593 0 0 0 0 -0.80380415827109941 0.81718649158345436 0 0.81718649158345436 -0.60481495350453129 0 0 0 0 -66.623541213850444 -44.53638904037814 0 -44.53638904037814 -26.619288103809367 0 0 0 0 -27.271433489136029 -19.127002245178858 0 -19.127002245178858 -20.736974524148764 0 0 0 0 -0.037481703494909889 -0.36245546427370778 0 -0.36245546427370778 -0.48717370305724472 0 0 0 0 -95.528606873384163 -14.087669337927025 0 -14.087669337927025 -1.4240679106974312 0 0 0 0 -95.009590400212588 -32.752233910897942 0 -32.752233910897942 -10.205027455245386 0 0 0 0 -86.584614380172198 -21.59754163812562 0 -21.59754163812562 -4.1424441305102278 0 0 0 0 -162.58787302592742 -14.637473481116899 0 -14.637473481116899 38.928230414178529 0 0 0 0 0.010935090872663103 -0.33408083336466998 0 -0.33408083336466998 -0.67531664321894225 0 0 0 0 -50.284943517143404 -19.125638537504301 0 -19.125638537504301 -10.191421567501465 0 0 0 0 -110.14075281043311 -55.030148213255643 0 -55.030148213255643 -54.694676978685379 0 0 0 0 -92.320505036202022 -23.794827559927697 0 -23.794827559927697 -8.404101378561279 0 0 0 0 -102.4105463403609 10.108771464920494 0 10.108771464920494 17.18708181022123 0 0 0 0 -72.18921573951144 -15.792330918637106 0 -15.792330918637106 -2.1527011038592718 0 0 0 0 -69.238426285539219 -28.25293278859931 0 -28.25293278859931 -5.7541021458976047 0 0 0 0 -52.481543683053033 -28.737381317464809 0 -28.737381317464809 -9.3151561431312047 0 0 0 0 -67.597523735580495 -30.616415097684381 0 -30.616415097684381 -9.1586193883880469 0 0 0 0 -72.689674936886547 -31.776763324920068 0 -31.776763324920068 -9.0962899345088637 0 0 0 0 -70.413181376453991 -29.042789386937216 0 -29.042789386937216 -9.6660193830721255 0 0 0 0 -69.563242979366052 -29.742906529990051 0 -29.742906529990051 -9.1168267248137909 0 0 0 0 -78.908574000193653 -28.656755003376958 0 -28.656755003376958 -14.230345406309539 0 0 0 0 -80.73627254160121 -33.642601197740731 0 -33.642601197740731 -11.567985922467869 0 0 0 0 -20.622290035762816 -2.8374286468615324 0 -2.8374286468615324 -33.585530202630508 0 0 0 0 -49.660244108439493 -29.612301606541529 0 -29.612301606541529 -24.358035841871839 0 0 0 0 -0.044846033609791551 -0.15215531864511495 0 -0.15215531864511495 -0.26652512129391087 0 0 0 0 -58.358496349463827 -8.8031328985147574 0 -8.8031328985147574 5.9960053579339956 0 0 0 0 -63.921991348167182 -35.818563326325439 0 -35.818563326325439 -2.9519648843530888 0 0 0 0 -55.235268069764871 -35.166756078191383 0 -35.166756078191383 -19.897274865213376 0 0 0 0 -49.989909490665248 9.1787038729908659 0 9.1787038729908659 -4.8490209049708781 0 0 0 0 54.104339669184981 50.798317359021695 0 50.798317359021695 20.348176041510669 0 0 0 0 -118.9807377992084 -32.40514439305025 0 -32.40514439305025 2.5270276470551352 0 0 0 0 -47.054551999439262 -49.512759571012595 0 -49.512759571012595 -36.695293356924822 0 0 0 0 -1.7829604256949882 2.6258569398533078 0 2.6258569398533078 -2.9969677969361666 0 0 0 0 50.007959512864772 28.553280109822254 0 28.553280109822254 7.1969823112249287 0 0 0 0 28.277323637604468 39.659306605399934 0 39.659306605399934 20.78985356729595 0 0 0 0 11.66284966641615 28.493496100560719 0 28.493496100560719 11.003067381285291 0 0 0 0 15.358875628956412 22.84330362137905 0 22.84330362137905 16.93810800953581 0 0 0 0 18.104996104022575 33.701608431703789 0 33.701608431703789 16.285058758330642 0 0 0 0 27.659012587848792 23.085924298251484 0 23.085924298251484 17.215668126185847 0 0 0 0 18.066228429447847 23.384541520179312 0 23.384541520179312 22.448009062158235 0 0 0 0 -2.2413472456765153 2.9700496032328974 0 2.9700496032328974 -2.9755717993114708 0 0 0 0 20.442493830183366 27.106036331906068 0 27.106036331906068 15.296724966687179 0 0 0 0 3.062971422862347 33.225077816749717 0 33.225077816749717 21.25073556474149 0 0 0 0 2.9490193149211734 21.639050927340847 0 21.639050927340847 14.07761582892249 0 0 0 0 4.9714551414836023 30.918908251384437 0 30.918908251384437 18.115282732667424 0 0 0 0 14.326641086710538 25.264086499245423 0 25.264086499245423 10.980365379672776 0 0 0 0 -1.4922775402487787 24.504344503066022 0 24.504344503066022 18.21686154881354 0 0 0 0 0.80182987633423863 18.382580883187742 0 18.382580883187742 -5.0972924249226708 0 0 0 0 -24.453045241278005 2.6970356074006077 0 2.6970356074006077 9.4864958822383869 0 0 0 0 -9.4107014486501157 11.646186278066011 0 11.646186278066011 7.3403028762045324 0 0 0 0 -40.442151310184045 -6.8872397340483076 0 -6.8872397340483076 9.7676598209891807 0 0 0 0 -10.337170419639278 10.222540764252813 0 10.222540764252813 15.387008785126227 0 0 0 0 -16.383327990405178 17.247766468771857 0 17.247766468771857 8.4196090143476567 0 0 0 0 10.690515054786829 30.876156013302648 0 30.876156013302648 17.312215896542952 0 0 0 0 -11.543785462642973 12.472637409297363 0 12.472637409297363 17.115842365550179 0 0 0 0 24.054638896236156 22.017831058753814 0 22.017831058753814 17.209519859427246 0 0 0 0 53.122079865705018 22.667954288936357 0 22.667954288936357 11.375650166478067 0 0 0 0 28.36636738676151 33.921668168922935 0 33.921668168922935 33.705408656714553 0 0 0 0 14.106493478476523 45.323000256815988 0 45.323000256815988 18.489053944090983 0 0 0 0 79.548387129810294 67.706468235595949 0 67.706468235595949 15.494833702394658 0 0 0 0 -101.52248101046692 -29.631982859324779 0 -29.631982859324779 -4.6472995024897372 0 0 0 0 -79.150253673352708 -1.7294382968536581 0 -1.7294382968536581 -22.204570643522686 0 0 0 0 -1.2913875895771498 1.9603542025906047 0 1.9603542025906047 -2.3694583678692398 0 0 0 0 -95.706756832930282 -9.881520728021826 0 -9.881520728021826 -20.088037918212279 0 0 0 0 -105.54926769203695 -1.3581255811400581 0 -1.3581255811400581 -11.287846259471081 0 0 0 0 -197.3324469990398 -41.687147474562153 0 -41.687147474562153 17.001823715238231 0 0 0 0 -163.70093274257579 -16.40258360208577 0 -16.40258360208577 7.2704454498609152 0 0 0 0 11.478553251336052 4.4918968954830234 0 4.4918968954830234 -24.893817546698983 0 0 0 0 -0.061591754551237887 0.10779200868641414 0 0.10779200868641414 -0.48852513451865853 0 0 0 0 -5.2801066622464532 -9.4034043676372221 0 -9.4034043676372221 3.4818197026112898 0 0 0 0 -29.017935211368012 19.704511084511466 0 19.704511084511466 -24.078702560944294 0 0 0 0 -1.9207132666679274 -0.24590892350989968 0 -0.24590892350989968 -1.0726472912951346 0 0 0 0 6.3183340204459455 15.907108565539488 0 15.907108565539488 -7.5289732435504675 0 0 0 0 -98.048426094310344 -176.87272018368981 0 -176.87272018368981 -144.80561297388078 0 0 0 0 -1.9335647217037417 -0.19292416869195295 0 -0.19292416869195295 -0.97343632255853896 0 0 0 0 13.344460531944378 77.802977190461007 0 77.802977190461007 -80.333190483110457 0 0 0 0 -183.9063889623244 -148.64351075838806 0 -148.64351075838806 81.777885109011606 0 0 0 0 -98.424492306647153 -77.390401102776821 0 -77.390401102776821 -96.025291992642224 0 0 0 0 -26.924303799374229 5.1875125694734834 0 5.1875125694734834 -8.1122494430999623 0 0 0 0 -9.8637413493057693 49.615082931700954 0 49.615082931700954 -5.2111082026679014 0 0 0 0 -44.551635740743677 46.531538137594339 0 46.531538137594339 105.94443085864947 0 0 0 0 -10.071277637019648 24.628759631288744 0 24.628759631288744 14.63789195535071 0 0 0 0 -5.2664234895335653 14.134572320688335 0 14.134572320688335 -19.71651324413142 0 0 0 0 -35.865259522686301 -10.178932246678073 0 -10.178932246678073 -7.6997524039255723 0 0 0 0 -12.606602551500828 1.5035333915440106 0 1.5035333915440106 -44.109371602682813 0 0 0 0 -74.428232690124787 -38.407901951345707 0 -38.407901951345707 -35.57580905715281 0 0 0 0 -33.628482058735472 -10.131921465660241 0 -10.131921465660241 -25.583080373095527 0 0 0 0 -60.274308699233643 -38.824433448088257 0 -38.824433448088257 -20.924107569057739 0 0 0 0 -76.474500087091428 -24.020991517209211 0 -24.020991517209211 -5.2721665970598224 0 0 0 0 -19.597905366129794 -6.0464257541257496 0 -6.0464257541257496 -15.823681649465016 0 0 0 0 -35.875973083051008 -10.154718587187631 0 -10.154718587187631 2.0256771257792252 0 0 0 0 -49.321162935326583 -18.012824807540881 0 -18.012824807540881 5.5937132678175772 0 0 0 0 -46.038025501396191 -27.22297700855998 0 -27.22297700855998 -12.424402980029299 0 0 0 0 -61.647496953488371 -29.2418161258189 0 -29.2418161258189 1.8868075633437229 0 0 0 0 -59.700759777425446 -24.709535410004719 0 -24.709535410004719 -5.7736605631121023 0 0 0 0 -63.11851424364761 -25.791577764175408 0 -25.791577764175408 -0.10057523067359853 0 0 0 0 -57.387022333882669 -3.5185137217137026 0 -3.5185137217137026 3.4648779034315567 0 0 0 0 -76.604734954115656 -33.380038909563837 0 -33.380038909563837 -31.43035617718283 0 0 0 0 -104.92864809601565 2.3078683120808421 0 2.3078683120808421 -1.2902155708761711 0 0 0 0 -112.72322566228399 5.8871184678287136 0 5.8871184678287136 -35.701575299495516 0 0 0 0 -14.4684816314616 -1.421294706609558 0 -1.421294706609558 -11.784011745388909 0 0 0 0 -26.484978364756444 31.524504466862822 0 31.524504466862822 -38.845462510926097 0 0 0 0 -35.992443856270256 12.654429989430582 0 12.654429989430582 -2.1333839574816693 0 0 0 0 -4.6559359480993407 9.3689729984233736 0 9.3689729984233736 -5.5977890804369963 0 0 0 0 -36.877301393948073 -1.0849211041769991 0 -1.0849211041769991 -3.8073142816474785 0 0 0 0 -22.563357511791992 -1.4661655350977298 0 -1.4661655350977298 -2.123510855502218 0 0 0 0 -28.487584366679357 6.3531883742023183 0 6.3531883742023183 8.0605158616175459 0 0 0 0 7.6244429352600491 5.5921694210901194 0 5.5921694210901194 -0.84689067224061887 0 0 0 0 -18.654993113006185 3.8293699393983758 0 3.8293699393983758 10.262748542943086 0 0 0 0 -10.787046040604309 -0.62837860097931753 0 -0.62837860097931753 -4.5501129414315731 0 0 0 0 -47.710698146324376 -17.955680668742133 0 -17.955680668742133 2.5072069090961833 0 0 0 0 -44.346921024355424 -18.115577045977119 0 -18.115577045977119 -2.4798436575767937 0 0 0 0 -53.794083241723456 -30.985554185183901 0 -30.985554185183901 -6.3643068356371373 0 0 0 0 -59.899754135282365 -30.760656412536264 0 -30.760656412536264 1.1479637181055011 0 0 0 0 -71.764624255067929 -20.695142234854558 0 -20.695142234854558 5.1086432566634485 0 0 0 0 -58.605888551237399 -30.782730927554411 0 -30.782730927554411 -8.6656084324895346 0 0 0 0 -63.345130865653573 -17.345357046221054 0 -17.345357046221054 -14.862171498684042 0 0 0 0 -96.242711510813024 -43.667699121429088 0 -43.667699121429088 -30.988359574764413 0 0 0 0 -38.355437856022945 -28.769472937264808 0 -28.769472937264808 -21.228111053974374 0 0 0 0 -62.838926556594743 -24.713852346599992 0 -24.713852346599992 -2.0153103935141132 0 0 0 0 -16.221567937595637 7.4956341671152131 0 7.4956341671152131 -20.791508459222626 0 0 0 0 -65.103553733816852 -11.448422626510373 0 -11.448422626510373 0.62965757315937765 0 0 0 0 -76.304828294491983 23.337701163019798 0 23.337701163019798 -87.53755671401322 0 0 0 0 1.385708495318795 -0.353631635056324 0 -0.353631635056324 -21.396802397237899 0 0 0 0 17.235424515441991 41.886514837040465 0 41.886514837040465 7.9774596856832654 0 0 0 0 -10.578817130785048 7.1336033179473137 0 7.1336033179473137 2.2180674467645929 0 0 0 0 36.969054362240058 20.44056569012271 0 20.44056569012271 3.8223579091465467 0 0 0 0 23.232749357548983 25.715262129836084 0 25.715262129836084 -0.57759798997088296 0 0 0 0 -11.069167587634682 8.0522557058390554 0 8.0522557058390554 1.0868242991576555 0 0 0 0 -11.372229004371547 -3.9333632375533512 0 -3.9333632375533512 3.7064266448441074 0 0 0 0 -26.190957346849018 98.303672252670836 0 98.303672252670836 -79.912286607521708 0 0 0 0 98.676257823023093 54.883918528184331 0 54.883918528184331 -81.301146356492296 0 0 0 0 -0.47417433457160518 0.67101466275391675 0 0.67101466275391675 -1.0173763542914791 0 0 0 0 22.573036587546085 13.240558502856658 0 13.240558502856658 -7.0163241118914925 0 0 0 0 20.652388586568577 33.200302556963948 0 33.200302556963948 23.801163391208402 0 0 0 0 24.633976110230265 39.081458711982513 0 39.081458711982513 -96.974736188159454 0 0 0 0 24.909085106541625 43.688136571248698 0 43.688136571248698 -23.054841644162167 0 0 0 0 -84.768336757153747 84.97538910178713 0 84.97538910178713 -71.857575395085433 0 0 0 0 -42.826592560111749 37.777525637314383 0 37.777525637314383 -29.778095386182677 0 0 0 0 -51.680602264568279 -0.62376116894105849 0 -0.62376116894105849 7.8634043110035314 0 0 0 0 -8.7234695927108987 41.251653914323697 0 41.251653914323697 -29.656112872502263 0 0 0 0 -47.596383835084453 -0.59900055251327444 0 -0.59900055251327444 -6.7534397217047513 0 0 0 0 -139.96532916552246 10.068419740650601 0 10.068419740650601 -7.6431160049442619 0 0 0 0 -155.81394769370263 46.472244671042546 0 46.472244671042546 17.179888699177511 0 0 0 0 -0.72375847097873702 0.51119902312772325 0 0.51119902312772325 -12.908536093193717 0 0 0 0 -106.18989374166409 -21.176960052607058 0 -21.176960052607058 13.654354091601434 0 0 0 0 -1.5659793177732713 0.44758661828761354 0 0.44758661828761354 -0.12299318863590092 0 0 0 0 -16.884690650531184 72.610709915899577 0 72.610709915899577 -120.14163441788453 0 0 0 0 1.2417027539120227 11.682768383084756 0 11.682768383084756 1.7226724666678308 0 0 0 0 3.621144893769042 10.286322545613228 0 10.286322545613228 -5.5676916866605097 0 0 0 0 -3.0341502454330112 6.204670610925163 0 6.204670610925163 11.222637060942152 0 0 0 0 2.336197947358869 4.833341316396524 0 4.833341316396524 -4.3088344973309027 0 0 0 0 1.436857606297508 3.6764095062212867 0 3.6764095062212867 -2.7700652799257028 0 0 0 0 -4.1356316083029352 0.88301244940010304 0 0.88301244940010304 -0.048475917176896192 0 0 0 0 -40.241967244790771 61.500726055668935 0 61.500726055668935 41.352038327392094 0 0 0 0 2.8285602918085715 -10.080540312522515 0 -10.080540312522515 53.206371803595403 0 0 0 0 -1.4989103998832434 -1.9715748088637497 0 -1.9715748088637497 64.695521934298313 0 0 0 0 -2.845021528451408 -0.32530728233777206 0 -0.32530728233777206 0.45081347327981358 0 0 0 0 -1.3057175627768629 0.10039211950768845 0 0.10039211950768845 1.9370199426424506 0 0 0 0 -0.55745648326228547 -4.1653480603711728 0 -4.1653480603711728 3.5646802411276894 0 0 0 0 4.245951591424955 3.471973011686238 0 3.471973011686238 -12.81168850091332 0 0 0 0 -2.1972415781353352 0.57735196200781091 0 0.57735196200781091 0.91358688180486702 0 0 0 0 -2.387845665102077 0.56037002207760622 0 0.56037002207760622 7.127308510241221 0 0 0 0 7.1803668097570608 -16.546621595924925 0 -16.546621595924925 1.4849324790798943 0 0 0 0 -1.4383229857078952 -1.1760968044947271 0 -1.1760968044947271 0.24702387694751038 0 0 0 0 0.82607360167048682 -8.2536942823060286 0 -8.2536942823060286 59.083476124739065 0 0 0 0 1.0507202261105704 -2.4420028454802036 0 -2.4420028454802036 45.429683066587593 0 0 0 0 -3.7664178616087156 24.919820104444682 0 24.919820104444682 40.752583867525345 0 0 0 0 1.0017100319328165 -1.8070063977201443 0 -1.8070063977201443 82.616468545424283 0 0 0 0 -0.12709310089934789 0.45543045454581232 0 0.45543045454581232 0.43716264609923622 0 0 0 0 -45.315027119062506 -3.69410709354554 0 -3.69410709354554 -9.850577528196073 0 0 0 0 18.477327185124977 -9.6374509435580009 0 -9.6374509435580009 -40.245349468609561 0 0 0 0 -117.53498834840593 41.457840549854112 0 41.457840549854112 -11.596893289316043 0 0 0 0 -8.3016831209947668 31.435033490437416 0 31.435033490437416 -29.363014583657687 0 0 0 0 -161.57169629850387 27.498627422721039 0 27.498627422721039 20.724507742342759 0 0 0 0 -90.137178516353288 67.415598533622045 0 67.415598533622045 -39.926649666947831 0 0 0 0 -118.21344113681096 38.713569386402888 0 38.713569386402888 14.504221714330527 0 0 0 0 -202.92253139604327 59.721710882218325 0 59.721710882218325 9.4937447361163798 0 0 0 0 -1.7604989784331773 -0.18378412328404919 0 -0.18378412328404919 0.38309919564808309 0 0 0 0 -5.5381970869111683 -1.0263852068142398 0 -1.0263852068142398 4.0057392954376638 0 0 0 0 -179.28852648828433 -63.505301093304922 0 -63.505301093304922 57.75521860902802 0 0 0 0 -5.2414097542878153 -42.556632386614183 0 -42.556632386614183 37.093404878303772 0 0 0 0 -185.82757730550793 11.137364326221785 0 11.137364326221785 93.123774687924822 0 0 0 0 -294.53020210510249 23.873409336460938 0 23.873409336460938 94.282796187672375 0 0 0 0 -124.57467398857762 34.506123707054712 0 34.506123707054712 41.987833454054794 0 0 0 0 -160.38162124583414 14.243704857468174 0 14.243704857468174 70.539977912470249 0 0 0 0 -178.75806787395959 14.015073727668778 0 14.015073727668778 74.200810391060259 0 0 0 0 -158.66586741521866 -4.3234336547447469 0 -4.3234336547447469 57.070104941392742 0 0 0 0 -213.77326037943112 -20.638187190030521 0 -20.638187190030521 54.121540386315246 0 0 0 0 -176.19016819905301 -34.259330197855661 0 -34.259330197855661 -32.610658840975702 0 0 0 0 -0.6970806624503556 -0.34981584850715725 0 -0.34981584850715725 -0.01643530336724025 0 0 0 0 -433.56668902123602 -84.757587843314695 0 -84.757587843314695 45.968673754133874 0 0 0 0 -197.97387114232288 -51.260578345901507 0 -51.260578345901507 19.962609352475738 0 0 0 0 50.101587478740839 -43.255882427751999 0 -43.255882427751999 -61.265144071122208 0 0 0 0 51.013537826919674 -10.889184242568206 0 -10.889184242568206 -62.11297664583455 0 0 0 0 47.358014956024363 -14.389895390834596 0 -14.389895390834596 -36.64009101971169 0 0 0 0 17.881115212264262 -10.01061999735478 0 -10.01061999735478 21.475910371602595 0 0 0 0 16.717160548191259 -13.212700042435756 0 -13.212700042435756 46.429524926937802 0 0 0 0 -10.801063106063339 14.995277403090768 0 14.995277403090768 27.51078884180572 0 0 0 0 6.5376411132851899 -16.531785399306187 0 -16.531785399306187 51.446655202158524 0 0 0 0 -5.0692635036975844 -9.8170953947051771 0 -9.8170953947051771 53.207200959204158 0 0 0 0 -1.2988136338450254 -0.42812748829567726 0 -0.42812748829567726 0.014755597592835901 0 0 0 0 2.9825548952676399 -21.02014711414455 0 -21.02014711414455 -0.018363938463153318 0 0 0 0 5.6371767190898936 -0.7516040272891189 0 -0.7516040272891189 43.692259327597867 0 0 0 0 -2.106521036056165 10.458041851257519 0 10.458041851257519 0.35146644320752785 0 0 0 0 -0.91457185966641674 -0.31876495896279944 0 -0.31876495896279944 0.019113663136444081 0 0 0 0 7.3159393743717374 -5.980055247003861 0 -5.980055247003861 28.206973087579001 0 0 0 0 4.8372307673816977 14.402323959620844 0 14.402323959620844 9.7503803403996017 0 0 0 0 -0.24321633376939644 15.279727344540078 0 15.279727344540078 11.162242698639488 0 0 0 0 3.7140309553706174 17.409488876872047 0 17.409488876872047 5.7370971250095408 0 0 0 0 5.0534624971392077 14.075900038693263 0 14.075900038693263 10.859600126692044 0 0 0 0 6.3340230939625144 19.002948823331664 0 19.002948823331664 12.061696862725285 0 0 0 0 -86.748593415195955 10.18896704521087 0 10.18896704521087 22.355621374652955 0 0 0 0 -87.859695352618246 2.8103357981597945 0 2.8103357981597945 -2.6322593640492045 0 0 0 0 -200.37653628609579 -32.010852319636072 0 -32.010852319636072 -6.4917486100574138 0 0 0 0 -78.102295674945708 -22.147484917774584 0 -22.147484917774584 78.058958255029381 0 0 0 0 -137.53095686177085 70.917819922654303 0 70.917819922654303 -65.357524292197496 0 0 0 0 -2.1764845686740184 2.6312555809725402 0 2.6312555809725402 0.75070346580068459 0 0 0 0 7.1807298037374494 20.325482269899624 0 20.325482269899624 6.6995044461873476 0 0 0 0 -9.6474506209471063 6.778485263206127 0 6.778485263206127 4.9837744139986997 0 0 0 0 1.7865140055378106 52.218822124544523 0 52.218822124544523 4.7530618964329072 0 0 0 0 6.9587918581760277 30.936694358505861 0 30.936694358505861 5.7455919637836814 0 0 0 0 -2.583499654612524 15.075507408311182 0 15.075507408311182 21.378908084914656 0 0 0 0 -2.6284365399110223 6.8041563140981562 0 6.8041563140981562 -5.3609959356726229 0 0 0 0 -99.103660857161231 28.983442887874901 0 28.983442887874901 -7.4870597419945852 0 0 0 0 -186.08452516261104 20.983221830239501 0 20.983221830239501 62.280147828118629 0 0 0 0 -186.3988478412175 -8.4297462353431456 0 -8.4297462353431456 28.975116380837449 0 0 0 0 -160.84844849425554 44.180213059082973 0 44.180213059082973 -6.354275342967469 0 0 0 0 -85.987197316814672 -41.312888942203983 0 -41.312888942203983 -51.237134664056384 0 0 0 0 -209.39126842767928 -71.327586572167434 0 -71.327586572167434 -5.3392610080170471 0 0 0 0 -154.02178856937189 -20.006632414490582 0 -20.006632414490582 32.29843059325367 0 0 0 0 21.90215515798991 12.608483914209046 0 12.608483914209046 8.3040826530853451 0 0 0 0 -1.3225723579582027 1.4786703443869902 0 1.4786703443869902 -2.8984954290197562 0 0 0 0 -118.2966272039921 -84.039730521050501 0 -84.039730521050501 -81.272124200367216 0 0 0 0 18.315939862798132 -1.8614810359873672 0 -1.8614810359873672 -11.147937682051634 0 0 0 0 17.50525399128901 -5.1472787147660597 0 -5.1472787147660597 -24.371182000735189 0 0 0 0 32.845513268085597 18.85672985667054 0 18.85672985667054 -14.668643646507235 0 0 0 0 23.11979070441248 64.470346156958342 0 64.470346156958342 -13.921418882358012 0 0 0 0 4.3107252994400369 -14.157499716931966 0 -14.157499716931966 -17.930608491280964 0 0 0 0 -51.724158657209955 27.324400295526289 0 27.324400295526289 18.671761925131932 0 0 0 0 4.6015027872086947 10.834548916490018 0 10.834548916490018 6.1897275978125572 0 0 0 0 3.7870422429496102 19.258988742439783 0 19.258988742439783 7.6684864052358535 0 0 0 0 1.4915923919734269 17.802836422956261 0 17.802836422956261 -5.4252371377940563 0 0 0 0 -1.6714586587631857 11.869635228335312 0 11.869635228335312 4.2249691970823733 0 0 0 0 6.6714114886899551 -2.7257973270822049 0 -2.7257973270822049 17.858765349227951 0 0 0 0 2.0252790115888324 9.2673217877564014 0 9.2673217877564014 5.4948206304801932 0 0 0 0 -27.16092987353386 4.3695458325129266 0 4.3695458325129266 -3.6740365158757413 0 0 0 0 -2.571842166081133 3.1516935291921824 0 3.1516935291921824 0.61254742885941993 0 0 0 0 -5.0332521098080178 11.823714540015885 0 11.823714540015885 29.383677042053819 0 0 0 0 -71.04444015036006 31.295282106189859 0 31.295282106189859 8.8440930072763422 0 0 0 0 -62.122811786812235 15.312387991862579 0 15.312387991862579 23.760302319392054 0 0 0 0 -36.036804585724894 16.933316866106111 0 16.933316866106111 9.5273545785718454 0 0 0 0 -4.6642749713404683 7.2708584033615544 0 7.2708584033615544 -6.1725365935447885 0 0 0 0 -2.0729570864768903 13.69420869460518 0 13.69420869460518 4.2923996563904439 0 0 0 0 -98.51130080582152 -1.3530266328558582 0 -1.3530266328558582 32.626249321276333 0 0 0 0 -83.591367399700175 -21.938406460970299 0 -21.938406460970299 30.049155461289558 0 0 0 0 -56.290682699804165 -11.080890327605914 0 -11.080890327605914 -4.7719295459392299 0 0 0 0 -80.21487058151763 0.76597998908930975 0 0.76597998908930975 34.907981597615958 0 0 0 0 -73.051694714499718 -18.828884784272098 0 -18.828884784272098 -36.475506233330123 0 0 0 0 -3.4862089903106863 3.70115901127512 0 3.70115901127512 -4.3911739451255407 0 0 0 0 -85.094280787054231 -24.340149497269067 0 -24.340149497269067 -4.8468573611584986 0 0 0 0 -111.56804187707894 -29.554360162994687 0 -29.554360162994687 -38.932543783830631 0 0 0 0 2.2169237181060453 12.883888691307845 0 12.883888691307845 4.3345300857655573 0 0 0 0 6.1520992803648369 19.517125449132152 0 19.517125449132152 15.515370684493746 0 0 0 0 -4.2475413051224677 13.066992441171436 0 13.066992441171436 14.821737578943097 0 0 0 0 4.5311573115689043 8.5610028344043805 0 8.5610028344043805 11.436182031321664 0 0 0 0 5.1871405809642965 13.401070394434214 0 13.401070394434214 9.605810792263469 0 0 0 0 -30.228350380655684 11.142243960142594 0 11.142243960142594 15.054149489765564 0 0 0 0 19.935822156027825 -14.308094305088064 0 -14.308094305088064 5.1016868713161116 0 0 0 0 -37.806697819087276 45.985508224824059 0 45.985508224824059 -4.0787450737891504 0 0 0 0 -19.684874904198296 22.893705538917402 0 22.893705538917402 11.525525479796912 0 0 0 0 22.767804331512707 35.922862263221518 0 35.922862263221518 -26.558728586856489 0 0 0 0 21.905180404484781 24.237207183710439 0 24.237207183710439 1.7797039053467074 0 0 0 0 -1.2797718542651815 1.2719948156047529 0 1.2719948156047529 -1.3828108842441911 0 0 0 0 -291.8933837686418 -61.243356581794643 0 -61.243356581794643 32.258804612225475 0 0 0 0 -167.76784426614722 197.88750425138798 0 197.88750425138798 118.79857426326578 0 0 0 0 24.965074140094657 -18.691839240394614 0 -18.691839240394614 12.152537046693975 0 0 0 0 -263.64366949000396 -123.95904177260741 0 -123.95904177260741 10.905763546824119 0 0 0 0 -3.04811566183146 -1.4966277217999941 0 -1.4966277217999941 -0.57348057273449182 0 0 0 0 44.79223573026502 45.460184210667933 0 45.460184210667933 -26.033212217447446 0 0 0 0 20.031984328943508 69.250502383315421 0 69.250502383315421 -22.795249923467367 0 0 0 0 3.1256285933050094 -1.5816514041813932 0 -1.5816514041813932 13.330222953466119 0 0 0 0 -5.3565333930232555 -16.547149300616681 0 -16.547149300616681 3.8509330755314863 0 0 0 0 -61.423272889336658 101.80858393006847 0 101.80858393006847 -29.836442090377545 0 0 0 0 -1.4116327328896183 -0.44315514386511978 0 -0.44315514386511978 -0.056311075841570066 0 0 0 0 7.0850470994791976 10.097297976926612 0 10.097297976926612 13.315953427218886 0 0 0 0 -1.0944634958450479 2.6787525335272449 0 2.6787525335272449 10.322390458020182 0 0 0 0 -11.333403512280711 8.1098784034489171 0 8.1098784034489171 13.57560615824957 0 0 0 0 -11.874013795955761 -3.8800690513477747 0 -3.8800690513477747 20.22677880487538 0 0 0 0 -7.7450625137053066 0.66841769544342355 0 0.66841769544342355 23.975976520310013 0 0 0 0 -29.518044056979306 -31.685156265867846 0 -31.685156265867846 6.085870293154187 0 0 0 0 -14.980789757471939 -14.1483679695109 0 -14.1483679695109 25.543082068050353 0 0 0 0 -13.461000755609348 -10.029990797978485 0 -10.029990797978485 9.728630174063909 0 0 0 0 -62.295864715337302 -23.622050675736546 0 -23.622050675736546 47.747178397064062 0 0 0 0 -10.144484308078972 13.344630769980739 0 13.344630769980739 13.876484251559305 0 0 0 0 12.347890539415857 31.446691566236609 0 31.446691566236609 6.619630105323985 0 0 0 0 -61.147354853041179 -8.070515206515779 0 -8.070515206515779 28.958993750502643 0 0 0 0 30.913366366362425 87.875672300914843 0 87.875672300914843 -67.129612202447419 0 0 0 0 -11.405577177177163 8.4561202303993657 0 8.4561202303993657 0.64796203762471127 0 0 0 0 -107.85122858583236 47.67645909671036 0 47.67645909671036 21.723059164014042 0 0 0 0 -156.74490896876614 -79.584533120716344 0 -79.584533120716344 -72.934151729617156 0 0 0 0 -0.21890118401862679 -0.34577990050740759 0 -0.34577990050740759 -0.66715692136121352 0 0 0 0 -188.65532827050106 75.043602080295045 0 75.043602080295045 -27.513692789360476 0 0 0 0 13.082507719438581 -63.613438675335374 0 -63.613438675335374 117.95429538345877 0 0 0 0 -185.68855468759284 -222.95980906921523 0 -222.95980906921523 40.998831899554219 0 0 0 0 114.77422956386363 -70.293253235996474 0 -70.293253235996474 -111.19231413857412 0 0 0 0 23.312021408553846 -71.233038700083881 0 -71.233038700083881 -118.76932896009666 0 0 0 0 22.085225541233513 -75.211362305575449 0 -75.211362305575449 -102.74769137412372 0 0 0 0 3.7274985107724206 -33.001438391166829 0 -33.001438391166829 -63.676995748499252 0 0 0 0 40.459302724691042 16.637673007649425 0 16.637673007649425 -15.320608613814954 0 0 0 0 -25.609835413540281 -25.410839440854723 0 -25.410839440854723 66.869895280938465 0 0 0 0 -73.597350229436415 8.8198464070137845 0 8.8198464070137845 27.174620551335856 0 0 0 0 -23.386323622758482 -12.703689710372341 0 -12.703689710372341 2.4508434090676019 0 0 0 0 -56.560932127097658 14.250683804143065 0 14.250683804143065 -7.3496783697406158 0 0 0 0 -113.91104280157379 -16.572269628790082 0 -16.572269628790082 13.486955211783538 0 0 0 0 -91.712758434149237 53.842673537400195 0 53.842673537400195 -41.21584115315099 0 0 0 0 -1.6491017187107992 -1.2223588209851606 0 -1.2223588209851606 -1.2060359752029619 0 0 0 0 -0.53816730457850248 0.95967021220328697 0 0.95967021220328697 1.4349858072513939 0 0 0 0 27.042722135682652 -45.62302561358257 0 -45.62302561358257 53.908151308099626 0 0 0 0 -71.545772007191772 37.815177117668696 0 37.815177117668696 -9.0312270772443313 0 0 0 0 -15.571701654271237 6.9747983948944174 0 6.9747983948944174 11.996419166785813 0 0 0 0 2.024799083443213 -6.8577573056059151 0 -6.8577573056059151 12.415333554124327 0 0 0 0 -11.715709261031861 -5.8144294429456025 0 -5.8144294429456025 34.652824352046423 0 0 0 0 -14.367460247105555 10.561908282389041 0 10.561908282389041 37.507829183367527 0 0 0 0 -23.622734536353164 23.623786276670415 0 23.623786276670415 19.788141909716757 0 0 0 0 -13.751720052699966 18.703360384612168 0 18.703360384612168 18.599346996808613 0 0 0 0 -48.89816292154137 -11.843773221272784 0 -11.843773221272784 113.76095302333974 0 0 0 0 -39.650334532481793 72.819753218332664 0 72.819753218332664 58.284098727263313 0 0 0 0 76.032188368098105 -35.929289599837304 0 -35.929289599837304 -172.84656250992049 0 0 0 0 -249.64881360661911 -212.91359991196572 0 -212.91359991196572 -110.17134579685717 0 0 0 0 -44.643876769829149 -18.099414201963128 0 -18.099414201963128 -87.022601421328204 0 0 0 0 -170.97450867094085 -29.627782829017356 0 -29.627782829017356 -3.9373084676500554 0 0 0 0 -144.04003431930323 -26.526507841256439 0 -26.526507841256439 -12.242736564763916 0 0 0 0 49.307521103552062 -0.24157342606048715 0 -0.24157342606048715 -27.999616999656624 0 0 0 0 -10.028530240148029 26.597214492220331 0 26.597214492220331 -1.924648353613577 0 0 0 0 -40.743481784730193 47.918241620871456 0 47.918241620871456 -12.620010958380817 0 0 0 0 -29.867244606753957 3.4871357758369186 0 3.4871357758369186 -29.03566562060837 0 0 0 0 -39.260267363142702 59.455076582388223 0 59.455076582388223 -14.121964462758967 0 0 0 0 -140.052611932746 29.645931761210704 0 29.645931761210704 1.7728530980195529 0 0 0 0 36.864245376360486 44.362074070675646 0 44.362074070675646 -53.105711472831132 0 0 0 0 30.467322136528765 -89.280616902558464 0 -89.280616902558464 -62.235129104619801 0 0 0 0 117.02373759353486 44.502005042713137 0 44.502005042713137 -66.084117928469709 0 0 0 0 -1.6741192882534612 -0.99486581613450298 0 -0.99486581613450298 -0.6081810353671312 0 0 0 0 -201.97746595555873 28.031900578599561 0 28.031900578599561 -7.4517302256759734 0 0 0 0 -298.44007643250006 -46.620763491139769 0 -46.620763491139769 12.228605249142127 0 0 0 0 -298.48819409035605 -37.900884620853844 0 -37.900884620853844 42.228146462357714 0 0 0 0 229.42868997677169 -173.19312077936189 0 -173.19312077936189 -71.251538272853651 0 0 0 0 -396.70480873786983 -67.897849100860384 0 -67.897849100860384 47.305370156168834 0 0 0 0 -0.61895362204272075 -1.1388952384855937 0 -1.1388952384855937 -1.3803286891161668 0 0 0 0 -52.15647293092934 -219.33114097784704 0 -219.33114097784704 -5.57198716743261 0 0 0 0 -38.545114615305465 -50.922187820866071 0 -50.922187820866071 5.5384335960291651 0 0 0 0 82.450722285769189 -40.703823162331091 0 -40.703823162331091 -103.54129672653306 0 0 0 0 -29.85706209572345 -75.235282773011022 0 -75.235282773011022 72.095176295627823 0 0 0 0 105.03489495392523 -7.3371254123144638 0 -7.3371254123144638 17.712131370304007 0 0 0 0 107.34916379228434 -77.462053127912839 0 -77.462053127912839 26.21738715215389 0 0 0 0 -9.463008568688565 -20.535843952483503 0 -20.535843952483503 30.060104668213739 0 0 0 0 -20.965771357626636 -17.661465558130654 0 -17.661465558130654 -115.82296554391658 0 0 0 0 -1.3918829708417704 -2.5771320288497375 0 -2.5771320288497375 -2.7066804344122644 0 0 0 0 -200.44292300917004 36.102488229264978 0 36.102488229264978 15.719848643637825 0 0 0 0 -80.513821776261466 34.084292613648103 0 34.084292613648103 12.128430674659484 0 0 0 0 30.299982089403329 -34.987904756184037 0 -34.987904756184037 17.457898866184337 0 0 0 0 -25.545757039627915 -4.4162077768576182 0 -4.4162077768576182 2.448678122254762 0 0 0 0 -1.521141720081264 -2.640580669799796 0 -2.640580669799796 -2.2491826613374717 0 0 0 0 -4.666459081301582 -37.515526958469486 0 -37.515526958469486 -45.776562613794894 0 0 0 0 -75.346113047250583 15.688786168220979 0 15.688786168220979 -67.496342313875232 0 0 0 0 -119.9332106057991 -107.40248911889974 0 -107.40248911889974 -61.70869109980854 0 0 0 0 -214.27872542515979 -85.724375844327653 0 -85.724375844327653 -6.2296366422549312 0 0 0 0 -115.65729052733695 -29.545982245288812 0 -29.545982245288812 19.633626486964488 0 0 0 0 -145.0370587086727 -22.52099153233155 0 -22.52099153233155 23.262367032318423 0 0 0 0 -93.363517954714553 -18.875001233691179 0 -18.875001233691179 3.205999810746107 0 0 0 0 -107.65081440007634 -47.429396611502057 0 -47.429396611502057 -44.215318897908944 0 0 0 0 -119.30960741351737 -18.052826205621272 0 -18.052826205621272 39.798481038193813 0 0 0 0 -96.665628168046169 -25.311766798478857 0 -25.311766798478857 4.9662805730297492 0 0 0 0 -112.96948720459568 -7.966774546113335 0 -7.966774546113335 29.316179925729159 0 0 0 0 -103.7448531712198 -11.217767543077457 0 -11.217767543077457 27.94584344369332 0 0 0 0 -104.52275448165892 -27.067702783362677 0 -27.067702783362677 30.997326840733649 0 0 0 0 -99.198496970831911 -22.220839277177674 0 -22.220839277177674 14.87256698809415 0 0 0 0 -105.35317114998179 -27.28020210831653 0 -27.28020210831653 34.205083734341684 0 0 0 0 -111.0429206112567 -31.885831429014331 0 -31.885831429014331 59.35145127379468 0 0 0 0 -57.858900923110923 0.56232486862325004 0 0.56232486862325004 5.0272843801436693 0 0 0 0 -102.0230463617745 -26.144106915194641 0 -26.144106915194641 12.32116613875553 0 0 0 0 -60.973693286425259 14.170106349906746 0 14.170106349906746 82.596252242832122 0 0 0 0 -39.261545858262252 -42.089433787404289 0 -42.089433787404289 -24.568428736529199 0 0 0 0 -0.20247553380437466 -0.26107309595827144 0 -0.26107309595827144 -0.041946835704105734 0 0 0 0 3.4097342010563807 -2.7368295980418793 0 -2.7368295980418793 -2.1882783531391397 0 0 0 0 0.96685794642689871 3.930500225615333 0 3.930500225615333 -20.305380022422526 0 0 0 0 -1.8221394276096028 -2.2288358684776384 0 -2.2288358684776384 -1.1123845131236756 0 0 0 0 -27.837110335585749 -22.70427995629359 0 -22.70427995629359 101.41888041562515 0 0 0 0 -0.092421087771441535 -1.2110601265199787 0 -1.2110601265199787 -0.50132458047847761 0 0 0 0 4.7322768486483255 0.67429679701990608 0 0.67429679701990608 79.509978811715882 0 0 0 0 4.7322768486264977 0.67429679701945133 0 0.67429679701945133 79.509978811715897 0 0 0 0 4.5762316983418714 -28.691116859963898 0 -28.691116859963898 31.484202895069984 0 0 0 0 6.5837947754735069 -37.65329140898217 0 -37.65329140898217 53.013583089706003 0 0 0 0 -9.332476144912107 -2.3951487058589009 0 -2.3951487058589009 19.801744062208172 0 0 0 0 -22.715310533843876 -2.3259452085467274 0 -2.3259452085467274 20.487723301780704 0 0 0 0 8.4070159721050004 -8.455489159621834 0 -8.455489159621834 9.7842585462087754 0 0 0 0 -100.22082887161196 -22.929991863189457 0 -22.929991863189457 43.038025799029356 0 0 0 0 -95.150816637029493 -32.991162043478596 0 -32.991162043478596 34.111632654720097 0 0 0 0 -27.966410967263073 -16.213422491740403 0 -16.213422491740403 -15.068591525488955 0 0 0 0 -48.517900503419696 -9.6917807027918741 0 -9.6917807027918741 9.407594115178199 0 0 0 0 -41.453830113418917 -25.810978350156802 0 -25.810978350156802 -8.8710130352810665 0 0 0 0 -86.756250912389078 -29.989837454162512 0 -29.989837454162512 -0.98126337472513114 0 0 0 0 -17.033203117861376 -28.652447239837016 0 -28.652447239837016 -35.397785894412436 0 0 0 0 -15.849503196814339 -29.798356133326138 0 -29.798356133326138 -3.1782538090424168 0 0 0 0 -14.203949703987746 -13.376619512588718 0 -13.376619512588718 -18.116564848206735 0 0 0 0 -32.704051086539039 -24.743581863059831 0 -24.743581863059831 -35.356180863971417 0 0 0 0 -44.355017882701759 -37.136964345419074 0 -37.136964345419074 -35.766597037479187 0 0 0 0 -48.380647396656968 -26.203558703444457 0 -26.203558703444457 -34.619905303118685 0 0 0 0 -22.152414523727202 -42.649965720580212 0 -42.649965720580212 -37.338524091435374 0 0 0 0 7.5463937078311574 -20.642228094572602 0 -20.642228094572602 -42.24902025891879 0 0 0 0 -17.045314347669773 -15.935129307590273 0 -15.935129307590273 -30.639721423257015 0 0 0 0 -30.523818511070203 -7.3987811129395595 0 -7.3987811129395595 16.939890685080854 0 0 0 0 -6.5695869998216949 -19.196515485017358 0 -19.196515485017358 -29.652282490446396 0 0 0 0 -0.34976155516751106 0.18705743351581461 0 0.18705743351581461 0.39368601211201781 0 0 0 0 -339.12716370624094 -64.585620474972302 0 -64.585620474972302 9.2895689148504061 0 0 0 0 -143.70189658596018 -6.870482062682612 0 -6.870482062682612 -27.895642212179155 0 0 0 0 -86.563539497716192 -83.816021816768171 0 -83.816021816768171 -46.027362315444833 0 0 0 0 -152.02724282946292 -21.849356717593025 0 -21.849356717593025 -11.745315896254851 0 0 0 0 -133.04239782010154 -39.505072022968875 0 -39.505072022968875 -5.282738040957156 0 0 0 0 -128.30898539306258 -22.278595106623683 0 -22.278595106623683 -26.602088778493226 0 0 0 0 -170.30316068231059 -16.205306395786238 0 -16.205306395786238 13.321116792799558 0 0 0 0 -86.470420070054388 -22.408054931415165 0 -22.408054931415165 -7.4752185430371583 0 0 0 0 -114.44703597141779 -39.569027162556239 0 -39.569027162556239 20.722960889771798 0 0 0 0 -100.38520675671273 -27.227828650490032 0 -27.227828650490032 30.950527479056063 0 0 0 0 -113.29637969384811 -4.6036963365418906 0 -4.6036963365418906 3.1839309831443643 0 0 0 0 -0.13764969871674815 0.19144447925562957 0 0.19144447925562957 0.37997854243488538 0 0 0 0 -162.21508798489936 31.22775908627807 0 31.22775908627807 29.825945755886551 0 0 0 0 -61.658077056525144 -39.486728016979896 0 -39.486728016979896 26.570276356229613 0 0 0 0 -103.14786990503126 8.6121675942781621 0 8.6121675942781621 -22.370969459271009 0 0 0 0 -50.928509031698923 17.989809572231707 0 17.989809572231707 -16.412103498822489 0 0 0 0 -90.8721543783995 33.716101124849132 0 33.716101124849132 0.17019018727910407 0 0 0 0 -0.34971353641082459 0.10158456367136992 0 0.10158456367136992 0.85523261438679832 0 0 0 0 -165.94187507375864 22.543416422514099 0 22.543416422514099 13.127445031928573 0 0 0 0 -1.3221900415312575 26.122180458793849 0 26.122180458793849 3.9880703794385681 0 0 0 0 -11.01586579958871 22.5084959524618 0 22.5084959524618 8.4438199499834354 0 0 0 0 -13.78915826591583 11.221904695644298 0 11.221904695644298 -3.9650062078214319 0 0 0 0 -13.185702253902491 26.717780383094123 0 26.717780383094123 2.1798511918289023 0 0 0 0 -67.609967405689531 5.5773677122053869 0 5.5773677122053869 9.4442405243959229 0 0 0 0 -44.808572116504365 13.26831286772665 0 13.26831286772665 -2.3711955257248292 0 0 0 0 -33.054862205462996 -0.63173511881484501 0 -0.63173511881484501 7.3335650293792014 0 0 0 0 -35.392580649309821 28.766950198584766 0 28.766950198584766 -7.3410596539022208 0 0 0 0 -48.974006254087726 12.062676598438088 0 12.062676598438088 -3.8419604215573315 0 0 0 0 4.0409004075445409 7.0672823761519794 0 7.0672823761519794 -9.8270094140350466 0 0 0 0 -14.540122722013621 -12.576105761898816 0 -12.576105761898816 12.098703508764459 0 0 0 0 -10.835336301899588 35.858344951658637 0 35.858344951658637 -2.579485294509368 0 0 0 0 5.1714777671631964 11.006123754938812 0 11.006123754938812 -14.388230396878498 0 0 0 0 -45.419295978362697 6.0047107751015005 0 6.0047107751015005 -20.916153032078 0 0 0 0 -41.848239156908221 15.520440511296727 0 15.520440511296727 -12.227936540670271 0 0 0 0 -17.780706905046827 -16.409520452408287 0 -16.409520452408287 -15.88721054585173 0 0 0 0 0.11471017786698212 -13.032085034194324 0 -13.032085034194324 -10.362303779318154 0 0 0 0 16.002860907941795 17.232429668071177 0 17.232429668071177 -0.41100508217596143 0 0 0 0 -111.13382749487027 30.41031575459624 0 30.41031575459624 -15.46960077370386 0 0 0 0 -107.44473826432659 18.790634612887175 0 18.790634612887175 1.9368768805538821 0 0 0 0 -82.963456914112612 20.225751695348663 0 20.225751695348663 -18.040130010316716 0 0 0 0 -87.574512636230338 37.661200869462164 0 37.661200869462164 -40.254544136860659 0 0 0 0 -176.44430656649183 41.329073923335216 0 41.329073923335216 -16.613329386811074 0 0 0 0 -174.63326257317931 36.275697787280706 0 36.275697787280706 -5.3626095451122637 0 0 0 0 -132.94638508839853 14.725779474938008 0 14.725779474938008 -9.5679585905144222 0 0 0 0 -231.53980938555105 30.910326110823917 0 30.910326110823917 -11.893133608743483 0 0 0 0 -151.75982287448096 77.110260589016207 0 77.110260589016207 -141.64647288200922 0 0 0 0 -194.93048331938553 -32.344131640481464 0 -32.344131640481464 -92.937147301828645 0 0 0 0 -140.87861307060211 42.591123776247684 0 42.591123776247684 -38.366493041318336 0 0 0 0 -104.0539149631386 53.018269532419936 0 53.018269532419936 -53.600551136087233 0 0 0 0 -90.379237676766934 21.607448344602972 0 21.607448344602972 -27.348346951795747 0 0 0 0 -32.869031921105488 1.6452656658336764 0 1.6452656658336764 -41.702692413082559 0 0 0 0 -61.116528357993957 30.097237279471983 0 30.097237279471983 -54.078006478473071 0 0 0 0 -23.717475286837725 -3.5052745604784832 0 -3.5052745604784832 -44.37346147955634 0 0 0 0 -62.679398752488851 56.984921975906218 0 56.984921975906218 -75.189697711469307 0 0 0 0 -46.413749036550144 -42.892672230552762 0 -42.892672230552762 -72.901782594401311 0 0 0 0 -48.782227970514214 -3.1065113944124505 0 -3.1065113944124505 21.541440917857472 0 0 0 0 -7.7251404378039297 -11.605527516542679 0 -11.605527516542679 -29.214450901953569 0 0 0 0 -26.052106539007582 0.91959725677997994 0 0.91959725677997994 -35.177355792840444 0 0 0 0 -0.78216569964834548 -1.3877976540085868 0 -1.3877976540085868 -0.62853911501618009 0 0 0 0 -294.34550971915451 -99.205070445048477 0 -99.205070445048477 -14.888546877904673 0 0 0 0 -194.75376000310359 -59.286577360784563 0 -59.286577360784563 -400.93826131418336 0 0 0 0 -126.24412000238226 -52.106570689878936 0 -52.106570689878936 -8.3115217172285156 0 0 0 0 -130.15982370657821 -28.584769357681921 0 -28.584769357681921 -125.40151978322774 0 0 0 0 -0.72251687023344857 -8.6158890448471084 0 -8.6158890448471084 -28.569157474375061 0 0 0 0 -3.5848649680156086 -16.237309045597613 0 -16.237309045597613 -27.294895496808749 0 0 0 0 -12.328441306206514 -14.861711452358122 0 -14.861711452358122 -23.717572287561779 0 0 0 0 -35.488045824956316 -0.53645286686094096 0 -0.53645286686094096 -25.644777688442446 0 0 0 0 -16.861838228670422 -19.040832510465179 0 -19.040832510465179 -27.221651842361098 0 0 0 0 -11.420667649807001 -13.020631313994727 0 -13.020631313994727 -38.591446807854027 0 0 0 0 -5.7400364638560859 -13.440341348088623 0 -13.440341348088623 -23.477477854341714 0 0 0 0 -6.2352783407451611 -0.47130505622417829 0 -0.47130505622417829 1.7407432253433122 0 0 0 0 -15.987816876408033 -16.345643670828395 0 -16.345643670828395 -24.14887683914867 0 0 0 0 -16.419511707886159 -16.84488203578664 0 -16.84488203578664 -24.710883585212287 0 0 0 0 -0.58861222348183251 -0.67369796350797984 0 -0.67369796350797984 -0.098817800637792885 0 0 0 0 -7.536747669876604 -10.643735090689745 0 -10.643735090689745 -27.233663829850229 0 0 0 0 2.6175435633876987 -10.558587313636508 0 -10.558587313636508 -27.247259974265717 0 0 0 0 -9.830677402411311 -4.9701459792780156 0 -4.9701459792780156 3.1124684497949602 0 0 0 0 0.43580709366846859 -4.3849293196850816 0 -4.3849293196850816 -3.5809008066031489 0 0 0 0 -9.7188270159640524 -6.4745379696194618 0 -6.4745379696194618 0.31449201034786256 0 0 0 0 -18.393275579146575 -4.8411738326527711 0 -4.8411738326527711 3.1818648163082166 0 0 0 0 -11.662669293100407 1.8796726045933809 0 1.8796726045933809 -1.8423688201129949 0 0 0 0 -159.22473250071653 -17.475313193547095 0 -17.475313193547095 13.914370601899009 0 0 0 0 -95.074480761260929 -14.203451313740175 0 -14.203451313740175 5.4748434246452007 0 0 0 0 -201.18027375900056 -66.816274902097575 0 -66.816274902097575 -4.4209995157049207 0 0 0 0 -238.41874566919614 18.490060706554289 0 18.490060706554289 48.354496256501534 0 0 0 0 -7.4825352451878189 -13.485838006230821 0 -13.485838006230821 -37.636656076497275 0 0 0 0 -79.76675362190872 14.126415211375274 0 14.126415211375274 3.9545131930528896 0 0 0 0 -55.785008717779419 -25.137136388750491 0 -25.137136388750491 2.2152634066934276 0 0 0 0 -98.854482907090642 52.191634797798088 0 52.191634797798088 -16.94747446550798 0 0 0 0 -209.66670279108803 32.259187024973698 0 32.259187024973698 26.836512734045755 0 0 0 0 -218.28727940835415 15.222232849812826 0 15.222232849812826 43.850017373898936 0 0 0 0 -194.49192826005765 60.594339454974829 0 60.594339454974829 45.321181396908287 0 0 0 0 -238.63480886385878 15.40972665884874 0 15.40972665884874 50.888206135349719 0 0 0 0 -301.70245846708713 64.507253109032717 0 64.507253109032717 47.732492488809839 0 0 0 0 -57.67302368764831 27.429772066646024 0 27.429772066646024 -17.960021300530798 0 0 0 0 -177.67955488236476 25.138591871527865 0 25.138591871527865 22.983468309224463 0 0 0 0 -117.69008427840708 56.444989276912338 0 56.444989276912338 -6.6722211757355581 0 0 0 0 -126.01154270937877 12.063603684318991 0 12.063603684318991 7.6603327642430941 0 0 0 0 -143.80908074059334 27.084477498908939 0 27.084477498908939 5.8235600569099688 0 0 0 0 -39.704653849876195 10.76359715446506 0 10.76359715446506 -19.589923137272649 0 0 0 0 -31.902664091698171 -16.324964673873467 0 -16.324964673873467 -3.3622353377555783 0 0 0 0 10.223960704022375 -9.1950681795139531 0 -9.1950681795139531 -11.977477029027796 0 0 0 0 2.2840600618728786 -17.747404054259277 0 -17.747404054259277 11.28935741547366 0 0 0 0 -23.769252043923188 -21.208560943345447 0 -21.208560943345447 15.171297776351139 0 0 0 0 -3.6527356099286408 -19.058776223584346 0 -19.058776223584346 38.010025142078575 0 0 0 0 -61.712633629582342 -9.7157288223967271 0 -9.7157288223967271 6.1690049202393311 0 0 0 0 -22.277745778530857 3.0894143792602691 0 3.0894143792602691 -1.6942857638027817 0 0 0 0 -36.181171280681156 -25.302730239009747 0 -25.302730239009747 49.942478473461961 0 0 0 0 -28.074171082636894 -8.1835660746918393 0 -8.1835660746918393 68.745870842472641 0 0 0 0 -12.714408268439001 -21.299323737092891 0 -21.299323737092891 4.9847809201787641 0 0 0 0 -19.722630275889969 -24.121848615095587 0 -24.121848615095587 33.212495887617024 0 0 0 0 -5.5575354026644419 1.3829191325571273 0 1.3829191325571273 7.6378358895241654 0 0 0 0 6.0686396664934819 -33.849045836653417 0 -33.849045836653417 34.185226068226712 0 0 0 0 9.0784616208547959 -13.663505446294948 0 -13.663505446294948 37.003501474725681 0 0 0 0 -82.492330633398524 -10.404680433572594 0 -10.404680433572594 49.524183891280245 0 0 0 0 -6.9027649782761458 -5.2723751729449813 0 -5.2723751729449813 1.2744445547525984 0 0 0 0 -3.8983460509962242 13.539594959749365 0 13.539594959749365 24.2171995923145 0 0 0 0 -3.2130741331983792 0.12391946412429355 0 0.12391946412429355 2.6791184044437224 0 0 0 0 29.475867032337192 -31.649413261134782 0 -31.649413261134782 28.993789085222488 0 0 0 0 -6.2988518675119849 -1.5091244907887358 0 -1.5091244907887358 11.196447867809638 0 0 0 0 -32.117584072046157 -4.6967685593058377 0 -4.6967685593058377 15.504495556963548 0 0 0 0 -9.3852457352332195 -0.28472664205287312 0 -0.28472664205287312 1.6285824013654924 0 0 0 0 -38.065175104790796 -11.14760170758052 0 -11.14760170758052 18.913970939617457 0 0 0 0 -15.525492631576526 -3.6555676582737533 0 -3.6555676582737533 7.9038004012027159 0 0 0 0 -107.32714965849209 -93.171029599237158 0 -93.171029599237158 -71.90880175713005 0 0 0 0 -26.169621431841733 -15.326926981601446 0 -15.326926981601446 -60.390749253407193 0 0 0 0 -3.6177572502788919 0.051045845729924544 0 0.051045845729924544 -0.20303087474563541 0 0 0 0 -423.87605561655073 -140.73770228246303 0 -140.73770228246303 -77.2526454441238 0 0 0 0 -314.01472311890393 181.60496070070121 0 181.60496070070121 -203.38935809223312 0 0 0 0 -286.4217119693385 134.86983890757551 0 134.86983890757551 2.9127278397470775 0 0 0 0 -498.1386910324145 -143.14874016946305 0 -143.14874016946305 -51.186505112990062 0 0 0 0 -305.52416886082233 -13.428404920933701 0 -13.428404920933701 33.790188673177909 0 0 0 0 -277.51490649004336 -8.7608470131090144 0 -8.7608470131090144 31.169267813178067 0 0 0 0 -13.214283358642206 7.8984749229783802 0 7.8984749229783802 -7.388796693477822 0 0 0 0 -95.540019087021392 101.37678185696427 0 101.37678185696427 -26.845579386758345 0 0 0 0 -27.798735770140411 -6.0294745115259047 0 -6.0294745115259047 10.929389683636373 0 0 0 0 -44.962429253913797 23.47904908083035 0 23.47904908083035 10.772396996783982 0 0 0 0 -0.4290938611056383 -0.25289068882788968 0 -0.25289068882788968 0.048648526444313944 0 0 0 0 -15.588460514727558 -7.3734299278494291 0 -7.3734299278494291 3.0343299626184148 0 0 0 0 -27.582397044356185 -1.104864110792505 0 -1.104864110792505 18.707617582022294 0 0 0 0 -23.302794748078668 5.9626337014831279 0 5.9626337014831279 8.1638533905311306 0 0 0 0 -23.061909150053907 12.474457413945856 0 12.474457413945856 21.496669142034591 0 0 0 0 11.600572848697993 27.394868650853596 0 27.394868650853596 -14.388581502156399 0 0 0 0 -22.453640333830208 -26.929016282969599 0 -26.929016282969599 14.853262478959323 0 0 0 0 -19.494139967250348 -0.77776366701642741 0 -0.77776366701642741 0.34022416085146245 0 0 0 0 -7.0915721571490558 0.00080819773141271867 0 0.00080819773141271867 0.075324370229823856 0 0 0 0 -4.159277642084362 2.6717558465215916 0 2.6717558465215916 -51.782436397599326 0 0 0 0 -26.937646801394294 -7.3318453038612574 0 -7.3318453038612574 -7.9779745636390089 0 0 0 0 -22.133630616629944 3.4516375863848339 0 3.4516375863848339 -10.255807352508128 0 0 0 0 -16.287325533884541 -99.965610465118004 0 -99.965610465118004 30.563537785629904 0 0 0 0 -27.606954427114445 1.305737512879019 0 1.305737512879019 1.5722948941041424 0 0 0 0 -28.619958983223569 2.5908346449057831 0 2.5908346449057831 21.866822744378851 0 0 0 0 84.194197860763779 -33.839128518058374 0 -33.839128518058374 -3.0127491985788311 0 0 0 0 43.647124898254333 -39.133262567584211 0 -39.133262567584211 -20.569214055152713 0 0 0 0 -1.7163343724420201 -42.409182547446761 0 -42.409182547446761 -15.932741174621924 0 0 0 0 -1.9076585894670988 -3.2297458675394966 0 -3.2297458675394966 1.7384727091260579 0 0 0 0 -416.67164144187745 -10.43781739193679 0 -10.43781739193679 72.7095209818782 0 0 0 0 -254.57982973136723 208.0236450071877 0 208.0236450071877 -55.872232061445629 0 0 0 0 -17.0262279254448 -193.75479353853945 0 -193.75479353853945 -164.56012887035328 0 0 0 0 -46.91121368405237 49.598622020363578 0 49.598622020363578 81.413534194159752 0 0 0 0 -26.820587188383797 -6.9175716597082726 0 -6.9175716597082726 2.881367853442498 0 0 0 0 -32.823583856797995 10.764803394673208 0 10.764803394673208 14.339849521380756 0 0 0 0 -27.063474774004135 -0.67552418948048398 0 -0.67552418948048398 5.10925949177863 0 0 0 0 -56.032986917746712 6.0189225652075038 0 6.0189225652075038 7.0818997289077288 0 0 0 0 33.630765623497609 93.782042852894875 0 93.782042852894875 42.675110170809148 0 0 0 0 -0.20193281630744053 0.65361523519349873 0 0.65361523519349873 -0.6163153937833119 0 0 0 0 -66.865934657946127 -29.122046223887196 0 -29.122046223887196 -6.8003207650326658 0 0 0 0 19.31552202011153 29.675103599837939 0 29.675103599837939 21.326765983324321 0 0 0 0 -56.454828811358311 28.620981015822736 0 28.620981015822736 60.010756166331021 0 0 0 0 -110.29639136915648 31.142805264310937 0 31.142805264310937 64.080566362697141 0 0 0 0 -47.139625880572567 5.0678509377869432 0 5.0678509377869432 74.355066625292011 0 0 0 0 -21.395966090414277 6.618763287465697 0 6.618763287465697 16.162670683665965 0 0 0 0 -33.315257401231065 -24.374078335761283 0 -24.374078335761283 43.095495320659552 0 0 0 0 -21.800100153588374 3.3373144328309214 0 3.3373144328309214 1.5491406190547077 0 0 0 0 -14.132730988472758 27.300464997109202 0 27.300464997109202 58.064545951639388 0 0 0 0 -36.595300691934426 -11.176869412283565 0 -11.176869412283565 17.400895231509139 0 0 0 0 -6.4389222303243194 0.074766027278538871 0 0.074766027278538871 1.5216559734408071 0 0 0 0 -24.997561955216543 2.4276822567470333 0 2.4276822567470333 1.6838348451319913 0 0 0 0 -98.03582878943962 0.37897953200109669 0 0.37897953200109669 146.23651859522516 0 0 0 0 47.589914534444233 81.069430441848169 0 81.069430441848169 23.17167710285571 0 0 0 0 -16.96296617858934 108.96526818678046 0 108.96526818678046 -127.49060328998053 0 0 0 0 12.385408851655484 14.279531678908938 0 14.279531678908938 -60.115734629362123 0 0 0 0 15.957294313661805 27.245457732584526 0 27.245457732584526 32.851062357875662 0 0 0 0 -14.372903200872315 68.217068123414037 0 68.217068123414037 -22.475080462657843 0 0 0 0 41.540873114250644 15.556329435560201 0 15.556329435560201 -31.614493651317616 0 0 0 0 36.001963037408132 2.5523894498636537 0 2.5523894498636537 -62.061179046695543 0 0 0 0 90.932951899573709 67.624199281037221 0 67.624199281037221 -20.230268677802997 0 0 0 0 38.567946157018014 19.288882578773496 0 19.288882578773496 -23.499737015124992 0 0 0 0 84.679969238261037 29.228417804288938 0 29.228417804288938 -29.984005713457179 0 0 0 0 1.1781998936800875 -0.15261801932989805 0 -0.15261801932989805 -1.7119823072483942 0 0 0 0 -37.458870694816142 -7.2560196623299902 0 -7.2560196623299902 17.909643678771147 0 0 0 0 -5.7633806684169642 -0.0087329247609106986 0 -0.0087329247609106986 0.46523233375400586 0 0 0 0 -20.550815845561374 -1.3588330552959746 0 -1.3588330552959746 3.3430704758132848 0 0 0 0 -11.330317040188151 8.6620099843344445 0 8.6620099843344445 -3.7870598619073212 0 0 0 0 -18.450155991164138 50.497766786052495 0 50.497766786052495 9.1597161790360531 0 0 0 0 -76.633867887109545 33.890390818098624 0 33.890390818098624 20.503931785074315 0 0 0 0 -106.99294331461806 -32.138572160629678 0 -32.138572160629678 -2.1525375525619097 0 0 0 0 20.611386756904722 20.375588011137552 0 20.375588011137552 -35.578164654937268 0 0 0 0 -8.1978188720284635 5.9647723476670578 0 5.9647723476670578 1.039130951498739 0 0 0 0 21.009117868851718 24.228504732916065 0 24.228504732916065 0.97438583691479153 0 0 0 0 5.4516969685769823 17.447614901269368 0 17.447614901269368 -5.4510092136074491 0 0 0 0 6.07573478273207 7.6478621852951392 0 7.6478621852951392 -14.871766145116908 0 0 0 0 6.8938594185292459 10.861669345140285 0 10.861669345140285 -22.47428368442479 0 0 0 0 -8.4030645797192847 7.244292124150661 0 7.244292124150661 69.188304160292489 0 0 0 0 0.41783884180817665 -0.3825906793278353 0 -0.3825906793278353 -0.24131416565068009 0 0 0 0 -1.0202958284226042 8.2311724861715447 0 8.2311724861715447 35.057446829731134 0 0 0 0 -0.20697918193022247 2.7379176156422886 0 2.7379176156422886 -1.2928016049039401 0 0 0 0 -0.76608028117516369 23.933983796422353 0 23.933983796422353 50.04652351851928 0 0 0 0 -3.4575807293203056 -0.32557052676994047 0 -0.32557052676994047 1.8888886687844382 0 0 0 0 -7.4437030239059823 13.117941903957217 0 13.117941903957217 32.615949600342788 0 0 0 0 -21.202569803310325 -31.741245280935232 0 -31.741245280935232 16.630898026009845 0 0 0 0 -13.685253447370997 2.2639216940774531 0 2.2639216940774531 55.915851218460205 0 0 0 0 -18.345123934957883 -14.192912603627292 0 -14.192912603627292 21.643595527965772 0 0 0 0 5.9272791627372499 -14.265066549339281 0 -14.265066549339281 -23.368455691945883 0 0 0 0 11.468317312672298 -4.1604988546645245 0 -4.1604988546645245 -16.347499093392798 0 0 0 0 11.600756570424892 -9.4995226471435217 0 -9.4995226471435217 -54.021291318074873 0 0 0 0 -3.8301160957485081 9.9161968313915168 0 9.9161968313915168 -27.049304585662412 0 0 0 0 -4.0642457098101659 -3.6774337051476778 0 -3.6774337051476778 -17.897471620521401 0 0 0 0 -8.6136536285412149 0.94280633774970468 0 0.94280633774970468 2.9802028218979899 0 0 0 0 -4.6044379204065677 -1.2783279232093196 0 -1.2783279232093196 1.6322091810234189 0 0 0 0 -9.357331625333245 -1.1369599874502683 0 -1.1369599874502683 2.0737653038014656 0 0 0 0 -1.7615245928332541 -0.45352847771748017 0 -0.45352847771748017 1.0000735214467835 0 0 0 0 -7.6280490407914385 -86.857810834304274 0 -86.857810834304274 59.822016217269152 0 0 0 0 -36.254699305443864 27.186669162309414 0 27.186669162309414 104.03200914213369 0 0 0 0 -1.4611157273223299 0.061398666988822015 0 0.061398666988822015 -0.49054591020581984 0 0 0 0 8.511561255690367 8.8806766805477402 0 8.8806766805477402 37.381211824460763 0 0 0 0 -2.5469298092481196 -2.2960145750912471 0 -2.2960145750912471 -1.7250415079141082 0 0 0 0 -24.898637567839614 -4.1876626919091109 0 -4.1876626919091109 -1.6680346945845486 0 0 0 0 -5.3767600795817998 -1.2064101988380571 0 -1.2064101988380571 -19.204736317162201 0 0 0 0 -78.175973946103113 -37.609351261745985 0 -37.609351261745985 -6.5917217198177696 0 0 0 0 -25.862363116986671 1.8790242716614216 0 1.8790242716614216 -4.8413714317279641 0 0 0 0 -0.23127741943660851 0.48812765826367333 0 0.48812765826367333 -0.38260417322407181 0 0 0 0 -12.555198334222951 121.15390652855076 0 121.15390652855076 28.638064672806166 0 0 0 0 -128.52506623312365 -62.371624453783966 0 -62.371624453783966 -15.512576995195303 0 0 0 0 -78.55184697909317 33.298074938482841 0 33.298074938482841 12.559623202729767 0 0 0 0 -149.2076573658569 7.9741294005714991 0 7.9741294005714991 18.127506017413452 0 0 0 0 -77.081968947404675 4.9838298200356803 0 4.9838298200356803 5.5020084884463358 0 0 0 0 -46.365296391124502 34.675149865556307 0 34.675149865556307 -7.1377228272997399 0 0 0 0 -77.176675023059943 5.1172881343986205 0 5.1172881343986205 5.4771279776086885 0 0 0 0 -57.598857090635647 6.0375201726864134 0 6.0375201726864134 4.8910764663118016 0 0 0 0 -97.374790402091094 -0.67867905818292229 0 -0.67867905818292229 15.497680173393746 0 0 0 0 -73.642445553034122 -9.9425301299196462 0 -9.9425301299196462 15.836686588417251 0 0 0 0 -51.579416062206292 -6.5070942482536225 0 -6.5070942482536225 -5.9259509008852547 0 0 0 0 -24.187340738894818 -44.117607737318622 0 -44.117607737318622 -94.642273983705536 0 0 0 0 -118.17221439042623 -19.115077617860152 0 -19.115077617860152 15.352246316050639 0 0 0 0 -0.76277599747711733 -0.71395638033346742 0 -0.71395638033346742 -0.86163553879022547 0 0 0 0 -115.28821029110622 25.002815492637865 0 25.002815492637865 0.51897370389201569 0 0 0 0 -7.5530270753160949 24.392707124628288 0 24.392707124628288 -73.278194653368701 0 0 0 0 -27.893699099491641 -56.439720512040537 0 -56.439720512040537 -68.495087807089249 0 0 0 0 -53.709433100498245 94.092953150886729 0 94.092953150886729 -26.151450551274138 0 0 0 0 93.328153572523661 67.342725416276949 0 67.342725416276949 -15.009744539885105 0 0 0 0 56.01114446781321 -11.935067797085708 0 -11.935067797085708 -19.209629894473437 0 0 0 0 -0.28569638174525736 0.25581503215935797 0 0.25581503215935797 -0.21818952005705938 0 0 0 0 -159.87849046301835 -47.961501146569617 0 -47.961501146569617 19.129416465569875 0 0 0 0 -24.355799078776727 9.507568451725092 0 9.507568451725092 -9.8992965215629738 0 0 0 0 -0.66858563333583376 -0.43097082211151871 0 -0.43097082211151871 0.010062288319157453 0 0 0 0 -16.093016826524035 1.2141812279755868 0 1.2141812279755868 0.91059308124042282 0 0 0 0 -58.603971922351775 -20.496640122848476 0 -20.496640122848476 -70.482312427660872 0 0 0 0 9.5661069073839826 59.909735319413301 0 59.909735319413301 -11.848717351028881 0 0 0 0 16.747141258863849 47.831268089041487 0 47.831268089041487 6.1855124368881889 0 0 0 0 -14.846703453743885 14.156165373847571 0 14.156165373847571 3.0834453614002086 0 0 0 0 19.005514336859051 20.39338067494964 0 20.39338067494964 -13.417072008575303 0 0 0 0 -14.884076618764084 5.0364661675270668 0 5.0364661675270668 -7.5347285372227475 0 0 0 0 -14.302371968648004 7.2849891689104425 0 7.2849891689104425 -14.478097606086408 0 0 0 0 1.8159897279165307 4.3016617356894358 0 4.3016617356894358 1.2407721140530157 0 0 0 0 -0.49581053880352854 -0.27257738215779703 0 -0.27257738215779703 0.20851092032907426 0 0 0 0 -22.326507263125677 -8.4605965846119489 0 -8.4605965846119489 -19.007774603876072 0 0 0 0 3.3710365410152008 29.039763553488456 0 29.039763553488456 12.262033130984378 0 0 0 0 56.552079148955272 -14.810861036590268 0 -14.810861036590268 -32.611462419132522 0 0 0 0 -22.3469398231573 43.122316996954964 0 43.122316996954964 -6.314777096965841 0 0 0 0 4.2438747472551768 -30.26334123212445 0 -30.26334123212445 40.941705489011341 0 0 0 0 8.8980398519379378 -25.589922468221801 0 -25.589922468221801 21.69041322181954 0 0 0 0 -14.807178232225851 -33.588056184009133 0 -33.588056184009133 66.129444959208683 0 0 0 0 -8.8430469742728306 -3.0869715448488693 0 -3.0869715448488693 -0.82812005699583946 0 0 0 0 -5.0996443710373569 -4.6268707801442588 0 -4.6268707801442588 8.0542811635973521 0 0 0 0 -0.77392289609088039 -7.3534477456822174 0 -7.3534477456822174 0.95939786789494974 0 0 0 0 -5.4186678406003921 -6.9841943319913753 0 -6.9841943319913753 16.128088335350526 0 0 0 0 -1.2233637476488184 -9.804685799271013 0 -9.804685799271013 8.3338427220987796 0 0 0 0 -9.2228028561366955 -11.734691281613891 0 -11.734691281613891 9.9794422490889474 0 0 0 0 -10.136704369645798 -3.6878770489367332 0 -3.6878770489367332 -1.2548694221921921 0 0 0 0 -10.418207051923673 1.0881648972133817 0 1.0881648972133817 18.991508650903928 0 0 0 0 -18.796172405327525 -12.537566412746383 0 -12.537566412746383 39.45832421226774 0 0 0 0 -12.246161987543019 4.0228123025831763 0 4.0228123025831763 4.9919371056058921 0 0 0 0 -8.0333361594093731 -12.935613017756168 0 -12.935613017756168 7.9484126356535398 0 0 0 0 -11.750931769401177 -7.0555715076214369 0 -7.0555715076214369 6.9723408414893129 0 0 0 0 -14.388772943908407 -8.8410183151812589 0 -8.8410183151812589 5.8777449920132767 0 0 0 0 -12.418286522237395 -4.1159899479596334 0 -4.1159899479596334 -2.1232211231426845 0 0 0 0 -15.836751954413558 -6.3540895711610119 0 -6.3540895711610119 11.11022773619419 0 0 0 0 -17.593418349131753 -9.5138402073128994 0 -9.5138402073128994 -12.254259777906949 0 0 0 0 -20.219554390183475 2.2993007993444898 0 2.2993007993444898 -1.1656294258512077 0 0 0 0 -43.334113921458538 10.36850399127534 0 10.36850399127534 -23.376285557590332 0 0 0 0 -33.341887010354185 -10.606755287626136 0 -10.606755287626136 4.2738179668852396 0 0 0 0 -0.31652600662893349 -0.051943426022502237 0 -0.051943426022502237 0.016059520894138701 0 0 0 0 -11.251609109487617 -13.966066589056148 0 -13.966066589056148 4.4186305500312315 0 0 0 0 -77.406243214722963 19.280617463748861 0 19.280617463748861 -9.6863415322835777 0 0 0 0 -0.066854467045374122 0.11437678089695069 0 0.11437678089695069 -0.19249603174951019 0 0 0 0 -21.442078320977089 -2.2077992381923579 0 -2.2077992381923579 4.6298521663970575 0 0 0 0 -25.709327499673236 -23.982289085906586 0 -23.982289085906586 -29.408427940848242 0 0 0 0 6.7258680183113029 47.727352911839461 0 47.727352911839461 41.161348044860006 0 0 0 0 -30.5444240099132 27.730752781968036 0 27.730752781968036 -13.481708958219599 0 0 0 0 -0.60158538645242743 -0.24505170070222171 0 -0.24505170070222171 0.014861258464554855 0 0 0 0 -27.882284401926881 24.03635802000646 0 24.03635802000646 -43.536499834293849 0 0 0 0 -32.865984433366975 18.958614589306141 0 18.958614589306141 -18.248344823453181 0 0 0 0 -41.163515602947882 21.61753965035453 0 21.61753965035453 -4.6616179661678245 0 0 0 0 -19.546263859632745 13.542084758014086 0 13.542084758014086 -8.372636242471458 0 0 0 0 -24.963881150550151 25.270924335436817 0 25.270924335436817 -14.306936008478814 0 0 0 0 -34.351442817325733 8.2312899405002469 0 8.2312899405002469 23.259099564404249 0 0 0 0 -17.365151429970865 -0.28444363090025604 0 -0.28444363090025604 4.4035187765727386 0 0 0 0 -52.811745102739224 56.649029476128987 0 56.649029476128987 -41.193747810149077 0 0 0 0 -47.451472328554701 16.485024899969282 0 16.485024899969282 0.8084809384868521 0 0 0 0 -34.67307235428234 35.177062242051711 0 35.177062242051711 -23.522958654319609 0 0 0 0 -24.426506833853637 9.6154918500283912 0 9.6154918500283912 -14.307399563112568 0 0 0 0 -33.693565210856832 4.8792738863690452 0 4.8792738863690452 16.792270210259559 0 0 0 0 -8.4657666179209627 -15.281777974200043 0 -15.281777974200043 19.307348102981663 0 0 0 0 -14.017764408039511 -9.5893936070624619 0 -9.5893936070624619 56.500437478965949 0 0 0 0 -25.590699841650348 -1.8549346603102563 0 -1.8549346603102563 27.970315275415871 0 0 0 0 28.458377702425423 -17.825406722945132 0 -17.825406722945132 39.723040581967723 0 0 0 0 -0.90653185651899548 -3.2282000757139713 0 -3.2282000757139713 59.585936021330383 0 0 0 0 0.48431868987972848 -29.8499431677795 0 -29.8499431677795 34.600487639765362 0 0 0 0 8.7285187874040275 -16.308185533163169 0 -16.308185533163169 19.812472746936521 0 0 0 0 -7.2272022660654329 -8.7219230482017061 0 -8.7219230482017061 -10.086462120018538 0 0 0 0 -19.51696544112383 -12.775600422099586 0 -12.775600422099586 22.150594405911079 0 0 0 0 -19.460545721633025 -12.870861573496859 0 -12.870861573496859 -17.694625260215865 0 0 0 0 -39.426845609517841 2.7345930361907693 0 2.7345930361907693 -9.8676229236415427 0 0 0 0 -33.723211196780539 8.8121664645138935 0 8.8121664645138935 -26.901839047867423 0 0 0 0 -41.036318147154816 -1.5392092053057596 0 -1.5392092053057596 -12.80382158180587 0 0 0 0 -83.11803833229169 -1.1231436624569113 0 -1.1231436624569113 -19.841515332680434 0 0 0 0 -41.677596821244151 3.6249154367088785 0 3.6249154367088785 -45.279750579012301 0 0 0 0 -65.133375881752727 -61.247174748772636 0 -61.247174748772636 -18.329720546967089 0 0 0 0 12.017512676544357 -16.458147617655328 0 -16.458147617655328 -16.690263758197794 0 0 0 0 -39.844393169841624 -43.363180133653437 0 -43.363180133653437 -7.4188093788297635 0 0 0 0 -35.844629600655026 -20.206187640185213 0 -20.206187640185213 -6.4680100265056666 0 0 0 0 -5.1298274835207849 -50.747004382990418 0 -50.747004382990418 -29.46278225055968 0 0 0 0 -33.14081155288477 -54.409816336094735 0 -54.409816336094735 -24.293709338629302 0 0 0 0 1.9432390912224946 -26.09890564946042 0 -26.09890564946042 -5.5720603853247859 0 0 0 0 -13.30248094360104 -3.1764708673727142 0 -3.1764708673727142 39.516710733653895 0 0 0 0 -18.348188424896762 -33.57895924768912 0 -33.57895924768912 65.050306340183099 0 0 0 0 -83.982522977192275 -45.808519233109465 0 -45.808519233109465 4.8580022353284633 0 0 0 0 1.6404936471190013 -48.28012241163092 0 -48.28012241163092 63.217600149804525 0 0 0 0 -6.4299721754531021 -2.0807089104045886 0 -2.0807089104045886 -0.46353175368339283 0 0 0 0 -2.4846532778707981 -0.59624963294599453 0 -0.59624963294599453 -0.1607222471413251 0 0 0 0 -36.420801694830516 145.51670095725345 0 145.51670095725345 -92.939620269108758 0 0 0 0 -33.29138193577819 49.749938523509655 0 49.749938523509655 -21.08394862611388 0 0 0 0 -43.557481536662635 -73.03828907952618 0 -73.03828907952618 -23.286533681835973 0 0 0 0 16.984877690394569 -49.706100873412211 0 -49.706100873412211 -33.854391272243177 0 0 0 0 -188.43934989995978 91.342299904439358 0 91.342299904439358 22.766210239340012 0 0 0 0 -116.69019973255854 -123.60092082227034 0 -123.60092082227034 -76.333514361586609 0 0 0 0 25.732489238765993 5.8608419171739001 0 5.8608419171739001 38.546806045493476 0 0 0 0 15.7435180371358 35.552797065258993 0 35.552797065258993 -119.45733559948238 0 0 0 0 11.356634491816749 -8.3679136868382162 0 -8.3679136868382162 -14.849404739955858 0 0 0 0 -89.869701504585464 39.758131859175364 0 39.758131859175364 -12.644468764138843 0 0 0 0 -95.098768988397751 -57.799336137781793 0 -57.799336137781793 -3.9723150983109434 0 0 0 0 -0.86759409276965016 12.129615912608221 0 12.129615912608221 9.8170129859748556 0 0 0 0 -16.729086922341594 0.59982924384174652 0 0.59982924384174652 4.9685623218799648 0 0 0 0 -2.012742097949193 -0.24382956169729519 0 -0.24382956169729519 0.0027076342956392635 0 0 0 0 -33.325850890511902 -7.7527590702955465 0 -7.7527590702955465 40.986145954507322 0 0 0 0 -11.054362413807212 -3.0592809573816666 0 -3.0592809573816666 13.564437815139119 0 0 0 0 -0.92821000672654463 -4.787628525961737 0 -4.787628525961737 0.16433721575540261 0 0 0 0 -1.2669161133999296 -7.0310017836535863 0 -7.0310017836535863 4.6174180888308669 0 0 0 0 -2.6978633325593364 -1.1534891122009494 0 -1.1534891122009494 -0.98227287284532139 0 0 0 0 -9.9841284723397621 -0.89009510390404412 0 -0.89009510390404412 1.2560384383271135 0 0 0 0 -4.7646616933525365 -3.8994669204972583 0 -3.8994669204972583 3.0683034791564872 0 0 0 0 -4.8945252371686365 -4.6768004750189025 0 -4.6768004750189025 -0.21931374788620062 0 0 0 0 -13.384556591984165 -5.5280345256082457 0 -5.5280345256082457 -0.0096026387523743401 0 0 0 0 -30.738037916088615 9.5401995289262533 0 9.5401995289262533 -0.4533869820284977 0 0 0 0 -40.400223911025023 -5.3281066053403272 0 -5.3281066053403272 0.010366690159237368 0 0 0 0 -9.5620610482073971 -3.7566636077677096 0 -3.7566636077677096 -0.19401483785567669 0 0 0 0 -28.136670972893626 -56.73244496449194 0 -56.73244496449194 -41.045943937007223 0 0 0 0 -0.82356419760139232 -0.21801890555055126 0 -0.21801890555055126 -0.054706430880642976 0 0 0 0 -51.989513167275618 26.573668064953075 0 26.573668064953075 6.3126906303247665 0 0 0 0 -50.878404398905332 -26.903926190615884 0 -26.903926190615884 -31.66766500814558 0 0 0 0 -38.006297090638327 -12.784907942640588 0 -12.784907942640588 -3.6349428829330321 0 0 0 0 -48.018362253545092 -16.994158336663141 0 -16.994158336663141 -4.7813125951397524 0 0 0 0 -79.216005795881756 -15.634611054352035 0 -15.634611054352035 7.1463020706960183 0 0 0 0 -46.030048993036871 -3.0127264852459525 0 -3.0127264852459525 6.1164437852424367 0 0 0 0 -48.756397813171134 -8.298376327259966 0 -8.298376327259966 0.0094101083588333662 0 0 0 0 -38.215505996733555 -14.887929235699055 0 -14.887929235699055 -2.71735415903101 0 0 0 0 -38.008884478691471 -12.667827389146442 0 -12.667827389146442 -0.6608245652090754 0 0 0 0 -38.215651322244739 -14.791783152819237 0 -14.791783152819237 -1.1666453258175018 0 0 0 0 -27.009076716896743 -6.9125310188988092 0 -6.9125310188988092 -0.0053287490758830158 0 0 0 0 -22.121099043411959 -11.741475019351848 0 -11.741475019351848 -10.911354947609368 0 0 0 0 -31.434147162113732 -11.13383085975126 0 -11.13383085975126 -26.363883777187205 0 0 0 0 -30.35688808165105 -6.2388033961652756 0 -6.2388033961652756 -4.3147977767283727 0 0 0 0 -297.55483174889196 77.319036183474395 0 77.319036183474395 0.94702335558074324 0 0 0 0 -1.6210771576094984 -0.74108731652437143 0 -0.74108731652437143 -0.10506354769222437 0 0 0 0 -315.50630832370734 -29.423554686032389 0 -29.423554686032389 11.253193471184318 0 0 0 0 -240.43418106679474 0.054623263154482515 0 0.054623263154482515 16.877972856140786 0 0 0 0 -246.74919418177296 -13.136406457390365 0 -13.136406457390365 28.486023084648764 0 0 0 0 -186.1438878895824 -1.7779589024624727 0 -1.7779589024624727 25.803892766936826 0 0 0 0 -266.13026640667158 -4.7351504953051062 0 -4.7351504953051062 52.960759878364563 0 0 0 0 -204.61742073771711 54.302832387106164 0 54.302832387106164 -0.24479456976769143 0 0 0 0 -259.96668359768228 -11.783783785233823 0 -11.783783785233823 48.784557138898435 0 0 0 0 -54.029707626445088 3.0723850746698531 0 3.0723850746698531 -27.966223989871395 0 0 0 0 -11.182542867576558 -5.2702959398335842 0 -5.2702959398335842 4.994318635681033 0 0 0 0 -0.8553900093157053 0.1185133539126646 0 0.1185133539126646 0.90984566589819016 0 0 0 0 30.861414422033704 -12.533870889836066 0 -12.533870889836066 -5.6664868462241884 0 0 0 0 -3.3917286550341288 -2.4195134486631868 0 -2.4195134486631868 -1.3708816570765532 0 0 0 0 29.52547176392909 -16.837708717632893 0 -16.837708717632893 -19.419455982902491 0 0 0 0 13.897056271707697 -29.582349174217939 0 -29.582349174217939 -27.64013861045089 0 0 0 0 42.494041681017734 33.883415592789838 0 33.883415592789838 9.471354778803061 0 0 0 0 0.19582274878171546 -0.034049384470911548 0 -0.034049384470911548 -0.0930693080245244 0 0 0 0 36.16333472030783 -8.3832755566332935 0 -8.3832755566332935 -3.8788483496357458 0 0 0 0 -4.8711099141546583 5.9860735405616197 0 5.9860735405616197 5.9869428890598329 0 0 0 0 -1.0432726267799972 -0.38616023222249041 0 -0.38616023222249041 0.35610468009652019 0 0 0 0 -6.729449683329193 -10.810796183760393 0 -10.810796183760393 -34.807933719761309 0 0 0 0 7.0076630718431261 -15.458454737002967 0 -15.458454737002967 -6.8619635700272852 0 0 0 0 23.512668953362663 1.6777524671007313 0 1.6777524671007313 -12.414150978480507 0 0 0 0 7.0526467603340279 8.9196000236129294 0 8.9196000236129294 17.242876504323476 0 0 0 0 8.7064549770011581 -9.178451126486479 0 -9.178451126486479 -27.501188935854088 0 0 0 0 -37.392094663520766 2.9403207366259494 0 2.9403207366259494 -5.7996746514293136 0 0 0 0 -32.942066836393678 -9.3912407878497817 0 -9.3912407878497817 -37.807594015074528 0 0 0 0 -102.59985119532575 -34.729049211949985 0 -34.729049211949985 -5.7937821718128362 0 0 0 0 -206.83603649834549 -11.250057247872007 0 -11.250057247872007 26.462416453168771 0 0 0 0 -256.50116990311926 51.41158780212524 0 51.41158780212524 -17.630229844199675 0 0 0 0 -173.94905348279735 -93.547971235527882 0 -93.547971235527882 3.878589777201114 0 0 0 0 -245.45336269010841 34.190286087374602 0 34.190286087374602 -85.093103221031356 0 0 0 0 -327.73342855687679 17.55931663553983 0 17.55931663553983 7.6777502563985536 0 0 0 0 -237.59708686449039 -8.1876236749168854 0 -8.1876236749168854 7.2381964505348151 0 0 0 0 -220.3068366981131 57.116827952510292 0 57.116827952510292 -34.002751372177727 0 0 0 0 17.233462183274241 32.697500561261052 0 32.697500561261052 -15.15416357862323 0 0 0 0 -29.886213733690965 -14.558703576933084 0 -14.558703576933084 -5.4351817552442299 0 0 0 0 -30.60014440755549 1.9098442101700925 0 1.9098442101700925 18.14951269009822 0 0 0 0 -31.871066300728671 -8.8081780153693785 0 -8.8081780153693785 7.7806461226597321 0 0 0 0 -27.695891396822844 -2.9049941179575853 0 -2.9049941179575853 -0.52657902919682442 0 0 0 0 -0.38630488131457597 0.35026497322425953 0 0.35026497322425953 -0.68311236447133927 0 0 0 0 -54.415002558351262 14.296782246458179 0 14.296782246458179 2.8596192893323416 0 0 0 0 -0.3925850000106621 -0.31279208098287725 0 -0.31279208098287725 0.059031913575005535 0 0 0 0 72.07001264296332 -112.21708264976695 0 -112.21708264976695 -31.556663919336067 0 0 0 0 18.328651414654814 -18.498398713929006 0 -18.498398713929006 -13.887610216406301 0 0 0 0 0.71575351140342303 -4.3125311810877527 0 -4.3125311810877527 -3.2601456193979823 0 0 0 0 -52.259913750523992 -69.228214694285214 0 -69.228214694285214 9.2917414379022603 0 0 0 0 -26.477571444233035 -14.101749325714337 0 -14.101749325714337 -8.2467712838507623 0 0 0 0 13.359845026137918 36.047012064340535 0 36.047012064340535 3.1833067161206463 0 0 0 0 18.113983581544744 -7.1922023808347717 0 -7.1922023808347717 -19.80604213466421 0 0 0 0 23.686457260286261 -10.03704628303425 0 -10.03704628303425 -19.18053331732802 0 0 0 0 20.624726498223026 -1.3441270521229747 0 -1.3441270521229747 18.256942834850364 0 0 0 0 9.8428068426310347 23.231937954661877 0 23.231937954661877 -27.147699699345971 0 0 0 0 15.726127636115052 -11.39529848272252 0 -11.39529848272252 -14.313241671960483 0 0 0 0 -40.087086840994516 -5.7622626064068676 0 -5.7622626064068676 12.593341521933098 0 0 0 0 65.007615723357958 12.616173365315449 0 12.616173365315449 -33.251764884890314 0 0 0 0 0.870553341842633 -4.11254295983289 0 -4.11254295983289 -1.9014668957284435 0 0 0 0 -0.69811201595258687 -3.9306295560408344 0 -3.9306295560408344 0.15542200244545357 0 0 0 0 -26.561151843260859 -0.62402020754703924 0 -0.62402020754703924 4.9635865617848864 0 0 0 0 17.206960169811282 13.24572530067449 0 13.24572530067449 2.0420885234545167 0 0 0 0 -0.52790301009199503 1.1027353260505457 0 1.1027353260505457 -1.395026784503647 0 0 0 0 -145.93417824176322 -26.768346713021231 0 -26.768346713021231 -31.983271560165122 0 0 0 0 -107.01188704204924 29.416740918917199 0 29.416740918917199 -3.5046807258684112 0 0 0 0 -15.280695196174747 -8.5435351076266386 0 -8.5435351076266386 -5.2075972745338817 0 0 0 0 2.5556731749693427 16.121612631322847 0 16.121612631322847 7.5299290773917562 0 0 0 0 -19.745850279672595 5.7715437935212597 0 5.7715437935212597 3.1725785620274389 0 0 0 0 -185.25488396908077 1.0822749226299777 0 1.0822749226299777 23.820757947086207 0 0 0 0 -29.550664072960899 -3.3763610043290484 0 -3.3763610043290484 -36.149383124987935 0 0 0 0 -8.9625570191619772 4.83035170672267 0 4.83035170672267 -1.3039239141279193 0 0 0 0 -2.1498459486416088 0.91505365145886586 0 0.91505365145886586 -1.2200662008940997 0 0 0 0 -27.466552714471618 5.4538232463050882 0 5.4538232463050882 -2.5783848471656938 0 0 0 0 -17.90397650093837 -10.055635315036149 0 -10.055635315036149 4.4539567242039197 0 0 0 0 0.52780636371244327 14.598453315335387 0 14.598453315335387 0.062282813245914781 0 0 0 0 -5.4733764227965906 -0.081455139190060866 0 -0.081455139190060866 -0.039209131182008992 0 0 0 0 -46.846026135592183 0.58825180627145501 0 0.58825180627145501 8.6599813056478325 0 0 0 0 -1.7397240245627472 -6.5211212405759404 0 -6.5211212405759404 6.3025622573799502 0 0 0 0 0.50400833895673713 7.3142452438476013 0 7.3142452438476013 19.377431972001148 0 0 0 0 -2.3220923796794679 -0.70809160886259237 0 -0.70809160886259237 -0.018180342883024107 0 0 0 0 -15.282306679067915 -4.6275249648377521 0 -4.6275249648377521 -1.1650249901941332 0 0 0 0 -9.4031987132570691 -0.7528760293595691 0 -0.7528760293595691 0.58535215957385844 0 0 0 0 -18.1734086386532 -2.7226790187213066 0 -2.7226790187213066 3.9086240790717426 0 0 0 0 -1.5822239021957465 -0.13746747637718215 0 -0.13746747637718215 0.12230082967132258 0 0 0 0 -6.8818688740848302 1.0354338226005058 0 1.0354338226005058 -0.34764697141429224 0 0 0 0 -2.0177479724486176 -0.26151929327296131 0 -0.26151929327296131 0.47925276269824224 0 0 0 0 -11.5484666089651 -3.5466575165664729 0 -3.5466575165664729 -0.13018194167884012 0 0 0 0 1.1120266192192503 -5.9052820418786895 0 -5.9052820418786895 4.3876914949940398 0 0 0 0 -1.5567929815662751 -6.8126943231243438 0 -6.8126943231243438 4.8665751588111839 0 0 0 0 -1.448213586343627 -4.457167130236467 0 -4.457167130236467 1.5512815189908302 0 0 0 0 -1.9182946118962718 -4.894630208628552 0 -4.894630208628552 -0.036186572717886278 0 0 0 0 -3.5835262088148738 -3.905137119519277 0 -3.905137119519277 -0.18120165382956832 0 0 0 0 -0.90583948750281706 -2.1951958785319645 0 -2.1951958785319645 4.5563144768850066 0 0 0 0 -1.842106867435291 -16.214639772381197 0 -16.214639772381197 -3.0113372035154811 0 0 0 0 7.867783132904151 -6.4010991254425953 0 -6.4010991254425953 -3.5968519962091428 0 0 0 0 -1.6024078431000817 -7.1699904079759591 0 -7.1699904079759591 -1.0733938461054819 0 0 0 0 3.9955971579884135 -14.7394318511713 0 -14.7394318511713 -5.2202330173796057 0 0 0 0 -15.684177256258408 5.0769289388475665 0 5.0769289388475665 5.2912944113181268 0 0 0 0 16.775494069239357 9.3866121174811905 0 9.3866121174811905 -14.757595454692449 0 0 0 0 1.2855847706850909 -5.9865801496611786 0 -5.9865801496611786 0.0009861471031193756 0 0 0 0 -9.1652689572765667 -13.331126347687118 0 -13.331126347687118 0.049579560101988385 0 0 0 0 0.18251719807957656 -0.0099158846845845972 0 -0.0099158846845845972 0.06556883364886322 0 0 0 0 -2.6598747364841984 -2.1299962119573617 0 -2.1299962119573617 -0.95425137838903495 0 0 0 0 -9.1414545703823222 -5.6544671876147827 0 -5.6544671876147827 0.3325810716436095 0 0 0 0 -4.2807349711292773 -5.0446406429788277 0 -5.0446406429788277 -0.0010332654761746616 0 0 0 0 -4.4162976403422363 -8.4215361868372405 0 -8.4215361868372405 -1.6273168322182316 0 0 0 0 -2.4442490242881831 -4.3734284701337023 0 -4.3734284701337023 -1.2787000422870793 0 0 0 0 -4.0701098138033558 -5.6173327003238374 0 -5.6173327003238374 -1.2288819505832382 0 0 0 0 -43.033246432664782 -11.628284511537284 0 -11.628284511537284 -23.654172647489141 0 0 0 0 -22.437822245174175 6.4776545663803624 0 6.4776545663803624 -15.899694758662449 0 0 0 0 -23.759857329496299 6.3514723088821015 0 6.3514723088821015 14.803003823443959 0 0 0 0 -18.045008692795818 -16.429492041647585 0 -16.429492041647585 0.93672103780453009 0 0 0 0 -15.998778595032491 -15.191613217687124 0 -15.191613217687124 -26.666820514538461 0 0 0 0 -28.77370896955108 2.3004685498974013 0 2.3004685498974013 3.6121984364384332 0 0 0 0 -82.176807538035519 -28.354655832291414 0 -28.354655832291414 0.50948182957714128 0 0 0 0 -96.130864050866649 3.3976490727390969 0 3.3976490727390969 -0.0078473870587669296 0 0 0 0 -216.23585511880265 -34.411382590365484 0 -34.411382590365484 14.595744261617234 0 0 0 0 -196.2804096104378 20.634368890668615 0 20.634368890668615 0.068786067528095018 0 0 0 0 -184.82470969465612 17.898289161323468 0 17.898289161323468 17.373298028633258 0 0 0 0 -338.56674377673335 24.511534339534897 0 24.511534339534897 42.010277745193136 0 0 0 0 -190.63954372256376 8.0622795644094474 0 8.0622795644094474 27.864230366356285 0 0 0 0 -2.1329866266321886 -0.10854231347093846 0 -0.10854231347093846 -0.040583330796748855 0 0 0 0 -224.22679444515234 -144.24734475339869 0 -144.24734475339869 -40.524816848321137 0 0 0 0 -208.97797899838042 -52.813881497848229 0 -52.813881497848229 -132.49978363796919 0 0 0 0 -219.49982497006022 89.426044368859507 0 89.426044368859507 -76.60105777983199 0 0 0 0 -189.77117658886436 -54.863455964370772 0 -54.863455964370772 5.3707624749362139 0 0 0 0 -170.31521629953022 24.201819246776331 0 24.201819246776331 18.558215371949572 0 0 0 0 -199.80740033701841 143.51610421230365 0 143.51610421230365 -51.199908740059904 0 0 0 0 -251.25753625146717 11.517308186141598 0 11.517308186141598 44.503848081434171 0 0 0 0 -385.84538977879402 -25.060065392273316 0 -25.060065392273316 35.394034847599443 0 0 0 0 -3.4871422653959598 -0.49997290821096385 0 -0.49997290821096385 -2.6974145488995447 0 0 0 0 0.010183935777442588 0.40178480725086629 0 0.40178480725086629 -0.12678855069764433 0 0 0 0 -21.686042953951983 -0.50982849158300869 0 -0.50982849158300869 4.57886764947275 0 0 0 0 -64.167757005530802 20.509038120697351 0 20.509038120697351 -67.552604146004398 0 0 0 0 -8.8063962643700506 -6.1797805616768802 0 -6.1797805616768802 1.1583331195064428 0 0 0 0 -21.551656620744325 1.7968058531449207 0 1.7968058531449207 0.58901808793607835 0 0 0 0 -163.48587837860032 41.375383621990395 0 41.375383621990395 6.6469027075685414 0 0 0 0 -0.17962530907142427 0.19755809210599651 0 0.19755809210599651 -0.15525297722425385 0 0 0 0 -8.7423127486499652 -6.0275656590275464 0 -6.0275656590275464 -0.0080760766149329134 0 0 0 0 -6.4922703439769975 -1.5270024642191786 0 -1.5270024642191786 1.6314174155375927 0 0 0 0 0.25655748503231735 -3.9607487033141524 0 -3.9607487033141524 0.88756109015575291 0 0 0 0 -1.6465102309193753 -5.0972013272505841 0 -5.0972013272505841 0.69485097504718762 0 0 0 0 0.052131811222352553 -4.8744817690166231 0 -4.8744817690166231 0.0010886249167719785 0 0 0 0 3.8299266090434685 -4.9815798977125416 0 -4.9815798977125416 1.1106397955988694 0 0 0 0 -0.37533110938602476 -4.8986115617755743 0 -4.8986115617755743 4.5591030843335716 0 0 0 0 0.50320924357583863 -2.0355869140005147 0 -2.0355869140005147 -1.6251577195282252 0 0 0 0 2.4395319712039054 -3.0279131737717422 0 -3.0279131737717422 0.0042204343339807817 0 0 0 0 -33.693190924739611 1.0296736228933199 0 1.0296736228933199 -1.8564546875904711 0 0 0 0 -1.6025462680721603 -0.59680521656010654 0 -0.59680521656010654 -0.14323788894892381 0 0 0 0 -2.9383303586655529 4.4331891206554008 0 4.4331891206554008 2.2832700771447536 0 0 0 0 -0.2429068694054024 0.063794137104647319 0 0.063794137104647319 0.067363055049514259 0 0 0 0 2.0643743245345831 -4.8013547353113557 0 -4.8013547353113557 3.6468500014658618 0 0 0 0 2.0145058631042048 -4.1411132213051669 0 -4.1411132213051669 -0.036785201773612108 0 0 0 0 -8.7181527549601014 -3.3238081726507573 0 -3.3238081726507573 -12.250006665118917 0 0 0 0 2.3528522185079055 -6.4874496948617981 0 -6.4874496948617981 1.2655502715543179 0 0 0 0 -2.2393484453605481 -1.1124908243947846 0 -1.1124908243947846 -0.41316037512877218 0 0 0 0 0.22207009433405034 -0.20729086279200537 0 -0.20729086279200537 -0.16114269430887959 0 0 0 0 -8.2931561558218334 10.89196692151803 0 10.89196692151803 -19.91248361021087 0 0 0 0 -48.084614453840913 13.685442894181762 0 13.685442894181762 -11.054620814539248 0 0 0 0 -27.10507805114139 9.6335491139126361 0 9.6335491139126361 4.9160592865158037 0 0 0 0 -8.5719150418735808 -1.2365129799489694 0 -1.2365129799489694 -12.61713112478111 0 0 0 0 -7.6450475926649233 6.1183205259807494 0 6.1183205259807494 5.8367411100244908 0 0 0 0 -1.9531150595121289 8.5171487148762708 0 8.5171487148762708 -12.323129153548084 0 0 0 0 15.138405629821136 25.218432051190632 0 25.218432051190632 8.3933486612449997 0 0 0 0 -1.5662915458924545 21.261505262951289 0 21.261505262951289 26.623894584699201 0 0 0 0 -12.730284372704773 22.301395566172516 0 22.301395566172516 26.588168918425708 0 0 0 0 -14.632882134012107 3.3194395269926602 0 3.3194395269926602 -0.41616038290385404 0 0 0 0 4.6022592453628022 6.8865178543117196 0 6.8865178543117196 -0.69921886671795619 0 0 0 0 -5.1480475959706382 -1.861155320858332 0 -1.861155320858332 2.4288386398639688 0 0 0 0 2.8470366581714188 -6.5776663669818767 0 -6.5776663669818767 -0.13605394148036076 0 0 0 0 2.0228990783052723 -9.3308459744076746 0 -9.3308459744076746 4.4505137905591763 0 0 0 0 -5.2515394986148749 14.548313826776166 0 14.548313826776166 16.361546412036546 0 0 0 0 -2.6711955488500649 -1.7082557840288537 0 -1.7082557840288537 -0.8636158130259628 0 0 0 0 -26.93527048002943 5.8519862574079298 0 5.8519862574079298 18.64389480599479 0 0 0 0 28.87030086832965 59.29445526703887 0 59.29445526703887 42.500085184858449 0 0 0 0 -9.9714516453514079 28.344161992542467 0 28.344161992542467 47.54213542730588 0 0 0 0 -71.748571296531736 -16.543049479680349 0 -16.543049479680349 19.060761513097077 0 0 0 0 -13.661209871446772 -40.268336605570823 0 -40.268336605570823 21.553643709080461 0 0 0 0 -3.120403693498929 -2.1642974585769856 0 -2.1642974585769856 -1.2962812106803447 0 0 0 0 -1.2223365082145392 -10.190261407777843 0 -10.190261407777843 4.8674348740091631 0 0 0 0 -1.4100321771929885 -6.2988355448476909 0 -6.2988355448476909 5.9535422820524673 0 0 0 0 -3.0427837697970972 -9.2207619969304915 0 -9.2207619969304915 21.381595207829939 0 0 0 0 -33.597968513538945 -34.415506205583938 0 -34.415506205583938 0.70384954455767001 0 0 0 0 -36.15988859780964 -17.810633588877351 0 -17.810633588877351 7.5205004700578684 0 0 0 0 -58.789747506860294 -66.236547173869781 0 -66.236547173869781 -25.196411241119904 0 0 0 0 -66.3816436280365 -26.287941000048093 0 -26.287941000048093 17.983735107005259 0 0 0 0 7.4286211502549122 -24.755257530651534 0 -24.755257530651534 -3.4935106235287776 0 0 0 0 50.165928988830274 -9.8686390164526756 0 -9.8686390164526756 -40.207609535815322 0 0 0 0 56.544319953463855 -52.058317224353345 0 -52.058317224353345 -65.552579955864758 0 0 0 0 -24.852975496747604 -123.24358722263941 0 -123.24358722263941 -99.30751718563306 0 0 0 0 -90.613698698200096 31.85841238272198 0 31.85841238272198 5.038797555493943 0 0 0 0 -1.5335120063082996 -0.19860890591795277 0 -0.19860890591795277 -0.070181164987708655 0 0 0 0 -14.355434038869134 -60.537528802450879 0 -60.537528802450879 -137.77434379982083 0 0 0 0 -178.38415348474336 -52.066082153507125 0 -52.066082153507125 13.369570139117286 0 0 0 0 -71.883029153884451 -20.885300830322791 0 -20.885300830322791 3.6904142198044383 0 0 0 0 -76.408663269804492 -3.5958931521795279 0 -3.5958931521795279 -5.9277850263928258 0 0 0 0 0.15050017587874009 0.13223211132811841 0 0.13223211132811841 -0.11412688565117168 0 0 0 0 -70.106174973960151 -19.214944382029898 0 -19.214944382029898 11.296891861235963 0 0 0 0 7.8768788296365528 9.7996078567381346 0 9.7996078567381346 32.839822400450089 0 0 0 0 39.864337581162545 25.565894074252355 0 25.565894074252355 14.809652809244596 0 0 0 0 9.6723117877318145 34.163177680755666 0 34.163177680755666 38.168277888160077 0 0 0 0 3.0577165586405499 6.2956002032775729 0 6.2956002032775729 43.923100957201996 0 0 0 0 -4.8320027625832154 -8.9679830980164184 0 -8.9679830980164184 3.2926659135231375 0 0 0 0 -2.479925106970768 1.4307038932216756 0 1.4307038932216756 -11.375097292857049 0 0 0 0 -4.3761187417497567 -0.47195148024695843 0 -0.47195148024695843 0.34058642613536022 0 0 0 0 -1.5257254379984246 -0.5018126873569777 0 -0.5018126873569777 0.36372490240994848 0 0 0 0 -12.806332348114665 -32.134889855599567 0 -32.134889855599567 -33.00647569778107 0 0 0 0 -22.223126505474283 -25.115614582848934 0 -25.115614582848934 -23.528728683912316 0 0 0 0 -48.774664505835972 -52.771370326300485 0 -52.771370326300485 -17.698794006346702 0 0 0 0 -0.65872698790715845 -1.2928306179838049 0 -1.2928306179838049 0.94082381564114259 0 0 0 0 -17.434172636016228 -3.033345150888934 0 -3.033345150888934 -2.8123253213710768 0 0 0 0 -12.933489693496085 -15.892598997240668 0 -15.892598997240668 -16.101353968321973 0 0 0 0 -24.103607814189672 -23.989975711981586 0 -23.989975711981586 -18.174931515276967 0 0 0 0 -38.243767349071277 -27.424807685657356 0 -27.424807685657356 -9.3853233667305744 0 0 0 0 -40.726601654723481 -20.910896772710753 0 -20.910896772710753 -15.271353225462349 0 0 0 0 -53.980852907552617 -27.419242884967616 0 -27.419242884967616 -2.1662311956531113 0 0 0 0 -36.839616637653307 -29.23365302163532 0 -29.23365302163532 -9.6530117526867798 0 0 0 0 -43.400776736260013 -37.119973285159858 0 -37.119973285159858 2.0890571258894397 0 0 0 0 -44.696366757358192 -20.403388520913524 0 -20.403388520913524 -15.523138447635915 0 0 0 0 -43.605078677093843 -34.521232509225854 0 -34.521232509225854 -27.550648463820274 0 0 0 0 -31.874870326799282 -51.709705283246969 0 -51.709705283246969 -36.065784998417485 0 0 0 0 -0.19082177066981032 -0.16375876473080808 0 -0.16375876473080808 0.34965724759231576 0 0 0 0 -31.706327726857126 -13.658229151246744 0 -13.658229151246744 10.247117153681593 0 0 0 0 0.73259464907686578 -2.1353924488574876 0 -2.1353924488574876 2.9329024580659322 0 0 0 0 19.065449240224552 0.70242795538754876 0 0.70242795538754876 3.166457252264081 0 0 0 0 7.0579422840276038 -4.1371938925426122 0 -4.1371938925426122 -0.45764134170531179 0 0 0 0 18.280304943298688 -2.3173822349568809 0 -2.3173822349568809 -7.2342392944814264 0 0 0 0 32.82466032272805 13.694680014762298 0 13.694680014762298 0.21673757087501144 0 0 0 0 0.76672429576418111 -0.61871643459296166 0 -0.61871643459296166 0.6085573577615393 0 0 0 0 6.7837921861814721 16.295095876516843 0 16.295095876516843 1.6689300711216219 0 0 0 0 -92.318677797697092 94.961612405295114 0 94.961612405295114 6.630905164633603 0 0 0 0 -57.165717850357396 -90.167555815004363 0 -90.167555815004363 -40.059963585944615 0 0 0 0 -56.956404518157797 -45.392408035971755 0 -45.392408035971755 27.82748676951428 0 0 0 0 112.63519667595938 213.25196130300776 0 213.25196130300776 -53.352311806296882 0 0 0 0 -275.33016085438885 -114.52457879859534 0 -114.52457879859534 100.01532465768719 0 0 0 0 -8.9603854311344691 3.9635586510255436 0 3.9635586510255436 -1.3144757211554192 0 0 0 0 -28.843087319160986 89.939307795945297 0 89.939307795945297 176.22798569308276 0 0 0 0 -57.642774272302859 80.562405252651118 0 80.562405252651118 90.001199126087272 0 0 0 0 -121.56291730833254 -109.97396963925797 0 -109.97396963925797 -18.177906556737184 0 0 0 0 -124.01137124371235 -104.7704535762258 0 -104.7704535762258 -26.044825837914281 0 0 0 0 -123.69127674841548 -0.91621325806545428 0 -0.91621325806545428 75.070895346157613 0 0 0 0 -29.058287321096941 -10.623795353714712 0 -10.623795353714712 -8.6606970214641024 0 0 0 0 -0.21113203256053126 0.077162270023894308 0 0.077162270023894308 0.28950824677879594 0 0 0 0 -12.123190487287502 6.761885742908305 0 6.761885742908305 -6.3453733571008399 0 0 0 0 -5.0045705615448242 -20.097528668517214 0 -20.097528668517214 -9.0075339165781543 0 0 0 0 -318.00800346181586 -91.087268627328086 0 -91.087268627328086 117.73144590901506 0 0 0 0 77.926810148868753 130.53682778524228 0 130.53682778524228 -56.375705389693195 0 0 0 0 263.29253684467403 128.15102180698761 0 128.15102180698761 -18.183802764230109 0 0 0 0 -178.04368905428419 -176.87787468196308 0 -176.87787468196308 -32.439082103571309 0 0 0 0 -3.6609284644122297 1.6738136296712085 0 1.6738136296712085 -0.75065136129969345 0 0 0 0 29.452826294971601 7.8253939340680745 0 7.8253939340680745 1.2643869584903769 0 0 0 0 -426.1450973192841 -158.05506054634384 0 -158.05506054634384 85.833632339105009 0 0 0 0 -8.0982293995447066 0.40738800208418469 0 0.40738800208418469 0.3612180146587739 0 0 0 0 -23.239144559986016 21.903179666555388 0 21.903179666555388 70.546746668186358 0 0 0 0 -8.8369977589118207 37.830905956151412 0 37.830905956151412 47.010972256696959 0 0 0 0 -14.651118527177459 24.889292501436216 0 24.889292501436216 24.401787774812647 0 0 0 0 -13.392052759860235 3.15281969568764 0 3.15281969568764 32.827083090662569 0 0 0 0 -9.0744540439991397 15.011152018079429 0 15.011152018079429 10.25990010578812 0 0 0 0 -39.494786011284305 -14.07180029411569 0 -14.07180029411569 11.400947609652533 0 0 0 0 -32.618705291151855 11.533685007019074 0 11.533685007019074 28.605303414162492 0 0 0 0 -31.692120588499165 -13.337301827709496 0 -13.337301827709496 -5.6011566157459924 0 0 0 0 -80.615510631463621 -20.342540044892246 0 -20.342540044892246 9.7943354229799979 0 0 0 0 -82.313678701420997 -66.788298861781954 0 -66.788298861781954 3.0863573910917239 0 0 0 0 -22.181272187881405 -26.812824920582216 0 -26.812824920582216 -4.1846570443126723 0 0 0 0 -134.57590298461037 -40.559122040682212 0 -40.559122040682212 1.65193894951517 0 0 0 0 -137.05584381195331 -46.540814091885068 0 -46.540814091885068 20.709812906866908 0 0 0 0 -160.87491270586179 -66.707235495653435 0 -66.707235495653435 21.323539110860281 0 0 0 0 -198.34189007573332 -32.928404730671986 0 -32.928404730671986 23.341921728567854 0 0 0 0 -72.24858318612678 -71.281694973137775 0 -71.281694973137775 -6.1926116227923558 0 0 0 0 -3.6632164856490874 0.62711132516600498 0 0.62711132516600498 -0.090788002069424611 0 0 0 0 -148.07997406075265 72.954664005951599 0 72.954664005951599 -73.05648124471611 0 0 0 0 1.9476230499985832 -2.0680319621188801 0 -2.0680319621188801 -149.76751617571648 0 0 0 0 -38.043828548030433 -4.5783068679875782 0 -4.5783068679875782 -25.744250231778778 0 0 0 0 -108.97811208080884 -59.409221220802991 0 -59.409221220802991 2.6949013655964791 0 0 0 0 -75.647101825142272 13.782416852749463 0 13.782416852749463 -12.132890014404893 0 0 0 0 -31.235065319817295 4.8976239385634983 0 4.8976239385634983 15.614301286830141 0 0 0 0 -33.37204615734845 -9.7485216125535885 0 -9.7485216125535885 -7.7419309968072412 0 0 0 0 -19.362192437502017 -53.478047289052824 0 -53.478047289052824 0.43381339642240846 0 0 0 0 39.347624055872757 -20.623792811076441 0 -20.623792811076441 -2.5245979971869019 0 0 0 0 -0.16996295119681903 -0.37717058987423613 0 -0.37717058987423613 -0.36457827884566063 0 0 0 0 -229.29295242454032 -48.462009305135481 0 -48.462009305135481 15.545394488712986 0 0 0 0 -8.2327578193508089 -3.8302137340307354 0 -3.8302137340307354 17.876417314268906 0 0 0 0 -4.3254771166393766 -6.8326750519256052 0 -6.8326750519256052 6.3690643459732428 0 0 0 0 -4.2544593827072958 -5.3228727839685206 0 -5.3228727839685206 9.696786161999853 0 0 0 0 -52.310660659022687 -16.887737007068836 0 -16.887737007068836 -10.152227501418338 0 0 0 0 -46.981789471779848 2.7601095049702167 0 2.7601095049702167 7.9786680862503658 0 0 0 0 -94.099856097518568 -60.499877602461027 0 -60.499877602461027 -25.40850652861721 0 0 0 0 -108.75312437929824 -25.582518342774222 0 -25.582518342774222 3.5922909828898923 0 0 0 0 -129.79091497690024 -24.614538322522051 0 -24.614538322522051 -2.134605896442622 0 0 0 0 -123.70105097814121 -42.477990978322879 0 -42.477990978322879 -0.9271722683399517 0 0 0 0 -73.274200122219554 -9.8154486024591563 0 -9.8154486024591563 1.9363245832450389 0 0 0 0 -30.166298133956388 -10.07621007978695 0 -10.07621007978695 -14.251705187992798 0 0 0 0 -77.999636674810063 0.32040802521347445 0 0.32040802521347445 2.8360462685644166 0 0 0 0 -161.86511398219227 -10.258820640589363 0 -10.258820640589363 5.5921329305230785 0 0 0 0 -153.56914206360682 -53.937312198260869 0 -53.937312198260869 -6.8209114317165245 0 0 0 0 -128.67507238859253 -55.444735328946706 0 -55.444735328946706 -14.938637822826479 0 0 0 0 -279.41821599955438 -37.653523963072068 0 -37.653523963072068 22.902895049779751 0 0 0 0 -186.89008072332945 -106.39461157589983 0 -106.39461157589983 -0.64460173868547233 0 0 0 0 -151.80881823060201 -22.923673850763933 0 -22.923673850763933 21.483272231199976 0 0 0 0 -47.825277894558894 40.871714738593198 0 40.871714738593198 -25.786172867523106 0 0 0 0 -221.91513237138133 91.449424909911357 0 91.449424909911357 -30.762791560366637 0 0 0 0 -0.88687718909006463 0.008944961116702288 0 0.008944961116702288 0.071212264560035793 0 0 0 0 -3.8598143728668219 -7.4231725096879533 0 -7.4231725096879533 0.0077024058155726865 0 0 0 0 -0.43777987248176942 -4.5629992939724957 0 -4.5629992939724957 2.642198410185074 0 0 0 0 -1.5270005091783716 -0.56495216317341601 0 -0.56495216317341601 0.97516924472131439 0 0 0 0 -4.2700705494789872 -1.6478482166713775 0 -1.6478482166713775 7.277002865137888 0 0 0 0 0.84367592577655159 -6.4955889471364401 0 -6.4955889471364401 5.3287134258398225 0 0 0 0 -123.58710038596109 -34.201567495810252 0 -34.201567495810252 5.6305817422751829 0 0 0 0 -0.35217777783656201 -1.0506928980510111 0 -1.0506928980510111 -1.1027464612315787 0 0 0 0 -101.92560534487893 -45.073081065265143 0 -45.073081065265143 -18.871586822905897 0 0 0 0 -122.72116371579159 -61.038650459708322 0 -61.038650459708322 -30.313380029044794 0 0 0 0 -0.10943694957185102 -0.34886317157567426 0 -0.34886317157567426 -0.17967575941340955 0 0 0 0 -0.96956547013905947 -1.1765391111513828 0 -1.1765391111513828 -0.003209834918418726 0 0 0 0 -0.53840930186687608 -0.34953654463724959 0 -0.34953654463724959 0.052780778188702714 0 0 0 0 -2.3423104238718224 -1.4153278552845003 0 -1.4153278552845003 0.081261682129961543 0 0 0 0 -2.8251028755905736 -1.5902701788353597 0 -1.5902701788353597 0.062790591696319176 0 0 0 0 -2.4223469695007225 -1.6615571006066236 0 -1.6615571006066236 0.0002508284672444116 0 0 0 0 -2.4982678098767792 -1.8120911683694008 0 -1.8120911683694008 -0.21078116239470424 0 0 0 0 -2.5247827590428642 -2.1305377063089952 0 -2.1305377063089952 -0.80129956645494671 0 0 0 0 -2.2478605780961516 -1.5722244588376284 0 -1.5722244588376284 -0.37904525962315283 0 0 0 0 -3.7194335494078814 4.6062675624634331 0 4.6062675624634331 3.9552431897463975 0 0 0 0 -1.3775872116264765 -0.49395997252617363 0 -0.49395997252617363 1.1035808286058675 0 0 0 0 -2.647647445446637 -1.8299316865255153 0 -1.8299316865255153 -0.31816226296622641 0 0 0 0 -2.5345719737542822 -1.8363184164059214 0 -1.8363184164059214 7.6468895774505462e-05 0 0 0 0 -2.1448148146482708 -1.8602441356439727 0 -1.8602441356439727 -0.32477850958254884 0 0 0 0 -2.0439228992327116 -1.5358254525261019 0 -1.5358254525261019 -0.089760115849349731 0 0 0 0 -1.4164750753698172 -1.9748509672624062 0 -1.9748509672624062 -0.19785485507412304 0 0 0 0 -1.4396628700087604 -2.1752771941120712 0 -2.1752771941120712 -0.0010553463122739254 0 0 0 0 -1.8354361843730658 -1.4208055921651801 0 -1.4208055921651801 -0.60166262633216228 0 0 0 0 -1.4239402733310271 -2.3026866721137096 0 -2.3026866721137096 -0.65442289400384723 0 0 0 0 0.87965163302578731 -2.0384348418828031 0 -2.0384348418828031 -1.1223394409089797 0 0 0 0 -1.4132425100215187 -2.6041498865166073 0 -2.6041498865166073 -0.23897364273510036 0 0 0 0 -1.5003812547911366 -1.2937215896259726 0 -1.2937215896259726 0.58121737959315833 0 0 0 0 -0.62055559052168974 -1.1043831125893306 0 -1.1043831125893306 1.077246088317021 0 0 0 0 -0.23659057244599846 -0.043557129836404584 0 -0.043557129836404584 -0.0075906952606550997 0 0 0 0 -0.22597867276005701 -0.085269079405644987 0 -0.085269079405644987 0.027248459872057471 0 0 0 0 -2.1714225612367954 -1.743763862568084 0 -1.743763862568084 -0.93226342993086408 0 0 0 0 -2.0846431079080503 -2.0622699816429471 0 -2.0622699816429471 -0.20099329997319004 0 0 0 0 -2.3727418519110515 -2.950047433418181 0 -2.950047433418181 -1.4996480546933419 0 0 0 0 -2.3786292308983263 -1.9794767296944695 0 -1.9794767296944695 -0.58675227932926433 0 0 0 0 -1.4205144381676291 -1.997293316325262 0 -1.997293316325262 -2.3296078870709387 0 0 0 0 -0.28909001892733066 -0.89071445156825035 0 -0.89071445156825035 -0.68528696491061158 0 0 0 0 -1.8466420303702762 -1.9097958104524277 0 -1.9097958104524277 -1.3172931194982134 0 0 0 0 0.62805657762146438 -0.95870566128716206 0 -0.95870566128716206 -0.96013700336746055 0 0 0 0 -1.3523046503678273 -0.68029748914556087 0 -0.68029748914556087 1.0865435378154593 0 0 0 0 -0.24384284480220231 -0.08129226894857311 0 -0.08129226894857311 1.2797331651437389 0 0 0 0 -0.24483333677562769 -0.045765446420347189 0 -0.045765446420347189 1.3669957372342054 0 0 0 0 0.34944412273041792 -0.080899074832991857 0 -0.080899074832991857 -0.031870208735812922 0 0 0 0 16.280274895752882 -0.78325351140171051 0 -0.78325351140171051 -9.6672435136954391 0 0 0 0 -32.059516925030039 14.70721660234625 0 14.70721660234625 6.8747735270984549 0 0 0 0 -15.191527723714898 -0.90704479823955353 0 -0.90704479823955353 21.009591513735813 0 0 0 0 -11.52477808455842 17.237151436729107 0 17.237151436729107 19.764790900920243 0 0 0 0 0.77033295045475825 1.9537919170678606 0 1.9537919170678606 4.5289578013571372 0 0 0 0 0.040998685445103433 0.013379584820871315 0 0.013379584820871315 -0.031960825389757197 0 0 0 0 0.76854808591451729 1.5503342134419427 0 1.5503342134419427 2.1132469575153152 0 0 0 0 -1.276162014965891 -0.5174168404783881 0 -0.5174168404783881 1.0888524936396917 0 0 0 0 -3.6878616018129833 -0.14961446187100513 0 -0.14961446187100513 0.79242361155634455 0 0 0 0 -5.7306990890739939 0.0078736614431941104 0 0.0078736614431941104 0.91359559644620436 0 0 0 0 -5.9984876299720327 -4.4670549077278512 0 -4.4670549077278512 -1.9792128274162 0 0 0 0 -10.507442999365594 -1.9890616839776423 0 -1.9890616839776423 0.0021700389963044187 0 0 0 0 -0.060929123584784861 0.0018839231209026863 0 0.0018839231209026863 -0.0018843940548819494 0 0 0 0 -11.171193510344892 -2.558164096840092 0 -2.558164096840092 0.0025380025609305079 0 0 0 0 -3.8289235688844201 -5.2832720358616356 0 -5.2832720358616356 -6.8890348744806671 0 0 0 0 -4.2509315314878222 0.3314131682132998 0 0.3314131682132998 1.0668436521639864 0 0 0 0 -4.4865448588425352 1.529867254783672 0 1.529867254783672 -4.4947290340373041 0 0 0 0 -1.1793415052034106 2.5642884736019678 0 2.5642884736019678 0.5075509006476655 0 0 0 0 -0.15564522209751885 -0.38810630370306032 0 -0.38810630370306032 0.14529859505846651 0 0 0 0 3.3121885863565694 1.9676896083681128 0 1.9676896083681128 -1.0033616341085581 0 0 0 0 0.39228125978115713 1.8978387669135321 0 1.8978387669135321 -0.0043233983988632645 0 0 0 0 -0.06810028446334826 0.036642692958782419 0 0.036642692958782419 0.00039605180232159601 0 0 0 0 -19.172175705774862 -7.4578420776086212 0 -7.4578420776086212 0.77471973469125821 0 0 0 0 -0.21909572133738786 -0.04926944961538382 0 -0.04926944961538382 0.015234873287898595 0 0 0 0 -0.1856980692276764 -0.071272500449872211 0 -0.071272500449872211 -0.019598295458098942 0 0 0 0 -16.232734327712024 4.6349670939215901 0 4.6349670939215901 -0.1431274464141998 0 0 0 0 -1.3015947712574416 -0.4908083369574664 0 -0.4908083369574664 -0.001883219607066024 0 0 0 0 -2.4051044881780399 -1.2980666231515325 0 -1.2980666231515325 -0.40384190545113974 0 0 0 0 -0.62270954468476702 -1.5972851887532131 0 -1.5972851887532131 -0.49579245745703915 0 0 0 0 -0.35466979106990237 -0.1110442974128425 0 -0.1110442974128425 -0.031385021431673696 0 0 0 0 -2.242181088662619 -1.6347296201507771 0 -1.6347296201507771 -0.7111746728536783 0 0 0 0 -0.22806031630076395 -0.62378922925306313 0 -0.62378922925306313 -0.406936546155935 0 0 0 0 -2.6821670245699352 -1.2042829405527256 0 -1.2042829405527256 -0.21477632524920232 0 0 0 0 -5.210585975372851 -2.0822514807501227 0 -2.0822514807501227 -0.39592497041411434 0 0 0 0 -0.59495687275234843 0.38508389308968916 0 0.38508389308968916 0.43113835957851399 0 0 0 0 -8.6774777320042631 -2.9537998584099867 0 -2.9537998584099867 -5.2684550796868788 0 0 0 0 -4.4914990091845084 -1.4143317433284806 0 -1.4143317433284806 -0.2922175295238425 0 0 0 0 -2.5753411454697925 -1.3161326543301257 0 -1.3161326543301257 -0.34398043461538919 0 0 0 0 -0.26028913617883731 -0.71060051508413125 0 -0.71060051508413125 -0.39994654369207022 0 0 0 0 -6.001144446687249 -1.0821866758628431 0 -1.0821866758628431 -1.6180949605909518 0 0 0 0 -2.9564843247426325 -1.2527739904275013 0 -1.2527739904275013 -0.62979444223253545 0 0 0 0 -0.34717056418368131 -0.089041963632169541 0 -0.089041963632169541 0.076880123006024981 0 0 0 0 -2.2756797077882993 -0.99716780132329141 0 -0.99716780132329141 -0.21433839339340466 0 0 0 0 -1.1498128868060604 0.041998065343022972 0 0.041998065343022972 0.26796236634773518 0 0 0 0 -2.4838269443298486 -1.0290270504393675 0 -1.0290270504393675 0.10316014169131904 0 0 0 0 -2.3338230554290931 -1.3235571623194033 0 -1.3235571623194033 -0.31413633357487925 0 0 0 0 -0.91619021624284258 0.01595141114314913 0 0.01595141114314913 0.45200055013323559 0 0 0 0 -2.9603733150070184 -1.0545550337401011 0 -1.0545550337401011 -0.2632896736570487 0 0 0 0 -0.66090913941044604 -0.6973265316356958 0 -0.6973265316356958 -0.098586981263437568 0 0 0 0 -1.7491070970120361 -0.42844020152249662 0 -0.42844020152249662 0.30754314038166319 0 0 0 0 -6.5201787219011749 -1.8497950304088988 0 -1.8497950304088988 -2.960436123913496 0 0 0 0 -0.37206017715810447 -0.17937137417371929 0 -0.17937137417371929 0.10283727669003451 0 0 0 0 -7.0320425371664896 -2.0258092820701634 0 -2.0258092820701634 -0.66209783951383372 0 0 0 0 -6.5653368184698593 -3.2945641209595626 0 -3.2945641209595626 0.3743724765234191 0 0 0 0 -7.763047223119429 -3.1186460645454854 0 -3.1186460645454854 -2.2563633309436852 0 0 0 0 -0.049052047709341906 0.12112311878809834 0 0.12112311878809834 -0.036682789365837631 0 0 0 0 -10.835373771506966 -4.6217942001235492 0 -4.6217942001235492 -0.047028390910710982 0 0 0 0 -0.39940407690615132 0.47147694819519614 0 0.47147694819519614 0.42517217181753691 0 0 0 0 -3.7127179070103011 -0.19738746696575049 0 -0.19738746696575049 1.2415411009371233 0 0 0 0 -7.0233423928408456 -2.2488505233351672 0 -2.2488505233351672 -0.57701017842137503 0 0 0 0 -3.1914541598725918 -0.34725461671573932 0 -0.34725461671573932 1.1779803602507952 0 0 0 0 -0.77755111642133556 -0.039989601997373114 0 -0.039989601997373114 -0.12965945083845681 0 0 0 0 -2.0773514108509019 -0.88634353466506077 0 -0.88634353466506077 -0.080590556357542781 0 0 0 0 -3.3533159662820253 -0.65187086371403513 0 -0.65187086371403513 1.5522124801873254 0 0 0 0 -2.0544215201352927 -1.3589332453770488 0 -1.3589332453770488 -0.099521952721360663 0 0 0 0 -2.733854427919141 -0.46590396379759014 0 -0.46590396379759014 1.394613415944578 0 0 0 0 -4.7396146013998077 -0.74674319189802674 0 -0.74674319189802674 1.5938291319769675 0 0 0 0 -6.7817289311205968 -5.4975857590689543 0 -5.4975857590689543 -6.3771610438154767 0 0 0 0 -1.281603387518345 0.15698198792766505 0 0.15698198792766505 0.36425191380883082 0 0 0 0 -2.3517699229851132 -0.76513050781384706 0 -0.76513050781384706 -0.22463394326268116 0 0 0 0 -5.2004883548597718 -1.8384368909578086 0 -1.8384368909578086 -0.82761885283673564 0 0 0 0 -3.5170181395614435 -1.2929614872079025 0 -1.2929614872079025 -0.3970418533887623 0 0 0 0 -6.7925435514080164 -2.3156603197594166 0 -2.3156603197594166 -0.55881338067625563 0 0 0 0 -1.172203326653797 -0.21347589466629202 0 -0.21347589466629202 0.031102250801485543 0 0 0 0 -5.752521174174035 -2.6591152032253547 0 -2.6591152032253547 0.26675317145276267 0 0 0 0 -8.0057961032282492 -3.0776669648103763 0 -3.0776669648103763 -0.087925228819131007 0 0 0 0 -5.5092058523168816 -0.97182796105283842 0 -0.97182796105283842 -0.64995646116028638 0 0 0 0 -7.7441215419513583 0.044694701945982018 0 0.044694701945982018 -0.26479033462612733 0 0 0 0 -1.6215972302109698 0.0023582927213112725 0 0.0023582927213112725 0.37289035294287576 0 0 0 0 -3.6626806042886528 -0.69317566853750634 0 -0.69317566853750634 0.58768038155869817 0 0 0 0 -2.1082951629404718 -0.7891519687595121 0 -0.7891519687595121 0.64145933927920784 0 0 0 0 -7.7306006398212048 3.1090162549634215 0 3.1090162549634215 -0.47031818086229293 0 0 0 0 -2.860537656397355 0.46923810413639444 0 0.46923810413639444 -0.72131165641088302 0 0 0 0 -0.86621394603955082 -0.18633718110368136 0 -0.18633718110368136 -0.036526137323410257 0 0 0 0 -8.5984687998134177 -4.2167341208808136 0 -4.2167341208808136 -0.19344605485571265 0 0 0 0 -1.3995613930513997 -0.20122269834077855 0 -0.20122269834077855 0.53811199203941595 0 0 0 0 -7.0150206515536411 -1.3611189329389504 0 -1.3611189329389504 -0.012251904839558847 0 0 0 0 -6.7679203049628995 -2.1493279074066862 0 -2.1493279074066862 -0.62119202309700938 0 0 0 0 -3.2168473392521264 -1.3099161428672232 0 -1.3099161428672232 -0.17270715190579722 0 0 0 0 -3.2114086554075527 -1.1422457224966465 0 -1.1422457224966465 0.18238693658732175 0 0 0 0 -2.5063977153931774 -0.88316108465632226 0 -0.88316108465632226 -0.088587064688226747 0 0 0 0 -1.2330599092765624 -0.39430170083311111 0 -0.39430170083311111 0.68282783920375323 0 0 0 0 -1.557972325234001 0.055229341360590212 0 0.055229341360590212 0.239194536232609 0 0 0 0 -2.658711657621815 -0.72295607872218781 0 -0.72295607872218781 0.90541591452976167 0 0 0 0 -3.7703829505117028 -1.6009385002792271 0 -1.6009385002792271 -0.30346584081166839 0 0 0 0 -1.5856978827138803 0.13408380873148218 0 0.13408380873148218 0.62065225936502477 0 0 0 0 -0.63430972113473061 -0.57742343360027704 0 -0.57742343360027704 -0.20126114395219474 0 0 0 0 -3.4560757611325243 -1.4236094600240108 0 -1.4236094600240108 0.19985132917952342 0 0 0 0 -3.5426767776372117 -1.4114510915779412 0 -1.4114510915779412 0.31837502580356158 0 0 0 0 -2.8393514367289754 -0.61197595441922203 0 -0.61197595441922203 0.67336862939509956 0 0 0 0 -0.45587684239852166 -0.87703056316469485 0 -0.87703056316469485 0.28204147000494517 0 0 0 0 -2.4762223097986862 -1.1019116194231628 0 -1.1019116194231628 0.60156014021179516 0 0 0 0 -1.0188588180276681 -0.78662340277102416 0 -0.78662340277102416 0.41560812059840213 0 0 0 0 -3.0479137906149845 -1.2974486887758871 0 -1.2974486887758871 0.022355430489767514 0 0 0 0 -4.6173887944161152 -1.7035592378872249 0 -1.7035592378872249 0.93223997729774055 0 0 0 0 -1.8726056297234166 -1.1330420851151786 0 -1.1330420851151786 0.39403717211345346 0 0 0 0 -3.8244626986634103 -1.0767020502271407 0 -1.0767020502271407 -0.0091095563956287151 0 0 0 0 -1.0301415384637949 -1.6692415774119809 0 -1.6692415774119809 0.30988686515638619 0 0 0 0 -3.472507430571568 -1.8428326585143395 0 -1.8428326585143395 0.11630343717843061 0 0 0 0 -3.459650857098822 -1.0217614142939588 0 -1.0217614142939588 0.5304101269371051 0 0 0 0 -1.3186468069258694 -2.1294512141168944 0 -2.1294512141168944 0.46090857918463568 0 0 0 0 -1.706342109765508 -1.8246347729329759 0 -1.8246347729329759 1.0354882612088874 0 0 0 0 -2.2532805379232741 -0.67590695279977808 0 -0.67590695279977808 0.81365171151355753 0 0 0 0 -2.7141875017392114 -0.89531359274241851 0 -0.89531359274241851 1.0029435335773191 0 0 0 0 -1.8781985976120268 -0.81656705256332707 0 -0.81656705256332707 1.1126568267386574 0 0 0 0 -3.840103559721058 -1.4679587566687626 0 -1.4679587566687626 0.42785816826472001 0 0 0 0 -2.4237611821990699 -1.2431007692007583 0 -1.2431007692007583 0.19381005620726777 0 0 0 0 -3.0421012780627841 -0.7088946976157029 0 -0.7088946976157029 0.55356150845915097 0 0 0 0 -5.0677734348100785 -0.9979420298294599 0 -0.9979420298294599 1.1452630175292597 0 0 0 0 -4.6779398411821944 -1.9226887410000053 0 -1.9226887410000053 0.28438580840270333 0 0 0 0 -5.1512614766378846 -2.2953397918812568 0 -2.2953397918812568 -0.21511046955369517 0 0 0 0 -4.5727740054753667 -1.8746367248513707 0 -1.8746367248513707 0.10262216345267916 0 0 0 0 -7.5419934078362871 -4.3099304935700147 0 -4.3099304935700147 1.246483942764371 0 0 0 0 -7.5699392043837292 -2.6774442656590711 0 -2.6774442656590711 1.5813598554850614 0 0 0 0 -7.7526409016190883 -2.2872807747369279 0 -2.2872807747369279 1.0853691758602508 0 0 0 0 -4.4782750426962679 -1.9253990513632635 0 -1.9253990513632635 -0.092738012176895701 0 0 0 0 -7.6317144317405905 -0.64285269950513069 0 -0.64285269950513069 2.3566314132146999 0 0 0 0 -3.7395808338200069 0.22558471679383274 0 0.22558471679383274 1.1805312582763121 0 0 0 0 -9.4787526369582338 -1.193515683951432 0 -1.193515683951432 2.7840821783613592 0 0 0 0 -4.5673639612759871 -0.41208841138487173 0 -0.41208841138487173 0.50925991453738106 0 0 0 0 -8.8332869444384414 -3.3484419631045057 0 -3.3484419631045057 1.2252087584524816 0 0 0 0 -6.0225438873421808 -0.70815131402900988 0 -0.70815131402900988 3.0528386202821594 0 0 0 0 -4.1456647119567478 -0.75808788397300919 0 -0.75808788397300919 0.16925695412827868 0 0 0 0 -5.2898023551033475 -0.44138835753280148 0 -0.44138835753280148 1.7402922513883823 0 0 0 0 -4.512145703411079 -0.13807599001870585 0 -0.13807599001870585 0.95022881457623498 0 0 0 0 -4.7812538612670323 0.090292207379548017 0 0.090292207379548017 1.6058514800654393 0 0 0 0 -4.8018354095183895 0.28553462746822333 0 0.28553462746822333 2.2258604915384694 0 0 0 0 -7.9044003163107845 0.27032249688988941 0 0.27032249688988941 2.7621494582930382 0 0 0 0 -4.0885258346934279 -0.12629830610015347 0 -0.12629830610015347 0.51805337738039725 0 0 0 0 -4.4678549494074105 -3.7847476183071649 0 -3.7847476183071649 1.8350616174640209 0 0 0 0 -9.521751170135758 1.8833205849786054 0 1.8833205849786054 3.4449422108261842 0 0 0 0 -0.7675829590161527 0.040337153457361552 0 0.040337153457361552 0.28696787403355595 0 0 0 0 -4.5799762331298552 -4.5318956243636421 0 -4.5318956243636421 7.6403951912443517 0 0 0 0 -2.8155416575312842 0.18818961695252145 0 0.18818961695252145 0.51442237734674268 0 0 0 0 -3.5516036809603975 -0.055358897672249441 0 -0.055358897672249441 3.1979523140309993 0 0 0 0 -2.0389255188010971 0.73992838953969908 0 0.73992838953969908 0.83792797951569487 0 0 0 0 -4.6807317450211485 -1.0247435203588964 0 -1.0247435203588964 -0.41525000759372688 0 0 0 0 -3.5349086707228707 -0.49775924744022859 0 -0.49775924744022859 -0.13616811287315045 0 0 0 0 -3.9951098320414076 0.38000047887801713 0 0.38000047887801713 0.53023759350571709 0 0 0 0 -6.833834927281714 -0.79208647912261654 0 -0.79208647912261654 -0.15961650453056109 0 0 0 0 -6.1822697640745901 -2.052772801189974 0 -2.052772801189974 2.2309145390717049 0 0 0 0 -2.66419369470524 1.0864901126299173 0 1.0864901126299173 0.86302378936975832 0 0 0 0 -0.58964109454853642 0.67521222790590585 0 0.67521222790590585 0.090052161472627512 0 0 0 0 -4.0232697308970273 -0.2825373953368846 0 -0.2825373953368846 -3.6410116005330906 0 0 0 0 -0.62440150387011073 0.62899591768766072 0 0.62899591768766072 0.58443138430084773 0 0 0 0 9.4824088486889195 -4.8752694143943671 0 -4.8752694143943671 -17.077844920383086 0 0 0 0 8.5666429598386458 -21.242198869096114 0 -21.242198869096114 -31.284490998755473 0 0 0 0 11.418041811148214 -4.7229828487637633 0 -4.7229828487637633 -68.17882890015008 0 0 0 0 1.6929313697219186 -49.026733993372147 0 -49.026733993372147 -33.709537180252312 0 0 0 0 -38.001660636800068 9.3231389198049985 0 9.3231389198049985 -21.214740070047583 0 0 0 0 1.0033133468987216 13.202960436567651 0 13.202960436567651 -22.138666321264623 0 0 0 0 15.173173126786651 23.877625266286834 0 23.877625266286834 -2.429933267017077 0 0 0 0 6.8526343246921897 -7.6513700759488756 0 -7.6513700759488756 -3.7608015002919188 0 0 0 0 -0.79745852766245662 -1.1589892718179726 0 -1.1589892718179726 0.22229585243078986 0 0 0 0 -0.26221808351692744 -0.97123912374718202 0 -0.97123912374718202 0.14228117583667199 0 0 0 0 -0.50141574716562198 -1.0133259474137652 0 -1.0133259474137652 0.44033042986400628 0 0 0 0 0.18887857602071878 -0.9104162149790973 0 -0.9104162149790973 0.11981109821421354 0 0 0 0 0.41190799513248066 -0.59508375270046443 0 -0.59508375270046443 0.15896894441255038 0 0 0 0 -2.9442258167509863 -5.2842718829309661 0 -5.2842718829309661 -0.8205753920564689 0 0 0 0 8.9598709153506206 0.15402835050963404 0 0.15402835050963404 -2.3845857733631419 0 0 0 0 11.606896263318049 -6.738061360987615 0 -6.738061360987615 -11.66938324178318 0 0 0 0 5.1941392535591149 -13.085244135319158 0 -13.085244135319158 -8.9332564280203997 0 0 0 0 9.335774966455574 -16.295449639654066 0 -16.295449639654066 -7.3324042410658876 0 0 0 0 -1.1958232467904963 -20.571414159344087 0 -20.571414159344087 -9.0671322855534981 0 0 0 0 4.7676400688724243 -12.267196852720758 0 -12.267196852720758 -5.635646831954773 0 0 0 0 0.24006277111539021 -14.636212909795404 0 -14.636212909795404 -2.4508621529444099 0 0 0 0 -9.7546667102069478 -16.558340354908751 0 -16.558340354908751 -0.35558779632890491 0 0 0 0 -1.0903693912696326 -3.6776029649611246 0 -3.6776029649611246 0.57183621530612072 0 0 0 0 -0.48455690172381316 -1.4322589040897036 0 -1.4322589040897036 0.20187257407440651 0 0 0 0 -14.8858247554017 -3.1341526878795776 0 -3.1341526878795776 1.7431584220479408 0 0 0 0 0.99722022820822076 -0.59542004006730664 0 -0.59542004006730664 -0.14368831193791198 0 0 0 0 -14.647233054791286 -9.6779418189425996 0 -9.6779418189425996 9.5008746129381159 0 0 0 0 -23.767020188188326 -7.9900607915701585 0 -7.9900607915701585 9.4870162854138016 0 0 0 0 -9.5141630846867571 -2.2985629286411617 0 -2.2985629286411617 -0.069826955541621771 0 0 0 0 -3.7445748164745503 -3.1200998750087869 0 -3.1200998750087869 0.47420771663997829 0 0 0 0 6.8235981835765642 -3.1759870751426291 0 -3.1759870751426291 -4.0888505031530258 0 0 0 0 -8.6434480623302079 -17.10535678226438 0 -17.10535678226438 16.038047819694611 0 0 0 0 -5.5459811778127914 -12.79848808197039 0 -12.79848808197039 -2.4483563651856457 0 0 0 0 -6.0043170100907446 2.5783896716991421 0 2.5783896716991421 25.443443301070374 0 0 0 0 -2.3999306020510929 -1.5663629452114947 0 -1.5663629452114947 1.2055781810348098 0 0 0 0 -11.061435218900442 -22.453161098988687 0 -22.453161098988687 6.106503413295286 0 0 0 0 -21.455229868508468 -21.839044016058551 0 -21.839044016058551 33.112421384823961 0 0 0 0 0.24251016923517454 13.235714887827612 0 13.235714887827612 41.073018064099159 0 0 0 0 -12.754085864855369 -27.285523621293237 0 -27.285523621293237 36.2069078997406 0 0 0 0 -3.7332975176941545 -24.95775822791029 0 -24.95775822791029 6.6464936215495527 0 0 0 0 -3.0278651451544647 -34.574699732298654 0 -34.574699732298654 -11.154976328570001 0 0 0 0 -3.9116532786997595 -33.171321355902066 0 -33.171321355902066 -9.1908406561938136 0 0 0 0 -12.029225203354144 -43.870250912745405 0 -43.870250912745405 -4.4291198048200044 0 0 0 0 -27.356882215419319 17.571546601893942 0 17.571546601893942 86.834303703051717 0 0 0 0 -52.03927473769113 -56.143456446979854 0 -56.143456446979854 60.656609502437959 0 0 0 0 -35.229630080822972 -9.5466162202999385 0 -9.5466162202999385 93.503945755802249 0 0 0 0 -10.436630062096562 4.2455707576872133 0 4.2455707576872133 -1.468596384373777 0 0 0 0 19.274165208560589 46.121872072388555 0 46.121872072388555 57.567211312751169 0 0 0 0 59.644438782806446 82.227894641107468 0 82.227894641107468 -15.45429007193934 0 0 0 0 64.965814904964645 4.835179225989009 0 4.835179225989009 -64.103118006184417 0 0 0 0 43.889201615750608 5.5257664171111003 0 5.5257664171111003 -27.857432403904909 0 0 0 0 78.382778678420436 -21.234251112326433 0 -21.234251112326433 -50.924499806988507 0 0 0 0 -9.6812943299289067 -4.0545182107774895 0 -4.0545182107774895 -1.5750293798865982 0 0 0 0 6.868228103076035 -31.956711644077814 0 -31.956711644077814 54.468969156065441 0 0 0 0 -12.354340642248644 -13.441513226180859 0 -13.441513226180859 39.944053624587013 0 0 0 0 62.4048711235464 -40.490467123203132 0 -40.490467123203132 -15.635393089210993 0 0 0 0 9.6827608193489141 32.895729435340513 0 32.895729435340513 -26.814067517998751 0 0 0 0 27.304350202030037 -7.0975716190275193 0 -7.0975716190275193 -57.582033472208764 0 0 0 0 -1.8898660460871071 -1.1933058388033206 0 -1.1933058388033206 0.93901036193960774 0 0 0 0 -3.6532149032391317 -26.370135250840349 0 -26.370135250840349 -54.606369639585182 0 0 0 0 45.462866650417709 -4.3486282744904088 0 -4.3486282744904088 -29.753380860072866 0 0 0 0 9.4940523661716725 3.8588229360553896 0 3.8588229360553896 -4.3817233010832695 0 0 0 0 1.3481664401188027 25.89042988843255 0 25.89042988843255 -48.428181372315862 0 0 0 0 -1.6073953431827519 1.8000904615426645 0 1.8000904615426645 0.56678752409746225 0 0 0 0 -13.791957066159739 -12.975328286797264 0 -12.975328286797264 8.1324815329451212 0 0 0 0 -10.921891264542708 0.10659356378667351 0 0.10659356378667351 0.38106805658596388 0 0 0 0 -18.039468513623433 -9.4826670506526511 0 -9.4826670506526511 6.1033106730294548 0 0 0 0 -4.0072300195214474 -1.1342878891302259 0 -1.1342878891302259 -0.81094942317001073 0 0 0 0 -7.329970533101914 8.5151931051259879 0 8.5151931051259879 -1.0735208737814901 0 0 0 0 -16.497319405712915 -35.179070642664726 0 -35.179070642664726 -5.4139895613553364 0 0 0 0 -2.529378750521627 0.024781890509679272 0 0.024781890509679272 0.18027897976160734 0 0 0 0 -12.327276680862269 -3.2313133701617289 0 -3.2313133701617289 0.72307480527314283 0 0 0 0 -22.025395222481166 -5.0333252791942868 0 -5.0333252791942868 3.4689568339549623 0 0 0 0 -10.543314968584333 0.71647324890699338 0 0.71647324890699338 0.29991161733638982 0 0 0 0 -67.365200040883792 -35.215406655602692 0 -35.215406655602692 -7.1262676146982358 0 0 0 0 -11.411829684844633 -5.5840875391570535 0 -5.5840875391570535 -2.3625191495498257 0 0 0 0 -13.256022960022165 -0.87472995702114531 0 -0.87472995702114531 11.174041415979445 0 0 0 0 -11.631850951407614 -4.3593191230835373 0 -4.3593191230835373 11.841617944974587 0 0 0 0 -13.830633976303034 -1.3297478994212497 0 -1.3297478994212497 13.714212591075466 0 0 0 0 -13.724928232044476 -1.7762972362429537 0 -1.7762972362429537 12.553176825108153 0 0 0 0 -11.877999902884767 -3.9602241205475366 0 -3.9602241205475366 12.883780541118995 0 0 0 0 -10.426768889091655 -4.2233939139795327 0 -4.2233939139795327 -1.4475211675046478 0 0 0 0 -10.131536490480357 -4.1392674289768365 0 -4.1392674289768365 12.900322973594541 0 0 0 0 -13.326600540591699 -3.3237671395080497 0 -3.3237671395080497 16.040830110310708 0 0 0 0 -13.085105387210206 -1.8892129452010522 0 -1.8892129452010522 15.320527672976368 0 0 0 0 -5.11961991159842 -8.6487499916917159 0 -8.6487499916917159 16.839424304316253 0 0 0 0 -14.739660658361572 2.8436186032039359 0 2.8436186032039359 22.212488772911001 0 0 0 0 -13.085875537988708 -5.7047996038990965 0 -5.7047996038990965 23.410755309589149 0 0 0 0 -12.582151132335639 1.3064496060742385 0 1.3064496060742385 12.442711851544118 0 0 0 0 -15.679275280550428 -0.89101140061757178 0 -0.89101140061757178 17.865264560432252 0 0 0 0 -14.229699488848382 1.6100124158275548 0 1.6100124158275548 11.453366582491071 0 0 0 0 -17.542521118833065 4.6331954355524658 0 4.6331954355524658 11.985054794155758 0 0 0 0 -16.194862342681517 1.4607823272463065 0 1.4607823272463065 13.809925950565372 0 0 0 0 -12.441798256126276 5.1621816981278243 0 5.1621816981278243 -7.0952695073422092 0 0 0 0 -14.254261315814801 6.0373241070647623 0 6.0373241070647623 2.6883461810029985 0 0 0 0 -12.995406888436264 3.8942138405761852 0 3.8942138405761852 0.34426370966434661 0 0 0 0 -16.401406640762616 5.9114753027866982 0 5.9114753027866982 14.434639601926165 0 0 0 0 -12.823249596991445 4.2828745953513021 0 4.2828745953513021 6.0879465467985483 0 0 0 0 -17.738995890421393 6.9605743859559652 0 6.9605743859559652 20.160910103596962 0 0 0 0 -13.597903621388468 -2.9675795790299162 0 -2.9675795790299162 23.33189367224486 0 0 0 0 -16.696703106779751 12.280696946818125 0 12.280696946818125 8.539543842105445 0 0 0 0 -18.996913582330251 -14.736504049785665 0 -14.736504049785665 6.929233252740687 0 0 0 0 -5.1865106821737754 -0.79162375156226972 0 -0.79162375156226972 23.347265386492836 0 0 0 0 -8.2849441284103946 -3.1473659659280866 0 -3.1473659659280866 -0.92426531385679267 0 0 0 0 -14.778587328475851 -20.591635129275659 0 -20.591635129275659 71.794084603703368 0 0 0 0 -12.954121580014544 1.5943639891147541 0 1.5943639891147541 34.459117430383799 0 0 0 0 -11.033341572865538 -3.103538139925206 0 -3.103538139925206 22.708862530854276 0 0 0 0 -4.2635421412423966 0.26793804903253715 0 0.26793804903253715 -6.2785145573215573 0 0 0 0 -5.1728708591563191 -0.88645012478338003 0 -0.88645012478338003 -0.93896713824783262 0 0 0 0 -3.096971772463629 1.4870371334066004 0 1.4870371334066004 0.80343960071046261 0 0 0 0 -5.2341464883054414 3.0359649255182646 0 3.0359649255182646 0.2227375233588873 0 0 0 0 -5.1342435878486867 -0.9663529520623797 0 -0.9663529520623797 -1.011516574451889 0 0 0 0 -6.1804980757733574 -0.3119875707162123 0 -0.3119875707162123 0.27333916075701836 0 0 0 0 -1.375778772146969 1.2308437859926009 0 1.2308437859926009 0.48716646365502903 0 0 0 0 -3.3389189095300971 1.0237088050312515 0 1.0237088050312515 1.1762790464262065 0 0 0 0 -5.3376160463321867 -0.52750705629986783 0 -0.52750705629986783 0.10719942799593696 0 0 0 0 -4.5590978170130256 3.5597304282059667 0 3.5597304282059667 -0.54926600895441879 0 0 0 0 -10.331371096208386 -3.9924934685279254 0 -3.9924934685279254 -1.1055558135451751 0 0 0 0 -7.9730320763819691 -4.6432873118500879 0 -4.6432873118500879 -12.278878714632015 0 0 0 0 -16.951922714534703 -3.3868837000695748 0 -3.3868837000695748 -1.2284299227632118 0 0 0 0 -10.347067367985801 -3.4870812473471915 0 -3.4870812473471915 1.5017075579798984 0 0 0 0 -8.5363997264976206 -3.365482800725033 0 -3.365482800725033 -1.9536751585274033 0 0 0 0 -3.5668947956655757 -4.5612328055467515 0 -4.5612328055467515 -1.0183190379501639 0 0 0 0 -10.360458505492716 -2.199720081551618 0 -2.199720081551618 0.53893948259690205 0 0 0 0 -9.0950076518365677 -8.5257978465892847 0 -8.5257978465892847 -2.7287730977875526 0 0 0 0 11.895621902733183 11.891098825404242 0 11.891098825404242 -2.7326955955395533 0 0 0 0 -7.2368519279643806 -11.48030051648982 0 -11.48030051648982 -13.930913562756473 0 0 0 0 -9.716900057894776 1.0175399979081341 0 1.0175399979081341 1.8791385959918483 0 0 0 0 -13.103491281981519 1.1591202213010732 0 1.1591202213010732 11.131284223216426 0 0 0 0 -10.520533379879453 2.0104499866469041 0 2.0104499866469041 8.3497360907645088 0 0 0 0 -14.687879953045922 2.0789989894938117 0 2.0789989894938117 11.282298035914181 0 0 0 0 -13.502174178394853 5.5993521235951675 0 5.5993521235951675 5.158678886044072 0 0 0 0 -18.180786081362385 1.8683190027271621 0 1.8683190027271621 3.6343565193205336 0 0 0 0 -11.544284093244642 9.9306459410745447 0 9.9306459410745447 -2.9263641846894188 0 0 0 0 -6.2411980100787332 2.572583181537766 0 2.572583181537766 5.8290943601883782 0 0 0 0 -8.6664398942284642 0.72088652773227935 0 0.72088652773227935 2.4798609931511919 0 0 0 0 -8.7465343489628822 8.9934065572147688 0 8.9934065572147688 10.170878956774231 0 0 0 0 -4.8983063090640826 8.2177960205111731 0 8.2177960205111731 6.1619982241427351 0 0 0 0 -2.6062356272923353 5.1417094370597169 0 5.1417094370597169 0.76057543987872123 0 0 0 0 -6.0926644537830725 1.4685404424242279 0 1.4685404424242279 -1.0296130135170642 0 0 0 0 -4.5567964594210935 5.049024413559664 0 5.049024413559664 1.8017671280545073 0 0 0 0 -4.5937889001870644 5.780750462296055 0 5.780750462296055 9.5074286372018832 0 0 0 0 -6.6058532120423479 4.4384150953828794 0 4.4384150953828794 2.6442556134466031 0 0 0 0 -8.1918477666222316 2.9329366347039922 0 2.9329366347039922 4.7273296337275497 0 0 0 0 -0.35853898156346986 3.6439496433213208 0 3.6439496433213208 0.054667357894686575 0 0 0 0 -1.4861823159347143 0.17848513157091261 0 0.17848513157091261 0.45267870539638277 0 0 0 0 -3.1626813024777221 -0.57208029116918624 0 -0.57208029116918624 3.6100414104412266 0 0 0 0 -5.7375156473096034 -1.4657323452359083 0 -1.4657323452359083 0.6958026288656507 0 0 0 0 -7.5508184721438738 0.58979771291643601 0 0.58979771291643601 -4.2840184148183198 0 0 0 0 -7.6685886675186339 -1.5037602182965202 0 -1.5037602182965202 0.80618212411536661 0 0 0 0 -5.0442875042311996 -1.8628041612286257 0 -1.8628041612286257 -0.54414796029191237 0 0 0 0 -5.0541080397333999 0.67349237020103025 0 0.67349237020103025 2.2084874832079846 0 0 0 0 -1.1217984675404296 0.95994746770580885 0 0.95994746770580885 1.0564950877841528 0 0 0 0 -9.7775040532560524 -1.7901027670306746 0 -1.7901027670306746 -2.6736629810607155 0 0 0 0 -7.3243002006438473 -5.2748282890300402 0 -5.2748282890300402 -7.2812511372827089 0 0 0 0 -7.8810976920348708 -0.049735308089147168 0 -0.049735308089147168 2.1836984136412423 0 0 0 0 -5.7574737007380463 -1.0180925917235299 0 -1.0180925917235299 -4.2149352650027367 0 0 0 0 -4.0885819239592252 -1.5709930661941982 0 -1.5709930661941982 1.2408493259492843 0 0 0 0 -5.4165787383353745 -0.25675264248820895 0 -0.25675264248820895 0.4124780105046284 0 0 0 0 -0.054499890354236413 -1.8555209173351841 0 -1.8555209173351841 0.75144943407053688 0 0 0 0 -4.0897139620956295 0.043464776353516754 0 0.043464776353516754 1.4598429534007664 0 0 0 0 -4.9962964417206877 -0.57719779727572984 0 -0.57719779727572984 1.372711629589503 0 0 0 0 -5.947824607306984 1.5857487101137053 0 1.5857487101137053 -2.3199196270388711 0 0 0 0 -8.9481146682646795 5.9239705996108114 0 5.9239705996108114 -2.9952141919364976 0 0 0 0 0.1509710728058149 0.064448680783211643 0 0.064448680783211643 -0.1794911710563234 0 0 0 0 -3.4941642334806602 1.8048019161960838 0 1.8048019161960838 -2.3589288271018631 0 0 0 0 -7.8419567651181978 0.55095727335903177 0 0.55095727335903177 -1.7622447804949388 0 0 0 0 -4.5504955452970535 -0.27627551063108058 0 -0.27627551063108058 -1.5543642407843663 0 0 0 0 -5.4616785405864903 0.13492693020759106 0 0.13492693020759106 0.15831376291430388 0 0 0 0 -4.8192008984779022 0.74972195112445661 0 0.74972195112445661 0.38424887962446519 0 0 0 0 -3.2339307006192257 2.3983421260455344 0 2.3983421260455344 -7.9611630524575503 0 0 0 0 -1.0860882078359282 -1.4052953254000613 0 -1.4052953254000613 -4.0382938836629592 0 0 0 0 -0.001462633194314833 0.084891150980952901 0 0.084891150980952901 -0.090113267730438373 0 0 0 0 -19.032948640656286 9.992592137622637 0 9.992592137622637 -4.8188038623682132 0 0 0 0 -0.18150318286856759 -0.40237800409984104 0 -0.40237800409984104 -0.10628531767861449 0 0 0 0 -4.8703949107652988 2.7927183156678552 0 2.7927183156678552 -4.1557824173485187 0 0 0 0 -0.53221431667102603 0.033820671199411123 0 0.033820671199411123 -0.27881482199831975 0 0 0 0 1.7103797338522782 6.0067020725986708 0 6.0067020725986708 11.757844307486721 0 0 0 0 2.2341527001553914 -18.707509601243373 0 -18.707509601243373 -7.1006764312304114 0 0 0 0 -8.137109598720599 12.15653991809711 0 12.15653991809711 9.4376165859347338 0 0 0 0 12.983796025639094 11.887893509246169 0 11.887893509246169 -1.842714155680369 0 0 0 0 20.00824558610293 10.433566924759589 0 10.433566924759589 -2.481517975668794 0 0 0 0 0.29977549538307358 -4.2639425344573283 0 -4.2639425344573283 -0.40609361153838108 0 0 0 0 -3.9055895209916827 0.55316745948383605 0 0.55316745948383605 0.040735069518845535 0 0 0 0 -0.46894783760164671 -2.2010043688255223 0 -2.2010043688255223 -0.18011001781943659 0 0 0 0 -7.5739413915089244 2.4306528384212243 0 2.4306528384212243 2.4630598097310212 0 0 0 0 -16.812853170553353 4.8702981431631542 0 4.8702981431631542 -2.3614861211576681 0 0 0 0 0.643094291938338 -0.14375210060421129 0 -0.14375210060421129 -0.088897378091012058 0 0 0 0 -8.5201401045924285 -1.370319726789603 0 -1.370319726789603 -1.8999032162637377 0 0 0 0 -7.0380757144530435 -3.7951593146317464 0 -3.7951593146317464 0.88724437144401236 0 0 0 0 -2.7167659287042625 0.31718534044944136 0 0.31718534044944136 3.9353446877084934 0 0 0 0 -9.6126221672566317 -1.3032480488373039 0 -1.3032480488373039 2.6942562095423455 0 0 0 0 -2.1397776424478252 0.85640339909832619 0 0.85640339909832619 -0.25577345854867417 0 0 0 0 -4.0782870509719942 0.65334724476838346 0 0.65334724476838346 0.6679419183282107 0 0 0 0 -4.1018227653985377 0.20030737001570742 0 0.20030737001570742 0.48082212069721209 0 0 0 0 -4.124499626337979 -0.022588678697331943 0 -0.022588678697331943 -0.062994941340548394 0 0 0 0 -4.4960835181300354 0.14819597265136508 0 0.14819597265136508 0.15777655175489258 0 0 0 0 -4.9533965172649914 -0.22322898903240684 0 -0.22322898903240684 0.073892557522867719 0 0 0 0 -3.9096156415635051 0.57935094819572441 0 0.57935094819572441 0.11295961578406377 0 0 0 0 -4.119503977282875 0.1705079792120614 0 0.1705079792120614 -0.48838745884677337 0 0 0 0 -3.3290428983582387 2.2444453927183758 0 2.2444453927183758 9.1923589761518087 0 0 0 0 -3.9805443015443451 0.7500455857410957 0 0.7500455857410957 0.17144417692720104 0 0 0 0 -5.065798297643596 0.090528028741346134 0 0.090528028741346134 -0.28304706186656858 0 0 0 0 -2.8411854829849403 2.7062506291810493 0 2.7062506291810493 7.0811235575474711 0 0 0 0 -2.1107972487734514 -0.67794495955422462 0 -0.67794495955422462 8.70449674376232 0 0 0 0 -2.9652865815420562 -1.4107087216568077 0 -1.4107087216568077 0.36626489682639995 0 0 0 0 -1.4720956564833614 -2.3806599777691417 0 -2.3806599777691417 -0.76715227579279599 0 0 0 0 1.0105984592373716 -4.751127442836605 0 -4.751127442836605 -2.0916262085526682 0 0 0 0 -5.4588981931970011 0.72135895516356641 0 0.72135895516356641 -0.58291528604991072 0 0 0 0 -4.9834388364772622 -0.033780311616695258 0 -0.033780311616695258 -0.76868558329397274 0 0 0 0 -4.740790065402507 -0.6915428046628449 0 -0.6915428046628449 -0.010257110391876267 0 0 0 0 -18.318492800765398 7.1724989083269293 0 7.1724989083269293 -13.147621608409963 0 0 0 0 -27.399341865657334 -6.9512207529240868 0 -6.9512207529240868 -22.224820012274677 0 0 0 0 -40.915448704398841 -3.9788718397132925 0 -3.9788718397132925 -18.033263146932995 0 0 0 0 -28.175325768180301 10.772144669089499 0 10.772144669089499 -11.636145605922366 0 0 0 0 -15.071059077825339 -0.30484323833172766 0 -0.30484323833172766 -3.4807254942721784 0 0 0 0 -20.239912191275835 11.314505732213661 0 11.314505732213661 3.1887231975161967 0 0 0 0 -11.535476098925756 9.2867715259029637 0 9.2867715259029637 -8.7222807177886352 0 0 0 0 -13.448328324955583 8.8605682977109836 0 8.8605682977109836 -2.2957351423251566 0 0 0 0 -12.654858264677387 10.021808947682302 0 10.021808947682302 -7.8173395881147485 0 0 0 0 -12.206278864755859 9.4868901897168598 0 9.4868901897168598 -3.847782111478864 0 0 0 0 -7.1649355799800105 3.0229404994084916 0 3.0229404994084916 -1.5078365428178699 0 0 0 0 -20.042096076580492 6.3816445393501908 0 6.3816445393501908 -7.097712414033083 0 0 0 0 -13.49106710553815 6.4919795527187603 0 6.4919795527187603 -9.791401180403227 0 0 0 0 -22.886980073515588 -0.01193388573710763 0 -0.01193388573710763 -2.7815347550960041 0 0 0 0 -19.646216343184278 4.5426503843785895 0 4.5426503843785895 3.5890967558166267 0 0 0 0 -31.136909037611076 -13.163278803488311 0 -13.163278803488311 -3.7902387840563847 0 0 0 0 -8.8541900465656909 17.445722511500605 0 17.445722511500605 -15.768839066712189 0 0 0 0 -13.762347254589258 -17.767490289431407 0 -17.767490289431407 -11.713329398838596 0 0 0 0 -16.743049578540194 -1.6754159970332125 0 -1.6754159970332125 -13.132671048032307 0 0 0 0 -29.941985389144975 -13.34347384586556 0 -13.34347384586556 -16.410447639278857 0 0 0 0 -45.794795064447499 -7.007454977316911 0 -7.007454977316911 -6.026426368004195 0 0 0 0 -22.108673443127373 -5.3257918772260382 0 -5.3257918772260382 -19.406726454011732 0 0 0 0 -31.928469097777452 -7.1754220113601832 0 -7.1754220113601832 -12.85900788140998 0 0 0 0 -34.434236215503915 -16.732547686845663 0 -16.732547686845663 -30.39385476539951 0 0 0 0 -47.147514765189953 -16.621739788124273 0 -16.621739788124273 -11.62603650625249 0 0 0 0 -50.745794719798141 -17.131883840943715 0 -17.131883840943715 -11.374297577642096 0 0 0 0 -75.634793142085073 -7.9933612160530743 0 -7.9933612160530743 -10.23751853994365 0 0 0 0 -33.28979184754462 30.882962689186627 0 30.882962689186627 -51.565762534374755 0 0 0 0 -0.063208463876030407 0.080480412475623098 0 0.080480412475623098 -0.4095448982228902 0 0 0 0 -71.19261958781135 -15.121650629901012 0 -15.121650629901012 -3.166975831972195 0 0 0 0 -70.589641131039571 -0.57356335547416393 0 -0.57356335547416393 -58.848380992396642 0 0 0 0 -0.21391759332419191 0.15933502540151423 0 0.15933502540151423 -0.28422363507963766 0 0 0 0 -56.59532759203239 -28.801100338753344 0 -28.801100338753344 -28.884197141053164 0 0 0 0 -102.56445386448286 -5.667815002043767 0 -5.667815002043767 -9.7184119812397967 0 0 0 0 -40.572312807576964 -4.2776728568808409 0 -4.2776728568808409 -50.287585870078601 0 0 0 0 -92.977835163637792 -22.167683625980999 0 -22.167683625980999 5.614945823332846 0 0 0 0 -98.148410969632096 10.782480345210729 0 10.782480345210729 -25.037218006557055 0 0 0 0 -118.46036473340791 -26.003906007673777 0 -26.003906007673777 5.6141204939193585 0 0 0 0 -90.985867206607509 -46.367171987006714 0 -46.367171987006714 3.126595664749857 0 0 0 0 -66.451972950153504 -10.353361402898145 0 -10.353361402898145 -9.3666025863846016 0 0 0 0 -44.105425949948085 -21.972690412924436 0 -21.972690412924436 -7.2556672145260563 0 0 0 0 -8.1496314303694817 -3.7956410390188466 0 -3.7956410390188466 3.2229877282630071 0 0 0 0 0.46547847923875629 0.50748034186006485 0 0.50748034186006485 0.0068693123366312392 0 0 0 0 -26.448997649134071 15.097629477659723 0 15.097629477659723 4.9826837502521357 0 0 0 0 -105.06194037786554 0.2215945089203899 0 0.2215945089203899 30.518038012410216 0 0 0 0 -78.565874459271072 -16.383939642045391 0 -16.383939642045391 21.142774794664547 0 0 0 0 -78.855765336751574 20.135562809573116 0 20.135562809573116 29.650757790720291 0 0 0 0 -34.803871583129876 21.894517224348846 0 21.894517224348846 -15.379166825826132 0 0 0 0 -47.035286438749608 -30.161589696049106 0 -30.161589696049106 2.5833268074190983 0 0 0 0 -91.52557171427361 -2.9300046978027865 0 -2.9300046978027865 -10.878073721130932 0 0 0 0 -65.390337355023803 17.245476973543873 0 17.245476973543873 -14.232425117497428 0 0 0 0 -66.310515188477439 31.174836606546137 0 31.174836606546137 -39.200939878805116 0 0 0 0 -53.802339921978273 50.30573202391065 0 50.30573202391065 -57.154436143178259 0 0 0 0 -85.674338715094109 -37.553037398499868 0 -37.553037398499868 -30.623967388247024 0 0 0 0 -108.59280730084629 38.36191972205819 0 38.36191972205819 -23.931005310166483 0 0 0 0 -31.262716561906927 99.26266173660224 0 99.26266173660224 -82.59884535245078 0 0 0 0 -0.87982426069589792 0.19266331160350347 0 0.19266331160350347 0.069709826459212421 0 0 0 0 -69.720465931122817 -1.506491442173342 0 -1.506491442173342 -43.651510454825257 0 0 0 0 -1.29074773570769 -0.48381349090863079 0 -0.48381349090863079 -0.20598422072809575 0 0 0 0 1.214946813242932 -60.722143810615023 0 -60.722143810615023 -110.39322674115942 0 0 0 0 -36.883317118676132 -132.93056350290146 0 -132.93056350290146 -3.1697732475544171 0 0 0 0 -42.947183862968814 -44.179036618960481 0 -44.179036618960481 22.831107604672042 0 0 0 0 -1.3593996656890326 0.14253039108991494 0 0.14253039108991494 0.31778955649520491 0 0 0 0 -15.788405121638789 -16.704747334438025 0 -16.704747334438025 -9.5900103192407187 0 0 0 0 -15.438112076589277 -11.232162446539974 0 -11.232162446539974 -9.4710891793149585 0 0 0 0 -18.953096294643728 -20.92892137467436 0 -20.92892137467436 -26.866885499125601 0 0 0 0 -17.87738148133576 -32.057594934599422 0 -32.057594934599422 41.312364381628981 0 0 0 0 -3.6302721736991757 -1.1951490334081909 0 -1.1951490334081909 -0.014842638468402947 0 0 0 0 -10.322967468273418 -37.364868940558608 0 -37.364868940558608 28.130661371105191 0 0 0 0 4.732276848647416 0.67429679701311329 0 0.67429679701311329 79.50997881172043 0 0 0 0 18.236868316394975 -26.631959956774494 0 -26.631959956774494 28.20975418733806 0 0 0 0 -6.9498506693034869 -20.198227766303887 0 -20.198227766303887 -8.0288921585481603 0 0 0 0 1.2392576581924004 -32.973186667297909 0 -32.973186667297909 -14.719577065223348 0 0 0 0 -17.461273619865096 -23.443170040148971 0 -23.443170040148971 34.577017125298426 0 0 0 0 -34.148347867250777 -44.970019958827152 0 -44.970019958827152 -10.192837430325994 0 0 0 0 -12.947154989250521 -21.388818800202785 0 -21.388818800202785 -46.394354137372375 0 0 0 0 -12.881446546962252 -41.917462455282362 0 -41.917462455282362 -12.767961870890986 0 0 0 0 -11.108331484277869 -6.9559782830393289 0 -6.9559782830393289 11.504169093634573 0 0 0 0 -21.174458540329397 -54.980151883828739 0 -54.980151883828739 -59.081648423014997 0 0 0 0 -0.63895177982634266 -0.13354926291107461 0 -0.13354926291107461 0.35289399367775687 0 0 0 0 -11.680648559113024 -4.8009697597299521 0 -4.8009697597299521 5.8967554040070809 0 0 0 0 -11.426379626205744 -10.637494387753804 0 -10.637494387753804 12.255002467597933 0 0 0 0 -5.0607715801088489 -10.194750869929976 0 -10.194750869929976 12.134671010152601 0 0 0 0 -2.6857180424303806 -10.521835730247858 0 -10.521835730247858 6.1162989881254362 0 0 0 0 -14.65841755600286 -8.2263277720950327 0 -8.2263277720950327 11.48071676098607 0 0 0 0 -31.19617329423636 -8.0435862895517403 0 -8.0435862895517403 18.739989629094168 0 0 0 0 -17.351303787445431 3.7520416671768544 0 3.7520416671768544 17.969014585015628 0 0 0 0 -37.373514512290058 -13.506221835056749 0 -13.506221835056749 20.801244153256675 0 0 0 0 -4.6659252116241987 -5.1173975141623487 0 -5.1173975141623487 -4.7123671387370223 0 0 0 0 -13.278484272836067 -8.992978165950035 0 -8.992978165950035 15.982020239251597 0 0 0 0 -24.69550329208505 -4.5517248360405347 0 -4.5517248360405347 10.652649628942982 0 0 0 0 -7.2696552283014171 0.70718742547092006 0 0.70718742547092006 12.225455176765422 0 0 0 0 -6.6816030378076903 -7.3099108737852703 0 -7.3099108737852703 17.860437256704245 0 0 0 0 -16.235660337373702 1.5315073930075869 0 1.5315073930075869 15.318838779595353 0 0 0 0 -10.656960088445562 -5.8009616280128231 0 -5.8009616280128231 -0.74020904172780821 0 0 0 0 -9.9693840879226592 -5.4846621804518403 0 -5.4846621804518403 -0.19027381163436247 0 0 0 0 -11.392383866932505 -4.99107339410034 0 -4.99107339410034 35.681877363718741 0 0 0 0 -3.5509770470380317 -3.787320080077734 0 -3.787320080077734 22.746069926390646 0 0 0 0 -4.2141770845410065 -1.0556174153489337 0 -1.0556174153489337 21.529965000067477 0 0 0 0 -2.2717348959577066 2.6272613490089043 0 2.6272613490089043 51.262979632372662 0 0 0 0 -9.5862232536143743 -4.0125187597967109 0 -4.0125187597967109 1.6497585033780302 0 0 0 0 14.06827987403085 21.558757806828226 0 21.558757806828226 14.472847516559114 0 0 0 0 -3.2699123293950834 19.104440285744829 0 19.104440285744829 45.256931945698739 0 0 0 0 -11.39921002407209 -4.4252554088941451 0 -4.4252554088941451 66.224937727270586 0 0 0 0 -4.1868160516733042 1.1582229803681798 0 1.1582229803681798 19.937289419156514 0 0 0 0 -0.31271657432080247 1.9663529175305712 0 1.9663529175305712 21.074461171819308 0 0 0 0 -98.939952197747516 -15.598957764667034 0 -15.598957764667034 127.91519408521708 0 0 0 0 16.835883854773328 11.459493884644267 0 11.459493884644267 3.4263752180337406 0 0 0 0 -0.35769806936332316 0.25858977474960776 0 0.25858977474960776 1.2365392481700663 0 0 0 0 20.951153510264703 0.2685067570287174 0 0.2685067570287174 43.527307605831538 0 0 0 0 -20.959839916609781 -12.225592580470902 0 -12.225592580470902 21.213770222947005 0 0 0 0 -31.355452067517035 -6.3506871671459066 0 -6.3506871671459066 18.424501124433732 0 0 0 0 -8.1489190877546775 -5.3355078223655958 0 -5.3355078223655958 -0.70540504293325723 0 0 0 0 -12.427094837454206 -13.131997202958701 0 -13.131997202958701 21.139466802068 0 0 0 0 -15.042059509287355 -0.6194022414219944 0 -0.6194022414219944 39.815247676390307 0 0 0 0 5.462997137754428 -6.3868138800339693 0 -6.3868138800339693 17.624459291410233 0 0 0 0 -5.3161814669224441 -13.172738728427944 0 -13.172738728427944 16.867310625801565 0 0 0 0 -10.308075542190636 -2.6918370023115585 0 -2.6918370023115585 51.638521976115427 0 0 0 0 -10.152849847974437 4.0673716496926113 0 4.0673716496926113 30.002672047412261 0 0 0 0 -9.9287991106939444 -0.43764153924189486 0 -0.43764153924189486 25.204741019893618 0 0 0 0 -5.0715547607760527 7.6608358524088089 0 7.6608358524088089 14.937762939876563 0 0 0 0 -11.047392964840583 2.3634302848419964 0 2.3634302848419964 24.068972660388908 0 0 0 0 -12.094043547305773 3.2017996280276861 0 3.2017996280276861 21.036615688769032 0 0 0 0 -3.1503762506636122 -0.65199255108575471 0 -0.65199255108575471 6.1025388646686451 0 0 0 0 -5.141901222837987 -6.6688164010141691 0 -6.6688164010141691 17.29422690406318 0 0 0 0 -10.967718228846934 -8.072361429673947 0 -8.072361429673947 32.551056452366197 0 0 0 0 5.0464733020912718 -19.5304955101698 0 -19.5304955101698 15.24431081234161 0 0 0 0 31.872742964944337 -26.31191449826747 0 -26.31191449826747 9.7697711794579618 0 0 0 0 -12.468123225153249 13.659485449182739 0 13.659485449182739 3.3492357207056429 0 0 0 0 -4.1013895157244527 0.43435375790326525 0 0.43435375790326525 5.9751805769040907 0 0 0 0 -11.163950495687004 2.187696934968745 0 2.187696934968745 10.233367520466572 0 0 0 0 -2.4510006982618506 5.0761139167289571 0 5.0761139167289571 -5.656376104747892 0 0 0 0 22.411132614136932 -11.288481261892372 0 -11.288481261892372 5.0411871928206438 0 0 0 0 -5.635802259979755 9.4032828682680929 0 9.4032828682680929 -4.601426745945929 0 0 0 0 -4.4500152386874028 -0.20134149871549845 0 -0.20134149871549845 5.4088402185677413 0 0 0 0 18.916213196265744 -4.3080100498608545 0 -4.3080100498608545 -3.6284902026899317 0 0 0 0 -0.586090709415231 0.43682799300519193 0 0.43682799300519193 -0.40477216653832393 0 0 0 0 2.7954170694483764 -4.0156437745637277 0 -4.0156437745637277 1.6512380520488179 0 0 0 0 -91.688335858068967 -47.40131319791135 0 -47.40131319791135 -21.598055861518077 0 0 0 0 0.65820695796173823 7.535039571740981 0 7.535039571740981 8.9114238271275781 0 0 0 0 1.4186292189442611 8.2006262214239314 0 8.2006262214239314 7.9937137030167378 0 0 0 0 -3.5976349185984873 5.2213527638792243 0 5.2213527638792243 7.1355468193343654 0 0 0 0 3.0990445306488255 2.5835497150634126 0 2.5835497150634126 -4.0186977927555745 0 0 0 0 -51.76249726689457 -32.51033835353585 0 -32.51033835353585 -15.257190288496702 0 0 0 0 -2.2926362790132693 1.6670604260220934 0 1.6670604260220934 -0.44186376784178716 0 0 0 0 -6.0554806586151244 2.7921498183688414 0 2.7921498183688414 -3.7670963411904381 0 0 0 0 -70.688315027435237 -32.860822770666957 0 -32.860822770666957 -13.43446834259008 0 0 0 0 -38.321772006382162 -27.304779125340076 0 -27.304779125340076 -20.732944392961485 0 0 0 0 -51.503382325914146 -21.882136944060292 0 -21.882136944060292 -21.181576614397045 0 0 0 0 -44.180869361176519 -10.905429829506659 0 -10.905429829506659 -17.933937395849512 0 0 0 0 -21.34175373324797 -18.147612529188692 0 -18.147612529188692 -17.100659354550736 0 0 0 0 -28.068800482944425 -2.7031951483093302 0 -2.7031951483093302 -2.935285579731465 0 0 0 0 -18.913101629863377 -4.4118441686779022 0 -4.4118441686779022 -26.437739511640359 0 0 0 0 -69.43261245995518 18.744547924971982 0 18.744547924971982 -6.2597305135036549 0 0 0 0 -31.282907631462876 -19.473186513931637 0 -19.473186513931637 -9.1388670885321517 0 0 0 0 -4.2059425186707813 -7.9539365707019485 0 -7.9539365707019485 -13.931527945707707 0 0 0 0 -5.8125381652334909 -30.106155415588436 0 -30.106155415588436 25.293127318287134 0 0 0 0 -13.29787311015798 -17.778995402427327 0 -17.778995402427327 -24.509953926709045 0 0 0 0 4.0874156087738811 -38.957573701485956 0 -38.957573701485956 15.581244998575585 0 0 0 0 -25.692662818913959 -77.71698013590823 0 -77.71698013590823 -25.368105206202923 0 0 0 0 -40.42071489492082 -17.212975542361505 0 -17.212975542361505 -19.615127688544632 0 0 0 0 -51.525622216340707 -120.52194860735156 0 -120.52194860735156 -96.084743508067376 0 0 0 0 -317.21106311085168 6.5768277017345582 0 6.5768277017345582 79.757051955457143 0 0 0 0 83.477472602997523 7.1403881815822139 0 7.1403881815822139 -182.87726110659628 0 0 0 0 19.048903613758739 67.125504670906025 0 67.125504670906025 -93.304273828910596 0 0 0 0 -152.48738144502204 -123.50695650067249 0 -123.50695650067249 -101.03524080647136 0 0 0 0 -72.973707679180734 -173.51528720679215 0 -173.51528720679215 100.70117510236378 0 0 0 0 67.866122945462848 -34.539747126433355 0 -34.539747126433355 -59.13330377351943 0 0 0 0 -552.93880939712199 168.6254374240805 0 168.6254374240805 -36.674130733163963 0 0 0 0 -1.1209457287853368 -1.1775363118918758 0 -1.1775363118918758 -1.733012913231196 0 0 0 0 -405.77411471163578 112.26729923526568 0 112.26729923526568 -37.794001099133311 0 0 0 0 -4.0615117936359457 -4.8679436708953148 0 -4.8679436708953148 -4.7544192864352937 0 0 0 0 -3.8562614717956052 -1.0188123995544816 0 -1.0188123995544816 -0.12331909443624767 0 0 0 0 -388.80010463783401 89.490070973150978 0 89.490070973150978 93.970511669378084 0 0 0 0 -418.90592197039405 111.48869072413075 0 111.48869072413075 109.70788075626683 0 0 0 0 23.529422742214592 -20.389927621873312 0 -20.389927621873312 -4.2416106987398052 0 0 0 0 -9.6442230673674203 13.649349279030275 0 13.649349279030275 34.215129083909005 0 0 0 0 -17.527054928816142 -7.9140461904805761 0 -7.9140461904805761 -3.9040725127110818 0 0 0 0 -68.885062304950225 -41.07862058311639 0 -41.07862058311639 0.087613077261266881 0 0 0 0 -160.99154294552227 -91.919316154250509 0 -91.919316154250509 30.039327194132738 0 0 0 0 -49.351965354890581 -93.34681893750701 0 -93.34681893750701 14.071794051306824 0 0 0 0 -73.267416005368432 -36.497598504653979 0 -36.497598504653979 2.842223859189609 0 0 0 0 -244.02762954159425 16.316758469946421 0 16.316758469946421 30.577235272055059 0 0 0 0 -96.091309706898755 68.397871764188949 0 68.397871764188949 -213.15566976414812 0 0 0 0 -24.352700303684287 0.9781418725233948 0 0.9781418725233948 14.46304548431408 0 0 0 0 -21.016521092134099 2.656204234829147 0 2.656204234829147 15.148489882541298 0 0 0 0 -1.3676480391058057 0.39576110561212552 0 0.39576110561212552 1.6544136079582659 0 0 0 0 -11.177190479946148 -10.121153411268551 0 -10.121153411268551 25.510852728141344 0 0 0 0 -21.064647734489881 -3.8610258376251068 0 -3.8610258376251068 8.0360085198371962 0 0 0 0 -11.880892512363062 1.0869382702621806 0 1.0869382702621806 10.633743577699988 0 0 0 0 13.553713214292976 -54.510293439536866 0 -54.510293439536866 24.955916848090737 0 0 0 0 13.307522950992279 -13.622315911910391 0 -13.622315911910391 -28.621670951308033 0 0 0 0 -3.7456282198763802 -10.106702311772949 0 -10.106702311772949 -16.991932019262208 0 0 0 0 -10.464226416578111 -6.2342166487197801 0 -6.2342166487197801 -1.5574414629995588 0 0 0 0 -5.5418631901084154 -45.099331495103911 0 -45.099331495103911 62.421464779258827 0 0 0 0 25.74884786882285 -48.275354884385763 0 -48.275354884385763 15.264466707204861 0 0 0 0 14.48295665373189 -27.285414286773971 0 -27.285414286773971 28.657762026273531 0 0 0 0 0.28833916662375003 -1.2835705012176288 0 -1.2835705012176288 -0.7373949158005868 0 0 0 0 -533.02152845439196 192.25758023450453 0 192.25758023450453 937.93904861470037 0 0 0 0 -334.2130310618395 -294.51682535807748 0 -294.51682535807748 -350.5415175582911 0 0 0 0 -463.42315004269585 112.90368505709105 0 112.90368505709105 -176.73246204078913 0 0 0 0 -593.7270671280321 -32.086169438749032 0 -32.086169438749032 -36.685058188932125 0 0 0 0 -499.84785966038635 27.46085498495507 0 27.46085498495507 -239.57609063989221 0 0 0 0 -545.20508023328875 124.15410619642824 0 124.15410619642824 42.893697440874959 0 0 0 0 -185.27894869225929 168.34662933812439 0 168.34662933812439 -75.171850595554758 0 0 0 0 -114.23205388903261 72.205478342524557 0 72.205478342524557 -50.691431249255125 0 0 0 0 -2.243706782742855 1.3101152924355031 0 1.3101152924355031 -1.4052044714299279 0 0 0 0 0.79320738376191002 -43.920673437851065 0 -43.920673437851065 -23.425520785511409 0 0 0 0 -131.39112676476725 13.252185542027746 0 13.252185542027746 -35.184048569257584 0 0 0 0 -50.047649703509705 10.75562713866843 0 10.75562713866843 30.2605007415751 0 0 0 0 -8.3598087340778875 -5.8726348118341072 0 -5.8726348118341072 -4.224140334036818 0 0 0 0 0.080805547419700474 -0.10497769445164451 0 -0.10497769445164451 -0.21394832102838857 0 0 0 0 0.2984904549525389 -0.088738799162182858 0 -0.088738799162182858 0.029514310594020543 0 0 0 0 1.6878910199823451 -4.7771087126459744 0 -4.7771087126459744 2.0855976245857724 0 0 0 0 -4.2071547933064721 -40.95489194849236 0 -40.95489194849236 50.907970781641779 0 0 0 0 -10.192233051411307 0.57396404165996451 0 0.57396404165996451 0.70186859030294124 0 0 0 0 -22.385968591210258 15.0619523763487 0 15.0619523763487 -22.895369731758592 0 0 0 0 -4.6355256354254379 -11.38259215426686 0 -11.38259215426686 -6.9079702214788767 0 0 0 0 -4.9013465983080096 2.230461865069401 0 2.230461865069401 -34.302451013144037 0 0 0 0 -83.507915853633676 -191.04517948650829 0 -191.04517948650829 -72.585884390657156 0 0 0 0 -80.52537061563271 117.18240115314131 0 117.18240115314131 -93.190169778425059 0 0 0 0 -3.4892247378351584 0.42520088353926777 0 0.42520088353926777 -0.37307694569564387 0 0 0 0 32.983336670880817 -41.205272729266994 0 -41.205272729266994 -49.699689518654651 0 0 0 0 125.44906529971149 -152.40473363860085 0 -152.40473363860085 -144.35016988192945 0 0 0 0 -77.591661648937816 -60.993078253166274 0 -60.993078253166274 -139.39525284517057 0 0 0 0 -41.500694711446613 -210.03079320983687 0 -210.03079320983687 -75.551598506518303 0 0 0 0 -110.64187485743059 -207.41102602762842 0 -207.41102602762842 -24.451790275606413 0 0 0 0 36.430201621973538 -321.82821040617944 0 -321.82821040617944 7.0485494261342012 0 0 0 0 -186.88980972554782 -158.46986448624085 0 -158.46986448624085 -49.201793863988769 0 0 0 0 -1.8936138901437545 -1.300899191340056 0 -1.300899191340056 -0.6067511671695125 0 0 0 0 -276.92540116219283 47.698539775819967 0 47.698539775819967 54.155192667215502 0 0 0 0 -243.59379584470389 -58.852316942605256 0 -58.852316942605256 252.86671159878986 0 0 0 0 -211.7014528880336 -15.924322159306033 0 -15.924322159306033 -1.6720058249916363 0 0 0 0 -562.45101481234224 67.957402465015122 0 67.957402465015122 34.948142990298777 0 0 0 0 -500.1172946432398 62.895726270598352 0 62.895726270598352 58.57884667756781 0 0 0 0 -356.75706040206569 176.59000709646432 0 176.59000709646432 74.453548303589997 0 0 0 0 -159.1546576643741 -17.087686235451365 0 -17.087686235451365 -0.079170873545085507 0 0 0 0 27.415604157712551 -132.03236441703734 0 -132.03236441703734 -45.33885691572857 0 0 0 0 -499.33741786400697 222.2229121846525 0 222.2229121846525 82.852201731250361 0 0 0 0 -4.2133901325383079 -2.235531177723022 0 -2.235531177723022 -0.67270628087421569 0 0 0 0 -2.2506165080958169 -0.88164199777505914 0 -0.88164199777505914 -0.34543973654421706 0 0 0 0 -497.94509632306767 -128.76615393890279 0 -128.76615393890279 25.920833045442471 0 0 0 0 -83.67915173226811 -18.585230646977315 0 -18.585230646977315 -22.974014555236465 0 0 0 0 -94.536373501538947 25.710657825591969 0 25.710657825591969 3.7234053958039564 0 0 0 0 -136.78310556936322 -2.6158074416062274 0 -2.6158074416062274 71.800994772463355 0 0 0 0 -31.440860013319252 -73.231992043948594 0 -73.231992043948594 92.869535808009871 0 0 0 0 -84.619990893941576 26.33414769859678 0 26.33414769859678 50.518070470912342 0 0 0 0 -147.37693036279688 -4.2687884639483009 0 -4.2687884639483009 44.826042615053566 0 0 0 0 -53.632723140692178 -15.079247343874489 0 -15.079247343874489 -3.5236789811091054 0 0 0 0 -98.122371171902159 -58.794104655868964 0 -58.794104655868964 24.531039249183596 0 0 0 0 -50.983382651335887 -22.941335380510314 0 -22.941335380510314 21.043414719448361 0 0 0 0 -59.246899937217677 -10.317033491479892 0 -10.317033491479892 1.8220273021204534 0 0 0 0 -89.704476558168835 -7.3304848973971213 0 -7.3304848973971213 -4.0269515743261604 0 0 0 0 -73.878715550546985 2.9256188822389895 0 2.9256188822389895 -0.0044287113710402021 0 0 0 0 -84.819721046227642 14.33756105419141 0 14.33756105419141 -10.546152486435087 0 0 0 0 -61.796516499954123 1.8913608432837021 0 1.8913608432837021 -10.791739351143724 0 0 0 0 -66.912655806586372 -1.4548910136223445 0 -1.4548910136223445 -2.142111822329551 0 0 0 0 -36.135369684800025 -6.6749861500469443 0 -6.6749861500469443 -1.4112670736248978 0 0 0 0 -57.96484130920453 8.1997972414547604 0 8.1997972414547604 11.995236078549066 0 0 0 0 -56.067673426899091 8.6131344527973308 0 8.6131344527973308 0.88043260299330095 0 0 0 0 -28.896386265402725 -12.167387001043625 0 -12.167387001043625 17.597015196211952 0 0 0 0 -48.530704057894127 28.182277053869768 0 28.182277053869768 14.345034767790466 0 0 0 0 -17.639578345773771 3.3989092143546067 0 3.3989092143546067 -4.3069512614597159 0 0 0 0 -8.2807603131477663 -14.148702783322619 0 -14.148702783322619 -14.362880998064412 0 0 0 0 0.24611392173329705 0.032007702283478601 0 0.032007702283478601 0.020867220125441635 0 0 0 0 -25.929135972624863 4.3204414063556822 0 4.3204414063556822 47.291589293447601 0 0 0 0 5.3012113685035729 -29.940695652217634 0 -29.940695652217634 19.051832153362465 0 0 0 0 -3.2443379326796276 -22.471560311578333 0 -22.471560311578333 12.961554588400151 0 0 0 0 15.807894869702068 -20.792507960036442 0 -20.792507960036442 2.5878181997449712 0 0 0 0 -259.03491255024016 -172.49390831811263 0 -172.49390831811263 18.546124403198384 0 0 0 0 -111.23926267390925 -63.929005378256761 0 -63.929005378256761 23.929450909975735 0 0 0 0 0.20146154302920394 -0.20592729914238106 0 -0.20592729914238106 -0.010654966581739769 0 0 0 0 -2.0764524552223449 -1.3262964023272694 0 -1.3262964023272694 0.9476373897723458 0 0 0 0 -11.053704154415755 -9.2672697683503884 0 -9.2672697683503884 -1.4941868516791033 0 0 0 0 -4.2233306739599357 -15.685407742021876 0 -15.685407742021876 -1.2033496654904852 0 0 0 0 -31.959445499491267 97.961772203128447 0 97.961772203128447 -188.30968186697888 0 0 0 0 -21.989863968177815 -4.259970167304747 0 -4.259970167304747 3.3399909879069263 0 0 0 0 -0.72740111442529809 0.5138663097775833 0 0.5138663097775833 0.69801482117025637 0 0 0 0 -9.3946127139990949 -1.2658847305988421 0 -1.2658847305988421 12.06832330796713 0 0 0 0 0.3299863026783143 -0.75366395776307726 0 -0.75366395776307726 -0.014529521006674095 0 0 0 0 8.4824950290567358 -14.981360196848268 0 -14.981360196848268 -0.51568992009041281 0 0 0 0 0.60111173822224373 -6.8331406524129932 0 -6.8331406524129932 1.7293438009326962 0 0 0 0 -4.4511320383821058 -1.3193094961134442 0 -1.3193094961134442 -0.089942954934492225 0 0 0 0 -0.66753256255105953 -2.0931594588246227 0 -2.0931594588246227 0.43980733497088842 0 0 0 0 -1.8304042032614234 -9.077301436479118 0 -9.077301436479118 -0.20794402492180097 0 0 0 0 15.186784637543497 -57.667303698982067 0 -57.667303698982067 -3.8359387273571883 0 0 0 0 -5.7562849199093762 -21.484252935670042 0 -21.484252935670042 63.617346423996707 0 0 0 0 -6.5160587641295677 -2.548720166037675 0 -2.548720166037675 1.6988292003635013 0 0 0 0 -2.1090627848552685 -11.225013135615967 0 -11.225013135615967 1.2586426560939685 0 0 0 0 16.526037398736662 -10.693645732969998 0 -10.693645732969998 -27.36966273593049 0 0 0 0 0.64290172783876187 1.6340986781723572 0 1.6340986781723572 -6.8565724823841094 0 0 0 0 0.026846037408910561 0.037833704510898514 0 0.037833704510898514 -0.371996357521029 0 0 0 0 0.78544908062031027 -1.1565183347765498 0 -1.1565183347765498 -0.15979346966148 0 0 0 0 1.7737327097338493 -1.0845768402967089 0 -1.0845768402967089 -0.48398663890617399 0 0 0 0 -2.2883650938510982 -1.0711833615015287 0 -1.0711833615015287 0.36764583842651177 0 0 0 0 1.2362987894193793 -1.8713283520974642 0 -1.8713283520974642 -0.183614476993057 0 0 0 0 -0.62241480331431376 -1.8069233864180347 0 -1.8069233864180347 0.02560821317658224 0 0 0 0 -0.63729667038671778 -1.6008774418558958 0 -1.6008774418558958 -0.043171992077345678 0 0 0 0 -1.9507552975155704 -0.51992137249917381 0 -0.51992137249917381 -0.31895983890475677 0 0 0 0 -1.6297639004496887 -1.0133980940019711 0 -1.0133980940019711 -0.39047583985771439 0 0 0 0 -2.8178752568460936 -0.28397077730005726 0 -0.28397077730005726 -0.15537734424761096 0 0 0 0 -1.4990320947181317 -0.86308561189619581 0 -0.86308561189619581 -0.27823061273652883 0 0 0 0 -0.72957188636675596 0.37305665578037051 0 0.37305665578037051 -0.22257144373278581 0 0 0 0 -2.3101455884232891 1.5434015267625227 0 1.5434015267625227 -0.76677311330639419 0 0 0 0 -9.2132840572739951 -9.1052230327711072 0 -9.1052230327711072 6.6193711489820899 0 0 0 0 -2.9292270014593669 7.6562585949557516 0 7.6562585949557516 17.214680493703668 0 0 0 0 -10.109225252439501 -7.4200726674245772 0 -7.4200726674245772 9.042512210594154 0 0 0 0 -1.6067691687139245 1.0732457292663469 0 1.0732457292663469 1.7032947027904299 0 0 0 0 -92.979681312823232 6.8571691903309642 0 6.8571691903309642 -6.8834063718343117 0 0 0 0 -236.58803953903043 35.717803596170313 0 35.717803596170313 5.0977725001378644 0 0 0 0 -278.30931469609277 -91.304242688565495 0 -91.304242688565495 11.952216971383054 0 0 0 0 -0.98408540648341614 0.5449612907569481 0 0.5449612907569481 -0.32109462133991834 0 0 0 0 1.4596895580161799 43.277924097842543 0 43.277924097842543 -11.69313279881456 0 0 0 0 -173.22152103946428 -63.930428299386023 0 -63.930428299386023 9.623222883069932 0 0 0 0 -84.957159087054151 -34.389345189483521 0 -34.389345189483521 9.1644847448466749 0 0 0 0 -218.29007556116267 -10.786593925230477 0 -10.786593925230477 5.6669944967502772 0 0 0 0 -0.11697201872742369 0.4844494334355165 0 0.4844494334355165 -0.3492777365308215 0 0 0 0 -102.95355190932241 10.061761207477787 0 10.061761207477787 -3.5555848811343722 0 0 0 0 -50.035270079744805 -45.502018032822491 0 -45.502018032822491 -43.441581305265458 0 0 0 0 -65.683378712936246 44.817726770667718 0 44.817726770667718 -8.1453751711995324 0 0 0 0 -138.56682776257003 -43.420364672738401 0 -43.420364672738401 -54.801593750731968 0 0 0 0 -182.5257851124552 -42.124707323656935 0 -42.124707323656935 17.924995566571312 0 0 0 0 -250.84534861378415 -18.122415704905592 0 -18.122415704905592 11.665029490460483 0 0 0 0 -198.78164011817717 75.903848775513183 0 75.903848775513183 -264.48004017907897 0 0 0 0 -181.19269708975594 -67.908353917079964 0 -67.908353917079964 18.758885742560665 0 0 0 0 -207.48622215815703 -56.963552507855809 0 -56.963552507855809 25.050514838730237 0 0 0 0 -87.890313039562898 -21.125926318399024 0 -21.125926318399024 20.776631921125627 0 0 0 0 -197.05540276227021 -18.767872510406043 0 -18.767872510406043 22.272322851333428 0 0 0 0 -81.245182091752213 -24.542501440830179 0 -24.542501440830179 -7.3379330011509865 0 0 0 0 -7.5464976530020067 8.8930105924929634 0 8.8930105924929634 8.6586909092914937 0 0 0 0 -7.7889729421476659 6.1318920385107916 0 6.1318920385107916 -16.187343481483396 0 0 0 0 9.0712725023349776 11.932030132662248 0 11.932030132662248 -2.0894249020380187 0 0 0 0 -5.5704332112272823 1.5407915530620135 0 1.5407915530620135 0.0018784205623632033 0 0 0 0 -0.29703340417201574 0.75784948299387977 0 0.75784948299387977 1.1059331815516766 0 0 0 0 -0.21399165778447982 0.93924179467607871 0 0.93924179467607871 0.035034315863323257 0 0 0 0 -0.97451753720997658 2.7277998727501362 0 2.7277998727501362 -1.6713529291177487 0 0 0 0 -0.39173354274764804 -0.46258010971027375 0 -0.46258010971027375 0.70787210656365673 0 0 0 0 -6.1187661251642567 3.751067202237266 0 3.751067202237266 2.9645686594716665 0 0 0 0 -0.16785056747669147 0.041581324363914263 0 0.041581324363914263 -0.024791157607003123 0 0 0 0 -17.652190062283353 4.9552745715245461 0 4.9552745715245461 -0.42708542565750918 0 0 0 0 0.25694902011833065 0.29957909830579155 0 0.29957909830579155 0.2335623221828986 0 0 0 0 42.124174766709984 -15.558526608034818 0 -15.558526608034818 -27.884111212028351 0 0 0 0 -91.697814705200017 -1.6446146144611209 0 -1.6446146144611209 2.3257463133885494 0 0 0 0 1.2271673461400496 41.982975653781914 0 41.982975653781914 -27.03432606916644 0 0 0 0 -63.911706258364575 -37.937120206036994 0 -37.937120206036994 15.415861358920566 0 0 0 0 8.0054771272871221 5.4491768255633239 0 5.4491768255633239 -11.129416176537831 0 0 0 0 -9.9437776876593489 6.1341445999250794 0 6.1341445999250794 -3.0217833656614346 0 0 0 0 8.5030111510386632 2.5798465311178305 0 2.5798465311178305 -2.1048595361133451 0 0 0 0 -0.16484819333631862 0.088373733941651267 0 0.088373733941651267 0.28268337027813722 0 0 0 0 -15.236275759083583 5.2240445327162632 0 5.2240445327162632 5.3390028963329428 0 0 0 0 -7.4468713333553751 11.197427095249239 0 11.197427095249239 5.3537213203523208 0 0 0 0 3.7318302947533084 10.809962332728368 0 10.809962332728368 -6.8322810490565331 0 0 0 0 -83.235231011565702 -10.594145684347954 0 -10.594145684347954 16.306303928029784 0 0 0 0 -50.229321283619356 -23.401873018991182 0 -23.401873018991182 1.6516826608034876 0 0 0 0 -53.793300240417011 1.907996397038815 0 1.907996397038815 4.5632550497917777 0 0 0 0 -11.793811789584652 -18.101465114994937 0 -18.101465114994937 -6.4818437347464624 0 0 0 0 -82.717400764342528 -2.2419686363279965 0 -2.2419686363279965 27.278688320886985 0 0 0 0 -72.275929765130968 -4.6469009616422721 0 -4.6469009616422721 -77.854532875683745 0 0 0 0 -185.15808764669964 -28.493203654119398 0 -28.493203654119398 21.21117487986465 0 0 0 0 -56.160138158149493 11.489293485650055 0 11.489293485650055 26.790517389264778 0 0 0 0 -117.39787736637663 73.672072938566103 0 73.672072938566103 1.3435232033245796 0 0 0 0 -97.616248924910906 16.301013427043682 0 16.301013427043682 20.602839067936156 0 0 0 0 -90.138088145289657 2.0853533003895137 0 2.0853533003895137 15.921279464286917 0 0 0 0 -98.652737682273937 6.8467780033190042 0 6.8467780033190042 22.407826560462901 0 0 0 0 -68.331746459813985 26.52964263279036 0 26.52964263279036 5.9943839824320193 0 0 0 0 -116.0097905142029 4.2207169829149791 0 4.2207169829149791 16.474247910036109 0 0 0 0 -110.07308254062309 33.585061808500285 0 33.585061808500285 5.7356936429224632 0 0 0 0 -81.350768629708909 7.7507076101972139 0 7.7507076101972139 1.9187451002923765 0 0 0 0 -82.959090500021375 0.58094422733148399 0 0.58094422733148399 -29.674236349918854 0 0 0 0 -109.22628393741797 24.015009051980829 0 24.015009051980829 -10.248517217438263 0 0 0 0 -100.12652942531213 -8.3860108266796125 0 -8.3860108266796125 13.038645661177419 0 0 0 0 -79.012400807287122 3.9923628163296172 0 3.9923628163296172 2.943265383045794 0 0 0 0 -66.878509340314849 5.7389381561839254 0 5.7389381561839254 0.013317136708929837 0 0 0 0 -5.8110629972279639 -0.35535072019913039 0 -0.35535072019913039 5.8183377563848815 0 0 0 0 0.98939872266782913 -3.9380582416221444 0 -3.9380582416221444 -0.14101199695326372 0 0 0 0 -0.049520401935275515 -0.041309562258411425 0 -0.041309562258411425 -0.017857338375749727 0 0 0 0 -63.114942853273533 6.3653379841651532 0 6.3653379841651532 -8.7067552221276419 0 0 0 0 -0.57810114470262164 0.18368534235925349 0 0.18368534235925349 -0.072798808869379894 0 0 0 0 15.003920400340576 1.6141490974055195 0 1.6141490974055195 -13.626043672798193 0 0 0 0 -67.796470699882775 -18.866442291115845 0 -18.866442291115845 -2.5381419655009765 0 0 0 0 -6.2022643851814792 0.079231176523251179 0 0.079231176523251179 12.163786946161437 0 0 0 0 -1.43325100294539 0.30561248647518013 0 0.30561248647518013 -0.028170496833354819 0 0 0 0 13.473274110004468 5.704887178955218 0 5.704887178955218 0.78560624673084689 0 0 0 0 -0.22883845028322725 0.18517439157343762 0 0.18517439157343762 -0.032244410668444856 0 0 0 0 -3.2022010155669705 -1.7832290720184512 0 -1.7832290720184512 -5.6611438093648303 0 0 0 0 -6.4813957012156607 5.2280966103480342 0 5.2280966103480342 -8.4845019272222473 0 0 0 0 -2.9029721734950726 -8.5889523398766912 0 -8.5889523398766912 -0.52983389467812003 0 0 0 0 -37.404142579653126 42.463365900841843 0 42.463365900841843 -32.780245397642837 0 0 0 0 2.5798254886381073 3.7827120762854998 0 3.7827120762854998 -14.662833784632264 0 0 0 0 -20.65198068556856 23.948708466007307 0 23.948708466007307 -24.66917665530751 0 0 0 0 -59.293674591440322 12.292355296541752 0 12.292355296541752 2.2434700478472394 0 0 0 0 -32.438452499773121 2.8327791193347664 0 2.8327791193347664 4.0560614690928141 0 0 0 0 -9.337355903482603 2.5345720830798895 0 2.5345720830798895 -9.3790619025682176 0 0 0 0 -26.930675999715277 13.489227808121431 0 13.489227808121431 -10.72232924583405 0 0 0 0 -5.5397263632439717 7.8061621737591924 0 7.8061621737591924 -7.2637553181629713 0 0 0 0 -10.020645718213927 1.6307207469915284 0 1.6307207469915284 -9.7951927404069465 0 0 0 0 -5.1209374322097574 4.3273154063904684 0 4.3273154063904684 -3.4321063766429116 0 0 0 0 -1.2798609275851049 1.2704261137910233 0 1.2704261137910233 -3.8815719256961536 0 0 0 0 -2.5599316005318542 1.832323064538885 0 1.832323064538885 -3.2539889027572855 0 0 0 0 -1.8178911792056169 2.1825200520631256 0 2.1825200520631256 -11.273539208701198 0 0 0 0 -3.0501268386578886 1.836191176529482 0 1.836191176529482 -1.505101537786139 0 0 0 0 -3.0220205464775063 1.4101926460066636 0 1.4101926460066636 -0.47760561277496372 0 0 0 0 -1.6733284495257976 1.7579200620877273 0 1.7579200620877273 -2.0577401743809034 0 0 0 0 -0.7603033497771321 -2.1868428052377249 0 -2.1868428052377249 0.065110648987726449 0 0 0 0 1.0729113894212787 -0.84268031878805161 0 -0.84268031878805161 1.0306763738676601 0 0 0 0 -3.9632947354857606 -0.55175504565787392 0 -0.55175504565787392 -0.26135230724034386 0 0 0 0 -1.464255160837638 0.31240997604727028 0 0.31240997604727028 -3.9926825627361318 0 0 0 0 -0.090334558182803448 2.0400736075774026 0 2.0400736075774026 -0.0079202524668772947 0 0 0 0 0.78054055391839938 -2.0469483318078403 0 -2.0469483318078403 -0.061913049363198525 0 0 0 0 -0.83626801622326496 0.083671121496566414 0 0.083671121496566414 0.033384927868647676 0 0 0 0 -1.2047027883751795 0.085868270432778893 0 0.085868270432778893 0.05913497644060875 0 0 0 0 -0.95673295581218554 0.1347818851607272 0 0.1347818851607272 0.20746815296369192 0 0 0 0 -2.2590880316347466 -3.0094093067973304 0 -3.0094093067973304 2.7850940453147928 0 0 0 0 -1.0247751371129903 -0.16932696245809353 0 -0.16932696245809353 0.11104320683696296 0 0 0 0 1.0851489443625724 1.0876328735777623 0 1.0876328735777623 0.75893711574493294 0 0 0 0 -0.16159208200705866 0.015807362379398171 0 0.015807362379398171 0.0041403083303121133 0 0 0 0 -0.62001344144664472 1.8018648323080029 0 1.8018648323080029 1.7339640268619751 0 0 0 0 -1.3273552543487313 2.6241579285092413 0 2.6241579285092413 0.84460671700850565 0 0 0 0 -1.0603281922849419 0.78006073869062897 0 0.78006073869062897 0.81104727393608655 0 0 0 0 -0.76824028213013662 -1.3842767650902772 0 -1.3842767650902772 -4.421323722798002 0 0 0 0 0.31143978969521413 -0.61465954272960899 0 -0.61465954272960899 0.19138646373689921 0 0 0 0 -0.81914377224165946 -1.3516159152645706 0 -1.3516159152645706 -0.84699169484321724 0 0 0 0 -0.29227711323619587 -0.29991003400989913 0 -0.29991003400989913 0.51675587035286097 0 0 0 0 0.0097861427057068795 -0.32626759452006449 0 -0.32626759452006449 -0.00063915757537317262 0 0 0 0 -0.19580818951620671 -0.033740432125766162 0 -0.033740432125766162 0.011019631558699941 0 0 0 0 -0.4677029903696166 -0.10028637979845406 0 -0.10028637979845406 0.3122337065809343 0 0 0 0 -1.7204764175367018 -1.308928654923589 0 -1.308928654923589 -0.79538795258956352 0 0 0 0 -5.8821419843297917 -0.53047056285443617 0 -0.53047056285443617 1.8229536111976277 0 0 0 0 1.0580057693114213 0.15975343083708893 0 0.15975343083708893 -1.3557054259296955 0 0 0 0 -1.9122547478642815 -0.34419258167643996 0 -0.34419258167643996 0.16600864636096274 0 0 0 0 -0.89594529789246735 -2.0577576638655959 0 -2.0577576638655959 -0.14984056700699888 0 0 0 0 -0.45873804430559062 0.19449216872699893 0 0.19449216872699893 0.1302687618764721 0 0 0 0 2.1297200924236677 -3.1161123475969497 0 -3.1161123475969497 -0.19610119509506119 0 0 0 0 -0.99113410423706227 -0.80470495329569447 0 -0.80470495329569447 -2.0578314980629866 0 0 0 0 0.04954763352725422 -2.4564465204808381 0 -2.4564465204808381 -2.0749130713864119 0 0 0 0 -3.0690380870219087 -1.5681558535270392 0 -1.5681558535270392 0.55163493718289358 0 0 0 0 -2.893238827587993 -2.8353341013052566 0 -2.8353341013052566 0.57262801723348389 0 0 0 0 -1.064398862185044 -2.3699174071054578 0 -2.3699174071054578 0.29270878783399468 0 0 0 0 -1.9469637451184099 -2.9759754027637904 0 -2.9759754027637904 3.1555243599475702 0 0 0 0 -1.860303082225812 -0.66924518411480705 0 -0.66924518411480705 0.034415882367715978 0 0 0 0 -2.4392660291996435 -0.65255780994443313 0 -0.65255780994443313 0.56936662496991985 0 0 0 0 -2.8156865180117165 -0.052679448212337832 0 -0.052679448212337832 0.23429305830643887 0 0 0 0 -0.42063158294136116 -0.0051403794792754809 0 -0.0051403794792754809 0.027944493340917226 0 0 0 0 -2.4287027134996606 -0.57749410403823709 0 -0.57749410403823709 0.9274765228297106 0 0 0 0 -0.88037465897104994 -1.1402711049400018 0 -1.1402711049400018 -0.41729348878121897 0 0 0 0 -2.5009627590006858 -0.9259721259119349 0 -0.9259721259119349 0.95877389969059523 0 0 0 0 -1.8857153669196123 -0.7871432691060285 0 -0.7871432691060285 -0.22335052167377256 0 0 0 0 -2.5074307142604084 -0.99814671730919713 0 -0.99814671730919713 0.55256540537491605 0 0 0 0 -2.416243554202083 -1.2192378184788311 0 -1.2192378184788311 -0.56797555641434627 0 0 0 0 -2.1080030443563373 -0.58313069821903518 0 -0.58313069821903518 -1.0191725455295426 0 0 0 0 -4.0001161157888419 -0.60364677939736566 0 -0.60364677939736566 -0.48641457467718396 0 0 0 0 -3.8315740435222096 1.1782847117698099 0 1.1782847117698099 -1.7047140847149507 0 0 0 0 -5.9318347925182024 0.86207993492197943 0 0.86207993492197943 -0.7274549738852869 0 0 0 0 -3.7808027830233186 0.34680535985765459 0 0.34680535985765459 -0.99599848464723095 0 0 0 0 -2.8844726838024144 0.43887828061237499 0 0.43887828061237499 -1.4236512458885073 0 0 0 0 -7.0624382873995728 2.4909914397583535 0 2.4909914397583535 -0.9548749151653908 0 0 0 0 -4.5036479424907156 2.9446708646385318 0 2.9446708646385318 -2.0521007017706694 0 0 0 0 -7.5856110348904622 5.1572945557443148 0 5.1572945557443148 -0.062878081614044845 0 0 0 0 -4.1346965950215235 5.2609761328139193 0 5.2609761328139193 -2.8338841151123546 0 0 0 0 -9.0932533501654689 7.1810227155560113 0 7.1810227155560113 -2.3705555954143094 0 0 0 0 -10.788288105875836 5.6589611866131975 0 5.6589611866131975 -2.8679534537278784 0 0 0 0 -9.9351336273448396 3.0875966583457313 0 3.0875966583457313 -1.7676667208459662 0 0 0 0 -8.7010766077728476 2.5707214223081536 0 2.5707214223081536 -1.3146564339285192 0 0 0 0 -7.220758618101172 3.296053394413164 0 3.296053394413164 -1.4550580790959629 0 0 0 0 -8.3957800059715737 2.3666853010107332 0 2.3666853010107332 0.025191287362559933 0 0 0 0 -10.470922373735448 4.5088629354559941 0 4.5088629354559941 -1.5282688826816475 0 0 0 0 -11.321968174694121 3.4225829839332533 0 3.4225829839332533 -0.47776147508788824 0 0 0 0 -9.5929587592345342 3.638725073298815 0 3.638725073298815 -0.68157128883460416 0 0 0 0 -10.132563310249679 3.3245253472626928 0 3.3245253472626928 0.77631339760978335 0 0 0 0 -10.085754312745848 3.7160201141163895 0 3.7160201141163895 -3.1933388027464957 0 0 0 0 -12.830774770962307 3.6342251075533625 0 3.6342251075533625 -0.096187133127092039 0 0 0 0 -8.5316776238687453 -0.68740181059143879 0 -0.68740181059143879 0.18388355499536146 0 0 0 0 -6.6540538207027566 0.84251243816265742 0 0.84251243816265742 -0.59182087133752148 0 0 0 0 -1.2351037967591978 0.67583535255205973 0 0.67583535255205973 -0.27407846895983157 0 0 0 0 -1.854538406672873 -0.076751641701314099 0 -0.076751641701314099 -3.3993235793168282 0 0 0 0 -1.7858465856240997 1.4648138132425643 0 1.4648138132425643 0.76350233276439905 0 0 0 0 -3.9056053916542623 2.0624739101534075 0 2.0624739101534075 0.2473233683442686 0 0 0 0 -2.8712054226161854 0.42620891965336227 0 0.42620891965336227 -1.091699624572243 0 0 0 0 -5.3046722941162443 -0.70055928448383753 0 -0.70055928448383753 -0.27164253434565921 0 0 0 0 -8.0845270128393167 2.1775730937094977 0 2.1775730937094977 -1.0454910868749998 0 0 0 0 -8.297644854544842 2.2593117615248808 0 2.2593117615248808 3.4357210658845361 0 0 0 0 -8.6218737142589816 1.6168318495041376 0 1.6168318495041376 0.015008606238325228 0 0 0 0 -4.0933606185463631 -0.19295447841654578 0 -0.19295447841654578 0.34966768191570252 0 0 0 0 -4.8191662126036334 3.1635554850634016 0 3.1635554850634016 -0.086173607582405554 0 0 0 0 -8.3255907358666263 2.5216565438175138 0 2.5216565438175138 2.7158151792875742 0 0 0 0 -7.203038922198175 0.67427336954438033 0 0.67427336954438033 -2.0145921858717202 0 0 0 0 -7.3442495687359042 1.5747930411265827 0 1.5747930411265827 -0.16431673276468928 0 0 0 0 -8.2925173422281659 -0.6489266619750822 0 -0.6489266619750822 0.073539089940254598 0 0 0 0 -2.8374775593995913 1.0478407297660901 0 1.0478407297660901 0.025885632786187829 0 0 0 0 -5.9859835438965092 1.0071272652795642 0 1.0071272652795642 0.92517398098095782 0 0 0 0 -4.8121854641867685 0.12033206097379434 0 0.12033206097379434 -0.98187431002057224 0 0 0 0 0.7988787244089508 -0.2935154665451396 0 -0.2935154665451396 -10.922428933773062 0 0 0 0 -11.098350653724992 -1.3486007765763475 0 -1.3486007765763475 0.023731971100829696 0 0 0 0 -1.6674296672889177 0.43960412035497143 0 0.43960412035497143 0.16937078056658805 0 0 0 0 -3.4887135908595006 2.1577849716883719 0 2.1577849716883719 0.26809012542520017 0 0 0 0 -3.932293919249787 2.491940323751237 0 2.491940323751237 -0.32741538899821165 0 0 0 0 1.190375235606254 0.32804252506345577 0 0.32804252506345577 -0.33145534423450917 0 0 0 0 2.0375249887947575 16.14123130308576 0 16.14123130308576 -3.7435131156862553 0 0 0 0 -15.84023748459731 5.8861622525384405 0 5.8861622525384405 -0.29338967225089618 0 0 0 0 -13.326556199153856 0.66972724402776862 0 0.66972724402776862 -0.53585173676160025 0 0 0 0 -6.6943937153373554 0.79262178944287598 0 0.79262178944287598 -1.66433405211761 0 0 0 0 -0.89007819388164222 0.00031674075182763772 0 0.00031674075182763772 1.0857812392160215 0 0 0 0 -9.102814030555237 3.4600259534596631 0 3.4600259534596631 -0.016128863312360409 0 0 0 0 -5.6707641094180872 1.3016062417725109 0 1.3016062417725109 0.53578378816993677 0 0 0 0 -5.812066154688182 2.6487309560777206 0 2.6487309560777206 -1.3660290388652925 0 0 0 0 -7.9663593122713792 2.7021928879364907 0 2.7021928879364907 -3.5303702089922808 0 0 0 0 -7.6521954606250802 2.9492154063133569 0 2.9492154063133569 -3.3362180239778354 0 0 0 0 -0.86417581479724781 0.37579619465596537 0 0.37579619465596537 -0.137090263748471 0 0 0 0 -3.0793610174669723 -0.92568398819511977 0 -0.92568398819511977 1.3317482738886586 0 0 0 0 -11.486740291880778 1.5980395713854989 0 1.5980395713854989 2.1608887039265028 0 0 0 0 -9.8220358400540135 3.422503742560167 0 3.422503742560167 -0.64429636190121542 0 0 0 0 -5.9565303941479684 0.79450991247382419 0 0.79450991247382419 1.6160169427403626 0 0 0 0 -9.8207616102899919 1.8210939414135083 0 1.8210939414135083 2.6384073456434578 0 0 0 0 -13.215196685283445 0.92053816749125872 0 0.92053816749125872 0.39308733888810821 0 0 0 0 -4.9142497509747045 5.3490148243861313 0 5.3490148243861313 0.40931388610312069 0 0 0 0 -7.4837933593167776 1.3216701203121524 0 1.3216701203121524 2.1866675682570444 0 0 0 0 -9.2500354870317096 10.807008082377376 0 10.807008082377376 10.392286205179076 0 0 0 0 -0.51267733088388923 2.2718984514490899 0 2.2718984514490899 1.1970101019396395 0 0 0 0 -0.86422755960197328 0.055528813919686115 0 0.055528813919686115 -0.067367276352410244 0 0 0 0 -5.4656599862410076 2.0491716019592729 0 2.0491716019592729 0.1997494069239707 0 0 0 0 -9.6049455938526762 3.3178011694182281 0 3.3178011694182281 2.0772494331973803 0 0 0 0 -5.2478395252401242 4.9250534414198341 0 4.9250534414198341 -0.060023817315368433 0 0 0 0 -7.926919304398325 3.4958652088097324 0 3.4958652088097324 1.9464031556399277 0 0 0 0 -9.4854639426230278 0.77921712745013849 0 0.77921712745013849 8.7239122193223011 0 0 0 0 -5.2508567106197006 3.115951898761864 0 3.115951898761864 1.4742960184434537 0 0 0 0 -1.6613504231172556 -1.2497348184701451 0 -1.2497348184701451 6.0199345582236674 0 0 0 0 4.7023276735608306 4.6737547737901437 0 4.6737547737901437 0.70153842945288147 0 0 0 0 -6.4024481233227561 12.610425083311913 0 12.610425083311913 7.6939835639901304 0 0 0 0 -7.4105045257856546 -1.858693642862093 0 -1.858693642862093 11.362315157693274 0 0 0 0 -10.046439044260648 -4.6021210695376418 0 -4.6021210695376418 0.10742713932651693 0 0 0 0 -14.900306584966529 -1.1711564438339792 0 -1.1711564438339792 1.3922655798695374 0 0 0 0 -14.447234411341924 0.75090153192377329 0 0.75090153192377329 1.2615256201355223 0 0 0 0 19.532533275803871 9.020091985753993 0 9.020091985753993 2.6345868894576583 0 0 0 0 -6.2304282690543147 0.48497819546336629 0 0.48497819546336629 3.3297299866814569 0 0 0 0 -16.756892864072142 -1.0758365068556941 0 -1.0758365068556941 1.2691673348314225 0 0 0 0 -3.2056935851035515 -0.40803986984314022 0 -0.40803986984314022 0.038819229114849918 0 0 0 0 -8.1132831237082428 -1.7672805135197223 0 -1.7672805135197223 0.10967788618671648 0 0 0 0 -17.002281139279148 -1.4410796877914436 0 -1.4410796877914436 1.2411754013021437 0 0 0 0 -2.8564094992879099 0.44213386402535804 0 0.44213386402535804 0.40210601155835857 0 0 0 0 -15.534772201412125 -0.28056300163302694 0 -0.28056300163302694 1.5923640804570596 0 0 0 0 -16.142615555181692 -1.6372154859307102 0 -1.6372154859307102 -0.019511535414949321 0 0 0 0 -14.012452608094463 0.10445122803309914 0 0.10445122803309914 -0.022800991310987229 0 0 0 0 -14.665454943802615 -0.63004141596115915 0 -0.63004141596115915 -0.37704718016772176 0 0 0 0 -13.747685791069671 -0.58536540785729585 0 -0.58536540785729585 0.86953571099456894 0 0 0 0 -2.8482831658363916 -1.5431554945674328 0 -1.5431554945674328 0.33853101300124466 0 0 0 0 -14.944646964097046 0.15554293232651162 0 0.15554293232651162 0.43624429362722594 0 0 0 0 -3.3034025731107874 0.061974057325228316 0 0.061974057325228316 0.64302895227789536 0 0 0 0 -2.7559741399155371 -0.040265435626090529 0 -0.040265435626090529 0.33053974750282578 0 0 0 0 -5.9368409027920279 -0.70855879121063481 0 -0.70855879121063481 -0.86962775083202359 0 0 0 0 -4.5607118414868566 0.63487014506728112 0 0.63487014506728112 0.48734195394824575 0 0 0 0 -4.120948663489628 -0.1565251636073155 0 -0.1565251636073155 0.0096088652354889836 0 0 0 0 -10.13860464257678 0.19900956283072091 0 0.19900956283072091 -0.25784359057365691 0 0 0 0 -7.0321481259793472 1.2306066022889155 0 1.2306066022889155 -0.42750260528737272 0 0 0 0 -7.7673937412946543 -1.3519683661090767 0 -1.3519683661090767 -0.50041343682147499 0 0 0 0 -8.131939235636505 0.5938224506302836 0 0.5938224506302836 1.6597662608207104 0 0 0 0 -1.6658038255442342 -0.39942935327622564 0 -0.39942935327622564 0.0024495604013239358 0 0 0 0 -4.3689463264690858 1.9487782425882187 0 1.9487782425882187 0.17280315377195166 0 0 0 0 -2.8638564605607826 3.2313697942262252 0 3.2313697942262252 -1.1495147011460176 0 0 0 0 -3.4900981591115432 0.69202609370308998 0 0.69202609370308998 -0.2953118977154725 0 0 0 0 -3.6824362014721359 1.5529092655412455 0 1.5529092655412455 0.3532041224796918 0 0 0 0 -2.7773489597675507 -0.60132509427933201 0 -0.60132509427933201 -0.24189205033212602 0 0 0 0 -6.4151801887999298 1.1559055071860733 0 1.1559055071860733 -0.096669829040668009 0 0 0 0 -3.8983525363000808 -0.28554341057633792 0 -0.28554341057633792 0.16008448732463876 0 0 0 0 -4.5428770125363371 -0.34695855270626907 0 -0.34695855270626907 0.41336796040832269 0 0 0 0 -4.0925570541849083 0.47505642850018148 0 0.47505642850018148 -0.0042172456478510867 0 0 0 0 -3.9343985748766883 -0.71037826368083934 0 -0.71037826368083934 -0.26278660641856488 0 0 0 0 -3.8407025900120075 0.18812744155733618 0 0.18812744155733618 -0.39043497871930377 0 0 0 0 -3.0189657046381448 -0.30599221458509618 0 -0.30599221458509618 -0.88065470223920106 0 0 0 0 -7.6144134307432978 -0.4557692477535511 0 -0.4557692477535511 -3.5072453272304358 0 0 0 0 -3.6114392322963305 -0.40294470613108846 0 -0.40294470613108846 -0.12675238768179797 0 0 0 0 -6.218157426344078 -1.2349113543072576 0 -1.2349113543072576 0.14170935087668113 0 0 0 0 -4.6561364703516119 -1.1741784507133843 0 -1.1741784507133843 -0.45726281365216437 0 0 0 0 -3.9163844725957091 0.14589295692786308 0 0.14589295692786308 0.87249312937577628 0 0 0 0 -4.6534283722648979 -0.45964502186961909 0 -0.45964502186961909 0.7068194127220977 0 0 0 0 -4.815515741614945 -0.21251105685905713 0 -0.21251105685905713 0.45190288575372506 0 0 0 0 -4.7140503040254771 -0.90058113528789363 0 -0.90058113528789363 0.32215697992705827 0 0 0 0 -4.913245566470323 -1.0330644751119848 0 -1.0330644751119848 1.0094725374856353 0 0 0 0 -4.892093722761274 -0.34659080289475241 0 -0.34659080289475241 0.99082531574049426 0 0 0 0 -4.4858919573480307 -0.66444980012101951 0 -0.66444980012101951 0.95359543896529431 0 0 0 0 -4.8283303786338365 -0.45301388219377259 0 -0.45301388219377259 1.1553004936940852 0 0 0 0 -13.900979066062064 -0.0052233709739084588 0 -0.0052233709739084588 -0.99378070218563153 0 0 0 0 -5.2174795366263425 -0.88594831251316464 0 -0.88594831251316464 -0.59961147241983781 0 0 0 0 -4.991177433204486 -1.5691835833787717 0 -1.5691835833787717 -0.79176555949263827 0 0 0 0 -6.5939239493065784 1.0217727479195364 0 1.0217727479195364 -0.060463870652278651 0 0 0 0 -6.8943532104497081 -2.1674292118632508 0 -2.1674292118632508 -0.34385411456241854 0 0 0 0 -3.7334975943849713 -0.22843113872977483 0 -0.22843113872977483 0.30528512385099305 0 0 0 0 -8.3428338103576607 -1.323165651654449 0 -1.323165651654449 -0.47196645761835043 0 0 0 0 -5.486706855300608 -0.23536032069609014 0 -0.23536032069609014 0.91669884290584402 0 0 0 0 -4.1874454161879839 -0.22131367394013068 0 -0.22131367394013068 0.6515357721905275 0 0 0 0 -9.8151200791762676 -1.6760759362423414 0 -1.6760759362423414 -0.36056707354327955 0 0 0 0 -3.5037973543869541 -0.95186891073264857 0 -0.95186891073264857 -0.10657103927475431 0 0 0 0 -5.7629403215673847 -0.53726096623350905 0 -0.53726096623350905 0.38639954382532871 0 0 0 0 -0.87583297731998755 -0.588676593724764 0 -0.588676593724764 0.43878636413559136 0 0 0 0 -6.7177370312352878 -4.2477141398453977 0 -4.2477141398453977 3.0028834989819941 0 0 0 0 -8.7367805120557023 0.84462930617388565 0 0.84462930617388565 0.76896110044401667 0 0 0 0 -7.8344015987509152 -1.8759566149943971 0 -1.8759566149943971 3.0911592369839127 0 0 0 0 -6.8362180871254168 -2.4702441524567575 0 -2.4702441524567575 0.35816420933451809 0 0 0 0 -1.2548633108443512 0.087050553296665001 0 0.087050553296665001 0.061088748186636899 0 0 0 0 -3.001701655342746 -1.2822544583145055 0 -1.2822544583145055 0.69890668120164223 0 0 0 0 -4.9641306707853801 0.056020542790975014 0 0.056020542790975014 0.61728130238384438 0 0 0 0 -4.626344625134152 -0.45049237331909353 0 -0.45049237331909353 -0.17604584305126991 0 0 0 0 -3.8899771524414746 0.3959781240748157 0 0.3959781240748157 0.64809571214345851 0 0 0 0 -5.138854636016049 0.72924341237879275 0 0.72924341237879275 -0.57044693377042677 0 0 0 0 -5.1076529809533895 -2.1894687660627596 0 -2.1894687660627596 1.9118951610316799 0 0 0 0 -2.6732485054703794 -1.4663095144914742 0 -1.4663095144914742 0.53226934924381553 0 0 0 0 -5.1045616954334037 -3.7502755349348718 0 -3.7502755349348718 6.4885766673237413 0 0 0 0 -11.052043037730385 -2.2628947558797528 0 -2.2628947558797528 6.4425847670729581 0 0 0 0 -11.279809648738507 -6.9129394520716794 0 -6.9129394520716794 4.9138211462582149 0 0 0 0 2.1284056878848787 -6.2577683409708698 0 -6.2577683409708698 -0.29490507129071375 0 0 0 0 -0.99279409213249892 -12.466143452435972 0 -12.466143452435972 7.5170591623743803 0 0 0 0 -1.0204709891593211 -4.2159537116854153 0 -4.2159537116854153 2.9158950890596316 0 0 0 0 -28.350146206027603 -4.722786120847104 0 -4.722786120847104 11.279730609842659 0 0 0 0 -32.267499385116025 1.8105964727404853 0 1.8105964727404853 10.830012664900607 0 0 0 0 -34.981120948084936 -1.7520829562498648 0 -1.7520829562498648 13.52654440414085 0 0 0 0 -22.765808746404673 9.8648449459781204 0 9.8648449459781204 4.9333137719340812 0 0 0 0 -16.639083016371842 -3.5493868283048187 0 -3.5493868283048187 10.130133851807386 0 0 0 0 -36.143855222272578 1.4477107137939811 0 1.4477107137939811 3.2758335641101439 0 0 0 0 -34.250107761349682 0.95479297276938269 0 0.95479297276938269 3.4016929832198457 0 0 0 0 -10.137863446580377 8.7421751818188813 0 8.7421751818188813 2.871261812645709 0 0 0 0 -28.445795252975586 1.780410733033591 0 1.780410733033591 -2.1273240497301913 0 0 0 0 -35.437235853433776 -3.1632850244673705 0 -3.1632850244673705 -0.52332011362545927 0 0 0 0 -3.4529778040741803 4.1755966386917862 0 4.1755966386917862 6.5512551709966829 0 0 0 0 -0.068081369914882117 -0.021019187699019781 0 -0.021019187699019781 -0.07610779119847777 0 0 0 0 -50.336052270607979 -11.822095530921104 0 -11.822095530921104 -1.1328601843877095 0 0 0 0 -29.117838177713566 -8.185264287144264 0 -8.185264287144264 -4.0495836907341527 0 0 0 0 -26.195611398810797 -4.8732611276980151 0 -4.8732611276980151 -0.79830882824626315 0 0 0 0 -1.4850631345089678 -0.31268766657652058 0 -0.31268766657652058 -0.11214501375011476 0 0 0 0 -26.753847182930258 -7.2814015750797694 0 -7.2814015750797694 -0.057568688514038513 0 0 0 0 -18.213171651332232 -0.87762305705837207 0 -0.87762305705837207 -3.2144831751047604 0 0 0 0 -22.146256653577439 -3.0231157156654263 0 -3.0231157156654263 -1.2244941847884547 0 0 0 0 -26.882928197120236 -4.6994504826380989 0 -4.6994504826380989 -0.29123225059674951 0 0 0 0 -20.672597733688235 -11.095426334274862 0 -11.095426334274862 -4.2341687232328695 0 0 0 0 8.2639692796560666 5.0183798749877369 0 5.0183798749877369 -3.7285287046057647 0 0 0 0 -10.155053043850994 7.9150515120698408 0 7.9150515120698408 3.7023902743856199 0 0 0 0 11.219745444468572 14.158551646633441 0 14.158551646633441 2.4902212441670315 0 0 0 0 -37.543402524405792 7.872948337161489 0 7.872948337161489 -2.543362053061287 0 0 0 0 -34.686777443374012 15.103955957535305 0 15.103955957535305 -6.4358905156175297 0 0 0 0 -26.806977638627927 1.6827877317695998 0 1.6827877317695998 0.48456504754926755 0 0 0 0 -27.1933820613649 11.071580999831752 0 11.071580999831752 -6.0927073489992942 0 0 0 0 -31.081648052371747 1.8183137077824938 0 1.8183137077824938 4.4759115913925029 0 0 0 0 -10.415022679157119 29.567372423744899 0 29.567372423744899 6.404354503726708 0 0 0 0 -16.244601050225356 2.22321487893376 0 2.22321487893376 -0.68150942617302235 0 0 0 0 -26.517686472799141 4.5332186131547729 0 4.5332186131547729 1.49419948005675 0 0 0 0 -26.808500672268565 3.7270345850630235 0 3.7270345850630235 12.008832508739999 0 0 0 0 -15.14246572074444 15.477931159403511 0 15.477931159403511 6.0611043297322738 0 0 0 0 -24.019061917652834 0.250667376210572 0 0.250667376210572 4.1422952192895082 0 0 0 0 -19.292882985711003 11.063446803500824 0 11.063446803500824 7.8303333551286869 0 0 0 0 -10.251673844257073 9.2301432950565765 0 9.2301432950565765 2.1353915480781538 0 0 0 0 -54.098557816435459 0.48993090546625773 0 0.48993090546625773 -6.9066920068574262 0 0 0 0 -0.20288559847178078 -0.23295495458982529 0 -0.23295495458982529 0.35579930113161395 0 0 0 0 -24.98774606551433 -0.89916449401632548 0 -0.89916449401632548 4.008363092501952 0 0 0 0 -22.434412779359263 0.91254194345168571 0 0.91254194345168571 4.6927774747370279 0 0 0 0 -16.933665543892857 0.24786362064344303 0 0.24786362064344303 3.8939247296832917 0 0 0 0 -32.424591455428526 0.59919194780979979 0 0.59919194780979979 -5.9784665740662604 0 0 0 0 -40.841402598103741 7.5140411296341085 0 7.5140411296341085 8.056812752191945 0 0 0 0 0.31014154679413863 0.074711559394799565 0 0.074711559394799565 2.2126665252998592 0 0 0 0 -29.118319121920649 9.2278838032238468 0 9.2278838032238468 3.9895404844137374 0 0 0 0 -37.147052232659689 8.9095255377834022 0 8.9095255377834022 3.45072464307475 0 0 0 0 -36.516457189201901 5.0234527447885284 0 5.0234527447885284 8.9748829791777212 0 0 0 0 -29.805890720701427 1.6016150105929796 0 1.6016150105929796 4.0264017365493601 0 0 0 0 -32.054692135213372 6.1147995773184363 0 6.1147995773184363 -1.9304370194404328 0 0 0 0 -60.857336953075901 15.000195015589993 0 15.000195015589993 2.032723205497021 0 0 0 0 -0.24963684347010862 -0.29315985891545893 0 -0.29315985891545893 0.28932767681195071 0 0 0 0 -54.424942225402447 5.1562169943131551 0 5.1562169943131551 0.52741511707391631 0 0 0 0 -0.21083482837546441 -0.048302459792381569 0 -0.048302459792381569 1.4446701361772729 0 0 0 0 -33.380266558263429 2.1419130545418668 0 2.1419130545418668 1.8539228564473547 0 0 0 0 -32.999540852539212 1.2711548691040946 0 1.2711548691040946 0.78509740264649963 0 0 0 0 -31.050100544052839 1.6987528288695444 0 1.6987528288695444 0.11712120245329061 0 0 0 0 -32.059656279161572 1.0294339231967911 0 1.0294339231967911 0.003363568907559511 0 0 0 0 -32.315194826307561 2.0472233056583207 0 2.0472233056583207 0.88379297874467966 0 0 0 0 -33.410238231735093 2.755442657297742 0 2.755442657297742 1.5722044317918744 0 0 0 0 -32.870538133392984 3.2867075241941421 0 3.2867075241941421 1.4027927857634097 0 0 0 0 -33.16740764388669 3.205131048309056 0 3.205131048309056 3.9100262355994175 0 0 0 0 -26.048268353068124 6.8034726394234468 0 6.8034726394234468 2.2588120274137573 0 0 0 0 -53.066876485759167 1.3950944525361599 0 1.3950944525361599 7.6901059537663343 0 0 0 0 -40.372383934878599 28.941442682251456 0 28.941442682251456 2.5239345812921101 0 0 0 0 -63.224203099898659 5.8803629410402323 0 5.8803629410402323 -6.5155249193174711 0 0 0 0 -14.06385068668169 -6.3466333905189938 0 -6.3466333905189938 -0.68063905567467486 0 0 0 0 -0.085040948932028293 -0.047976850627279077 0 -0.047976850627279077 0.52647748487007784 0 0 0 0 -60.916937080577554 -12.338477237464886 0 -12.338477237464886 -19.015777981418694 0 0 0 0 -58.04636546718848 -7.1889568687542429 0 -7.1889568687542429 -30.859962174817781 0 0 0 0 -81.374590349872278 -28.664758036710928 0 -28.664758036710928 30.294387903040445 0 0 0 0 -33.665049821836874 -16.71580546733307 0 -16.71580546733307 10.466565656793453 0 0 0 0 -63.372274820696475 -14.852481295475521 0 -14.852481295475521 14.730938922331589 0 0 0 0 -39.774736159150052 -21.673668236967472 0 -21.673668236967472 5.5531485564047411 0 0 0 0 -64.196145123089082 -67.983567273665798 0 -67.983567273665798 7.6075687513494472 0 0 0 0 -42.617221291890019 14.564909089498101 0 14.564909089498101 1.27525738401485 0 0 0 0 -48.847486832488357 0.66888572002204683 0 0.66888572002204683 9.5586893505260448 0 0 0 0 -53.566095251377192 3.2015875558164266 0 3.2015875558164266 11.278099465938386 0 0 0 0 -44.790113462815498 14.592349192619562 0 14.592349192619562 1.7149102420958968 0 0 0 0 -35.411024586202984 5.1604839540188223 0 5.1604839540188223 4.2717415666355549 0 0 0 0 -34.551191795108934 1.874169748957252 0 1.874169748957252 6.7670575409119493 0 0 0 0 -37.519027136640943 9.2116422426544347 0 9.2116422426544347 -0.55428752197289732 0 0 0 0 -40.802337253158839 4.4181746526952299 0 4.4181746526952299 0.71332764521402936 0 0 0 0 -41.556157058885219 9.5468138866430561 0 9.5468138866430561 4.8712203128123903 0 0 0 0 3.8735297399789488 4.7324080769709909 0 4.7324080769709909 1.8257529857371537 0 0 0 0 0.092581145727788972 -0.087843948704069419 0 -0.087843948704069419 -0.25001452399126323 0 0 0 0 -57.719834900108253 11.104447187855699 0 11.104447187855699 4.5354757918283406 0 0 0 0 -20.808227517911291 5.6161828468526238 0 5.6161828468526238 -6.0854181965381997 0 0 0 0 -18.388964682681035 9.5820071103206459 0 9.5820071103206459 -8.4704908654709357 0 0 0 0 -0.83362591165796429 0.0083155626455493348 0 0.0083155626455493348 -0.71214272472893225 0 0 0 0 -43.249080028555909 12.560891535063911 0 12.560891535063911 2.7418493585911179 0 0 0 0 -28.326434242295363 4.7008763268290892 0 4.7008763268290892 0.51387929460083015 0 0 0 0 -35.31454648750514 9.366118830684897 0 9.366118830684897 -1.1346435110801565 0 0 0 0 -24.642539420427056 11.843358287836224 0 11.843358287836224 -8.6396173038966708 0 0 0 0 -42.45738817732672 17.473756864443274 0 17.473756864443274 -3.8518723364220193 0 0 0 0 -35.547606497890229 12.554293748501792 0 12.554293748501792 -0.41763417830112814 0 0 0 0 -25.7681115268133 6.082527843331917 0 6.082527843331917 -2.3656864738872656 0 0 0 0 -22.737400696543773 6.7232481094596892 0 6.7232481094596892 -9.364405108939593 0 0 0 0 -27.372309643522385 15.334900618967414 0 15.334900618967414 -14.289724847486355 0 0 0 0 -25.741256602678732 9.5350705027467022 0 9.5350705027467022 -6.6143637563246784 0 0 0 0 -4.7668212018134 1.0591712361806458 0 1.0591712361806458 -0.7828427964839193 0 0 0 0 -22.619589953663308 11.6907704325493 0 11.6907704325493 -5.2973620592755992 0 0 0 0 -4.3533464597276179 1.3088275681329549 0 1.3088275681329549 0.080870657576355143 0 0 0 0 -3.1209763486426496 0.25386200709049334 0 0.25386200709049334 0.78106978066854404 0 0 0 0 -5.5214809864692143 0.38962543298979302 0 0.38962543298979302 1.6306797671069546 0 0 0 0 -8.2094462277200364 -1.9380010221645385 0 -1.9380010221645385 16.172285537081848 0 0 0 0 -1.9895854668156581 0.17593371458282547 0 0.17593371458282547 0.75065457815748204 0 0 0 0 -1.8275248404043412 1.8119387004078042 0 1.8119387004078042 1.1370938437126341 0 0 0 0 1.7064777910436533 21.336745232514147 0 21.336745232514147 12.517921874611488 0 0 0 0 -4.2084388119651095 -1.2963041778338447 0 -1.2963041778338447 -0.36402118865303323 0 0 0 0 17.031969830746675 -5.3317562447614364 0 -5.3317562447614364 -7.006123885307904 0 0 0 0 -178.80886190648744 83.121205948916042 0 83.121205948916042 -38.839713689912287 0 0 0 0 -1.457907192788376 -0.58517799446683938 0 -0.58517799446683938 -0.28826859325975418 0 0 0 0 -104.58717700853231 65.029204853079207 0 65.029204853079207 -39.155217910774361 0 0 0 0 -73.572959589424499 -58.010711923039878 0 -58.010711923039878 13.69322715980627 0 0 0 0 -267.45614569370082 -18.795465862245294 0 -18.795465862245294 12.138189386575959 0 0 0 0 -248.95786231334205 -87.083392141685636 0 -87.083392141685636 -31.223299400566816 0 0 0 0 -154.24107501960862 -39.959607484844028 0 -39.959607484844028 -25.118267318403014 0 0 0 0 -232.24782711330045 -4.8741186070518552 0 -4.8741186070518552 1.3104472530255862 0 0 0 0 -157.15835312848549 -53.342595411576788 0 -53.342595411576788 -18.546134825445165 0 0 0 0 -100.63361466095012 -59.450571534668654 0 -59.450571534668654 -27.343963718086314 0 0 0 0 -91.602110195039131 -46.27839692046868 0 -46.27839692046868 -10.885820942942019 0 0 0 0 -126.39291595807663 -21.731242806545424 0 -21.731242806545424 7.5784746727975971 0 0 0 0 -158.86000796420194 -1.829313361698496 0 -1.829313361698496 -4.0401755063664666 0 0 0 0 -107.05845858865302 -13.248019096727882 0 -13.248019096727882 10.382424760272215 0 0 0 0 -105.67482879312081 -45.79909553953761 0 -45.79909553953761 9.5447995080942292 0 0 0 0 -85.260880983536481 -40.702798869530795 0 -40.702798869530795 8.6217009629966697 0 0 0 0 -88.134412473740667 -26.721540938996554 0 -26.721540938996554 5.135295687005037 0 0 0 0 -76.908170449953104 -40.252687116471634 0 -40.252687116471634 8.0564760706207039 0 0 0 0 -74.585003602727738 -14.912181048896343 0 -14.912181048896343 9.1283990828495689 0 0 0 0 -28.851841861289813 22.863702522730648 0 22.863702522730648 -18.982748269092951 0 0 0 0 -89.260451787064085 -2.7694573471996193 0 -2.7694573471996193 11.302022459155936 0 0 0 0 -71.16102574326942 33.204092873046903 0 33.204092873046903 -6.144824938192869 0 0 0 0 -1.2889128253459603 -1.1167638164210949 0 -1.1167638164210949 -0.6392347910415368 0 0 0 0 4.8547955517319679 -12.66980600757304 0 -12.66980600757304 -2.2833587284129067 0 0 0 0 -0.83413277796353213 -6.9558205048617125 0 -6.9558205048617125 15.930326140710903 0 0 0 0 7.0655058392071624 -1.8796350735060834 0 -1.8796350735060834 -8.8033661146876625 0 0 0 0 -55.207740982681571 5.4028834829876473 0 5.4028834829876473 8.6900401605432194 0 0 0 0 -85.003100870508206 -44.657328947568161 0 -44.657328947568161 12.228678305309302 0 0 0 0 -107.19143123823596 -30.165736569012495 0 -30.165736569012495 14.938224995852011 0 0 0 0 -80.812137436417288 -27.924739907527169 0 -27.924739907527169 14.242605034785356 0 0 0 0 -43.196156856123707 -19.350904054057025 0 -19.350904054057025 -1.9397945673810852 0 0 0 0 -35.584817101487715 -7.5068474219316386 0 -7.5068474219316386 -4.456825354858438 0 0 0 0 6.3772723637348463 17.250657741899921 0 17.250657741899921 -0.607965552679957 0 0 0 0 -19.144304424749862 -21.419278523446337 0 -21.419278523446337 -15.909188852887041 0 0 0 0 -6.2710710066894535 -20.880555709615123 0 -20.880555709615123 -41.757223321371782 0 0 0 0 -45.289819195069867 -16.391745195729015 0 -16.391745195729015 0.67872536217896595 0 0 0 0 -61.878078788377024 -40.985529013818763 0 -40.985529013818763 -12.186957763755345 0 0 0 0 10.507949204267788 -3.736675031782255 0 -3.736675031782255 -14.257169079536112 0 0 0 0 0.017577872045571041 -0.55152410450474854 0 -0.55152410450474854 -0.16179162534689606 0 0 0 0 11.583344878040407 5.0263937584385872 0 5.0263937584385872 0.81869833741006914 0 0 0 0 -0.17103774335467392 -0.85292379250594408 0 -0.85292379250594408 -1.1664477201643231 0 0 0 0 0.26627907590227551 -1.634120794432306 0 -1.634120794432306 -0.78108443570215513 0 0 0 0 -0.28183248087589163 -1.7521041247252356 0 -1.7521041247252356 -0.8552382606748381 0 0 0 0 -0.26672132662315562 -1.6411433673403906 0 -1.6411433673403906 -0.24387370132473052 0 0 0 0 6.5832543844726388 -11.513321358571011 0 -11.513321358571011 3.1499376243894375 0 0 0 0 -0.054168002745367261 -0.088140362408829276 0 -0.088140362408829276 0.22644854437724499 0 0 0 0 -3.3045125155240385 -2.7146627906427767 0 -2.7146627906427767 3.2333389216227886 0 0 0 0 30.722788951971779 -2.4480162810821198 0 -2.4480162810821198 3.6183484077286607 0 0 0 0 -4.3683009166493356 -5.4698182866130622 0 -5.4698182866130622 0.015051024219437048 0 0 0 0 -0.65665480434836354 -2.4568628640132602 0 -2.4568628640132602 10.444040626764682 0 0 0 0 -0.34687469231197809 -0.3217306039490424 0 -0.3217306039490424 -0.25640005955237366 0 0 0 0 2.3635842094245163 -2.3905922913726823 0 -2.3905922913726823 4.9201388769302952 0 0 0 0 1.1995552563239471 1.4385391277267416 0 1.4385391277267416 -0.82476520890788407 0 0 0 0 -2.1084233090514317 5.3246732647521995 0 5.3246732647521995 1.6930362989413688 0 0 0 0 -0.53414320825686445 3.1158280192870178 0 3.1158280192870178 -3.915243392883049 0 0 0 0 -4.6409719862385828 2.4311975266129622 0 2.4311975266129622 -1.6058640614836008 0 0 0 0 -3.1333778884654748 2.620216492484392 0 2.620216492484392 5.6280179758997022 0 0 0 0 -1.5644901357263734 1.4562043979680057 0 1.4562043979680057 -3.7990001802900739 0 0 0 0 0.049397326482147008 0.044472732448127772 0 0.044472732448127772 0.048496979809258919 0 0 0 0 35.474687459757206 -24.390922444943349 0 -24.390922444943349 -0.46747373324129171 0 0 0 0 8.0252286653012561 -29.086117900358481 0 -29.086117900358481 -35.823600002931599 0 0 0 0 -99.036044287908226 -6.3741506693253669 0 -6.3741506693253669 32.505442077923583 0 0 0 0 31.145269756254493 -0.49651369221008679 0 -0.49651369221008679 -7.9630796508530466 0 0 0 0 -53.061839191099352 0.45530943448599714 0 0.45530943448599714 7.5038972570654749 0 0 0 0 -2.6281516243276695 -5.9271927284342709 0 -5.9271927284342709 -1.0297522431974129 0 0 0 0 41.821791938840761 -19.574991384410225 0 -19.574991384410225 0.31434352273606692 0 0 0 0 -1.8516040479316871 -0.40594370062473217 0 -0.40594370062473217 -9.328768477906408 0 0 0 0 30.281436572236998 -14.828086771746982 0 -14.828086771746982 -13.552345181461391 0 0 0 0 28.260745041668997 -18.389841108343447 0 -18.389841108343447 9.9344009671306708 0 0 0 0 -1.5603313447792289 -10.595460133786103 0 -10.595460133786103 -19.7123451973128 0 0 0 0 -1.726220620519598 -13.979946262046411 0 -13.979946262046411 1.5207671653150072 0 0 0 0 -13.195857026803424 -7.1724227525131852 0 -7.1724227525131852 -9.2655625378371269 0 0 0 0 -33.321445829853474 -14.851461496398485 0 -14.851461496398485 -11.319054493551391 0 0 0 0 -60.249807888609212 -10.79338299305951 0 -10.79338299305951 -10.284365313239647 0 0 0 0 -33.248242144014512 -15.637089289073089 0 -15.637089289073089 -17.257854718714185 0 0 0 0 -59.841613201540895 -22.391898029588702 0 -22.391898029588702 -11.576491039227221 0 0 0 0 -54.205488895659073 -25.56760344712994 0 -25.56760344712994 -12.313286608986402 0 0 0 0 -13.942167636600061 -5.0068798774680516 0 -5.0068798774680516 -14.546146340424553 0 0 0 0 -10.551846667309292 -15.47157191452655 0 -15.47157191452655 -18.759946391358312 0 0 0 0 2.4844262691731274 -2.8962204585949198 0 -2.8962204585949198 -22.615928077651052 0 0 0 0 12.437772897582363 -5.5043740404839738 0 -5.5043740404839738 -26.78761990209847 0 0 0 0 -24.141669912573889 -34.936839414678566 0 -34.936839414678566 -34.777269114955004 0 0 0 0 2.2663949644038439 11.689525902290562 0 11.689525902290562 -0.35209800067937991 0 0 0 0 -4.9487182550219586 4.1840333639556171 0 4.1840333639556171 16.335560926185586 0 0 0 0 -127.64830596217507 -61.710864239851823 0 -61.710864239851823 14.866934103033259 0 0 0 0 -96.31330566241013 -43.249403589041876 0 -43.249403589041876 12.383324633354277 0 0 0 0 -130.37360100278602 6.5847357695298427 0 6.5847357695298427 10.138453975015778 0 0 0 0 -60.535148140188539 -36.654577482935906 0 -36.654577482935906 36.349030812455339 0 0 0 0 -9.3540291318704476 -47.245121104969698 0 -47.245121104969698 -34.249150186849377 0 0 0 0 -0.58974767593369393 -0.40007055751071441 0 -0.40007055751071441 -0.28356732060203149 0 0 0 0 -307.86517607136921 -129.25598010797188 0 -129.25598010797188 13.569139457085484 0 0 0 0 -93.775321188179078 -82.395649922923695 0 -82.395649922923695 -17.825228944096693 0 0 0 0 -82.351938433565465 -43.425222805678594 0 -43.425222805678594 -63.766918969488756 0 0 0 0 -59.957598197135667 -11.322980368376562 0 -11.322980368376562 -38.197484091682824 0 0 0 0 -89.161316461555543 -0.32675102690132007 0 -0.32675102690132007 -42.333871707529255 0 0 0 0 -0.1639453806887925 -0.099903597704440017 0 -0.099903597704440017 0.077896677805674053 0 0 0 0 -147.06797290475424 -10.200441842999837 0 -10.200441842999837 19.844792539647017 0 0 0 0 -23.072774569433022 4.9032058186668337 0 4.9032058186668337 -15.729817300971021 0 0 0 0 -22.204269036206824 -30.586653481218967 0 -30.586653481218967 -26.834568333357822 0 0 0 0 -112.34922552515854 -69.786019788551769 0 -69.786019788551769 -13.892265688674698 0 0 0 0 -59.901261129125487 -22.281823868972083 0 -22.281823868972083 -6.9901516917216213 0 0 0 0 -84.486404451603448 -35.031243631641786 0 -35.031243631641786 -12.862792423222018 0 0 0 0 -114.70319308580656 13.199777323794599 0 13.199777323794599 4.3027527927709173 0 0 0 0 -76.094173578858317 -15.577110738641721 0 -15.577110738641721 -3.3150258355771598 0 0 0 0 -74.285023382064537 12.908153760889604 0 12.908153760889604 -15.307280068796445 0 0 0 0 -46.813082502572797 -2.7234140414738022 0 -2.7234140414738022 -11.790819449315876 0 0 0 0 -48.3712605940309 -0.11739879272025178 0 -0.11739879272025178 -5.3329007839905103 0 0 0 0 -49.661769377624296 -4.9105147557467603 0 -4.9105147557467603 -5.9942328410550374 0 0 0 0 -15.634914284575643 -21.00906634737791 0 -21.00906634737791 -9.1840884166078638 0 0 0 0 -35.857423353540071 -17.845390034453402 0 -17.845390034453402 -2.6266037556613213 0 0 0 0 -36.014223897240299 -14.748626028888737 0 -14.748626028888737 -13.552875746316957 0 0 0 0 -59.872425123904577 -17.256924767590178 0 -17.256924767590178 -3.4039401269155292 0 0 0 0 -46.406254392994015 -18.704054693017866 0 -18.704054693017866 -1.0786424764447986 0 0 0 0 -35.707274211366894 -11.199104966902439 0 -11.199104966902439 -4.1594404883707909 0 0 0 0 -24.051643666040036 -13.155393663362162 0 -13.155393663362162 0.53062739098629663 0 0 0 0 -41.72935321793193 -12.64458096527764 0 -12.64458096527764 2.7722059234348535 0 0 0 0 -25.528504190802778 -15.981766009683525 0 -15.981766009683525 -4.4484227592984666 0 0 0 0 -25.465885249657731 -13.01532824178534 0 -13.01532824178534 1.0862928464066925 0 0 0 0 -12.250571031407162 -15.092340175273705 0 -15.092340175273705 -3.2403036208436049 0 0 0 0 -26.001025810411193 -14.192191676879453 0 -14.192191676879453 0.9815321384197091 0 0 0 0 -54.993590663163559 1.9087295471118892 0 1.9087295471118892 2.7510029329249619 0 0 0 0 -50.610599044866831 -4.7169405347686393 0 -4.7169405347686393 1.5235503422456986 0 0 0 0 -40.035803005048365 -4.0609327992043234 0 -4.0609327992043234 -0.46448923218287064 0 0 0 0 -35.989994209885481 -6.8553368881578081 0 -6.8553368881578081 2.4273528736997605 0 0 0 0 -37.490785665831936 -7.8064926706669553 0 -7.8064926706669553 2.5621775821170445 0 0 0 0 -43.301899721238442 6.6889032584945483 0 6.6889032584945483 -1.4533400516625932 0 0 0 0 -26.997491740934493 -0.080645877704995428 0 -0.080645877704995428 -1.7406277911449592 0 0 0 0 -28.621221128472826 -5.6991395912254461 0 -5.6991395912254461 5.4540707977095053 0 0 0 0 -23.740295507628616 -2.4022785314478909 0 -2.4022785314478909 -0.086785890828849688 0 0 0 0 -32.983988814816257 -3.2485732095934168 0 -3.2485732095934168 4.1708818567968535 0 0 0 0 -24.459380939242692 -10.569367136501441 0 -10.569367136501441 1.9096852522552581 0 0 0 0 -25.463101646453651 -11.007925143379147 0 -11.007925143379147 4.1414473269993834 0 0 0 0 -13.828750852359008 -11.577974069045652 0 -11.577974069045652 3.3865178146436108 0 0 0 0 -12.491775180176774 -12.96382957066804 0 -12.96382957066804 0.066184824964409472 0 0 0 0 -19.275143966468022 -9.1714624836412781 0 -9.1714624836412781 6.4393403952111612 0 0 0 0 -24.182661938788442 -9.1384929344587249 0 -9.1384929344587249 6.525615591416198 0 0 0 0 -22.360159321335232 -5.7311853864231637 0 -5.7311853864231637 5.1778501342562109 0 0 0 0 -15.268999149659066 -6.5755795781162476 0 -6.5755795781162476 4.6507756606225428 0 0 0 0 -21.233524041292185 -5.7977905551739113 0 -5.7977905551739113 4.5309509179106442 0 0 0 0 -3.7207530410623804 -8.3919133234990753 0 -8.3919133234990753 -4.9594211074700354 0 0 0 0 -9.6394067554047069 -1.9455396766107924 0 -1.9455396766107924 -2.9296910210940972 0 0 0 0 -6.8747653026457556 -12.216517165089428 0 -12.216517165089428 2.8453994964627043 0 0 0 0 -5.0712430900803795 -5.4746085544644583 0 -5.4746085544644583 -0.71581506004090723 0 0 0 0 -13.467881906191906 -10.766724209093937 0 -10.766724209093937 4.755807695830768 0 0 0 0 1.6487846324707789 -8.7050696766835074 0 -8.7050696766835074 0.843022669193914 0 0 0 0 -12.497562451182603 -13.460000195556347 0 -13.460000195556347 0.10384066590808061 0 0 0 0 7.1087015618850273 -14.996586079925105 0 -14.996586079925105 -3.8031719334942693 0 0 0 0 -1.353023537862871 -0.42273817568325178 0 -0.42273817568325178 0.93191876244140526 0 0 0 0 -10.625618354098151 -8.5022114586848119 0 -8.5022114586848119 -0.69296822377205558 0 0 0 0 -4.0675684383359076 -6.5502111456563465 0 -6.5502111456563465 -1.9402897775332013 0 0 0 0 8.0947105340928829 -9.5023146766213813 0 -9.5023146766213813 -2.4483593400111587 0 0 0 0 1.5334940760549216 -14.542106403574834 0 -14.542106403574834 -1.4591263077652457 0 0 0 0 7.7619937287490757 -8.5100399188029598 0 -8.5100399188029598 -3.8356595290619566 0 0 0 0 1.1427133518893484 -6.1735846700783714 0 -6.1735846700783714 -0.96332646697546687 0 0 0 0 -12.332436539898481 -16.007743670273243 0 -16.007743670273243 -2.2763537578609316 0 0 0 0 0.78396796391461976 -12.714258287533539 0 -12.714258287533539 -3.3725209545289374 0 0 0 0 -0.19562856583706889 -15.527093517433265 0 -15.527093517433265 -4.7409033242163332 0 0 0 0 -0.31822807229400496 -15.239514018240726 0 -15.239514018240726 -5.2416853913728119 0 0 0 0 -14.750818697473733 -23.910161371078274 0 -23.910161371078274 -1.3019956404850745 0 0 0 0 18.36543069446634 -13.646808731909942 0 -13.646808731909942 -7.9113824688496521 0 0 0 0 2.1369838360304811 -0.032710187539464641 0 -0.032710187539464641 -0.2418682914880721 0 0 0 0 -6.7759794507910556 -11.660180478461967 0 -11.660180478461967 -6.2269699300029515 0 0 0 0 -4.7911541282319376 -17.306528931622587 0 -17.306528931622587 7.6099275288017338 0 0 0 0 2.3931030183279276 -5.8301037989926812 0 -5.8301037989926812 -1.0937293276556912 0 0 0 0 32.363568359305646 19.637433408546684 0 19.637433408546684 -16.899215773527203 0 0 0 0 7.2395714602303087 -3.4191461050129561 0 -3.4191461050129561 4.1649507243060668 0 0 0 0 11.17377700756515 -1.0114642283738036 0 -1.0114642283738036 -3.506604262303739 0 0 0 0 -17.58804804383908 -29.78103973688458 0 -29.78103973688458 -16.291201571954588 0 0 0 0 11.291324570280267 -5.2398033437986129 0 -5.2398033437986129 -0.83959144226116678 0 0 0 0 -199.71347416771641 -6.2760479498348332 0 -6.2760479498348332 11.173343181818353 0 0 0 0 -190.89153886887198 -18.254767465417345 0 -18.254767465417345 0.94484648661256188 0 0 0 0 0.75085690448385378 -0.48042645340153634 0 -0.48042645340153634 -0.27990194622614623 0 0 0 0 -273.24206950586768 -43.112431882899799 0 -43.112431882899799 20.738554152482465 0 0 0 0 -181.9989320522418 -55.857660845074648 0 -55.857660845074648 8.4824252480765807 0 0 0 0 -171.4511366071456 -0.33588383664171317 0 -0.33588383664171317 11.610305237133439 0 0 0 0 -134.3580522853581 -73.037454236460874 0 -73.037454236460874 0.35081506217430558 0 0 0 0 -61.133760708456975 -5.677237727665581 0 -5.677237727665581 -16.032062204544886 0 0 0 0 -212.14286586647904 -46.848927916666085 0 -46.848927916666085 25.66229451536654 0 0 0 0 -242.17294380906469 -114.80738851299661 0 -114.80738851299661 7.992343452994902 0 0 0 0 -164.70428301913762 -112.01703540785468 0 -112.01703540785468 -27.569061023938044 0 0 0 0 -131.67156597834446 -38.788909808214768 0 -38.788909808214768 18.435537058013963 0 0 0 0 -20.984636745799435 -24.545797609598281 0 -24.545797609598281 -44.965741056123619 0 0 0 0 -293.72584745766835 -190.03473604302047 0 -190.03473604302047 -23.457162222526641 0 0 0 0 -230.39941725371864 -88.266767215247171 0 -88.266767215247171 15.611116876950476 0 0 0 0 -302.79553937440596 -146.69411981560265 0 -146.69411981560265 14.622462531173966 0 0 0 0 -500.05737976207274 -169.54274276252809 0 -169.54274276252809 75.290839960203584 0 0 0 0 -366.65324539198264 -111.0285998923024 0 -111.0285998923024 91.078092078719081 0 0 0 0 -362.29251588509942 -76.96423705177412 0 -76.96423705177412 58.813511570006241 0 0 0 0 -367.793674111379 -38.295406076253457 0 -38.295406076253457 55.367110262617459 0 0 0 0 -272.42298310824208 -48.199226117063397 0 -48.199226117063397 52.146889371616425 0 0 0 0 -386.7910071525439 -28.855603080853193 0 -28.855603080853193 94.412207703453589 0 0 0 0 -499.89260048182859 -65.684196801869163 0 -65.684196801869163 109.64448841562925 0 0 0 0 -465.19799902708928 -10.726023229948755 0 -10.726023229948755 90.316610604134311 0 0 0 0 -447.34457909131561 8.1215127105451295 0 8.1215127105451295 38.159213895570268 0 0 0 0 -499.9246272239194 10.14520848197971 0 10.14520848197971 93.319144363548759 0 0 0 0 -348.9173243752748 9.2173126490566943 0 9.2173126490566943 52.405319841724157 0 0 0 0 -455.64312828856782 26.869323708089013 0 26.869323708089013 58.238551310081192 0 0 0 0 -352.18087473233572 16.050525688650694 0 16.050525688650694 51.70768816544377 0 0 0 0 -242.81541246286361 -3.7118433779841808 0 -3.7118433779841808 14.485800380595435 0 0 0 0 -260.31385579546441 23.279652021405859 0 23.279652021405859 42.428265750776063 0 0 0 0 -164.90013309014194 36.40193313947421 0 36.40193313947421 14.469910471521416 0 0 0 0 -106.67371705439109 -51.204242064159502 0 -51.204242064159502 5.2553181745753079 0 0 0 0 -192.78294204961821 -0.34895720570541755 0 -0.34895720570541755 28.23774508994509 0 0 0 0 -88.184838115425009 28.144092266852304 0 28.144092266852304 -7.5042954813612681 0 0 0 0 -169.74146376796853 24.631735890129427 0 24.631735890129427 5.2661923262821677 0 0 0 0 -239.16715619217075 85.468630768277691 0 85.468630768277691 10.104096854505556 0 0 0 0 -170.700618221068 50.154921415260134 0 50.154921415260134 -0.6859020468192023 0 0 0 0 -396.55588340398049 132.8683212934564 0 132.8683212934564 3.9902256817279032 0 0 0 0 -75.488447776446264 98.666129027132314 0 98.666129027132314 -83.558957925135005 0 0 0 0 -30.010472176280928 62.286330741861143 0 62.286330741861143 -59.172213963153162 0 0 0 0 -50.731924142002754 -12.163314213886196 0 -12.163314213886196 28.203310670938237 0 0 0 0 5.929681945073753 -10.742764166744823 0 -10.742764166744823 4.584841190565303 0 0 0 0 -8.6772396733977075 -22.345851615271044 0 -22.345851615271044 10.304158190124895 0 0 0 0 -15.461952611017068 20.913233358999371 0 20.913233358999371 23.303838830359837 0 0 0 0 -3.4611247765844659 -4.7711137871995444 0 -4.7711137871995444 1.8514071736707387 0 0 0 0 -537.81116588737677 67.049277258016062 0 67.049277258016062 18.823266685238885 0 0 0 0 -179.64037440496668 -4.2169231154097684 0 -4.2169231154097684 2.4509326371235574 0 0 0 0 -0.45941375187353728 0.47100176748705636 0 0.47100176748705636 -0.90840849222310149 0 0 0 0 34.569902136085148 18.06980916520024 0 18.06980916520024 -32.00048640871978 0 0 0 0 -477.96650557191788 95.218263675890952 0 95.218263675890952 -61.334550159177027 0 0 0 0 -455.16633766027735 59.908525245221014 0 59.908525245221014 -28.541782474492351 0 0 0 0 -500.07381655311991 49.616138344675036 0 49.616138344675036 9.4261340010318531 0 0 0 0 -374.44418794272326 13.196538687542397 0 13.196538687542397 -27.514695512992894 0 0 0 0 -317.42705039638167 118.1436143817387 0 118.1436143817387 -45.510947456013881 0 0 0 0 -3.6846836658969764 -1.5882767665859783 0 -1.5882767665859783 -0.31970770456365871 0 0 0 0 -319.39507525547833 172.94173111592596 0 172.94173111592596 -49.948642332281523 0 0 0 0 -500.02348582916784 142.8763728688443 0 142.8763728688443 25.820870105939818 0 0 0 0 -275.30333990774125 101.3723111483241 0 101.3723111483241 -44.447653343896881 0 0 0 0 -372.22163640477766 94.441734228687892 0 94.441734228687892 -13.942456788613843 0 0 0 0 -2.4199959681993493 -0.010960116774255013 0 -0.010960116774255013 -0.36960552984466366 0 0 0 0 -14.687806740308588 -5.8800119434365001 0 -5.8800119434365001 0.44195918820088309 0 0 0 0 -7.7861622679954081 -4.1655510122502069 0 -4.1655510122502069 -1.0029684193349029 0 0 0 0 -13.609167740517933 -4.1362148025040124 0 -4.1362148025040124 -28.52016229656142 0 0 0 0 0.040952949708298547 2.7742308596632625 0 2.7742308596632625 -4.8508814973885706 0 0 0 0 -3.5714204424210427 2.2447957778898946 0 2.2447957778898946 0.024568358003771884 0 0 0 0 -17.463892004448098 -1.1372447510577217 0 -1.1372447510577217 -1.0730948404972764 0 0 0 0 -4.1469137567828511 6.4463554924693085 0 6.4463554924693085 -2.1868461063809264 0 0 0 0 -2.3635022914786044 3.29739736566885 0 3.29739736566885 -1.3236107281244416 0 0 0 0 -20.775445468319958 -2.7477643770811255 0 -2.7477643770811255 1.1249757805088763 0 0 0 0 -6.9196644238618319 -1.6166632475903384 0 -1.6166632475903384 -3.4233806050811495 0 0 0 0 -0.19366530049956054 -5.189582981751883 0 -5.189582981751883 -8.201716812769746 0 0 0 0 -20.437084069468256 -10.209010850291008 0 -10.209010850291008 -8.8403203849653096 0 0 0 0 -12.727618225992046 0.30197288810632017 0 0.30197288810632017 -12.827354863461593 0 0 0 0 -9.7567392002090401 -6.9908785418529718 0 -6.9908785418529718 0.87891771320960288 0 0 0 0 -28.254679670121732 -13.546762547877762 0 -13.546762547877762 -7.4008385866663886 0 0 0 0 -0.5506263329757104 1.2003708708113141 0 1.2003708708113141 -0.30074421582279354 0 0 0 0 -40.614218795933994 3.1449451740221548 0 3.1449451740221548 0.32478753177747421 0 0 0 0 -28.349297243119494 0.80329422978415899 0 0.80329422978415899 0.1908714603783892 0 0 0 0 -22.336760115457764 -5.7572503185062871 0 -5.7572503185062871 -1.8890962185885769 0 0 0 0 -20.449365581922393 -4.6003432047202466 0 -4.6003432047202466 -2.5882859464455237 0 0 0 0 -17.515623800827598 1.6828393695964436 0 1.6828393695964436 1.9022843238161755 0 0 0 0 -11.287533427198468 4.1282063251273087 0 4.1282063251273087 2.9607005718267487 0 0 0 0 -14.81014621580016 -2.5732589274308708 0 -2.5732589274308708 -1.547372411895708 0 0 0 0 2.3430057713367205 0.43472504783376742 0 0.43472504783376742 -4.1186167496643904 0 0 0 0 -4.7527057451097789 -0.1178801129594671 0 -0.1178801129594671 -0.63262002340792378 0 0 0 0 -4.3796077299011813 -0.2082468238313453 0 -0.2082468238313453 -1.3457847954315696 0 0 0 0 -6.8481574879916707 0.42512559288979324 0 0.42512559288979324 -1.113659334833244 0 0 0 0 -1.5916991230607009 -1.1858722220132076 0 -1.1858722220132076 -1.1949333492057419 0 0 0 0 -4.5400264191721362 -0.6452253052025867 0 -0.6452253052025867 -1.414855528868479 0 0 0 0 -499.45397669129352 300.75061591691474 0 300.75061591691474 -132.8023439656975 0 0 0 0 -4.5107565202943078 -0.26372374441183766 0 -0.26372374441183766 -1.124512649308727 0 0 0 0 -242.53236393584666 286.01299172580264 0 286.01299172580264 -339.37451823923493 0 0 0 0 -2.3484894878864768 -0.52949863721687151 0 -0.52949863721687151 -0.17812777070747315 0 0 0 0 -504.17213155348264 -90.288890415204506 0 -90.288890415204506 -14.598917715336601 0 0 0 0 -4.3156607618284397 -0.44631933569689664 0 -0.44631933569689664 -0.49847168975126088 0 0 0 0 -3.7195851249198313 -0.14841791481410471 0 -0.14841791481410471 -1.139323132003337 0 0 0 0 -0.62083406468877467 -0.16521117460573009 0 -0.16521117460573009 -0.14794255057804745 0 0 0 0 1.5770462876014557 -7.4304733318070131 0 -7.4304733318070131 0.50213963746120793 0 0 0 0 -342.04438650089196 -58.027042360019202 0 -58.027042360019202 -10.416306979875047 0 0 0 0 -3.8865452176651161 -0.24258676978895366 0 -0.24258676978895366 -0.38760545607912888 0 0 0 0 -1.0964284585940076 0.69593292210302593 0 0.69593292210302593 0.028069462007280204 0 0 0 0 -4.4765021477396658 -0.19336457732591428 0 -0.19336457732591428 -0.29527852621990269 0 0 0 0 -4.4258526108260412 -0.46354218085526355 0 -0.46354218085526355 -0.19796435204184881 0 0 0 0 -4.8739765597601945 -0.24817549818120366 0 -0.24817549818120366 -0.38642684550393014 0 0 0 0 -0.096133860393810222 -1.0968445191047103 0 -1.0968445191047103 -0.53388205937670508 0 0 0 0 -4.4584158330180799 -0.31911055461352511 0 -0.31911055461352511 -0.49687065849788903 0 0 0 0 -4.7546135427337504 -0.45209659313276873 0 -0.45209659313276873 -0.14126843249425747 0 0 0 0 -2.2938309397870533 -0.42987757225301948 0 -0.42987757225301948 -0.0054104172213009453 0 0 0 0 -3.8708267406982486 -0.22579717024051149 0 -0.22579717024051149 3.7066237186245843 0 0 0 0 -2.2878863525265842 1.7298929367444948 0 1.7298929367444948 -1.0919178491817618 0 0 0 0 -4.3682822643968393 5.8282302434934081 0 5.8282302434934081 0.065154192039045711 0 0 0 0 -2.5162325495211917 1.3411472736327408 0 1.3411472736327408 -7.6428088939473895 0 0 0 0 -3.1012382683829856 0.63544448218229022 0 0.63544448218229022 -2.0705545174931785 0 0 0 0 -2.4328646002968526 1.3559154079899596 0 1.3559154079899596 -1.0286730355001623 0 0 0 0 -4.2173252177253744 2.3632870479117898 0 2.3632870479117898 3.72866212895768 0 0 0 0 -499.15631780482261 86.485604370767859 0 86.485604370767859 14.943033669253875 0 0 0 0 -1.9246893530612859 0.14154978989097522 0 0.14154978989097522 0.26119029476956851 0 0 0 0 -2.4762438692132491 -0.19975525986231446 0 -0.19975525986231446 0.63172722718192631 0 0 0 0 -16.589475407362897 37.279035843694963 0 37.279035843694963 -95.111349837071984 0 0 0 0 -0.88071971398814242 0.42618864297083503 0 0.42618864297083503 0.10888522619918385 0 0 0 0 -191.08217718320702 -197.82271156641428 0 -197.82271156641428 -2.3725329912795381 0 0 0 0 -497.92547374589685 -30.020805373226906 0 -30.020805373226906 96.65746237669677 0 0 0 0 -1.5960496789220784 -0.57836517048855551 0 -0.57836517048855551 -0.36870266898639786 0 0 0 0 -268.30293804727626 128.28522072458094 0 128.28522072458094 10.244466072907437 0 0 0 0 351.65454547352238 -174.10009961731146 0 -174.10009961731146 -756.22808583160599 0 0 0 0 -71.609946507243876 -189.02242930143575 0 -189.02242930143575 -518.33290604543458 0 0 0 0 -0.94171755911801469 -0.27714736370841564 0 -0.27714736370841564 -0.13397375046729554 0 0 0 0 -7.6695771386785054 4.068997857738637 0 4.068997857738637 9.6464575824424763 0 0 0 0 -92.971336308365608 -84.08853036242175 0 -84.08853036242175 -94.821428026472489 0 0 0 0 -43.199646707676948 -48.162190019969159 0 -48.162190019969159 -166.0783905567535 0 0 0 0 -5.8976630358428501 -1.6985838050423041 0 -1.6985838050423041 -0.22280188695372427 0 0 0 0 -158.91941661959385 -153.81388731694906 0 -153.81388731694906 -60.594455450173328 0 0 0 0 -239.98267613655844 -205.40413032180771 0 -205.40413032180771 -92.862294831911441 0 0 0 0 -249.71012393829187 -275.407311308955 0 -275.407311308955 -116.696192147811 0 0 0 0 -304.32341771710708 -183.01022159613137 0 -183.01022159613137 -12.394427106912588 0 0 0 0 -499.19284555748152 -438.38990123608107 0 -438.38990123608107 -281.4269318531633 0 0 0 0 -0.037611356036331145 0.22348138477150492 0 0.22348138477150492 0.35762081103521143 0 0 0 0 -21.491452432574988 -12.069530905895842 0 -12.069530905895842 -3.4688727206300598 0 0 0 0 -93.956147926078302 -97.294565382127232 0 -97.294565382127232 -61.074688179413982 0 0 0 0 -158.99516408688578 -80.508614947963466 0 -80.508614947963466 -15.961705034584142 0 0 0 0 30.277798927811091 -3.4131187033545416 0 -3.4131187033545416 -66.113049812198085 0 0 0 0 -17.821306894337795 -1.5562140835503584 0 -1.5562140835503584 20.369150457059092 0 0 0 0 -7.8002988437898289 -1.6684447162928129 0 -1.6684447162928129 -0.073537554951082801 0 0 0 0 -25.940870394123067 2.9258650691442938 0 2.9258650691442938 15.566768124722557 0 0 0 0 -18.688422138087844 -2.4540817661363619 0 -2.4540817661363619 3.2864989621722485 0 0 0 0 -2.0138677305485544 5.5261035382879236 0 5.5261035382879236 0.86568821144978614 0 0 0 0 -5.9094508669659263 -6.5240127954550786 0 -6.5240127954550786 3.5962154887706106 0 0 0 0 -14.279678818226785 9.0599647388918214 0 9.0599647388918214 -4.5789405331591411 0 0 0 0 -8.6480972548270074 2.9277767381885482 0 2.9277767381885482 -0.12337282027907648 0 0 0 0 -3.9449942551818822 5.9549456299802461 0 5.9549456299802461 -5.097752936719786 0 0 0 0 -5.2950642025207344 7.8520777685272733 0 7.8520777685272733 -13.921390332799966 0 0 0 0 -8.4176677378954992 -5.9908413795036388 0 -5.9908413795036388 -0.3544522523880147 0 0 0 0 0.10183653070060217 -0.42754132622902041 0 -0.42754132622902041 -0.21147029255247052 0 0 0 0 -20.10642785693426 -3.5934338489350353 0 -3.5934338489350353 -8.2160620799093351 0 0 0 0 -10.686811407244022 -2.3490293760454435 0 -2.3490293760454435 -8.115612340978771 0 0 0 0 -25.11045679023573 -10.592342522029043 0 -10.592342522029043 -6.3599797455598264 0 0 0 0 -5.4275836321567112 -1.467131316385192 0 -1.467131316385192 -3.5353590240891322 0 0 0 0 0.010836626177498587 0.11421869260461648 0 0.11421869260461648 -0.078283807844367947 0 0 0 0 -8.0955059816785706 -5.7578460759966106 0 -5.7578460759966106 -8.4188492753799906 0 0 0 0 -8.3287794638440573 -5.9806452697515802 0 -5.9806452697515802 -1.898128461850348 0 0 0 0 -10.557813847788566 -4.9492702206443937 0 -4.9492702206443937 5.5456577266248814 0 0 0 0 -8.8808881622617264 -11.468741789522124 0 -11.468741789522124 -6.8130909321864994 0 0 0 0 -15.802207816599548 -10.782404700290099 0 -10.782404700290099 -10.204661082928682 0 0 0 0 -12.136697779106726 -15.873273918653496 0 -15.873273918653496 3.5225715204321943 0 0 0 0 -4.6336793810742165 5.0454590234465115 0 5.0454590234465115 -0.89685238997860495 0 0 0 0 -6.6736096050744891 -0.53523826777376371 0 -0.53523826777376371 3.543750905706645 0 0 0 0 -7.7612432426511457 -4.1313692772586972 0 -4.1313692772586972 0.82429701845726089 0 0 0 0 -15.44578899085991 -10.495511264657154 0 -10.495511264657154 11.612257890166973 0 0 0 0 -8.6425886882705178 -2.5109743268771605 0 -2.5109743268771605 -0.30399086535809067 0 0 0 0 -3.6169709576779496 0.58860026172800417 0 0.58860026172800417 -3.040194263864791 0 0 0 0 -4.3810249624693824 -6.7754467603751962 0 -6.7754467603751962 -12.254106460641253 0 0 0 0 -20.403738391061779 -7.2778981776012301 0 -7.2778981776012301 8.2726952328683296 0 0 0 0 -18.027916424079194 -6.6738137110533771 0 -6.6738137110533771 7.6592978409824468 0 0 0 0 -14.397151302684506 -10.970303972803755 0 -10.970303972803755 8.0049784212800716 0 0 0 0 -14.529300387639523 -9.0303328947179722 0 -9.0303328947179722 7.8599964725860048 0 0 0 0 -20.75561611784542 -8.3542136064800587 0 -8.3542136064800587 8.0748492712206144 0 0 0 0 -14.480948990814795 -6.8824764409401595 0 -6.8824764409401595 4.5168533859533824 0 0 0 0 -20.196026626754247 -4.3021645375053339 0 -4.3021645375053339 4.2541937446213165 0 0 0 0 -21.596171351482553 -5.0388310474045852 0 -5.0388310474045852 3.9143985324355697 0 0 0 0 -19.31305771350835 -1.7861282807198939 0 -1.7861282807198939 0.81613283575726614 0 0 0 0 -25.029955454090668 -2.6795669565863705 0 -2.6795669565863705 4.2739972528138992 0 0 0 0 -19.626565220902194 -3.621909164878133 0 -3.621909164878133 0.72145833168004003 0 0 0 0 -22.02979366037107 -3.3496374331489278 0 -3.3496374331489278 3.3725555017336717 0 0 0 0 -24.178369917925011 -10.355748974225619 0 -10.355748974225619 11.627651941065949 0 0 0 0 -17.061061081250955 -15.234975182174111 0 -15.234975182174111 11.159808479013691 0 0 0 0 -19.956436799804578 -4.0254907390967176 0 -4.0254907390967176 2.5416649174293866 0 0 0 0 -3.5984557736611471 -0.87192279105657633 0 -0.87192279105657633 0.67297533540230092 0 0 0 0 -17.737510922335787 -0.85355621417344452 0 -0.85355621417344452 -4.0812882890651139 0 0 0 0 -17.941309286574779 -1.6397308377897808 0 -1.6397308377897808 1.0663912285298807 0 0 0 0 -4.9149626964781383 -1.9153111140586514 0 -1.9153111140586514 0.86736721903817893 0 0 0 0 -28.278283435894991 -4.0217523369914474 0 -4.0217523369914474 3.8072790374197458 0 0 0 0 -5.6694988604422178 -6.0096760953876505 0 -6.0096760953876505 -4.7408854745112237 0 0 0 0 -4.7001020265291586 0.04420422313779504 0 0.04420422313779504 1.0371223719133615 0 0 0 0 -17.325545293047981 -10.595388816507182 0 -10.595388816507182 -2.6477364779664363 0 0 0 0 -23.38646716191397 -4.2106832370801399 0 -4.2106832370801399 1.7399938295789639 0 0 0 0 -14.781258370965588 -2.8351696811496936 0 -2.8351696811496936 1.9596829101487288 0 0 0 0 -15.574573017101102 -5.4272283654675562 0 -5.4272283654675562 -1.1634358250741457 0 0 0 0 -14.700307388201963 0.57461011283902153 0 0.57461011283902153 0.16173687687465588 0 0 0 0 -16.82785280764665 -1.9380215370578355 0 -1.9380215370578355 2.8582194013295066 0 0 0 0 -13.098517142302171 1.1393102495432004 0 1.1393102495432004 3.6498808563140983 0 0 0 0 -14.447652161165934 -0.59756632115973218 0 -0.59756632115973218 3.4749552689024199 0 0 0 0 -15.392941829527444 -1.6699180723350082 0 -1.6699180723350082 3.0853800599979877 0 0 0 0 -5.7674196367200139 1.3546768667906761 0 1.3546768667906761 3.3104785617566623 0 0 0 0 -14.134429248133529 -0.32765724308987387 0 -0.32765724308987387 3.9644950651094177 0 0 0 0 -9.9230234801725601 -0.72305983229580306 0 -0.72305983229580306 2.4304232907524579 0 0 0 0 -13.884383081192937 -0.83582650303118555 0 -0.83582650303118555 3.1787554282243491 0 0 0 0 -14.342793159272105 -2.0132313871162708 0 -2.0132313871162708 2.1271663919295065 0 0 0 0 -10.32480994874004 -2.1635034553140713 0 -2.1635034553140713 0.86523368900503783 0 0 0 0 -10.217785167677249 -3.5197939844048669 0 -3.5197939844048669 -0.17666433940456727 0 0 0 0 -1.2780444484902507 0.22130244985408787 0 0.22130244985408787 -0.19221662610636514 0 0 0 0 -7.4434884520815103 -2.2871490196735635 0 -2.2871490196735635 0.34860532074458206 0 0 0 0 -6.239943201805545 -1.0697758838002471 0 -1.0697758838002471 1.1985731972488338 0 0 0 0 -8.5263011182904762 -0.024534144201934893 0 -0.024534144201934893 0.0073092747072331932 0 0 0 0 -8.7898692507878877 -1.9009394869809739 0 -1.9009394869809739 2.6735784848446542 0 0 0 0 -10.217135704170687 -2.9128782691900028 0 -2.9128782691900028 2.1203032848067664 0 0 0 0 -13.227259624711337 -14.2461604547089 0 -14.2461604547089 -0.38259102741881179 0 0 0 0 -23.028147749151685 13.842525505529238 0 13.842525505529238 1.2755216385021413 0 0 0 0 -14.153658103195994 3.4493873185518282 0 3.4493873185518282 10.680382859541282 0 0 0 0 -5.3283043025376173 1.8317614982755117 0 1.8317614982755117 -0.94459672422634355 0 0 0 0 -16.167472255735447 -7.4539401956184577 0 -7.4539401956184577 -6.9218292287601457 0 0 0 0 -5.7195055472196827 4.595942019305113 0 4.595942019305113 -18.024916839890693 0 0 0 0 -6.7127517299636565 13.51498204281377 0 13.51498204281377 -7.7761252764786368 0 0 0 0 -6.0345004056653124 -6.5177566437854466 0 -6.5177566437854466 -11.134070386866284 0 0 0 0 -0.344658157369226 1.3858743443670409 0 1.3858743443670409 0.016136228155965895 0 0 0 0 -11.016328713656444 2.2812157721341748 0 2.2812157721341748 0.98097464393865375 0 0 0 0 -12.951854005040104 4.3154385377398512 0 4.3154385377398512 0.17567206129336022 0 0 0 0 -10.780993412908174 3.3439842372657864 0 3.3439842372657864 -0.87986620756748835 0 0 0 0 -11.75153986199507 0.46076520354137074 0 0.46076520354137074 8.1920558572994935 0 0 0 0 -5.4217088000641818 -0.81939024293100715 0 -0.81939024293100715 2.8613685752004097 0 0 0 0 -11.392862849509816 -0.61216056059699175 0 -0.61216056059699175 0.99471166019898194 0 0 0 0 -14.304437225804577 -8.4526843938217553 0 -8.4526843938217553 12.145030915908762 0 0 0 0 -5.8517054678954992 2.0320884695349264 0 2.0320884695349264 4.4462207065359962 0 0 0 0 -22.358876726192648 -0.11096021663036026 0 -0.11096021663036026 1.6460818264147861 0 0 0 0 -1.0841693806332842 2.4860696855942024 0 2.4860696855942024 -4.428843194678052 0 0 0 0 -11.273634168145556 -2.9922034345335202 0 -2.9922034345335202 0.65615389500809562 0 0 0 0 -9.3692576295125036 1.3554752902941232 0 1.3554752902941232 5.6110899475438174 0 0 0 0 -11.180048116466423 0.22679109032551992 0 0.22679109032551992 4.5534702071059456 0 0 0 0 -3.7809547370975043 -0.43183875082166878 0 -0.43183875082166878 2.3472846957436309 0 0 0 0 -8.4367311367230702 0.41796460976904126 0 0.41796460976904126 1.6379789048482474 0 0 0 0 -15.186697823032716 2.5435216633038635 0 2.5435216633038635 4.6164848925101296 0 0 0 0 -10.658607830004257 -0.76385700533052159 0 -0.76385700533052159 8.8049702130374214 0 0 0 0 -10.547829751022787 0.32269497484970072 0 0.32269497484970072 2.2719458965507879 0 0 0 0 -11.963362758322717 1.7981227428918487 0 1.7981227428918487 1.6162353129384996 0 0 0 0 -11.394334676814651 -14.287897149600667 0 -14.287897149600667 -10.211580158000515 0 0 0 0 -1.2441881344889225 -8.8625758653696494 0 -8.8625758653696494 -7.3149661127938543 0 0 0 0 -0.56057780228968568 -1.1696164121782484 0 -1.1696164121782484 0.95763080954744151 0 0 0 0 -16.234452500327734 4.2775114195599429 0 4.2775114195599429 1.7680291522285643 0 0 0 0 -17.850066436283555 -4.8608300330901955 0 -4.8608300330901955 17.295623852390463 0 0 0 0 -4.5192039991740929 -1.2460113829857129 0 -1.2460113829857129 4.1205023754629639 0 0 0 0 -6.8366813469238767 2.5080699272539309 0 2.5080699272539309 5.6695632165140584 0 0 0 0 -35.62995587192745 -22.888257638790719 0 -22.888257638790719 0.41987580172360595 0 0 0 0 -91.563449098721321 -53.529723549991104 0 -53.529723549991104 19.393949374731619 0 0 0 0 -31.5534051879049 -15.106485196787617 0 -15.106485196787617 2.4697453928938558 0 0 0 0 49.655295592465336 28.324171331070829 0 28.324171331070829 -6.3091807975007725 0 0 0 0 -33.831883779991585 -7.4717893267431919 0 -7.4717893267431919 14.836743511681277 0 0 0 0 -45.868557752672132 -18.635989450703619 0 -18.635989450703619 12.547368454153286 0 0 0 0 -33.033353358433033 5.7562091064085052 0 5.7562091064085052 10.476750927031389 0 0 0 0 -7.1580103774397053 -2.1547057638768004 0 -2.1547057638768004 -0.65399069469333315 0 0 0 0 2.2585628596239076 -2.2980132166443923 0 -2.2980132166443923 0.36777383688342979 0 0 0 0 -4.1130155130649655 0.78616574593263522 0 0.78616574593263522 7.2509402713337749 0 0 0 0 -11.339352010801576 -13.935207817495353 0 -13.935207817495353 4.9092704482220597 0 0 0 0 15.843461829729677 9.151050718931856 0 9.151050718931856 -22.426418102214939 0 0 0 0 -49.782584267416496 15.963593521220048 0 15.963593521220048 -1.6291340872101046 0 0 0 0 3.5186896185077785 -9.0057222207359473 0 -9.0057222207359473 -8.0891416012420052 0 0 0 0 -4.4796544516502763 -0.65692321989740776 0 -0.65692321989740776 -7.2873018260875142 0 0 0 0 -3.549941013845455 -10.43682129268791 0 -10.43682129268791 -7.6574349522550165 0 0 0 0 8.9430856867857074 0.46247926082673985 0 0.46247926082673985 -7.7330656851102049 0 0 0 0 -11.658479024094959 7.67362952362123 0 7.67362952362123 14.586426036966145 0 0 0 0 -10.651703722518732 6.6288418871563266 0 6.6288418871563266 -21.944944422196613 0 0 0 0 -46.107820498637921 17.305098337031097 0 17.305098337031097 4.929942993868508 0 0 0 0 -16.880577418327448 9.8009616139961508 0 9.8009616139961508 3.130320901878008 0 0 0 0 10.113776446078191 2.1221777531986277 0 2.1221777531986277 -10.932598938848059 0 0 0 0 -15.928195756184323 3.2036220804475306 0 3.2036220804475306 3.3419166196912329 0 0 0 0 0.39381087774598988 0.11464522995160387 0 0.11464522995160387 0.22544196365869862 0 0 0 0 -12.679551513223487 0.67035976766828753 0 0.67035976766828753 -0.37814752317729017 0 0 0 0 -10.247217126081523 -2.4386341379135956 0 -2.4386341379135956 3.0483251327582366 0 0 0 0 -6.1793832963530804 9.1931532802271647 0 9.1931532802271647 6.6489123272564257 0 0 0 0 -14.014839710460365 -2.8112865264894822 0 -2.8112865264894822 6.1072908471944629 0 0 0 0 -17.76143368355315 0.086886012200295681 0 0.086886012200295681 4.2561648172285231 0 0 0 0 -16.360573003599711 1.3245580558141512 0 1.3245580558141512 2.54339699621449 0 0 0 0 -7.7052320684679216 1.190826504472426 0 1.190826504472426 2.1215305640081397 0 0 0 0 -3.1873134332825774 -0.93053565707010932 0 -0.93053565707010932 2.8374113160167163 0 0 0 0 -13.903482713659287 -0.87461490743172021 0 -0.87461490743172021 2.7971857639307096 0 0 0 0 -13.294830809732048 -0.021425727571681819 0 -0.021425727571681819 3.657963957686718 0 0 0 0 -4.4952803787494258 2.4816837868307555 0 2.4816837868307555 2.7530389239319684 0 0 0 0 -2.934080070527326 -2.1759953480949417 0 -2.1759953480949417 1.9551143613674788 0 0 0 0 -18.9479428364657 1.0614237690251116 0 1.0614237690251116 0.74489698572284624 0 0 0 0 -5.342475409536954 3.8457413227358099 0 3.8457413227358099 2.5521524841859997 0 0 0 0 -12.949955820178729 0.15869675271255801 0 0.15869675271255801 0.040707399757522467 0 0 0 0 -2.6965649898591635 0.25624878763140657 0 0.25624878763140657 0.88142489411246716 0 0 0 0 -19.182391818936594 0.19339771511948811 0 0.19339771511948811 1.6705839280726877 0 0 0 0 -12.630806322100398 1.00385633491004 0 1.00385633491004 1.6793545653889055 0 0 0 0 -5.2636733455017541 3.8249974630092805 0 3.8249974630092805 2.3893139126153771 0 0 0 0 -9.709625109037006 -0.93380703133590259 0 -0.93380703133590259 2.5980160055528927 0 0 0 0 -11.196756486787308 2.8546261197333251 0 2.8546261197333251 3.3979586925365766 0 0 0 0 -9.1000530737474037 3.8777580280516304 0 3.8777580280516304 3.4606216072606912 0 0 0 0 -16.665075988761057 1.0535487889849371 0 1.0535487889849371 3.6426410118532595 0 0 0 0 -7.6977392454082754 4.189658983690407 0 4.189658983690407 1.2765825562338766 0 0 0 0 -15.734667706008167 0.034077098218446622 0 0.034077098218446622 2.5614443300071343 0 0 0 0 -13.89048735034703 0.68847429732232968 0 0.68847429732232968 2.6522597399248298 0 0 0 0 -13.885266733988828 -12.841949560559549 0 -12.841949560559549 14.710157205411406 0 0 0 0 -19.820547009236179 4.6598126338453199 0 4.6598126338453199 8.0224466220823061 0 0 0 0 -13.608829853498975 -1.1142251836657191 0 -1.1142251836657191 0.35756256121141111 0 0 0 0 -9.2320838632786035 -10.74492085766299 0 -10.74492085766299 5.9805011468002647 0 0 0 0 -4.2208765735667839 -19.304789872715318 0 -19.304789872715318 10.871484327072316 0 0 0 0 -3.1620491997589628 0.33883239554848998 0 0.33883239554848998 3.1172589637694332 0 0 0 0 -56.704358346987647 -2.3092909775263593 0 -2.3092909775263593 10.055069487861989 0 0 0 0 -30.697608327500348 0.58188167187216777 0 0.58188167187216777 -0.56002284327813001 0 0 0 0 -15.245717241396402 8.122040130172115 0 8.122040130172115 6.9498366235871076 0 0 0 0 -34.331849829183739 9.3343412053326773 0 9.3343412053326773 4.2157158521538349 0 0 0 0 7.6417488651632084 -15.601171001815271 0 -15.601171001815271 1.1918821345107062 0 0 0 0 -0.092062109386175095 -0.07570691945128516 0 -0.07570691945128516 0.15823373834103854 0 0 0 0 -67.244645519293954 24.046978817373734 0 24.046978817373734 6.5866930925774767 0 0 0 0 0.68146800872273161 -2.642751468875602 0 -2.642751468875602 2.7393888002974478 0 0 0 0 -43.384811458901822 15.080239242956168 0 15.080239242956168 8.8448873306874702 0 0 0 0 -31.423890714416643 9.335494222059598 0 9.335494222059598 1.9234725788666083 0 0 0 0 -1.314630445811023 2.6158944838689728 0 2.6158944838689728 0.21534738997970937 0 0 0 0 -11.938759336399446 9.0025161800359026 0 9.0025161800359026 1.5603828178302144 0 0 0 0 -4.019707048492819 18.468808202235607 0 18.468808202235607 -3.9159125354976823 0 0 0 0 -8.3579759330159504 6.1842091602659508 0 6.1842091602659508 -4.0141911169400828 0 0 0 0 -53.027004490599211 40.472731992033914 0 40.472731992033914 -26.132563394189553 0 0 0 0 -0.38312177971079819 -0.54828940438984386 0 -0.54828940438984386 -0.052985753526650609 0 0 0 0 -3.6570907810173594 6.6231657022765944 0 6.6231657022765944 -1.38621635764639 0 0 0 0 -35.504610057883838 -20.333061730923589 0 -20.333061730923589 7.3895134165652507 0 0 0 0 -10.574618576718422 7.169862479611993 0 7.169862479611993 11.118988661804821 0 0 0 0 -9.0047838448062976 9.6910873287595223 0 9.6910873287595223 8.168293016769212 0 0 0 0 -8.8024461933455314 9.3624633537172031 0 9.3624633537172031 5.1268789442510752 0 0 0 0 -7.9924473220635264 9.016201779190169 0 9.016201779190169 0.61922035063957992 0 0 0 0 -5.94672767634097 7.5095805878467843 0 7.5095805878467843 0.09349584117944687 0 0 0 0 -18.986461438938477 -0.27953054916713427 0 -0.27953054916713427 -1.5227036513251733 0 0 0 0 -38.016720535721106 8.9678649223050115 0 8.9678649223050115 5.5109494765397358 0 0 0 0 -42.633119184700945 1.5558995865262659 0 1.5558995865262659 10.156695960847173 0 0 0 0 -58.290587552641227 9.706661611672132 0 9.706661611672132 12.390494758684099 0 0 0 0 -43.423209215030511 6.1893222427996761 0 6.1893222427996761 7.6465767112439949 0 0 0 0 -60.322014753369331 5.0288150661530153 0 5.0288150661530153 8.0020427134352872 0 0 0 0 -39.204015102040103 9.1986120456325011 0 9.1986120456325011 -4.3211641395482729 0 0 0 0 -22.485509393565735 1.3671531384891296 0 1.3671531384891296 -10.763767159499821 0 0 0 0 -60.694403969988798 23.812079116253187 0 23.812079116253187 -9.9298614426722907 0 0 0 0 -73.614744295177843 6.8066391671147812 0 6.8066391671147812 14.535899067676041 0 0 0 0 -35.591783570163898 0.53361471814923789 0 0.53361471814923789 -31.490013968061476 0 0 0 0 -62.733354547139243 -7.9682941699563798 0 -7.9682941699563798 0.49433405319189205 0 0 0 0 -22.995361042001605 3.6636458786881576 0 3.6636458786881576 -4.4031344059645789 0 0 0 0 -36.14941361311935 1.9905301820398336 0 1.9905301820398336 -2.6183891835028135 0 0 0 0 -34.858189963551695 -7.3956327335430103 0 -7.3956327335430103 6.3436265986392755 0 0 0 0 -41.098115328784388 4.7362090011419866 0 4.7362090011419866 7.8519929186984427 0 0 0 0 -35.404631502042321 0.41992158075714769 0 0.41992158075714769 10.643522939102013 0 0 0 0 0.29776518431629029 -12.585640935716569 0 -12.585640935716569 18.199844398395726 0 0 0 0 -18.63684229865612 -8.332588166166488 0 -8.332588166166488 17.841673794944313 0 0 0 0 -19.387183359930532 -2.6131174517048521 0 -2.6131174517048521 7.3690444148746792 0 0 0 0 -15.595027388083508 -6.2219010141378135 0 -6.2219010141378135 -1.5051271763702516 0 0 0 0 -2.7687842248760717 3.5186006018325315 0 3.5186006018325315 4.8830774190601005 0 0 0 0 -6.6443507475742081 -5.9615884537062698 0 -5.9615884537062698 -3.6056807625503779 0 0 0 0 -11.084998290542899 1.5160101891367503 0 1.5160101891367503 -7.4631756199472647 0 0 0 0 -22.578544825146309 1.9500377473382287 0 1.9500377473382287 -1.8028623432717019 0 0 0 0 -29.510180985929765 0.50538841848515403 0 0.50538841848515403 -0.70676185413267945 0 0 0 0 -28.330607089627392 -0.76250744902341694 0 -0.76250744902341694 -0.3368916860056288 0 0 0 0 -12.757795328095199 -0.52073022993852192 0 -0.52073022993852192 -4.1016547731713899 0 0 0 0 -4.5676541932562031 -2.4356279929836546 0 -2.4356279929836546 -7.7666763028760215 0 0 0 0 -3.7743335173818195 -2.3522233866308397 0 -2.3522233866308397 -7.7979787792744446 0 0 0 0 -6.6339561926351962 1.5074101106125681 0 1.5074101106125681 -1.7534006516128784 0 0 0 0 -2.819428249311386 0.55031520446175364 0 0.55031520446175364 -1.700693042593457 0 0 0 0 -6.7111285936407512 5.6005689984065157 0 5.6005689984065157 6.3953060850782322 0 0 0 0 -3.6136825283165308 3.4623457923058254 0 3.4623457923058254 -3.9631212658804884 0 0 0 0 -18.853075340417945 -10.13347016456828 0 -10.13347016456828 -6.2540760918850538 0 0 0 0 -5.8272694495879023 -4.9889511718098163 0 -4.9889511718098163 -11.754722791634094 0 0 0 0 -39.757690841384829 -7.6328404643261649 0 -7.6328404643261649 9.6385386012661911 0 0 0 0 -49.084829891909067 7.4563280734183763 0 7.4563280734183763 9.3455991196461241 0 0 0 0 -78.260924985577731 26.850108246739694 0 26.850108246739694 2.5213992924137756 0 0 0 0 -24.583009451296675 -27.111035231966355 0 -27.111035231966355 -13.056395009902758 0 0 0 0 -82.690545719365218 -11.519884577448863 0 -11.519884577448863 9.8406532259259905 0 0 0 0 -0.89957759684385508 -0.049902631215488824 0 -0.049902631215488824 -0.086319352842651687 0 0 0 0 -64.694124136484788 23.034638584742027 0 23.034638584742027 -35.584508107324723 0 0 0 0 -61.343628980394442 -11.610313674713836 0 -11.610313674713836 -60.131170121090236 0 0 0 0 -115.58904056676693 13.926063294207324 0 13.926063294207324 22.6527503221314 0 0 0 0 19.893652456294149 -47.519881172744931 0 -47.519881172744931 -109.68193786504503 0 0 0 0 -2.4092597358926575 -1.0062634510823369 0 -1.0062634510823369 -0.3559699561217744 0 0 0 0 -97.165596844055472 17.593645771961292 0 17.593645771961292 4.3378363121287293 0 0 0 0 -268.97303098589691 -255.7174109703501 0 -255.7174109703501 108.0830821899076 0 0 0 0 -87.604354488000808 -14.683724074630732 0 -14.683724074630732 15.630734044049632 0 0 0 0 -39.108387704217421 5.3823293068039675 0 5.3823293068039675 43.883519830027126 0 0 0 0 -123.21036573236779 7.3612774757659736 0 7.3612774757659736 22.630180539395834 0 0 0 0 78.810391015869754 229.58059160592117 0 229.58059160592117 -18.099811048933589 0 0 0 0 -27.694861842006031 3.0011395723963767 0 3.0011395723963767 2.1777364603369671 0 0 0 0 -28.458064675988865 5.9589943675362989 0 5.9589943675362989 29.576264066942258 0 0 0 0 -29.109877684732055 -6.5288282604312826 0 -6.5288282604312826 5.7769816075956442 0 0 0 0 -26.775603203026435 -7.4273608079687392 0 -7.4273608079687392 3.8221767137911229 0 0 0 0 -27.516675300594443 -7.1671918287586323 0 -7.1671918287586323 5.2273408839873809 0 0 0 0 -24.28210533967945 1.5006558599418671 0 1.5006558599418671 2.8011731643899083 0 0 0 0 -2.6175530986249882 -0.22042262977855576 0 -0.22042262977855576 0.3275784179282627 0 0 0 0 11.783405733839572 32.379172070935056 0 32.379172070935056 19.672908300297706 0 0 0 0 -3.8901243512818837 6.6063307177249726 0 6.6063307177249726 -3.163642333991902 0 0 0 0 -6.4168475308761117 0.75574358309290801 0 0.75574358309290801 11.642519208039232 0 0 0 0 28.971320279244537 -10.986991715361114 0 -10.986991715361114 -23.876116693901622 0 0 0 0 -36.591139416774013 -20.793529064121344 0 -20.793529064121344 5.3149046394653396 0 0 0 0 -58.565102102043738 -14.571261036589306 0 -14.571261036589306 7.5196074052792028 0 0 0 0 -54.156350097381619 -20.92038392128984 0 -20.92038392128984 12.579610326124111 0 0 0 0 -50.466885524451754 -26.735022854993076 0 -26.735022854993076 -10.799366582189009 0 0 0 0 -48.712735265434617 -33.364605441316058 0 -33.364605441316058 -7.7024260876687549 0 0 0 0 -17.492658794723866 -22.221079610722427 0 -22.221079610722427 -10.557497475947029 0 0 0 0 -18.769267314065758 -20.767998010065753 0 -20.767998010065753 -0.67303188213668363 0 0 0 0 -24.912657217288597 -30.828347632505483 0 -30.828347632505483 -10.564720268113236 0 0 0 0 -28.512508056111017 -13.326221807413845 0 -13.326221807413845 14.628113947926977 0 0 0 0 -28.421973238040408 -13.33928901815824 0 -13.33928901815824 -1.5724303081633479 0 0 0 0 -39.694281548971958 -22.820837452014075 0 -22.820837452014075 7.5763639631600199 0 0 0 0 -44.552668332816893 -8.5711695147252271 0 -8.5711695147252271 23.161105879295974 0 0 0 0 -40.153409004003151 -10.376667409410629 0 -10.376667409410629 23.85308081104472 0 0 0 0 -48.454607850237153 2.2857544934956877 0 2.2857544934956877 37.20643805207078 0 0 0 0 -24.844057924066874 -3.7110765660108882 0 -3.7110765660108882 37.614777761983532 0 0 0 0 -11.527895752387394 8.1223424485342548 0 8.1223424485342548 25.617327127742101 0 0 0 0 -50.201831486780065 0.38767216319570252 0 0.38767216319570252 26.480973051847911 0 0 0 0 -23.034080707107933 10.109473421492567 0 10.109473421492567 27.664819286804232 0 0 0 0 -28.879545419712993 2.8880133818261955 0 2.8880133818261955 2.5175376537151584 0 0 0 0 -98.33345353531513 12.512167032088144 0 12.512167032088144 182.59853417381231 0 0 0 0 -44.042061588702836 12.001165795802535 0 12.001165795802535 48.198029076873581 0 0 0 0 -34.376853947487916 35.386237076892371 0 35.386237076892371 55.194094684256015 0 0 0 0 -26.669291960033433 32.864726199565922 0 32.864726199565922 -25.829513483254573 0 0 0 0 -34.94627818201252 21.748847855024906 0 21.748847855024906 12.386998827359321 0 0 0 0 -57.445569426726252 11.589815489230091 0 11.589815489230091 9.5729625530819931 0 0 0 0 -45.286057055307197 3.9330153439560718 0 3.9330153439560718 11.804893052106308 0 0 0 0 -51.892400079319032 11.527876298182605 0 11.527876298182605 -9.1478540635816898 0 0 0 0 -62.903908105272421 -23.150845579635984 0 -23.150845579635984 -4.840324547400769 0 0 0 0 -81.938023817017893 -1.2529218202815855 0 -1.2529218202815855 11.369745636708714 0 0 0 0 -82.685883193415975 -17.268718468508837 0 -17.268718468508837 -6.5685013719847234 0 0 0 0 -99.293650321477116 -29.890900249938312 0 -29.890900249938312 -15.769929591232767 0 0 0 0 -112.14198074936678 19.94041170493918 0 19.94041170493918 -9.1207395786627785 0 0 0 0 -51.558742344096572 31.112353085856967 0 31.112353085856967 -43.269870929958188 0 0 0 0 -89.989870993907971 -29.089261806254967 0 -29.089261806254967 -19.909449051416118 0 0 0 0 -54.17726976610993 34.484178178363081 0 34.484178178363081 -25.473052260365421 0 0 0 0 0.45984422082275067 0.43873248847164703 0 0.43873248847164703 0.66969600337087687 0 0 0 0 6.3053487031115765 59.181007496331311 0 59.181007496331311 48.710887738248246 0 0 0 0 61.44067968272293 -11.280906104362018 0 -11.280906104362018 -58.16535501777571 0 0 0 0 -364.14345777744165 -239.88852352666731 0 -239.88852352666731 222.5095143781765 0 0 0 0 -209.12417161646363 130.10976477685466 0 130.10976477685466 -62.316898738436691 0 0 0 0 -0.076602041607074511 0.060624983878608596 0 0.060624983878608596 0.098175634878897078 0 0 0 0 -275.94243158800305 -10.2298704239237 0 -10.2298704239237 107.00490414468311 0 0 0 0 -15.496278686378446 -40.388193820982792 0 -40.388193820982792 -48.357895606204941 0 0 0 0 -104.51231661278507 -134.21311203320101 0 -134.21311203320101 -44.985321942564461 0 0 0 0 -31.823299793313709 -19.241469709846797 0 -19.241469709846797 109.60398523348346 0 0 0 0 -63.140570726312717 -8.1575971354552621 0 -8.1575971354552621 -7.0301844759748064 0 0 0 0 -62.876062635546987 -52.426150917910206 0 -52.426150917910206 105.33059587502311 0 0 0 0 -36.458837210326465 -50.101581549709664 0 -50.101581549709664 -70.84690930496447 0 0 0 0 -90.124946136003018 -44.578130147172374 0 -44.578130147172374 -26.796955288168192 0 0 0 0 0.56660842847318804 -0.91416030894003986 0 -0.91416030894003986 0.41516503980233316 0 0 0 0 -59.733268369651796 -39.197384168872929 0 -39.197384168872929 -27.306651074630508 0 0 0 0 -0.092383160219696947 -4.5153275828849075 0 -4.5153275828849075 -20.414177944363018 0 0 0 0 -12.972469898581039 -23.043469985003583 0 -23.043469985003583 -19.165024846346796 0 0 0 0 -5.4830414347334226 -19.321874707184463 0 -19.321874707184463 -46.002858827245177 0 0 0 0 -36.673682368307936 -42.027030838279302 0 -42.027030838279302 -30.623527298078898 0 0 0 0 97.59253485995238 -36.422068160105802 0 -36.422068160105802 -35.55975476637218 0 0 0 0 43.059593523032873 26.73761634361319 0 26.73761634361319 -8.0045920257462058 0 0 0 0 59.271103300341565 -19.59784992880374 0 -19.59784992880374 96.118751857130519 0 0 0 0 0.92987023946471359 0.58984973251547501 0 0.58984973251547501 -0.81807283878320669 0 0 0 0 104.0150925788771 -67.477665608467021 0 -67.477665608467021 30.544008187242582 0 0 0 0 -19.707048204303874 -6.6103532863751298 0 -6.6103532863751298 17.493517622657464 0 0 0 0 -18.723281326665528 -11.424657201330902 0 -11.424657201330902 8.0067259468974612 0 0 0 0 -10.991272885240733 -80.914108268111477 0 -80.914108268111477 24.628987473505958 0 0 0 0 -6.2118729255049221 -3.8246408885652343 0 -3.8246408885652343 -1.433827477966656 0 0 0 0 62.342014798769696 -82.146195662144692 0 -82.146195662144692 15.772333514921002 0 0 0 0 -1.4502930839601431 0.28809047454050773 0 0.28809047454050773 0.57732685454291266 0 0 0 0 2.8064889897186731 11.115213124521802 0 11.115213124521802 -3.6143879819695712 0 0 0 0 -65.759090402020774 52.434468569475257 0 52.434468569475257 -29.58346619951692 0 0 0 0 -10.35181328410863 -3.6353205328926492 0 -3.6353205328926492 -3.1468126397766127 0 0 0 0 -47.063410045366254 12.598927009002693 0 12.598927009002693 1.1503620558467134 0 0 0 0 -78.330353346731044 -13.566103916887982 0 -13.566103916887982 33.877260946662432 0 0 0 0 -5.3279141294688088 -2.2810197527729201 0 -2.2810197527729201 1.4416553589204852 0 0 0 0 -28.605039393517472 -12.461162940353574 0 -12.461162940353574 9.2480296751167543 0 0 0 0 -41.754134777128456 -19.620138178568766 0 -19.620138178568766 16.315380640552178 0 0 0 0 -8.2656493818354164 -16.150006878027405 0 -16.150006878027405 1.8352919160620331 0 0 0 0 -8.2462337501795275 -15.670574719888297 0 -15.670574719888297 9.6222798401531691 0 0 0 0 -70.22939400667974 -18.260917103205429 0 -18.260917103205429 32.182691491757112 0 0 0 0 -36.725608849082164 -29.880647074647868 0 -29.880647074647868 25.763208410755897 0 0 0 0 -47.784085437342014 -31.910628209172316 0 -31.910628209172316 25.882795368501775 0 0 0 0 -36.424270455035185 -36.823734321738584 0 -36.823734321738584 22.874723567733895 0 0 0 0 -5.2699136773348982 -35.748423226691244 0 -35.748423226691244 18.995660060896626 0 0 0 0 -70.999094330230037 -45.643211333490967 0 -45.643211333490967 33.884152461810785 0 0 0 0 -64.941791714132705 -40.05980930645751 0 -40.05980930645751 32.653678478053919 0 0 0 0 -77.341847930528047 -42.104936769166436 0 -42.104936769166436 43.305676980983321 0 0 0 0 -89.593763180460883 -40.273060899709208 0 -40.273060899709208 43.459963284248744 0 0 0 0 -92.086963665816427 -71.240757377935225 0 -71.240757377935225 50.635575879205362 0 0 0 0 -136.3612218588587 -30.792246413281021 0 -30.792246413281021 42.448249913535619 0 0 0 0 -53.029154879734961 -41.526536321838591 0 -41.526536321838591 39.864102743170179 0 0 0 0 -121.94220159791894 -44.719025447568754 0 -44.719025447568754 50.221321429693546 0 0 0 0 -98.198909426759201 1.0931534392904325 0 1.0931534392904325 36.829501784738568 0 0 0 0 -180.37455548680919 4.6405649702128358 0 4.6405649702128358 39.264552149884423 0 0 0 0 7.3839290584905939 -14.767984428484453 0 -14.767984428484453 -20.692289346527389 0 0 0 0 -182.65828152286485 91.680885725757719 0 91.680885725757719 -39.444387755072455 0 0 0 0 -2.1977387919327747 -1.2812282396718777 0 -1.2812282396718777 -0.8872264873617095 0 0 0 0 -137.41964319485669 -34.487188270972638 0 -34.487188270972638 35.586646024514039 0 0 0 0 -298.90794436232818 -19.922411028304481 0 -19.922411028304481 37.886887351013002 0 0 0 0 -98.832963228692506 -77.246228276967315 0 -77.246228276967315 15.871855108286695 0 0 0 0 -12.771251843846585 -8.3610659932755311 0 -8.3610659932755311 0.35255193757075176 0 0 0 0 -125.40361386495897 -119.9167462097256 0 -119.9167462097256 -77.424202875908307 0 0 0 0 -26.607075521260867 2.2457812508428674 0 2.2457812508428674 10.670157595893556 0 0 0 0 0.19674298262543743 44.850657539284498 0 44.850657539284498 73.741777944265479 0 0 0 0 0.51153740797430203 0.31002497083719405 0 0.31002497083719405 1.2982222920872628 0 0 0 0 15.557512857220445 -44.959005820925654 0 -44.959005820925654 76.527772507646688 0 0 0 0 34.85127736537379 18.511080896670947 0 18.511080896670947 66.359911430146951 0 0 0 0 -55.015754867198666 -42.668671752783951 0 -42.668671752783951 110.17370120732434 0 0 0 0 -30.66982436051876 -77.64835408875183 0 -77.64835408875183 61.192223078328198 0 0 0 0 -63.555025288347451 -55.682394824130157 0 -55.682394824130157 35.999065523368472 0 0 0 0 -46.519780412769251 -57.208598680829567 0 -57.208598680829567 36.065391301876446 0 0 0 0 -78.578332649689855 -29.661193809084807 0 -29.661193809084807 45.902299798298031 0 0 0 0 -41.34560986656561 -17.612710126842273 0 -17.612710126842273 7.3771498451160937 0 0 0 0 -38.849729968602333 -49.612725920424282 0 -49.612725920424282 21.902668841898958 0 0 0 0 -74.546820697727981 -7.3237790840935872 0 -7.3237790840935872 0.84715411308670241 0 0 0 0 -86.622361584945338 -46.41347272619268 0 -46.41347272619268 11.022946666335635 0 0 0 0 -0.17298466825347525 0.098964573244865406 0 0.098964573244865406 0.48628750933019482 0 0 0 0 -4.2055498615115994 72.46392158936834 0 72.46392158936834 71.264827023255521 0 0 0 0 -30.484479862438207 8.9664945701634977 0 8.9664945701634977 69.08520027931047 0 0 0 0 -52.686310438837609 44.203513449822253 0 44.203513449822253 104.29398034872048 0 0 0 0 -29.324557265444128 2.2844840099203907 0 2.2844840099203907 107.42351291610606 0 0 0 0 -34.487958831765354 -4.6362329296298412 0 -4.6362329296298412 78.552295385314608 0 0 0 0 -11.689857805906513 -5.6101117939476239 0 -5.6101117939476239 19.362360633967455 0 0 0 0 -16.043574512357736 -0.66932642305408763 0 -0.66932642305408763 15.359869854597491 0 0 0 0 -13.052872093129736 -0.23575818879805865 0 -0.23575818879805865 14.379115644551405 0 0 0 0 -2.1966775323627017 1.3025223389213236 0 1.3025223389213236 3.5118543048937223 0 0 0 0 -12.583311068524381 -2.8773684590491087 0 -2.8773684590491087 11.209917410314574 0 0 0 0 2.422719516709094 -18.40724639224328 0 -18.40724639224328 23.297452856337088 0 0 0 0 15.298810246296853 25.593487848497102 0 25.593487848497102 1.5819562459567251 0 0 0 0 26.012413650753615 37.149570377725659 0 37.149570377725659 12.511159589728095 0 0 0 0 9.560439897910328 35.72432021859796 0 35.72432021859796 4.422376928406071 0 0 0 0 -1.1157872658795895 -1.7692086570860113 0 -1.7692086570860113 61.358262493587425 0 0 0 0 -1.8190255129838988 4.4570274900622593 0 4.4570274900622593 6.2332894523455025 0 0 0 0 -19.00062851869734 -2.9561129847226084 0 -2.9561129847226084 11.686354505584806 0 0 0 0 -28.646290016827379 6.1886816981248671 0 6.1886816981248671 11.178243296442844 0 0 0 0 -17.185608388156197 1.3900758324571925 0 1.3900758324571925 8.1160133085492987 0 0 0 0 -2.7650249685079089 3.3504091160667602 0 3.3504091160667602 2.7079960000293908 0 0 0 0 -15.968792966487626 2.5199573578120535 0 2.5199573578120535 -1.2295306878300494 0 0 0 0 -11.485871254072148 0.93444063124320298 0 0.93444063124320298 1.7969401346970777 0 0 0 0 -13.554997420101245 10.140682681087242 0 10.140682681087242 0.25672826199797782 0 0 0 0 -21.997381760921144 30.377540356929558 0 30.377540356929558 15.290507255997113 0 0 0 0 12.47824348685981 -7.4285410624361816 0 -7.4285410624361816 2.1195874401934134 0 0 0 0 -21.869731988184867 -8.6722622099131286 0 -8.6722622099131286 18.057709626399799 0 0 0 0 -27.618555312812525 1.3292110453973962 0 1.3292110453973962 3.0527612272021725 0 0 0 0 -30.779392498478217 -4.8086884796363236 0 -4.8086884796363236 9.6866800759199805 0 0 0 0 -30.236340747873328 -2.3597584220719909 0 -2.3597584220719909 15.843475849941228 0 0 0 0 -41.441815561038311 -4.8513898250644161 0 -4.8513898250644161 16.547100512258908 0 0 0 0 -10.728911395120349 0.96306579292320293 0 0.96306579292320293 2.8431369869775267 0 0 0 0 -5.8040001173433753 1.7463333142786071 0 1.7463333142786071 1.1158596751307222 0 0 0 0 -14.898681606389346 -3.3148425267493735 0 -3.3148425267493735 9.1934233884614969 0 0 0 0 -19.031379019139024 3.2697865986383903 0 3.2697865986383903 1.5897107095824481 0 0 0 0 -12.72111571947098 -2.7103529834718385 0 -2.7103529834718385 1.9108212917476659 0 0 0 0 -14.292424645759183 3.049520778371857 0 3.049520778371857 -0.96257211515091967 0 0 0 0 -17.213658302576164 2.2148476076404222 0 2.2148476076404222 -0.53948437894962353 0 0 0 0 -14.115152997254 3.688788495612016 0 3.688788495612016 -0.016797993225736718 0 0 0 0 -12.526215221161266 3.9992483945726747 0 3.9992483945726747 -0.52248882494745885 0 0 0 0 -13.944906216373624 3.7110258769894813 0 3.7110258769894813 -0.1293144671230948 0 0 0 0 -13.515238655541111 2.9373054599291777 0 2.9373054599291777 -0.59192668654125669 0 0 0 0 -12.878347469072247 4.3675449871117635 0 4.3675449871117635 -0.38717351391447097 0 0 0 0 -13.446517780014346 -0.080960929005755133 0 -0.080960929005755133 15.263463524922429 0 0 0 0 -14.463042609905244 5.3739371181469693 0 5.3739371181469693 1.7253645101632742 0 0 0 0 -12.044331216722298 4.2238809731005205 0 4.2238809731005205 -0.51312675236403038 0 0 0 0 -17.745666256375159 4.2052054923691458 0 4.2052054923691458 1.3139129195449755 0 0 0 0 -11.850767753570608 4.8499673043681923 0 4.8499673043681923 -1.0731657623618958 0 0 0 0 -12.622150506519688 3.7499324998205168 0 3.7499324998205168 0.36924275976898002 0 0 0 0 -12.595043538478667 3.0624975313708553 0 3.0624975313708553 -1.6749013140750435 0 0 0 0 -12.285147064380794 3.9643776320188238 0 3.9643776320188238 -0.71689398377225189 0 0 0 0 -14.866656938178529 2.4409703050738329 0 2.4409703050738329 -0.44268562567069125 0 0 0 0 -6.8522997214984942 5.0958838328122305 0 5.0958838328122305 -0.30490294612144841 0 0 0 0 -20.866383162630427 2.0200423008912622 0 2.0200423008912622 2.2122472776955817 0 0 0 0 -6.0149435954367618 0.46663932882022596 0 0.46663932882022596 -1.3056742741089664 0 0 0 0 -3.9776877792505729 -1.6073305572134764 0 -1.6073305572134764 -2.1904633784063421 0 0 0 0 -3.6857317152881848 -0.62816142009375575 0 -0.62816142009375575 0.082638467705050456 0 0 0 0 -11.655041231610994 0.51398321432029093 0 0.51398321432029093 1.2560779625443672 0 0 0 0 -5.1036606780845277 6.2784433900220993 0 6.2784433900220993 -1.3805120596130753 0 0 0 0 -10.29708627677519 5.2397144195095962 0 5.2397144195095962 3.1204045389630153 0 0 0 0 -12.011982051845521 3.9691735871724578 0 3.9691735871724578 -0.32789771991042471 0 0 0 0 -9.4667428041721777 4.0495526882208353 0 4.0495526882208353 -0.30313302897612626 0 0 0 0 -10.333142714230249 7.0918043400614224 0 7.0918043400614224 1.9387874061250443 0 0 0 0 -11.837224450360086 5.09387851592128 0 5.09387851592128 -1.2292777709226135 0 0 0 0 -3.1457506389165246 16.531529548452305 0 16.531529548452305 -11.201108408514312 0 0 0 0 18.224870967065044 37.249709470050192 0 37.249709470050192 12.337458413692275 0 0 0 0 -9.1202487301757831 4.2931357717621861 0 4.2931357717621861 -1.1805400052230486 0 0 0 0 -4.4454681416956134 3.639994663547867 0 3.639994663547867 1.6338713285672384 0 0 0 0 -23.662755189779318 8.024767886354903 0 8.024767886354903 9.3373985988564634 0 0 0 0 18.650182018082432 16.979264455278553 0 16.979264455278553 27.045614995541541 0 0 0 0 -10.335225896886641 29.850876148168709 0 29.850876148168709 38.636068384227428 0 0 0 0 4.4984754507745492 52.526095804466337 0 52.526095804466337 52.713029989737493 0 0 0 0 -11.939055081770988 4.1201983531126558 0 4.1201983531126558 -0.51865830387571066 0 0 0 0 -11.540917132385459 5.4817288930366317 0 5.4817288930366317 0.95788049814368037 0 0 0 0 -13.257539689892013 3.6952859627198689 0 3.6952859627198689 -1.0293091778568266 0 0 0 0 -18.58951222167525 14.338095492099455 0 14.338095492099455 42.929177710315912 0 0 0 0 -51.422131433891082 -2.3276515685689674 0 -2.3276515685689674 35.787869924748179 0 0 0 0 -14.374569393259662 -6.1472878302979552 0 -6.1472878302979552 21.310279099989202 0 0 0 0 -102.54714088434457 1.4130487049858402 0 1.4130487049858402 54.876679814911995 0 0 0 0 -53.844078844318574 27.239406954466517 0 27.239406954466517 26.078606379501906 0 0 0 0 -0.38846044724533968 0.36714147467067271 0 0.36714147467067271 -0.034271820458991797 0 0 0 0 95.788607404575487 80.688455155040288 0 80.688455155040288 5.7187101511437959 0 0 0 0 -101.45771811971326 -30.389185551132528 0 -30.389185551132528 35.495888652952772 0 0 0 0 -8.5734447115319199 33.732148732281132 0 33.732148732281132 45.679394094971371 0 0 0 0 -61.526567534200694 -4.5331490925476601 0 -4.5331490925476601 18.506888944346144 0 0 0 0 -54.471534589185922 28.946693952071882 0 28.946693952071882 68.33439345988927 0 0 0 0 -59.941291054945395 35.412070356615459 0 35.412070356615459 61.241380877684165 0 0 0 0 -62.732697893616205 38.599722133941896 0 38.599722133941896 75.9865468607818 0 0 0 0 -28.262075501307208 43.714067968772014 0 43.714067968772014 42.024110560864415 0 0 0 0 -62.46698637245845 41.964465992876171 0 41.964465992876171 69.760507469594245 0 0 0 0 -26.896515895963262 38.309934927692396 0 38.309934927692396 55.873460539205325 0 0 0 0 -50.859282840645392 48.690863083535703 0 48.690863083535703 56.861426329272945 0 0 0 0 -71.231355053416337 1.1004467426964766 0 1.1004467426964766 23.970395082175202 0 0 0 0 -0.28332252087538556 0.27425103188322719 0 0.27425103188322719 0.15112320549517078 0 0 0 0 -58.56286415440718 -34.959611458955465 0 -34.959611458955465 47.471812439443227 0 0 0 0 -27.565810263000685 39.662137437759796 0 39.662137437759796 73.336826330976123 0 0 0 0 89.612088005943633 104.76686646936975 0 104.76686646936975 51.76002091469195 0 0 0 0 -0.80121513350536766 0.69391752791139627 0 0.69391752791139627 0.24239845355289846 0 0 0 0 -0.28032821972624333 67.098138345919125 0 67.098138345919125 63.27402843978939 0 0 0 0 34.876101384491449 -5.8893737592027264 0 -5.8893737592027264 7.6585994169986975 0 0 0 0 3.8115056759200883 51.853984673712965 0 51.853984673712965 79.666163399062043 0 0 0 0 -3.1840516698946431 59.225873086010012 0 59.225873086010012 75.51646964248016 0 0 0 0 -0.82029887173836435 0.60880610867915497 0 0.60880610867915497 -0.64660891715281199 0 0 0 0 21.931201184572728 -18.170457822149132 0 -18.170457822149132 -28.154568007897652 0 0 0 0 3.2121801517787389 64.716177233029384 0 64.716177233029384 70.567024488747847 0 0 0 0 -10.57228867016147 75.866430825848965 0 75.866430825848965 62.799358756511197 0 0 0 0 103.91892953664393 5.3337312355450166 0 5.3337312355450166 -53.484221184836088 0 0 0 0 -28.425475326213927 8.433894295543837 0 8.433894295543837 26.411641907076444 0 0 0 0 -8.0290888903597892 5.1927975023188342 0 5.1927975023188342 -0.95963522087766351 0 0 0 0 -28.69845814665392 64.526344420368517 0 64.526344420368517 -3.4804859824777168 0 0 0 0 -7.7583934403164108 -0.022721026215663187 0 -0.022721026215663187 -2.2122144284517447 0 0 0 0 -8.1141444078814562 1.988474119818324 0 1.988474119818324 -0.45993111859859714 0 0 0 0 -10.595093856398378 0.39552971673612092 0 0.39552971673612092 21.517633005422937 0 0 0 0 2.3741209622487673 -24.262588458681563 0 -24.262588458681563 -27.709090249319217 0 0 0 0 -33.719357637693037 -16.15507866585358 0 -16.15507866585358 12.608646267842403 0 0 0 0 -4.9868395870812119 5.5084477801009504 0 5.5084477801009504 -1.8500981962722642 0 0 0 0 13.734630455231411 40.130515768906356 0 40.130515768906356 3.3793789118350333 0 0 0 0 20.49676460167899 0.52058405539236219 0 0.52058405539236219 -4.7423317817987538 0 0 0 0 27.075240201224005 1.9137081171724937 0 1.9137081171724937 -7.8178403169912611 0 0 0 0 60.720255756501842 112.8519700088257 0 112.8519700088257 64.146120655115283 0 0 0 0 0.5409398202812028 2.6143384943616588 0 2.6143384943616588 -2.8036255235165544 0 0 0 0 -11.532624021559471 55.438123927636433 0 55.438123927636433 -19.846848381860223 0 0 0 0 -50.08407407668291 0.89835048278220775 0 0.89835048278220775 -9.3886279426281334 0 0 0 0 -5.8634975105479779 5.5213196054425859 0 5.5213196054425859 -0.85275629037528689 0 0 0 0 3.0967581690505179 1.0889413704250592 0 1.0889413704250592 -1.1438111502296362 0 0 0 0 -51.673374738830717 71.527065423397516 0 71.527065423397516 81.538479858469572 0 0 0 0 -500.09395514563528 11.776348019353049 0 11.776348019353049 110.39798251647942 0 0 0 0 -342.14934994296198 78.027026073550843 0 78.027026073550843 74.811812490877671 0 0 0 0 -205.58719840110163 37.295158637860041 0 37.295158637860041 38.591721348522952 0 0 0 0 -232.45713468771859 -11.295042807093512 0 -11.295042807093512 16.989641916225168 0 0 0 0 -231.37088388377015 136.64204167390022 0 136.64204167390022 -60.236627265625089 0 0 0 0 -498.96301857509712 204.75041147305325 0 204.75041147305325 33.474611592539723 0 0 0 0 -291.33261669648499 74.801699223648257 0 74.801699223648257 74.836578671115305 0 0 0 0 -143.9085305688894 188.2678125057665 0 188.2678125057665 -189.00461266935699 0 0 0 0 -4.6313162731337911 10.147803702603142 0 10.147803702603142 -73.872124953431808 0 0 0 0 -498.88031665427866 -290.44220303836704 0 -290.44220303836704 -111.26261106547604 0 0 0 0 -3.2940785961347379 0.7789398820260347 0 0.7789398820260347 -0.53351233118546471 0 0 0 0 -184.25588325030822 -97.943567610095712 0 -97.943567610095712 6.3840960635346526 0 0 0 0 -500.1903812957612 -172.273676683274 0 -172.273676683274 29.059519065939782 0 0 0 0 -282.97213246270371 -23.669005772129829 0 -23.669005772129829 64.369118669618715 0 0 0 0 -158.99708658094653 -79.550284903388231 0 -79.550284903388231 -23.668537635626336 0 0 0 0 -138.09544618541702 -29.768127703078424 0 -29.768127703078424 1.0949991284766867 0 0 0 0 -41.560081954540237 24.580666806803016 0 24.580666806803016 -1.6980012909394873 0 0 0 0 -155.07613340620446 -16.579621460104335 0 -16.579621460104335 -4.9479343031937901 0 0 0 0 -38.985947466862854 -5.9845293599692546 0 -5.9845293599692546 -18.14416272270914 0 0 0 0 -42.084739027363412 -4.6489883030725636 0 -4.6489883030725636 -31.214134167455143 0 0 0 0 -248.12298436873425 34.296243786128372 0 34.296243786128372 29.229782452279437 0 0 0 0 -117.19101328161923 55.566117908180175 0 55.566117908180175 5.4657856024709588 0 0 0 0 -4.3759586735890821 3.7076644265137251 0 3.7076644265137251 -25.18857495203126 0 0 0 0 -39.183836968026071 5.6894964982596008 0 5.6894964982596008 3.239981863446971 0 0 0 0 -9.1111743465066866 -2.7871976811048427 0 -2.7871976811048427 -3.3206686091998279 0 0 0 0 -4.1679897709549589 -1.8706071511453803 0 -1.8706071511453803 -0.45903269945856284 0 0 0 0 -5.7036960603772968 -4.0609089505690941 0 -4.0609089505690941 -0.72900871465753436 0 0 0 0 -2.7618728720541275 -0.69560766394892681 0 -0.69560766394892681 0.03738809410184335 0 0 0 0 -44.158104500925788 50.979045015465204 0 50.979045015465204 -30.003599470284176 0 0 0 0 -200.55451091109899 43.59784307890002 0 43.59784307890002 31.25786242147089 0 0 0 0 -199.85371570665075 28.886004208767083 0 28.886004208767083 5.1602928007593079 0 0 0 0 -499.77304162845462 61.546950981879014 0 61.546950981879014 80.306442200772906 0 0 0 0 -374.04240835283235 59.951541277510465 0 59.951541277510465 67.261273981416878 0 0 0 0 -407.79879735066856 -0.31199567340532752 0 -0.31199567340532752 66.590045290342289 0 0 0 0 -252.55542018325923 -23.531754618985438 0 -23.531754618985438 62.343907096195679 0 0 0 0 -12.978846511692609 -9.8744025289931585 0 -9.8744025289931585 -13.525690271131765 0 0 0 0 -35.395184257341953 3.9294609419583821 0 3.9294609419583821 -21.493011063306994 0 0 0 0 -45.761010552301741 27.515889569406184 0 27.515889569406184 -26.073686864446472 0 0 0 0 -10.820109693388844 18.535203996072379 0 18.535203996072379 -36.041602645535761 0 0 0 0 -27.856044827477945 10.907535476375358 0 10.907535476375358 -15.803919844975667 0 0 0 0 -17.179865767390766 -12.907872955243192 0 -12.907872955243192 -19.236185852927917 0 0 0 0 -11.020703425552256 -0.80513596102341012 0 -0.80513596102341012 -3.3508101290096874 0 0 0 0 -22.299148322452311 -15.567464476595347 0 -15.567464476595347 -8.8116283797383517 0 0 0 0 -29.781820067682929 -11.722098779643176 0 -11.722098779643176 -2.130782838230175 0 0 0 0 -24.838936520501193 -17.301112233763718 0 -17.301112233763718 -9.4770165777014768 0 0 0 0 1.2472440981091495 -28.810663404835566 0 -28.810663404835566 -22.346679196046296 0 0 0 0 -21.846382496163642 -21.750875817552583 0 -21.750875817552583 -8.2937755062266518 0 0 0 0 -37.237104982868914 -29.110205316817598 0 -29.110205316817598 1.2830613746598374 0 0 0 0 -63.589216487418526 -46.179587945796811 0 -46.179587945796811 -7.5395605154056398 0 0 0 0 -35.207911420292476 -10.174469702988809 0 -10.174469702988809 5.588369765860989 0 0 0 0 -118.18560562642233 -7.4119724857549727 0 -7.4119724857549727 38.537987640073538 0 0 0 0 -0.37613563941704342 -0.22275594590910286 0 -0.22275594590910286 -0.057992666205142762 0 0 0 0 -72.665153015570468 0.6693835870763678 0 0.6693835870763678 44.090988055375561 0 0 0 0 -20.574538506471072 -41.926438189360141 0 -41.926438189360141 -22.553805858863484 0 0 0 0 -2.4308518956377156 -19.973210395723925 0 -19.973210395723925 24.946258443041188 0 0 0 0 0.23249214928743811 0.71717701058080197 0 0.71717701058080197 -6.0620393427207659 0 0 0 0 6.7444693938241471 10.493468092327049 0 10.493468092327049 -9.2286032825791722 0 0 0 0 -20.497121895188684 -7.973139422409929 0 -7.973139422409929 40.558361815791045 0 0 0 0 -16.022472459855635 8.1391773838090558 0 8.1391773838090558 0.74477969121414844 0 0 0 0 -22.466868099461863 -17.866218904793016 0 -17.866218904793016 -32.156808131094124 0 0 0 0 -66.160266169676106 14.268656767352724 0 14.268656767352724 15.211330736416699 0 0 0 0 -28.577946690428689 36.665151257807878 0 36.665151257807878 -44.238368395680197 0 0 0 0 -67.545867021003232 13.256615637108752 0 13.256615637108752 -45.057846076969611 0 0 0 0 -20.032589125302366 0.90251324445912928 0 0.90251324445912928 -12.524590275733232 0 0 0 0 -476.0679658531044 95.678763850789878 0 95.678763850789878 33.031214466877429 0 0 0 0 -252.39626232931732 78.122429530536863 0 78.122429530536863 -45.311013363776851 0 0 0 0 -1.0244029011435067 -1.1902732938743465 0 -1.1902732938743465 -1.3962271490301317 0 0 0 0 -275.51310632796594 68.531797940335977 0 68.531797940335977 67.56898795614768 0 0 0 0 -75.769951595837483 -17.358872565059528 0 -17.358872565059528 -73.369798657699675 0 0 0 0 -185.95346221673935 -57.408433946045363 0 -57.408433946045363 -186.80476983907639 0 0 0 0 -116.2407218671342 74.461885460460834 0 74.461885460460834 -67.704456969812782 0 0 0 0 -207.77131198043389 72.60204304928277 0 72.60204304928277 -21.621610920757576 0 0 0 0 -97.377108705229148 -117.41370064994413 0 -117.41370064994413 -55.088441439148909 0 0 0 0 -109.54623672530033 46.684344083735198 0 46.684344083735198 17.539971584837645 0 0 0 0 -58.617739553206547 12.8633318815588 0 12.8633318815588 38.742014500319897 0 0 0 0 -85.33328695974069 -7.649011361585309 0 -7.649011361585309 25.822966591330953 0 0 0 0 -61.612536492867548 60.774791116280539 0 60.774791116280539 -56.699335695204525 0 0 0 0 -45.293484983325015 31.727891291439974 0 31.727891291439974 -8.498423913598117 0 0 0 0 -56.006769986981908 16.763764587152281 0 16.763764587152281 8.5657092113544877 0 0 0 0 -64.125210953868191 28.724145032583806 0 28.724145032583806 -8.4960248045263533 0 0 0 0 -71.872738116903292 25.200912127615879 0 25.200912127615879 18.285389661137742 0 0 0 0 -55.01635140743474 6.4309772088445811 0 6.4309772088445811 19.05770282585506 0 0 0 0 -75.541780012310483 10.911365392426632 0 10.911365392426632 8.852715782401674 0 0 0 0 -22.053596893651047 -30.399946422429935 0 -30.399946422429935 40.609001907339916 0 0 0 0 -58.214358097315198 8.1690849275934738 0 8.1690849275934738 28.992552578472171 0 0 0 0 -59.40050311765981 6.7673126937840777 0 6.7673126937840777 28.124163104394256 0 0 0 0 -17.155906424606655 -12.733387586923868 0 -12.733387586923868 23.520676556357671 0 0 0 0 -9.2252234697816675 -6.6143948885454051 0 -6.6143948885454051 11.55761645964958 0 0 0 0 0.62018170840019593 -15.052210676875234 0 -15.052210676875234 9.769961667929465 0 0 0 0 -48.501159451832336 12.713156084765473 0 12.713156084765473 11.786700692918316 0 0 0 0 -11.306364223089702 1.5239120567167852 0 1.5239120567167852 0.24127313104816039 0 0 0 0 -5.5020123102358411 -7.3432598523146169 0 -7.3432598523146169 5.1746330323054508 0 0 0 0 -9.1108331961495423 -6.4070738946921892 0 -6.4070738946921892 12.012230976249498 0 0 0 0 9.2794509333516544 -14.218649627610716 0 -14.218649627610716 5.5090558482845609 0 0 0 0 -12.879269226498764 -9.2684306033298327 0 -9.2684306033298327 11.740323656515784 0 0 0 0 3.2853805961731268 -6.4236411520081447 0 -6.4236411520081447 8.8734891242927461 0 0 0 0 -66.361330498066764 20.499489152332075 0 20.499489152332075 9.8713591444330859 0 0 0 0 -51.89827777530445 28.779118846671224 0 28.779118846671224 -0.24041729368781262 0 0 0 0 -87.864222077216255 -6.7567240956533112 0 -6.7567240956533112 -7.164547159302515 0 0 0 0 -84.493872327966528 17.813703365076947 0 17.813703365076947 12.756202658736584 0 0 0 0 -87.23125367592263 -0.20416651872117342 0 -0.20416651872117342 5.9655177929537331 0 0 0 0 -90.268763708905681 17.220929093534721 0 17.220929093534721 -18.145545495091426 0 0 0 0 -84.676252756515112 -18.050157238960793 0 -18.050157238960793 -1.7813830868011564 0 0 0 0 -72.331590936433713 2.7426709074739506 0 2.7426709074739506 5.4203168356071956 0 0 0 0 -34.485507718819463 -9.9749323318226857 0 -9.9749323318226857 -6.3535825696467896 0 0 0 0 -70.402910249732486 6.8282677696534506 0 6.8282677696534506 8.0028446552636723 0 0 0 0 -57.944215806226566 -1.3773766875866045 0 -1.3773766875866045 3.6279281844885531 0 0 0 0 -0.060476138120625134 0.025983462140741764 0 0.025983462140741764 -0.23973086023789314 0 0 0 0 -59.304681304865881 7.5356948958961425 0 7.5356948958961425 -15.398832413049103 0 0 0 0 -10.485889154269671 -0.16265743989590931 0 -0.16265743989590931 3.9474991894319373 0 0 0 0 -11.711309117544261 -4.7965082445659277 0 -4.7965082445659277 -4.3520201305302635 0 0 0 0 -17.249220901323497 3.2815790429667686 0 3.2815790429667686 -16.101545284596114 0 0 0 0 -28.573404987883805 4.7053204847292847 0 4.7053204847292847 -2.782336938037588 0 0 0 0 -21.829881349288371 0.94987155622663977 0 0.94987155622663977 -1.6328563698662037 0 0 0 0 -21.056037311330329 4.1603533057663924 0 4.1603533057663924 1.6056920161470316 0 0 0 0 1.1638466774975313 5.8081414126131108 0 5.8081414126131108 -3.4218771191636961 0 0 0 0 -9.7242359620431671 -4.263333792605124 0 -4.263333792605124 1.5364209428603317 0 0 0 0 -13.501950081841642 4.8065151574418223 0 4.8065151574418223 -1.9431916441086798 0 0 0 0 -0.096011842129151148 0.049983539050831638 0 0.049983539050831638 -0.075793913899715903 0 0 0 0 -32.420687162933973 0.36657655498538588 0 0.36657655498538588 -1.1703777109058819 0 0 0 0 -0.075121861473232965 -0.027513804650663332 0 -0.027513804650663332 -0.62266724116611094 0 0 0 0 -21.681102166618984 -5.9580871028235265 0 -5.9580871028235265 -15.505420198100978 0 0 0 0 -65.620417762600027 -9.7467687561965022 0 -9.7467687561965022 1.6340684294250423 0 0 0 0 -48.077419627597919 -16.856845332024506 0 -16.856845332024506 -17.41240015591984 0 0 0 0 -52.052596421310227 -24.782384137375288 0 -24.782384137375288 -8.3768965730513116 0 0 0 0 -66.803560087350888 -19.884815632838581 0 -19.884815632838581 -2.7462750260731355 0 0 0 0 -0.29072709578994704 0.34263453257318766 0 0.34263453257318766 -0.87429567462340874 0 0 0 0 -77.022171817904564 -45.453553238769729 0 -45.453553238769729 -9.3041138523108202 0 0 0 0 -68.919216944941581 -38.394618191724135 0 -38.394618191724135 -6.1349929172538396 0 0 0 0 -43.29624920466722 -18.906766152653177 0 -18.906766152653177 -16.612477942126134 0 0 0 0 -56.295056211534302 -5.645249346878245 0 -5.645249346878245 -2.8313434884312301 0 0 0 0 -37.018164495646488 -10.312838790668593 0 -10.312838790668593 -9.4802429809269597 0 0 0 0 -37.115336802723704 -8.006407689678646 0 -8.006407689678646 -6.1960443086004489 0 0 0 0 15.970503917485075 -15.431492927673276 0 -15.431492927673276 -19.063689241781958 0 0 0 0 0.74611472132983181 5.8408756294516024 0 5.8408756294516024 -4.6080416180478778 0 0 0 0 -70.124688759068249 12.940636887742414 0 12.940636887742414 16.041193584036591 0 0 0 0 1.7593616777276111 -24.250421122761395 0 -24.250421122761395 -34.76606653644302 0 0 0 0 -0.17609088137961137 -0.24381494592168451 0 -0.24381494592168451 -0.27321386917574397 0 0 0 0 6.308367967405502 -9.4412670909915732 0 -9.4412670909915732 5.2412364414587955 0 0 0 0 -39.94116661436783 -1.027962306584925 0 -1.027962306584925 5.3595972286709639 0 0 0 0 -0.92390978525255818 -0.90590957705650332 0 -0.90590957705650332 -0.83978534145879369 0 0 0 0 -43.187874314963338 -6.7166585015383795 0 -6.7166585015383795 11.349963588047103 0 0 0 0 -19.730336180950871 -18.570066921169087 0 -18.570066921169087 -5.8702489467451642 0 0 0 0 -0.36904916137388177 -0.56209524792728693 0 -0.56209524792728693 -0.66300907633883988 0 0 0 0 -46.452368359285174 75.462609076101671 0 75.462609076101671 53.087209926758533 0 0 0 0 -34.677934595743864 -0.83127222134584144 0 -0.83127222134584144 -32.739443226918411 0 0 0 0 24.7078002047474 -10.137075941369687 0 -10.137075941369687 9.3411411029028386 0 0 0 0 1.9991746870928182 -0.18843658537798547 0 -0.18843658537798547 10.043938527331306 0 0 0 0 0.37680435231231968 -0.21639208288104328 0 -0.21639208288104328 10.03794887385547 0 0 0 0 -0.044837107190845771 -0.016938420744324389 0 -0.016938420744324389 0.15197398822050445 0 0 0 0 -13.393271365714895 1.7828344937931746 0 1.7828344937931746 -7.8722426709809952 0 0 0 0 -41.994765805064873 -90.237337508419074 0 -90.237337508419074 -102.56016227043801 0 0 0 0 6.8908867092168293 -33.295819037320598 0 -33.295819037320598 15.154354295314079 0 0 0 0 -0.23807779015462494 -0.29377890420695252 0 -0.29377890420695252 -0.40139023137893393 0 0 0 0 -0.27804355929150404 -0.2677648185638013 0 -0.2677648185638013 -0.24771255223211242 0 0 0 0 -83.250628757958111 -78.910624282207664 0 -78.910624282207664 -15.168351085819097 0 0 0 0 -12.665263629514101 -60.304516880772134 0 -60.304516880772134 -19.740516944962565 0 0 0 0 -0.36858116227913484 0.55426907336960163 0 0.55426907336960163 -1.9711316592431718 0 0 0 0 -76.54230062982856 -36.411225590608034 0 -36.411225590608034 -10.435869793979919 0 0 0 0 -77.197136564131142 -30.560514769354768 0 -30.560514769354768 -6.5179610708960354 0 0 0 0 -138.20796483294089 -20.553317650157283 0 -20.553317650157283 1.2168992225767568 0 0 0 0 -64.16770093931882 -26.567524966930876 0 -26.567524966930876 -12.169481606063755 0 0 0 0 -74.346936714510321 -25.618270235596952 0 -25.618270235596952 -4.4928950171774886 0 0 0 0 -100.37469557529948 -30.314842329832686 0 -30.314842329832686 -5.2164724943757506 0 0 0 0 -12.158872919382702 -21.769334690225833 0 -21.769334690225833 -39.663876191098552 0 0 0 0 -0.22033239575421071 -0.13239923624083794 0 -0.13239923624083794 -0.35985102616999542 0 0 0 0 -0.31978086281861628 0.43342808424668711 0 0.43342808424668711 -1.4287607346255968 0 0 0 0 -65.000584301234994 -25.532479676360254 0 -25.532479676360254 -29.467869889841495 0 0 0 0 -0.12118834960145186 -0.036272419492599184 0 -0.036272419492599184 -0.12719199791911739 0 0 0 0 -56.642160015873742 3.4292884785461979 0 3.4292884785461979 6.7615690906002328 0 0 0 0 -85.365792004711693 -30.885701734649501 0 -30.885701734649501 5.1946651938953892 0 0 0 0 1.7922481964369581 -6.8686545093960376 0 -6.8686545093960376 -0.3436672349172909 0 0 0 0 -1.2370326052487144 -7.666253829795096 0 -7.666253829795096 11.074331110047751 0 0 0 0 -5.4001618389884243 4.3962323261609981 0 4.3962323261609981 24.425110950852059 0 0 0 0 -0.26166470169710365 -0.55751062413543728 0 -0.55751062413543728 0.069053762471939839 0 0 0 0 1.4561700590820692 3.9099249625446646 0 3.9099249625446646 13.188964627402129 0 0 0 0 -1.6098011293579475 0.17781122931000937 0 0.17781122931000937 17.109050818953619 0 0 0 0 -3.2470846233682096 -3.3657399606297531 0 -3.3657399606297531 10.20541379289125 0 0 0 0 -2.6631978900904869 -3.0660782211809874 0 -3.0660782211809874 6.5262300503086408 0 0 0 0 -2.1107972487625375 -0.67794495955149614 0 -0.67794495955149614 8.7044967437632295 0 0 0 0 1.4881939943191753 2.38853247469142 0 2.38853247469142 10.760884197345604 0 0 0 0 -2.1107972487661755 -0.67794495955286038 0 -0.67794495955286038 8.7044967437609557 0 0 0 0 -5.9807522778664861 -1.3706790105250093 0 -1.3706790105250093 6.4746857404757634 0 0 0 0 -3.9543385580609538 0.94928492542521781 0 0.94928492542521781 8.0350586540239419 0 0 0 0 -5.5195927544491497 -4.5987887510605105 0 -4.5987887510605105 8.5057082280815166 0 0 0 0 -3.9690496058910867 -5.6980041349984845 0 -5.6980041349984845 0.38643596188217089 0 0 0 0 -1.0270191267532027 -7.5555672379690861 0 -7.5555672379690861 1.47937307089569 0 0 0 0 -12.052904662889432 -5.1640642713713305 0 -5.1640642713713305 6.5598764000255869 0 0 0 0 -4.898664275990086 -6.6212633068633977 0 -6.6212633068633977 1.2847799034405512 0 0 0 0 0.27735447424189186 -0.9054811375525702 0 -0.9054811375525702 1.9469518032232935 0 0 0 0 -12.172452796493417 -1.8216043978019911 0 -1.8216043978019911 6.8832974724657561 0 0 0 0 -13.493002209558654 -4.7547778141270101 0 -4.7547778141270101 5.4461727657949268 0 0 0 0 -5.8209522909570524 -2.7378963907805911 0 -2.7378963907805911 -0.38481409054975302 0 0 0 0 -0.14252322914251092 -1.1029899922236002 0 -1.1029899922236002 2.0541536066658139 0 0 0 0 -5.3646551391175308 -3.5819597818829152 0 -3.5819597818829152 3.3515216361326452 0 0 0 0 -0.75463872154014666 -1.6425413376913056 0 -1.6425413376913056 -1.4556883665883795 0 0 0 0 -1.9398152374863002 -6.8865881721468156 0 -6.8865881721468156 1.9790495621161881 0 0 0 0 1.7934503522856176 -0.93343338322461022 0 -0.93343338322461022 -0.072791510257104619 0 0 0 0 -0.2797188004265081 -4.6667622618849123 0 -4.6667622618849123 1.5827957856065495 0 0 0 0 2.9512439962900316 1.0551190519247484 0 1.0551190519247484 0.33278939847286892 0 0 0 0 -4.3956572997590229 3.4213000860236775 0 3.4213000860236775 5.2407317487129603 0 0 0 0 0.26016710156174616 -0.83510278940668314 0 -0.83510278940668314 1.6570420253759943 0 0 0 0 -10.313489275217762 -1.6613238553703127 0 -1.6613238553703127 3.1877266148019316 0 0 0 0 -0.51049462767241494 -4.5972683154273568 0 -4.5972683154273568 0.24576788591798504 0 0 0 0 2.4578612588229589 -2.3675737334264682 0 -2.3675737334264682 -2.0594557492176477 0 0 0 0 -0.30354306963749877 -2.374564946167979 0 -2.374564946167979 0.48362375731460361 0 0 0 0 -4.39190137312454 -3.9293686192394333 0 -3.9293686192394333 -2.1717272349567338 0 0 0 0 -0.28885106438247021 -1.7109283625911758 0 -1.7109283625911758 -5.3809771098540295 0 0 0 0 -0.5109799250631113 -4.7194040355291236 0 -4.7194040355291236 -3.852506135480553 0 0 0 0 -4.6974950261328559 -3.5643458206911873 0 -3.5643458206911873 -0.88699984214849792 0 0 0 0 -0.29710138423615717 0.43939188501781246 0 0.43939188501781246 3.5835989994200759 0 0 0 0 -3.3083181784828639 2.7692302382053811 0 2.7692302382053811 2.5445643388759436 0 0 0 0 -0.34389430179453484 -0.19566854137406153 0 -0.19566854137406153 -2.191220023798337 0 0 0 0 -3.4733379619170819 0.41545411127563625 0 0.41545411127563625 -1.5901982231837337 0 0 0 0 0.089855428244732138 2.006573336601349 0 2.006573336601349 0.49257275871377715 0 0 0 0 2.1671678170723681 0.69206243334895134 0 0.69206243334895134 1.2096609953709958 0 0 0 0 -0.1051751531245233 -0.8365089505625356 0 -0.8365089505625356 1.3048575673104423 0 0 0 0 -0.87123400873497303 2.0408274845909204 0 2.0408274845909204 3.7111677713305653 0 0 0 0 -5.5930278963851379 -0.79635864595718431 0 -0.79635864595718431 2.2607988915621036 0 0 0 0 -1.9177999115636339 -0.25453147973075829 0 -0.25453147973075829 0.064683237478902811 0 0 0 0 -1.9212313239760519 0.025355279115164997 0 0.025355279115164997 0.55906594620161831 0 0 0 0 -1.4153584930772922 -0.42357368589136968 0 -0.42357368589136968 -1.0868098282294341 0 0 0 0 -1.6645271022480301 0.85257359975071267 0 0.85257359975071267 0.46616342194920435 0 0 0 0 -2.5488815643493581 1.6484139305180179 0 1.6484139305180179 1.3447124844915379 0 0 0 0 0.031014769760986383 1.7467385649340486 0 1.7467385649340486 0.48923530914748881 0 0 0 0 -1.4155415769901083 0.3167218433737844 0 0.3167218433737844 1.5357436275421605 0 0 0 0 -0.32680671320906818 -0.26885154746844719 0 -0.26885154746844719 0.36740000643057957 0 0 0 0 -37.121014817426612 -27.624311986972941 0 -27.624311986972941 -27.014920570826689 0 0 0 0 -2.3821705394188939 1.1586037795903792 0 1.1586037795903792 2.4732067679556167 0 0 0 0 -2.4809878079577175 -0.74115252067940673 0 -0.74115252067940673 -0.16232932775324116 0 0 0 0 -0.87055047415416453 0.17147477095933183 0 0.17147477095933183 -0.013432618885644843 0 0 0 0 -1.35175395205383 -0.033844886717537825 0 -0.033844886717537825 0.38130602867250873 0 0 0 0 -34.785939808332841 -18.262217644286011 0 -18.262217644286011 -14.109181988911587 0 0 0 0 -43.402396189507272 -31.488625891993763 0 -31.488625891993763 -27.136981957971557 0 0 0 0 -43.958319943538299 -34.508812345831529 0 -34.508812345831529 -10.399029469881214 0 0 0 0 -41.757716083328887 -44.761475712114816 0 -44.761475712114816 -34.941340299600597 0 0 0 0 -31.993987137433521 -27.750682612579354 0 -27.750682612579354 -70.276573539271794 0 0 0 0 -31.74046660593217 -23.271914007612317 0 -23.271914007612317 -23.84866137310155 0 0 0 0 -37.097965124011353 -8.9205237131907325 0 -8.9205237131907325 -36.132668349791629 0 0 0 0 -34.747390861355598 -0.54929766041084349 0 -0.54929766041084349 -15.29529617963567 0 0 0 0 -36.478742751502068 -5.7925457060260896 0 -5.7925457060260896 -15.934803409263708 0 0 0 0 -27.30755933946466 20.168888707750796 0 20.168888707750796 42.431541761325661 0 0 0 0 13.255330311878424 -10.777240932205132 0 -10.777240932205132 -34.065412967887255 0 0 0 0 -63.591277348876247 -26.421703834523896 0 -26.421703834523896 -36.203937403876182 0 0 0 0 -27.561085377175914 5.2202499481403493 0 5.2202499481403493 -59.109605708464642 0 0 0 0 -47.064352319086538 -68.17593453768788 0 -68.17593453768788 -20.444245220425728 0 0 0 0 -54.044112618574218 -37.172193931308698 0 -37.172193931308698 -37.52225781745733 0 0 0 0 -24.566472245192017 -73.962624705563996 0 -73.962624705563996 5.1503187287949004 0 0 0 0 -1.137359750649221 -1.1321242705166474 0 -1.1321242705166474 -0.57800986530300902 0 0 0 0 -0.14723763682590629 -0.26097313431057023 0 -0.26097313431057023 -0.3565272847788159 0 0 0 0 -37.171088887669612 -48.029409327898748 0 -48.029409327898748 -124.53173744701144 0 0 0 0 -1.9898526775268692 -1.2270584993705143 0 -1.2270584993705143 -0.64722522454667342 0 0 0 0 -47.607549096552248 -3.0679113363855777 0 -3.0679113363855777 -1.226044671431282 0 0 0 0 -0.75453510897538933 0.18778102409320319 0 0.18778102409320319 -0.15857396555412873 0 0 0 0 -1.9748163366195115 -0.74260000451102748 0 -0.74260000451102748 -0.67104686963057247 0 0 0 0 -1.735906770971269 -0.9704512430515706 0 -0.9704512430515706 0.38516024020918849 0 0 0 0 -1.5628141209476816 -0.65511552346645718 0 -0.65511552346645718 0.55963743546519118 0 0 0 0 -1.30470569357567 -0.86014169275676977 0 -0.86014169275676977 0.10575627010348398 0 0 0 0 -1.3557956434947798 -0.55694144782341048 0 -0.55694144782341048 -0.11109891141998141 0 0 0 0 -1.7958573863634228 -1.09310232797759 0 -1.09310232797759 -0.22115560852648741 0 0 0 0 -1.8756320886447853 -1.2612514983620491 0 -1.2612514983620491 -0.19026810957609408 0 0 0 0 -3.2364834457039251 -0.14548889787511143 0 -0.14548889787511143 -1.7077232637436737 0 0 0 0 -3.275625347836467 -0.0834798158916783 0 -0.0834798158916783 -1.7350817607682529 0 0 0 0 -3.1897669695963486 0.039757633709768925 0 0.039757633709768925 -2.0048283031510437 0 0 0 0 -0.60390958898475144 0.37154483427402596 0 0.37154483427402596 0.050902127390072494 0 0 0 0 -3.8053579489924232 -1.3328474287463905 0 -1.3328474287463905 0.42187003951266888 0 0 0 0 -0.73222796231600817 0.29419670431063594 0 0.29419670431063594 -0.07954785936878217 0 0 0 0 -5.3107969148113625 3.4547611125040021 0 3.4547611125040021 -9.2645230376092513 0 0 0 0 -6.1736522162937035 1.020558450352496 0 1.020558450352496 -1.6687048315482116 0 0 0 0 3.7661735179062816 4.8546084648990586 0 4.8546084648990586 -13.740259797546059 0 0 0 0 -3.5307857680268171 5.201292395559733 0 5.201292395559733 -6.0929679418259184 0 0 0 0 1.1795840325939935 -0.34607909173519147 0 -0.34607909173519147 -2.8492462775393506 0 0 0 0 20.3290635976864 -10.44374080392322 0 -10.44374080392322 -9.3550791938788507 0 0 0 0 -7.0642427434616666 -9.7637244564551402 0 -9.7637244564551402 -5.3387675303832527 0 0 0 0 -1.8060721195120095 0.96909163877137416 0 0.96909163877137416 -3.1915027649711192 0 0 0 0 4.7023881946588517 -3.5815015340308491 0 -3.5815015340308491 -3.5865265194888707 0 0 0 0 3.3542484895751841 -2.6621366631077308 0 -2.6621366631077308 -4.1847439392968226 0 0 0 0 2.3989943153173954 -3.7551714131473091 0 -3.7551714131473091 -2.8870630870414971 0 0 0 0 7.2999221368299914 -0.33998042793996319 0 -0.33998042793996319 -9.4234180261303209 0 0 0 0 11.17942363572547 6.7204283822878779 0 6.7204283822878779 -16.056232400175077 0 0 0 0 19.516187981857001 -2.7818835318834658 0 -2.7818835318834658 -12.223169449445891 0 0 0 0 8.2541416123767704 -9.1036852992219792 0 -9.1036852992219792 -2.4478540719655939 0 0 0 0 -4.7331603060981013 -4.6394531405548785 0 -4.6394531405548785 -1.1693672931033037 0 0 0 0 -7.8025421804049984 -2.568603834312853 0 -2.568603834312853 7.7580974702141248 0 0 0 0 3.2893113179379725 -6.821991498393345 0 -6.821991498393345 -2.6834842485426975 0 0 0 0 3.7319678027433838 -4.4548472037122337 0 -4.4548472037122337 -2.5201896936614503 0 0 0 0 -2.9840660896261397 -3.7405861374168126 0 -3.7405861374168126 -1.9607486235836404 0 0 0 0 -2.9434682168102881 -0.14681974645918672 0 -0.14681974645918672 -1.8991057505809295 0 0 0 0 -2.3053557856142248 1.5990037868758336 0 1.5990037868758336 2.5007800381592604 0 0 0 0 -68.2719639958068 -19.19890179716424 0 -19.19890179716424 -12.258870149357335 0 0 0 0 -0.16850861510644854 0.11328577101617121 0 0.11328577101617121 0.17675182100712261 0 0 0 0 -7.7734833025888292 -5.2004766246451481 0 -5.2004766246451481 3.0451774512985139 0 0 0 0 -83.170872774210693 -20.204884359749599 0 -20.204884359749599 -8.1741662258552878 0 0 0 0 -66.595796176303338 -28.842437497527555 0 -28.842437497527555 -14.909943798866607 0 0 0 0 7.8046066912538663 -0.39403584325259544 0 -0.39403584325259544 -2.1413969414011262 0 0 0 0 -8.0518601316152854 -1.1655552737495327 0 -1.1655552737495327 4.8679203826200137 0 0 0 0 -3.2069023798512717 -5.875362551097453 0 -5.875362551097453 1.527337543881913 0 0 0 0 -3.4346494845503912 4.8831853882199994 0 4.8831853882199994 2.5348209031676561 0 0 0 0 3.1814028885110019 3.075693605216884 0 3.075693605216884 0.77583614599234352 0 0 0 0 -0.95033984275687544 -4.0113939966619085 0 -4.0113939966619085 -2.7472730077870438 0 0 0 0 -0.062872729761431101 -0.48982318112070899 0 -0.48982318112070899 -1.275295167216302 0 0 0 0 -2.0018136973285436 -4.7374247709859958 0 -4.7374247709859958 -9.7235393493212428 0 0 0 0 -0.38545293709620054 0.059825289688628658 0 0.059825289688628658 0.36223884255930772 0 0 0 0 -85.268436260368617 -51.160469127046781 0 -51.160469127046781 -126.86187592941496 0 0 0 0 -63.504867595732321 -33.10669354341826 0 -33.10669354341826 -15.318149819384871 0 0 0 0 -67.063690228711494 -38.150918434578159 0 -38.150918434578159 -13.219805450075 0 0 0 0 -76.301122985965776 -23.634229974730715 0 -23.634229974730715 -2.2193313437974211 0 0 0 0 -78.078023375626799 -18.123351123501777 0 -18.123351123501777 -18.399243685039892 0 0 0 0 -68.226400445544641 -34.817557528522684 0 -34.817557528522684 -21.544067247712064 0 0 0 0 -62.419643469067978 -136.17909249169696 0 -136.17909249169696 -27.570922844457527 0 0 0 0 -47.991649330705513 -83.680629547442436 0 -83.680629547442436 -20.842179090898753 0 0 0 0 -38.753591194143155 -72.989581859725604 0 -72.989581859725604 -67.628442147851274 0 0 0 0 -51.19762500988918 -71.233667263200573 0 -71.233667263200573 -61.903045663431385 0 0 0 0 -72.747208712458814 -41.764893404690611 0 -41.764893404690611 -9.7848394141715289 0 0 0 0 -90.420630403839823 -21.172778256206584 0 -21.172778256206584 -33.736971809861188 0 0 0 0 -71.435809203607278 -35.346307880249924 0 -35.346307880249924 -18.772744484843116 0 0 0 0 -83.869757679400209 -52.701726503378723 0 -52.701726503378723 107.17469498040236 0 0 0 0 -73.633490610212903 -74.485997042045028 0 -74.485997042045028 -51.152695957825472 0 0 0 0 -3.8283826340375526 0.082652102646761705 0 0.082652102646761705 3.4827083660813969 0 0 0 0 -0.91156958789749964 0.079907590290538622 0 0.079907590290538622 0.073191960421062685 0 0 0 0 -74.528421578432472 -8.3684536188076066 0 -8.3684536188076066 8.03887800163875 0 0 0 0 -108.26549719873628 -51.878109191559986 0 -51.878109191559986 -5.69595848769859 0 0 0 0 -49.050756665983499 -47.833857174104878 0 -47.833857174104878 -50.620077022731863 0 0 0 0 -67.819464296178921 -37.425822900320782 0 -37.425822900320782 -20.558171248400413 0 0 0 0 -73.311988599850338 -34.498620653003627 0 -34.498620653003627 -8.0098098757830485 0 0 0 0 -50.07328620134831 -24.932505776571134 0 -24.932505776571134 -12.900490437624057 0 0 0 0 -51.401081936119226 -35.115252496289031 0 -35.115252496289031 -20.311407471841221 0 0 0 0 -35.692225747297016 12.838095176645425 0 12.838095176645425 10.491467446905858 0 0 0 0 -82.375479756688549 -32.372206568831601 0 -32.372206568831601 -8.8453714071604281 0 0 0 0 -0.42970629539903449 0.67092288515541476 0 0.67092288515541476 -1.5684365213592311 0 0 0 0 -32.762440293109648 -11.897727543942665 0 -11.897727543942665 -12.614519889160192 0 0 0 0 -77.664671450738751 -11.146418107331328 0 -11.146418107331328 18.505150346517212 0 0 0 0 -48.423111877259544 -28.177093052983878 0 -28.177093052983878 -6.6250667774611429 0 0 0 0 -55.226623561042743 -3.6811104885387067 0 -3.6811104885387067 -3.3877380650110354 0 0 0 0 -70.589416807490124 -36.254543286857995 0 -36.254543286857995 -14.434834725974838 0 0 0 0 -53.492489497222778 -25.721027199564105 0 -25.721027199564105 -2.7489739308967955 0 0 0 0 -54.757967210475726 -23.851374094260336 0 -23.851374094260336 -5.2111759716196957 0 0 0 0 -53.096677446300419 -10.340833869172513 0 -10.340833869172513 -7.6632525114660552 0 0 0 0 -40.192838609928003 4.3831925936534617 0 4.3831925936534617 -5.8622796780488216 0 0 0 0 -47.454973142291237 -3.923524183664739 0 -3.923524183664739 -13.484505422013285 0 0 0 0 -67.723508551049463 -23.982227922561307 0 -23.982227922561307 2.5656019703118318 0 0 0 0 -0.42946637851661151 0.46434401624853017 0 0.46434401624853017 -0.54529685597810573 0 0 0 0 -22.772397626828024 -5.9267040009132188 0 -5.9267040009132188 -8.0033880247212892 0 0 0 0 -21.391952972375293 -0.35685382829507262 0 -0.35685382829507262 -0.0017218512662111607 0 0 0 0 -9.3652449950368464 -6.1195222170383659 0 -6.1195222170383659 -4.6881811612756792 0 0 0 0 -43.359092247639637 -15.78649594088165 0 -15.78649594088165 -0.30039341531011132 0 0 0 0 -7.6710256441383535 -0.6645357146517199 0 -0.6645357146517199 -2.2914372375249741 0 0 0 0 -33.184822989670465 1.0715615428898104 0 1.0715615428898104 5.4109951093191739 0 0 0 0 11.757960640874444 -9.1329489827512873 0 -9.1329489827512873 -2.5020955936745395 0 0 0 0 -31.795026317219708 -12.767604480515388 0 -12.767604480515388 0.17825643015953574 0 0 0 0 -0.064613411867082249 -0.4154317910356351 0 -0.4154317910356351 -1.1621566180645773 0 0 0 0 -8.8211877716439631 -8.6420821699612134 0 -8.6420821699612134 3.4356282875364741 0 0 0 0 4.7608830379649589 -8.2736519133923139 0 -8.2736519133923139 0.099948299865445733 0 0 0 0 -0.64416016000905074 -10.067862483234649 0 -10.067862483234649 -0.87388672468705408 0 0 0 0 -0.30435584762699364 -12.106198180075637 0 -12.106198180075637 10.492491644602296 0 0 0 0 22.662684457111936 3.0314795805895471 0 3.0314795805895471 -13.260864651446468 0 0 0 0 -110.19537857646537 -1.9197780902379975 0 -1.9197780902379975 -19.014266735021693 0 0 0 0 -0.078518347071312 -0.13334071026660332 0 -0.13334071026660332 -0.52116445029200653 0 0 0 0 -4.8625156644866365 1.5146394005187176 0 1.5146394005187176 4.2256208404127165 0 0 0 0 -4.3421957302234659 -0.49805427960927773 0 -0.49805427960927773 12.00220589199786 0 0 0 0 10.005924018526457 -9.4806820954088096 0 -9.4806820954088096 -15.513614334398653 0 0 0 0 -16.112948942835828 -15.362677572265852 0 -15.362677572265852 -13.067849260598223 0 0 0 0 -39.614901211669348 -16.695939526958568 0 -16.695939526958568 3.3273750268754725 0 0 0 0 -21.857733288561576 -19.794295783146538 0 -19.794295783146538 -11.666185363048612 0 0 0 0 -18.835295415941346 -12.589817720351917 0 -12.589817720351917 -9.5593577991638767 0 0 0 0 -18.610428117406627 -14.264393227423227 0 -14.264393227423227 -2.792485921635631 0 0 0 0 -40.05586966460578 -6.2498163457169369 0 -6.2498163457169369 -1.0571907162610046 0 0 0 0 -16.135541431718167 -12.62595556014926 0 -12.62595556014926 -9.5598138862656015 0 0 0 0 -37.334166073067536 -14.939028051807355 0 -14.939028051807355 -17.609697017908331 0 0 0 0 -54.431968642451011 -16.46603151708095 0 -16.46603151708095 6.3827707066231483 0 0 0 0 -81.70073685446232 -26.200139348443514 0 -26.200139348443514 21.475501415004828 0 0 0 0 -0.30678677434200097 0.22087951185021559 0 0.22087951185021559 0.01388427482030119 0 0 0 0 -39.486432095315649 -28.389780413063136 0 -28.389780413063136 -1.8393437414671823 0 0 0 0 -48.348817026811957 -21.320252480721933 0 -21.320252480721933 9.6801986223891276 0 0 0 0 -78.835588356630979 -25.198078370227961 0 -25.198078370227961 10.623926395112335 0 0 0 0 -95.922439308103776 -20.300690798729754 0 -20.300690798729754 3.5772755706502721 0 0 0 0 -35.26368072283185 -16.883236374685026 0 -16.883236374685026 0.62546522101780511 0 0 0 0 -36.012094892143352 -28.374563259723288 0 -28.374563259723288 3.2564133027541402 0 0 0 0 -34.619287619225361 -22.668740928085839 0 -22.668740928085839 4.3464865277145464 0 0 0 0 -29.897666175747872 -27.852930970878532 0 -27.852930970878532 8.6227523193986713 0 0 0 0 -0.22965599268172809 -21.864864295105662 0 -21.864864295105662 5.2465256306823846 0 0 0 0 -94.190380750809709 -34.878319068718824 0 -34.878319068718824 9.9011999604631455 0 0 0 0 -71.571890564908244 -29.507328849317446 0 -29.507328849317446 6.744448409550273 0 0 0 0 -63.60096672898726 -19.374798559382384 0 -19.374798559382384 7.3042818361126933 0 0 0 0 -43.641428146728686 -36.294728614083766 0 -36.294728614083766 8.6547009536250243 0 0 0 0 -74.297871924414721 -37.000262666352057 0 -37.000262666352057 15.05652644319602 0 0 0 0 -74.620290978298726 -26.755449946368145 0 -26.755449946368145 20.093051366943257 0 0 0 0 -78.277216326014241 -23.825216343393464 0 -23.825216343393464 17.792523691842405 0 0 0 0 -36.521900472313064 -52.204468562916148 0 -52.204468562916148 18.885827169977041 0 0 0 0 -1.4581166006166519 -0.086046397018076037 0 -0.086046397018076037 -0.0043154666041217461 0 0 0 0 -150.4699327631206 -12.852020343701138 0 -12.852020343701138 29.721499098217599 0 0 0 0 -25.579914278259821 -41.182389126309161 0 -41.182389126309161 6.694942636684786 0 0 0 0 -98.95296109462106 -50.109272396943041 0 -50.109272396943041 26.327526054256452 0 0 0 0 -30.104769091291018 -26.437257128392226 0 -26.437257128392226 16.822154542485706 0 0 0 0 25.546421222668869 -8.5224644494303448 0 -8.5224644494303448 9.5155277468812507 0 0 0 0 -2.7558134100281677 9.9176777410971795 0 9.9176777410971795 57.502050574609086 0 0 0 0 -12.10248945913736 -11.765579907320092 0 -11.765579907320092 76.554912106547036 0 0 0 0 2.1316357488449285 -10.194187949779121 0 -10.194187949779121 25.18723884843206 0 0 0 0 -14.836287094211002 -8.8551506189705265 0 -8.8551506189705265 25.536196204122277 0 0 0 0 -8.8506817364468588 -4.2458832421485653 0 -4.2458832421485653 43.997399267294384 0 0 0 0 -1.4258090440007436 -2.3430568438036801 0 -2.3430568438036801 26.725192548771133 0 0 0 0 3.7844676468484977 -1.2243387101005743 0 -1.2243387101005743 41.908162182618575 0 0 0 0 4.6837786904889072 -15.46324429845253 0 -15.46324429845253 48.166790948460886 0 0 0 0 -7.8373873691998597 3.1514581293754338 0 3.1514581293754338 50.629136269323652 0 0 0 0 -11.411686921501314 -4.9962499437979773 0 -4.9962499437979773 44.127445366014882 0 0 0 0 -10.049244471520296 2.7635418950275898 0 2.7635418950275898 32.210679527451248 0 0 0 0 -15.46827703427698 -3.104964321560999 0 -3.104964321560999 30.393130722741077 0 0 0 0 -7.9122222893347498 1.8741440783096834 0 1.8741440783096834 32.071417327235281 0 0 0 0 -10.327919910389028 -3.8293131054386436 0 -3.8293131054386436 41.458288378910311 0 0 0 0 -9.9431041207935777 1.1278303447410565 0 1.1278303447410565 19.865914563539263 0 0 0 0 -23.48470526393794 3.9775411868105266 0 3.9775411868105266 23.596686284932161 0 0 0 0 -12.647076185495735 5.1545834486133018 0 5.1545834486133018 23.724179204862196 0 0 0 0 -20.977165134736424 -3.409636339318439 0 -3.409636339318439 12.78563424906875 0 0 0 0 -15.838133589033987 -6.3341077991676684 0 -6.3341077991676684 14.3322095944647 0 0 0 0 -13.756644622348176 -16.170479409945273 0 -16.170479409945273 -2.237734400444964 0 0 0 0 -11.266895586037208 -20.239340684552957 0 -20.239340684552957 0.05922660657708434 0 0 0 0 -17.639943968601074 -11.319133058154478 0 -11.319133058154478 10.673472846450579 0 0 0 0 -2.6905604350049543 -10.785520643492433 0 -10.785520643492433 10.043955801643278 0 0 0 0 -14.556382147095064 -7.1220643319912824 0 -7.1220643319912824 26.136808362977419 0 0 0 0 4.1902621309718597 -9.916481714216502 0 -9.916481714216502 -9.7254963461269881 0 0 0 0 -5.4405574432960133 -9.8853611543878372 0 -9.8853611543878372 -5.217102691976014 0 0 0 0 7.8401257186437761 -33.941868478980609 0 -33.941868478980609 -3.985641023169137 0 0 0 0 8.2765344181702858 -34.044867395858134 0 -34.044867395858134 -41.649838323340873 0 0 0 0 -9.7143134658583676 -19.555738006647289 0 -19.555738006647289 -1.5734632376515947 0 0 0 0 -40.456997271502587 -4.0258861237544323 0 -4.0258861237544323 4.4134839484689792 0 0 0 0 2.0429521922997083 -7.5078590559328404 0 -7.5078590559328404 -11.605201783161874 0 0 0 0 -25.580635451444323 -41.670768860368355 0 -41.670768860368355 -54.331385131088268 0 0 0 0 -27.608593925597233 5.6589739499367511 0 5.6589739499367511 -30.05020357792921 0 0 0 0 -14.573390268528783 -16.685468632229629 0 -16.685468632229629 6.3342220283136612 0 0 0 0 -28.459001614362364 -0.37258854618989101 0 -0.37258854618989101 4.5340302535030901 0 0 0 0 -27.492551886653018 -16.16523096920335 0 -16.16523096920335 10.599351108216226 0 0 0 0 -14.809848493462596 -4.8956553541865446 0 -4.8956553541865446 4.8610002255285849 0 0 0 0 11.986521450048713 0.92018221462203087 0 0.92018221462203087 -7.0354181144664381 0 0 0 0 -1.4350680964721647 -1.2355283486671098 0 -1.2355283486671098 1.797401803309105 0 0 0 0 -23.548717099618443 -10.417115573752369 0 -10.417115573752369 1.1070926119319324 0 0 0 0 -0.11262256783104618 0.2104709728961538 0 0.2104709728961538 0.89016740971446717 0 0 0 0 -6.0509694287766251 2.2486703636052425 0 2.2486703636052425 -7.2733723159501551 0 0 0 0 -33.185901114987473 -29.877866236282955 0 -29.877866236282955 39.933238838530542 0 0 0 0 18.651882933953857 -1.2886541415015387 0 -1.2886541415015387 -0.095362692937214888 0 0 0 0 -38.402148817002853 -34.844342163631325 0 -34.844342163631325 30.36418473463452 0 0 0 0 -21.854644571401877 -9.5506598143567203 0 -9.5506598143567203 5.9276402743380174 0 0 0 0 -42.419142262599053 -9.9436540498799673 0 -9.9436540498799673 -2.7436430043632072 0 0 0 0 -63.741851176597265 -4.1268173329731326 0 -4.1268173329731326 5.078699750107603 0 0 0 0 -35.467531438342121 8.6871185806730011 0 8.6871185806730011 -0.054353274441609756 0 0 0 0 -48.958339769234044 -7.1410173656233269 0 -7.1410173656233269 7.9544699880057408 0 0 0 0 -21.197766787571709 0.24025988986306857 0 0.24025988986306857 3.6847298156128403 0 0 0 0 -0.44975838069885654 -0.97153201046606696 0 -0.97153201046606696 -0.39723735148543166 0 0 0 0 -87.737923405823267 6.5796349287563167 0 6.5796349287563167 7.9525414365958227 0 0 0 0 -121.29420369797458 52.241567968589713 0 52.241567968589713 -32.443049018002384 0 0 0 0 -51.085214743849065 1.4434621438387438 0 1.4434621438387438 3.8504031422554661 0 0 0 0 -42.241497949960831 -39.275195589420917 0 -39.275195589420917 -122.85821905602832 0 0 0 0 -41.126482773876887 -10.018804601482742 0 -10.018804601482742 -9.5646775329335991 0 0 0 0 8.6784984005826118 -21.766164816044643 0 -21.766164816044643 -40.954010377610139 0 0 0 0 -45.257133440738698 12.334216300443831 0 12.334216300443831 -24.760285693807077 0 0 0 0 10.936486942211559 -9.7159231392927232 0 -9.7159231392927232 11.494931671669649 0 0 0 0 33.045708943403042 -5.0216528227928148 0 -5.0216528227928148 -20.348859907064142 0 0 0 0 9.9287031305811979 -21.661652349993446 0 -21.661652349993446 -6.2370460943432136 0 0 0 0 -21.045559725951534 -9.9976839528035271 0 -9.9976839528035271 0.87917648799782455 0 0 0 0 -15.978949403186991 -5.4852684061191024 0 -5.4852684061191024 1.675866776583822 0 0 0 0 -39.716737265431675 -6.0131237137350411 0 -6.0131237137350411 4.3626931937108537 0 0 0 0 0.80124173858198644 -2.0958904655320794 0 -2.0958904655320794 -0.96856416561460057 0 0 0 0 0.93432273397992915 -7.3473186682075635 0 -7.3473186682075635 0.33296260511061715 0 0 0 0 -15.650017703680533 -29.05518956713604 0 -29.05518956713604 -27.174618171510701 0 0 0 0 37.44586621284293 -32.532921947227265 0 -32.532921947227265 -27.857890349533932 0 0 0 0 -0.92340683179646954 0.32077674406410805 0 0.32077674406410805 -0.15397691834156557 0 0 0 0 -53.246009885785384 5.7636709100549126 0 5.7636709100549126 43.761106459090598 0 0 0 0 11.511128879897342 -14.377894525638368 0 -14.377894525638368 -15.305343179402826 0 0 0 0 1.8241567471305782 -3.2053919837032616 0 -3.2053919837032616 -0.33396739746382909 0 0 0 0 -7.2586488076337039 -9.8391470449623046 0 -9.8391470449623046 -4.4538331172681289 0 0 0 0 1.054743534183217 -10.917608255833329 0 -10.917608255833329 -8.4373056740722348 0 0 0 0 3.8897764758776248 -15.028212839044585 0 -15.028212839044585 -0.45524011619312432 0 0 0 0 -4.1925708843248426 -3.3748731704554764 0 -3.3748731704554764 -2.4720349941724518 0 0 0 0 -5.4914647011737543 -3.4120751668705225 0 -3.4120751668705225 2.0655905466364857 0 0 0 0 -4.473417998595778 -1.8193325175152495 0 -1.8193325175152495 4.179171115824829 0 0 0 0 -2.4926311047806013 -3.197216698640124 0 -3.197216698640124 -1.9867602940197484 0 0 0 0 5.8637494229517984 -51.535071413518381 0 -51.535071413518381 58.087807152966661 0 0 0 0 -15.218045955566396 -33.401883924877893 0 -33.401883924877893 63.683595781021495 0 0 0 0 -21.108398534176047 21.67241293280361 0 21.67241293280361 -17.548367459119049 0 0 0 0 22.048279758996443 -19.884951870428665 0 -19.884951870428665 35.836556632192469 0 0 0 0 -65.030211321003918 -21.87711922880851 0 -21.87711922880851 43.952640026852578 0 0 0 0 3.9141223351113013 -17.998477488772551 0 -17.998477488772551 14.769752815861466 0 0 0 0 2.1103797798818675 -24.544589367546223 0 -24.544589367546223 21.789988223684759 0 0 0 0 7.5379318905738728 -21.762464844130761 0 -21.762464844130761 5.9858412163732737 0 0 0 0 -2.9190535042510644 0.32639241433650357 0 0.32639241433650357 0.38844601980641347 0 0 0 0 -11.572495013180742 -21.302874849111504 0 -21.302874849111504 -12.740107787280976 0 0 0 0 -8.6594510921078154 -13.868120568239874 0 -13.868120568239874 62.880141104923837 0 0 0 0 -19.738742112439411 -0.45085360634823246 0 -0.45085360634823246 37.129347704377324 0 0 0 0 -5.7219021576155455 -23.347417368813012 0 -23.347417368813012 50.832412700349323 0 0 0 0 1.322530980353406 -25.309565133713022 0 -25.309565133713022 48.156827592565151 0 0 0 0 2.5822122718948322 -5.3729588824353414 0 -5.3729588824353414 -2.7798583925086859 0 0 0 0 42.954855053223071 -0.47295422610704918 0 -0.47295422610704918 35.729664402895651 0 0 0 0 3.5762756266085489 -10.041660262495498 0 -10.041660262495498 19.446674543076654 0 0 0 0 0.21756553472278028 -57.167670166956853 0 -57.167670166956853 37.26394190703504 0 0 0 0 -14.763913429148086 -3.4978962397361451 0 -3.4978962397361451 1.6031411239088911 0 0 0 0 -4.3527624672386764 9.3803204918434062 0 9.3803204918434062 11.538062803525236 0 0 0 0 23.748717881443554 -38.441560872358501 0 -38.441560872358501 -33.913670542141503 0 0 0 0 -86.126411355364326 21.141887075132061 0 21.141887075132061 70.389257087439589 0 0 0 0 -24.503648848922808 -18.571517295126284 0 -18.571517295126284 26.027276385502091 0 0 0 0 -14.0181437582782 -0.93910501575783201 0 -0.93910501575783201 28.035510506092351 0 0 0 0 -32.402850446648671 -4.7220829879057504 0 -4.7220829879057504 30.601244068031974 0 0 0 0 3.6467364309827985 -10.017364435986792 0 -10.017364435986792 -53.734161828778838 0 0 0 0 -0.21550026240343945 -1.0383005252690722 0 -1.0383005252690722 -0.9389895654045759 0 0 0 0 -5.3073947156310375 0.0023306831844323028 0 0.0023306831844323028 2.8236059605334187 0 0 0 0 -37.777991475367457 -7.5642644242498136 0 -7.5642644242498136 24.454203412783897 0 0 0 0 -1.4051511376495842 -2.8614263239985145 0 -2.8614263239985145 -2.2218917336880124 0 0 0 0 -11.861667149356663 -7.6119233442585141 0 -7.6119233442585141 -8.1776897860602276 0 0 0 0 -42.003278750538811 -23.745921149420639 0 -23.745921149420639 9.8945489163880325 0 0 0 0 -156.69505826757438 -116.10526051430224 0 -116.10526051430224 6.8592404316045759 0 0 0 0 -13.470041721262547 -3.5044082758394985 0 -3.5044082758394985 5.201660232612241 0 0 0 0 -1.2679981424574294 -16.737665563711744 0 -16.737665563711744 -22.831723179509027 0 0 0 0 -1.1049345680113447 -15.110950384777539 0 -15.110950384777539 -11.731998212543658 0 0 0 0 -5.1982223978316142 -13.329598303962484 0 -13.329598303962484 -8.8974100068480766 0 0 0 0 0.84612678497086335 -2.0765492804916903 0 -2.0765492804916903 -13.781759438425979 0 0 0 0 1.4883268241921428 -2.879732676370395 0 -2.879732676370395 -26.929413541218821 0 0 0 0 -1.840234224333487 -1.9566821237193994 0 -1.9566821237193994 -1.4073434150602169 0 0 0 0 -1.7098500432289256 -7.8848139409774376 0 -7.8848139409774376 -1.6517095317849453 0 0 0 0 -1.9929766408126852 -7.8417866255258559 0 -7.8417866255258559 -1.6273234149675773 0 0 0 0 -3.8814073157572011 -5.0842239325352239 0 -5.0842239325352239 -2.4122737445967459 0 0 0 0 -1.6304405276441685 -6.6850585173604031 0 -6.6850585173604031 -6.1606314936298077 0 0 0 0 -3.1950646443452797 -5.0629801143643931 0 -5.0629801143643931 -2.660201436024181 0 0 0 0 -1.7202255762603045 -2.9089275346470913 0 -2.9089275346470913 -8.0531323503878411 0 0 0 0 -3.8166539388584728 -6.3391915297560004 0 -6.3391915297560004 -7.2323650806059669 0 0 0 0 -6.7407401812279204 -6.1380576250983268 0 -6.1380576250983268 -10.065318068627221 0 0 0 0 -5.6001665387121875 -12.476516818754362 0 -12.476516818754362 -10.54069233248083 0 0 0 0 -2.940873461493311 -12.377676728018741 0 -12.377676728018741 -15.717688664020784 0 0 0 0 16.095102641178528 -17.745034920255392 0 -17.745034920255392 1.8262754127269432 0 0 0 0 13.138632107721605 -10.433543358506583 0 -10.433543358506583 -14.956762468444481 0 0 0 0 -134.12010976809779 -36.303333773045267 0 -36.303333773045267 80.970475276501531 0 0 0 0 -15.971491465428315 1.2257954557205055 0 1.2257954557205055 6.8985826306561631 0 0 0 0 -19.309510637651329 -11.760815452784755 0 -11.760815452784755 -10.88618225403863 0 0 0 0 -18.571486237587578 -5.7362952259545636 0 -5.7362952259545636 -10.132815349234193 0 0 0 0 -4.0923201096276252 0.62720527446572216 0 0.62720527446572216 1.3017242037127863 0 0 0 0 39.515313342704758 16.46225971635312 0 16.46225971635312 7.1024948872391036 0 0 0 0 5.4578511676445487 21.512741211669848 0 21.512741211669848 29.241530487809765 0 0 0 0 -11.840199883875812 -9.209082305617148 0 -9.209082305617148 60.721319248820855 0 0 0 0 -9.2273498390277382 -4.4889851607760249 0 -4.4889851607760249 44.427655657242383 0 0 0 0 -8.4739243329177043 -1.7728112489663914 0 -1.7728112489663914 51.515699939328442 0 0 0 0 -11.05257145400105 4.3310208415064206 0 4.3310208415064206 8.2677294638135095 0 0 0 0 -7.444126139391301 -2.763644387166778 0 -2.763644387166778 9.1208844418251829 0 0 0 0 -8.5764865133292787 -2.3898853253946788 0 -2.3898853253946788 3.6660271133616487 0 0 0 0 15.469377341478321 119.68036142864518 0 119.68036142864518 -60.660253097701734 0 0 0 0 -3.3465039348297836 -0.56529811806918184 0 -0.56529811806918184 0.023561723167608711 0 0 0 0 -251.72369712719592 -41.666582265473991 0 -41.666582265473991 72.400539236395247 0 0 0 0 76.762510863403804 -0.77139999240201007 0 -0.77139999240201007 -10.244576559152176 0 0 0 0 62.546530521919294 46.246386015686532 0 46.246386015686532 -40.762406629005532 0 0 0 0 22.365197289332627 71.225072423685845 0 71.225072423685845 -36.242866087946368 0 0 0 0 45.631800810246204 25.255336208567073 0 25.255336208567073 -11.306791032909715 0 0 0 0 -23.833614554605447 97.772149756916065 0 97.772149756916065 -71.037538434044421 0 0 0 0 -213.35639083801561 38.664762813969631 0 38.664762813969631 15.364177077353347 0 0 0 0 -60.544737541778886 50.039981155157548 0 50.039981155157548 15.306678127453196 0 0 0 0 -35.175528921827208 29.192077722535885 0 29.192077722535885 11.708606609146161 0 0 0 0 -43.057849197908581 -21.351368287362163 0 -21.351368287362163 80.226095433194232 0 0 0 0 -12.166405521188306 -1.0130903878124728 0 -1.0130903878124728 2.3048055651919048 0 0 0 0 24.564532971597146 13.580045500915389 0 13.580045500915389 18.617885879966565 0 0 0 0 -2.0691784746628379 1.08768539650554 0 1.08768539650554 -0.40322557427971867 0 0 0 0 -110.97197726953891 -44.843645812947045 0 -44.843645812947045 -17.527610391614871 0 0 0 0 16.458468215751054 30.799408764754133 0 30.799408764754133 -7.3747550386391083 0 0 0 0 -18.167256529229043 2.6381886608946665 0 2.6381886608946665 5.7460208482669888 0 0 0 0 -52.101539973229592 88.48044668874013 0 88.48044668874013 -55.950978249495847 0 0 0 0 -35.887588858902745 -10.039398085282301 0 -10.039398085282301 -9.2059765205667645 0 0 0 0 32.017626754832236 -19.507035303782231 0 -19.507035303782231 -166.02549283210021 0 0 0 0 0.25018965946670946 -0.60358985658421904 0 -0.60358985658421904 -0.11214047725637699 0 0 0 0 3.4071224007710859 3.6703192553606279 0 3.6703192553606279 -0.99931106637974265 0 0 0 0 -36.158256866218778 -6.0413059508542801 0 -6.0413059508542801 -1.6200042118839519 0 0 0 0 -46.448547230122358 -25.312487357336636 0 -25.312487357336636 5.6697263181949893 0 0 0 0 79.121594521789575 -4.1305934529839305 0 -4.1305934529839305 -88.328826612984699 0 0 0 0 -37.283484357332497 -23.484772519295447 0 -23.484772519295447 27.460774240276123 0 0 0 0 -14.602685295931694 0.6512432374222874 0 0.6512432374222874 4.6226078639662624 0 0 0 0 -28.438444562984841 -50.772774643060586 0 -50.772774643060586 30.810067892202596 0 0 0 0 0.56114986936434086 -5.8902981729641466 0 -5.8902981729641466 3.6388467380702116 0 0 0 0 -37.045910252950307 0.76713479365906778 0 0.76713479365906778 48.944688942008611 0 0 0 0 -11.803350222593963 -4.8922019780621326 0 -4.8922019780621326 0.22157332884034986 0 0 0 0 -8.8112547864405837 -0.11276982369612765 0 -0.11276982369612765 2.1061022716260296 0 0 0 0 -23.6999316190645 -92.937875017580296 0 -92.937875017580296 8.8311936612381245 0 0 0 0 -30.961835546465863 -15.656710979622517 0 -15.656710979622517 4.8644321430020341 0 0 0 0 -31.642761189427915 -17.303241428902652 0 -17.303241428902652 8.482257904742653 0 0 0 0 -19.334531374745211 -11.803010531833877 0 -11.803010531833877 4.3070301449835995 0 0 0 0 -22.869870068272263 -10.095700987965643 0 -10.095700987965643 4.6555192859252656 0 0 0 0 -30.317015571467209 -11.90347437241644 0 -11.90347437241644 4.2210199933982722 0 0 0 0 -23.480830566826967 -11.449907078252068 0 -11.449907078252068 -3.9630473041574987 0 0 0 0 -27.348168235265859 -14.622472160758775 0 -14.622472160758775 -7.7025209727914898 0 0 0 0 -27.692866356391164 -7.4292849678554376 0 -7.4292849678554376 -7.6881317632628452 0 0 0 0 -23.475817104667328 -7.6092280337924105 0 -7.6092280337924105 0.44625366145464795 0 0 0 0 -17.961206591580208 -10.297363657584583 0 -10.297363657584583 -4.7438012599940294 0 0 0 0 -28.977184396069191 -8.9256413240822212 0 -8.9256413240822212 -4.172009237194743 0 0 0 0 -14.977863758941226 -9.3806488277089102 0 -9.3806488277089102 -6.4528385543853801 0 0 0 0 -19.46299452368072 -6.5286199546511625 0 -6.5286199546511625 0.7908501912884276 0 0 0 0 -7.6332582172519778 -5.6530809203599119 0 -5.6530809203599119 2.3011249007764363 0 0 0 0 -13.619808917427918 -3.5748717820380875 0 -3.5748717820380875 5.0356443031191134 0 0 0 0 -18.096213255617499 -10.437775398707288 0 -10.437775398707288 1.4235437793563506 0 0 0 0 -11.157079018263971 -3.0317437093441413 0 -3.0317437093441413 -0.0055331202745918517 0 0 0 0 -8.1992791651889547 3.9791649872544212 0 3.9791649872544212 10.067374274800613 0 0 0 0 -11.690577967554987 0.92052721027090456 0 0.92052721027090456 8.8889858731970435 0 0 0 0 -8.1924151905254803 -2.5650696354472302 0 -2.5650696354472302 -0.51240596238744729 0 0 0 0 -8.3704890646490639 -4.9205850615949203 0 -4.9205850615949203 12.313035157552349 0 0 0 0 -8.5989798166338005 2.2186631927914675 0 2.2186631927914675 15.180234841716832 0 0 0 0 -10.866831205904873 -0.90955210622261973 0 -0.90955210622261973 11.55519193741344 0 0 0 0 -1.4508698715300534 -0.49070434543575336 0 -0.49070434543575336 0.35552022746777989 0 0 0 0 -2.3243249161077983 9.0856569362338746 0 9.0856569362338746 24.32382740977884 0 0 0 0 -0.57662090698522661 -8.5884640465363589 0 -8.5884640465363589 3.9835779618890683 0 0 0 0 -5.3936631090243736 -0.78038204129544653 0 -0.78038204129544653 11.578174437656116 0 0 0 0 -11.304531841603421 6.6166947993973224 0 6.6166947993973224 16.665747160016508 0 0 0 0 -2.1616586700665721 -10.274739172437762 0 -10.274739172437762 2.5734968974306867 0 0 0 0 -5.0610819984642603 -5.061291630813173 0 -5.061291630813173 0.46114692730952811 0 0 0 0 -6.7089232847074527 -8.3397774968298108 0 -8.3397774968298108 24.536340257524046 0 0 0 0 -5.9128781125876104 -3.8612441196546676 0 -3.8612441196546676 -1.5653695908305636 0 0 0 0 -9.8799877104049756 -3.0840121523066273 0 -3.0840121523066273 0.83705090181624087 0 0 0 0 -5.2606002267309577 2.1877987697852177 0 2.1877987697852177 -10.53456642465153 0 0 0 0 -9.1997182666448225 -6.0997631701216051 0 -6.0997631701216051 -1.2370403213209613 0 0 0 0 -4.3471838083787588 -11.106255824621712 0 -11.106255824621712 7.0651850092403947 0 0 0 0 -1.2379146055101744 -2.6216294558781836 0 -2.6216294558781836 3.2170317531987296 0 0 0 0 -6.2556062637959258 -5.0371429026708938 0 -5.0371429026708938 17.698424843024327 0 0 0 0 -4.2587886057253854 -12.430722817659671 0 -12.430722817659671 4.9881708650837027 0 0 0 0 -5.5784794004011928 -1.2537235566355776 0 -1.2537235566355776 2.3593593093819436 0 0 0 0 -7.2154484406188679 -3.6232037458860553 0 -3.6232037458860553 2.8538656870870103 0 0 0 0 -5.103011374201742 -12.125717647808301 0 -12.125717647808301 9.2273146701641053 0 0 0 0 -10.477796567760379 6.4091923329892779 0 6.4091923329892779 9.3085566527824994 0 0 0 0 -4.5295104838325457 -2.8632830734889114 0 -2.8632830734889114 1.5663982007785506 0 0 0 0 -8.5303165296945735 -6.9675683818633445 0 -6.9675683818633445 1.3611450334833179 0 0 0 0 -8.3300135513825033 -3.359761203282968 0 -3.359761203282968 5.7218839432724415 0 0 0 0 -9.3443742596236916 -6.1975661309273917 0 -6.1975661309273917 16.427875145091466 0 0 0 0 -5.7346385352830112 -3.8350151488994015 0 -3.8350151488994015 0.94388379741491235 0 0 0 0 -7.3157071238874778 -4.5013657864166134 0 -4.5013657864166134 1.3254051303488268 0 0 0 0 -15.083583672663735 -3.6808865494945167 0 -3.6808865494945167 13.878377299213753 0 0 0 0 6.6675616142074432 -9.4591417062185883 0 -9.4591417062185883 -12.953770898669518 0 0 0 0 1.5713998672799789 -8.3586886000946379 0 -8.3586886000946379 2.8938108569166161 0 0 0 0 -4.2497751102533812 -10.087625634797917 0 -10.087625634797917 2.8343939826872884 0 0 0 0 -4.6383426268239418 -6.0736157587707567 0 -6.0736157587707567 -0.068727133678294194 0 0 0 0 0.40876111457752184 -2.8673414526755057 0 -2.8673414526755057 0.50341877963148818 0 0 0 0 4.6966654366133298 -2.641199846994823 0 -2.641199846994823 -5.1142368637920299 0 0 0 0 -8.7010826482455741 -5.2402281305198812 0 -5.2402281305198812 0.64387033493312629 0 0 0 0 2.4725007447041207 -0.32335849419109763 0 -0.32335849419109763 -1.3323327289563167 0 0 0 0 0.14404348974175818 -0.26590145932962628 0 -0.26590145932962628 -0.22400120527781997 0 0 0 0 -3.9864926233249207 -2.0259334746829154 0 -2.0259334746829154 2.3164603416134923 0 0 0 0 -2.4399017043251661 -2.2967176030088012 0 -2.2967176030088012 2.9913193025240616 0 0 0 0 -2.3698301663607708 -0.72125656438993246 0 -0.72125656438993246 6.0798574553264189 0 0 0 0 -2.400951752833862 -1.2197580481540626 0 -1.2197580481540626 2.5084046966621827 0 0 0 0 -0.083780575332527363 -0.16451979318354049 0 -0.16451979318354049 -0.1905148837362276 0 0 0 0 -0.4941744328571076 -2.9672709501514873 0 -2.9672709501514873 -1.6127429275738905 0 0 0 0 -2.5490775968741097 -2.7399293152306265 0 -2.7399293152306265 1.0055909873707094 0 0 0 0 -2.3105966524376527 -0.68508873323335706 0 -0.68508873323335706 2.0661148691542621 0 0 0 0 -1.5112541722410242 -2.1583519380324105 0 -2.1583519380324105 1.4090890281595421 0 0 0 0 -1.51608674920152 -1.6844271347239719 0 -1.6844271347239719 2.5766208532113524 0 0 0 0 -2.594292208810657 -3.3576676642078382 0 -3.3576676642078382 0.51885633517031238 0 0 0 0 -5.6698739392977586 -5.142679471184465 0 -5.142679471184465 -0.41458314960539155 0 0 0 0 -5.1246827546156055 -1.1559637027342688 0 -1.1559637027342688 10.607797719842345 0 0 0 0 -6.2979180868566189 -3.9390021252878307 0 -3.9390021252878307 -0.62735902305524049 0 0 0 0 -6.0609678115620227 -1.3378682232791874 0 -1.3378682232791874 11.670782163236765 0 0 0 0 -7.4557033141936699 -4.0472975313279562 0 -4.0472975313279562 -0.20038209663310624 0 0 0 0 -6.796161071336428 -3.9300859412485494 0 -3.9300859412485494 6.0121462478492163 0 0 0 0 -1.2215259588672192 -1.4481054188252038 0 -1.4481054188252038 2.5677165709106204 0 0 0 0 -12.963919567749826 -2.0975455350379093 0 -2.0975455350379093 -5.4056555262768597 0 0 0 0 -21.237298652097252 -6.7579072821616535 0 -6.7579072821616535 -4.8421155151718267 0 0 0 0 -9.3129675851492166 -5.8028857518214467 0 -5.8028857518214467 -1.4594566910102342 0 0 0 0 -3.8135335431932162 -5.6559658790013714 0 -5.6559658790013714 -0.06424076547864388 0 0 0 0 -5.7065452056294816 -5.0557151864716161 0 -5.0557151864716161 0.0001259331092597904 0 0 0 0 -9.2082894475370267 -3.0852981158014927 0 -3.0852981158014927 28.466010363329843 0 0 0 0 -6.6219102716095222 -0.95805138787850552 0 -0.95805138787850552 15.971066716654548 0 0 0 0 -6.1275160610275634 -6.5528171329920042 0 -6.5528171329920042 3.3723924263460958 0 0 0 0 -6.7092835643837603 -4.4159118179299117 0 -4.4159118179299117 -1.2496458773722958 0 0 0 0 -8.78497164833243 -11.752631299144525 0 -11.752631299144525 26.255605449898098 0 0 0 0 -4.1350747438991675 -4.8304645798552883 0 -4.8304645798552883 4.3112448471983953 0 0 0 0 -12.530478450647934 -2.736768250701715 0 -2.736768250701715 30.789374282950234 0 0 0 0 -9.65821076937209 -1.7293097292490245 0 -1.7293097292490245 74.477474733477209 0 0 0 0 -11.125394620621591 -5.4666568963944684 0 -5.4666568963944684 33.709675767343811 0 0 0 0 -9.884490937967831 -9.8470429853572448 0 -9.8470429853572448 -0.84038362889175389 0 0 0 0 -1.5351148997005879 -0.9600295423491243 0 -0.9600295423491243 0.057525024900714844 0 0 0 0 -9.3665633325799718 -9.0647558155143031 0 -9.0647558155143031 41.057538526566759 0 0 0 0 -13.305467633577791 -0.1781882977838336 0 -0.1781882977838336 40.432448360725807 0 0 0 0 -12.249931943628326 -1.7933757172668265 0 -1.7933757172668265 37.97799570702891 0 0 0 0 -11.114496873568896 -1.3346027816148052 0 -1.3346027816148052 31.983273642735924 0 0 0 0 -8.2206001894446672 -6.4819285293853 0 -6.4819285293853 40.97799006884955 0 0 0 0 -11.168396909419243 1.2486224768648242 0 1.2486224768648242 30.303542452221166 0 0 0 0 -12.339617591402202 2.3774655870910664 0 2.3774655870910664 25.590216197836185 0 0 0 0 -14.281619235087419 1.5569863309482912 0 1.5569863309482912 33.729848663203541 0 0 0 0 -13.925915968387926 8.5269429072528169 0 8.5269429072528169 22.521230345468098 0 0 0 0 -14.10272038450421 5.639090594686138 0 5.639090594686138 27.541179397646573 0 0 0 0 -17.377308257942786 6.5127065621696545 0 6.5127065621696545 29.463051320989244 0 0 0 0 -14.204882749403623 0.43641483005796999 0 0.43641483005796999 30.945967256272667 0 0 0 0 -14.277036625187975 7.4038731816146424 0 7.4038731816146424 21.634105151888917 0 0 0 0 -22.940975316188997 13.076082097847461 0 13.076082097847461 17.945167733485846 0 0 0 0 -17.66925716516198 4.9088917376175516 0 4.9088917376175516 13.505017481988091 0 0 0 0 -8.8929336701203283 12.308810550896311 0 12.308810550896311 12.325430795737446 0 0 0 0 -15.950897389438978 11.885550269734459 0 11.885550269734459 18.561471098887637 0 0 0 0 -8.7424380257380108 11.748518829314023 0 11.748518829314023 14.40136282955109 0 0 0 0 -10.380419821117357 9.5940858906463617 0 9.5940858906463617 17.037108000303704 0 0 0 0 -14.133104609242366 6.3756161380588292 0 6.3756161380588292 23.637150995950321 0 0 0 0 -9.6317949478307128 7.2209788557873935 0 7.2209788557873935 21.183855418561208 0 0 0 0 -12.740018593273817 3.4443923699726895 0 3.4443923699726895 22.750106326182163 0 0 0 0 -6.9606052603448916 4.9720248620124039 0 4.9720248620124039 20.900777094960148 0 0 0 0 -6.6998800440378545 4.7515797395317634 0 4.7515797395317634 11.283486351674219 0 0 0 0 -1.8964339395497518 4.0581292460629186 0 4.0581292460629186 5.3461153689164576 0 0 0 0 -2.5896224269836239 7.0696942869105612 0 7.0696942869105612 12.243423983029459 0 0 0 0 -0.9263348158710869 4.2568249934091682 0 4.2568249934091682 3.7460325818550189 0 0 0 0 -1.9398526259174105 4.8206285367163275 0 4.8206285367163275 7.2671465508483948 0 0 0 0 -1.1774005851311813 5.0499176360531806 0 5.0499176360531806 4.7974851906275262 0 0 0 0 -4.3877713945066716 1.6498146818440063 0 1.6498146818440063 6.6605719495671565 0 0 0 0 5.5465900935732861 9.7308930184925018 0 9.7308930184925018 7.6706379262808468 0 0 0 0 0.29691122139229265 10.036882305064154 0 10.036882305064154 15.505819722771776 0 0 0 0 18.544083025773944 13.455407750148481 0 13.455407750148481 5.8283269282329684 0 0 0 0 2.9068208215380764 1.7235321366825218 0 1.7235321366825218 1.7616033014909362 0 0 0 0 -4.5100646005207636 9.2586773297113893 0 9.2586773297113893 10.540185526711241 0 0 0 0 -5.213028488398777 10.131058411460344 0 10.131058411460344 15.099487809691766 0 0 0 0 1.0880952357019851 10.937465328430221 0 10.937465328430221 10.974700886257295 0 0 0 0 -4.0406846523983404 14.065030925775801 0 14.065030925775801 12.957446283354898 0 0 0 0 0.47181926060147816 5.5418422302172985 0 5.5418422302172985 13.184828419735611 0 0 0 0 -2.3792311128404435 4.8568988562277013 0 4.8568988562277013 32.162423525200097 0 0 0 0 0.78258601120160165 14.796075786274514 0 14.796075786274514 33.176973683156803 0 0 0 0 -0.15172960787822376 10.68320703087403 0 10.68320703087403 15.823209639741066 0 0 0 0 1.9042352568576462 10.294776037114843 0 10.294776037114843 29.220001603881599 0 0 0 0 -9.4106742121202842 -9.2421595834636037 0 -9.2421595834636037 24.650374373708956 0 0 0 0 -8.0937401300116107 0.82784253715900036 0 0.82784253715900036 62.115326100150924 0 0 0 0 -10.671366123638109 -4.2145675730050129 0 -4.2145675730050129 52.488935198869513 0 0 0 0 0.94804303374985466 -16.42647442876445 0 -16.42647442876445 29.227666290821503 0 0 0 0 -0.60334658640200445 -0.37196686793852818 0 -0.37196686793852818 -0.081577410976403197 0 0 0 0 13.661345615222672 -8.7572216128424714 0 -8.7572216128424714 11.092005170015341 0 0 0 0 2.731783592525062 19.273245572056112 0 19.273245572056112 -2.980185869879449 0 0 0 0 -110.02665591159607 -29.3061694104676 0 -29.3061694104676 28.86218767440289 0 0 0 0 -30.912912200240498 -15.18557919932951 0 -15.18557919932951 -23.983619898876412 0 0 0 0 -26.795718913129349 18.933810089672193 0 18.933810089672193 0.78990574733808216 0 0 0 0 -44.041410396541778 7.6484778326848399 0 7.6484778326848399 13.818097060765922 0 0 0 0 -13.618767904563356 10.983834672778301 0 10.983834672778301 14.186880644487559 0 0 0 0 -4.7364229672220972 13.175413978442151 0 13.175413978442151 2.5311815336108339 0 0 0 0 -12.719380315748822 9.9586857293334674 0 9.9586857293334674 6.2623452728273605 0 0 0 0 -117.10316013543161 -43.475908927437274 0 -43.475908927437274 -35.687156421202644 0 0 0 0 -174.51652053888392 -95.965744514320249 0 -95.965744514320249 -48.700991529795317 0 0 0 0 -267.51350036395115 -39.801744840270999 0 -39.801744840270999 3.0114887998900031 0 0 0 0 -242.80078600148954 4.9377455535321815 0 4.9377455535321815 -0.16971775533120592 0 0 0 0 -235.76993667768329 4.6397129064172304 0 4.6397129064172304 -14.669389982867642 0 0 0 0 -274.96325830488786 -20.06247484133894 0 -20.06247484133894 -24.136770373877255 0 0 0 0 -384.62443885910216 11.641001150932311 0 11.641001150932311 -5.2094009876512928 0 0 0 0 -383.36201955238903 -131.55414002407372 0 -131.55414002407372 -33.110183754139641 0 0 0 0 -292.63977536430184 55.611334785937075 0 55.611334785937075 -18.089658761061628 0 0 0 0 -0.67328257028705174 0.21959493067468472 0 0.21959493067468472 0.24514444972407334 0 0 0 0 -15.098980048416934 -3.7865888604480702 0 -3.7865888604480702 42.628507846554839 0 0 0 0 17.558258825241865 134.6168963034126 0 134.6168963034126 75.544028944574166 0 0 0 0 -20.603537754846911 12.33312930857079 0 12.33312930857079 12.381048004039656 0 0 0 0 -27.090607511323469 6.6368793767205148 0 6.6368793767205148 41.865407842806235 0 0 0 0 6.0980292486938197 -23.741146232336405 0 -23.741146232336405 8.9213760053843316 0 0 0 0 -55.343594198955543 15.014629667461577 0 15.014629667461577 45.673713750868103 0 0 0 0 64.603678459670846 -10.79536908739658 0 -10.79536908739658 6.1042459034593435 0 0 0 0 -0.23100141153449982 -0.14524560789424923 0 -0.14524560789424923 0.00077140915569628987 0 0 0 0 -19.470741851191633 -26.73858007978356 0 -26.73858007978356 46.717595489547648 0 0 0 0 -60.475817675447615 -29.518036150884427 0 -29.518036150884427 88.348212786539989 0 0 0 0 16.150461861468102 -33.788746014152764 0 -33.788746014152764 35.597802507651409 0 0 0 0 26.7864932036955 28.096968883957658 0 28.096968883957658 30.488150240893447 0 0 0 0 0.04370054942708812 -0.13857662385899694 0 -0.13857662385899694 0.67532283335116761 0 0 0 0 4.4030725998354683 20.013859670534416 0 20.013859670534416 61.326739171774761 0 0 0 0 -8.8520150153171926 -52.043910634417216 0 -52.043910634417216 79.300783090468713 0 0 0 0 -2.4237836655556748 18.07634974063069 0 18.07634974063069 55.541569376226107 0 0 0 0 -33.18367995679364 3.8160866078090976 0 3.8160866078090976 67.850091874769532 0 0 0 0 -27.907622501377773 -6.3858294926528458 0 -6.3858294926528458 61.883638023534786 0 0 0 0 -38.994360636072088 -26.997807164450478 0 -26.997807164450478 58.772815723853455 0 0 0 0 -29.944022848641907 -5.548873872338504 0 -5.548873872338504 63.030412282518682 0 0 0 0 -21.320954880073259 -5.1789041801034728 0 -5.1789041801034728 58.897562867610077 0 0 0 0 -9.5690579380498093 -25.02867964882023 0 -25.02867964882023 58.022949305511077 0 0 0 0 -16.951495680617882 -8.300226152780624 0 -8.300226152780624 52.725297742558837 0 0 0 0 -20.679938302731898 9.4281094454487402 0 9.4281094454487402 68.39394260440497 0 0 0 0 -1.433775880724081 0.52520014303619789 0 0.52520014303619789 1.0219725904587889 0 0 0 0 0.5030498837468258 3.2737505241875624 0 3.2737505241875624 -8.2945891450799536 0 0 0 0 -1.8799816932769318 5.8887922849622782 0 5.8887922849622782 34.243024631597791 0 0 0 0 9.5045439054360372 -3.943270451149818 0 -3.943270451149818 -7.4919307187442428 0 0 0 0 -16.123277894856528 1.6755398171379454 0 1.6755398171379454 4.8020925039666054 0 0 0 0 -4.1403770337237802 -3.8418179628773146 0 -3.8418179628773146 -6.7259483757295584 0 0 0 0 15.396288959233061 -15.804729024855021 0 -15.804729024855021 27.444962821632998 0 0 0 0 0.022077319947182483 -0.08661386231304391 0 -0.08661386231304391 -0.0044614844858368308 0 0 0 0 9.2847336386164443 0.29549368149181277 0 0.29549368149181277 -6.1685042650942705 0 0 0 0 -7.4440636988238111 -1.8759181682413555 0 -1.8759181682413555 0.34006016920125148 0 0 0 0 0.10403280788533475 -0.2567627684679703 0 -0.2567627684679703 1.9475699926354313 0 0 0 0 -5.2330073276598341 0.24072515983004905 0 0.24072515983004905 -5.7422952532592433 0 0 0 0 -0.57099794743215115 -0.41366422254340485 0 -0.41366422254340485 -0.015114221318044851 0 0 0 0 -1.3338267946433504 0.50832734784451539 0 0.50832734784451539 1.4936298061019433 0 0 0 0 -0.13790433063137009 -0.013160784919101332 0 -0.013160784919101332 -0.026704135058965406 0 0 0 0 0.99440606824828137 0.39309643804324423 0 0.39309643804324423 1.7903951185262486 0 0 0 0 -170.29251946292243 -64.347840093727768 0 -64.347840093727768 -8.5318341144703709 0 0 0 0 -1.3341821590820473 -5.3358937565794804 0 -5.3358937565794804 -7.6423777539542641 0 0 0 0 -124.43840533117691 -56.856234801773326 0 -56.856234801773326 -22.082157697256434 0 0 0 0 -142.37738894913491 -23.1656062142672 0 -23.1656062142672 7.0828568726660706 0 0 0 0 -148.54754960515709 -26.365635812105339 0 -26.365635812105339 14.106013074287148 0 0 0 0 -153.02515148874772 -22.714628782183354 0 -22.714628782183354 10.875440342262664 0 0 0 0 -146.94679627066034 -16.124515318451358 0 -16.124515318451358 17.182890046374723 0 0 0 0 -164.6788759111605 -39.721155524166534 0 -39.721155524166534 -2.8341586752156331 0 0 0 0 -154.15790880735608 -20.291112480377876 0 -20.291112480377876 8.553119901919672 0 0 0 0 -151.68050146660016 -34.149998679293986 0 -34.149998679293986 -5.0768044062069748 0 0 0 0 -167.41666453049947 -37.223534388597727 0 -37.223534388597727 -4.0692008144069405 0 0 0 0 -126.44570058919817 -22.588991804457351 0 -22.588991804457351 9.6083991326950127 0 0 0 0 -162.24760197839055 -31.020097624607587 0 -31.020097624607587 -3.4576132424726893 0 0 0 0 -172.70433227371313 -35.124150858255689 0 -35.124150858255689 -2.6923917812914624 0 0 0 0 -169.06072247566726 -41.938014040312112 0 -41.938014040312112 -9.8518855715892641 0 0 0 0 -210.06026023845516 -12.13293515959532 0 -12.13293515959532 7.0054033003177665 0 0 0 0 -177.89212575574311 13.642544239802646 0 13.642544239802646 0.14530864688249778 0 0 0 0 -180.77932109231369 -41.04215856100177 0 -41.04215856100177 2.3053111327200781 0 0 0 0 -162.69983071847491 -13.370833742418881 0 -13.370833742418881 6.9495572505192911 0 0 0 0 -170.32107281405843 -7.6932319834651821 0 -7.6932319834651821 8.7791325997982312 0 0 0 0 -150.26139248092659 -7.026944640606871 0 -7.026944640606871 8.7837454914353152 0 0 0 0 -166.06708236109625 -31.129284643975325 0 -31.129284643975325 1.647507728421715 0 0 0 0 -168.41166852283823 -15.195136352204599 0 -15.195136352204599 9.925232843642334 0 0 0 0 -153.33009947495884 -17.092786392875951 0 -17.092786392875951 8.5426067111327484 0 0 0 0 -154.11897661793773 -12.55240570495539 0 -12.55240570495539 17.085634650500197 0 0 0 0 -156.2167479353102 -8.8596051471899955 0 -8.8596051471899955 15.008116632607653 0 0 0 0 -145.93442311698527 -13.129555390132282 0 -13.129555390132282 16.349347367565315 0 0 0 0 -148.58120569445418 -8.9675681141757195 0 -8.9675681141757195 21.766925901206832 0 0 0 0 -140.85669975867813 -13.105458731726003 0 -13.105458731726003 23.707928730825188 0 0 0 0 -141.99375401593988 -10.477882468917755 0 -10.477882468917755 24.697218594189508 0 0 0 0 -139.37813534023735 -13.517316612014383 0 -13.517316612014383 24.914364068732539 0 0 0 0 -146.57582462254868 -15.193684140260757 0 -15.193684140260757 30.992700806706182 0 0 0 0 -147.45734953719784 -12.759423439787668 0 -12.759423439787668 25.899773853949227 0 0 0 0 -150.03213130558288 -13.235471277723718 0 -13.235471277723718 26.078811856286734 0 0 0 0 -147.6315763326254 -15.664339123501946 0 -15.664339123501946 18.575958639197779 0 0 0 0 -148.21024188197816 -17.596790258125736 0 -17.596790258125736 18.7870708540122 0 0 0 0 -142.51112698245743 -11.735429258077147 0 -11.735429258077147 24.726879813210417 0 0 0 0 -135.1108209020349 -22.137492988402983 0 -22.137492988402983 15.122648079870942 0 0 0 0 -123.49557724016086 -13.949461041526547 0 -13.949461041526547 17.879115968331917 0 0 0 0 -124.50483866228114 -13.648510572810892 0 -13.648510572810892 17.840216899940515 0 0 0 0 -147.84434629853331 -13.330587903438129 0 -13.330587903438129 28.032215875676229 0 0 0 0 -142.04652187420197 -4.9874217002385421 0 -4.9874217002385421 26.031238292193848 0 0 0 0 -144.06043753127778 -10.306338737845181 0 -10.306338737845181 29.579029641371562 0 0 0 0 -124.66524920145275 -0.67354795801406908 0 -0.67354795801406908 21.694838128208175 0 0 0 0 -105.51267897921571 -9.5455210610534778 0 -9.5455210610534778 13.724771289333603 0 0 0 0 -113.7972709859896 -0.52119090385667732 0 -0.52119090385667732 21.661372951062873 0 0 0 0 -150.44818885152637 17.877376136640244 0 17.877376136640244 23.509674654237642 0 0 0 0 -150.2264788413213 -3.7196784820821449 0 -3.7196784820821449 36.977946386097301 0 0 0 0 -161.15184298427994 -24.48628954736273 0 -24.48628954736273 31.722340304204863 0 0 0 0 -163.59504700081379 -10.260411093098355 0 -10.260411093098355 36.066399474407262 0 0 0 0 -142.03341612640361 -28.837583667640047 0 -28.837583667640047 27.618589533540217 0 0 0 0 -142.08186537831671 -20.746436460262714 0 -20.746436460262714 31.721315058288383 0 0 0 0 -141.53257631617998 -19.178948048971506 0 -19.178948048971506 25.950583551680438 0 0 0 0 -153.32403010502458 -14.623386881806709 0 -14.623386881806709 31.166913815284374 0 0 0 0 -150.06105176516758 -9.5044845956570043 0 -9.5044845956570043 35.828975319613619 0 0 0 0 -1.3482409257598018 0.063497986235423909 0 0.063497986235423909 0.91351782012580962 0 0 0 0 -7.5846443837224911 -1.7783177973460198 0 -1.7783177973460198 0.39871897637567599 0 0 0 0 -2.2651909516171145 -0.76441995740731272 0 -0.76441995740731272 0.58131051441205273 0 0 0 0 -0.94614424291830801 0.84975825665310367 0 0.84975825665310367 1.6833139288697794 0 0 0 0 -1.2236818198101458 -0.43506674170802917 0 -0.43506674170802917 0.62946675442144695 0 0 0 0 -63.512698652488325 -5.0141307444530412 0 -5.0141307444530412 0.62684383900068497 0 0 0 0 -0.32988800841725485 0.10188591952361747 0 0.10188591952361747 0.19071502366099935 0 0 0 0 -76.177773495102883 -13.73908009287652 0 -13.73908009287652 9.5395951327598141 0 0 0 0 -60.80189989188375 -16.168109181404589 0 -16.168109181404589 -12.448009185132832 0 0 0 0 -106.71886043753329 -34.623867420050829 0 -34.623867420050829 1.2630361266803902 0 0 0 0 -72.690502857074534 -31.301528199620407 0 -31.301528199620407 -10.057619146381967 0 0 0 0 -75.549817391858596 -12.045120064902221 0 -12.045120064902221 4.8748436959047012 0 0 0 0 -91.124155366942432 -12.535854116229075 0 -12.535854116229075 6.2757271392224538 0 0 0 0 -104.29291677795482 -6.2538101289818542 0 -6.2538101289818542 12.233272162665344 0 0 0 0 -70.985788526093529 1.7313274504185756 0 1.7313274504185756 8.4907197560848999 0 0 0 0 -111.6146517068737 9.8389250578425163 0 9.8389250578425163 8.8388124341036018 0 0 0 0 -63.31124831703346 -19.725342358695798 0 -19.725342358695798 4.9900331230987831 0 0 0 0 -27.747006359682928 -2.9997174609695776 0 -2.9997174609695776 -13.530428848211386 0 0 0 0 -0.2373573501159626 -0.36190485258668836 0 -0.36190485258668836 0.024471911602376828 0 0 0 0 -1.7402887025618838 -0.4268435606093135 0 -0.4268435606093135 -4.8473349449805028 0 0 0 0 -1.7609156870603329 -0.66547360775825837 0 -0.66547360775825837 -0.32375939801113418 0 0 0 0 -1.5622131224081386 -1.2219242042281167 0 -1.2219242042281167 -5.4575040681465907 0 0 0 0 -0.87067864628742164 0.11547218267445203 0 0.11547218267445203 0.78195917729438857 0 0 0 0 -2.2093344784771034 0.065877591324806417 0 0.065877591324806417 0.37755704130904633 0 0 0 0 -0.043006008613435398 0.1227014231188075 0 0.1227014231188075 0.07543693729909684 0 0 0 0 -1.9319891618215479 -1.163305793960717 0 -1.163305793960717 2.2225416448441138 0 0 0 0 -1.6143154439042995 -0.068868276075609414 0 -0.068868276075609414 0.97109855599376349 0 0 0 0 -1.9464381372681601 -1.3091571731620206 0 -1.3091571731620206 1.7912340307680097 0 0 0 0 -1.7515887279441813 -1.3874105039667484 0 -1.3874105039667484 2.311792818696631 0 0 0 0 -1.7046012744758627 -0.3216622242084668 0 -0.3216622242084668 0.39490652297126871 0 0 0 0 2.237292382036685 -19.61073003151273 0 -19.61073003151273 1.2260495915302272 0 0 0 0 0.24706371163529184 -3.233507994078991 0 -3.233507994078991 -16.464404101528999 0 0 0 0 -43.069833237492276 2.7017772875992705 0 2.7017772875992705 -2.2816684530311022 0 0 0 0 -57.892149027567939 12.494985639402103 0 12.494985639402103 -5.2955533761883089 0 0 0 0 -57.200167997855715 14.493655390395816 0 14.493655390395816 0.24126706434935841 0 0 0 0 -117.55994991423358 31.784880786533904 0 31.784880786533904 1.6460157129181425 0 0 0 0 -52.000745819387021 34.603064421145206 0 34.603064421145206 -3.6645609126439922 0 0 0 0 -6.0306304708001335 39.754654463505631 0 39.754654463505631 -27.12813715902621 0 0 0 0 -138.6837202737297 59.996224018504108 0 59.996224018504108 -6.7211852847444788 0 0 0 0 26.24372385220704 -30.012668108111029 0 -30.012668108111029 -0.21136709639608853 0 0 0 0 -12.884914314628077 -19.958802993213681 0 -19.958802993213681 38.762587105911052 0 0 0 0 -6.4758356448355698 1.1572858077513501 0 1.1572858077513501 -17.654885025842532 0 0 0 0 -4.0120511253480799 -17.548568666344181 0 -17.548568666344181 18.365108915178553 0 0 0 0 -144.54539004376235 -37.259781797261759 0 -37.259781797261759 6.6505593158317424 0 0 0 0 -188.31251862030513 -45.834807327131784 0 -45.834807327131784 23.646902505470507 0 0 0 0 -208.11454377508198 4.368654355769138 0 4.368654355769138 38.697058562041093 0 0 0 0 -130.20504677305689 12.143042381893338 0 12.143042381893338 22.129722177548388 0 0 0 0 -167.36159216845135 30.541004636603702 0 30.541004636603702 23.432677576031438 0 0 0 0 -138.98778847699214 25.705447074004951 0 25.705447074004951 20.960644412023953 0 0 0 0 -3.3445806253385477 0.14410877546147649 0 0.14410877546147649 -0.19291194436342796 0 0 0 0 -284.62328064246049 54.860353067183496 0 54.860353067183496 29.359490797071885 0 0 0 0 -117.88468619470495 72.464385043401535 0 72.464385043401535 -17.928092218671281 0 0 0 0 -282.78852259369796 -127.53805553180882 0 -127.53805553180882 -51.614299053146851 0 0 0 0 -95.591301458560338 -16.751045645026124 0 -16.751045645026124 -172.75108028876389 0 0 0 0 -324.12991578417586 50.176241783724436 0 50.176241783724436 -1.7246609489957336 0 0 0 0 -95.035890431180633 -60.209423435692088 0 -60.209423435692088 45.341821997544685 0 0 0 0 -357.34812320834408 -75.077198429301575 0 -75.077198429301575 5.5798991273086358 0 0 0 0 -152.4634671403669 -103.36296008799081 0 -103.36296008799081 -103.27128628190485 0 0 0 0 -108.60697171913125 -30.426058919581919 0 -30.426058919581919 28.956184706155454 0 0 0 0 -236.8896547292814 -111.24772090426333 0 -111.24772090426333 -19.498618177854951 0 0 0 0 -232.32759422507843 -30.227811674722034 0 -30.227811674722034 6.981699532712355 0 0 0 0 -228.95934367824793 -75.588423676088723 0 -75.588423676088723 17.676242701810111 0 0 0 0 -227.14937102099429 -60.598820534831248 0 -60.598820534831248 46.243266364978808 0 0 0 0 -152.12611813085732 -98.138423617047692 0 -98.138423617047692 26.711162825410611 0 0 0 0 -154.27432481374581 -31.638355559066213 0 -31.638355559066213 10.377975999473165 0 0 0 0 -5.7659744277774898 4.4824265331893951 0 4.4824265331893951 2.1591318113819815 0 0 0 0 -210.62024170419022 61.272122500738817 0 61.272122500738817 -5.4358817874026499 0 0 0 0 -251.62089025778732 -62.1398016664848 0 -62.1398016664848 30.413052038955357 0 0 0 0 -16.870020912315795 7.4228153488149928 0 7.4228153488149928 14.893015450633357 0 0 0 0 0.65866690778485548 -5.2953424126850948 0 -5.2953424126850948 -0.6495821603866716 0 0 0 0 -8.9989301650381606 -0.29376527837908561 0 -0.29376527837908561 0.72079014320103996 0 0 0 0 0.02138153698707157 -0.86201339225066942 0 -0.86201339225066942 0.028452849505342215 0 0 0 0 -44.299742688373954 -60.180944105139588 0 -60.180944105139588 -87.027809811188035 0 0 0 0 -4.6942848496164515 -21.495910500138962 0 -21.495910500138962 -47.410417322848616 0 0 0 0 0.07250144711997919 -0.39132303109254085 0 -0.39132303109254085 -0.14275120272874187 0 0 0 0 34.882949207255933 7.2400433066214873 0 7.2400433066214873 -30.615929767977605 0 0 0 0 -82.647242179106797 -72.938289761666624 0 -72.938289761666624 32.817707217872339 0 0 0 0 -88.918351495117349 -21.213006943004075 0 -21.213006943004075 -4.2672833419374001 0 0 0 0 -19.005564745259107 6.5000711335667347 0 6.5000711335667347 19.858169817030955 0 0 0 0 -1.3560962976005708 -1.5335253057824971 0 -1.5335253057824971 0.34466525814115379 0 0 0 0 -75.063936778320567 -51.011082351108143 0 -51.011082351108143 -7.7370308001504782 0 0 0 0 -4.1499899231184889 -1.7728550451087954 0 -1.7728550451087954 0.38271067622068333 0 0 0 0 0.80428252248839271 -1.1685831060673308 0 -1.1685831060673308 -4.1289923951530909 0 0 0 0 -5.1405312416640747 -4.0888467185468942 0 -4.0888467185468942 4.1013268467585204 0 0 0 0 -13.775065217123739 1.733182822187473 0 1.733182822187473 9.567793702124618 0 0 0 0 -33.693307812018702 -21.291266870007576 0 -21.291266870007576 46.174914149826577 0 0 0 0 -1.2303888744978622 -24.617311515923234 0 -24.617311515923234 45.230572426100935 0 0 0 0 0.17802499527775595 -0.56438748120817372 0 -0.56438748120817372 1.1610695115237912 0 0 0 0 -109.60201609607611 -19.856402836990583 0 -19.856402836990583 -3.8791166142848397 0 0 0 0 -4.2967866723781194 -4.8744121065136774 0 -4.8744121065136774 -3.40321671618306 0 0 0 0 -110.12038921134081 -15.592839585019874 0 -15.592839585019874 14.009522106238876 0 0 0 0 -3.5754302286619577 -13.629159396551131 0 -13.629159396551131 12.525393007692401 0 0 0 0 31.579777452041526 -79.525029892021109 0 -79.525029892021109 -87.208202089668248 0 0 0 0 -44.006817014120315 -76.155860723883507 0 -76.155860723883507 -65.049981102035645 0 0 0 0 -51.142553710303957 -24.188704488803083 0 -24.188704488803083 25.466934432012295 0 0 0 0 -12.735977030256549 -5.0130559514510651 0 -5.0130559514510651 19.696583755537631 0 0 0 0 -96.297016806714737 31.158567696615698 0 31.158567696615698 1.6612314663079815 0 0 0 0 -97.125958764648203 99.154526314288887 0 99.154526314288887 -12.875298248713079 0 0 0 0 -26.633953244878668 15.809790991002084 0 15.809790991002084 5.7243342325096727 0 0 0 0 -94.521356836537961 -86.981672437194106 0 -86.981672437194106 34.325666212706608 0 0 0 0 -266.17633587498312 56.370749011427506 0 56.370749011427506 0.85889515174085318 0 0 0 0 -242.16114115501296 -157.63267775344411 0 -157.63267775344411 88.951083751012447 0 0 0 0 -24.944930661215118 17.048421730478893 0 17.048421730478893 5.1095914659015449 0 0 0 0 -483.53461055132721 -64.514008503907462 0 -64.514008503907462 118.44544036792774 0 0 0 0 -298.40497400549702 110.72744853715153 0 110.72744853715153 -347.49302115812952 0 0 0 0 12.821417691985744 -134.16794526314186 0 -134.16794526314186 -233.91911819119423 0 0 0 0 -1.183337407334589 -1.4037792885755098 0 -1.4037792885755098 -2.2605902854922171 0 0 0 0 -483.40054762187265 150.26003558195112 0 150.26003558195112 26.412670168555707 0 0 0 0 -155.77574684438241 -314.68588870827296 0 -314.68588870827296 -106.95559681180248 0 0 0 0 9.4732999911873321 -6.4984247071046184 0 -6.4984247071046184 -27.754650839288388 0 0 0 0 16.249804710735134 -54.34837872983627 0 -54.34837872983627 -55.427634295338066 0 0 0 0 -83.540839603450877 -107.33084569665448 0 -107.33084569665448 -24.456605694175778 0 0 0 0 -63.668586444378889 -33.652300631844355 0 -33.652300631844355 -11.189508221299548 0 0 0 0 -64.674897126983751 -39.539174688425135 0 -39.539174688425135 -4.0146997083957103 0 0 0 0 -82.197201489736472 -18.868187029231876 0 -18.868187029231876 1.9179034608150687 0 0 0 0 -58.41215405529465 -22.026218832517031 0 -22.026218832517031 1.0523141793755713 0 0 0 0 -53.203792379288643 -34.580467094329833 0 -34.580467094329833 -11.338608048985861 0 0 0 0 -23.400021659967024 -12.057082152637804 0 -12.057082152637804 -7.3872184345300411 0 0 0 0 -56.82826075483672 -16.525141425382515 0 -16.525141425382515 0.19794485508919024 0 0 0 0 -70.97121272313052 -17.51150626967592 0 -17.51150626967592 1.6396392401134108 0 0 0 0 -56.586681189039155 -21.390917983795589 0 -21.390917983795589 -1.5396340408860851 0 0 0 0 -52.739300591387575 -18.587728305193096 0 -18.587728305193096 0.40839298455466633 0 0 0 0 -52.493413238740686 -25.86700884172501 0 -25.86700884172501 -1.3443689726168486 0 0 0 0 -80.483041434516963 -24.364109529623192 0 -24.364109529623192 8.8730038708463326 0 0 0 0 -70.307523381211467 -34.45688034823479 0 -34.45688034823479 2.9989153272881595 0 0 0 0 -51.379525144287982 -24.7951018085746 0 -24.7951018085746 -2.1335026783132207 0 0 0 0 -0.37798832452297226 0.39203743818126036 0 0.39203743818126036 0.56192121160086295 0 0 0 0 -46.955499179302933 10.355174114176293 0 10.355174114176293 5.0982002419768833 0 0 0 0 -83.076269034322422 -37.351488593442099 0 -37.351488593442099 6.0243382648000079 0 0 0 0 -62.588247656013891 -0.91687361340007101 0 -0.91687361340007101 9.3306270035659509 0 0 0 0 -49.54315332785518 -0.53974769457977345 0 -0.53974769457977345 4.1295647596753042 0 0 0 0 -67.115610020031454 18.47110961628573 0 18.47110961628573 17.527452167649244 0 0 0 0 -11.993591678241501 -21.140808835288681 0 -21.140808835288681 -6.8021836299067218 0 0 0 0 -201.06617504709857 -148.22596559317199 0 -148.22596559317199 26.850801690349364 0 0 0 0 -123.56030465101412 -224.66348644190805 0 -224.66348644190805 51.946901042101672 0 0 0 0 -105.65026717872024 -185.94142237510573 0 -185.94142237510573 -100.62074425478652 0 0 0 0 -82.255056617444325 -102.49328338421711 0 -102.49328338421711 -14.349538392852082 0 0 0 0 -105.89597502980678 -100.40035457833426 0 -100.40035457833426 -7.3707170420607895 0 0 0 0 -48.976651448099119 -46.725921165253226 0 -46.725921165253226 -14.185341236430077 0 0 0 0 -105.70616183370548 -35.037221869556383 0 -35.037221869556383 -8.4869917086134592 0 0 0 0 -104.50096380016805 -79.617627299989067 0 -79.617627299989067 -92.302783740712101 0 0 0 0 -130.32026950671775 -36.75347911982044 0 -36.75347911982044 -66.90379601453995 0 0 0 0 -99.925203550778406 -68.99934412436636 0 -68.99934412436636 -33.42551323143482 0 0 0 0 -24.014338551040431 15.375959848248488 0 15.375959848248488 6.9379534550236777 0 0 0 0 -206.6581227398915 -66.785169493652006 0 -66.785169493652006 -12.180564079817742 0 0 0 0 -53.643190389338542 -16.350817679891961 0 -16.350817679891961 -11.047230465507255 0 0 0 0 -44.872819871805405 23.719083136586619 0 23.719083136586619 13.372864234642293 0 0 0 0 -22.430458476321682 13.328333180946546 0 13.328333180946546 8.658450313479328 0 0 0 0 -193.49286780423756 -110.94312925256583 0 -110.94312925256583 -56.090485892762217 0 0 0 0 -12.150795830495554 12.419209552784423 0 12.419209552784423 -10.592593528017915 0 0 0 0 -98.457154781739519 -14.72237190726355 0 -14.72237190726355 21.617096345946038 0 0 0 0 -68.667131901645917 -10.311237212489004 0 -10.311237212489004 26.097126252938807 0 0 0 0 -76.70706545917983 11.242651652618179 0 11.242651652618179 -28.767358762404911 0 0 0 0 -87.197275474236903 -16.245712520775754 0 -16.245712520775754 19.93255089475656 0 0 0 0 -0.5184722086074931 0.45249745783162787 0 0.45249745783162787 0.75604437223084275 0 0 0 0 -66.027735942654999 -27.485783387950022 0 -27.485783387950022 25.668086185358788 0 0 0 0 -66.135700644976168 -23.826226077975662 0 -23.826226077975662 -2.2572465884386474 0 0 0 0 -53.343091272678066 -16.227359158064701 0 -16.227359158064701 10.006477846609755 0 0 0 0 -30.525829112339579 -6.5467461354094212 0 -6.5467461354094212 2.5087979541290224 0 0 0 0 -38.426782059218567 1.4520046995572784 0 1.4520046995572784 23.0414257390903 0 0 0 0 -27.578688382876862 -30.183313832814292 0 -30.183313832814292 10.236632543988208 0 0 0 0 -52.411145998247321 -22.904720040935672 0 -22.904720040935672 11.353412048729297 0 0 0 0 -62.765122871650874 -1.7040257772293899 0 -1.7040257772293899 -6.829513363294609 0 0 0 0 -62.928336734557888 -37.828175127155873 0 -37.828175127155873 -13.63048912532031 0 0 0 0 4.294108217053008 -10.505422899835253 0 -10.505422899835253 -13.612847218728547 0 0 0 0 1.1197882956874041 0.19451065335333528 0 0.19451065335333528 -0.39493528461741745 0 0 0 0 3.9183616760551558 13.493492856832148 0 13.493492856832148 -17.882219088261454 0 0 0 0 7.6417513693540968 -18.594507735758839 0 -18.594507735758839 11.149953171309107 0 0 0 0 -81.94753325743352 -53.388672216150098 0 -53.388672216150098 25.391956501321033 0 0 0 0 -85.858973980706253 -31.515784488768816 0 -31.515784488768816 -61.992599832243286 0 0 0 0 -186.16089536354218 -110.42629835747471 0 -110.42629835747471 -60.25914486565631 0 0 0 0 -191.8694852632008 -44.174368281083844 0 -44.174368281083844 -38.240087011491141 0 0 0 0 -118.10207057838727 -75.159032731559819 0 -75.159032731559819 -47.485991394495613 0 0 0 0 -129.05823801179804 -64.876606082392982 0 -64.876606082392982 -68.034721835012363 0 0 0 0 -62.562551793176155 -34.470498129038276 0 -34.470498129038276 -52.188364425866013 0 0 0 0 -148.84821311597142 -50.375013759327032 0 -50.375013759327032 -13.169781840006181 0 0 0 0 -72.890978838903408 0.19074994974400461 0 0.19074994974400461 -8.3699941822938726 0 0 0 0 -10.816975400962306 14.256367284496946 0 14.256367284496946 -21.483862387797444 0 0 0 0 2.6095553036706178 16.034278626754812 0 16.034278626754812 -18.766734637867728 0 0 0 0 -15.268079398118971 -8.6678084069868078 0 -8.6678084069868078 -25.726523624099798 0 0 0 0 -127.87383800659765 -52.809808761449339 0 -52.809808761449339 -24.347204731211377 0 0 0 0 -73.694073024325235 -13.816270237589833 0 -13.816270237589833 -25.71145306442444 0 0 0 0 -41.56510493374526 8.8264769666576512 0 8.8264769666576512 16.443461312484033 0 0 0 0 -35.864531391259959 -29.39659016769852 0 -29.39659016769852 -26.096995337915132 0 0 0 0 12.14326573010743 11.216505936983935 0 11.216505936983935 7.2249511085992708 0 0 0 0 -49.175202799652709 0.13355004643793222 0 0.13355004643793222 22.955193142932558 0 0 0 0 4.9798567632518598 26.633876360815634 0 26.633876360815634 15.845490870421031 0 0 0 0 10.8139947154109 1.6753731982512363 0 1.6753731982512363 -1.8347953395095828 0 0 0 0 1.8392257022420608 10.738020713797759 0 10.738020713797759 -6.8252031741924384 0 0 0 0 1.7255659493366693 10.245684340454901 0 10.245684340454901 -6.7269316560704056 0 0 0 0 -0.39414648900265092 11.796356713217619 0 11.796356713217619 -6.9555979054435966 0 0 0 0 -12.189533375604071 2.600678753495373 0 2.600678753495373 38.481345745683711 0 0 0 0 -10.512127960122484 1.5364599702699877 0 1.5364599702699877 9.4847372599726896 0 0 0 0 -5.702146432807524 -9.3684324518474682 0 -9.3684324518474682 -6.2048210943739832 0 0 0 0 -5.0326318475533753 -13.219274539290836 0 -13.219274539290836 15.218177059798791 0 0 0 0 -6.642743266577253 -4.4701232487053169 0 -4.4701232487053169 0.20936732538717573 0 0 0 0 -5.0171641127735711 -4.7596108961140544 0 -4.7596108961140544 3.0586273259448262 0 0 0 0 -26.790449658805471 -11.558905224260798 0 -11.558905224260798 43.856536485139486 0 0 0 0 -2.6476632217249971 30.119266204132373 0 30.119266204132373 64.636485207455053 0 0 0 0 -0.78816445960421788 36.213785660531471 0 36.213785660531471 95.812145421948117 0 0 0 0 -0.67259119215622754 -0.49004655593914959 0 -0.49004655593914959 1.0388246737239624 0 0 0 0 -5.6924407830533212 -4.0807041152779933 0 -4.0807041152779933 -0.18854372584950907 0 0 0 0 -0.39150668478032458 -5.7640442654121671 0 -5.7640442654121671 6.9773923169803425 0 0 0 0 -6.3955402310155591 -6.0891562211625114 0 -6.0891562211625114 2.1061101809834781 0 0 0 0 -29.444024682404347 -7.8496177255296971 0 -7.8496177255296971 72.052861447995838 0 0 0 0 -0.9690110156722791 -1.5626076916175595 0 -1.5626076916175595 1.0040865384581004 0 0 0 0 -7.386746888902735 -3.3630723213980218 0 -3.3630723213980218 4.526971985197747 0 0 0 0 -7.4521733811106969 -2.7825253745609189 0 -2.7825253745609189 4.8666706321462243 0 0 0 0 -7.3021933339227303 -3.5227880820330029 0 -3.5227880820330029 5.1305760058007763 0 0 0 0 -10.29936985966242 -3.3113692786841966 0 -3.3113692786841966 5.6604489167821157 0 0 0 0 -10.381771109952751 -6.1106287453937398 0 -6.1106287453937398 8.7990395443264333 0 0 0 0 1.64403953489483 -8.1344808160827142 0 -8.1344808160827142 -1.0073006295374398 0 0 0 0 -13.683049581106843 -2.9765629600453849 0 -2.9765629600453849 5.903506778855899 0 0 0 0 -2.2703659129814993 -0.22255334487213707 0 -0.22255334487213707 0.13218305613747461 0 0 0 0 -6.1383576464234011 -3.6806583144002616 0 -3.6806583144002616 -2.4750278373567198 0 0 0 0 -13.436830180349716 -8.0467622397388965 0 -8.0467622397388965 9.7506003783449415 0 0 0 0 -6.4118088674713363 -4.5163144516812963 0 -4.5163144516812963 2.4246600699461851 0 0 0 0 -6.9207941347568109 -6.590144377005136 0 -6.590144377005136 2.2052589581962145 0 0 0 0 -12.071299414225223 -0.33542908258323223 0 -0.33542908258323223 1.5889427005495236 0 0 0 0 -1.2565380079649913 -2.0534209058823762 0 -2.0534209058823762 9.9013327286284039 0 0 0 0 -6.9912604275436934 -2.8290264199706598 0 -2.8290264199706598 1.2586755320999146 0 0 0 0 -4.4148007125768345 -3.5886184397413672 0 -3.5886184397413672 11.867651820041601 0 0 0 0 -3.9204185965507907 -4.1384076512627299 0 -4.1384076512627299 1.1380820798338096 0 0 0 0 -9.1627237537450128 -0.022671652464396175 0 -0.022671652464396175 -2.1198993385132781 0 0 0 0 -6.2475923930050552 -2.7720373461239993 0 -2.7720373461239993 1.7229748824428228 0 0 0 0 -8.2338577396654422 3.5970903792325304 0 3.5970903792325304 3.6113855876457759 0 0 0 0 -8.8657153998338458 -5.2563063212777479 0 -5.2563063212777479 4.7489943006812609 0 0 0 0 -6.9705782187083969 -8.2700479826534092 0 -8.2700479826534092 -0.91072041875077048 0 0 0 0 -1.4292133341089985 -2.5234526553706318 0 -2.5234526553706318 3.5561273860722782 0 0 0 0 -6.2361403912154856 -7.3565581855609707 0 -7.3565581855609707 0.79663042023139496 0 0 0 0 -8.1921052175058549 -5.8626349353121441 0 -5.8626349353121441 5.0809508372568075 0 0 0 0 -3.3551391990840784 -11.607160524955361 0 -11.607160524955361 6.4735865394911798 0 0 0 0 -10.467134471262057 -5.3017321763090877 0 -5.3017321763090877 11.057812893659047 0 0 0 0 -2.9395744444300362 -1.8669798778610129 0 -1.8669798778610129 9.6320776303629714 0 0 0 0 -3.6654790876236607 -2.5935131693323674 0 -2.5935131693323674 1.3151784230896679 0 0 0 0 -1.5236243047284859 -7.129079248414314 0 -7.129079248414314 -3.1379302323389311 0 0 0 0 -3.3345222042268094 -3.9070539465383711 0 -3.9070539465383711 0.49313962753921453 0 0 0 0 -7.7442052481748078 -9.0515459701173313 0 -9.0515459701173313 1.1694788945106893 0 0 0 0 -2.7408351953690726 -2.6914878621637399 0 -2.6914878621637399 9.6093525601878582 0 0 0 0 -3.8752855471974934 -0.52228125436566808 0 -0.52228125436566808 6.8582530587675095 0 0 0 0 -4.2071663943142994 -0.74067732101048023 0 -0.74067732101048023 14.310887081380315 0 0 0 0 -0.38958230920991399 -0.11041251877757885 0 -0.11041251877757885 0.036677957764853275 0 0 0 0 -0.13753390845849367 0.51463838515656379 0 0.51463838515656379 0.60534868232390049 0 0 0 0 1.6056728162566287 6.7778145535069427 0 6.7778145535069427 2.3405903503792729 0 0 0 0 -4.2237417127544177 -1.4079043822212043 0 -1.4079043822212043 6.7838561716195045 0 0 0 0 -8.9459975660281721 -3.1348794090804519 0 -3.1348794090804519 2.2313813005365031 0 0 0 0 -8.8615170789327706 -0.75260561542569504 0 -0.75260561542569504 1.1965357158445082 0 0 0 0 -7.9976526795944665 -1.4295295757055442 0 -1.4295295757055442 10.91702683328856 0 0 0 0 -12.698612935812548 1.665737043574083 0 1.665737043574083 16.136037218239807 0 0 0 0 -15.754564463208908 -8.1581898385193448 0 -8.1581898385193448 21.20516438460087 0 0 0 0 -11.130981918412317 -8.3685618027786859 0 -8.3685618027786859 -0.90785079083921971 0 0 0 0 -1.270239923479453 -2.9508524545562431 0 -2.9508524545562431 4.2625988787923506 0 0 0 0 -10.845887677170452 -8.3650897848267505 0 -8.3650897848267505 -2.3456150998954399 0 0 0 0 -0.77937943626071582 -2.1575274740273245 0 -2.1575274740273245 2.9694639169362755 0 0 0 0 8.7021756736937732 -13.769417354474314 0 -13.769417354474314 -1.5503780310718298 0 0 0 0 7.0350213101521604 -7.9340877281816233 0 -7.9340877281816233 -27.16050959151687 0 0 0 0 -11.169068473371681 -15.582674786007374 0 -15.582674786007374 -0.89768019183810566 0 0 0 0 -1.2266570059820943 -0.79041058704521916 0 -0.79041058704521916 1.2656223418779438 0 0 0 0 -0.37253461432594892 -2.0179097075687462 0 -2.0179097075687462 2.8907488832317836 0 0 0 0 -8.0993786067699602 -6.7217873643075308 0 -6.7217873643075308 0.21413177739418643 0 0 0 0 5.2631556170014164 0.95592418701073001 0 0.95592418701073001 -66.629515961919537 0 0 0 0 -1.3990097654686906 -23.61845162962527 0 -23.61845162962527 5.7725536445449848 0 0 0 0 -21.111910536133564 -13.37320317842395 0 -13.37320317842395 3.2724379457540351 0 0 0 0 -29.837523143669387 -18.11795208995315 0 -18.11795208995315 71.27922509846961 0 0 0 0 -6.0999245399185451 -0.82630707151688598 0 -0.82630707151688598 0.072097502999843854 0 0 0 0 0.81030344073815286 4.9452771733125402 0 4.9452771733125402 14.640732251401005 0 0 0 0 -15.121822116869225 -19.668433297509864 0 -19.668433297509864 7.6710330147322168 0 0 0 0 -0.34628169650613927 -41.572719306297302 0 -41.572719306297302 -86.719715640281606 0 0 0 0 -2.3087201797881534 -0.61843663111471836 0 -0.61843663111471836 0.093986677340493915 0 0 0 0 -85.789506970726052 49.840341030325703 0 49.840341030325703 51.899070728138895 0 0 0 0 -71.583049900157221 6.7598649742988641 0 6.7598649742988641 -31.821209236044297 0 0 0 0 -72.626706980945585 10.78472948617825 0 10.78472948617825 29.330679048864795 0 0 0 0 -115.12721257216299 22.387580297412342 0 22.387580297412342 26.261364050509201 0 0 0 0 -43.358791598110201 53.823832531554444 0 53.823832531554444 16.845263555672091 0 0 0 0 -0.36265185418223567 -0.39128012660570277 0 -0.39128012660570277 -0.13069293610687593 0 0 0 0 7.3089504275649233 -50.777360683183048 0 -50.777360683183048 -10.876322921954966 0 0 0 0 -57.658269602603923 -2.9671782451393938 0 -2.9671782451393938 11.796642924446061 0 0 0 0 -51.69320462341966 8.674813691861857 0 8.674813691861857 13.431222803188234 0 0 0 0 -70.40306574254646 -16.30840462784181 0 -16.30840462784181 9.9539023271566975 0 0 0 0 -44.587662790200739 -13.091382676895734 0 -13.091382676895734 3.509533871635881 0 0 0 0 -95.765948327784514 15.738145829823312 0 15.738145829823312 7.6009156434530496 0 0 0 0 -0.21308141912666834 -0.25567499609646371 0 -0.25567499609646371 -0.19186844701669403 0 0 0 0 -95.033854204319994 -29.448403403288804 0 -29.448403403288804 4.5748814654250509 0 0 0 0 -61.172673518120064 -2.8535452501993177 0 -2.8535452501993177 -14.811572944325803 0 0 0 0 -77.284985879876331 -36.179975417101559 0 -36.179975417101559 23.78238082864732 0 0 0 0 -4.5696718568542565 -3.7219618067947522 0 -3.7219618067947522 -0.18319483032564676 0 0 0 0 -35.926306451063596 5.423296535761132 0 5.423296535761132 0.37530441029628037 0 0 0 0 -41.501258682540254 -24.975918168085229 0 -24.975918168085229 7.5031995648178054 0 0 0 0 -2.8765127890785607 -2.193538103742668 0 -2.193538103742668 2.835124611540536 0 0 0 0 -3.811153640081784 -0.69086565093880559 0 -0.69086565093880559 3.3860761463542843 0 0 0 0 -1.7392911557189397 -0.4616890519061374 0 -0.4616890519061374 3.4676837025272254 0 0 0 0 -2.6234665358634262 0.72511832707598201 0 0.72511832707598201 4.8118526474357806 0 0 0 0 -3.1837586957353174 -1.3833074197635313 0 -1.3833074197635313 5.3999796248564778 0 0 0 0 -5.1185216644532829 -3.9879694793264377 0 -3.9879694793264377 2.5140549956758278 0 0 0 0 -1.6621651050734938 -1.3837080728741653 0 -1.3837080728741653 4.0782094324709588 0 0 0 0 -6.264641324630702 -2.5418276347163555 0 -2.5418276347163555 3.33262505864991 0 0 0 0 -11.21675635010206 -8.8091299600777688 0 -8.8091299600777688 12.233014700471131 0 0 0 0 -3.3761946140917054 -2.6187381244767347 0 -2.6187381244767347 6.1434379781761326 0 0 0 0 2.2604325150205113 -2.9810911718382158 0 -2.9810911718382158 6.0206209401112147 0 0 0 0 2.5928602973274337 -2.3286060805553461 0 -2.3286060805553461 -2.1176612090288245 0 0 0 0 32.001989430432104 -17.481665177964771 0 -17.481665177964771 17.532510423468807 0 0 0 0 37.694091867176894 -30.327924392445027 0 -30.327924392445027 20.58047750159426 0 0 0 0 21.856510906843141 -30.453018636729098 0 -30.453018636729098 39.461683839233274 0 0 0 0 29.225252039209408 -35.365981583596977 0 -35.365981583596977 44.073571237864144 0 0 0 0 36.78750293403391 -39.520968438896489 0 -39.520968438896489 38.967396228576717 0 0 0 0 40.096857705331786 -37.115102915956413 0 -37.115102915956413 42.777251801894863 0 0 0 0 32.689882015207104 -34.032643373236567 0 -34.032643373236567 43.336569501776694 0 0 0 0 1.7824504924010398 1.445498326693496 0 1.445498326693496 -7.0451589287293928 0 0 0 0 37.02472018200524 -55.710732959790562 0 -55.710732959790562 49.473641178955972 0 0 0 0 0.46411963343475371 -0.15393269989192016 0 -0.15393269989192016 -0.20343121568057887 0 0 0 0 31.414774128134013 -54.890513359975557 0 -54.890513359975557 67.913784092308106 0 0 0 0 43.194395905298734 -33.650332906025596 0 -33.650332906025596 60.432742131772216 0 0 0 0 35.734372982722562 -42.262368176369108 0 -42.262368176369108 48.703746667500127 0 0 0 0 35.487058037482711 -40.170241496151675 0 -40.170241496151675 55.87853045475822 0 0 0 0 39.437527851214327 -36.166115490058132 0 -36.166115490058132 48.06239431774884 0 0 0 0 46.801418213576881 -43.416924087129502 0 -43.416924087129502 47.910684194466512 0 0 0 0 12.242602818445448 -2.4494022179882222 0 -2.4494022179882222 14.730209005195597 0 0 0 0 5.078108486626661 -15.263507019010035 0 -15.263507019010035 3.9330918984312575 0 0 0 0 -1.0468117675645772 26.27887202537795 0 26.27887202537795 13.68028958292058 0 0 0 0 -0.76208555173882964 -4.2283806216298014 0 -4.2283806216298014 -2.5287140948873503 0 0 0 0 -5.425941336001415 5.9197278453617628 0 5.9197278453617628 45.529580812848167 0 0 0 0 -23.518862766346501 12.806275216460904 0 12.806275216460904 11.026826898277079 0 0 0 0 -15.291742254757992 -1.3864802393374305 0 -1.3864802393374305 31.960167607077778 0 0 0 0 6.9122765923621046 -14.458895965309239 0 -14.458895965309239 6.1259392886008754 0 0 0 0 -8.4865805325098336 -16.522698676888126 0 -16.522698676888126 -4.1740730003722888 0 0 0 0 3.7896144021060536 -7.1234412561724412 0 -7.1234412561724412 -10.594040414534447 0 0 0 0 36.996974000519003 -51.964224662936601 0 -51.964224662936601 54.565655019341989 0 0 0 0 30.141167654916757 -48.293296383962797 0 -48.293296383962797 58.648925242546966 0 0 0 0 -0.62856257811921168 -0.36545189582938997 0 -0.36545189582938997 0.52174119144683773 0 0 0 0 -0.39570933748836978 -23.827945091641595 0 -23.827945091641595 -8.7751962683612419 0 0 0 0 41.873304747643942 -46.045864722239813 0 -46.045864722239813 47.507967534228101 0 0 0 0 31.100953805054814 -38.796203628037233 0 -38.796203628037233 45.811770079191604 0 0 0 0 32.751944806193478 -35.084048856687332 0 -35.084048856687332 33.085425158682142 0 0 0 0 25.110490463218412 -31.475584545413085 0 -31.475584545413085 56.852497838971033 0 0 0 0 -0.7001113192095314 -0.41760930972895016 0 -0.41760930972895016 -0.10387542605338407 0 0 0 0 5.3296398782140386 -8.1218365178171439 0 -8.1218365178171439 7.7658090697243303 0 0 0 0 24.413973250979325 7.7335134236174099 0 7.7335134236174099 8.3806903127672285 0 0 0 0 -39.540405384454061 25.812285116125281 0 25.812285116125281 11.395935821756211 0 0 0 0 2.6923807940520419 -15.381383750352086 0 -15.381383750352086 -17.898649772224417 0 0 0 0 -5.2809754505451565 -5.9182523733177845 0 -5.9182523733177845 -24.328178543755826 0 0 0 0 -87.41017563783771 19.708804225223048 0 19.708804225223048 -11.599358849222085 0 0 0 0 -25.016117664369631 -3.5610730544636873 0 -3.5610730544636873 -18.674696438020192 0 0 0 0 -10.271738396081064 -3.7424194102915007 0 -3.7424194102915007 4.6015122118013938 0 0 0 0 2.4427547326522472 33.502726463869067 0 33.502726463869067 -17.808869750554663 0 0 0 0 -15.65414586515908 33.108287866900014 0 33.108287866900014 10.684053951101987 0 0 0 0 -9.6761103693634141 -37.289918658434026 0 -37.289918658434026 -44.767429573613583 0 0 0 0 -0.46220764484588894 -0.315347968172496 0 -0.315347968172496 -0.13011430370563393 0 0 0 0 18.69627611627584 43.252232456409729 0 43.252232456409729 87.357510935703203 0 0 0 0 -71.404380040561989 -76.8115619829953 0 -76.8115619829953 -47.819338495095906 0 0 0 0 -0.84477111049880627 -0.27561318785570732 0 -0.27561318785570732 -0.25977843475253648 0 0 0 0 85.47552237243417 83.34817406274658 0 83.34817406274658 28.030686414887555 0 0 0 0 93.916168467136913 1.7550872184692707 0 1.7550872184692707 -29.439084883842042 0 0 0 0 68.850927999817486 -56.617624330253705 0 -56.617624330253705 -41.27226212641682 0 0 0 0 -104.06096105108782 156.68837704417996 0 156.68837704417996 59.599834467160008 0 0 0 0 191.25217449648517 95.025741404103144 0 95.025741404103144 51.654676271373944 0 0 0 0 -103.6379311507776 -66.390591344235531 0 -66.390591344235531 14.524225155292811 0 0 0 0 18.30700137154497 -20.909584323009398 0 -20.909584323009398 -0.60058328528987204 0 0 0 0 14.091214394232338 -9.7045051985155624 0 -9.7045051985155624 -18.152528082725894 0 0 0 0 -2.2355680745281461 -24.365340690927496 0 -24.365340690927496 -0.73199195516744808 0 0 0 0 -49.986887025474516 15.663247392562567 0 15.663247392562567 7.4880425645759487 0 0 0 0 34.517193045734757 -27.861649948526036 0 -27.861649948526036 19.187810378253971 0 0 0 0 5.8372792464465419 -46.214154669738036 0 -46.214154669738036 7.4447923154766613 0 0 0 0 7.7697494467897741 -71.234143539419165 0 -71.234143539419165 37.723993616200687 0 0 0 0 13.730059856798562 -15.521251668807963 0 -15.521251668807963 10.124690537914546 0 0 0 0 21.878648631577107 -30.497773654734658 0 -30.497773654734658 22.363610977880398 0 0 0 0 34.646222436500466 -29.576528447073699 0 -29.576528447073699 38.920101186587772 0 0 0 0 27.649179340768114 -49.444126550382634 0 -49.444126550382634 61.099168608848913 0 0 0 0 18.428284448727027 -18.403148663120504 0 -18.403148663120504 53.713151754594833 0 0 0 0 19.802980372330239 -19.207554234317115 0 -19.207554234317115 32.279047452952682 0 0 0 0 27.453515219601286 -33.41790112037927 0 -33.41790112037927 37.079722934424012 0 0 0 0 15.141941755637731 -11.68313245101676 0 -11.68313245101676 22.941391318381648 0 0 0 0 19.232701769870346 -15.599054320677453 0 -15.599054320677453 9.1626290156374353 0 0 0 0 44.305496552901559 -26.621171507075474 0 -26.621171507075474 -5.3150761980907646 0 0 0 0 0.014149521107388985 -0.16479746445695653 0 -0.16479746445695653 -0.36819950628608167 0 0 0 0 11.180293386138146 -1.0430661980101377 0 -1.0430661980101377 7.1384861329748546 0 0 0 0 27.244628893967274 -23.265320313171685 0 -23.265320313171685 9.8965941280105909 0 0 0 0 10.405796339224935 -12.909090591495072 0 -12.909090591495072 24.060185658143951 0 0 0 0 28.194827193612582 2.6679652418033015 0 2.6679652418033015 -29.322981452976251 0 0 0 0 -14.213608354322332 -19.160324188809625 0 -19.160324188809625 -5.9914042583634455 0 0 0 0 0.1351776218021099 -0.0047388744145404615 0 -0.0047388744145404615 -0.31163540918856469 0 0 0 0 10.374325421944377 -5.4673640410186408 0 -5.4673640410186408 0.72996242274541601 0 0 0 0 42.046150485060707 -17.690742627961129 0 -17.690742627961129 -37.01816261256613 0 0 0 0 4.5508432439687567 -27.595167933543109 0 -27.595167933543109 -33.525684362566608 0 0 0 0 -6.3783634980454735 -17.346704815914336 0 -17.346704815914336 -32.98892649710217 0 0 0 0 -2.5266885782671125 -20.742602866604443 0 -20.742602866604443 -14.694588213445513 0 0 0 0 4.3787296565096199 -31.264462304443299 0 -31.264462304443299 -8.5385729405818438 0 0 0 0 -6.7095583803875343 -35.032798234403685 0 -35.032798234403685 -2.2743719356083147 0 0 0 0 -24.643387099140455 -33.271928926707233 0 -33.271928926707233 -2.0146562075715337 0 0 0 0 -4.9726715973221758 -34.297419311553313 0 -34.297419311553313 -19.485347747948708 0 0 0 0 -17.585361443701004 -24.365422077520293 0 -24.365422077520293 -26.676777087426672 0 0 0 0 -16.5134296616543 -14.550719391235901 0 -14.550719391235901 -22.409228701375469 0 0 0 0 -20.608122584222485 -31.524106637999935 0 -31.524106637999935 -25.748861747019873 0 0 0 0 -10.078433580551973 -2.8033440560792542 0 -2.8033440560792542 -0.76994575787855979 0 0 0 0 -8.9060809747707026 1.0505003406765354 0 1.0505003406765354 1.0759088984752907 0 0 0 0 -4.0849735583882243 2.2124570861702635 0 2.2124570861702635 0.49339755693953524 0 0 0 0 -3.2859310702560833 -6.1018859831406189 0 -6.1018859831406189 -18.913542822841407 0 0 0 0 -1.9170583462921513 -13.194429115867422 0 -13.194429115867422 -29.205305611306812 0 0 0 0 -10.625846334743983 -9.1984290088937541 0 -9.1984290088937541 -17.586599200763885 0 0 0 0 8.9905734794783712 -16.247968747869095 0 -16.247968747869095 -35.889989627470356 0 0 0 0 0.23034513456173045 -9.025707708823461 0 -9.025707708823461 -24.027781884237584 0 0 0 0 -3.3167620079279914 -9.5541721971876541 0 -9.5541721971876541 -24.037158884959972 0 0 0 0 7.1931316969290719 2.4608742801549965 0 2.4608742801549965 -37.11354199288553 0 0 0 0 17.975561195582941 -6.7504676420524277 0 -6.7504676420524277 -36.755539988996134 0 0 0 0 1.4147315766313113 1.9199048579586595 0 1.9199048579586595 9.3127498354007869 0 0 0 0 2.5351881379039183 1.8638414384547866 0 1.8638414384547866 1.2181255134715268 0 0 0 0 -1.5459233973024311 3.0199156566312695 0 3.0199156566312695 9.141215467384427 0 0 0 0 2.1315930263041842 0.91730057772431306 0 0.91730057772431306 0.10600580497720391 0 0 0 0 -3.8609287275662609 5.8430841871440862 0 5.8430841871440862 -4.9505981135039576 0 0 0 0 -7.4629827054268389 3.9377467475222829 0 3.9377467475222829 11.375613215261183 0 0 0 0 -0.42986938576397904 14.012139986733253 0 14.012139986733253 5.8143123420588836 0 0 0 0 -3.6970176391769201 8.2039091169115572 0 8.2039091169115572 3.7967398899191949 0 0 0 0 -7.4404107056105886 3.5261940532451774 0 3.5261940532451774 4.4571799793676519 0 0 0 0 -2.8985281983211326 0.38919930474656717 0 0.38919930474656717 2.8771275044541937 0 0 0 0 -3.9819649413575462 -2.4368860552884257 0 -2.4368860552884257 0.49445486761067059 0 0 0 0 -1.8119065052482357 -0.4778264192507522 0 -0.4778264192507522 1.8445630074925825 0 0 0 0 -1.0395025369684925 0.094017652852330436 0 0.094017652852330436 1.3549676325390796 0 0 0 0 -50.978526244109162 -7.861138905015423 0 -7.861138905015423 2.1543584762648607 0 0 0 0 -5.1990466269267017 -0.76477045693323475 0 -0.76477045693323475 2.7051775621615661 0 0 0 0 -42.939958342652517 -29.019879574573565 0 -29.019879574573565 1.0477336532617869 0 0 0 0 -61.635574105992418 -19.35996230319256 0 -19.35996230319256 -2.398702372939681 0 0 0 0 -32.714635104087392 -45.740868346417528 0 -45.740868346417528 18.330749513489309 0 0 0 0 -38.212923881893857 -21.005338200603546 0 -21.005338200603546 -12.08686670738166 0 0 0 0 1.7300071387265916 3.2054714445910548 0 3.2054714445910548 7.4931079655498252 0 0 0 0 -0.52500185441719793 0.55825966729626852 0 0.55825966729626852 1.1443005284221488 0 0 0 0 -2.5218340956389511 -0.088322881806334408 0 -0.088322881806334408 0.88979082490516248 0 0 0 0 -2.0105484051764506 -1.7234536606318898 0 -1.7234536606318898 -1.0322607638231602 0 0 0 0 1.7846401654542206 4.4340258460143787 0 4.4340258460143787 6.8819392122971408 0 0 0 0 7.1210505467892062 12.247913392692681 0 12.247913392692681 7.4474979334208911 0 0 0 0 4.3595377355441087 5.0147305894432748 0 5.0147305894432748 6.4165958699611565 0 0 0 0 -6.1150243644005968 -3.0122629513795118 0 -3.0122629513795118 -0.85572602310685397 0 0 0 0 -0.78707880576962541 0.29392430524346214 0 0.29392430524346214 0.6718974100328432 0 0 0 0 -6.3805790785427234 -0.54041929593574878 0 -0.54041929593574878 0.20661153998338477 0 0 0 0 -3.3712032640950875 1.2564580764843605 0 1.2564580764843605 1.7193369945920232 0 0 0 0 15.704770685029871 11.079752813970913 0 11.079752813970913 3.8029191492830705 0 0 0 0 -0.74409554707301773 0.33792717441546749 0 0.33792717441546749 0.61597517128083723 0 0 0 0 2.8784405508658892 6.9806924875338154 0 6.9806924875338154 1.185204519929357 0 0 0 0 1.0494518428631636 7.0065646981768168 0 7.0065646981768168 9.7556347775373524 0 0 0 0 -3.0937614656859296 6.3312714043447613 0 6.3312714043447613 1.6851724911770134 0 0 0 0 -4.601040481934433 -0.72780993959349871 0 -0.72780993959349871 -6.1869099647346957 0 0 0 0 -1.9952762960892869 7.2212891840108568 0 7.2212891840108568 -3.8647407830681004 0 0 0 0 -4.2581175238797186 6.3527909861961689 0 6.3527909861961689 7.4828121846794602 0 0 0 0 2.0627308958441972 6.4026611099997695 0 6.4026611099997695 7.3970604438381997 0 0 0 0 -0.17793758906327639 5.8966469129243819 0 5.8966469129243819 7.9517919962750057 0 0 0 0 -14.170115063645881 -1.8472416497447739 0 -1.8472416497447739 17.603301019118817 0 0 0 0 2.0020750784003667 -0.36070782158981274 0 -0.36070782158981274 10.436086433380524 0 0 0 0 -1.9578519332917494 -11.656799553540395 0 -11.656799553540395 21.054237343896148 0 0 0 0 -10.802406420108582 9.4215971534970322 0 9.4215971534970322 7.5965052464998735 0 0 0 0 -6.0716595250788714 5.1067956402110894 0 5.1067956402110894 -11.501178709380383 0 0 0 0 -7.5097268266931678 -20.568948428093336 0 -20.568948428093336 -27.983663066764393 0 0 0 0 -6.8509860489102721 -26.966390342647628 0 -26.966390342647628 -19.824043083179276 0 0 0 0 2.756984043259763 -1.1074274219117797 0 -1.1074274219117797 -26.89190301419444 0 0 0 0 -6.9117590365112846 -3.3774518954892301 0 -3.3774518954892301 -5.4513866942055529 0 0 0 0 5.0505327182354449 1.4641329898499862 0 1.4641329898499862 -7.2319135437337536 0 0 0 0 1.6838139990313721 8.7918736701927571 0 8.7918736701927571 7.6588630609544452 0 0 0 0 0.86141480009791849 -0.75730155181508962 0 -0.75730155181508962 3.5356967667908066 0 0 0 0 11.886726490635738 1.6369095871480113 0 1.6369095871480113 -3.1024715864568861 0 0 0 0 -1.815761916147153 -5.1207275046152176 0 -5.1207275046152176 -11.099091030005184 0 0 0 0 0.1608665069734343 -2.6470839966709718 0 -2.6470839966709718 -9.9252314754589861 0 0 0 0 -0.81678569203268125 1.5589143988125045 0 1.5589143988125045 -2.736252289422282 0 0 0 0 -7.8181982532678376 -5.697545896745396 0 -5.697545896745396 -6.8237844649938495 0 0 0 0 4.9189903714695902 0.43032674160599527 0 0.43032674160599527 -7.381407328259229 0 0 0 0 -1.0490716674462419 -11.755589732679255 0 -11.755589732679255 -16.533693247314659 0 0 0 0 -10.183568492527741 -13.244371067601065 0 -13.244371067601065 -15.906899494036224 0 0 0 0 -19.560540497309375 -17.017779911584967 0 -17.017779911584967 -15.162104404895103 0 0 0 0 -11.351909412044961 -6.9995704851312439 0 -6.9995704851312439 -12.427920491012628 0 0 0 0 -13.92509017098746 -8.8534893215573902 0 -8.8534893215573902 -14.783445498852871 0 0 0 0 -8.2352560257222649 -6.7537500576577258 0 -6.7537500576577258 -15.54909375673742 0 0 0 0 -12.201933032834859 -11.375948593571593 0 -11.375948593571593 -21.128322130472952 0 0 0 0 -19.685732209954949 -13.680283332242652 0 -13.680283332242652 -15.630924074135464 0 0 0 0 -7.5194857882597717 -6.7254311052165576 0 -6.7254311052165576 -15.120432596631417 0 0 0 0 -4.6797553821909332 -1.772699242391468 0 -1.772699242391468 -9.9867933297655327 0 0 0 0 -9.6555854274574813 -8.3864391603465265 0 -8.3864391603465265 -11.336515290161799 0 0 0 0 -6.7766719549990739 -8.3846063983792192 0 -8.3846063983792192 -13.997158784151907 0 0 0 0 -9.9119114707068547 -6.0690903959819025 0 -6.0690903959819025 -14.558904789002099 0 0 0 0 -22.306078185039041 -13.490251891916614 0 -13.490251891916614 -17.134888074217315 0 0 0 0 -10.517722358907577 -3.701889501446658 0 -3.701889501446658 -13.322525591567683 0 0 0 0 -14.929740358719755 -18.19618366607483 0 -18.19618366607483 -24.094011590224 0 0 0 0 -11.586292303372826 1.8562784949437052 0 1.8562784949437052 3.2667177257258322 0 0 0 0 -22.9655016804345 -10.228170049200799 0 -10.228170049200799 -19.06135354635353 0 0 0 0 -15.527252538185166 -12.683228517070347 0 -12.683228517070347 -26.552315594445645 0 0 0 0 -15.220213303510718 -12.162715082322848 0 -12.162715082322848 -18.126525959257833 0 0 0 0 -14.761387467334316 -15.146668724464689 0 -15.146668724464689 -21.994829773563765 0 0 0 0 -4.7117688822008859 -18.409404463241117 0 -18.409404463241117 -5.8008035084116614 0 0 0 0 4.3703381747386629 -4.3354524450326153 0 -4.3354524450326153 -3.6795592950048217 0 0 0 0 -5.040594145210207 -16.288001635398274 0 -16.288001635398274 -2.6973383612607904 0 0 0 0 -8.1084958533125757 -2.3664757330848474 0 -2.3664757330848474 -11.262566865753342 0 0 0 0 5.9600049808952491 -28.709198468973241 0 -28.709198468973241 -26.9258992740547 0 0 0 0 -2.39244612252525 -1.8468326414925968 0 -1.8468326414925968 -0.094124648129779054 0 0 0 0 -24.637950705457484 -22.607697884102421 0 -22.607697884102421 -14.430823949795922 0 0 0 0 -13.022136038619465 -23.549782365545525 0 -23.549782365545525 -14.379452839578789 0 0 0 0 -1.3830344960435923 7.6805716828478694 0 7.6805716828478694 3.3133417770959568 0 0 0 0 -0.57927936085479814 12.842030569008102 0 12.842030569008102 -15.834350678291685 0 0 0 0 4.6446186899804616 2.028772490200538 0 2.028772490200538 -8.7989006777406757 0 0 0 0 0.60029468417928911 8.0699479764026592 0 8.0699479764026592 -9.8207254348367314 0 0 0 0 -4.7544882549772938 3.1542630495215214 0 3.1542630495215214 -0.60292647096217866 0 0 0 0 -5.0605560759177024 9.9940650561438815 0 9.9940650561438815 -3.8131138975298313 0 0 0 0 -21.489756016787169 -8.452528882784236 0 -8.452528882784236 1.5388643260232584 0 0 0 0 -0.5621240138799326 0.23569962887601292 0 0.23569962887601292 0.49170082380313218 0 0 0 0 1.7433746487449753 10.336653261527999 0 10.336653261527999 0.032527040132777074 0 0 0 0 16.186225451578139 14.446556893902198 0 14.446556893902198 -2.0556814551823663 0 0 0 0 -5.1335379994571895 2.6238532467146456 0 2.6238532467146456 -9.3379276081495846 0 0 0 0 -8.1609906788230546 1.4781075854909886 0 1.4781075854909886 -7.0156133446489548 0 0 0 0 -10.906598342323377 -4.0816326644667242 0 -4.0816326644667242 -11.771183776569956 0 0 0 0 -7.2306730313570142 -1.6677017929308136 0 -1.6677017929308136 -11.35575220922874 0 0 0 0 -8.2104340406958727 0.99629053488911268 0 0.99629053488911268 -1.8601269793400093 0 0 0 0 -2.6115643056900808 1.2221078017207674 0 1.2221078017207674 -6.7867450536123215 0 0 0 0 -7.6497947533266597 0.19631548222696438 0 0.19631548222696438 -8.90573465057264 0 0 0 0 -7.096416604262231 -1.299113463048343 0 -1.299113463048343 -7.2555307223862542 0 0 0 0 -6.9763222721024363 4.1770690757194195 0 4.1770690757194195 -3.8201509521154549 0 0 0 0 -12.329196919590686 -0.95223589711758905 0 -0.95223589711758905 -0.99930676576855149 0 0 0 0 -6.0335401349275877 -1.5085056083346429 0 -1.5085056083346429 -2.0186842322383649 0 0 0 0 -2.6782123230542965 6.0245484282452839 0 6.0245484282452839 -4.7021550532695073 0 0 0 0 -6.0004664721350309 8.3097645691648268 0 8.3097645691648268 3.2944629542160868 0 0 0 0 -5.7035262353500986 3.7590756986677203 0 3.7590756986677203 -1.6466944771455125 0 0 0 0 -6.6966281583136151 -53.496613924918961 0 -53.496613924918961 95.031176709340457 0 0 0 0 7.5637237568466844 -18.846533847215824 0 -18.846533847215824 51.008159693541984 0 0 0 0 -7.2634612706469852 -3.0902478976929615 0 -3.0902478976929615 -5.1003237627178351 0 0 0 0 -13.18496689182939 -0.26070810510327647 0 -0.26070810510327647 -1.2947243605094627 0 0 0 0 -6.189859603046866 -4.4081418243062984 0 -4.4081418243062984 -3.0021099271862308 0 0 0 0 -9.5728382540728489 -6.5276087897056527 0 -6.5276087897056527 -0.1739276883263301 0 0 0 0 -11.97062820639281 -3.78440397859907 0 -3.78440397859907 -0.95035763312610788 0 0 0 0 -8.7299140306349727 0.45836128954260857 0 0.45836128954260857 -6.9302308980581984 0 0 0 0 -15.124179313255809 -5.681478878382336 0 -5.681478878382336 -3.1864543535875782 0 0 0 0 -9.3969769769828417 -4.878450147200283 0 -4.878450147200283 -0.99733780665201266 0 0 0 0 -8.2596639446708195 -9.520363326126386 0 -9.520363326126386 -1.4612288473763329 0 0 0 0 -11.958223497351483 -4.5652940593214133 0 -4.5652940593214133 -1.6495041341529819 0 0 0 0 -6.4435260286809353 -3.3424752131350033 0 -3.3424752131350033 -7.5435133224548281 0 0 0 0 -9.1592357471898893 -5.5220880952202993 0 -5.5220880952202993 -2.4863730507706521 0 0 0 0 -6.1595349084600457 -1.9660663602335262 0 -1.9660663602335262 -1.7715503263875689 0 0 0 0 -13.423554407201664 -4.9274099790163746 0 -4.9274099790163746 -7.7898746033210955 0 0 0 0 -13.885471249122872 -9.0914987151693936 0 -9.0914987151693936 -14.810305690254154 0 0 0 0 -4.9773809216708287 2.2391851941450227 0 2.2391851941450227 -3.3277970617054962 0 0 0 0 -1.4135716756839649 0.52800007570832008 0 0.52800007570832008 0.70166980280776592 0 0 0 0 -3.2734369029149804 -2.9378078926711098 0 -2.9378078926711098 -1.4627155184200666 0 0 0 0 1.3920270871149114 -9.6681470163334779 0 -9.6681470163334779 -2.8649345638928025 0 0 0 0 -13.386994764129724 -5.0843220142610459 0 -5.0843220142610459 -1.9132204566577271 0 0 0 0 -9.6385506033602724 -43.445628371527164 0 -43.445628371527164 64.760049447182723 0 0 0 0 10.953636347572683 -35.342769176915056 0 -35.342769176915056 34.785382223883062 0 0 0 0 -15.721545184791466 -9.2448201524042588 0 -9.2448201524042588 22.127035580346128 0 0 0 0 1.1749836343724382 -28.62140159877822 0 -28.62140159877822 21.252854865920767 0 0 0 0 -11.60707590507991 -21.72913857065646 0 -21.72913857065646 34.433024627501482 0 0 0 0 -2.0774666430479556 -14.610342558531613 0 -14.610342558531613 7.8110139181064824 0 0 0 0 7.3782392077082477 -25.137146740919434 0 -25.137146740919434 0.098138535015550588 0 0 0 0 -5.0201457033435872 -27.935683431139296 0 -27.935683431139296 -0.28831045938642319 0 0 0 0 2.7095615033358627 -9.9267391403220131 0 -9.9267391403220131 -28.854990103997466 0 0 0 0 -11.489075995810708 -18.179970404211986 0 -18.179970404211986 6.4572223540685627 0 0 0 0 -5.5065633317117317 -50.612398946084227 0 -50.612398946084227 95.384122448398898 0 0 0 0 5.3791074185246543 -47.093781037901522 0 -47.093781037901522 73.052952294559191 0 0 0 0 4.9184281958841893 -40.96030866519618 0 -40.96030866519618 25.874126371473608 0 0 0 0 -4.5201082299154223 -18.945387256985271 0 -18.945387256985271 51.314061780457905 0 0 0 0 -13.450346057121322 -3.5599368573825201 0 -3.5599368573825201 -0.76409779073196749 0 0 0 0 14.373287190825977 -30.376164377894497 0 -30.376164377894497 43.162004806509458 0 0 0 0 -10.817090808321154 -14.471034791744728 0 -14.471034791744728 62.109038122397806 0 0 0 0 -14.084224995349359 -32.956082719514939 0 -32.956082719514939 42.967516299700094 0 0 0 0 1.9049654908387765 -17.464086143316536 0 -17.464086143316536 10.348532327357589 0 0 0 0 -11.634337370476715 -26.161609948181535 0 -26.161609948181535 6.9076411069613641 0 0 0 0 -21.261634723028692 -17.93648248055888 0 -17.93648248055888 -23.248827097774779 0 0 0 0 -1.3668864421288163 -11.236114797213276 0 -11.236114797213276 -21.586830566194067 0 0 0 0 -29.268177728748924 -19.594655864921037 0 -19.594655864921037 6.5060459703229299 0 0 0 0 -15.468837686312327 -14.313608916104386 0 -14.313608916104386 -48.051798072558995 0 0 0 0 -26.440518329167389 -2.7419857471080604 0 -2.7419857471080604 -30.5075026924074 0 0 0 0 -36.853752302209614 -17.648207391734104 0 -17.648207391734104 -19.745526562381286 0 0 0 0 -15.446757415120373 -25.18249983271653 0 -25.18249983271653 -20.500871138275599 0 0 0 0 -18.667774594652656 -9.1984959692579054 0 -9.1984959692579054 -28.861913071752042 0 0 0 0 -22.383514990222466 -6.3791442060446002 0 -6.3791442060446002 15.519705715552846 0 0 0 0 -3.2234476434805401 -14.746647826136766 0 -14.746647826136766 7.0947306672494506 0 0 0 0 -8.0084806846170977 -39.432206400692962 0 -39.432206400692962 37.938790270590289 0 0 0 0 -14.655554930268408 -5.4359342074102415 0 -5.4359342074102415 -2.491503232030027 0 0 0 0 -14.849030974311972 -3.9588601700434083 0 -3.9588601700434083 -2.9361867426300705 0 0 0 0 -13.057862577324613 -2.5267449075606123 0 -2.5267449075606123 1.1627728071780439 0 0 0 0 -14.878712633903779 -8.2259810095500772 0 -8.2259810095500772 -3.2737155356497816 0 0 0 0 -14.783005728531862 -5.6897743922718291 0 -5.6897743922718291 0.26306786264535731 0 0 0 0 -13.830906625778425 -6.0987188971920432 0 -6.0987188971920432 -5.9340044213322471 0 0 0 0 -10.647379661567225 -7.4458829162348428 0 -7.4458829162348428 -4.0792906933226245 0 0 0 0 -17.154225139815026 -5.0423073966389893 0 -5.0423073966389893 -5.728670360281285 0 0 0 0 -17.203444030172449 -6.1727294092452567 0 -6.1727294092452567 -2.7794722060034474 0 0 0 0 -20.660313015780048 -9.1102229300406634 0 -9.1102229300406634 -3.3981483679916096 0 0 0 0 -9.9973797458712408 0.14998717148652396 0 0.14998717148652396 3.2263648363493367 0 0 0 0 -14.322739644194371 0.18047564721518938 0 0.18047564721518938 -0.40042541740012894 0 0 0 0 -38.508341758879396 -7.3674804670413323 0 -7.3674804670413323 0.12566218556187891 0 0 0 0 -9.3000673688572988 -13.726637156588851 0 -13.726637156588851 -26.780612789261795 0 0 0 0 -13.486436912767203 -8.6234788433368976 0 -8.6234788433368976 -8.2814046650069031 0 0 0 0 -7.5172873394603812 -5.0403134670395957 0 -5.0403134670395957 -6.1307412613678025 0 0 0 0 -14.687103742465702 -5.1225190435752737 0 -5.1225190435752737 -0.85967953948696119 0 0 0 0 -13.048858069607377 -0.86880811556534354 0 -0.86880811556534354 1.8653714494303131 0 0 0 0 -18.145362394663607 -1.5641243598356596 0 -1.5641243598356596 15.837791005507029 0 0 0 0 -11.634884212364341 -1.1434048217779491 0 -1.1434048217779491 -8.7219275349734744 0 0 0 0 -10.271110907633556 11.630272372465015 0 11.630272372465015 8.2283387117263374 0 0 0 0 -34.640970791100699 -36.390585656801704 0 -36.390585656801704 5.3008321045073785 0 0 0 0 2.3249740640258096 14.588319117467108 0 14.588319117467108 -20.500061311614729 0 0 0 0 -12.537294234160072 -18.996178081293579 0 -18.996178081293579 48.46270214414352 0 0 0 0 -6.1667841887865507 -31.299668600970989 0 -31.299668600970989 39.734160065238939 0 0 0 0 -14.186372588368613 1.6355138718773219 0 1.6355138718773219 51.124334528519746 0 0 0 0 8.8422299502326496 -29.336666196769158 0 -29.336666196769158 21.250056606376688 0 0 0 0 -15.067913744796897 7.7485135646599588 0 7.7485135646599588 86.1571755131543 0 0 0 0 13.848778208279327 -38.981774319119609 0 -38.981774319119609 22.838860902726879 0 0 0 0 -2.3591042795979007 -2.0385372702794484 0 -2.0385372702794484 0.35691601785964155 0 0 0 0 -0.38275055905251065 -41.093376579828373 0 -41.093376579828373 47.465340113371553 0 0 0 0 -4.3751819912517007 0.43159763621063885 0 0.43159763621063885 1.065316315436895 0 0 0 0 -12.67130210250798 6.6220599976456924 0 6.6220599976456924 4.1660394474462237 0 0 0 0 -21.492141814733259 -18.748515638953222 0 -18.748515638953222 73.081090776822862 0 0 0 0 -16.545655898510631 -6.1264524814710626 0 -6.1264524814710626 -0.48471031121061969 0 0 0 0 -10.446336143522657 -1.0997703404721335 0 -1.0997703404721335 2.9623737466067839 0 0 0 0 -17.197548238255877 -5.1017031008398135 0 -5.1017031008398135 2.6212438715028838 0 0 0 0 -14.872782010736046 -4.8993489425658936 0 -4.8993489425658936 -0.077145562697751302 0 0 0 0 -19.607443083121325 -4.1377144088750697 0 -4.1377144088750697 8.5176940250281064 0 0 0 0 -11.581473865792571 -1.4114844437880976 0 -1.4114844437880976 2.9342856587512052 0 0 0 0 -14.562588494436568 2.5325917792325399 0 2.5325917792325399 14.188967402770572 0 0 0 0 -2.5587895906433289 -0.4743768779259101 0 -0.4743768779259101 0.083517305435904188 0 0 0 0 -14.802669302978757 28.143388834305142 0 28.143388834305142 -25.259579906853077 0 0 0 0 -24.67206336878553 32.665058747091962 0 32.665058747091962 42.561695113124685 0 0 0 0 54.356743737129364 18.872141352794294 0 18.872141352794294 -67.328841613725444 0 0 0 0 -62.857288448470285 20.638831151461225 0 20.638831151461225 9.284690768695782 0 0 0 0 -52.514605288280336 -25.724497107656539 0 -25.724497107656539 -24.096603054393199 0 0 0 0 -6.1556829267461488 -0.97758449388212476 0 -0.97758449388212476 1.328934639149921 0 0 0 0 -18.679162260605153 -14.196693793803774 0 -14.196693793803774 38.591219576735583 0 0 0 0 -32.203742624761162 -10.396077215781133 0 -10.396077215781133 1.1487135391057564 0 0 0 0 -29.962322822584156 -18.076276540878098 0 -18.076276540878098 5.9675823907618906 0 0 0 0 -24.649737914458871 0.32215231366575203 0 0.32215231366575203 5.482376089547234 0 0 0 0 -30.416438975265919 11.246628681148763 0 11.246628681148763 4.2503013757651047 0 0 0 0 -47.36565641949619 -3.9147635078325038 0 -3.9147635078325038 14.610015250567585 0 0 0 0 -32.142860827707409 -10.013085428712543 0 -10.013085428712543 7.6009652722134433 0 0 0 0 -36.067675867594602 5.5711814666735791 0 5.5711814666735791 5.04794318493623 0 0 0 0 -25.532778029092619 2.84378517663104 0 2.84378517663104 5.5049829647411084 0 0 0 0 -36.720047896995766 -8.1222553443190009 0 -8.1222553443190009 1.8969319253737922 0 0 0 0 -38.081904930580549 -13.427801467368681 0 -13.427801467368681 7.3152266300584188 0 0 0 0 -37.894360883532499 -9.5310058463514338 0 -9.5310058463514338 4.4879165445954641 0 0 0 0 -26.864539615083231 -6.0722420576264824 0 -6.0722420576264824 4.804797808532328 0 0 0 0 -3.238308561584323 -1.4125116258281949 0 -1.4125116258281949 2.6354653962549457 0 0 0 0 -125.19298402958702 -27.197325860315559 0 -27.197325860315559 -4.9244946952424016 0 0 0 0 -127.59681170479416 -28.468352961227431 0 -28.468352961227431 0.30529530554252915 0 0 0 0 -26.528337432656041 5.8451403421702874 0 5.8451403421702874 9.4929931943672177 0 0 0 0 -36.80488880485791 4.5170037760260016 0 4.5170037760260016 4.5055736433875495 0 0 0 0 -33.36489332468976 -2.6343936147278555 0 -2.6343936147278555 3.4986977742892122 0 0 0 0 -59.833867187498981 2.3747552996701984 0 2.3747552996701984 17.91325183634666 0 0 0 0 -8.7207377009889893 -0.77038653464931528 0 -0.77038653464931528 2.8837232061258158 0 0 0 0 -28.069013065649415 -17.135347661047518 0 -17.135347661047518 11.95533907348522 0 0 0 0 -40.421404703944972 -14.176374570452282 0 -14.176374570452282 24.031201413155259 0 0 0 0 -51.572619222968569 -10.704638470887744 0 -10.704638470887744 19.721778874457982 0 0 0 0 -127.00534901785795 -23.52997620917958 0 -23.52997620917958 -12.295202008024191 0 0 0 0 -145.70021115841519 -5.0743174431363656 0 -5.0743174431363656 -28.380872204483509 0 0 0 0 4.7440335444198354 -88.327834523002593 0 -88.327834523002593 7.4949366913735957 0 0 0 0 -246.67001146700659 -40.804611013785475 0 -40.804611013785475 42.976929565056935 0 0 0 0 -185.46747581994168 -33.019335657124856 0 -33.019335657124856 12.118317417099604 0 0 0 0 -212.43291238751954 8.9193666906166129 0 8.9193666906166129 1.1033925669979396 0 0 0 0 0.32926613436103414 -0.16552210430128156 0 -0.16552210430128156 0.9091610314193509 0 0 0 0 35.838656310657825 -66.683134442789239 0 -66.683134442789239 -23.723318341192794 0 0 0 0 -66.379422666906976 28.438887433057204 0 28.438887433057204 1.4652383843040866 0 0 0 0 0.7195674831911969 0.35405855833389666 0 0.35405855833389666 0.29573349620600453 0 0 0 0 -14.655653925274237 14.684553171711116 0 14.684553171711116 17.467599501701741 0 0 0 0 -51.625958186730713 60.518888424026159 0 60.518888424026159 -78.609518998434169 0 0 0 0 -255.32074470948464 147.3493449280125 0 147.3493449280125 37.689580215597744 0 0 0 0 -0.41536814053230486 -0.64982993544683509 0 -0.64982993544683509 -0.58344231577283612 0 0 0 0 -17.106065526855673 -147.53567699290102 0 -147.53567699290102 29.447343772216755 0 0 0 0 -221.21600447220044 -26.40659150179647 0 -26.40659150179647 155.26359783706403 0 0 0 0 -67.394171495407136 -95.915101142999788 0 -95.915101142999788 52.051834896073274 0 0 0 0 -200.6981521370567 -53.671041341790016 0 -53.671041341790016 20.183547424955009 0 0 0 0 -211.28133380681038 -89.580670199999844 0 -89.580670199999844 36.578980876393189 0 0 0 0 -132.68097553015468 -14.683301433725433 0 -14.683301433725433 73.63836513181073 0 0 0 0 -127.29894442111981 -138.73469662221316 0 -138.73469662221316 8.5030007550055302 0 0 0 0 -168.13340645157223 -105.5186248594041 0 -105.5186248594041 36.838657900241287 0 0 0 0 -151.92666200930762 -63.961039405740905 0 -63.961039405740905 20.610783716047536 0 0 0 0 -133.37670187426193 -73.883763165934084 0 -73.883763165934084 -14.004858461543563 0 0 0 0 -99.546273054005724 -24.605617975855324 0 -24.605617975855324 -1.6653288922917113 0 0 0 0 -114.04825715693732 -49.991235847527662 0 -49.991235847527662 -5.6691695642101649 0 0 0 0 -96.341928822556838 -40.942815765523875 0 -40.942815765523875 -0.93837481588207083 0 0 0 0 -97.90162691279329 -38.367934384550438 0 -38.367934384550438 -2.2828030937080257 0 0 0 0 -34.252582866843113 -30.12565845069642 0 -30.12565845069642 -12.784799891701823 0 0 0 0 -69.854709656356135 -37.278023934489909 0 -37.278023934489909 -9.4899213108860181 0 0 0 0 -62.274413501549134 -12.602321211824489 0 -12.602321211824489 -1.9220103139666662 0 0 0 0 -88.95935398160691 -20.08855772052388 0 -20.08855772052388 -1.3188593763633492 0 0 0 0 -73.793894610065763 -30.684692217704949 0 -30.684692217704949 -8.2124175881848203 0 0 0 0 -64.556827141532267 -4.0334959546901814 0 -4.0334959546901814 19.048950160374261 0 0 0 0 -60.410196268134314 -10.744835833020531 0 -10.744835833020531 -0.091032694675789116 0 0 0 0 -69.886265287488641 -32.254653047335587 0 -32.254653047335587 -4.6349921979304227 0 0 0 0 -88.429860316220584 -37.787919811051218 0 -37.787919811051218 -11.524612719796238 0 0 0 0 -137.00368182649254 -32.861448889636023 0 -32.861448889636023 -1.0071537969828341 0 0 0 0 -142.45324726418767 -15.917962851719309 0 -15.917962851719309 -23.322626635270495 0 0 0 0 -156.06789396094973 -39.42464347134937 0 -39.42464347134937 9.4435643923565351 0 0 0 0 -156.07981104801866 -38.678356933562057 0 -38.678356933562057 6.4332945257730216 0 0 0 0 -113.51527768326196 -28.354833720918975 0 -28.354833720918975 -7.7264785923888155 0 0 0 0 -104.42881869347548 -40.90122960823652 0 -40.90122960823652 -6.5044365733996301 0 0 0 0 -5.8260711539246586 -12.744572364866187 0 -12.744572364866187 -10.619546051067687 0 0 0 0 -11.248140416197202 -14.949965181729794 0 -14.949965181729794 2.9109051849264915 0 0 0 0 -8.6730345685227803 -27.178491608794133 0 -27.178491608794133 5.0782141254138864 0 0 0 0 18.905905870729839 -19.606460890011277 0 -19.606460890011277 0.1983227230545026 0 0 0 0 -6.9058547092899971 -19.639320157981558 0 -19.639320157981558 21.920202087686789 0 0 0 0 26.871818333900592 -29.285799634729401 0 -29.285799634729401 7.1276208827620735 0 0 0 0 0.45371641765973703 -1.1150753951728039 0 -1.1150753951728039 -0.51067934446569785 0 0 0 0 -15.736949658273261 -3.9128354210579062 0 -3.9128354210579062 -16.152958363333653 0 0 0 0 -70.854012831885484 -24.043646096295227 0 -24.043646096295227 8.5609829499955268 0 0 0 0 1.2995253174140089 95.314953202867457 0 95.314953202867457 32.28943386315791 0 0 0 0 16.152887524309335 56.704216441557492 0 56.704216441557492 -66.497370732894069 0 0 0 0 12.034142672633607 -4.3035380460299848 0 -4.3035380460299848 -88.891704644856645 0 0 0 0 -13.375496236210893 9.1552996039264372 0 9.1552996039264372 21.868335561356048 0 0 0 0 -2.2793444494509458 -34.18925628994424 0 -34.18925628994424 80.657620897866764 0 0 0 0 -5.0150102367983891 -10.76262328806569 0 -10.76262328806569 -0.14732534870040581 0 0 0 0 -7.9309242687004371 8.0587203709028756 0 8.0587203709028756 -27.51644581110736 0 0 0 0 -0.80296724459549296 4.1338380471351002 0 4.1338380471351002 -27.019861946300097 0 0 0 0 -13.870330072062643 -5.5532838349682265 0 -5.5532838349682265 -22.849154244838815 0 0 0 0 -12.611074077301964 1.2835273241993264 0 1.2835273241993264 -4.7337756984276211 0 0 0 0 -14.915207410659605 -6.5482941215195183 0 -6.5482941215195183 -9.0201654637697857 0 0 0 0 -10.714493521753866 -16.163199024774784 0 -16.163199024774784 -36.607651900731184 0 0 0 0 -2.8420573922394397 0.16937694193762809 0 0.16937694193762809 -33.683083191569608 0 0 0 0 -0.21738264106075178 0.31338484738646954 0 0.31338484738646954 -0.4870615402695524 0 0 0 0 0.093915709775640011 -0.64135750976722683 0 -0.64135750976722683 -1.5277702650881291 0 0 0 0 -60.443533961230514 -20.600609392472901 0 -20.600609392472901 -11.933330712996593 0 0 0 0 -4.5833242197968502 -26.212795151555838 0 -26.212795151555838 -61.706759333088485 0 0 0 0 59.823468557199675 -14.55990712376164 0 -14.55990712376164 0.38079961973312493 0 0 0 0 57.893362452318797 29.420353779149679 0 29.420353779149679 -94.692588084831186 0 0 0 0 -74.06828847790166 -10.175337210717778 0 -10.175337210717778 -5.9958375438602616 0 0 0 0 -115.43336282896598 -24.91588829904461 0 -24.91588829904461 -1.4457965999322369 0 0 0 0 -100.30328703381565 -16.406871631909638 0 -16.406871631909638 0.12202798792691283 0 0 0 0 -0.84316152558872304 1.0578497435681857 0 1.0578497435681857 -1.45504501292156 0 0 0 0 -1.4715560680306226 0.095536678812663922 0 0.095536678812663922 -9.9587117506509912 0 0 0 0 -2.8321881606156012 -3.7885939286874035 0 -3.7885939286874035 4.3248370052079679 0 0 0 0 1.3845222327363444 26.340321957204274 0 26.340321957204274 14.724274348065698 0 0 0 0 -120.28540900663575 -35.982203318945238 0 -35.982203318945238 -5.3026951571629546 0 0 0 0 -138.10026956362617 -33.988851347168499 0 -33.988851347168499 -7.6501002971707521 0 0 0 0 -129.4558184564994 -26.986692066946723 0 -26.986692066946723 -7.6085036396466386 0 0 0 0 -110.00617294130143 -37.713908357147766 0 -37.713908357147766 -14.837397656462215 0 0 0 0 -107.32161907596446 -28.570676061685731 0 -28.570676061685731 -2.6927572198242657 0 0 0 0 -82.950015121662545 -23.150400723030639 0 -23.150400723030639 -5.4009027936442351 0 0 0 0 -81.031942410370903 -31.40871876755309 0 -31.40871876755309 -12.351034674822344 0 0 0 0 -96.857610406246749 -24.963569949252673 0 -24.963569949252673 -2.3295735573320826 0 0 0 0 -99.553644280658773 -35.839169276411042 0 -35.839169276411042 -11.816671171685101 0 0 0 0 -105.26132297446202 -29.253886943601344 0 -29.253886943601344 -6.7355263061808159 0 0 0 0 -105.10265122649253 -29.866068127352221 0 -29.866068127352221 -6.3154356056551819 0 0 0 0 -96.200755973675768 -29.830131007484511 0 -29.830131007484511 -9.4328047880327119 0 0 0 0 -111.63253920021089 -32.568498977669975 0 -32.568498977669975 -4.5611916545540705 0 0 0 0 -113.21065865014134 -29.30467973228096 0 -29.30467973228096 -4.7173315982119277 0 0 0 0 -129.98030429297523 -28.019618335853394 0 -28.019618335853394 -0.89403587086087555 0 0 0 0 -126.5307559114699 -30.149571315820367 0 -30.149571315820367 -0.19121986680409009 0 0 0 0 -117.00522392499261 -23.173930636476484 0 -23.173930636476484 -1.7816146109251463 0 0 0 0 -104.07467711163099 -15.039405837077327 0 -15.039405837077327 -3.8381472032942838 0 0 0 0 -130.68689289213216 -22.994307561748656 0 -22.994307561748656 -0.73219227817935462 0 0 0 0 -67.906719504244393 -21.482599490695634 0 -21.482599490695634 -4.223857286768407 0 0 0 0 -98.703015614019023 -26.446517038028787 0 -26.446517038028787 1.3867801109758773 0 0 0 0 -104.34189804169421 -33.501135495892122 0 -33.501135495892122 -2.6679764026982866 0 0 0 0 -112.08115935874685 -24.38642374429503 0 -24.38642374429503 -6.5998713683359256 0 0 0 0 -108.20828122832427 -29.836080394536026 0 -29.836080394536026 -3.2614093350480289 0 0 0 0 -106.44039682723269 -33.234670784804365 0 -33.234670784804365 4.8513699218410693 0 0 0 0 -110.42301040969141 -33.078142449563757 0 -33.078142449563757 4.8740251808123602 0 0 0 0 -121.91935670473958 -42.097955935439757 0 -42.097955935439757 53.068418599735537 0 0 0 0 -93.851274633834691 -38.508676317565374 0 -38.508676317565374 -17.362387108060034 0 0 0 0 -70.758695547851858 -13.064516083511592 0 -13.064516083511592 6.5106142865510037 0 0 0 0 -94.327143158674517 -30.970599193599867 0 -30.970599193599867 5.0567887430624978 0 0 0 0 7.7735617733405888 9.4472120482834168 0 9.4472120482834168 -0.99620317343642029 0 0 0 0 14.381899139419602 0.30962187368839267 0 0.30962187368839267 3.9094629507295906 0 0 0 0 41.910875513212886 14.636125014879973 0 14.636125014879973 -4.9489216742714035 0 0 0 0 -0.016021345747123661 -0.26202475970454486 0 -0.26202475970454486 -1.0744752512685096 0 0 0 0 3.545003498130427 17.359611639413401 0 17.359611639413401 -8.2779815922038438 0 0 0 0 -135.22575289964698 -1.011951722868929 0 -1.011951722868929 24.955426060818809 0 0 0 0 -0.11377686942564535 0.098725964626153129 0 0.098725964626153129 -0.30640994391393561 0 0 0 0 -141.615963317352 -11.646589314826201 0 -11.646589314826201 7.3926311683232484 0 0 0 0 6.1354836496775533 8.4614995108905191 0 8.4614995108905191 4.7747208399213399 0 0 0 0 6.3016243952081368 10.217462590432653 0 10.217462590432653 -4.9937236256300821 0 0 0 0 20.545970428255714 -18.046834615649402 0 -18.046834615649402 2.4669177689511343 0 0 0 0 18.00932605764342 3.7357194594338701 0 3.7357194594338701 -9.4108446224709041 0 0 0 0 9.199656450888142 -2.3911840498815309 0 -2.3911840498815309 -13.299238068309023 0 0 0 0 16.774739694466007 14.822706548359175 0 14.822706548359175 -31.540259207425493 0 0 0 0 39.675825556641939 -11.17422791835213 0 -11.17422791835213 -40.03522471153687 0 0 0 0 -65.457445473504777 41.845859656444588 0 41.845859656444588 -41.147372878435135 0 0 0 0 -1.2555447450234034 -0.28190474108289809 0 -0.28190474108289809 0.10367143208699747 0 0 0 0 -148.4660292888293 37.982205793870094 0 37.982205793870094 -40.870382362464625 0 0 0 0 -48.45960614663818 -87.999823900377237 0 -87.999823900377237 -91.10258784274663 0 0 0 0 -95.773842833095841 -94.786222643442329 0 -94.786222643442329 -37.415466483286309 0 0 0 0 -86.619134210373886 -65.477782386752438 0 -65.477782386752438 17.514130985063048 0 0 0 0 -34.592836154890392 -45.976183938408667 0 -45.976183938408667 -70.688354255898389 0 0 0 0 -22.664417766096449 -3.0890715488466185 0 -3.0890715488466185 -1.3136878010054716 0 0 0 0 -11.687739080705796 -10.603904421927496 0 -10.603904421927496 -16.113306969270184 0 0 0 0 -39.933947916211764 27.342123206491664 0 27.342123206491664 15.218313048516052 0 0 0 0 -57.939525102206971 14.766477146737998 0 14.766477146737998 -4.3565442846555698 0 0 0 0 -36.569639445511712 1.5983021823725494 0 1.5983021823725494 -2.0480497385776744 0 0 0 0 -99.441475787248237 23.076517925382205 0 23.076517925382205 -28.182637342298108 0 0 0 0 -77.058865008406428 -9.6230287370391352 0 -9.6230287370391352 14.363062046374125 0 0 0 0 -133.02242062417645 36.318341185759664 0 36.318341185759664 -146.7871590696509 0 0 0 0 -163.9149826449061 -25.584879603703087 0 -25.584879603703087 25.91410877666101 0 0 0 0 -0.42753802973865973 0.29955339399455205 0 0.29955339399455205 0.34627670714506831 0 0 0 0 -174.44459532156179 24.031694210582486 0 24.031694210582486 88.149383217395382 0 0 0 0 -90.314353197900346 -43.557608544097548 0 -43.557608544097548 -12.590591941009734 0 0 0 0 -11.891633720130059 46.217337155681257 0 46.217337155681257 5.0732014509278542 0 0 0 0 -65.078899760939748 -10.957053045219254 0 -10.957053045219254 -12.61628119496504 0 0 0 0 -117.39754281952719 -0.89730129571785255 0 -0.89730129571785255 17.884977539537886 0 0 0 0 -39.656256727645086 32.901305651527423 0 32.901305651527423 6.4502583444976267 0 0 0 0 -41.206991517229653 28.380382647219335 0 28.380382647219335 30.90551515647644 0 0 0 0 -18.856264040280195 12.544654795618825 0 12.544654795618825 10.310259893762371 0 0 0 0 -149.48095560962821 -109.9293516788639 0 -109.9293516788639 -100.75067272355955 0 0 0 0 -129.57929389967296 -27.136133982873162 0 -27.136133982873162 -90.994495058045231 0 0 0 0 -263.55698008969074 -40.411643680684527 0 -40.411643680684527 21.559370951680194 0 0 0 0 -90.574669842217077 -78.354906205041516 0 -78.354906205041516 -82.551052050243015 0 0 0 0 -6.0698454889133284 -2.1191568524960123 0 -2.1191568524960123 -0.28198006048566526 0 0 0 0 -36.850975765966268 1.470825900069201 0 1.470825900069201 29.198538649510738 0 0 0 0 -2.9857581848043844 16.698086274814528 0 16.698086274814528 12.489477057859423 0 0 0 0 12.476510822069031 10.104210153685131 0 10.104210153685131 -2.5632324146193923 0 0 0 0 -157.5047149138604 -44.312076816135459 0 -44.312076816135459 -3.0598402960258682 0 0 0 0 -82.487591627179484 -94.054915244714948 0 -94.054915244714948 -65.429703961790892 0 0 0 0 -59.166575632862703 -48.572715702438813 0 -48.572715702438813 -52.66289183665458 0 0 0 0 -114.77063338665442 -58.932774502751272 0 -58.932774502751272 -30.85224652791976 0 0 0 0 -2.6586862673077576 -62.094427473893916 0 -62.094427473893916 -68.472727025479571 0 0 0 0 -39.686489966800764 10.553333899790232 0 10.553333899790232 0.62262233537035172 0 0 0 0 -0.67902372893888696 -1.8568091363451913 0 -1.8568091363451913 -54.360777257488053 0 0 0 0 -61.3507386580809 -52.122331502116822 0 -52.122331502116822 -46.136234442331357 0 0 0 0 18.570266998770421 -53.189845897172518 0 -53.189845897172518 -53.225818127531113 0 0 0 0 1.0399724130190242 0.37706443515984667 0 0.37706443515984667 -1.0297751254998442 0 0 0 0 -130.34913994288297 7.8721170561273084 0 7.8721170561273084 3.5235267024154382 0 0 0 0 -50.126772914788944 -25.840926546459059 0 -25.840926546459059 -4.1670698858274591 0 0 0 0 -50.219877521537455 -7.1076285226322398 0 -7.1076285226322398 -2.0323595802821046 0 0 0 0 -61.69743616708206 3.5102301938254641 0 3.5102301938254641 7.4734823068381502 0 0 0 0 -5.6956661555694819 -0.885664945368003 0 -0.885664945368003 -0.90576233360952685 0 0 0 0 -51.884901817005016 -10.477561382615818 0 -10.477561382615818 3.9220555705333027 0 0 0 0 -19.435432516649769 -24.456645420609902 0 -24.456645420609902 3.2355426946687658 0 0 0 0 -45.856437208232933 -24.90905389659747 0 -24.90905389659747 21.451750534960411 0 0 0 0 -69.378322878327253 4.8333966245108968 0 4.8333966245108968 11.359676389871993 0 0 0 0 -70.868619709979612 40.759915767449314 0 40.759915767449314 29.970388922613722 0 0 0 0 -132.30365082041317 -31.663647055152694 0 -31.663647055152694 -1.476691946320642 0 0 0 0 2.735056857177721 2.7204268876343303 0 2.7204268876343303 1.3304075593950091 0 0 0 0 -86.872776680839777 -1.0818206151581222 0 -1.0818206151581222 29.842092979439258 0 0 0 0 -67.517770264043065 -19.268527602907454 0 -19.268527602907454 17.15157780947446 0 0 0 0 -4.6594326607500696 15.777723953694162 0 15.777723953694162 14.413596059725352 0 0 0 0 -20.103552672938292 -1.9608911582105026 0 -1.9608911582105026 -4.5689376173351093 0 0 0 0 -67.326430616403286 2.3653435194657959 0 2.3653435194657959 -11.783748903556898 0 0 0 0 -67.821026665235138 0.43977150347791394 0 0.43977150347791394 25.164212992440753 0 0 0 0 -5.6465000529099854 1.0147942143210955 0 1.0147942143210955 1.4478572186364755 0 0 0 0 -7.8589156103325877 4.7493953083451288 0 4.7493953083451288 0.81497576632349933 0 0 0 0 -7.047091760872263 5.529643494079437 0 5.529643494079437 1.0227859348180459 0 0 0 0 -377.04670169874294 15.721323605678014 0 15.721323605678014 9.6362950540412982 0 0 0 0 -500.28341367673215 -1.0908289260812063 0 -1.0908289260812063 68.643864900496155 0 0 0 0 -1.763329519133654 3.5140912302512524 0 3.5140912302512524 -2.1122246595224823 0 0 0 0 -410.84416375442834 65.911854701102527 0 65.911854701102527 114.69673307387848 0 0 0 0 -412.10453733222994 -55.106567701836042 0 -55.106567701836042 -6.6974388381509167 0 0 0 0 -490.22427896660747 -64.921527368462677 0 -64.921527368462677 3.0844505144332874 0 0 0 0 -1.1164204669134894 2.1762841234209134 0 2.1762841234209134 -1.5446322441034228 0 0 0 0 -8.9202486745980423 4.4496214023650396 0 4.4496214023650396 1.697351844271239 0 0 0 0 2.2376631754104892 7.2566974017366874 0 7.2566974017366874 -3.979290915754973 0 0 0 0 -8.5740666445035458 5.2123126071484762 0 5.2123126071484762 1.9544501735628046 0 0 0 0 -8.4917871544789705 4.6743848424087702 0 4.6743848424087702 1.0132602119791727 0 0 0 0 -9.0177140150253763 3.8498622218365881 0 3.8498622218365881 0.87419207411060285 0 0 0 0 -20.830717556529635 -4.2877468407258164 0 -4.2877468407258164 0.34145119630412069 0 0 0 0 -6.1658281439686107 -0.58091520345465142 0 -0.58091520345465142 0.88385185158037416 0 0 0 0 -2.5476565499966455 1.858691628124518 0 1.858691628124518 -7.0386186104889248 0 0 0 0 -6.2514510390633404 -0.41180143100140754 0 -0.41180143100140754 1.9583773838796787 0 0 0 0 -0.57493781732559945 0.038302419821755862 0 0.038302419821755862 0.049911627524240165 0 0 0 0 -4.1790100645059347 1.4230467830884757 0 1.4230467830884757 1.0961749532555418 0 0 0 0 -6.0049644167852421 0.91873159412398309 0 0.91873159412398309 -14.180811298857805 0 0 0 0 -9.1137516089083874 4.4569882652684782 0 4.4569882652684782 1.2886035159788207 0 0 0 0 -6.7253287221888058 22.449307910583055 0 22.449307910583055 -34.945679833626542 0 0 0 0 5.6992126772486245 5.455621358374886 0 5.455621358374886 -62.782155493758175 0 0 0 0 42.895033869597682 23.521171587454234 0 23.521171587454234 -72.347155809728946 0 0 0 0 3.9479861599743344 68.3197027642276 0 68.3197027642276 -65.198821202919362 0 0 0 0 -70.724486537605117 43.97843238922367 0 43.97843238922367 -26.004342060258494 0 0 0 0 -0.88926651686402214 0.13759719129692005 0 0.13759719129692005 0.11950523593935067 0 0 0 0 -10.016422731949945 11.875092675033187 0 11.875092675033187 -9.0692953366509244 0 0 0 0 103.8576059023369 48.586723077994662 0 48.586723077994662 19.422463997958729 0 0 0 0 -498.3997181174866 78.046904691054152 0 78.046904691054152 268.94202880675772 0 0 0 0 -378.00992551759646 164.87451155439624 0 164.87451155439624 119.33036071883623 0 0 0 0 -413.53791920918502 42.125983440859926 0 42.125983440859926 19.914127336256371 0 0 0 0 -1.1125895696757917 1.5541219530385761 0 1.5541219530385761 0.25296667543857076 0 0 0 0 -373.3651723753901 143.8404902604791 0 143.8404902604791 -58.631067702397885 0 0 0 0 -128.99983657630855 359.3931175714751 0 359.3931175714751 -185.58464942296507 0 0 0 0 -1.7485724032012793 1.627242436557371 0 1.627242436557371 -1.386176725955119 0 0 0 0 208.58439340338191 135.373468086559 0 135.373468086559 -64.684613428207854 0 0 0 0 -499.88493712615099 -219.92161330807718 0 -219.92161330807718 -87.494263005722303 0 0 0 0 93.152266479205764 9.4449786157216096 0 9.4449786157216096 43.23653138479051 0 0 0 0 151.31904283597373 132.34657864487741 0 132.34657864487741 44.933920359122681 0 0 0 0 -367.56824001056987 -168.1248412390359 0 -168.1248412390359 -73.335418346096091 0 0 0 0 -499.82174840293106 -117.90888678946492 0 -117.90888678946492 36.358376803397761 0 0 0 0 -399.15067714875079 -46.855565168180696 0 -46.855565168180696 69.979165552208556 0 0 0 0 -351.34653520144332 -104.36200062337601 0 -104.36200062337601 -24.351781500759763 0 0 0 0 -4.4418436048163681 4.8051449766343213 0 4.8051449766343213 -3.1310054609072959 0 0 0 0 -334.08045122133706 -122.09675623149056 0 -122.09675623149056 -11.306160183923147 0 0 0 0 -125.09665985387345 -53.577545971304488 0 -53.577545971304488 2.1463910232168786 0 0 0 0 -336.31540849286239 -15.350412873566965 0 -15.350412873566965 33.028604213683138 0 0 0 0 -349.55319453671495 -43.088619405232755 0 -43.088619405232755 69.213210332375525 0 0 0 0 62.698019344624299 57.311599971188059 0 57.311599971188059 33.787233401841604 0 0 0 0 -5.8587720051615735 6.8625221394343274 0 6.8625221394343274 -3.9464442955534333 0 0 0 0 93.159417441896494 109.29442674519504 0 109.29442674519504 56.893957408191341 0 0 0 0 -122.60474449172806 34.634575607069117 0 34.634575607069117 -16.762945867395416 0 0 0 0 86.127912116665357 43.819081781538074 0 43.819081781538074 25.349736084640369 0 0 0 0 10.055065684399324 88.685173349838067 0 88.685173349838067 40.573775702701084 0 0 0 0 13.858654193088796 37.391872712241053 0 37.391872712241053 -2.2542767724436317 0 0 0 0 47.992666596845083 79.187150389542808 0 79.187150389542808 3.4719454595989419 0 0 0 0 89.006148505097826 62.940005639353842 0 62.940005639353842 -65.58899176328984 0 0 0 0 44.511796926262832 9.1635659558064901 0 9.1635659558064901 -35.782371648719106 0 0 0 0 26.295628938382379 29.607217613436831 0 29.607217613436831 -54.104479727584817 0 0 0 0 -10.508497229707245 32.020747826917841 0 32.020747826917841 -62.372496654248899 0 0 0 0 -24.40877767987331 74.497337921292825 0 74.497337921292825 -192.17234811414767 0 0 0 0 -91.69603226092886 45.717082346543521 0 45.717082346543521 13.749203194679353 0 0 0 0 -8.2007001210390627 74.592360488792963 0 74.592360488792963 -60.291742641629511 0 0 0 0 -6.7458245407929098 47.088572839383914 0 47.088572839383914 11.307017554242549 0 0 0 0 -43.314256573398211 61.57889690388668 0 61.57889690388668 66.943704513958892 0 0 0 0 -73.752442195493586 3.085064770863454 0 3.085064770863454 -0.77896129715088591 0 0 0 0 -29.400666950140362 24.275591586926126 0 24.275591586926126 -6.5551607590391541 0 0 0 0 -84.121521583133472 9.4524120149453665 0 9.4524120149453665 43.667274573724626 0 0 0 0 -118.20528363543963 31.913187517961688 0 31.913187517961688 3.8571053665176578 0 0 0 0 -170.62663045785075 -35.415944417877796 0 -35.415944417877796 1.8519700843800138 0 0 0 0 -207.18614986614102 42.367449707735858 0 42.367449707735858 -32.671696504665604 0 0 0 0 -0.24440389207424218 0.036691726505340583 0 0.036691726505340583 0.36381813411411512 0 0 0 0 -73.780961353729253 17.992456531000471 0 17.992456531000471 -28.731040339814172 0 0 0 0 -85.580610065596716 38.067630966130167 0 38.067630966130167 -156.85465785759811 0 0 0 0 -116.319636787121 107.01954505450365 0 107.01954505450365 -61.261349066231674 0 0 0 0 -102.10249017773072 93.531828759724149 0 93.531828759724149 -67.977544494107519 0 0 0 0 -57.009656478542638 4.6083179233496594 0 4.6083179233496594 2.5221915678773996 0 0 0 0 -152.22404749261477 84.193077316578723 0 84.193077316578723 -13.984523783390387 0 0 0 0 -98.859175494488682 120.11280850461955 0 120.11280850461955 -125.6088501185834 0 0 0 0 -0.60794525930310961 0.9434301659530826 0 0.9434301659530826 -1.608536782386444 0 0 0 0 -9.5523635629078854 -44.141936405103834 0 -44.141936405103834 -185.10038680162461 0 0 0 0 -8.6364502445740072 -33.573846656744429 0 -33.573846656744429 -75.834785035007471 0 0 0 0 26.584486126750107 29.670640241895562 0 29.670640241895562 -110.93564070949742 0 0 0 0 6.6010222805533658 0.37070800523259351 0 0.37070800523259351 -34.813015248716241 0 0 0 0 15.031125938661887 3.2400822677249437 0 3.2400822677249437 -38.919722230441266 0 0 0 0 14.659391528317883 2.3224633122177352 0 2.3224633122177352 -4.5067454408621188 0 0 0 0 -4.0312609638112917 -0.063100902482631227 0 -0.063100902482631227 -34.585716578988539 0 0 0 0 -1.9901640953711208 2.7013229993151429 0 2.7013229993151429 -3.3775006463607982 0 0 0 0 -4.8307649595590192 -3.9934259009340849 0 -3.9934259009340849 -9.6228592164659972 0 0 0 0 -0.44920875978430175 -0.084065181595405214 0 -0.084065181595405214 -0.99522561958101674 0 0 0 0 -0.5560482272812628 -0.66286342667604625 0 -0.66286342667604625 -0.38414253540387766 0 0 0 0 -9.9515411968382068 -26.137941453059739 0 -26.137941453059739 18.655420170514674 0 0 0 0 5.5782446677048938 48.641495092720731 0 48.641495092720731 -95.024814089962206 0 0 0 0 -112.96374345514459 68.445848752226766 0 68.445848752226766 -33.153585652743118 0 0 0 0 -189.18266691063218 32.697570691357896 0 32.697570691357896 -53.214884058709572 0 0 0 0 -375.08671044214952 33.741855295622941 0 33.741855295622941 -45.323935884303495 0 0 0 0 -128.58512420340503 121.27203085563309 0 121.27203085563309 -106.19100399458569 0 0 0 0 -50.042706480719062 20.734497691734305 0 20.734497691734305 -203.04337572120534 0 0 0 0 -271.24142322364878 173.14804484934803 0 173.14804484934803 -99.563798834225508 0 0 0 0 -233.47568600157229 -58.851094873001728 0 -58.851094873001728 -217.34258736503864 0 0 0 0 -87.74612574099956 -0.11203831750844984 0 -0.11203831750844984 -79.507888680831172 0 0 0 0 -122.27912085984826 -52.720493257344231 0 -52.720493257344231 -144.76471526015939 0 0 0 0 -87.240710467181998 -49.39908199234884 0 -49.39908199234884 -98.033420026216845 0 0 0 0 -150.33796843146047 -36.822880851181878 0 -36.822880851181878 -85.633804667966842 0 0 0 0 -214.54241800377395 -4.9176168874701602 0 -4.9176168874701602 -70.295764892882744 0 0 0 0 -146.1748528787557 -22.479296095676091 0 -22.479296095676091 -41.468485518103762 0 0 0 0 -93.083578326028601 -18.684541068316832 0 -18.684541068316832 -46.667774835565126 0 0 0 0 -114.57086515932406 -39.475645614972848 0 -39.475645614972848 -18.309836123270657 0 0 0 0 -135.36657074320783 9.0476699108982643 0 9.0476699108982643 -29.294536321254895 0 0 0 0 -161.67754072143998 5.0240297400163172 0 5.0240297400163172 -25.204456173246342 0 0 0 0 -212.78988810242845 17.175227125473725 0 17.175227125473725 -28.07094785825916 0 0 0 0 -223.02149472297197 73.222239431905734 0 73.222239431905734 -42.134073374633545 0 0 0 0 -132.89786638761143 61.64709046080992 0 61.64709046080992 -42.802664290310332 0 0 0 0 -137.73029146613862 76.587240247962029 0 76.587240247962029 -79.732690712837211 0 0 0 0 -82.439054429910357 12.388909039650631 0 12.388909039650631 -56.124567960047443 0 0 0 0 -127.50395812040642 11.790559519058718 0 11.790559519058718 -1.6098612449741267 0 0 0 0 -96.822644832790957 -16.30585140876542 0 -16.30585140876542 -16.052395087719447 0 0 0 0 -49.182811472226149 12.886877976146053 0 12.886877976146053 -1.9826816680615558 0 0 0 0 -90.21247851091448 -6.2344489398880114 0 -6.2344489398880114 10.398986530520119 0 0 0 0 -104.05511906174434 1.7457087473698607 0 1.7457087473698607 34.053913019632546 0 0 0 0 -0.36046115452616334 0.14684178463286202 0 0.14684178463286202 0.85159457897914415 0 0 0 0 -84.421752663777966 -9.4701747430770666 0 -9.4701747430770666 11.047844820254511 0 0 0 0 -69.036821245335886 -33.252460863113981 0 -33.252460863113981 13.11624850815565 0 0 0 0 -72.94816948480684 -25.786075994557851 0 -25.786075994557851 15.999786044133202 0 0 0 0 -59.931270825214142 -28.182623903411127 0 -28.182623903411127 11.376741513222385 0 0 0 0 -90.197287724385205 -23.030977568592562 0 -23.030977568592562 12.34340251429218 0 0 0 0 -84.446319018290978 -19.441623945488416 0 -19.441623945488416 7.0072868829989829 0 0 0 0 -75.70940834491779 -26.581457376866489 0 -26.581457376866489 7.4769908979450292 0 0 0 0 -103.66743192677359 -28.532221565660905 0 -28.532221565660905 7.9320913631598557 0 0 0 0 -103.84537467902965 -8.288407931697634 0 -8.288407931697634 0.60437297291679215 0 0 0 0 -84.583051864657421 -28.814553088753847 0 -28.814553088753847 -14.838673007242051 0 0 0 0 -86.499019432340049 -36.533327496905009 0 -36.533327496905009 3.7491431373313162 0 0 0 0 -59.810598620315886 -40.952214488946538 0 -40.952214488946538 -26.210797160661286 0 0 0 0 -56.398437851357812 -30.023878112497869 0 -30.023878112497869 3.2990380150761212 0 0 0 0 -44.835124813605489 -33.746111148783939 0 -33.746111148783939 -4.2442206005035246 0 0 0 0 -63.596967829384994 -37.156618799917794 0 -37.156618799917794 15.813673728675042 0 0 0 0 -63.462455568583209 -33.812857862282385 0 -33.812857862282385 0.4772354606482736 0 0 0 0 -73.538349896143416 -39.765741451185491 0 -39.765741451185491 13.448595091703964 0 0 0 0 -61.559791872048663 -38.408902658427508 0 -38.408902658427508 12.036974691258649 0 0 0 0 -51.215774305732793 -39.543213703897663 0 -39.543213703897663 11.295741340802124 0 0 0 0 -58.118262515303741 -39.279348694238394 0 -39.279348694238394 21.249745321520663 0 0 0 0 -61.258558587148656 -42.392001570353798 0 -42.392001570353798 19.102931862191099 0 0 0 0 -64.72780925201323 -44.91467807235199 0 -44.91467807235199 21.617558450977981 0 0 0 0 35.938450055446992 -40.320326397596034 0 -40.320326397596034 32.710168957524843 0 0 0 0 36.869302550171824 -52.752164593434316 0 -52.752164593434316 23.711633833878068 0 0 0 0 -0.028973956275375912 -0.086107491100516853 0 -0.086107491100516853 -0.063928095622544312 0 0 0 0 -70.964115548318205 -27.444032364662348 0 -27.444032364662348 20.464893963515351 0 0 0 0 -57.873711622451538 -37.848889845690906 0 -37.848889845690906 28.559196252995662 0 0 0 0 -51.889470858031686 -25.68687468960777 0 -25.68687468960777 17.728015773981213 0 0 0 0 35.303958822081768 -39.632543367013398 0 -39.632543367013398 34.498270707159861 0 0 0 0 -0.084777181659529965 -0.20441045207146402 0 -0.20441045207146402 -0.18603821381629038 0 0 0 0 9.5207136595945485 -37.196393916879259 0 -37.196393916879259 11.449114891536055 0 0 0 0 -8.713553260052322 -17.844066282572101 0 -17.844066282572101 10.457334303886995 0 0 0 0 -45.171896506374225 -28.247629234665997 0 -28.247629234665997 14.628642791218795 0 0 0 0 -7.698745893108935 -24.676525795730299 0 -24.676525795730299 -6.1799263161326508 0 0 0 0 -5.0146804804035128 -16.365367747220205 0 -16.365367747220205 16.368949003501754 0 0 0 0 5.5698266901877105 -16.641596551080454 0 -16.641596551080454 1.0747098907372674 0 0 0 0 -14.704700440189299 -13.329347368268088 0 -13.329347368268088 -27.671330190969115 0 0 0 0 5.5960353265767431 -11.946335415796224 0 -11.946335415796224 -31.508716715927903 0 0 0 0 -29.419585817614461 -18.838072319045523 0 -18.838072319045523 -1.2218596644925697 0 0 0 0 -52.324304846767518 -31.177526635005165 0 -31.177526635005165 -23.926559589022645 0 0 0 0 -31.187710901931837 -26.0617590684747 0 -26.0617590684747 -25.184574972278824 0 0 0 0 -54.656035024318953 -20.917147927186079 0 -20.917147927186079 -25.522507432638939 0 0 0 0 -82.26987409142157 -48.494961042509402 0 -48.494961042509402 -50.960091851209199 0 0 0 0 -15.993921255045564 -21.334312613082162 0 -21.334312613082162 -58.459867359572854 0 0 0 0 -34.591648541477753 -30.581549294980277 0 -30.581549294980277 -78.921284479818041 0 0 0 0 -16.388453050017233 -3.4417354443995691 0 -3.4417354443995691 -46.872558413076604 0 0 0 0 -60.77453574762967 -11.787267154815254 0 -11.787267154815254 -51.320884992318874 0 0 0 0 -49.508036269791319 -27.132710438128527 0 -27.132710438128527 -92.065460831066957 0 0 0 0 -20.847568133896402 10.830386731883095 0 10.830386731883095 -64.856193116858151 0 0 0 0 5.3348675842662487 15.729494366651124 0 15.729494366651124 -49.540527349625499 0 0 0 0 11.07234001107463 -4.6564348012507821 0 -4.6564348012507821 -32.419171618819064 0 0 0 0 -6.5960089987131596 -13.47586403600215 0 -13.47586403600215 -51.977812968396051 0 0 0 0 11.395993443042698 -3.2232435229188923 0 -3.2232435229188923 -50.468452248158655 0 0 0 0 1.5797619875629607 36.705969496640819 0 36.705969496640819 14.157255231783438 0 0 0 0 7.9186499743923378 27.832776002791206 0 27.832776002791206 -23.141829070067843 0 0 0 0 4.7572091406345862 18.236244035185337 0 18.236244035185337 -13.204232887056151 0 0 0 0 -6.6050636795644095 8.563833798467158 0 8.563833798467158 9.938329839848393 0 0 0 0 0.47698299223429785 21.0361195725377 0 21.0361195725377 14.630734225074775 0 0 0 0 6.5033781561533033 12.26953381359283 0 12.26953381359283 -16.212096217528142 0 0 0 0 6.1515230056860162 8.3934420412258319 0 8.3934420412258319 -30.427768437049053 0 0 0 0 -11.862878522771098 38.050847210535949 0 38.050847210535949 -34.075582775178759 0 0 0 0 -9.0993136112213051 -2.5814415761647638 0 -2.5814415761647638 -53.085650593409582 0 0 0 0 -46.360953049408181 41.088542167670084 0 41.088542167670084 -61.480057105830383 0 0 0 0 -10.845478868213831 28.706967824362664 0 28.706967824362664 -14.93885398958821 0 0 0 0 -31.238362920497366 11.333128489736964 0 11.333128489736964 -12.026162860483964 0 0 0 0 -12.847112616315826 44.279093228085912 0 44.279093228085912 26.639239800108271 0 0 0 0 -15.943372577247942 43.283145525163889 0 43.283145525163889 28.780248321860654 0 0 0 0 -43.08810202548193 61.927765435282822 0 61.927765435282822 71.51167581480604 0 0 0 0 -13.256520383169271 -2.7858393357263522 0 -2.7858393357263522 -0.26647662829245311 0 0 0 0 -22.53732041041178 -15.488031174779351 0 -15.488031174779351 113.97861642090061 0 0 0 0 -19.112983464330682 17.884144703550646 0 17.884144703550646 16.408275938777933 0 0 0 0 -25.779431970276164 1.457426658413624 0 1.457426658413624 37.556220610201422 0 0 0 0 -30.217608479536125 18.196474761311435 0 18.196474761311435 29.457712767302837 0 0 0 0 -17.904307822306691 -0.89948819313576678 0 -0.89948819313576678 18.658060332646869 0 0 0 0 -18.191335518225969 17.568340315324349 0 17.568340315324349 10.312851928966893 0 0 0 0 -13.254105641390424 39.597123219603674 0 39.597123219603674 -27.15728835169466 0 0 0 0 -17.262062997555404 10.3530954755538 0 10.3530954755538 -4.871153603955463 0 0 0 0 -7.7202035797226927 3.8879802848998679 0 3.8879802848998679 56.302018732099668 0 0 0 0 0.50988939812119227 -0.062165686361829176 0 -0.062165686361829176 -0.40422084295163252 0 0 0 0 -6.0501704719731606 7.9235842090937467 0 7.9235842090937467 10.670078352266046 0 0 0 0 -1.4486437337034559 1.7508081301078136 0 1.7508081301078136 -0.23892504415060056 0 0 0 0 -9.7725813234158956 3.1579774819504056 0 3.1579774819504056 0.19814531580527195 0 0 0 0 -20.255671760999803 15.302081245233296 0 15.302081245233296 -2.0961198245877313 0 0 0 0 -18.623106168573941 5.2140042829146296 0 5.2140042829146296 3.0963552391884832 0 0 0 0 -12.16392129345445 0.04290278140275916 0 0.04290278140275916 -1.9992463347325611 0 0 0 0 -23.959297842466185 -44.952583740162027 0 -44.952583740162027 108.40946278429192 0 0 0 0 -12.66349521484517 0.61084242082864648 0 0.61084242082864648 -2.2957273331699071 0 0 0 0 -12.162236076632666 -1.8585819762114077 0 -1.8585819762114077 -0.46420972027608931 0 0 0 0 0.899527363991524 -41.580732125782674 0 -41.580732125782674 84.142724036922573 0 0 0 0 -10.808909330800816 -25.889419972338146 0 -25.889419972338146 45.797362641438667 0 0 0 0 2.0236959873363958 -26.60492173678108 0 -26.60492173678108 160.44623556026545 0 0 0 0 -4.1367393552321445 -0.69231607636887915 0 -0.69231607636887915 1.8125025604517102 0 0 0 0 13.325388182902316 -26.148103754787371 0 -26.148103754787371 62.686943115626491 0 0 0 0 -4.7851335381710669 -1.2389390347141216 0 -1.2389390347141216 51.545721692304596 0 0 0 0 -23.719534216111697 11.685587338475386 0 11.685587338475386 52.135344398354846 0 0 0 0 -10.17595435622934 -23.404345880707069 0 -23.404345880707069 48.549357829156634 0 0 0 0 -29.66285129447715 -9.7026325610759159 0 -9.7026325610759159 62.066604088011587 0 0 0 0 -29.410945864521636 -4.1935330799472013 0 -4.1935330799472013 49.657523436348185 0 0 0 0 -31.347342996236762 -12.631968470306731 0 -12.631968470306731 34.1535130362372 0 0 0 0 -54.133289240797239 -1.3144170964296791 0 -1.3144170964296791 49.936274890420464 0 0 0 0 -32.821418622434294 9.2240838171824038 0 9.2240838171824038 24.195167781592772 0 0 0 0 -24.019741673342651 -19.917650664841631 0 -19.917650664841631 101.459234222833 0 0 0 0 -26.644900025403331 -28.07327364384264 0 -28.07327364384264 89.640907449404267 0 0 0 0 -19.960708253694975 -18.086735353642325 0 -18.086735353642325 56.532255581380696 0 0 0 0 -25.148149823653512 -25.240152405019217 0 -25.240152405019217 48.997033115109389 0 0 0 0 -27.688749366316188 -25.929571374340526 0 -25.929571374340526 49.725570216475774 0 0 0 0 -40.181330045938012 -7.8015977555058953 0 -7.8015977555058953 -6.547697409625016 0 0 0 0 -44.444204131461447 -11.979826691008157 0 -11.979826691008157 16.543093598194901 0 0 0 0 -20.596754740518918 -9.1042647111275983 0 -9.1042647111275983 16.15573638061187 0 0 0 0 -36.662865346304898 -7.394161284107895 0 -7.394161284107895 42.73637924146351 0 0 0 0 -56.028060133989129 12.313994248202789 0 12.313994248202789 13.852959457271481 0 0 0 0 -33.282996841529439 0.38878434386069216 0 0.38878434386069216 13.883779773302649 0 0 0 0 -51.473475581824459 -2.5932699400968886 0 -2.5932699400968886 34.98254004481565 0 0 0 0 -86.908647664925411 23.333591745240426 0 23.333591745240426 13.164563598779068 0 0 0 0 -55.165054843309917 18.466081743047653 0 18.466081743047653 26.841133111064664 0 0 0 0 -58.285715475602046 2.3659619355341874 0 2.3659619355341874 14.602021424104606 0 0 0 0 -76.4358319922394 12.032058875032703 0 12.032058875032703 -11.349291399911721 0 0 0 0 -56.493243974493453 2.1974679057785522 0 2.1974679057785522 -8.9873710692872919 0 0 0 0 -101.09222843397765 -7.7151803496215621 0 -7.7151803496215621 -23.1145682633761 0 0 0 0 -57.52023237568028 -6.4202622431560599 0 -6.4202622431560599 -34.00375351709522 0 0 0 0 -41.567927521900856 -12.22346572133597 0 -12.22346572133597 -26.01064479948991 0 0 0 0 -45.828454783702909 0.051427751317078219 0 0.051427751317078219 -33.260515867327967 0 0 0 0 -41.431204008259556 -16.886997399739812 0 -16.886997399739812 -41.587976749891141 0 0 0 0 -34.896698465910731 -0.67484821079371216 0 -0.67484821079371216 -6.6845868422356034 0 0 0 0 -32.503631677567682 -18.862909277195627 0 -18.862909277195627 3.9371384486895522 0 0 0 0 -53.288452515203971 3.2904825023137505 0 3.2904825023137505 -11.957400835099406 0 0 0 0 -157.81457046216565 36.967377071074338 0 36.967377071074338 7.6007817185922022 0 0 0 0 -150.36433317046794 53.501912365378303 0 53.501912365378303 2.463856272054187 0 0 0 0 -109.71766303272489 25.934882527326977 0 25.934882527326977 -11.06422205168775 0 0 0 0 -96.911008734818097 9.273391018757934 0 9.273391018757934 -6.5731899114200019 0 0 0 0 -130.691926975971 54.671044627094687 0 54.671044627094687 16.305858237002781 0 0 0 0 -85.704477216413579 42.799747887224839 0 42.799747887224839 14.294715767937589 0 0 0 0 -139.06993484805207 62.786032501515251 0 62.786032501515251 28.164041189712179 0 0 0 0 -101.31834454692307 27.075119192563534 0 27.075119192563534 34.745427671911784 0 0 0 0 -50.377044571741862 25.383950882394402 0 25.383950882394402 20.353343174975862 0 0 0 0 -49.817164342735609 -13.653696404288302 0 -13.653696404288302 50.814909239690223 0 0 0 0 -18.778181780756952 -4.5494676260003999 0 -4.5494676260003999 -0.36984696582550569 0 0 0 0 -52.717398281547503 -6.5550968707950688 0 -6.5550968707950688 73.985164209216009 0 0 0 0 -48.758306894691984 37.944822926170289 0 37.944822926170289 -5.6148466291494969 0 0 0 0 -111.65618746385462 56.956301183977303 0 56.956301183977303 -14.889561260475944 0 0 0 0 -175.01777809282703 102.97752603276558 0 102.97752603276558 -4.1852314675379603 0 0 0 0 -134.11094008428654 69.931074178722554 0 69.931074178722554 15.545810573355766 0 0 0 0 -162.31805394445291 82.579414565769696 0 82.579414565769696 16.738293032514303 0 0 0 0 -145.23322082542109 85.418674834529043 0 85.418674834529043 -28.387598411608224 0 0 0 0 -147.37036261394337 73.520876781885747 0 73.520876781885747 2.3951065674237952 0 0 0 0 -55.883910300177376 6.8399936161448807 0 6.8399936161448807 -9.4160649230213807 0 0 0 0 -128.95653455487809 49.291146433943396 0 49.291146433943396 12.852853823416524 0 0 0 0 -115.04576485707912 44.695001137276904 0 44.695001137276904 13.320513180867465 0 0 0 0 -122.31282292829349 8.4469324845308833 0 8.4469324845308833 6.7134625490389226 0 0 0 0 -45.741699925048124 9.7919408586295731 0 9.7919408586295731 -14.466073591863392 0 0 0 0 -99.567102052893006 10.586206991671077 0 10.586206991671077 2.6780362998424607 0 0 0 0 -213.42222432505423 43.792140835704799 0 43.792140835704799 26.981193021541912 0 0 0 0 -140.32510916554384 -1.5415575157124977 0 -1.5415575157124977 29.015885773936134 0 0 0 0 -326.78099065256174 2.7631230718798179 0 2.7631230718798179 29.938646152575359 0 0 0 0 -66.05875349208327 -38.824848899868925 0 -38.824848899868925 -42.415750326254965 0 0 0 0 -7.2560216582342036 -8.0534759947683767 0 -8.0534759947683767 -10.744893950146889 0 0 0 0 -0.28261331215673913 -0.19880653555126315 0 -0.19880653555126315 -5.0951655563085216 0 0 0 0 7.1029096387362642 19.441449131671078 0 19.441449131671078 -9.4140432952001447 0 0 0 0 -68.118470356759644 156.84458385105359 0 156.84458385105359 -224.05231969952706 0 0 0 0 -1.718002851713079 3.3733427605549799 0 3.3733427605549799 -7.863632234950658 0 0 0 0 -198.63475383527748 55.861668167398079 0 55.861668167398079 -41.921104843007925 0 0 0 0 0.94577881866675284 -1.5122285015113253 0 -1.5122285015113253 -0.60807469582535312 0 0 0 0 -510.86793938198844 -51.193495901122105 0 -51.193495901122105 116.06192198691656 0 0 0 0 -556.4841967533257 121.02882009451878 0 121.02882009451878 104.40785927715569 0 0 0 0 -419.65350740761824 -126.15642359625735 0 -126.15642359625735 -8.5619685269289221 0 0 0 0 -175.41044172097281 126.10582341546541 0 126.10582341546541 -89.683411303193452 0 0 0 0 -475.41355528504289 268.88556348498122 0 268.88556348498122 -136.24425191384785 0 0 0 0 -110.18770412429149 61.093172318641678 0 61.093172318641678 -6.4400622082057453 0 0 0 0 40.683970030514502 -11.622527166498344 0 -11.622527166498344 -8.1826267067226581 0 0 0 0 -5.1121422245565569 -0.96171763342787042 0 -0.96171763342787042 -0.10385638752233239 0 0 0 0 -176.04623350530073 -174.41621233564433 0 -174.41621233564433 154.90773414707144 0 0 0 0 -165.76219824611508 -69.51290157334445 0 -69.51290157334445 53.417062839060691 0 0 0 0 -399.46205501482837 56.222622866351003 0 56.222622866351003 -13.843065998902489 0 0 0 0 -182.40526020467132 22.016336124174359 0 22.016336124174359 -8.7119417324277038 0 0 0 0 -73.756304568536962 -17.956126831812014 0 -17.956126831812014 -69.603603711734195 0 0 0 0 -167.48260188534096 41.875905317150114 0 41.875905317150114 -97.265487659596374 0 0 0 0 -210.26447113342192 -18.731361958264756 0 -18.731361958264756 -72.817514545374706 0 0 0 0 -371.69548618476347 141.49289579972344 0 141.49289579972344 -197.95585324529395 0 0 0 0 -577.35759398258597 44.963689810699293 0 44.963689810699293 17.344161620930663 0 0 0 0 -0.79477052035504769 1.3045889416829404 0 1.3045889416829404 -2.7957271851957914 0 0 0 0 -15.626671725697634 -47.331747241704193 0 -47.331747241704193 -107.44762992028922 0 0 0 0 -105.57576481814976 -25.673003455170601 0 -25.673003455170601 21.300714378168209 0 0 0 0 -62.794435783216613 20.496279961213531 0 20.496279961213531 25.562326278898695 0 0 0 0 -198.28129390217418 68.682680069139167 0 68.682680069139167 71.242655393091809 0 0 0 0 -391.20040941513889 -25.275167232598506 0 -25.275167232598506 29.745959301299081 0 0 0 0 -10.14780000727751 -20.934135864619975 0 -20.934135864619975 -30.85828540768739 0 0 0 0 -18.350896957420446 -37.21673098257321 0 -37.21673098257321 -62.628729565777718 0 0 0 0 -43.783116077344857 -25.247583584789339 0 -25.247583584789339 -14.046110023384017 0 0 0 0 -90.302368655621876 -80.548874038034327 0 -80.548874038034327 -45.472442481733083 0 0 0 0 -40.862199812165954 -30.980809760608352 0 -30.980809760608352 -34.217634233296849 0 0 0 0 -76.832940796553657 -28.164543233537643 0 -28.164543233537643 46.455054274476652 0 0 0 0 -6.9238338147283685 -29.125337107761624 0 -29.125337107761624 -155.2059895370067 0 0 0 0 -0.46366929265878554 -0.2035196024198922 0 -0.2035196024198922 -0.14185926991403419 0 0 0 0 -2.2492780488355493 -2.5304346313721453 0 -2.5304346313721453 -64.540831012698931 0 0 0 0 -4.8196474232654509 -2.3880297044239001 0 -2.3880297044239001 -36.170255070716394 0 0 0 0 -0.78661744410237588 -4.0021716916559171 0 -4.0021716916559171 -35.608936989259092 0 0 0 0 0.30245344065281188 3.685800693189357 0 3.685800693189357 -21.575165279060968 0 0 0 0 0.29308753811073984 -10.029702784999699 0 -10.029702784999699 -34.272638366346953 0 0 0 0 0.057049859798098623 -9.1387530610807062 0 -9.1387530610807062 -35.256824379261047 0 0 0 0 -1.8801272159207656 -15.896606047810678 0 -15.896606047810678 -50.54984167239769 0 0 0 0 -10.727590435789352 -13.186918871666919 0 -13.186918871666919 -26.458322227631839 0 0 0 0 -4.5280473193679427 -11.658274835970843 0 -11.658274835970843 -36.386315733180297 0 0 0 0 -1.3873799989187319 -8.2024187339968293 0 -8.2024187339968293 -33.940683603231633 0 0 0 0 -6.7703936091720607 -3.4050146580027274 0 -3.4050146580027274 -32.0706714105213 0 0 0 0 -11.416015174776021 -4.2969794209665277 0 -4.2969794209665277 -26.664583246868787 0 0 0 0 -11.790886435338052 -5.1556666102347686 0 -5.1556666102347686 -18.406013202332911 0 0 0 0 -13.964494723697499 -17.734426298860804 0 -17.734426298860804 -29.834129541712571 0 0 0 0 -22.897779029472986 -10.310923185127685 0 -10.310923185127685 -8.288809203603023 0 0 0 0 -26.671467113213112 -8.1464585330548118 0 -8.1464585330548118 -4.8892314099358316 0 0 0 0 -19.55195782586452 -11.052505292177443 0 -11.052505292177443 -18.045719651168532 0 0 0 0 -9.3458249117484229 4.1366438576085223 0 4.1366438576085223 -4.5784849109154138 0 0 0 0 -2.1601454930975983 2.5740151024321438 0 2.5740151024321438 -3.731203096549049 0 0 0 0 -14.188567036352197 -7.7298805384511233 0 -7.7298805384511233 -12.207762988293331 0 0 0 0 -21.523875242750364 -1.7888550996663923 0 -1.7888550996663923 0.17817983811602289 0 0 0 0 -11.353255305227322 1.3443250864319296 0 1.3443250864319296 -6.5110484015072814 0 0 0 0 -16.093696108620861 -3.0013319736292479 0 -3.0013319736292479 -3.9691182497480373 0 0 0 0 -15.019470250651921 -2.1323113467213624 0 -2.1323113467213624 -4.0034784288477852 0 0 0 0 0.61782916745373395 -0.47564777404074654 0 -0.47564777404074654 -4.0039603007318938 0 0 0 0 -2.1784473648779574 3.1753364541219824 0 3.1753364541219824 -2.5751290641150697 0 0 0 0 -9.0129052465126733 -4.3744254608726578 0 -4.3744254608726578 -8.58979143935602 0 0 0 0 -15.276039800460239 0.86194570230620116 0 0.86194570230620116 -1.1101689685523297 0 0 0 0 -16.73718940010076 -4.0444913364067929 0 -4.0444913364067929 -1.1653506057905361 0 0 0 0 -5.4318997705786067 2.2421175395434894 0 2.2421175395434894 -2.188481316839578 0 0 0 0 -20.058600748841855 1.0986842230048239 0 1.0986842230048239 -3.0860592002050424 0 0 0 0 -12.053269212090527 -3.7724750968035039 0 -3.7724750968035039 -1.753476948963467 0 0 0 0 -10.248246742175979 9.3717941411051555 0 9.3717941411051555 27.416764683698915 0 0 0 0 -4.0943082310041063 7.0149942309984112 0 7.0149942309984112 15.729112849461785 0 0 0 0 -20.925383127851092 -11.059692827467131 0 -11.059692827467131 24.817115172925924 0 0 0 0 -11.449863365855226 -3.8360536156184004 0 -3.8360536156184004 -0.82873930671731366 0 0 0 0 -10.420620586814039 -1.2010309074424725 0 -1.2010309074424725 -2.9729285755921637 0 0 0 0 -1.7730405089529295 -1.1339134219323572 0 -1.1339134219323572 -2.2493361746381035 0 0 0 0 -41.722856142205273 14.410774735836299 0 14.410774735836299 -12.567103831862255 0 0 0 0 -20.521614621363142 -6.8545355481329651 0 -6.8545355481329651 20.883216896100294 0 0 0 0 -24.163980891808023 -5.2175550636890193 0 -5.2175550636890193 24.391332207049118 0 0 0 0 -20.213304091845202 -4.8531674640594247 0 -4.8531674640594247 11.169844696660505 0 0 0 0 -21.143784798669003 -17.829252874527924 0 -17.829252874527924 18.891988133497023 0 0 0 0 -4.3088680342019892 -2.4086432392929265 0 -2.4086432392929265 3.5780307644772122 0 0 0 0 -17.634073113808249 -2.1739253758151946 0 -2.1739253758151946 3.1969210005677962 0 0 0 0 -19.207159042879539 2.3368337474963283 0 2.3368337474963283 -4.2642187162242564 0 0 0 0 -16.099703405018154 -1.2896687315700133 0 -1.2896687315700133 3.2271911830906195 0 0 0 0 -17.333410746818117 5.4445748721906284 0 5.4445748721906284 1.68943255126851 0 0 0 0 -18.974503093966291 2.7107088714930292 0 2.7107088714930292 -5.260639119492339 0 0 0 0 -19.187701830695346 2.2374293984368183 0 2.2374293984368183 -3.6052268419108771 0 0 0 0 -17.232223266720212 0.99019572163757941 0 0.99019572163757941 -6.3869004599969976 0 0 0 0 -17.109719382692219 0.82984957936868264 0 0.82984957936868264 -8.185154774652414 0 0 0 0 -16.480133289171931 -6.426043014072623 0 -6.426043014072623 -11.91556468557342 0 0 0 0 -12.007476367656636 1.8464715174398432 0 1.8464715174398432 -14.823806471570176 0 0 0 0 -16.152342051651885 2.8024316962366034 0 2.8024316962366034 -14.786182195383697 0 0 0 0 -16.017161592666525 5.1973711052926248 0 5.1973711052926248 -15.612435246267085 0 0 0 0 -13.794735197983755 9.5214708136574089 0 9.5214708136574089 -16.238379732611669 0 0 0 0 -17.298591843812574 15.915427465640697 0 15.915427465640697 -17.817245795347365 0 0 0 0 -20.349119794365834 8.7096029744733414 0 8.7096029744733414 -0.82234314904962957 0 0 0 0 -19.541361513920947 5.2867503063611352 0 5.2867503063611352 2.3514071754297277 0 0 0 0 -14.988479035449927 10.671063327166621 0 10.671063327166621 -13.108408393630611 0 0 0 0 -14.614617062533551 -0.5942110777234042 0 -0.5942110777234042 3.7116313945290118 0 0 0 0 -16.866843392613646 5.4320228949450495 0 5.4320228949450495 -6.5142866730169828 0 0 0 0 -24.258492216718878 -0.046211672206538879 0 -0.046211672206538879 12.978218803451 0 0 0 0 -26.509449361481529 9.8830172520933957 0 9.8830172520933957 25.106604234878205 0 0 0 0 -27.063826594558122 8.651267871653431 0 8.651267871653431 22.384957554707398 0 0 0 0 -12.109086243275669 13.528237853880228 0 13.528237853880228 1.363357555817629 0 0 0 0 -25.358648713174262 16.910883632057676 0 16.910883632057676 25.672679840976116 0 0 0 0 -18.758299105658807 27.57654726829503 0 27.57654726829503 41.767924591253404 0 0 0 0 -34.338763620613463 6.8200591268821427 0 6.8200591268821427 50.605256481169135 0 0 0 0 -25.827334901128779 -18.145710898816105 0 -18.145710898816105 61.862232501608332 0 0 0 0 -35.594067794851071 1.4694469700526724 0 1.4694469700526724 27.930139490301144 0 0 0 0 -500.10768442961216 -43.997743895499781 0 -43.997743895499781 -5.0075101644761251 0 0 0 0 -9.5036502783405012 1.312728932066193 0 1.312728932066193 -3.9710265348308269 0 0 0 0 -5.4429437760813926 4.9040915996393721 0 4.9040915996393721 -2.9760262242398312 0 0 0 0 30.560490451027363 27.396576044956305 0 27.396576044956305 5.7807998792761737 0 0 0 0 22.785371803598537 20.090908368054784 0 20.090908368054784 -0.90287216175306639 0 0 0 0 -1.5221059186478669 27.925818884257012 0 27.925818884257012 22.333867628027974 0 0 0 0 1.0156414688972291 38.771357787056104 0 38.771357787056104 33.934915765427149 0 0 0 0 -17.089310786421038 19.386366097137525 0 19.386366097137525 17.309614251020321 0 0 0 0 -2.2695660835252056 21.134322954015488 0 21.134322954015488 11.529643559736655 0 0 0 0 -16.246360499502771 8.9634708564735774 0 8.9634708564735774 3.9233535553682941 0 0 0 0 -10.947135313766921 10.136494759819698 0 10.136494759819698 -3.6389050787793167 0 0 0 0 -1.0908188738456386 3.8771958646562243 0 3.8771958646562243 -5.1403133985320348 0 0 0 0 -10.647520009692016 5.4098846482285268 0 5.4098846482285268 -7.0053117276388548 0 0 0 0 -490.63013774765795 -23.266785206065872 0 -23.266785206065872 -8.3187816522512854 0 0 0 0 -14.031439591222806 5.7329443399505635 0 5.7329443399505635 -0.05228934689421294 0 0 0 0 -15.345683207371621 3.4477540396281938 0 3.4477540396281938 0.59792030483231429 0 0 0 0 -391.24693928610122 -22.295134552937917 0 -22.295134552937917 -8.430834616309447 0 0 0 0 -2.6604714390726749 5.5459162042680124 0 5.5459162042680124 -7.1352458618557622 0 0 0 0 -19.121461332281797 5.3267066876891249 0 5.3267066876891249 -10.375120186311733 0 0 0 0 -14.430946268545085 2.2343990092538206 0 2.2343990092538206 -8.3798768637462899 0 0 0 0 -15.409801712923581 4.1917683238849577 0 4.1917683238849577 -11.387226070858105 0 0 0 0 -15.697837371873902 6.9924203007481083 0 6.9924203007481083 -4.2312145340799816 0 0 0 0 -26.615558921746015 -2.4011186902725847 0 -2.4011186902725847 4.754197619528135 0 0 0 0 -15.682992617617856 8.1969600117514574 0 8.1969600117514574 -15.278386909917572 0 0 0 0 -13.516081095603715 0.6600476479907087 0 0.6600476479907087 3.3496658052463189 0 0 0 0 -499.41604661580595 105.75966328183469 0 105.75966328183469 0.93800063352122365 0 0 0 0 -2.2407256008617686 1.7001307777725865 0 1.7001307777725865 -1.9395475771612625 0 0 0 0 -2.673021811048069 0.33828017561322277 0 0.33828017561322277 0.37046659765593731 0 0 0 0 -235.33127768341092 -156.26604705421391 0 -156.26604705421391 -112.83508102624454 0 0 0 0 -498.98306428540263 -12.838251738932692 0 -12.838251738932692 17.288416773443874 0 0 0 0 -354.26204066113223 -19.31254147954068 0 -19.31254147954068 -29.912090623302618 0 0 0 0 -29.419527687095979 61.609633085286191 0 61.609633085286191 -92.009815737097242 0 0 0 0 -162.47184086837069 96.649047625827578 0 96.649047625827578 -83.831878721239661 0 0 0 0 -21.18803198299338 -10.565044752062761 0 -10.565044752062761 -40.944329886286113 0 0 0 0 -19.65199079597096 -16.635566681174794 0 -16.635566681174794 -82.470919938832182 0 0 0 0 -92.726724978181892 -15.234361615637031 0 -15.234361615637031 -68.104718176459556 0 0 0 0 -32.636560861236944 25.967324952016831 0 25.967324952016831 -27.40052643220756 0 0 0 0 -17.325924895808384 1.3920663929411001 0 1.3920663929411001 -85.127893807632461 0 0 0 0 -12.990462139850024 7.1385421348285547 0 7.1385421348285547 -32.056236279296634 0 0 0 0 -18.532189908812626 15.078778943872738 0 15.078778943872738 -37.697623538898391 0 0 0 0 -11.565756678848629 4.3982845298808826 0 4.3982845298808826 -33.503840876664768 0 0 0 0 -5.5317604906067572 -2.4112744430397015 0 -2.4112744430397015 -36.177552457820404 0 0 0 0 -5.7592918581240156 -2.4379337242866654 0 -2.4379337242866654 -35.972864464595119 0 0 0 0 -6.0008056927636062 -5.1791650221193635 0 -5.1791650221193635 -63.332050841357088 0 0 0 0 -19.962621806642346 -10.825209196334697 0 -10.825209196334697 -19.989528807030808 0 0 0 0 -16.972702779324209 -5.1302670511102804 0 -5.1302670511102804 -26.571065667809705 0 0 0 0 -3.4047214563233865 -11.364224220438615 0 -11.364224220438615 -38.03107591983229 0 0 0 0 -3.3653252293690912 -4.5711241517376564 0 -4.5711241517376564 -40.292337492510114 0 0 0 0 -0.14569584667844993 -4.4171878145032313 0 -4.4171878145032313 -28.51245008106838 0 0 0 0 -4.17615860949536 -12.462331902682649 0 -12.462331902682649 -17.374605599295421 0 0 0 0 -1.9893562914513723 -5.180527752950745 0 -5.180527752950745 -26.629369635504759 0 0 0 0 -16.082836450839977 7.9401475458231658 0 7.9401475458231658 0.19107992975079924 0 0 0 0 0.1445126488677797 0.025890126715054862 0 0.025890126715054862 -0.27200773562557623 0 0 0 0 -14.144903640363509 5.6021499512487338 0 5.6021499512487338 12.278961956509647 0 0 0 0 -17.308672767941061 -7.3698638269325443 0 -7.3698638269325443 -22.830674921437264 0 0 0 0 -11.663297723497635 -6.7532681313007572 0 -6.7532681313007572 -13.508237565170305 0 0 0 0 8.4594753994038001 18.515101629757197 0 18.515101629757197 7.3936051783213088 0 0 0 0 -499.81934056671844 -79.168899074067525 0 -79.168899074067525 -9.4938459540108937 0 0 0 0 -12.6478636131651 -3.0678431719053094 0 -3.0678431719053094 31.609278043251663 0 0 0 0 35.306074453131259 15.743370130973517 0 15.743370130973517 -60.127652399843669 0 0 0 0 -500.44448007794836 89.288039739765651 0 89.288039739765651 -108.02119239487361 0 0 0 0 -0.62817093924584633 0.71166756363331984 0 0.71166756363331984 -0.64777189982576777 0 0 0 0 11.451491674418776 -25.552171378596725 0 -25.552171378596725 -8.5896807959081798 0 0 0 0 -573.07091164960275 -52.959926897344026 0 -52.959926897344026 -18.535010100341729 0 0 0 0 7.2848796612488513 46.19416050083683 0 46.19416050083683 -85.758650821367269 0 0 0 0 -16.292166879426077 -21.978976754458543 0 -21.978976754458543 -40.869315103095659 0 0 0 0 -28.3946626026177 -11.811987451881187 0 -11.811987451881187 -41.16552792768266 0 0 0 0 -75.965189553057826 4.7916558297174348 0 4.7916558297174348 -46.959021358478935 0 0 0 0 -25.616674596941721 -17.965547646860131 0 -17.965547646860131 -7.8298758774849375 0 0 0 0 -6.192459951107594 -2.719523080541137 0 -2.719523080541137 -37.540347317833408 0 0 0 0 -249.28587531573885 -33.150397385439589 0 -33.150397385439589 5.0794947575811449 0 0 0 0 -0.65141779919144049 2.929716735684579 0 2.929716735684579 -1.1312109408904396 0 0 0 0 -499.97967662661267 -42.471793245246779 0 -42.471793245246779 87.801513604367429 0 0 0 0 -340.92745684757028 -82.876735831052258 0 -82.876735831052258 65.013550182725012 0 0 0 0 -337.51138219413588 -78.214319281985809 0 -78.214319281985809 66.171462451025548 0 0 0 0 -63.033233678859688 -35.125407734537191 0 -35.125407734537191 29.403247278820736 0 0 0 0 -27.925129420051235 36.177187023655222 0 36.177187023655222 20.029816911227776 0 0 0 0 -440.30562545818248 9.9648434825930394 0 9.9648434825930394 121.55381467764474 0 0 0 0 -564.54164156784464 16.3201641241522 0 16.3201641241522 126.97572341606082 0 0 0 0 -26.080299289498726 -26.858387547190688 0 -26.858387547190688 -39.938148506475784 0 0 0 0 -1.7455977095490827 0.51747478939160985 0 0.51747478939160985 1.8180573766556334 0 0 0 0 -59.058247878612747 11.389413609493793 0 11.389413609493793 12.630715495615846 0 0 0 0 -583.44610012065277 67.551891597602307 0 67.551891597602307 12.889952864176092 0 0 0 0 -1.411685476708552 0.041686324077055303 0 0.041686324077055303 -1.0262741058776426 0 0 0 0 -17.703350806172239 9.2510643312654679 0 9.2510643312654679 -5.7023898855368884 0 0 0 0 1.5297009968962811 14.435572071781309 0 14.435572071781309 -8.9541927288214538 0 0 0 0 -11.656382766867864 3.9206631845859903 0 3.9206631845859903 -0.97185655166763496 0 0 0 0 -18.031077695551971 3.5641056278240573 0 3.5641056278240573 -0.87509172908278288 0 0 0 0 -0.88688553407133419 1.9319237593793055 0 1.9319237593793055 -1.0462928189397041 0 0 0 0 -2.2470790162475316 6.3042939368219102 0 6.3042939368219102 -1.9742433564686666 0 0 0 0 -19.082534357530676 10.922534471620281 0 10.922534471620281 -2.2793331927841791 0 0 0 0 -24.845611295917479 6.8059405471609011 0 6.8059405471609011 3.2210422836592443 0 0 0 0 -4.5596744323519722 -1.2669844595726829 0 -1.2669844595726829 5.9578822738302906 0 0 0 0 -1.6666898143250526 2.4410452046428404 0 2.4410452046428404 -4.6347732937593227 0 0 0 0 -0.78086187113240157 19.876471723590726 0 19.876471723590726 -7.6101111906857568 0 0 0 0 -25.739619162115559 12.465468024591303 0 12.465468024591303 -1.3417867951876588 0 0 0 0 -380.36118139124846 4.4747621599302043 0 4.4747621599302043 30.015450155903523 0 0 0 0 -444.44963146289228 81.266155006370226 0 81.266155006370226 -46.579225453230265 0 0 0 0 -332.8325472464312 14.717218081974977 0 14.717218081974977 -43.461655610023207 0 0 0 0 -0.27727466821909941 0.36857663806074115 0 0.36857663806074115 -1.553300019005567 0 0 0 0 44.424678255794788 17.880729066549549 0 17.880729066549549 -44.576861657915174 0 0 0 0 -445.64193407647144 -9.2849555424462338 0 -9.2849555424462338 24.242818306064123 0 0 0 0 -32.034351754489762 5.311260929383252 0 5.311260929383252 25.55172582447176 0 0 0 0 -13.140602100180331 -9.499788734632034 0 -9.499788734632034 14.564380769418221 0 0 0 0 -34.975348447455872 16.725140775305817 0 16.725140775305817 10.104240806256485 0 0 0 0 -6.1671372610015069 -2.2550520836297672 0 -2.2550520836297672 4.7511251759869282 0 0 0 0 -25.034726894444702 9.2799434077659342 0 9.2799434077659342 -3.3176559410602522 0 0 0 0 -18.34283421401642 3.6380607684757535 0 3.6380607684757535 -4.0354076641801839 0 0 0 0 -46.853637792923109 9.3398225125677925 0 9.3398225125677925 3.1121859915472001 0 0 0 0 -232.53221255323842 71.218829447495068 0 71.218829447495068 -13.321353710524853 0 0 0 0 -262.63797387248633 91.588550289205841 0 91.588550289205841 2.8201778199254521 0 0 0 0 -304.55669845603734 55.733049652904533 0 55.733049652904533 1.4571959330374256 0 0 0 0 -315.66882018145179 103.71676908819549 0 103.71676908819549 1.9037087282580671 0 0 0 0 -266.93064722057898 30.25246561062287 0 30.25246561062287 16.911598098357757 0 0 0 0 -3.1135963193866276 0.055181493444120377 0 0.055181493444120377 0.49274471416912724 0 0 0 0 -343.77704971558614 0.95174595380376203 0 0.95174595380376203 16.049723222346493 0 0 0 0 -346.3088007360592 21.49968504589333 0 21.49968504589333 65.15503824260152 0 0 0 0 -378.29872878282367 48.41627155628845 0 48.41627155628845 52.489097397517909 0 0 0 0 -500.02301966713367 134.79651257193987 0 134.79651257193987 86.624939784139528 0 0 0 0 -320.64513888696069 128.20100143145606 0 128.20100143145606 14.065439231603676 0 0 0 0 -311.64257411620383 198.68774933264612 0 198.68774933264612 62.35911771528172 0 0 0 0 -193.69612128609515 177.35500507511085 0 177.35500507511085 31.845988806121397 0 0 0 0 -270.82232402860427 224.66023660383067 0 224.66023660383067 17.828338604803747 0 0 0 0 -272.66859469956944 224.54487801539875 0 224.54487801539875 57.51920097007249 0 0 0 0 -44.681127239526177 19.366526093863321 0 19.366526093863321 -39.863916214363769 0 0 0 0 -0.23201031218871648 -0.23170415840017355 0 -0.23170415840017355 0.24319427663926005 0 0 0 0 -1.7677864536412677 1.7118637020586149 0 1.7118637020586149 2.4957191439709079 0 0 0 0 -254.99795536087277 102.11197953506648 0 102.11197953506648 -3.218636614035745 0 0 0 0 -223.28012194868643 100.33523624136419 0 100.33523624136419 -18.335366512558352 0 0 0 0 -43.931779629830999 109.9585239329875 0 109.9585239329875 -32.435464060903442 0 0 0 0 -101.89382897302858 64.13821252532081 0 64.13821252532081 21.62252152857819 0 0 0 0 -7.1935035343067284 -0.092587994847804111 0 -0.092587994847804111 -2.3605004758608175 0 0 0 0 -7.2753509433091494 -6.4048247241818181 0 -6.4048247241818181 72.641984025328441 0 0 0 0 -0.16188652271807058 0.30648512297234909 0 0.30648512297234909 1.0786524828272785 0 0 0 0 36.838112924386223 94.494047835707079 0 94.494047835707079 65.774722259296482 0 0 0 0 -28.389465913569438 87.583178787137157 0 87.583178787137157 136.0854567386009 0 0 0 0 -39.737855398329884 55.115058403184442 0 55.115058403184442 69.536354888256625 0 0 0 0 -498.61293658241811 338.09929702200077 0 338.09929702200077 87.794745662234604 0 0 0 0 -70.263041337118921 101.77525017718352 0 101.77525017718352 131.31478686130677 0 0 0 0 -107.70821521468315 245.91916096299087 0 245.91916096299087 -26.669202662948294 0 0 0 0 35.667058559945872 83.090345120885615 0 83.090345120885615 27.226407883472632 0 0 0 0 -78.014936799813427 327.66072665585688 0 327.66072665585688 -124.84661302803978 0 0 0 0 -500.06401516515871 -54.602254921152102 0 -54.602254921152102 -7.4309714966324103 0 0 0 0 110.78310875337229 46.594777241559541 0 46.594777241559541 31.079473675679822 0 0 0 0 -0.40892177682192044 0.80665115181396096 0 0.80665115181396096 -1.1629284436487239 0 0 0 0 202.64213510427271 157.80679804506943 0 157.80679804506943 -22.901198561395802 0 0 0 0 30.417988955225155 30.449196887621952 0 30.449196887621952 47.276234396122163 0 0 0 0 -19.848468394030533 94.623279036357104 0 94.623279036357104 66.282636106565405 0 0 0 0 -7.6819540787000733 70.895721587066816 0 70.895721587066816 58.450962318085089 0 0 0 0 -27.966712610783361 57.251816969164054 0 57.251816969164054 58.655841896560332 0 0 0 0 11.762317575765337 76.792852175434746 0 76.792852175434746 54.945305475828604 0 0 0 0 43.527387142215957 50.780875945850482 0 50.780875945850482 41.044549879014994 0 0 0 0 3.3204482121154797 49.20064344966363 0 49.20064344966363 42.854193166541108 0 0 0 0 5.0823368358960579 53.499408034256362 0 53.499408034256362 50.478563607942419 0 0 0 0 -23.66898711728718 38.027277436930454 0 38.027277436930454 42.191930327872797 0 0 0 0 15.340386985051737 41.697661631934579 0 41.697661631934579 33.497668555910423 0 0 0 0 -499.9781942078007 -54.776725950025487 0 -54.776725950025487 -7.3549015283876606 0 0 0 0 -0.94469381178875711 2.5842929202741818 0 2.5842929202741818 -3.1703307692051861 0 0 0 0 -497.00581304999378 -45.559401481079377 0 -45.559401481079377 -5.2853786612130476 0 0 0 0 35.99383824956476 38.36828190290754 0 38.36828190290754 22.215662245348994 0 0 0 0 20.044190043334311 39.114774906503158 0 39.114774906503158 45.849038543481811 0 0 0 0 21.152547853562282 37.288299410162608 0 37.288299410162608 34.050890129126927 0 0 0 0 -44.921208285830289 -40.558288235235608 0 -40.558288235235608 121.2736603889453 0 0 0 0 -66.731424984944169 -2.3991161463480779 0 -2.3991161463480779 65.947828471824096 0 0 0 0 -61.562538317237795 15.127112634320142 0 15.127112634320142 77.737330995943012 0 0 0 0 -40.551167466070183 21.156574216660033 0 21.156574216660033 62.431224651151638 0 0 0 0 -23.668742226554826 44.267464070698622 0 44.267464070698622 62.617524384281296 0 0 0 0 -40.240560538813952 25.77269785671956 0 25.77269785671956 45.589670205190203 0 0 0 0 -61.8313488390977 47.725649156446366 0 47.725649156446366 68.122861790351067 0 0 0 0 -61.595728742562642 34.606539403857994 0 34.606539403857994 93.567232233404809 0 0 0 0 -29.778953930037233 63.298183157833137 0 63.298183157833137 74.935346184701416 0 0 0 0 -79.501773519035851 69.261340651094429 0 69.261340651094429 78.12854100173908 0 0 0 0 -74.012618886206837 54.312122862314823 0 54.312122862314823 89.625163042648154 0 0 0 0 -102.16106856625731 6.7547510656535223 0 6.7547510656535223 127.9553094611702 0 0 0 0 -102.32971786724011 47.982591468682827 0 47.982591468682827 91.415165087584967 0 0 0 0 -133.24180270357283 115.09831933094696 0 115.09831933094696 -19.7122812984679 0 0 0 0 -126.8694293981805 11.733875214559569 0 11.733875214559569 104.04542616149043 0 0 0 0 -226.58106504614261 58.332495626783029 0 58.332495626783029 86.596738596553649 0 0 0 0 -142.0447045630367 85.017104988201964 0 85.017104988201964 75.900866925267508 0 0 0 0 -80.935603882659052 48.789634555998305 0 48.789634555998305 40.188578676579453 0 0 0 0 -6.4224627295807295 3.5425617862498484 0 3.5425617862498484 11.257649523117493 0 0 0 0 -77.263894990341214 88.65263288904822 0 88.65263288904822 43.478843492013425 0 0 0 0 -1.2740190761124692 0.18535397258689201 0 0.18535397258689201 -0.31530156949820221 0 0 0 0 -78.90791082548094 22.13447012193059 0 22.13447012193059 -9.4319858858814882 0 0 0 0 -1.8769523454338923 6.8627859350576159 0 6.8627859350576159 -3.7842999588215207 0 0 0 0 -1.4744132780124346 7.6491488231449694 0 7.6491488231449694 -6.7286572293000972 0 0 0 0 -15.58041224509725 60.247540911271756 0 60.247540911271756 -67.85980731702216 0 0 0 0 -218.54651912655572 72.061161203975615 0 72.061161203975615 -82.591344562727585 0 0 0 0 -55.535704092500964 -64.260817637253567 0 -64.260817637253567 -47.426314221909109 0 0 0 0 8.1335498267735602 -99.227795116783284 0 -99.227795116783284 24.032549974235224 0 0 0 0 -81.652794460194855 -8.7341462377803367 0 -8.7341462377803367 63.42997592185278 0 0 0 0 -79.239289044946418 -57.761327124863783 0 -57.761327124863783 -32.285588689225605 0 0 0 0 -102.63321240277037 20.488240634157535 0 20.488240634157535 106.77234550719572 0 0 0 0 -102.87021907523922 -6.1469894664884066 0 -6.1469894664884066 246.64265891720996 0 0 0 0 99.626171197896838 -65.338964580946111 0 -65.338964580946111 76.380466024712376 0 0 0 0 -51.526764667878524 -48.707244427262083 0 -48.707244427262083 251.10261307445074 0 0 0 0 50.674639587106867 -108.73428456474095 0 -108.73428456474095 74.33592999306353 0 0 0 0 0.61986703879378879 -0.83785570056520697 0 -0.83785570056520697 0.78652323393848966 0 0 0 0 17.140539748988886 81.196720570465189 0 81.196720570465189 180.25927492133883 0 0 0 0 -2.7883871277444996 27.992770969009747 0 27.992770969009747 40.166232188679459 0 0 0 0 -15.541673229794469 -35.323221328592922 0 -35.323221328592922 50.95803975042466 0 0 0 0 -20.066754754698195 -22.056431056270526 0 -22.056431056270526 12.3853232718225 0 0 0 0 -14.027426218784967 -25.337204074667554 0 -25.337204074667554 61.390499703925769 0 0 0 0 -27.743415216677931 -17.393983371089149 0 -17.393983371089149 76.641139383958631 0 0 0 0 -16.497687025186679 -15.633058540738418 0 -15.633058540738418 26.952497391087149 0 0 0 0 -17.813846772864963 -10.588536544559652 0 -10.588536544559652 62.83572029345504 0 0 0 0 -32.366309433769857 3.3177068529593612 0 3.3177068529593612 145.05417960596344 0 0 0 0 -32.143833086120139 -10.234429963086924 0 -10.234429963086924 65.134857523479837 0 0 0 0 -29.240927090650075 -53.063375951933061 0 -53.063375951933061 93.094927314105263 0 0 0 0 -47.706871813793668 -56.963913492454466 0 -56.963913492454466 110.24632527072708 0 0 0 0 -27.538445711690656 -47.191636438215966 0 -47.191636438215966 81.992356045675336 0 0 0 0 -9.6972333051926398 -43.062546790189444 0 -43.062546790189444 32.380432579696034 0 0 0 0 -29.461889512211201 -34.44253642341225 0 -34.44253642341225 -13.326448585891228 0 0 0 0 4.7987615098309107 -64.430735268971233 0 -64.430735268971233 -18.61710312650041 0 0 0 0 9.9496841035588659 -48.345521506119979 0 -48.345521506119979 31.106493996734741 0 0 0 0 44.387222955609104 -20.270039024893862 0 -20.270039024893862 9.336302776005823 0 0 0 0 10.791987051009073 -44.836873296569692 0 -44.836873296569692 36.903007053577767 0 0 0 0 -18.651257831199473 29.043179073188753 0 29.043179073188753 55.503631958384034 0 0 0 0 -31.475333255537407 22.420955717918332 0 22.420955717918332 17.116896434274942 0 0 0 0 -39.863121903919819 -26.817266774364853 0 -26.817266774364853 -2.9129470829629227 0 0 0 0 4.2640365764514172 -23.815270567009879 0 -23.815270567009879 -26.230746803457777 0 0 0 0 -46.926123603949236 -0.7543885179124743 0 -0.7543885179124743 -73.231477803622454 0 0 0 0 -192.60838801428145 -5.8168185209781527 0 -5.8168185209781527 -20.876259752730675 0 0 0 0 -221.21469479004918 -71.666582961262051 0 -71.666582961262051 -40.610096260746786 0 0 0 0 -248.38817787072912 -37.563290584473748 0 -37.563290584473748 -43.094885818795092 0 0 0 0 -287.86191952693207 -52.379960341777306 0 -52.379960341777306 13.36690388399694 0 0 0 0 -176.92753021218959 -73.38744032805505 0 -73.38744032805505 14.224117243367814 0 0 0 0 -34.918522584084712 -22.380794632267943 0 -22.380794632267943 -4.9513919341642811 0 0 0 0 -197.39449279742712 -33.359104142874692 0 -33.359104142874692 -1.9035338678680205 0 0 0 0 -388.88949395113741 -81.447723204383777 0 -81.447723204383777 68.472319360348422 0 0 0 0 -66.819193644612824 10.593602822665019 0 10.593602822665019 -28.053939746210013 0 0 0 0 -38.598279083098532 -11.115205746215015 0 -11.115205746215015 -18.541179946391509 0 0 0 0 -75.961978951356286 2.2467595416603459 0 2.2467595416603459 23.226982958233165 0 0 0 0 33.558402840336385 -4.4568019407361188 0 -4.4568019407361188 23.099171048541514 0 0 0 0 -198.90635267866674 -138.90030762139602 0 -138.90030762139602 75.160587825687486 0 0 0 0 -8.0321111454577476 -149.74530443890487 0 -149.74530443890487 64.362015711905954 0 0 0 0 -584.23684607364135 59.274743805201631 0 59.274743805201631 -24.338614112165658 0 0 0 0 -1.0476327216301939 -0.66389573211929154 0 -0.66389573211929154 -0.16388813202312286 0 0 0 0 24.545172906404332 30.958424300560182 0 30.958424300560182 -56.985331429203711 0 0 0 0 -320.34886668943182 98.303294262513205 0 98.303294262513205 -18.71735092676613 0 0 0 0 -7.1244089907231682 -19.364823023111882 0 -19.364823023111882 57.386205819191588 0 0 0 0 -19.672855874492598 14.733010895151857 0 14.733010895151857 64.481420560424226 0 0 0 0 -5.2485838650682126 -10.237226708661353 0 -10.237226708661353 28.486362478143775 0 0 0 0 -16.696021293659214 10.987452630618103 0 10.987452630618103 45.08220633715699 0 0 0 0 -10.377979325528941 14.639574769913601 0 14.639574769913601 22.538653544490181 0 0 0 0 -15.432622543468369 9.722967973377763 0 9.722967973377763 18.71048019747326 0 0 0 0 -13.647062883341277 0.36472087027712519 0 0.36472087027712519 24.342290524362113 0 0 0 0 -14.917927071259328 2.6777526091665464 0 2.6777526091665464 20.300115695173929 0 0 0 0 -13.794354633790135 18.5763303610942 0 18.5763303610942 20.327904898633619 0 0 0 0 -13.460683161314591 16.236594533256586 0 16.236594533256586 15.555632123340823 0 0 0 0 -17.087913213795218 21.303673570559319 0 21.303673570559319 27.029580349518739 0 0 0 0 27.166578614444006 -27.42251934775939 0 -27.42251934775939 68.127877434719863 0 0 0 0 -19.715840268303509 38.493730801091147 0 38.493730801091147 -4.7991051188830518 0 0 0 0 -10.354732312223859 11.805429254373152 0 11.805429254373152 -9.7268606359925194 0 0 0 0 0.23712647351538862 0.26732453715464111 0 0.26732453715464111 0.57264303886559087 0 0 0 0 -16.867604007613409 1.1243247542184207 0 1.1243247542184207 6.1714481572290651 0 0 0 0 -11.93683403608884 3.7172325130251522 0 3.7172325130251522 7.3767250739242058 0 0 0 0 -0.070964644504869057 1.2845443441156359 0 1.2845443441156359 1.857741704912159 0 0 0 0 -23.057735257291824 7.9783238815094926 0 7.9783238815094926 9.999990175396988 0 0 0 0 -18.779897631955464 15.448561783531048 0 15.448561783531048 -1.5122341080289061 0 0 0 0 31.579172846930305 -54.728465801274297 0 -54.728465801274297 97.231521548706496 0 0 0 0 -3.4156935339633492 -53.803564082149478 0 -53.803564082149478 114.47177135439927 0 0 0 0 97.734366009992982 -61.328571827353194 0 -61.328571827353194 41.434031876360677 0 0 0 0 -0.57031915738369587 0.94595633713266025 0 0.94595633713266025 0.24254328906749567 0 0 0 0 37.235753641723932 -8.3051647686893375 0 -8.3051647686893375 64.123406284787734 0 0 0 0 -64.227429866177772 -8.7367943215973582 0 -8.7367943215973582 59.579912829789691 0 0 0 0 -10.139478123321169 -17.815058734431773 0 -17.815058734431773 49.942357872090263 0 0 0 0 -25.352311000920963 -28.88520970793428 0 -28.88520970793428 51.884241124423625 0 0 0 0 -37.950364228021499 18.472957572189557 0 18.472957572189557 60.596206277006402 0 0 0 0 -41.490964918757527 3.6757095001253219 0 3.6757095001253219 43.898053385547115 0 0 0 0 -99.679882163693037 -10.358710697105266 0 -10.358710697105266 68.751316802361998 0 0 0 0 20.7736596499999 -69.613116560119522 0 -69.613116560119522 83.286099518851529 0 0 0 0 -49.380668831763614 -6.452888953547756 0 -6.452888953547756 69.075282346961316 0 0 0 0 -9.4746392441902572 -37.703675517680736 0 -37.703675517680736 58.089585730235399 0 0 0 0 2.2942995161101862 -50.219205775134313 0 -50.219205775134313 50.084016947906036 0 0 0 0 -61.250083841461276 -25.263150050417551 0 -25.263150050417551 57.567670997219011 0 0 0 0 -63.109466407540822 3.2792260392771055 0 3.2792260392771055 42.012582005899077 0 0 0 0 -123.83442222080521 -19.100338512243241 0 -19.100338512243241 56.328748541049379 0 0 0 0 -144.78398250161081 -38.980086071401786 0 -38.980086071401786 47.336425124859602 0 0 0 0 16.147497658942484 -26.093152026781183 0 -26.093152026781183 -0.78844776543743933 0 0 0 0 16.367744396623493 -39.180780070626938 0 -39.180780070626938 27.535467809427274 0 0 0 0 22.794822807931268 -10.022159619365425 0 -10.022159619365425 84.554351831290504 0 0 0 0 53.979875017581662 -95.149062069322611 0 -95.149062069322611 99.333344808972413 0 0 0 0 31.452846374168985 -42.886979345555119 0 -42.886979345555119 0.23971749847022039 0 0 0 0 28.2653667248087 -22.490943799591335 0 -22.490943799591335 7.284403527988303 0 0 0 0 11.505387776023781 -29.20777130109964 0 -29.20777130109964 19.383300139039846 0 0 0 0 -3.8756163840807858 -1.8133537463676248 0 -1.8133537463676248 30.914368779756003 0 0 0 0 1.6503072086725297 -25.561929661537874 0 -25.561929661537874 59.259542700364847 0 0 0 0 4.5762200275330542 -39.094819623957271 0 -39.094819623957271 67.654053189813197 0 0 0 0 -7.6339010762533874 -2.255364116448515 0 -2.255364116448515 -0.25163821227019634 0 0 0 0 -71.80348509779742 62.180115084799631 0 62.180115084799631 -44.478508289604918 0 0 0 0 -108.46367815384019 81.272945641696779 0 81.272945641696779 -53.495503024553727 0 0 0 0 -51.869735820018832 11.143421499611293 0 11.143421499611293 -7.941924689714007 0 0 0 0 -11.256680659030522 -3.4435453036304429 0 -3.4435453036304429 -0.71421975445351915 0 0 0 0 -18.525511022542105 -30.594413142631041 0 -30.594413142631041 62.778629585748718 0 0 0 0 -216.43883250193721 87.76925416735611 0 87.76925416735611 -0.51454652794004119 0 0 0 0 -143.16643988515398 103.22485648974799 0 103.22485648974799 -71.96459542034458 0 0 0 0 -122.68482761400537 66.851073336466328 0 66.851073336466328 -21.160462830784958 0 0 0 0 -298.20832284038079 208.80714022103257 0 208.80714022103257 -141.84487270742522 0 0 0 0 -3.0233125996813612 -0.60582237370439529 0 -0.60582237370439529 -0.042145769405266154 0 0 0 0 14.712915302945021 -79.08331183175298 0 -79.08331183175298 10.290114602353356 0 0 0 0 -29.25923703497574 -5.9692136592259146 0 -5.9692136592259146 14.369030619058861 0 0 0 0 -267.67693740858431 4.3563565807280327 0 4.3563565807280327 53.462831986943741 0 0 0 0 -108.40085454980226 -90.534998036289323 0 -90.534998036289323 22.386857645136445 0 0 0 0 -250.89730067126129 101.22560343883538 0 101.22560343883538 -23.752575691716686 0 0 0 0 -173.5005093904299 54.536649331506489 0 54.536649331506489 -20.011891475738253 0 0 0 0 -177.14744061097679 77.726602979343994 0 77.726602979343994 -131.79451713127554 0 0 0 0 -177.78682001162269 -19.742501693116758 0 -19.742501693116758 -118.49058264411235 0 0 0 0 -313.87608844964234 16.828918313505255 0 16.828918313505255 -30.115955955796153 0 0 0 0 -171.27581291637489 8.6479213658112997 0 8.6479213658112997 -40.856861612122529 0 0 0 0 -171.71480155668814 16.697433779447437 0 16.697433779447437 -23.311668714668713 0 0 0 0 -117.46278741179049 -20.01579811197405 0 -20.01579811197405 -54.259140092832638 0 0 0 0 -138.35212814195074 4.5179248052482421 0 4.5179248052482421 -23.288436329627871 0 0 0 0 -200.81664521590119 20.95760057187978 0 20.95760057187978 -15.59050763019124 0 0 0 0 -160.82880314157364 31.562047768086728 0 31.562047768086728 -38.825559393908122 0 0 0 0 -42.540510266355795 -16.09743641220291 0 -16.09743641220291 -61.031443433341337 0 0 0 0 -63.381777855491237 -24.017372680199799 0 -24.017372680199799 -58.575122649358036 0 0 0 0 -42.499851139942621 -31.041455354516756 0 -31.041455354516756 -65.680929787137075 0 0 0 0 -40.496452573614079 -8.3047404274632299 0 -8.3047404274632299 -64.990927091754088 0 0 0 0 -41.083354730359133 -20.140989033095707 0 -20.140989033095707 -78.819836105918512 0 0 0 0 -32.438309259727248 -5.6090060404138171 0 -5.6090060404138171 -51.850862553274737 0 0 0 0 -43.24074442858182 -14.485504540094439 0 -14.485504540094439 -58.174547145126667 0 0 0 0 -58.200198550228379 -14.393352106238353 0 -14.393352106238353 -45.218070809818926 0 0 0 0 -41.174801909431153 -10.292878992022025 0 -10.292878992022025 -60.42137065417171 0 0 0 0 -66.105476398126484 0.61969028190566178 0 0.61969028190566178 -34.560414338032786 0 0 0 0 -71.42253727644129 -6.6197615299392965 0 -6.6197615299392965 -44.329604455151184 0 0 0 0 -105.77454169946941 -4.6191075221157121 0 -4.6191075221157121 -43.001515256664376 0 0 0 0 -63.391836192837474 -16.632368061572787 0 -16.632368061572787 -53.214565044462233 0 0 0 0 -77.633954403268945 -31.89548826725229 0 -31.89548826725229 -45.323998630748804 0 0 0 0 -107.97611646019686 -6.0580734041603819 0 -6.0580734041603819 -51.597296947132229 0 0 0 0 -105.64313783641228 -2.9050644129806926 0 -2.9050644129806926 -65.877793114596244 0 0 0 0 -56.301565996345744 -19.729444376839261 0 -19.729444376839261 -55.521915767552187 0 0 0 0 -50.944922666432831 -7.445073595309978 0 -7.445073595309978 -38.60767751078393 0 0 0 0 -56.520765360361111 -18.78929825687689 0 -18.78929825687689 -59.981648773004061 0 0 0 0 -45.057507965411787 -34.319270087122078 0 -34.319270087122078 -42.119665460741714 0 0 0 0 -30.873868055437924 -32.846842018126324 0 -32.846842018126324 -28.589774697393977 0 0 0 0 -31.095308781952554 -22.591955559014565 0 -22.591955559014565 -63.767145500582387 0 0 0 0 -34.000712530118108 -27.213763728456183 0 -27.213763728456183 -29.906128935232317 0 0 0 0 -12.278982751298827 8.425744899466963 0 8.425744899466963 -23.417993208387088 0 0 0 0 -58.064548456156501 0.47710425501527665 0 0.47710425501527665 35.93527731774418 0 0 0 0 -58.064521136517214 -0.18622312060941226 0 -0.18622312060941226 -43.233900598659318 0 0 0 0 5.3222031017303379 -25.066941263673272 0 -25.066941263673272 -36.705405247456696 0 0 0 0 -114.07117997500245 4.3815046571571514 0 4.3815046571571514 -13.293192083244591 0 0 0 0 -113.40393116178529 11.474048164446543 0 11.474048164446543 -84.730236411223018 0 0 0 0 -166.07343287303593 58.422300894877736 0 58.422300894877736 -28.705989839279965 0 0 0 0 -171.60506611432174 9.4051347677801118 0 9.4051347677801118 20.049486679799458 0 0 0 0 21.004914679458125 16.032144093464353 0 16.032144093464353 -39.306292971714441 0 0 0 0 -43.711633114790857 -32.96322610742169 0 -32.96322610742169 1.1607272747451134 0 0 0 0 -152.93361255958189 67.349960261527045 0 67.349960261527045 -34.169441152622881 0 0 0 0 -1.0443446079584078 0.47271674628782634 0 0.47271674628782634 -1.1668898451181278 0 0 0 0 -47.664420506671377 24.042163530764242 0 24.042163530764242 -19.474759338033209 0 0 0 0 -0.021694751566567305 0.43165086186870028 0 0.43165086186870028 -6.46898016038066 0 0 0 0 -201.84876085860742 15.990083505309173 0 15.990083505309173 37.774852674160911 0 0 0 0 -187.07411225861506 10.885959260428933 0 10.885959260428933 36.648745029932016 0 0 0 0 -198.29587970770899 31.935619569212093 0 31.935619569212093 35.663307662585993 0 0 0 0 -195.96098923597947 51.006983842969504 0 51.006983842969504 -28.189476618928182 0 0 0 0 -197.71579233012153 42.408012869459583 0 42.408012869459583 52.287404748918334 0 0 0 0 -177.99417046666531 6.9650442485881285 0 6.9650442485881285 56.694588977680958 0 0 0 0 -135.79995329744725 31.730076601898816 0 31.730076601898816 63.049839907191767 0 0 0 0 -221.18814664390817 0.63785934362658825 0 0.63785934362658825 55.167867740885072 0 0 0 0 -221.01578122385857 17.75927735974291 0 17.75927735974291 82.471435976205839 0 0 0 0 -181.28468645114299 19.81381962284695 0 19.81381962284695 74.138948190693611 0 0 0 0 -182.57133462941783 28.399284686183194 0 28.399284686183194 77.169919131791289 0 0 0 0 -103.44476473961311 35.224682330614513 0 35.224682330614513 48.209246501359985 0 0 0 0 -163.15019222798946 32.409954149699161 0 32.409954149699161 61.543828997175183 0 0 0 0 -166.54502966562598 65.699844135487098 0 65.699844135487098 50.273954316525078 0 0 0 0 -49.406090193897398 30.168399266283245 0 30.168399266283245 -7.3750386341298508 0 0 0 0 -248.78515852249438 -51.811490027871827 0 -51.811490027871827 54.621138222070385 0 0 0 0 -278.69593951562456 32.013316431711473 0 32.013316431711473 85.465032216655231 0 0 0 0 0.007851749572112432 0.34867393195460394 0 0.34867393195460394 -7.3170999298125334 0 0 0 0 -28.107889828118459 -68.751603950745164 0 -68.751603950745164 -28.708109479107293 0 0 0 0 -144.29437552613308 -26.943372108387791 0 -26.943372108387791 38.507602876360011 0 0 0 0 -197.28972724584037 -14.243286288277034 0 -14.243286288277034 63.335075190560474 0 0 0 0 -195.70649740585577 -33.594065110681925 0 -33.594065110681925 38.258627991031233 0 0 0 0 -14.86809986100161 57.236054332267742 0 57.236054332267742 -109.72963577776204 0 0 0 0 -226.88551631156133 -56.72873056112013 0 -56.72873056112013 38.824152727101364 0 0 0 0 -223.79960438958369 -62.523790912974619 0 -62.523790912974619 -27.587579402516894 0 0 0 0 10.735225730925322 -0.66975739485339147 0 -0.66975739485339147 -7.2077208256141603 0 0 0 0 68.500895613104149 -25.864661917313839 0 -25.864661917313839 -72.907619010747567 0 0 0 0 0.10285689375959972 0.41460162588854033 0 0.41460162588854033 -6.4312401605855873 0 0 0 0 -203.81355108168464 -85.364369924678272 0 -85.364369924678272 2.385057679575084 0 0 0 0 -130.74068247422474 72.566639472608017 0 72.566639472608017 -67.63841897662769 0 0 0 0 -191.00710163442091 -79.598046041396685 0 -79.598046041396685 -226.98391475694621 0 0 0 0 -418.04570676017283 86.235833304027892 0 86.235833304027892 70.03216092927056 0 0 0 0 -441.44303030457922 -122.38577534628621 0 -122.38577534628621 32.651299438267131 0 0 0 0 -404.39817941543515 116.91856991840552 0 116.91856991840552 -190.95220764140748 0 0 0 0 -43.526260240593729 -30.410118637007514 0 -30.410118637007514 30.121948921544117 0 0 0 0 -129.35032174486878 162.23751458867821 0 162.23751458867821 -64.727700480609201 0 0 0 0 -3.0750257794135933 -0.25754542295926486 0 -0.25754542295926486 -0.10723261897629163 0 0 0 0 -147.28531911033133 -205.02409361963055 0 -205.02409361963055 -257.24230413851268 0 0 0 0 -160.23204425727454 -155.14450602018781 0 -155.14450602018781 -2.6560748229881881 0 0 0 0 2.571757253675969 -0.49205798055743344 0 -0.49205798055743344 -58.496363846738404 0 0 0 0 -175.06495159358383 -127.76182633635062 0 -127.76182633635062 -14.705160222623817 0 0 0 0 -43.530837917767712 -56.886342819259369 0 -56.886342819259369 -5.015469555566483 0 0 0 0 -331.96050380255656 -128.51730440138738 0 -128.51730440138738 50.162578895444653 0 0 0 0 -443.91956881402075 -244.90542894500402 0 -244.90542894500402 -50.315776091104226 0 0 0 0 -590.41364983600397 -50.566833894364549 0 -50.566833894364549 21.87724353998351 0 0 0 0 -303.42632038582815 -112.74051989837699 0 -112.74051989837699 32.755473408281034 0 0 0 0 -331.30265494437299 31.161428717585522 0 31.161428717585522 -21.863600116980415 0 0 0 0 -276.37176012793498 -78.453474033727787 0 -78.453474033727787 47.133860340766404 0 0 0 0 -242.28074300746357 -127.33872386698179 0 -127.33872386698179 -24.715185853498582 0 0 0 0 -235.06122633311497 -100.09542979140363 0 -100.09542979140363 58.469300697735406 0 0 0 0 -239.77804481932981 -64.885914432040948 0 -64.885914432040948 10.212167662290994 0 0 0 0 -239.07721161067548 50.12288974899009 0 50.12288974899009 -151.46725908016168 0 0 0 0 -422.17915916730999 -107.82334969881342 0 -107.82334969881342 44.984607564550743 0 0 0 0 -259.9482443602592 -211.30251009631462 0 -211.30251009631462 -77.970594355731578 0 0 0 0 -89.653227089580469 -63.842125604044888 0 -63.842125604044888 -5.1372211485002452 0 0 0 0 -67.761029280087769 -54.3265810511231 0 -54.3265810511231 -34.69477435674446 0 0 0 0 -76.699283785292209 -66.882879510127793 0 -66.882879510127793 -36.5791238596222 0 0 0 0 -46.909369642969978 -9.2126777300957201 0 -9.2126777300957201 25.527031350787865 0 0 0 0 -121.91392698821983 11.221365425065073 0 11.221365425065073 42.160973154972226 0 0 0 0 -130.63227997213835 -29.583924232773938 0 -29.583924232773938 13.557475942044846 0 0 0 0 -2.2045026806881651 38.986885893428337 0 38.986885893428337 6.3071495229537362 0 0 0 0 -155.75674924942268 -4.0494150609195572 0 -4.0494150609195572 48.213760576809705 0 0 0 0 -4.6597389907619799 0.49393694380046327 0 0.49393694380046327 -1.5939787396550855 0 0 0 0 0.62818413533659623 -3.1496058056303582 0 -3.1496058056303582 -6.7179150975396169 0 0 0 0 -0.31106682900905902 0.25536886840067652 0 0.25536886840067652 -3.2738740917219959 0 0 0 0 -3.0069227632290065 0.48535774958168609 0 0.48535774958168609 0.40939040633092449 0 0 0 0 -4.3806609169496369 -0.9285318798530966 0 -0.9285318798530966 0.21493356169071376 0 0 0 0 -3.8930530500310851 4.5168642312161182 0 4.5168642312161182 -0.78540625254447605 0 0 0 0 -22.882258416279001 -4.531347932399342 0 -4.531347932399342 53.365346650645506 0 0 0 0 -2.2310066772049852 0.82023608793565828 0 0.82023608793565828 1.9601405475381406 0 0 0 0 -13.154994428154168 8.6342372852986955 0 8.6342372852986955 -27.24820594142254 0 0 0 0 -2.8223347197163093 30.295580576241605 0 30.295580576241605 7.6680270571391702 0 0 0 0 -0.20248050877543733 -0.15202463615488959 0 -0.15202463615488959 -0.01295499379057452 0 0 0 0 -12.985954782609042 57.653144518601493 0 57.653144518601493 47.604456223141767 0 0 0 0 -102.90428102158512 11.153037069119023 0 11.153037069119023 -9.1553169288535443 0 0 0 0 -4.9622319625369897 -3.5123832265174109 0 -3.5123832265174109 -1.9899721303490465 0 0 0 0 -5.6094123498351109 -0.59150321189791377 0 -0.59150321189791377 0.51519309874410624 0 0 0 0 -8.3316656892588981 -3.5761534355665168 0 -3.5761534355665168 1.6037752285643903 0 0 0 0 -5.3244703514774301 -1.4336382708670818 0 -1.4336382708670818 0.60459350157262315 0 0 0 0 -9.9394549541902961 -0.3963538456360185 0 -0.3963538456360185 1.6812758330654738 0 0 0 0 -4.671889424892683 -1.9787063800772646 0 -1.9787063800772646 0.20098600241629078 0 0 0 0 -118.67663656565855 -2.8770061951655705 0 -2.8770061951655705 11.08694889823925 0 0 0 0 -51.194404124765242 21.946552060821816 0 21.946552060821816 -14.9092277805794 0 0 0 0 -2.0336517834922301 -0.35183559994784375 0 -0.35183559994784375 0.046101067716165178 0 0 0 0 -12.46052849980515 -2.1675668268790034 0 -2.1675668268790034 1.0166932684433441 0 0 0 0 -0.067572615989524465 0.083538487998826128 0 0.083538487998826128 0.023466962022406682 0 0 0 0 -91.820435269923109 9.6494682489195576 0 9.6494682489195576 3.9457947629700598 0 0 0 0 -54.238839743818971 1.8248050310437272 0 1.8248050310437272 -0.0021143507917952753 0 0 0 0 -9.2484792765899329 -2.0565081280138586 0 -2.0565081280138586 -1.198888040033562 0 0 0 0 -7.1042521957833742 0.19855655300553732 0 0.19855655300553732 -0.023412900610875198 0 0 0 0 -144.01068335397576 -17.417433800252418 0 -17.417433800252418 0.035073276837082112 0 0 0 0 -156.55442760874121 -20.371530287267689 0 -20.371530287267689 16.649099239049193 0 0 0 0 -123.08206461886402 1.1249565198305262 0 1.1249565198305262 14.201375403464787 0 0 0 0 -122.36610107262277 -7.4375670045825117 0 -7.4375670045825117 2.9780574061928369 0 0 0 0 -122.13530463719508 15.248688760492598 0 15.248688760492598 -0.16553592350071256 0 0 0 0 -163.83357847207662 -7.6669022792079886 0 -7.6669022792079886 14.39223007879602 0 0 0 0 -159.80194521748081 -17.963387870914826 0 -17.963387870914826 26.5891556445915 0 0 0 0 -192.44982687049287 -98.64134777359952 0 -98.64134777359952 -21.633653628806599 0 0 0 0 -270.79747409746051 -30.833799045833018 0 -30.833799045833018 26.199819240643684 0 0 0 0 -103.35680864307506 21.549233945040328 0 21.549233945040328 -18.87905718317927 0 0 0 0 -199.9103663541282 50.108262894255446 0 50.108262894255446 9.3883545433715483 0 0 0 0 -147.76985932185926 46.295212074715835 0 46.295212074715835 -12.669750388539867 0 0 0 0 -168.53562584648171 12.352598258431016 0 12.352598258431016 7.8282703807904568 0 0 0 0 -449.08730108284772 103.70990300593645 0 103.70990300593645 -23.419178594110804 0 0 0 0 -1.6246090670758235 -1.2511127767136578 0 -1.2511127767136578 -1.2493720581212646 0 0 0 0 -9.8863780211722769 -88.025998768206136 0 -88.025998768206136 -76.180055287856774 0 0 0 0 -306.76936764396169 -166.94362059948645 0 -166.94362059948645 -124.06537757287964 0 0 0 0 -152.72991983962856 -98.164808366418271 0 -98.164808366418271 -1.9009249889348467 0 0 0 0 -180.45664871962254 -49.998045799275758 0 -49.998045799275758 -28.790434770942653 0 0 0 0 -67.861961180427897 -100.6346302161578 0 -100.6346302161578 -39.143822382251521 0 0 0 0 -26.742336917163811 -20.560397094339308 0 -20.560397094339308 -31.150317761704525 0 0 0 0 -138.69109349322662 -47.987875544082073 0 -47.987875544082073 -3.4710314780719997 0 0 0 0 -146.27456159785288 -55.663802703442997 0 -55.663802703442997 -0.98315781556734338 0 0 0 0 -110.75987512905704 -24.777254967147687 0 -24.777254967147687 0.0022696467902142137 0 0 0 0 -77.48492056689247 -9.0308863867687403 0 -9.0308863867687403 -0.062416525840826215 0 0 0 0 -93.050109699301174 -33.696905251891202 0 -33.696905251891202 -32.725047325090948 0 0 0 0 -92.526478709200092 12.749174131781094 0 12.749174131781094 -30.152778591919798 0 0 0 0 -71.772112022543297 -1.2568729107699657 0 -1.2568729107699657 -23.431050733809599 0 0 0 0 -44.854490474482645 5.7570047197160239 0 5.7570047197160239 -27.926773386753023 0 0 0 0 -50.62581947207218 -9.6657627205220713 0 -9.6657627205220713 -9.9312047874182738 0 0 0 0 -20.191203107833644 -26.767261701348666 0 -26.767261701348666 -5.1970756978422692 0 0 0 0 -60.166980093696111 -0.76583742979140013 0 -0.76583742979140013 -7.6987405277740404 0 0 0 0 -35.118231771012688 7.2407377602585399 0 7.2407377602585399 -7.9116849460095295 0 0 0 0 -22.579304690136269 -14.560317112420829 0 -14.560317112420829 7.238845329633314 0 0 0 0 -17.417192429536044 -8.7859699842937502 0 -8.7859699842937502 17.041293276965007 0 0 0 0 -23.955755172509271 -8.8028483150682426 0 -8.8028483150682426 17.087684949735888 0 0 0 0 -21.924859572118294 -15.07764333999026 0 -15.07764333999026 18.927598289590811 0 0 0 0 -21.958687176878811 -12.328481183618759 0 -12.328481183618759 19.211102929073888 0 0 0 0 -21.838039071591993 -13.204643306905226 0 -13.204643306905226 14.202893410992772 0 0 0 0 15.651344321069701 -7.8209966010788321 0 -7.8209966010788321 -0.10078480819551316 0 0 0 0 10.854160384256829 -32.032294683159392 0 -32.032294683159392 -47.155915203652057 0 0 0 0 0.3193144062876021 0.072801961589124886 0 0.072801961589124886 1.0417034581879219 0 0 0 0 -167.01946816530835 -58.297719100769882 0 -58.297719100769882 -9.8063265841402654 0 0 0 0 -70.54822508235884 31.755982470898644 0 31.755982470898644 -60.730693341304416 0 0 0 0 -117.80169145933542 4.2247057498913705 0 4.2247057498913705 -14.445747659005779 0 0 0 0 -74.461156111981836 -33.235196850604098 0 -33.235196850604098 -17.366040379671063 0 0 0 0 -52.754271626410628 38.296021072945734 0 38.296021072945734 29.344754972234171 0 0 0 0 10.039485104123742 14.710142182223876 0 14.710142182223876 -9.503173375140932 0 0 0 0 -1.9608775643030567 -0.1079198553457914 0 -0.1079198553457914 3.8636709982882711 0 0 0 0 -58.209929645105149 92.898351051085825 0 92.898351051085825 -49.346024825621441 0 0 0 0 23.711559461048182 4.4132661276281322 0 4.4132661276281322 -16.251220127065437 0 0 0 0 -90.371338963862399 -4.2573295551351009 0 -4.2573295551351009 26.478907129128629 0 0 0 0 -21.867766757993195 0.96574796072201252 0 0.96574796072201252 29.832300656136567 0 0 0 0 -6.6349122451792937 -21.707751910348179 0 -21.707751910348179 28.192553811973539 0 0 0 0 -1.3038035321789678 0.8475119835134528 0 0.8475119835134528 0.57186502587112864 0 0 0 0 -8.1064426109911594 -0.89109687105967916 0 -0.89109687105967916 0.57564828646636923 0 0 0 0 -22.380651048404616 5.4034768415190229 0 5.4034768415190229 9.3177839424881768 0 0 0 0 3.9329908282034012 -47.134551380020184 0 -47.134551380020184 51.409686525991283 0 0 0 0 -43.354011802741297 -12.58500191121675 0 -12.58500191121675 78.013221714764086 0 0 0 0 3.5284491370190949 -17.404192947880457 0 -17.404192947880457 31.673244567108668 0 0 0 0 -5.9959627000156814 -0.81339287304215313 0 -0.81339287304215313 1.6818547696664818 0 0 0 0 -4.8947716329523017 2.1469457166221666 0 2.1469457166221666 2.6715194461561129 0 0 0 0 -5.7931032408123428 0.2225815521065897 0 0.2225815521065897 2.6312128133529313 0 0 0 0 15.156818603700231 -38.804817359290951 0 -38.804817359290951 37.298155106702893 0 0 0 0 -5.5647303156438852 -0.37942815232351279 0 -0.37942815232351279 2.1908826989722621 0 0 0 0 -10.715237559273987 1.3125870100634547 0 1.3125870100634547 6.2356576132035855 0 0 0 0 -113.17247476798184 50.469327235061684 0 50.469327235061684 50.863407280936826 0 0 0 0 -11.881422141659151 0.78381648986203067 0 0.78381648986203067 1.1067250986250416 0 0 0 0 24.718776814828743 -3.875556187100301 0 -3.875556187100301 15.710293319347585 0 0 0 0 -17.837783045973993 5.1431832893922405 0 5.1431832893922405 14.334168874034674 0 0 0 0 -0.89449888935917699 -0.01728654252241868 0 -0.01728654252241868 0.015105663784172052 0 0 0 0 -9.8216707612227765 7.2749478410014774 0 7.2749478410014774 7.5210984199670037 0 0 0 0 -13.623335355103336 -2.0535933647524587 0 -2.0535933647524587 19.627685163215261 0 0 0 0 -20.160293612258101 0.93437764281100044 0 0.93437764281100044 15.577783079724213 0 0 0 0 -9.4520200990609737 -2.9247212650347763 0 -2.9247212650347763 15.072020435354688 0 0 0 0 -9.455453380425233 0.011379434049266557 0 0.011379434049266557 -0.09563032283824674 0 0 0 0 -13.020199588334435 -13.944504365943601 0 -13.944504365943601 2.4412429289000102 0 0 0 0 -6.3104776762156689 -10.103811726878462 0 -10.103811726878462 1.9630975289228445 0 0 0 0 -16.650682217557915 -2.8088543845592824 0 -2.8088543845592824 10.365703326261809 0 0 0 0 1.7223735474258319 7.7568519841644701 0 7.7568519841644701 2.0886750259076052 0 0 0 0 -2.1989495048437675 -8.0403178127820354 0 -8.0403178127820354 2.0203391619801891 0 0 0 0 -9.0873993222776335 -9.5099114640777032 0 -9.5099114640777032 5.4159339386962984 0 0 0 0 -12.232393709546159 -18.108716986518573 0 -18.108716986518573 13.648942840779547 0 0 0 0 -5.1328441754885716 -15.466900645101816 0 -15.466900645101816 -3.2519874412757588 0 0 0 0 -8.7704898601587047 -23.437201154172449 0 -23.437201154172449 3.0912681723752939 0 0 0 0 -4.6180716620547173 -31.241204405922474 0 -31.241204405922474 9.5349027562977433 0 0 0 0 -32.056535991951023 26.549591059384809 0 26.549591059384809 4.9385625570131593 0 0 0 0 -2.0241722051548194 1.039237008709609 0 1.039237008709609 0.84563225075629966 0 0 0 0 -15.139267743816163 26.860187303944443 0 26.860187303944443 -11.837306673930357 0 0 0 0 -18.385805731735672 3.0630564337423039 0 3.0630564337423039 4.0769094792894833 0 0 0 0 -25.765515108112595 7.5621013822276524 0 7.5621013822276524 6.6641561667591418 0 0 0 0 0.10450698920818269 0.051333079412223981 0 0.051333079412223981 0.065044803397421691 0 0 0 0 -11.020536411684589 -1.2435968245699485 0 -1.2435968245699485 18.294433603514875 0 0 0 0 -20.228744751771956 5.0442676651549334 0 5.0442676651549334 25.425122755736254 0 0 0 0 -2.4248433468113078 1.1951011649888879 0 1.1951011649888879 -0.017405424095463473 0 0 0 0 -4.1430209969312273 5.8881036084262064 0 5.8881036084262064 3.445011857992256 0 0 0 0 -10.19622456047864 -2.7262910538294456 0 -2.7262910538294456 20.859050449076904 0 0 0 0 -9.8731481291497403 -1.4135800303599098 0 -1.4135800303599098 15.227100174121176 0 0 0 0 -10.271830939110522 -0.29242998951025867 0 -0.29242998951025867 0.46189449750656136 0 0 0 0 -31.818829663490305 17.839361983830685 0 17.839361983830685 17.593602477243167 0 0 0 0 19.573346003964616 3.7719941083090021 0 3.7719941083090021 1.8251969689745238 0 0 0 0 -5.2743316092262518 -0.57882215176774776 0 -0.57882215176774776 0.18459113828519219 0 0 0 0 -3.4114589171879537 -0.45035396938611427 0 -0.45035396938611427 0.30018723142429171 0 0 0 0 -2.1336404779446312 0.048108953528603893 0 0.048108953528603893 -0.015943284246241723 0 0 0 0 -299.14274956987538 -97.141656639653775 0 -97.141656639653775 22.537684978083576 0 0 0 0 -150.13792179718439 165.28884405332559 0 165.28884405332559 -98.997425943950532 0 0 0 0 -385.94761623746126 44.5729596335607 0 44.5729596335607 -0.33753425316035646 0 0 0 0 -168.0699043917275 61.591284924593531 0 61.591284924593531 -16.045838402088236 0 0 0 0 -33.073412032736087 -9.7186653645630656 0 -9.7186653645630656 -44.4527467784078 0 0 0 0 -82.943446178036538 68.345415845305951 0 68.345415845305951 -35.651641781581596 0 0 0 0 -86.200514371484132 51.467633077085459 0 51.467633077085459 -1.711794206736414 0 0 0 0 -91.367116045765215 63.871408556570287 0 63.871408556570287 -23.562716874725467 0 0 0 0 -152.48820736004382 34.958088344792955 0 34.958088344792955 -20.247810069548365 0 0 0 0 -165.41245619759866 10.620028561423972 0 10.620028561423972 -2.0603989167013026 0 0 0 0 -301.37045665485311 22.525302282250095 0 22.525302282250095 15.773345328774695 0 0 0 0 -75.404939340879537 22.282975687344432 0 22.282975687344432 -4.3407664796903305 0 0 0 0 -0.61141831232355059 -0.22046627280489162 0 -0.22046627280489162 0.043688497644522484 0 0 0 0 -101.91423605619275 50.598265346380465 0 50.598265346380465 -5.9020623171858251 0 0 0 0 -51.149983372810993 14.96622770153461 0 14.96622770153461 -6.0925086173700009 0 0 0 0 -60.026982175568264 54.135149110934847 0 54.135149110934847 -10.553845246179243 0 0 0 0 -24.477956616949086 25.415543629700537 0 25.415543629700537 -28.036296128016716 0 0 0 0 -34.335420209717995 28.623958311112155 0 28.623958311112155 3.4529300658090101 0 0 0 0 5.7622133085769747 -21.446033538272331 0 -21.446033538272331 23.646532135550871 0 0 0 0 -52.960266138463339 18.922285728424939 0 18.922285728424939 -21.862530744575945 0 0 0 0 -83.408987216726018 30.086661783639364 0 30.086661783639364 -5.5232556816484069 0 0 0 0 -74.536198672068167 45.134674985953971 0 45.134674985953971 -20.831628593720641 0 0 0 0 -105.64063513139843 55.366235255843826 0 55.366235255843826 -37.240465565765909 0 0 0 0 -100.25755309311353 18.153318318153328 0 18.153318318153328 -18.430314030490976 0 0 0 0 -83.095594885211995 24.845497871413215 0 24.845497871413215 -33.279876931516704 0 0 0 0 -141.19597922964931 20.405020863319201 0 20.405020863319201 -21.015739653089231 0 0 0 0 -165.78691579964607 71.106260139580158 0 71.106260139580158 -25.736702653209544 0 0 0 0 -129.7580874782434 25.575735928894385 0 25.575735928894385 0.00796981029315183 0 0 0 0 -96.113988072918346 7.9735351457798593 0 7.9735351457798593 -20.711136200171577 0 0 0 0 -153.07475863669242 40.941374290600116 0 40.941374290600116 4.7353865313293468 0 0 0 0 -125.78441069645942 18.743641799075213 0 18.743641799075213 -1.322798797495274 0 0 0 0 -107.5039672963976 26.596704235030696 0 26.596704235030696 -0.025605585657653186 0 0 0 0 -0.41938103624330481 -0.11729347892582709 0 -0.11729347892582709 0.014357332668691353 0 0 0 0 -73.610748874774799 -2.6314055855070357 0 -2.6314055855070357 -1.8802413224097736 0 0 0 0 -87.156351539080788 47.163392187221945 0 47.163392187221945 -21.851469297554722 0 0 0 0 -130.84910500659134 34.558726291275796 0 34.558726291275796 -8.6588499001656132 0 0 0 0 -0.80952878837777575 -0.35149162581004134 0 -0.35149162581004134 -0.007744254937942896 0 0 0 0 -104.93641301682874 41.182614699906992 0 41.182614699906992 -19.652442039470401 0 0 0 0 -102.72758662274828 46.900691072210009 0 46.900691072210009 -20.052707331095391 0 0 0 0 -111.45430066722247 57.158945201714559 0 57.158945201714559 -14.139574510661422 0 0 0 0 -159.72080259852373 87.67127883476077 0 87.67127883476077 -48.486982769796356 0 0 0 0 -0.73262872036044513 0.55862404866034865 0 0.55862404866034865 -0.073611429892442126 0 0 0 0 -460.33678802386748 -30.342689804433967 0 -30.342689804433967 8.3838201344164229 0 0 0 0 -218.47710126032143 -19.344698510572186 0 -19.344698510572186 -12.960251958512913 0 0 0 0 -251.28347240189396 14.471093695769484 0 14.471093695769484 14.786479132975096 0 0 0 0 -181.73193230536253 27.436834443241246 0 27.436834443241246 17.123121638997127 0 0 0 0 -180.83022495575727 -22.702535167977281 0 -22.702535167977281 10.298616891063286 0 0 0 0 -161.28408309409315 22.977254462542032 0 22.977254462542032 0.047907487666487704 0 0 0 0 -500.18644420793589 -78.241160264587478 0 -78.241160264587478 17.605872739159715 0 0 0 0 -1.072495292736928 0.4703140452540211 0 0.4703140452540211 0.047177390130260115 0 0 0 0 -620.05380563660219 5.5915548232702026 0 5.5915548232702026 0.89984567094559953 0 0 0 0 -115.76987273089799 11.098277991678694 0 11.098277991678694 -0.017840182520721101 0 0 0 0 -336.47574206984427 37.010171706801927 0 37.010171706801927 65.644195679555494 0 0 0 0 -217.85570230583107 -12.20313954779801 0 -12.20313954779801 7.3511657750860522 0 0 0 0 -1.4052910132703325 1.1308122134869976 0 1.1308122134869976 -0.0060680742258459319 0 0 0 0 -247.98107155877642 0.74888869836436101 0 0.74888869836436101 71.553502644974259 0 0 0 0 -249.54258337079318 316.11849927859419 0 316.11849927859419 -262.17344176685361 0 0 0 0 -499.2428567257607 204.52142870442458 0 204.52142870442458 38.400243742393855 0 0 0 0 -202.24189671799468 162.89459467610834 0 162.89459467610834 -52.001719437421144 0 0 0 0 -167.98909493886458 189.41382339511509 0 189.41382339511509 -110.30848200353176 0 0 0 0 -187.15459787025793 164.61490858945496 0 164.61490858945496 -65.09211349679795 0 0 0 0 -87.255932151509114 249.88928349970561 0 249.88928349970561 -35.736994136057369 0 0 0 0 -255.42609080073817 35.788529617809388 0 35.788529617809388 -17.48537319342223 0 0 0 0 -276.32543883385551 82.517418909820236 0 82.517418909820236 -93.93293212002223 0 0 0 0 -256.47619028692316 -69.014656512355884 0 -69.014656512355884 23.115133563450598 0 0 0 0 -4.1326882002176717 1.9949691928499647 0 1.9949691928499647 -57.842187459234125 0 0 0 0 -139.20284558044659 7.8346828938959447 0 7.8346828938959447 -53.266252375268522 0 0 0 0 -216.36164330175052 148.52259967812029 0 148.52259967812029 -52.727710300308217 0 0 0 0 -124.260369720585 88.321596775494612 0 88.321596775494612 -5.8809383935118262 0 0 0 0 -100.57181899831994 96.221441487224325 0 96.221441487224325 -36.843182939364198 0 0 0 0 -68.892118529976869 18.774125347095776 0 18.774125347095776 -7.6319283769030335 0 0 0 0 -4.2740046744795137 1.32702421060872 0 1.32702421060872 0.11706341687205887 0 0 0 0 36.17492521803797 -3.0590212961332099 0 -3.0590212961332099 -30.600315650907746 0 0 0 0 -1.1020122395096656 0.20007100020667323 0 0.20007100020667323 0.41253990659417994 0 0 0 0 -11.992172908145676 -21.085995378184865 0 -21.085995378184865 -53.815008048541927 0 0 0 0 -1.0208406813348745 0.39346190598972997 0 0.39346190598972997 -0.12505981823981718 0 0 0 0 -123.04894174953733 87.697889007676395 0 87.697889007676395 42.942120417997586 0 0 0 0 -131.86298017199078 69.352252349418706 0 69.352252349418706 -138.83768085932633 0 0 0 0 -0.054377052544142046 -0.13604434010328248 0 -0.13604434010328248 0.27772394662106548 0 0 0 0 -350.80238163898639 -68.30502689645725 0 -68.30502689645725 13.398386441754383 0 0 0 0 -91.141183678307243 0.75296448945303496 0 0.75296448945303496 -2.1728393091264024 0 0 0 0 0.25439560754306711 1.4725370541490221 0 1.4725370541490221 -1.1013770440865631 0 0 0 0 2.4455087538299267 29.361191985890059 0 29.361191985890059 -116.26217751765193 0 0 0 0 13.947028851576761 -15.116634573565193 0 -15.116634573565193 -69.048247974590367 0 0 0 0 -6.8211068382834128 2.5719122461124453 0 2.5719122461124453 -0.10248038910778234 0 0 0 0 -76.870052245305487 -81.453639450630575 0 -81.453639450630575 -126.04372903758619 0 0 0 0 -4.999121738445865 1.1433394506241719 0 1.1433394506241719 -1.6720146714567914 0 0 0 0 -1.7268841833909283 2.4141697425137032 0 2.4141697425137032 -0.1332519128788397 0 0 0 0 -499.15411826010222 -194.13196844948453 0 -194.13196844948453 18.708821901454286 0 0 0 0 -3.7257914222803734 0.26799469020433375 0 0.26799469020433375 -0.26724597029790953 0 0 0 0 -92.878342772917676 190.92547574928011 0 190.92547574928011 -411.07883442340352 0 0 0 0 -226.70173874974535 -218.9164520144501 0 -218.9164520144501 -193.46266791281781 0 0 0 0 -1.6935665155241084 0.27704144294313693 0 0.27704144294313693 0.011332894806860061 0 0 0 0 60.925283032334846 -0.39651778418215144 0 -0.39651778418215144 -154.91958870473644 0 0 0 0 -150.02958321717233 -47.180564358157426 0 -47.180564358157426 6.0089676349148249 0 0 0 0 -58.485077867497239 -33.399786669525724 0 -33.399786669525724 -0.47181231120885059 0 0 0 0 -20.677596048781197 -12.168933319359098 0 -12.168933319359098 -13.140286062865158 0 0 0 0 -46.827035076805259 0.64993440591172202 0 0.64993440591172202 -7.9283720373359756 0 0 0 0 -24.232891918169116 0.53854315884268544 0 0.53854315884268544 -7.8410005035741506 0 0 0 0 -36.175725421317111 -13.246189565920645 0 -13.246189565920645 -12.996578397640349 0 0 0 0 -64.380404115383499 13.535725712424323 0 13.535725712424323 7.6585838441138776 0 0 0 0 -161.74792886195064 -11.303484423654027 0 -11.303484423654027 17.053871546245546 0 0 0 0 -159.69884724458223 -39.264918705172605 0 -39.264918705172605 16.993522094328 0 0 0 0 -152.13588461327163 -44.355791021791788 0 -44.355791021791788 20.360916640964433 0 0 0 0 -68.918669703991327 -42.948905880763334 0 -42.948905880763334 -36.781767668121574 0 0 0 0 -152.69717486573552 -53.69466600272893 0 -53.69466600272893 -7.0880577284967785 0 0 0 0 -113.86286182493495 -41.483745681213804 0 -41.483745681213804 -3.2707034625180995 0 0 0 0 -151.67479716622984 -20.214454097461726 0 -20.214454097461726 -4.2486976314951335 0 0 0 0 -162.60189492098652 -14.837949150323084 0 -14.837949150323084 -0.028464306491741809 0 0 0 0 -154.54048052117651 -33.436145305188916 0 -33.436145305188916 21.114142449470251 0 0 0 0 -143.97625063051055 -26.900710496470424 0 -26.900710496470424 -48.183089022548984 0 0 0 0 -170.04773547570949 -68.769743427145386 0 -68.769743427145386 -13.38293520388288 0 0 0 0 -116.49713837425497 -14.981818323081882 0 -14.981818323081882 -13.941128456916658 0 0 0 0 -145.12940292852363 -33.561657375634354 0 -33.561657375634354 -3.3016562246826169 0 0 0 0 -170.4812448626123 -19.560775706370084 0 -19.560775706370084 2.0574968679518406 0 0 0 0 -159.94016490137983 -14.418122797870183 0 -14.418122797870183 4.4354844881565896 0 0 0 0 -191.07770123435785 -15.6376671413108 0 -15.6376671413108 10.33378868940099 0 0 0 0 -168.84824482026539 -50.601798682921796 0 -50.601798682921796 11.053072634610089 0 0 0 0 -141.05971605466402 -59.451900082140355 0 -59.451900082140355 12.572224582852186 0 0 0 0 -141.41164227923946 -41.780498851109996 0 -41.780498851109996 -3.2059917393978594 0 0 0 0 0.076934664611336245 0.067527192704224248 0 0.067527192704224248 -0.064812371877902786 0 0 0 0 6.0577063061173249 -26.441511074743175 0 -26.441511074743175 -2.7430183436449624 0 0 0 0 -63.420738392437215 18.85038287818108 0 18.85038287818108 5.4467026851718856 0 0 0 0 17.449336332960229 2.4179502093254541 0 2.4179502093254541 -17.606102757498093 0 0 0 0 -56.6029626505333 -6.2590422915461659 0 -6.2590422915461659 1.980309597606265 0 0 0 0 -0.70362857021626724 -0.21403101447224415 0 -0.21403101447224415 -0.079566706897476802 0 0 0 0 -17.604218273076185 -53.462751310154431 0 -53.462751310154431 -27.33819783921524 0 0 0 0 -89.984736978305591 34.41247146091348 0 34.41247146091348 -15.855091899587251 0 0 0 0 -17.46341330299947 -5.0732914502252697 0 -5.0732914502252697 36.651353090689781 0 0 0 0 -6.264156092889607 4.6190808487035611 0 4.6190808487035611 -13.937467612044898 0 0 0 0 -23.356714882545248 14.464738381823445 0 14.464738381823445 19.059032072800164 0 0 0 0 -0.042514359440247063 12.319484035203004 0 12.319484035203004 13.717266940566788 0 0 0 0 8.7098597851199884 -5.6700217264848902 0 -5.6700217264848902 2.3144605639972724 0 0 0 0 -0.015959207356800675 0.022179841054949634 0 0.022179841054949634 -0.053074570908726137 0 0 0 0 -6.8866878771004849 2.9116240619921427 0 2.9116240619921427 19.213189026595671 0 0 0 0 2.1026170879486017 -0.054992337883959408 0 -0.054992337883959408 0.51809414919262053 0 0 0 0 -5.2081500151240121 2.1102042660415083 0 2.1102042660415083 -0.29492017434174445 0 0 0 0 -1.8889202027790688 -0.18609287982394518 0 -0.18609287982394518 0.06092201834173161 0 0 0 0 14.048516288522933 22.457980665585239 0 22.457980665585239 -11.894935077022183 0 0 0 0 -6.5934247011082334 3.4587066273824121 0 3.4587066273824121 16.495548512513324 0 0 0 0 -0.62851297965244157 3.1574912043126915 0 3.1574912043126915 8.0082822790846535 0 0 0 0 0.20316264420605989 0.83958872077446678 0 0.83958872077446678 0.0073493672767711571 0 0 0 0 -6.2170909207779914 3.5404691800040382 0 3.5404691800040382 6.549329536883306 0 0 0 0 2.3313272701925598 2.2103811322704132 0 2.2103811322704132 14.185912091610589 0 0 0 0 -0.20779373900326448 4.3810040000802442 0 4.3810040000802442 0.10489641385581661 0 0 0 0 -0.89146230879123323 1.4725701900670174 0 1.4725701900670174 7.6559007147761804 0 0 0 0 -0.35535590999451472 2.6841617389412225 0 2.6841617389412225 0.81985797495082258 0 0 0 0 -0.60037860272554155 -0.38616224008493916 0 -0.38616224008493916 0.48168954294670008 0 0 0 0 -4.2092647315885543 1.3399372678950199 0 1.3399372678950199 1.9596852785657835 0 0 0 0 -1.8713016702604364 0.44573434194273887 0 0.44573434194273887 3.7196459513036189 0 0 0 0 -1.4073117546504363 1.7343941549479496 0 1.7343941549479496 9.0404457764011568 0 0 0 0 -1.2636458496344503 1.0128181490391395 0 1.0128181490391395 1.0853188974058208 0 0 0 0 -2.7303153090466097 -2.1845112366196489 0 -2.1845112366196489 2.2336340739414666 0 0 0 0 -5.9272077231325966 1.9683182390931506 0 1.9683182390931506 1.96973408078793 0 0 0 0 -10.392915649590577 -9.1929142262496271 0 -9.1929142262496271 1.1213073412681211 0 0 0 0 11.718304049760263 -8.0739772289261147 0 -8.0739772289261147 12.025687906278961 0 0 0 0 -2.3879661821966991 0.23915520931846501 0 0.23915520931846501 1.3017787120144382 0 0 0 0 -2.9347990778769599 0.46586962999685966 0 0.46586962999685966 3.9005210241148234 0 0 0 0 -9.1805516612730571 -3.0096969310366148 0 -3.0096969310366148 5.6933396624258421 0 0 0 0 -4.6298618200405937 0.96242684038818638 0 0.96242684038818638 2.6452323609730768 0 0 0 0 0.2344075443577367 -1.1133682798334323 0 -1.1133682798334323 2.7449781410927585 0 0 0 0 -3.7057787247995293 -0.54947270381876478 0 -0.54947270381876478 6.5247353611677568 0 0 0 0 13.041584198923374 5.0995159274455091 0 5.0995159274455091 -5.5245240384629142 0 0 0 0 -4.1101297512454433 -1.1931060232175064 0 -1.1931060232175064 2.926771116290297 0 0 0 0 -6.0560570617672056 4.0230113322895704 0 4.0230113322895704 7.9319326726481449 0 0 0 0 -2.4952855463416199 8.7183707107667487 0 8.7183707107667487 14.273098276322571 0 0 0 0 -2.8653321960745757 -0.10215753648371262 0 -0.10215753648371262 1.4513006122800483 0 0 0 0 1.6810426081901824 3.665940132336118 0 3.665940132336118 10.517298453961303 0 0 0 0 -11.192201530289822 9.5821406302466698 0 9.5821406302466698 11.154352412053868 0 0 0 0 3.6489342338863935 4.5622921759350561 0 4.5622921759350561 12.001514486784572 0 0 0 0 -0.55405496979613389 -0.63349293289271991 0 -0.63349293289271991 -0.6442345157097209 0 0 0 0 -33.055175986945187 -13.371511966317154 0 -13.371511966317154 2.5207297274626228 0 0 0 0 -27.033491195934403 -33.449493226860994 0 -33.449493226860994 -54.341060978366386 0 0 0 0 -1.8115137143613538 71.982965199218143 0 71.982965199218143 -10.093102997966952 0 0 0 0 -20.81015644816398 -17.853533642509248 0 -17.853533642509248 -24.395670098212349 0 0 0 0 59.772031363885617 121.00596604782686 0 121.00596604782686 -160.6589457707413 0 0 0 0 -13.857972057972802 -20.95562954010893 0 -20.95562954010893 -110.83858386105521 0 0 0 0 -5.6979004716558848 1.0610590232621462 0 1.0610590232621462 8.433864845166994 0 0 0 0 -0.17893802088471489 0.086506648277295817 0 0.086506648277295817 1.0755274571727567 0 0 0 0 -10.001092321523174 -4.1297208640511371 0 -4.1297208640511371 21.462786063204064 0 0 0 0 -6.834102264965189 0.55830200127198593 0 0.55830200127198593 0.66526462973992451 0 0 0 0 -16.916571027191821 24.273176482528925 0 24.273176482528925 21.928829091157155 0 0 0 0 -3.1999592210941046 14.576774264857825 0 14.576774264857825 -4.1276450657971964 0 0 0 0 -18.167550620892143 -4.9866959662007844 0 -4.9866959662007844 -3.3354840612938688 0 0 0 0 -18.500607067873489 0.99541787559079342 0 0.99541787559079342 18.509200163751871 0 0 0 0 -14.317330919306187 -6.4268100774846033 0 -6.4268100774846033 18.853291523287538 0 0 0 0 -0.75037601557009737 0.098706278096098998 0 0.098706278096098998 0.94159976078652607 0 0 0 0 -18.379339679210716 -57.044462486370477 0 -57.044462486370477 -8.8014447208213227 0 0 0 0 -0.07204449256784784 0.17664204544858286 0 0.17664204544858286 -0.1339935905382299 0 0 0 0 5.0429718106624932 -23.281303082648122 0 -23.281303082648122 -21.916368428171694 0 0 0 0 -6.6632880571323767 7.4600204868445701 0 7.4600204868445701 7.4828529352943463 0 0 0 0 -19.438561962781023 -1.0957512017200202 0 -1.0957512017200202 5.5140670957723614 0 0 0 0 -3.1307416033214395 -1.5917224306277831 0 -1.5917224306277831 2.7546095715381966 0 0 0 0 -4.6866118658617779 0.85433310733736789 0 0.85433310733736789 2.1528283165895203 0 0 0 0 -7.693287396507003 -1.5900603509296616 0 -1.5900603509296616 1.2493797549844885 0 0 0 0 -13.989754104356507 -3.4790650316711549 0 -3.4790650316711549 -0.20419967341666734 0 0 0 0 -10.128357434648933 1.0408444238181573 0 1.0408444238181573 5.0108304443549656 0 0 0 0 -14.629798509107786 5.4241646610803684 0 5.4241646610803684 -2.2928403361006531 0 0 0 0 1.629376796010547 4.7874940257378285 0 4.7874940257378285 -4.2721901773384161 0 0 0 0 -0.38477301265629649 -0.47626633858817513 0 -0.47626633858817513 5.813957115189055 0 0 0 0 -0.61552671148088667 -0.26694595201600535 0 -0.26694595201600535 3.9330330524906247 0 0 0 0 9.8576308880092256 5.9989664241123819 0 5.9989664241123819 -1.7683528899867724 0 0 0 0 7.4826973330727924 -6.1169164231632749 0 -6.1169164231632749 -5.7942515862592927 0 0 0 0 0.29112779142425405 -0.15334949271135656 0 -0.15334949271135656 3.10808129198539 0 0 0 0 -0.76136577398574445 -3.2971346377441932 0 -3.2971346377441932 -14.523839814612757 0 0 0 0 -3.65312372539438 -8.9587825925959805 0 -8.9587825925959805 4.2769230861104006 0 0 0 0 -1.4346146449383923 -8.534742930940638 0 -8.534742930940638 -15.717488295166277 0 0 0 0 -6.1535912931103667 -6.7275240380217838 0 -6.7275240380217838 4.6834648707944382 0 0 0 0 -7.2043442644012288 1.0984557875736707 0 1.0984557875736707 0.53310180195022117 0 0 0 0 -9.1139997428017523 -4.697881446957183 0 -4.697881446957183 11.531511661920945 0 0 0 0 -2.1701445045606693 -0.014887449715281775 0 -0.014887449715281775 2.4273916210640927 0 0 0 0 -14.380137234829817 2.315072858923088 0 2.315072858923088 44.316611389465834 0 0 0 0 -10.280459568303741 1.8720583998076989 0 1.8720583998076989 -1.9308783752621821 0 0 0 0 -9.1356846959579343 0.28433612030562472 0 0.28433612030562472 -0.77464323086917375 0 0 0 0 -8.3538800560108939 2.0455142131332877 0 2.0455142131332877 3.1085331362710065 0 0 0 0 -8.6868038035972859 4.0979659917298363 0 4.0979659917298363 4.0720090878407973 0 0 0 0 -7.9038113706828881 3.1903458175937089 0 3.1903458175937089 0.74268715303935551 0 0 0 0 -8.7833469444062757 3.6991852382383001 0 3.6991852382383001 -4.6722003099885114 0 0 0 0 -8.6158265536178078 5.3105236284749253 0 5.3105236284749253 0.37443426065047447 0 0 0 0 -10.802418108800868 2.6405422287867948 0 2.6405422287867948 -0.055649673287584078 0 0 0 0 -1.8087597687288492 -1.1707840462233907 0 -1.1707840462233907 1.9142616985653225 0 0 0 0 -14.917892335310171 -4.4236992679191047 0 -4.4236992679191047 15.285710165461381 0 0 0 0 -8.8055336482157145 -2.2782392757741547 0 -2.2782392757741547 14.586827121125623 0 0 0 0 -0.047970508858270478 -20.922969465546231 0 -20.922969465546231 6.7538516659966774 0 0 0 0 -52.751284297494749 -50.947537450529694 0 -50.947537450529694 -29.733272383019766 0 0 0 0 -20.128071802480918 -7.9125413905331925 0 -7.9125413905331925 -27.457437660592518 0 0 0 0 -1.6170970117468642 2.7669765469468288 0 2.7669765469468288 -18.355708276202108 0 0 0 0 -27.394618361734501 -2.4999276546553233 0 -2.4999276546553233 9.7871469699106797 0 0 0 0 -50.55387851019259 -12.500956623888158 0 -12.500956623888158 16.576552992532697 0 0 0 0 -74.6712286982347 -52.289865557391835 0 -52.289865557391835 -23.001368525420844 0 0 0 0 -45.882117189450582 -26.505767336528834 0 -26.505767336528834 -18.089904013192211 0 0 0 0 -80.159682461562625 -50.230073009450564 0 -50.230073009450564 -11.34147861927557 0 0 0 0 -93.943063719388192 -90.384713136665766 0 -90.384713136665766 -87.25899372620313 0 0 0 0 -114.42120811632685 -20.152958792827434 0 -20.152958792827434 -113.51405764961464 0 0 0 0 -96.258204908153857 -60.657187724390155 0 -60.657187724390155 -39.779107722140566 0 0 0 0 -305.2237901169683 -121.5541913261165 0 -121.5541913261165 82.884866958527994 0 0 0 0 -176.93324364418731 -34.942602426296844 0 -34.942602426296844 3.2080975609104598 0 0 0 0 -304.79005489292467 -167.05383017261664 0 -167.05383017261664 -54.905938027105776 0 0 0 0 -174.23632814672601 -64.145218256173564 0 -64.145218256173564 5.8461480574351299 0 0 0 0 -151.98166036965449 -53.206781815645172 0 -53.206781815645172 -11.415670680572248 0 0 0 0 -63.611723374075154 -33.422042243599549 0 -33.422042243599549 -45.768914018543001 0 0 0 0 -125.60924007215999 -74.081114363587915 0 -74.081114363587915 -38.187840900571246 0 0 0 0 -50.478212216436077 -44.82150285249736 0 -44.82150285249736 -30.713784744873465 0 0 0 0 -5.1272798933936059 0.65943567265056746 0 0.65943567265056746 0.010562935573756427 0 0 0 0 -68.147108785096862 -32.587113990744228 0 -32.587113990744228 -4.473814723218311 0 0 0 0 -133.85620122183582 -160.04006229245371 0 -160.04006229245371 -145.71873603576955 0 0 0 0 -238.91633514754267 -111.00106619861771 0 -111.00106619861771 3.6127055473259588 0 0 0 0 -2.0794963829092339 0.047297280632298211 0 0.047297280632298211 0.035351479189271284 0 0 0 0 -27.427188293292531 56.969342501193843 0 56.969342501193843 7.8921351180970305 0 0 0 0 -204.62635049981327 15.22598501918219 0 15.22598501918219 21.679517043359624 0 0 0 0 -27.292855990051976 -27.586390051029639 0 -27.586390051029639 12.505927831346412 0 0 0 0 -232.71091325516318 -84.693471732254125 0 -84.693471732254125 2.9224542496406229 0 0 0 0 -143.48475463573504 -102.33890537518545 0 -102.33890537518545 -81.408704749757021 0 0 0 0 -215.94056456269573 -20.099513976717162 0 -20.099513976717162 -9.3727681064832495 0 0 0 0 -78.609478091573692 4.0467788576540329 0 4.0467788576540329 -106.36189892971224 0 0 0 0 -82.518911873063189 3.4286646919797477 0 3.4286646919797477 30.008618180833537 0 0 0 0 -84.735279918348169 2.7436086916769113 0 2.7436086916769113 16.255067040870927 0 0 0 0 -182.02759797934414 -62.761244761018105 0 -62.761244761018105 64.741658748946293 0 0 0 0 -42.629380081514682 -40.694792031614156 0 -40.694792031614156 -7.945923725465434 0 0 0 0 -0.93846359696312476 -0.25954560194532572 0 -0.25954560194532572 -0.024940470654880809 0 0 0 0 -49.109131687466288 -119.25707493528773 0 -119.25707493528773 88.254021677694908 0 0 0 0 -34.182242689369559 63.830847265903941 0 63.830847265903941 -77.100024396582057 0 0 0 0 41.499494260998745 17.953916986690899 0 17.953916986690899 17.275047691903296 0 0 0 0 -35.092771266989075 -30.477863976391632 0 -30.477863976391632 131.4240302785982 0 0 0 0 -30.918170391686544 -3.4553711743542124 0 -3.4553711743542124 15.860215967503848 0 0 0 0 15.190634227163173 9.034123658297716 0 9.034123658297716 19.093129590180069 0 0 0 0 19.025584216672542 30.961188491390885 0 30.961188491390885 -108.1625615894153 0 0 0 0 -0.11927803566675976 0.039760908811372259 0 0.039760908811372259 -0.029287464732872581 0 0 0 0 -8.5547105971891142 3.9123360831085847 0 3.9123360831085847 43.483096391119574 0 0 0 0 16.612729436707014 11.173332238209184 0 11.173332238209184 -75.204180402359839 0 0 0 0 -0.40478024735649143 0.50555058903406136 0 0.50555058903406136 0.058953607530799923 0 0 0 0 -21.235536850821518 2.8893760628059795 0 2.8893760628059795 -1.1852630414484366 0 0 0 0 25.345966438675532 -19.489786923664667 0 -19.489786923664667 2.7157344256218039 0 0 0 0 -10.683492793157711 -13.249385671666914 0 -13.249385671666914 -21.697489055179972 0 0 0 0 -2.3124240972701955 -0.83774666447874324 0 -0.83774666447874324 -15.818724609799119 0 0 0 0 -1.8240329435620879 7.1584952828431483 0 7.1584952828431483 17.336108997702581 0 0 0 0 15.24351246963306 18.253796670546635 0 18.253796670546635 -78.582521327285519 0 0 0 0 -0.85261400536489163 0.82396820898886325 0 0.82396820898886325 0.10120962438843778 0 0 0 0 3.1274241630553661 6.6584956031300351 0 6.6584956031300351 1.7511917340318632 0 0 0 0 4.7219313449659239 8.6328618740062097 0 8.6328618740062097 -18.895257685240722 0 0 0 0 3.7895123613070609 9.5684023183175668 0 9.5684023183175668 -7.2064367436200882 0 0 0 0 -2.8344152641548135 11.636933507890831 0 11.636933507890831 0.3808614027005035 0 0 0 0 3.7910981300942694 0.10897038619975774 0 0.10897038619975774 -22.707473000517211 0 0 0 0 -29.450320249214201 1.1124792869301245 0 1.1124792869301245 -15.893198646897417 0 0 0 0 -72.361823888897561 -38.360302595693383 0 -38.360302595693383 -33.668594933874886 0 0 0 0 -23.240678438491159 9.2298318970584887 0 9.2298318970584887 -34.780425350653665 0 0 0 0 2.0467755898392852 -19.048821636361495 0 -19.048821636361495 -3.7007565006927052 0 0 0 0 -53.317572787218523 -26.129392075298028 0 -26.129392075298028 58.27379619425227 0 0 0 0 -1.6165058990773105 21.689045236790321 0 21.689045236790321 7.3782783182160756 0 0 0 0 20.919782132285036 3.4643774503355758 0 3.4643774503355758 -33.301494410842707 0 0 0 0 3.8015441360330442 -11.894435669483528 0 -11.894435669483528 -217.21450674196319 0 0 0 0 -19.247656452433148 0.93842416251135319 0 0.93842416251135319 67.399916096359107 0 0 0 0 -0.28710676977055982 0.97331851453621754 0 0.97331851453621754 -0.6901824077676908 0 0 0 0 -54.60766717808292 -63.09775986295449 0 -63.09775986295449 -146.31393882464749 0 0 0 0 -16.203712443442782 7.0753806113559676 0 7.0753806113559676 -143.09235088333617 0 0 0 0 -40.014912558573997 -28.150531327599538 0 -28.150531327599538 -120.52598104422145 0 0 0 0 -14.692176057898905 2.3129292408254969 0 2.3129292408254969 -177.69293891695452 0 0 0 0 -25.478175121745153 -9.1761387612502858 0 -9.1761387612502858 -85.741310978099136 0 0 0 0 -43.568704932287801 -24.112894118231452 0 -24.112894118231452 -96.70240624617054 0 0 0 0 -40.732142119702871 -22.917056608085034 0 -22.917056608085034 -86.815614704703648 0 0 0 0 -37.169942009386432 -8.5549591816245538 0 -8.5549591816245538 -97.902933837785895 0 0 0 0 -34.091638268742827 -4.0252883355321956 0 -4.0252883355321956 -61.05355241907364 0 0 0 0 -27.618130829982874 -22.617030107889519 0 -22.617030107889519 -72.599501460474585 0 0 0 0 -31.15564461552276 -17.901807253477841 0 -17.901807253477841 -48.851773426846705 0 0 0 0 -9.7135528497528867 -7.9440471833008814 0 -7.9440471833008814 -77.94590124851743 0 0 0 0 -18.379797407651495 -22.204145564091732 0 -22.204145564091732 -95.144970386150135 0 0 0 0 -15.998113812849624 4.0071510024486088 0 4.0071510024486088 -99.072909621797635 0 0 0 0 5.2336829093328561 10.567013797191009 0 10.567013797191009 -94.084546812514759 0 0 0 0 -9.5368271612586 -15.163623616490135 0 -15.163623616490135 -61.491418050337415 0 0 0 0 -1.0741210957421572 -4.2009133314486462 0 -4.2009133314486462 -54.531252450718171 0 0 0 0 -3.6098604882261043 -20.947887644387748 0 -20.947887644387748 -39.182017451992692 0 0 0 0 -2.785232495148378 1.2678111509506356 0 1.2678111509506356 0.075400796389450908 0 0 0 0 -19.043366715359298 0.60916683491700496 0 0.60916683491700496 18.584062067166954 0 0 0 0 3.3235386574906443 -0.92572299719819284 0 -0.92572299719819284 -104.30699038025011 0 0 0 0 -1.6947121852275728 1.020871506043364 0 1.020871506043364 0.15512301077819279 0 0 0 0 -0.56100176452309825 -0.39107887128022867 0 -0.39107887128022867 10.405626217238549 0 0 0 0 -8.8559247498433251 13.176968862304079 0 13.176968862304079 -49.463828343183877 0 0 0 0 4.8729934687680725 -4.4238995955017941 0 -4.4238995955017941 -74.391020776210098 0 0 0 0 7.2381107291348599 -9.399198332082392 0 -9.399198332082392 -31.344982845586742 0 0 0 0 -14.980351266911384 12.609483242790361 0 12.609483242790361 -28.169308355988413 0 0 0 0 3.3417163278891167 3.9188831972837477 0 3.9188831972837477 -5.1845261012532546 0 0 0 0 0.63114538278023247 8.5534381022597472 0 8.5534381022597472 -4.0544665473933037 0 0 0 0 -0.35581554311465879 7.0617435725148994 0 7.0617435725148994 -6.2168852900655338 0 0 0 0 -0.2587635442851024 6.179516740231918 0 6.179516740231918 -6.135426405960402 0 0 0 0 5.1443974932708443 0.085415655887999264 0 0.085415655887999264 -18.198402547842079 0 0 0 0 -17.063635200313001 16.014827443300987 0 16.014827443300987 -9.6360250100989617 0 0 0 0 -0.065545242767907297 -0.072049344645360947 0 -0.072049344645360947 -0.30818917911221355 0 0 0 0 -3.3495382914438778 -3.3977636031515459 0 -3.3977636031515459 1.456620517995816 0 0 0 0 7.9179226149117312 -2.5412589127115552 0 -2.5412589127115552 -2.6895115757768622 0 0 0 0 -0.38085135411427817 1.940387586180421 0 1.940387586180421 -4.8929318144489002 0 0 0 0 15.437036519168032 12.27135708519063 0 12.27135708519063 -24.949592909370608 0 0 0 0 -0.42640590756722041 1.7024001682983823 0 1.7024001682983823 -4.01419834489871 0 0 0 0 19.024211425024987 -11.762609741081349 0 -11.762609741081349 -45.155071340349309 0 0 0 0 1.2973430949477915 3.512256889552873 0 3.512256889552873 -4.3259208728650265 0 0 0 0 1.5334950744325226 1.0961427952072249 0 1.0961427952072249 -0.94371255620984074 0 0 0 0 5.8783985163768193 6.8726833973452131 0 6.8726833973452131 -5.2685747614821139 0 0 0 0 -3.644818545220005 5.5729119609703019 0 5.5729119609703019 -5.4837919411565963 0 0 0 0 3.0178314846198191 -0.2174176116916442 0 -0.2174176116916442 -3.6151606525523334 0 0 0 0 0.37518881021106232 0.0049667240046069594 0 0.0049667240046069594 -1.0012805223204837 0 0 0 0 0.46698909785361042 -0.083028951527872152 0 -0.083028951527872152 -0.72892341969610275 0 0 0 0 4.4244892511724174 1.5452913357860325 0 1.5452913357860325 -0.99402273708494704 0 0 0 0 1.3772478277105336 0.47179865329642512 0 0.47179865329642512 -0.064375472029539971 0 0 0 0 0.95489383025051211 2.1696275912549936 0 2.1696275912549936 -3.0085950447264054 0 0 0 0 2.4929787668475001 3.5581398319068569 0 3.5581398319068569 -10.803897652220257 0 0 0 0 2.6887279436923563 7.8299104288938111 0 7.8299104288938111 -9.9262103404245181 0 0 0 0 4.1083750398029224 -0.57432703298945853 0 -0.57432703298945853 -5.7002485469323574 0 0 0 0 0.71746905167069741 0.27018956957719409 0 0.27018956957719409 0.10725547436701377 0 0 0 0 3.2068220629716961 6.6229625169796691 0 6.6229625169796691 -13.23920030749116 0 0 0 0 -1.5676454321404663 -2.5097916570760788 0 -2.5097916570760788 0.27289347135638309 0 0 0 0 -2.3546198298754462 -4.7980479595859151 0 -4.7980479595859151 -17.442950590736928 0 0 0 0 0.030573790238122456 -10.455458563022489 0 -10.455458563022489 -7.7624798705425349 0 0 0 0 6.9062347803255761 -5.3157079549479818 0 -5.3157079549479818 -32.028082678206601 0 0 0 0 -0.77365199989594657 5.2288187887000745 0 5.2288187887000745 -3.3807582436277244 0 0 0 0 -5.0378450247287674 5.5781780844457245 0 5.5781780844457245 -2.6555317131767424 0 0 0 0 -0.807056924151766 4.0253516839962913 0 4.0253516839962913 -5.4056536027660513 0 0 0 0 -18.099700972752544 16.284238843797596 0 16.284238843797596 -14.003331391595793 0 0 0 0 -0.072725754309178825 -0.11425158801666768 0 -0.11425158801666768 -0.23902453274251734 0 0 0 0 17.547569424366657 3.0785361293038846 0 3.0785361293038846 -18.195902846266563 0 0 0 0 -0.83979614269992453 5.2325108125739348 0 5.2325108125739348 -2.0926633203400797 0 0 0 0 -7.4020063085627044 4.5078126808865591 0 4.5078126808865591 -23.434237142563916 0 0 0 0 -41.530941176029501 4.1358000228484855 0 4.1358000228484855 -14.147467307376246 0 0 0 0 -54.357018498924845 -26.868213729985428 0 -26.868213729985428 -28.415906235172088 0 0 0 0 -95.136541615691385 -9.0030347646434166 0 -9.0030347646434166 -9.2060457708747467 0 0 0 0 -24.984321310434098 -5.6458040776207099 0 -5.6458040776207099 -26.733113129564572 0 0 0 0 -3.4367561103936168 -0.41257049639045817 0 -0.41257049639045817 -26.122648725796012 0 0 0 0 -3.2283996878941252 5.3151737569710349 0 5.3151737569710349 -13.001359050236374 0 0 0 0 3.7344979607769346 2.5925859593853602 0 2.5925859593853602 -16.540074214112394 0 0 0 0 -3.8575009831504303 -10.175603695472034 0 -10.175603695472034 -0.026528316025405729 0 0 0 0 6.5017824120823207 -0.80946550838183384 0 -0.80946550838183384 -25.394036729331106 0 0 0 0 -10.720747498893616 -8.1386438382555752 0 -8.1386438382555752 -0.547366992162722 0 0 0 0 0.20404881640852324 0.086680499720086068 0 0.086680499720086068 0.037741206938989302 0 0 0 0 -5.1705071142705492 7.6824315543150874 0 7.6824315543150874 -31.840418560396927 0 0 0 0 -30.285274710433441 -19.097891900895206 0 -19.097891900895206 -29.485551550470376 0 0 0 0 -42.533537091772814 -22.559001346018476 0 -22.559001346018476 -1.6832863547909938 0 0 0 0 -61.983066734426757 4.1048854926304728 0 4.1048854926304728 -33.467154812300464 0 0 0 0 -109.6241865762313 -25.283406911856559 0 -25.283406911856559 -9.6141854290340305 0 0 0 0 -34.741949907718663 -19.689068037064317 0 -19.689068037064317 -34.957567374582688 0 0 0 0 -112.60120566825753 49.309370923723066 0 49.309370923723066 -60.72243474241327 0 0 0 0 -56.612232149600459 -17.432344438072789 0 -17.432344438072789 -39.971773500253221 0 0 0 0 -21.26853755585762 14.148727426475745 0 14.148727426475745 -18.424205738793148 0 0 0 0 64.233927491159193 -41.008562249776958 0 -41.008562249776958 -53.372025702246901 0 0 0 0 -25.846205764403749 -15.417804573749379 0 -15.417804573749379 -45.436945100843104 0 0 0 0 -36.428579493155667 -32.367082821983331 0 -32.367082821983331 -34.173372794916645 0 0 0 0 5.4610840125806135 -1.9724819613766726 0 -1.9724819613766726 -44.471602394240449 0 0 0 0 -0.24965001455333891 -0.41192491782914331 0 -0.41192491782914331 -0.092254178917520413 0 0 0 0 -83.306606316568832 -1.7948936118277743 0 -1.7948936118277743 3.8582261506022633 0 0 0 0 -29.661615639475713 -1.5683956590669936 0 -1.5683956590669936 2.429120167387282 0 0 0 0 -29.754840797961151 -31.259219270605115 0 -31.259219270605115 -4.3846543787099108 0 0 0 0 -43.897328581594593 -14.874199531463361 0 -14.874199531463361 4.9164942710988271 0 0 0 0 -32.169207778428927 -16.956772666394023 0 -16.956772666394023 1.9110999068105912 0 0 0 0 -20.156459797724892 -12.345736945337933 0 -12.345736945337933 -4.7363570110634612 0 0 0 0 -16.861541388638216 -2.2455661291220679 0 -2.2455661291220679 -1.4258056283635625 0 0 0 0 -2.6309239215429159 0.68691082592096819 0 0.68691082592096819 -0.25767458850591907 0 0 0 0 -64.196266153301622 -5.3146993845616066 0 -5.3146993845616066 2.5111621490474931 0 0 0 0 -13.116928530893802 8.187547399352141 0 8.187547399352141 91.143123214216871 0 0 0 0 -90.968890772030136 -33.697977012953373 0 -33.697977012953373 70.222891000042182 0 0 0 0 -17.24028404825367 -71.385560419920978 0 -71.385560419920978 11.740289056790857 0 0 0 0 20.418795784776194 -46.328275905718655 0 -46.328275905718655 27.090902007919112 0 0 0 0 -1.5587913736326406 -0.52918221806291044 0 -0.52918221806291044 0.052653146253021088 0 0 0 0 -21.048964862369758 -4.8562188795406769 0 -4.8562188795406769 -2.5316760755626433 0 0 0 0 5.732556443888825 -7.0608085514070353 0 -7.0608085514070353 -10.488796516222635 0 0 0 0 -1.2840678149295854 -7.6518070620414846 0 -7.6518070620414846 -3.1440585129034844 0 0 0 0 4.7956345218208298 -0.80919476504777776 0 -0.80919476504777776 -5.1752062466689495 0 0 0 0 4.6548679963559039 -3.4393771354105986 0 -3.4393771354105986 -34.121298476915626 0 0 0 0 -8.872741734401643 -13.36085929620242 0 -13.36085929620242 -8.3151391487797355 0 0 0 0 -1.3509689745205833 -6.5440151458341802 0 -6.5440151458341802 -4.9198334857474038 0 0 0 0 -1.4860280366046936 -8.1464136212549789 0 -8.1464136212549789 -2.7677168477748637 0 0 0 0 -5.9187845055876096 4.9174661760093841 0 4.9174661760093841 10.784052951995392 0 0 0 0 -0.61616555014006735 -19.441798470176991 0 -19.441798470176991 -0.82559391157258233 0 0 0 0 -10.978968123108075 5.181274267273082 0 5.181274267273082 -20.498533615245606 0 0 0 0 3.8265942689831718 -1.710733652093495 0 -1.710733652093495 -33.314221152253452 0 0 0 0 -2.5043088621005154 2.9624928961783326 0 2.9624928961783326 1.7717489216354352 0 0 0 0 -5.3083242017382872 -14.812266574062676 0 -14.812266574062676 -4.5584364408344982 0 0 0 0 -19.722504023204237 -12.659694476172859 0 -12.659694476172859 -0.85839265787382146 0 0 0 0 -32.084762710106702 -17.44836262280058 0 -17.44836262280058 -1.8126643633390813 0 0 0 0 -21.492818603186606 -3.0126166963717083 0 -3.0126166963717083 2.0445692655116545 0 0 0 0 -1.323407723888522 -5.2333723001381145 0 -5.2333723001381145 -5.1526739881893491 0 0 0 0 -8.4446953252556796 -6.3376346165802175 0 -6.3376346165802175 -4.9781000252114609 0 0 0 0 0.39614329844705054 -0.0030053846979853915 0 -0.0030053846979853915 -0.053397424094274282 0 0 0 0 0.46114679866056463 -0.65594458383458587 0 -0.65594458383458587 0.06894108346171679 0 0 0 0 4.4118561970062729 -7.4877903338284995 0 -7.4877903338284995 1.2334894639037657 0 0 0 0 1.2368834386825256 -0.77868079650625077 0 -0.77868079650625077 -2.1918022431721056 0 0 0 0 14.170735764280835 -6.5750072307395158 0 -6.5750072307395158 -4.9560314750237922 0 0 0 0 11.802555455771653 -13.541340293762289 0 -13.541340293762289 0.86073788966123388 0 0 0 0 -19.687470441549522 1.7088392768292806 0 1.7088392768292806 6.7048254542780796 0 0 0 0 -33.006340601246848 -19.814078571849748 0 -19.814078571849748 -1.3323734776390381 0 0 0 0 -0.70273785396605604 -0.20181767909193837 0 -0.20181767909193837 0.3074366554348047 0 0 0 0 -1.8745543496897881 -3.3598288710247743 0 -3.3598288710247743 1.4102427526693191 0 0 0 0 -0.6607636478402128 -2.9670582273923856 0 -2.9670582273923856 -7.6664763138879835 0 0 0 0 -1.7658531705101268 -7.1646935525206743 0 -7.1646935525206743 -2.5404070256954583 0 0 0 0 -5.818017803128896 -0.7116446527344138 0 -0.7116446527344138 0.20760536287218656 0 0 0 0 -2.3488729321500976 -2.2330040577766113 0 -2.2330040577766113 0.21220102363499582 0 0 0 0 -5.3194265196998458 -0.66188845262443863 0 -0.66188845262443863 -0.28493059990509551 0 0 0 0 -5.7832995778662735 -0.39470071750228897 0 -0.39470071750228897 -0.053788802998013807 0 0 0 0 28.882015279305051 -10.085781605670178 0 -10.085781605670178 -5.3106138859955081 0 0 0 0 -23.111099473384456 28.242997158669141 0 28.242997158669141 -3.0865491127162841 0 0 0 0 -0.28849869694666097 -0.24702717112576522 0 -0.24702717112576522 0.1382377273922144 0 0 0 0 9.5404945541486086 -19.196669378589462 0 -19.196669378589462 15.595809311369351 0 0 0 0 15.159114205900551 4.5596759145549868 0 4.5596759145549868 3.2908424451169367 0 0 0 0 39.681845444963983 -19.961747992913196 0 -19.961747992913196 -3.0688722592418785 0 0 0 0 -21.665088202144034 14.068341265049142 0 14.068341265049142 -5.382705902869759 0 0 0 0 -0.38827516068641899 -0.54927262034499336 0 -0.54927262034499336 0.14857970173255208 0 0 0 0 -26.443594088586906 -4.2867912879139425 0 -4.2867912879139425 -2.624265166138489 0 0 0 0 -1.9344797990201563 -2.0004530072999955 0 -2.0004530072999955 0.68687386570205056 0 0 0 0 -19.096695480510334 53.648556032437519 0 53.648556032437519 58.693617962656759 0 0 0 0 42.297582931159923 -0.34906039861064642 0 -0.34906039861064642 -7.8634199381458103 0 0 0 0 -160.17530435891604 -70.037121425290138 0 -70.037121425290138 80.718638611014057 0 0 0 0 -33.366556053086242 -19.390146777833195 0 -19.390146777833195 0.85524403315295672 0 0 0 0 -45.355667220173473 -46.543244965684501 0 -46.543244965684501 -41.237107756338673 0 0 0 0 -50.576716268424207 -14.753702711180125 0 -14.753702711180125 18.594361266006445 0 0 0 0 -0.49997942640402471 2.0993664936456184 0 2.0993664936456184 6.2474275763792093 0 0 0 0 -8.9883284942989121 -17.126054536970869 0 -17.126054536970869 -14.362439690546012 0 0 0 0 -2.2342997420837492 -1.7053928134502883 0 -1.7053928134502883 4.521506878905825 0 0 0 0 -2.0560092835517025 -4.0039269132790789 0 -4.0039269132790789 -3.4432970536964831 0 0 0 0 -29.058389820871525 -1.7648704445923329 0 -1.7648704445923329 5.23689334291808 0 0 0 0 -39.495818591531133 -13.086792064355649 0 -13.086792064355649 1.8173302112995486 0 0 0 0 -43.938542514089932 -16.406640249300949 0 -16.406640249300949 -6.9704688750665866 0 0 0 0 -24.374719026908679 -12.591413672599252 0 -12.591413672599252 -11.911839403823137 0 0 0 0 -23.360299301581108 -39.84260800631921 0 -39.84260800631921 -75.583592114643494 0 0 0 0 -0.8360863670820109 0.55128423471547805 0 0.55128423471547805 -0.39176611898436181 0 0 0 0 -28.980703366354646 -15.08085380037592 0 -15.08085380037592 -52.748367031703424 0 0 0 0 -87.738238851299684 -117.0183534564093 0 -117.0183534564093 -44.408451797333115 0 0 0 0 -4.5959647593742332 2.3983213226673534 0 2.3983213226673534 -1.0081583192074524 0 0 0 0 -0.815502468159778 0.1698696738425447 0 0.1698696738425447 -0.039264157869494248 0 0 0 0 41.698797880819257 69.764055083496288 0 69.764055083496288 32.049767131672638 0 0 0 0 21.706719933557906 31.155281952079974 0 31.155281952079974 28.761581057312355 0 0 0 0 18.631560180327142 73.194473646321796 0 73.194473646321796 70.463548968698831 0 0 0 0 -118.46080010984588 -16.494468634607699 0 -16.494468634607699 -81.622522974512805 0 0 0 0 -129.85456933235764 -52.395545583495817 0 -52.395545583495817 -15.663103874918455 0 0 0 0 -13.407743969779403 4.111259203109352 0 4.111259203109352 -5.4591054439627804 0 0 0 0 -21.466841539460802 -1.6067160661050262 0 -1.6067160661050262 0.032968531839774759 0 0 0 0 -55.592076145181636 12.447711002652822 0 12.447711002652822 -4.3395524158413261 0 0 0 0 -8.4247413058037637 0.32758974481335407 0 0.32758974481335407 -0.64774732603138796 0 0 0 0 -2.8740665398578642 1.1047085054838064 0 1.1047085054838064 -0.32974976859588384 0 0 0 0 -77.107668394967732 -123.18068752749974 0 -123.18068752749974 -63.42267795059292 0 0 0 0 -9.1721932694927091 3.3692217635844428 0 3.3692217635844428 0.24850809320109557 0 0 0 0 -10.692959493389935 -0.11514181651381586 0 -0.11514181651381586 -0.001224889920565709 0 0 0 0 -6.7062647806005771 1.0515467506581608 0 1.0515467506581608 -1.8691482392280161 0 0 0 0 -3.506240078553958 0.95151719015327174 0 0.95151719015327174 -0.080902233687069669 0 0 0 0 -12.745554937175257 2.7332546568839198 0 2.7332546568839198 0.6554352476999864 0 0 0 0 -7.1450947766726713 2.5946289114905881 0 2.5946289114905881 0.094224863606948928 0 0 0 0 -2.2660754491471415 0.23362479107174394 0 0.23362479107174394 0.5832227413045854 0 0 0 0 -16.801923195418567 6.5283599185198824 0 6.5283599185198824 -1.5058738749649976 0 0 0 0 -36.525973547803005 -50.603510438018077 0 -50.603510438018077 -86.173780354779637 0 0 0 0 -1.6093844431379694 34.978206253162128 0 34.978206253162128 62.163797536291383 0 0 0 0 -152.29959626645723 0.15735219684063395 0 0.15735219684063395 132.61592569094825 0 0 0 0 -4.7627136581268132 0.3562244565714483 0 0.3562244565714483 -0.25940078804811861 0 0 0 0 -18.073757368670158 2.4656786887701649 0 2.4656786887701649 0.36508284984489592 0 0 0 0 -3.0801579046879901 -1.1512462375550498 0 -1.1512462375550498 1.1934096469544371 0 0 0 0 -4.5738686288204917 -0.40855675531434321 0 -0.40855675531434321 -0.61212599101314069 0 0 0 0 -3.973270599180978 0.78561081387276488 0 0.78561081387276488 -0.030829162566973878 0 0 0 0 -4.0182198603764618 -0.20131666289284736 0 -0.20131666289284736 -0.55470818593839155 0 0 0 0 -2.9693061901270994 -3.3454355994307226 0 -3.3454355994307226 1.611294289060391 0 0 0 0 -3.9654177980779934 1.2695780398929113 0 1.2695780398929113 0.12357590550489986 0 0 0 0 36.082754162659405 -19.244784344515452 0 -19.244784344515452 -1.4507992792256597 0 0 0 0 -2.6539924475018779 -4.0173209580917533 0 -4.0173209580917533 -0.0020411234960872483 0 0 0 0 -3.7244918413631964 -1.5406156663892059 0 -1.5406156663892059 0.0022063266674959888 0 0 0 0 -5.2062408103047346 -0.91783734049812793 0 -0.91783734049812793 -0.017886854158612131 0 0 0 0 -37.469560875326351 -57.426851763131886 0 -57.426851763131886 -43.841888997866747 0 0 0 0 -0.66984566544496715 0.36793158129256476 0 0.36793158129256476 -0.25238725376021853 0 0 0 0 54.658719987506629 14.674292432820851 0 14.674292432820851 33.792377804736759 0 0 0 0 -18.417104664989893 -14.240501606227959 0 -14.240501606227959 -36.816196487562685 0 0 0 0 49.87061130015627 -17.215371983540866 0 -17.215371983540866 -16.578364748631238 0 0 0 0 -10.669552060018759 -0.57180656738771063 0 -0.57180656738771063 -3.2904122073477762 0 0 0 0 -35.923003075873567 48.237382184835752 0 48.237382184835752 62.38821279672311 0 0 0 0 -73.900952352782042 -37.373706829243318 0 -37.373706829243318 9.6922989517998914 0 0 0 0 -2.4732872773472607 -1.3965507149495409 0 -1.3965507149495409 -0.1471337562217423 0 0 0 0 -37.247505589075445 -54.343930246657123 0 -54.343930246657123 -11.076789039705318 0 0 0 0 -40.998895047527185 -10.675180043971352 0 -10.675180043971352 -6.9334188039256333 0 0 0 0 24.137486212568547 -6.3705346187436334 0 -6.3705346187436334 39.315637495450233 0 0 0 0 -5.1807937312269132 22.354823426568487 0 22.354823426568487 33.893415341168861 0 0 0 0 -4.0334040786654484 1.1907499529811272 0 1.1907499529811272 -0.18586074312308987 0 0 0 0 -13.298141518433113 -29.462554972720326 0 -29.462554972720326 26.657424777499131 0 0 0 0 -37.339907250298438 -17.288030800514711 0 -17.288030800514711 -13.771244125767339 0 0 0 0 -27.898158083987255 -21.527809856137651 0 -21.527809856137651 -13.325526148450166 0 0 0 0 33.98713798789322 -10.419441281330819 0 -10.419441281330819 27.790184534778845 0 0 0 0 -155.92776627185958 83.038467826101083 0 83.038467826101083 75.839999837240043 0 0 0 0 -2.7711779871820568 1.1284105138308558 0 1.1284105138308558 -0.21901004610730435 0 0 0 0 -11.110613093151187 72.920344891688401 0 72.920344891688401 74.984085735532545 0 0 0 0 124.17052196541408 -42.257831045691447 0 -42.257831045691447 15.666940299789765 0 0 0 0 -29.982600287503374 -158.61306557142092 0 -158.61306557142092 -2.6883007259555072 0 0 0 0 -24.820898934298384 -11.166605991019438 0 -11.166605991019438 -10.126420481397524 0 0 0 0 -256.30168179414613 22.416338606707114 0 22.416338606707114 -34.52240542220315 0 0 0 0 -18.112366866655066 -16.596638541800356 0 -16.596638541800356 -12.082419832240728 0 0 0 0 -1.5556298694059834 0.50475822910178714 0 0.50475822910178714 -0.19446448068735847 0 0 0 0 -19.673641470188159 -15.5247720941124 0 -15.5247720941124 -6.9994621576225988 0 0 0 0 -18.47732814306346 -13.104162022527875 0 -13.104162022527875 -9.9031827473435428 0 0 0 0 -11.785923254265072 -15.750735498217985 0 -15.750735498217985 -12.314213499686339 0 0 0 0 118.70450024945603 -99.551413473619107 0 -99.551413473619107 -91.048050850081864 0 0 0 0 -1.2592382767220656 0.70720746230517761 0 0.70720746230517761 -0.52315648514006052 0 0 0 0 -8.2386409535356506 -13.800659837044455 0 -13.800659837044455 -11.347601088992283 0 0 0 0 -1.4946399859345547 -5.7593549346930821 0 -5.7593549346930821 -9.8151349343870269 0 0 0 0 -13.564152023961014 -10.43556439851633 0 -10.43556439851633 -5.1733450421467388 0 0 0 0 -14.756704005107167 -4.4588101928874515 0 -4.4588101928874515 -9.3158221973655131 0 0 0 0 -20.239762493483795 -10.474001585847493 0 -10.474001585847493 -0.016476912692818327 0 0 0 0 -15.234105911784354 -12.466608389902751 0 -12.466608389902751 -4.9065157091117229 0 0 0 0 -16.986737485833146 -7.9649705178914374 0 -7.9649705178914374 0.55681481971820013 0 0 0 0 -12.381811814753746 -9.9630977413769894 0 -9.9630977413769894 0.011644290724655235 0 0 0 0 -24.776915887730866 -13.892432643210409 0 -13.892432643210409 -0.4502035202738579 0 0 0 0 -8.7564213659916277 -6.2203263162546687 0 -6.2203263162546687 -6.930804508180529 0 0 0 0 -36.262468393240852 -19.504392864518081 0 -19.504392864518081 -3.7546798128991341 0 0 0 0 -9.5337792054515376 -6.0317692802850384 0 -6.0317692802850384 8.911130982997598 0 0 0 0 8.1367396350078707 -19.549715147350824 0 -19.549715147350824 4.0063091980836241 0 0 0 0 9.8377745673014942 -0.24869821387908697 0 -0.24869821387908697 0.021764461397273394 0 0 0 0 20.445480471851624 -9.9603066941416447 0 -9.9603066941416447 -0.0043841474588403265 0 0 0 0 -0.71249050099107336 -0.39549144652702495 0 -0.39549144652702495 -0.041473473830906771 0 0 0 0 -271.40364727892847 57.396438533285881 0 57.396438533285881 7.5687457585703868 0 0 0 0 -125.18721981297676 12.043249356055512 0 12.043249356055512 -3.2016406148047629 0 0 0 0 -40.52901862271392 -30.091012139612562 0 -30.091012139612562 0.072794650559756896 0 0 0 0 -85.822068148494509 15.768044900597177 0 15.768044900597177 -0.34024076245685819 0 0 0 0 -134.08783889793995 -29.699937561492494 0 -29.699937561492494 -0.14897149460564404 0 0 0 0 -52.342181877696476 -6.3062223843853706 0 -6.3062223843853706 12.780044632740754 0 0 0 0 -55.853097375136713 -23.211946740788036 0 -23.211946740788036 -7.5014190273918402 0 0 0 0 -92.349140099609031 -8.4670296203080397 0 -8.4670296203080397 19.162800485074854 0 0 0 0 -130.73001886299426 7.1876931595274982 0 7.1876931595274982 18.993650730153888 0 0 0 0 -131.91419254037646 19.18237643255091 0 19.18237643255091 19.021963047649024 0 0 0 0 -48.753274475269791 16.028518184923627 0 16.028518184923627 1.0693953086819761 0 0 0 0 -150.19084267124254 29.449044501483613 0 29.449044501483613 7.4684982150618566 0 0 0 0 -1.2794601668664427 -1.2594256796461316 0 -1.2594256796461316 -0.32776074817127737 0 0 0 0 -137.95177742718124 4.7716588011134817 0 4.7716588011134817 15.764797745696569 0 0 0 0 -134.4360238758054 -3.0777159151437559 0 -3.0777159151437559 31.644914023168326 0 0 0 0 -136.18009645509665 5.1404033776786662 0 5.1404033776786662 15.826387727295923 0 0 0 0 -94.004244670042681 17.826096309814488 0 17.826096309814488 5.0185923741371852 0 0 0 0 -133.96090411649288 2.7547905985404917 0 2.7547905985404917 16.427563128398447 0 0 0 0 -50.905934192363929 12.456083837839458 0 12.456083837839458 -10.843995611786454 0 0 0 0 -89.316380635023961 -11.605795462836568 0 -11.605795462836568 -1.0913873832753325 0 0 0 0 -64.444397503051732 -4.0481037112363651 0 -4.0481037112363651 -0.3369541366366704 0 0 0 0 -110.97004821779774 -42.032539856739447 0 -42.032539856739447 -3.3988542108594402 0 0 0 0 -294.35388850276468 -84.946965600230044 0 -84.946965600230044 -13.439581655266807 0 0 0 0 -0.82445217492687561 0.50475835555584325 0 0.50475835555584325 -0.30825437576326253 0 0 0 0 -14.89699742042967 103.34472967148017 0 103.34472967148017 43.514841863801053 0 0 0 0 -211.9224757595739 106.78779885861999 0 106.78779885861999 -34.501459933355136 0 0 0 0 -97.529854547650757 31.28166461686385 0 31.28166461686385 -80.526457697951855 0 0 0 0 -177.48571028004699 -5.0920271929160776 0 -5.0920271929160776 32.404777107613967 0 0 0 0 -149.08770242790342 47.411834750003379 0 47.411834750003379 1.8458524469566555 0 0 0 0 -93.197130415052015 7.3533533585631972 0 7.3533533585631972 14.888285765483559 0 0 0 0 -23.051419329973214 11.756777705532897 0 11.756777705532897 -19.571225162713461 0 0 0 0 -90.955527656650247 16.899841531960124 0 16.899841531960124 8.608402334182756 0 0 0 0 -52.812549337773817 8.0603999796434209 0 8.0603999796434209 -12.08081612517833 0 0 0 0 -12.938821526029642 0.58879063201391091 0 0.58879063201391091 -31.45097235700257 0 0 0 0 -17.071678353656353 -8.6485467146033983 0 -8.6485467146033983 -0.098711579317523501 0 0 0 0 -124.94118313568106 28.27669210229476 0 28.27669210229476 0.81276917250830749 0 0 0 0 -76.384190316940476 50.699052124496461 0 50.699052124496461 -45.449035357350795 0 0 0 0 -27.796343150530447 4.6945964780363738 0 4.6945964780363738 -44.476225605224982 0 0 0 0 -90.297250069175789 51.662031398753243 0 51.662031398753243 -25.497393682574739 0 0 0 0 -19.799720849332516 -31.267395595228891 0 -31.267395595228891 43.759484994517152 0 0 0 0 29.377128046556209 8.5908930311036329 0 8.5908930311036329 -29.147971490537884 0 0 0 0 -41.155072216884946 -1.2321014135368955 0 -1.2321014135368955 -7.7817788882987315 0 0 0 0 -1.4553825477851206 -17.088170546760296 0 -17.088170546760296 -6.9739508279644724 0 0 0 0 0.064717376986664021 -8.4388027281238465 0 -8.4388027281238465 -13.107536868707314 0 0 0 0 -18.085519425907478 -20.005072297211825 0 -20.005072297211825 13.702465082031722 0 0 0 0 -6.8935522194642544 -10.62385163014676 0 -10.62385163014676 17.12368502322829 0 0 0 0 -15.226532748769387 -15.771647830749771 0 -15.771647830749771 31.89226009789536 0 0 0 0 5.8913720123236999 9.063925480637181 0 9.063925480637181 26.702151064992904 0 0 0 0 -9.9954883089376381 -0.092055230043115444 0 -0.092055230043115444 38.951410373697854 0 0 0 0 -7.8769304403967908 -3.7094201491746048 0 -3.7094201491746048 20.233916844922078 0 0 0 0 -4.5215438469967921 0.18487486786989393 0 0.18487486786989393 19.720951091988468 0 0 0 0 -19.638594222386473 4.5687554171487648 0 4.5687554171487648 75.204192495580855 0 0 0 0 -4.1612851257182868 1.7018436568662079 0 1.7018436568662079 -0.58297054722032282 0 0 0 0 -5.2256714822283357 29.108334578304522 0 29.108334578304522 70.074095471591363 0 0 0 0 -36.431260770867084 32.548748591145682 0 32.548748591145682 10.172254536503658 0 0 0 0 3.1810652091844531 -10.989535818357069 0 -10.989535818357069 -30.440229660848217 0 0 0 0 -253.21398305170442 -137.91836896363327 0 -137.91836896363327 -59.509380703757586 0 0 0 0 -1.7447482253327777 0.71955753860231653 0 0.71955753860231653 -0.33650229122769448 0 0 0 0 -93.484596278498429 -91.771849204699947 0 -91.771849204699947 -47.515055891977454 0 0 0 0 -251.79519060836901 -76.718766448568658 0 -76.718766448568658 14.306699820440372 0 0 0 0 -201.24825734463866 3.1113558382098745 0 3.1113558382098745 10.18954459418137 0 0 0 0 -376.77410409575896 6.3917658687473704 0 6.3917658687473704 10.272315606352535 0 0 0 0 -129.99060535969329 115.88609598279896 0 115.88609598279896 -133.63089807562937 0 0 0 0 -334.38684177708274 9.1016223954874249 0 9.1016223954874249 16.079891269077621 0 0 0 0 -235.1413883614041 110.84937783039959 0 110.84937783039959 23.860917059736494 0 0 0 0 -73.07481084144456 132.10039543833227 0 132.10039543833227 16.298777456529365 0 0 0 0 -31.80280720272458 -16.742157805971402 0 -16.742157805971402 3.669693603328291 0 0 0 0 -30.731076800992014 -4.89853661029926 0 -4.89853661029926 6.9468724798185768 0 0 0 0 -14.257348366088991 -16.878911533763912 0 -16.878911533763912 -27.78508703470817 0 0 0 0 -5.5417151520377956 -2.3959961171972921 0 -2.3959961171972921 -4.8286780933331954 0 0 0 0 -25.660793071861917 -12.956538675155286 0 -12.956538675155286 0.591688304322183 0 0 0 0 -23.972832071763719 -1.4947933534906213 0 -1.4947933534906213 7.7302771124905121 0 0 0 0 -23.262283825753002 -6.3319877021588482 0 -6.3319877021588482 6.5052252490020237 0 0 0 0 -21.900580847672245 -10.343206521029362 0 -10.343206521029362 0.72122365484796092 0 0 0 0 -0.46053374077693832 -1.0416631881047884 0 -1.0416631881047884 4.3804375547470702 0 0 0 0 -6.1014250090229325 -4.0479908342476278 0 -4.0479908342476278 10.678996309694298 0 0 0 0 -2.7978264182856947 -2.5682849749628929 0 -2.5682849749628929 -0.8511864055055014 0 0 0 0 -13.034410158070386 0.85070265148236501 0 0.85070265148236501 5.6918838397014611 0 0 0 0 -7.8009389893868502 -5.2214622450185857 0 -5.2214622450185857 14.211647458894731 0 0 0 0 -8.2228771468253399 -0.65634983663244384 0 -0.65634983663244384 23.278071470809437 0 0 0 0 -8.9149141211055394 -3.5971840895692822 0 -3.5971840895692822 12.140110813757929 0 0 0 0 -8.5077241423496162 -10.175615852136275 0 -10.175615852136275 22.285529707151511 0 0 0 0 -7.1866876463177505 -10.328907851876068 0 -10.328907851876068 6.1970159814957242 0 0 0 0 2.2536427621998882 -9.4385011730611268 0 -9.4385011730611268 6.1626635867130943 0 0 0 0 0.24268919074277484 -1.0495023302798963 0 -1.0495023302798963 2.7555290202061506 0 0 0 0 -13.53125914341058 -6.6774396959609224 0 -6.6774396959609224 -7.6025069494725699 0 0 0 0 2.5590374350613274 -17.449017182215016 0 -17.449017182215016 -1.5255601378124624 0 0 0 0 19.736351790965728 -10.855252931149273 0 -10.855252931149273 -6.847697154851403 0 0 0 0 29.325652710223949 -2.9258727078341451 0 -2.9258727078341451 -11.679078801929705 0 0 0 0 -24.257643363861462 6.861249075875552 0 6.861249075875552 2.277525639473879 0 0 0 0 -30.209834850715197 -8.6603493759113377 0 -8.6603493759113377 6.927823931544367 0 0 0 0 0.11020176015671979 -0.73745071179619259 0 -0.73745071179619259 1.5148892902842865 0 0 0 0 -27.364638320448648 -11.664825454833377 0 -11.664825454833377 2.6539287863358254 0 0 0 0 -25.966399909757911 -3.8421236762514237 0 -3.8421236762514237 19.769704194997587 0 0 0 0 -0.21234433121355067 -0.069889435412728407 0 -0.069889435412728407 0.000630536847385052 0 0 0 0 -0.22289302225726715 3.1107198838645473 0 3.1107198838645473 9.6163312929645031 0 0 0 0 -17.868234325309459 5.1811444641011803 0 5.1811444641011803 29.432637567351101 0 0 0 0 -8.8032557458827796 -6.2868356700896726 0 -6.2868356700896726 -0.25896284074984521 0 0 0 0 -9.3591756447603984 -7.809201517509301 0 -7.809201517509301 -0.033536149014651073 0 0 0 0 -18.561269343025742 -9.4881812021748786 0 -9.4881812021748786 2.9392841528544906 0 0 0 0 -25.105601635223138 -5.3275311762827311 0 -5.3275311762827311 4.4702825953746199 0 0 0 0 -18.534948016629642 -3.4631985358129675 0 -3.4631985358129675 2.9344869587941957 0 0 0 0 -41.877491687952443 -1.7615288055328122 0 -1.7615288055328122 12.203835983417775 0 0 0 0 -21.489676142835378 -5.0111355042751402 0 -5.0111355042751402 0.46910223804499651 0 0 0 0 -37.518399649199637 -3.0596671245190237 0 -3.0596671245190237 2.9576180097196669 0 0 0 0 -25.009292556493165 -7.1181322770897486 0 -7.1181322770897486 -1.6739687925837199 0 0 0 0 0.066872790000568116 -0.45846646850294093 0 -0.45846646850294093 0.64276709838109103 0 0 0 0 22.654295954735062 -0.74333122609132829 0 -0.74333122609132829 -8.2794990744659884 0 0 0 0 -40.513184775952595 -2.4145009354512048 0 -2.4145009354512048 2.3809529975622006 0 0 0 0 -26.445604412845569 -7.5308160971876958 0 -7.5308160971876958 -0.0070744312198020879 0 0 0 0 0.028702993850679093 -0.17188743938257645 0 -0.17188743938257645 0.1409206498893455 0 0 0 0 39.782223519068793 6.8431246022387198 0 6.8431246022387198 -14.366586583092866 0 0 0 0 -14.566880051092767 -5.46515934373903 0 -5.46515934373903 3.508787876639234 0 0 0 0 -14.967497316736626 -6.9284331863919348 0 -6.9284331863919348 -1.6935993946840338 0 0 0 0 -23.973586799695113 -2.8654197899291045 0 -2.8654197899291045 1.1393350438735208 0 0 0 0 -15.424204486804229 -6.8480589287341731 0 -6.8480589287341731 0.0047934205682128479 0 0 0 0 -5.4390592051286148 -0.95700824444777588 0 -0.95700824444777588 0.86549832674631766 0 0 0 0 4.9947917135341413 -3.09900242293494 0 -3.09900242293494 2.0946285551932071 0 0 0 0 2.1172734289939399 -6.1547843206284636 0 -6.1547843206284636 -0.0011445962787295992 0 0 0 0 6.3498289784765802 -5.8506202655304378 0 -5.8506202655304378 -0.0062628898953918299 0 0 0 0 6.1534671799108764 -5.1320704958673913 0 -5.1320704958673913 -0.86443040253815617 0 0 0 0 -10.865863379392977 -13.747131464129854 0 -13.747131464129854 -2.1747777940262987 0 0 0 0 7.3437658354946507 -8.2865637177328964 0 -8.2865637177328964 -0.67630489799352933 0 0 0 0 2.4077857184347522 -1.9333034722354467 0 -1.9333034722354467 12.502238624419965 0 0 0 0 15.601912644760887 -11.023810009495694 0 -11.023810009495694 3.9005387763930166 0 0 0 0 -0.038848015875764474 -0.045487034949719174 0 -0.045487034949719174 -0.015543750253558225 0 0 0 0 9.1072400362390908 -3.0013098551246999 0 -3.0013098551246999 0.3980535624189292 0 0 0 0 6.1730022561514488 -1.8790482557510382 0 -1.8790482557510382 2.9508421120083543 0 0 0 0 -0.10409237867916232 -0.10389684274738542 0 -0.10389684274738542 -0.041970070273178478 0 0 0 0 7.0128789714062805 -10.071239729639643 0 -10.071239729639643 6.5129185034294039 0 0 0 0 -0.0057286445183963863 -0.034772372416572495 0 -0.034772372416572495 0.18272770812235711 0 0 0 0 8.7427174637150529 -6.203073001336703 0 -6.203073001336703 2.7706957983954368 0 0 0 0 -7.8367797964081092 0.50442287895893856 0 0.50442287895893856 -5.1487143394777863 0 0 0 0 1.2384545684471959 -3.7829187919724632 0 -3.7829187919724632 3.348182507702532 0 0 0 0 0.065210888423671065 0.041446787548863995 0 0.041446787548863995 0.52184531413416446 0 0 0 0 -15.042886621804428 3.7581001116067441 0 3.7581001116067441 7.1539285816688647 0 0 0 0 3.3198098033819861 -7.3597862324268517 0 -7.3597862324268517 7.9309886077914911 0 0 0 0 4.3655425186661887 -3.0017731887423054 0 -3.0017731887423054 2.8374463663151959 0 0 0 0 -5.2852587185625453 -7.0290695768270446 0 -7.0290695768270446 0.87520130272982399 0 0 0 0 6.5409795737577952 -3.5678003024505358 0 -3.5678003024505358 3.2513188666992363 0 0 0 0 -0.07472710589527054 -0.060356154901757719 0 -0.060356154901757719 -0.012085140904429109 0 0 0 0 -9.6518398282896669 -10.754000528659489 0 -10.754000528659489 6.3676363059504029 0 0 0 0 2.059416122479206 0.33553379899451974 0 0.33553379899451974 6.5123118073746795 0 0 0 0 5.1636831434771011 -10.709244343499511 0 -10.709244343499511 6.1983937199001673 0 0 0 0 -44.064996478711464 9.9776281437652798 0 9.9776281437652798 -8.8431895735728556 0 0 0 0 -45.954899613229827 16.683644150969073 0 16.683644150969073 5.5989635593313238 0 0 0 0 -71.026484039282877 -0.73008454425680258 0 -0.73008454425680258 0.043560218595602024 0 0 0 0 -113.93971027745283 -19.472644200206645 0 -19.472644200206645 14.263279909247331 0 0 0 0 -93.41997300750154 24.296133817026892 0 24.296133817026892 22.054250854215496 0 0 0 0 -56.491883803047131 -41.498988226214699 0 -41.498988226214699 -15.371905543383162 0 0 0 0 -42.847788382721774 -13.957063676162909 0 -13.957063676162909 3.2924752410340909 0 0 0 0 -59.716121665141259 -16.048999651695812 0 -16.048999651695812 5.5354967208313131 0 0 0 0 -59.595435795208687 -13.746929939010174 0 -13.746929939010174 14.865814866044246 0 0 0 0 -41.217048932650869 -24.031577562545223 0 -24.031577562545223 0.91435829616685282 0 0 0 0 -13.605799940007273 -11.508859762438917 0 -11.508859762438917 -3.8662881886350817 0 0 0 0 -17.932410876996073 -23.802608226810275 0 -23.802608226810275 7.3285358199246247 0 0 0 0 -30.060156329651363 -10.03504142676166 0 -10.03504142676166 -3.9462774286098443 0 0 0 0 -37.229284995028138 -11.056763235938892 0 -11.056763235938892 -0.0093208329436121409 0 0 0 0 -22.65733786590863 -1.7267705427388536 0 -1.7267705427388536 12.190815306194379 0 0 0 0 -26.754073179748502 -16.933031875863033 0 -16.933031875863033 -10.988829894332568 0 0 0 0 -12.079602435809647 2.6152135826137446 0 2.6152135826137446 -0.93761514428646109 0 0 0 0 -10.428715526341875 -4.2247162026808809 0 -4.2247162026808809 -13.837188006135058 0 0 0 0 -10.239775982314313 3.221977409864305 0 3.221977409864305 -1.4436950515560198 0 0 0 0 0.27208214820348076 -7.8105201503447574 0 -7.8105201503447574 9.9106932007994661 0 0 0 0 -10.722054946480057 6.7835123532321546 0 6.7835123532321546 9.491351577141117 0 0 0 0 -5.5157804553400638 -14.211581866677903 0 -14.211581866677903 30.419507413318151 0 0 0 0 -3.1741607073927298 -0.36220471153585621 0 -0.36220471153585621 -1.4265083487749592 0 0 0 0 -3.8712891927061719 12.712818761030768 0 12.712818761030768 24.571369709642696 0 0 0 0 27.398812960593204 -2.5274421732436814 0 -2.5274421732436814 -12.981958002558898 0 0 0 0 -31.092958183020528 -22.252567786591047 0 -22.252567786591047 -17.305515942735287 0 0 0 0 -13.75555915615405 1.4618049733592855 0 1.4618049733592855 -1.7385237993633584 0 0 0 0 -1.7007466595096048 -9.9577748248360791 0 -9.9577748248360791 -25.048395184412193 0 0 0 0 -32.026550596576271 -27.539225559541222 0 -27.539225559541222 -21.85694346659163 0 0 0 0 -19.021241188194836 -5.8182859158762161 0 -5.8182859158762161 -6.7798287531480739 0 0 0 0 -35.623384691079991 -27.271128390815235 0 -27.271128390815235 -15.599930234817924 0 0 0 0 -248.47566789092161 25.040868277006478 0 25.040868277006478 23.427148323497612 0 0 0 0 -109.61985783105774 -80.797718424435047 0 -80.797718424435047 -25.871893353721219 0 0 0 0 -15.780923295608318 -58.060695861991576 0 -58.060695861991576 -35.784442235438163 0 0 0 0 -371.6232618522663 13.373224199162053 0 13.373224199162053 94.054189935865566 0 0 0 0 -2.0964195074606806 -0.68564429702677288 0 -0.68564429702677288 -0.0052515444235425868 0 0 0 0 -247.19112607797797 98.409506897481151 0 98.409506897481151 43.732475407261518 0 0 0 0 -24.936663713476264 -90.787306873674311 0 -90.787306873674311 29.369289527744741 0 0 0 0 -1.9754796550185745 -1.0360011127747679 0 -1.0360011127747679 -0.49376588425971474 0 0 0 0 -1.6144021713507755 -44.962510180498505 0 -44.962510180498505 -28.977592702488664 0 0 0 0 51.808985628899791 -24.471406695183674 0 -24.471406695183674 1.5915432896148332 0 0 0 0 81.736207086016293 120.32759626292062 0 120.32759626292062 -148.08656485505458 0 0 0 0 -59.811577776849845 -23.222592059937853 0 -23.222592059937853 -1.457016189391652 0 0 0 0 -14.723721333735739 -12.235816094427605 0 -12.235816094427605 -3.6982400781510023 0 0 0 0 -45.184165937716898 -31.851227776030441 0 -31.851227776030441 1.0715439727667757 0 0 0 0 -20.380691734393622 -59.918727478796882 0 -59.918727478796882 -2.0650866864914406 0 0 0 0 -116.5702700408292 -81.943922466021377 0 -81.943922466021377 28.834980299601057 0 0 0 0 -86.195603202446364 -52.704771523478712 0 -52.704771523478712 3.6305854145703051 0 0 0 0 -215.20882883688319 -45.143226244303946 0 -45.143226244303946 35.446468388181529 0 0 0 0 -86.395447978713491 -50.761819362278061 0 -50.761819362278061 27.874786426126263 0 0 0 0 -74.774491983489497 -18.773193024812713 0 -18.773193024812713 17.782897026356608 0 0 0 0 -74.125988587548818 -46.687019805595554 0 -46.687019805595554 6.0638547100652431 0 0 0 0 -84.012841028392359 -38.103998893523396 0 -38.103998893523396 -0.60389328740780002 0 0 0 0 -39.813364054648446 -25.246790951352807 0 -25.246790951352807 -17.19781496701853 0 0 0 0 19.420295893539787 -75.596503970355471 0 -75.596503970355471 -12.722901625847726 0 0 0 0 -46.35301706984319 7.7202425718546692 0 7.7202425718546692 3.6288867979103543 0 0 0 0 -125.93192462265506 -23.640687900979117 0 -23.640687900979117 17.32399358424459 0 0 0 0 -3.779554315763896 -2.5852922064565949 0 -2.5852922064565949 -1.6267507618495571 0 0 0 0 76.586481008202099 41.072870380864401 0 41.072870380864401 -221.12427407913219 0 0 0 0 -209.34590305718837 60.357596232030005 0 60.357596232030005 -12.52786906565143 0 0 0 0 -45.926729893951233 10.285259626394733 0 10.285259626394733 18.92092014168702 0 0 0 0 -5.2163643553776637 1.7902635189110931 0 1.7902635189110931 -1.2613169792238068 0 0 0 0 -2.9812226959948021 7.0269305018283603 0 7.0269305018283603 -6.8547800790446445 0 0 0 0 10.946578826362384 0.23928197143004581 0 0.23928197143004581 -5.023078163385776 0 0 0 0 -3.998477373138094 -3.194867426384155 0 -3.194867426384155 -2.2141781033186483 0 0 0 0 22.376374312267217 5.0620506377053971 0 5.0620506377053971 -10.832268501362933 0 0 0 0 11.565290615957565 -9.0144746532540978 0 -9.0144746532540978 -1.2729366038502121 0 0 0 0 1.3155822308508505 -4.8331716272892891 0 -4.8331716272892891 5.2369908660346027 0 0 0 0 -0.10552368096222153 -0.19312017824391736 0 -0.19312017824391736 -0.17423121931308011 0 0 0 0 4.4461810449429322 -7.6974923884275768 0 -7.6974923884275768 -3.2183872867744867 0 0 0 0 4.117264322052506 -6.1036837996859958 0 -6.1036837996859958 3.1008520033556124 0 0 0 0 3.6629662445739086 -3.965462020496318 0 -3.965462020496318 -3.7641967881165783 0 0 0 0 8.6250534810960744 -0.39019810355171103 0 -0.39019810355171103 -2.3454229589333409 0 0 0 0 8.0253303690406028 2.0499235132282365 0 2.0499235132282365 -2.5216243670336098 0 0 0 0 10.213474800235417 3.7390441813389543 0 3.7390441813389543 -7.6977123268250125 0 0 0 0 7.8997461780932099 -3.3394250773810654 0 -3.3394250773810654 -12.057362967600056 0 0 0 0 6.1107292623446483 -8.8709310432836901 0 -8.8709310432836901 -15.057612109666479 0 0 0 0 -18.691371850884025 -1.9837563125614679 0 -1.9837563125614679 -7.286788898976738 0 0 0 0 -36.489591386796747 -3.2646630135341184 0 -3.2646630135341184 21.84292162322663 0 0 0 0 4.2830254734120672 -6.1470796818689735 0 -6.1470796818689735 -11.123895810574822 0 0 0 0 -0.08200594790424276 0.10934169635829516 0 0.10934169635829516 0.0022651437373890082 0 0 0 0 -74.90583240687738 -33.269416837733047 0 -33.269416837733047 1.4392744901003311 0 0 0 0 -56.84875850667413 -37.81609590590449 0 -37.81609590590449 -12.972192220829584 0 0 0 0 -61.850268155709273 -16.966739468973969 0 -16.966739468973969 -5.3583698039058163 0 0 0 0 -25.208413613543371 -28.356375926602595 0 -28.356375926602595 -22.716358560502613 0 0 0 0 -128.3596275452328 -43.727814086363537 0 -43.727814086363537 -7.937571038377996 0 0 0 0 -65.318409960902727 -40.048633991894192 0 -40.048633991894192 -44.898680677166794 0 0 0 0 -108.12916874404073 -22.931622026015418 0 -22.931622026015418 -0.95471053957680851 0 0 0 0 -76.515547193272141 -37.483806502422425 0 -37.483806502422425 -8.6660516424365142 0 0 0 0 -0.43066223631922185 -5.0581233241897152 0 -5.0581233241897152 0.49878795423961719 0 0 0 0 -0.37890263561712345 -5.8874560714557092 0 -5.8874560714557092 13.64271070415159 0 0 0 0 -0.48851343669142722 -0.054872975722884298 0 -0.054872975722884298 0.061923466395775437 0 0 0 0 6.0761290295286017 -8.1420210516156146 0 -8.1420210516156146 -0.33793969991663175 0 0 0 0 -3.2507662042587526 -13.438650082330671 0 -13.438650082330671 3.3166956976428708 0 0 0 0 -2.8134006445543491 -2.0646328965842571 0 -2.0646328965842571 0.64104227829633942 0 0 0 0 0.32673914966653683 -5.4538706849778151 0 -5.4538706849778151 0.65765144643328988 0 0 0 0 3.5798653761743253 -1.273504749545709 0 -1.273504749545709 0.038641537484011224 0 0 0 0 2.8921489680324157 -6.7592529816760489 0 -6.7592529816760489 0.50153786772671083 0 0 0 0 -3.7168658063062594 -2.8000568062837798 0 -2.8000568062837798 0.50257925360656941 0 0 0 0 -10.139437328796703 -5.3500624707358568 0 -5.3500624707358568 6.6118997156786179 0 0 0 0 -1.1320912050364669 -0.41656588217821167 0 -0.41656588217821167 0.82726637786513668 0 0 0 0 -1.8650742103054654 -2.3722909976190749 0 -2.3722909976190749 -0.15597999852025168 0 0 0 0 -2.3653861781585448 -1.9558516911683679 0 -1.9558516911683679 -0.86837367311636293 0 0 0 0 -3.0510746830768767 -0.7742992653881231 0 -0.7742992653881231 -2.1508304966804985 0 0 0 0 -1.189827071030777 -2.4857468398923004 0 -2.4857468398923004 -0.30729978215504161 0 0 0 0 -2.6241109855788736 -2.3271289660089485 0 -2.3271289660089485 -1.2079108459593131 0 0 0 0 -5.390578594757244 -2.7742020731202501 0 -2.7742020731202501 -2.327294395447268 0 0 0 0 -6.0312849866822944 -2.6450100918668795 0 -2.6450100918668795 -2.2114845168646298 0 0 0 0 -3.3397859808563988 -2.8594741376852006 0 -2.8594741376852006 -1.1867661088538179 0 0 0 0 -2.8412992927887775 -2.2256066783105872 0 -2.2256066783105872 -1.286404869977174 0 0 0 0 -0.72696371799854376 -0.67128631984177911 0 -0.67128631984177911 -0.59279819022145419 0 0 0 0 -0.80062473491489072 -4.547374023015422 0 -4.547374023015422 1.5189511731258989 0 0 0 0 -2.9635083796747494 -2.9491516006865339 0 -2.9491516006865339 0.37086754819399204 0 0 0 0 1.6346737388848851 -4.0013912113207653 0 -4.0013912113207653 -0.47705209754752786 0 0 0 0 -3.1035537253577061 -2.3694442620372254 0 -2.3694442620372254 -1.8188001333786015 0 0 0 0 2.2226558747170202 -5.9673897614611207 0 -5.9673897614611207 -5.5239224035489602 0 0 0 0 -4.1408363281041147 -8.9239375475569318 0 -8.9239375475569318 13.805281821714175 0 0 0 0 -2.7221996934713388 -3.3775502968040882 0 -3.3775502968040882 2.0414031790405716 0 0 0 0 1.5666097019202425 -2.7347361179586187 0 -2.7347361179586187 2.4401513098882788 0 0 0 0 -0.58224352878635877 -0.25074882179812619 0 -0.25074882179812619 0.10159502980769419 0 0 0 0 -8.5681823129889381 -1.857340486248404 0 -1.857340486248404 3.7242811888361302 0 0 0 0 -4.8815936739483732 -1.5121836822997921 0 -1.5121836822997921 1.3809998425372498 0 0 0 0 -7.7811352538483334 -1.8700079197084278 0 -1.8700079197084278 -0.48307416728721364 0 0 0 0 -6.4366689436283195 1.6867957823633333 0 1.6867957823633333 7.085361706603635 0 0 0 0 -5.4386293494244455 -4.0294442610679653 0 -4.0294442610679653 4.7297658950369623 0 0 0 0 -8.3418695203381503 -2.7679887431569341 0 -2.7679887431569341 2.4868791678532034 0 0 0 0 -0.61441042268249912 0.002860974472511657 0 0.002860974472511657 -0.17127808495455987 0 0 0 0 -0.53095992786588653 0.55539497396084414 0 0.55539497396084414 -1.4039722693013399 0 0 0 0 -1.7003513340350764 6.4935395792472264 0 6.4935395792472264 2.2433477124720866 0 0 0 0 8.9329065747624554 1.4593103032541421 0 1.4593103032541421 -5.5113717575181909 0 0 0 0 -3.314267787609424 4.6704618070459674 0 4.6704618070459674 0.23685891733339304 0 0 0 0 -7.6246393640831229 3.8426960441111078 0 3.8426960441111078 4.8876877633831555 0 0 0 0 -6.194579232007527 5.4378822536606322 0 5.4378822536606322 6.1080950858035976 0 0 0 0 -10.244078477571747 10.562797581561199 0 10.562797581561199 6.6354947515019376 0 0 0 0 -1.4590857852890622 17.505637789967295 0 17.505637789967295 7.8887357384801362 0 0 0 0 -3.8978050013392931 8.4724049295866735 0 8.4724049295866735 6.4643144283854213 0 0 0 0 -2.3318912989070668 0.46197274106006603 0 0.46197274106006603 -2.3262013876478704 0 0 0 0 -3.8461827249757334 8.52704560782567 0 8.52704560782567 1.3787439804082169 0 0 0 0 9.9125962290490861 8.5480697674668136 0 8.5480697674668136 -0.78366801384390783 0 0 0 0 13.67546008995123 13.695993750150819 0 13.695993750150819 5.682839180034307 0 0 0 0 0.013165977665465789 -0.14274472386840742 0 -0.14274472386840742 -0.3590975792036768 0 0 0 0 -12.308003233727504 -0.63475531105382288 0 -0.63475531105382288 16.42408515856232 0 0 0 0 -9.5555546684736328 1.6501868856842634 0 1.6501868856842634 11.720472270502341 0 0 0 0 -7.1018179923667049 2.0209347024830606 0 2.0209347024830606 11.030246854456436 0 0 0 0 -11.334876389169949 11.440921049543988 0 11.440921049543988 11.307213275774984 0 0 0 0 -18.290135515038855 4.8430129073102535 0 4.8430129073102535 11.480185052881012 0 0 0 0 -13.443564553053875 -1.9852811628464906 0 -1.9852811628464906 8.6764534101993149 0 0 0 0 -1.7596990636561713 -1.6839107311318102 0 -1.6839107311318102 -1.5107057385404663 0 0 0 0 2.8671998506251839 -24.960215044081053 0 -24.960215044081053 7.9191656824662005 0 0 0 0 -2.0425993603003008 0.83738069182107466 0 0.83738069182107466 -2.2797905904054971 0 0 0 0 1.9292321139437263 -3.4039412767992872 0 -3.4039412767992872 -14.582358420100093 0 0 0 0 1.8657567281898082 -2.6241734296607433 0 -2.6241734296607433 -5.3558449342820893 0 0 0 0 0.90601200771379808 -10.344713087062743 0 -10.344713087062743 2.0815389427209183 0 0 0 0 12.838698441343695 -20.268388357410046 0 -20.268388357410046 -25.807385510180481 0 0 0 0 -5.6061694414438534 -8.4028987946913674 0 -8.4028987946913674 -39.575372343916456 0 0 0 0 -12.216503633071625 1.346940560366491 0 1.346940560366491 4.6622984169064203 0 0 0 0 5.8182988292237496 7.463506142085393 0 7.463506142085393 2.6332472697066578 0 0 0 0 -5.1044179780734922 0.17818508063182614 0 0.17818508063182614 -0.058490840846633307 0 0 0 0 -24.548717714194936 13.521492167422945 0 13.521492167422945 26.485444363755917 0 0 0 0 -4.0768545183782408 -5.0427770205066622 0 -5.0427770205066622 2.40059424033862 0 0 0 0 -6.7160432815489912 -1.6817516531395142 0 -1.6817516531395142 3.0581500018088263 0 0 0 0 -16.040461601246534 -6.3196531222338947 0 -6.3196531222338947 3.8172521411794946 0 0 0 0 -11.618368578549962 4.3133588822590596 0 4.3133588822590596 2.5963982526424729 0 0 0 0 -11.776690845523262 5.525109708311561 0 5.525109708311561 5.0461041693812874 0 0 0 0 -16.46069854417874 2.6498193933365997 0 2.6498193933365997 6.147922167764051 0 0 0 0 -16.059673592275431 -1.4196643125682158 0 -1.4196643125682158 3.0527349986914594 0 0 0 0 -13.369555984938415 0.033873075328870073 0 0.033873075328870073 0.44151356134079833 0 0 0 0 -0.28107662973659586 -0.75237083025010065 0 -0.75237083025010065 -0.56476998422734348 0 0 0 0 -7.3191327703316347 -2.7412220776368486 0 -2.7412220776368486 -1.0261122642757812 0 0 0 0 2.9457095354337071 -0.94594332361418765 0 -0.94594332361418765 -3.8397194310137479 0 0 0 0 -4.4046964519984613 -2.8818152877929037 0 -2.8818152877929037 6.5874424333097465 0 0 0 0 -7.7116283259292686 2.9476432685815723 0 2.9476432685815723 -3.6535905422142037 0 0 0 0 -1.2949714939855532 -1.6356607726403496 0 -1.6356607726403496 -0.8669558224796301 0 0 0 0 -11.884192294173772 6.2993105641430986 0 6.2993105641430986 12.683639153596758 0 0 0 0 -1.2089122514444171 -1.934454777674631 0 -1.934454777674631 18.992104664676503 0 0 0 0 -52.319100823693589 20.773723217361947 0 20.773723217361947 20.80820374423142 0 0 0 0 3.6681513461408031 -7.4252628398994034 0 -7.4252628398994034 -3.9000461091069383 0 0 0 0 19.774702078019345 -52.965354696360095 0 -52.965354696360095 22.336041297604481 0 0 0 0 -1.1157778075586293 -1.8333773348297697 0 -1.8333773348297697 -1.6779631651524476 0 0 0 0 -4.6440259045921266 -7.5833555028291357 0 -7.5833555028291357 -1.107746950444966 0 0 0 0 -4.4149785134168269 1.9989980041501099 0 1.9989980041501099 -0.4345898463695903 0 0 0 0 -0.84324642827646556 -1.5132615515464778 0 -1.5132615515464778 -1.8409322256590044 0 0 0 0 85.335647133480052 -26.29273663241036 0 -26.29273663241036 -52.205310459220527 0 0 0 0 -4.3013796413397358 -4.0130579164539881 0 -4.0130579164539881 0.28691476870744737 0 0 0 0 -73.413696942348906 -59.035887234301782 0 -59.035887234301782 59.403497525736469 0 0 0 0 69.789818089832806 47.976626311837052 0 47.976626311837052 -122.4786603498402 0 0 0 0 -76.17045518172381 28.101652613545696 0 28.101652613545696 -10.053479249238535 0 0 0 0 -1.720670847868206 0.0025973625151554103 0 0.0025973625151554103 -0.0093764713162878821 0 0 0 0 -13.980782227612508 22.024235177938458 0 22.024235177938458 -3.550782022598014 0 0 0 0 -21.787035919114714 -35.871737601945256 0 -35.871737601945256 -59.491020270246722 0 0 0 0 -76.043689209342119 -13.733648555567186 0 -13.733648555567186 -5.866260821259857 0 0 0 0 -38.284241010540427 -16.864891047310721 0 -16.864891047310721 -9.6787357262168143 0 0 0 0 -25.204056972464969 6.7474369543566013 0 6.7474369543566013 6.1719907676578032 0 0 0 0 -26.416108728746622 5.7544720287096425 0 5.7544720287096425 10.214293279321737 0 0 0 0 -31.844131467476473 -4.301587536282625 0 -4.301587536282625 9.2795758302684135 0 0 0 0 5.5313327563253551 1.977263529227713 0 1.977263529227713 33.218047683991699 0 0 0 0 17.176364161596211 22.611434359107307 0 22.611434359107307 31.629500893115164 0 0 0 0 5.6482939430161423 -1.1558231438634721 0 -1.1558231438634721 10.651447498925791 0 0 0 0 -26.448918366917496 28.01456804352847 0 28.01456804352847 -11.712300504626029 0 0 0 0 3.8107660724708694 20.159136434413995 0 20.159136434413995 5.1804314250367156 0 0 0 0 -15.544467197047197 22.675169673269011 0 22.675169673269011 13.633183537112814 0 0 0 0 3.6402184388425667 14.475885285169625 0 14.475885285169625 8.0532841162826116 0 0 0 0 -0.93745945725014046 -0.0297915790009462 0 -0.0297915790009462 -1.078278690416232 0 0 0 0 38.524787877362542 23.116983977378027 0 23.116983977378027 8.5341737421050539 0 0 0 0 23.897850743051094 10.223305101995948 0 10.223305101995948 4.4483118179869052 0 0 0 0 10.928598924412654 23.226911410229832 0 23.226911410229832 12.42445211735685 0 0 0 0 9.9050641726316826 10.496311106882331 0 10.496311106882331 12.914821468816172 0 0 0 0 12.305281678869505 5.7930063788553525 0 5.7930063788553525 -2.2336599321138806 0 0 0 0 -2.0015019251278829 0.38638352998262526 0 0.38638352998262526 -1.0384811412029844 0 0 0 0 -2.683716922445111 1.7587752554543261 0 1.7587752554543261 -1.1286668220532685 0 0 0 0 13.454272645729361 20.119099813162052 0 20.119099813162052 8.8310672159602746 0 0 0 0 -3.0688972606112657 -0.94740007508426061 0 -0.94740007508426061 7.2763980650008762 0 0 0 0 -1.1763123881537467 0.2677468412015287 0 0.2677468412015287 -0.32747395007254454 0 0 0 0 -1.1930296475746118 -0.073858283466957886 0 -0.073858283466957886 -0.38537045780529633 0 0 0 0 -3.3472200211690506 1.5869390628429301 0 1.5869390628429301 -4.7435971941590651 0 0 0 0 -1.9803260528142346 -19.226451621419812 0 -19.226451621419812 -10.286571453494844 0 0 0 0 23.493403287362526 11.277796036829045 0 11.277796036829045 -15.179836287943068 0 0 0 0 -10.810396359334845 26.303007129329671 0 26.303007129329671 38.210858619934584 0 0 0 0 -2.7310247638309733 1.7597924777292686 0 1.7597924777292686 -0.92175375130858095 0 0 0 0 4.8342906944453716 -2.8098376144320127 0 -2.8098376144320127 4.6499910891207037 0 0 0 0 -1.6658373410173226 -8.6789631412409562 0 -8.6789631412409562 1.1721368147132125 0 0 0 0 -0.60829766902387483 -0.21223866179722606 0 -0.21223866179722606 0.051363367313594033 0 0 0 0 -4.0684282965385137 -3.8986499282551108 0 -3.8986499282551108 7.0316106356940509 0 0 0 0 -3.1726210677734343 -3.2431404006085813 0 -3.2431404006085813 4.39030668300569 0 0 0 0 -0.62072816724139557 -6.0573583315809287 0 -6.0573583315809287 7.1164812664778765 0 0 0 0 -90.981965747630966 -5.0357510125065801 0 -5.0357510125065801 -25.889485683543228 0 0 0 0 -124.61283164883753 -57.353503467081737 0 -57.353503467081737 -100.76382800766896 0 0 0 0 -58.137461846790757 -38.546465159687614 0 -38.546465159687614 -26.347443010749885 0 0 0 0 -24.790350113351451 1.4814180089764477 0 1.4814180089764477 -20.533054358966886 0 0 0 0 -14.660288082306579 40.782595838478528 0 40.782595838478528 21.806690990690555 0 0 0 0 -3.5654841459108866 24.887822600632887 0 24.887822600632887 -46.292753019862857 0 0 0 0 -61.690064602785242 -27.69811098524076 0 -27.69811098524076 -2.9992065723590713 0 0 0 0 -181.03077474777274 57.926010480110847 0 57.926010480110847 -53.138658321505886 0 0 0 0 -190.24000334741868 -16.172318372533482 0 -16.172318372533482 29.755469324710361 0 0 0 0 -258.48726866108882 -23.268625871601671 0 -23.268625871601671 36.052332696324356 0 0 0 0 -1.322612726380342 0.80125392575243382 0 0.80125392575243382 -0.43018079552777411 0 0 0 0 -29.253183681691553 86.396675599214518 0 86.396675599214518 23.235128014945531 0 0 0 0 3.8333912518537545 -36.796597766988953 0 -36.796597766988953 -0.65308300987567236 0 0 0 0 35.125695958500728 -5.096217091429196 0 -5.096217091429196 -37.056662178043098 0 0 0 0 -3.0606643225582957 5.0419731044733567 0 5.0419731044733567 -70.57823011596156 0 0 0 0 -34.841721260767372 13.820007418333603 0 13.820007418333603 -35.857086355609475 0 0 0 0 -201.69223144682292 32.881756885672644 0 32.881756885672644 21.388011691022712 0 0 0 0 -30.852908459093669 1.5637277523749162 0 1.5637277523749162 -122.51634067370173 0 0 0 0 0.029939858276430087 -0.008890150251982476 0 -0.008890150251982476 0.036927824859892766 0 0 0 0 -11.884491889662968 -4.6988403844657114 0 -4.6988403844657114 0.072088377811269311 0 0 0 0 11.421124493921525 -1.1210007265977993 0 -1.1210007265977993 -11.608461903049829 0 0 0 0 -6.2815525266778423 -3.7111042153084099 0 -3.7111042153084099 -6.6987674279380371 0 0 0 0 -17.550495432791649 -28.105388163724115 0 -28.105388163724115 -8.9916811151608727 0 0 0 0 -2.4676463404553033 -5.048563156224759 0 -5.048563156224759 9.593519669692796 0 0 0 0 8.7865133403465734 -9.7494844609907432 0 -9.7494844609907432 -32.270535610763545 0 0 0 0 -47.796948512397648 -2.0269246510069934 0 -2.0269246510069934 48.508157386652215 0 0 0 0 -18.31878653993499 -17.146923230295045 0 -17.146923230295045 35.518900085351902 0 0 0 0 -7.4133851387605318 -20.574236661512941 0 -20.574236661512941 -23.509728436217301 0 0 0 0 -11.31601204117942 15.527474567835839 0 15.527474567835839 -4.7712141752297157 0 0 0 0 -23.274489046605595 24.300456147622526 0 24.300456147622526 25.993597856012627 0 0 0 0 -0.38090502163107942 -0.14569735843621689 0 -0.14569735843621689 -0.037409497936346625 0 0 0 0 4.4142115543509135 9.1321312771219709 0 9.1321312771219709 -18.797410809842177 0 0 0 0 -10.863211555515591 2.8297286025276662 0 2.8297286025276662 -9.0424182040801497 0 0 0 0 -71.313118002976125 -23.949133261501679 0 -23.949133261501679 2.4208362553604275 0 0 0 0 15.160489502204655 -1.6950771549691126 0 -1.6950771549691126 1.5259347008600344 0 0 0 0 -8.6351196677405824 14.397385499497773 0 14.397385499497773 -10.745132000168951 0 0 0 0 -15.199966492438762 53.043394248915206 0 53.043394248915206 -12.674218991664954 0 0 0 0 -75.888119735800501 70.997080057740959 0 70.997080057740959 14.452440330290642 0 0 0 0 -1.0269090551500994 99.83455618700782 0 99.83455618700782 24.361486778879055 0 0 0 0 -216.40528991395672 -111.01214238093898 0 -111.01214238093898 -61.79372401429373 0 0 0 0 -202.53112072399051 107.64785229364648 0 107.64785229364648 -85.095504998169645 0 0 0 0 -39.996965749816809 67.47400553695627 0 67.47400553695627 -42.119426585376488 0 0 0 0 -47.906491721234488 8.8803983215889275 0 8.8803983215889275 -40.004602858746239 0 0 0 0 -13.504231374303345 -10.961796598168974 0 -10.961796598168974 50.700447433516388 0 0 0 0 -14.236640394261713 48.464934712917739 0 48.464934712917739 -28.676943350341389 0 0 0 0 38.042497872351305 72.791040027541328 0 72.791040027541328 -18.637897506849413 0 0 0 0 -81.936355287129231 -57.59093465939479 0 -57.59093465939479 -0.29269596264271058 0 0 0 0 -92.319071956157131 55.285686526850668 0 55.285686526850668 -4.6938711008606901 0 0 0 0 -3.2174585474490911 0.69117651916119627 0 0.69117651916119627 0.19686655982567336 0 0 0 0 -42.974431486891262 55.151334951818001 0 55.151334951818001 112.45440527460278 0 0 0 0 -112.22394042568158 0.14641417126568967 0 0.14641417126568967 0.22682386472502003 0 0 0 0 -38.157268780609229 2.6034477455846741 0 2.6034477455846741 39.362585594088415 0 0 0 0 -18.277656340381327 -20.380446344384978 0 -20.380446344384978 -0.89521703891625748 0 0 0 0 4.9532542656688747 -18.095355447650064 0 -18.095355447650064 -13.013730924982383 0 0 0 0 -132.51239995794185 -8.4819584846147222 0 -8.4819584846147222 14.941033481984505 0 0 0 0 -1.422793316588546 0.3196923682644055 0 0.3196923682644055 0.034404134060524116 0 0 0 0 -71.773185516552985 -61.246669615068129 0 -61.246669615068129 -25.893444538491792 0 0 0 0 -76.360920081535369 -37.823274296923955 0 -37.823274296923955 8.3816198229498582 0 0 0 0 6.1317372319081187 -17.158551932412934 0 -17.158551932412934 4.8308465261883384 0 0 0 0 -5.1590255345735656 1.8533083170552267 0 1.8533083170552267 -0.51672774997159998 0 0 0 0 -51.052477193930827 31.84684202165397 0 31.84684202165397 46.252625715163504 0 0 0 0 -16.317144756902962 38.671159619997525 0 38.671159619997525 -59.050455297563303 0 0 0 0 18.526908751631709 12.160745486423252 0 12.160745486423252 -8.6376790948263249 0 0 0 0 2.7439504178037168 6.9796888304700815 0 6.9796888304700815 -6.3798609618962985 0 0 0 0 18.555936279050911 12.214607628977319 0 12.214607628977319 -16.846372611469633 0 0 0 0 -8.1974617790183508 1.9015182660908225 0 1.9015182660908225 -0.4661344987276827 0 0 0 0 -57.388859630582374 62.816055505508928 0 62.816055505508928 125.90118636408369 0 0 0 0 12.781958063748334 18.251831079714535 0 18.251831079714535 8.7102303516079473 0 0 0 0 -3.1841715216728517 42.751319751175529 0 42.751319751175529 52.010849153805111 0 0 0 0 -10.166734930845632 3.9204975983643444 0 3.9204975983643444 -0.88418734324721238 0 0 0 0 6.7251383201219141 9.8214414531862531 0 9.8214414531862531 119.4202061646923 0 0 0 0 -29.447242230944539 -33.580552118280252 0 -33.580552118280252 56.659169597868868 0 0 0 0 -27.595375546774449 -21.283845379566571 0 -21.283845379566571 51.530668014636149 0 0 0 0 -10.386797576266417 -14.978140508352567 0 -14.978140508352567 21.532270661675511 0 0 0 0 -16.686736448524925 -35.742081351473949 0 -35.742081351473949 38.996785211531574 0 0 0 0 -19.416279415781901 -22.190821770454249 0 -22.190821770454249 17.841829140581211 0 0 0 0 -13.16610600414424 5.0760861883082384 0 5.0760861883082384 6.8481037057795788 0 0 0 0 -10.779602798927016 2.9365793902001451 0 2.9365793902001451 -0.70329922147003632 0 0 0 0 -15.917091249983059 3.0535721255455428 0 3.0535721255455428 5.8256386058225189 0 0 0 0 -21.697759041307108 4.3089659419832387 0 4.3089659419832387 78.12805011243907 0 0 0 0 -2.3022737807139499 -0.54376712265686322 0 -0.54376712265686322 -0.44835646314669031 0 0 0 0 -11.175904191944937 -0.35223419323267535 0 -0.35223419323267535 4.0182332815877544 0 0 0 0 -8.0007420032707159 -4.0555792650839066 0 -4.0555792650839066 3.0356762985828709 0 0 0 0 19.136528160699527 7.8006442075331393 0 7.8006442075331393 -2.5308740270031649 0 0 0 0 -21.725563191232197 -5.0622677422011826 0 -5.0622677422011826 4.4505444260722697 0 0 0 0 -20.792551222607472 8.9866740801174032 0 8.9866740801174032 -0.96304579995535278 0 0 0 0 -13.360860411059548 -0.39532959511950594 0 -0.39532959511950594 -17.339247034933692 0 0 0 0 -13.277842208492075 1.0118323320982654 0 1.0118323320982654 -0.45936958543086348 0 0 0 0 -24.294059915651815 -1.5442047136985195 0 -1.5442047136985195 0.37376761812112136 0 0 0 0 -15.882109036938346 8.2323683528309175 0 8.2323683528309175 -5.6093350594413778 0 0 0 0 2.4661038353924596 -3.6074441643378066 0 -3.6074441643378066 -8.9411449867927786 0 0 0 0 0.059390136787428105 -0.29410017834005231 0 -0.29410017834005231 -0.22580782708090708 0 0 0 0 -0.88814711755704501 -1.564610287927156 0 -1.564610287927156 -1.0051723633723957 0 0 0 0 -7.7556704674752837 -38.156478727681474 0 -38.156478727681474 28.411531348902827 0 0 0 0 11.239709132665666 -0.87916966585174805 0 -0.87916966585174805 -3.1214967712593307 0 0 0 0 -7.1826918266115172 -33.088002865868418 0 -33.088002865868418 -59.359852866433812 0 0 0 0 30.938738882612597 -21.277174199147026 0 -21.277174199147026 -12.765558557584313 0 0 0 0 -11.524412903756456 -10.198037021007224 0 -10.198037021007224 6.4645815467923455 0 0 0 0 -17.295991345446055 -0.68146154327290276 0 -0.68146154327290276 4.8068159590339974 0 0 0 0 -8.7320189612232753 -0.10277024738921625 0 -0.10277024738921625 1.7109848379636787 0 0 0 0 -10.549705720772181 4.6437361271794089 0 4.6437361271794089 -2.1629905776821872 0 0 0 0 -6.9897092792243711 0.20996447519701178 0 0.20996447519701178 3.8462235462587842 0 0 0 0 -6.0403873211689643 -0.15180510103516553 0 -0.15180510103516553 -1.4312167364783051 0 0 0 0 -31.756467965517004 24.004610291883324 0 24.004610291883324 -9.3599474900761379 0 0 0 0 -26.748296906091127 -8.3426534200711444 0 -8.3426534200711444 7.2456266431685776 0 0 0 0 -81.928862327953539 -19.760595472048294 0 -19.760595472048294 9.3774872102575273 0 0 0 0 -6.2863212329939415 -73.086108527938848 0 -73.086108527938848 -56.820013595763385 0 0 0 0 28.18592982188602 -12.396032708001826 0 -12.396032708001826 -22.725879149700319 0 0 0 0 10.628873882164044 -2.1256767981893745 0 -2.1256767981893745 -1.796293236797851 0 0 0 0 -18.249663717109797 -30.34230221910309 0 -30.34230221910309 -11.704439601767689 0 0 0 0 3.5565159482521302 -5.4695962098830107 0 -5.4695962098830107 0.24038750051251223 0 0 0 0 -0.86459157056742697 -5.5423963726716465 0 -5.5423963726716465 7.9313921465036401 0 0 0 0 9.5577015561211738 -9.7779738441684003 0 -9.7779738441684003 -3.1416416553199724 0 0 0 0 1.3365859103323601 -7.9662537111009897 0 -7.9662537111009897 7.0434828315355844 0 0 0 0 2.3220629490424471 -8.3904399399727936 0 -8.3904399399727936 6.8634455424412408 0 0 0 0 2.8570337460078008 -8.3375277632076177 0 -8.3375277632076177 6.5645290749735068 0 0 0 0 -4.7735928026449983 -5.2932387285213736 0 -5.2932387285213736 4.2749367921342127 0 0 0 0 1.104364692762875 0.025800939382108368 0 0.025800939382108368 -0.35269167838030135 0 0 0 0 7.069548605773889 -17.771737775673898 0 -17.771737775673898 -6.8069831955968141 0 0 0 0 6.8410748882270127 -17.972914206822978 0 -17.972914206822978 2.3726784176424189 0 0 0 0 -12.484204839528502 -12.556591489525339 0 -12.556591489525339 20.169675016468403 0 0 0 0 -8.5692874606389857 -8.6586107915314159 0 -8.6586107915314159 2.5622484708037869 0 0 0 0 4.757831926101062 -13.626348612242992 0 -13.626348612242992 -0.74410376285612756 0 0 0 0 -13.174333315816511 -11.571472889020583 0 -11.571472889020583 9.4249484993922579 0 0 0 0 3.2133159778977642 -16.067164028076348 0 -16.067164028076348 6.5759160204820546 0 0 0 0 -9.3105167834547995 -8.8924047596196818 0 -8.8924047596196818 2.6883029528976348 0 0 0 0 7.9446126144853224 -28.579871187835703 0 -28.579871187835703 -10.736689601770237 0 0 0 0 -16.485153126739533 2.4129474628098393 0 2.4129474628098393 1.0521007839407233 0 0 0 0 -5.575528854822096 -8.9026806039380091 0 -8.9026806039380091 6.3595122635973098 0 0 0 0 -3.7053664264740291 -7.2189414012742361 0 -7.2189414012742361 5.5765773301060193 0 0 0 0 -10.914750719687618 -0.51831843682734302 0 -0.51831843682734302 3.8092148883501977 0 0 0 0 -6.5993111977759327 0.68493929672729337 0 0.68493929672729337 -1.9577429208199533 0 0 0 0 -109.16896656936478 -11.688694328945445 0 -11.688694328945445 33.137333455757584 0 0 0 0 -83.865126152831181 -76.490360875857235 0 -76.490360875857235 -35.654350104979869 0 0 0 0 -44.042434044522452 -33.685572940112934 0 -33.685572940112934 1.9779596338760257 0 0 0 0 0.043935790453448753 -0.03156189455909697 0 -0.03156189455909697 0.61758644240239269 0 0 0 0 -47.262600303010913 -13.143442065012778 0 -13.143442065012778 4.7818341581325967 0 0 0 0 -27.504962541209352 -0.38378918476615809 0 -0.38378918476615809 7.1789626734164926 0 0 0 0 -37.479308430559286 -27.662489963178245 0 -27.662489963178245 28.085519658978683 0 0 0 0 -38.482721184903312 -35.494515856459657 0 -35.494515856459657 0.84092696476488982 0 0 0 0 -9.5153425476964912 27.080975786815543 0 27.080975786815543 86.147415799824273 0 0 0 0 -43.804913879197557 -28.790712363071293 0 -28.790712363071293 49.76012599272093 0 0 0 0 -3.1513521464650225 0.59528056014361574 0 0.59528056014361574 0.22166424900924264 0 0 0 0 0.010519391793422983 -17.996357859234678 0 -17.996357859234678 24.350285451744867 0 0 0 0 -44.860765466268958 -59.349778248080185 0 -59.349778248080185 -3.9299670214546722 0 0 0 0 -60.782326675602235 -18.058798763152481 0 -18.058798763152481 38.88880496021693 0 0 0 0 -36.70379878688982 -50.487940336665702 0 -50.487940336665702 -11.958453778865874 0 0 0 0 -28.204937677937778 -50.859286776729903 0 -50.859286776729903 -34.714566090978906 0 0 0 0 -11.048016309689046 -19.641667608135094 0 -19.641667608135094 -33.930497445473364 0 0 0 0 -9.7141447676217467 -22.146197194619191 0 -22.146197194619191 -30.595562032104908 0 0 0 0 -52.522927142455956 -99.4846136862501 0 -99.4846136862501 -192.07927743992104 0 0 0 0 -70.538826145420899 -88.765434972889238 0 -88.765434972889238 -50.876037570568769 0 0 0 0 -5.2439044770744658 -33.65035801824115 0 -33.65035801824115 -107.47545476953542 0 0 0 0 -88.700697378011682 -35.760419001661376 0 -35.760419001661376 -22.391747999063455 0 0 0 0 -18.835156457134872 -6.7945888524543534 0 -6.7945888524543534 5.6863533210901096 0 0 0 0 -22.401632270217306 -36.426225381607424 0 -36.426225381607424 1.1263310413628176 0 0 0 0 -27.279088190743551 -26.938081082453721 0 -26.938081082453721 -15.039069900454024 0 0 0 0 -13.014738452774509 -5.3474775772484122 0 -5.3474775772484122 3.6304508939297193 0 0 0 0 -2.5263553908989707 -7.7326323539648456 0 -7.7326323539648456 -13.011257685911843 0 0 0 0 -0.58056442345842418 -0.26981242903906733 0 -0.26981242903906733 1.8308332671946919 0 0 0 0 -6.7931786943790939 -5.7045625525491914 0 -5.7045625525491914 -5.9502867556890351 0 0 0 0 -5.8158327984783682 1.3271611876168947 0 1.3271611876168947 -1.4777756941289226 0 0 0 0 -2.6746684418695992 -1.3200199039894092 0 -1.3200199039894092 0.34456152812169438 0 0 0 0 -8.1827685223785238 -5.5433616719391097 0 -5.5433616719391097 -4.0899648250024256 0 0 0 0 -0.7670198619152897 -0.086617943483496163 0 -0.086617943483496163 0.57017663186664214 0 0 0 0 6.7685808041569544 -9.5394531824082378 0 -9.5394531824082378 6.9020891017776194 0 0 0 0 0.45485878497402155 -29.784430892259365 0 -29.784430892259365 11.512947458874919 0 0 0 0 13.241659544142749 -18.585010836262086 0 -18.585010836262086 18.193081562070763 0 0 0 0 25.49993093409671 -35.790761973791902 0 -35.790761973791902 9.9900173863522923 0 0 0 0 32.398984070136066 -24.250484267570073 0 -24.250484267570073 13.824536654648568 0 0 0 0 61.59546469776069 -26.468610712838426 0 -26.468610712838426 5.3790656987509919 0 0 0 0 -23.685659932554017 -3.6296726681345604 0 -3.6296726681345604 14.810251172081053 0 0 0 0 -0.023975963920278787 0.23236505213001379 0 0.23236505213001379 0.24639812708335729 0 0 0 0 33.592032263216879 -11.894573920831533 0 -11.894573920831533 0.31805683996935841 0 0 0 0 -1.3760168192074715 -0.45886062429491714 0 -0.45886062429491714 -0.033075551699764387 0 0 0 0 -435.28421310412523 3.133296535149384 0 3.133296535149384 139.49341641965316 0 0 0 0 -96.361165843885829 45.002320478802517 0 45.002320478802517 -90.732388724225416 0 0 0 0 -221.22263082815334 80.701771652323259 0 80.701771652323259 -10.883132258800742 0 0 0 0 -298.87144638151585 7.8240239304773809 0 7.8240239304773809 135.78436744404121 0 0 0 0 -77.619931256690506 -12.450115355870736 0 -12.450115355870736 -47.145947271201521 0 0 0 0 -2.454904040110705 -34.902836235891414 0 -34.902836235891414 68.407124911527674 0 0 0 0 -0.19046332376401409 -0.30024983799780181 0 -0.30024983799780181 -0.37191980847336747 0 0 0 0 -106.92096286954256 -31.19141260877575 0 -31.19141260877575 30.153389112995228 0 0 0 0 190.66757358280847 80.579372654307008 0 80.579372654307008 -25.297246123887533 0 0 0 0 -2.747051607857216 -1.1438322020762206 0 -1.1438322020762206 -0.025393007093037268 0 0 0 0 -142.59494510962759 20.362369656008582 0 20.362369656008582 64.219091060667665 0 0 0 0 -142.76032422841308 24.3499653321511 0 24.3499653321511 22.461649033288154 0 0 0 0 -207.91500199583515 15.30327686538547 0 15.30327686538547 49.758015534595415 0 0 0 0 -181.31037362600546 24.850723178483349 0 24.850723178483349 27.964338619352134 0 0 0 0 -243.4179653633164 38.350270960510557 0 38.350270960510557 39.129101141933063 0 0 0 0 -192.53896365752735 -52.847771918249236 0 -52.847771918249236 -1.5593379252784416 0 0 0 0 34.963089050185772 -49.268677942176566 0 -49.268677942176566 -37.4361277936855 0 0 0 0 -15.688771184568395 29.909769991848862 0 29.909769991848862 9.189754293339206 0 0 0 0 -5.2610807956834833 7.2548765001619131 0 7.2548765001619131 -14.660085958088303 0 0 0 0 -0.93286321902847646 -0.80260672268796185 0 -0.80260672268796185 -1.0202160922498398 0 0 0 0 -6.3166316015449411 17.727276095418802 0 17.727276095418802 -66.795999883464447 0 0 0 0 -43.298292665600457 -48.162622842529231 0 -48.162622842529231 -81.728748660526207 0 0 0 0 30.883747918598601 -25.333620615492066 0 -25.333620615492066 43.388370702436987 0 0 0 0 31.203208791035649 -18.17132193647933 0 -18.17132193647933 23.971844018534284 0 0 0 0 -13.810293991828075 -34.656597724175754 0 -34.656597724175754 31.535324855113686 0 0 0 0 -0.14234912612293726 -0.63683012183832233 0 -0.63683012183832233 -0.83823707443051676 0 0 0 0 16.754927243508064 -57.793957969373878 0 -57.793957969373878 27.089948037687691 0 0 0 0 19.305102974176407 10.62718579744751 0 10.62718579744751 11.979132198769207 0 0 0 0 19.43205872269391 -3.9498177227372935 0 -3.9498177227372935 -35.140242441896362 0 0 0 0 10.882503467862989 15.89436464727487 0 15.89436464727487 -34.400387494770129 0 0 0 0 22.265561154677926 0.41140272911275133 0 0.41140272911275133 -29.655795078207575 0 0 0 0 11.836747756315162 -22.765659134555563 0 -22.765659134555563 -45.758803105885022 0 0 0 0 0.16264148039325477 -0.32339275403356638 0 -0.32339275403356638 -0.637307502298186 0 0 0 0 33.860327632133703 5.6096199234189044 0 5.6096199234189044 -31.685822734087651 0 0 0 0 25.173901618092714 -8.993592128541934 0 -8.993592128541934 -40.953520700780246 0 0 0 0 17.874391087108961 -5.4185285717203442 0 -5.4185285717203442 -37.160954391828454 0 0 0 0 -21.120294474981165 -46.752551255258766 0 -46.752551255258766 9.1411885469383378 0 0 0 0 -13.910364325234696 -34.989560177323483 0 -34.989560177323483 20.690067485881627 0 0 0 0 -20.166136735157124 -46.211364554345209 0 -46.211364554345209 -11.141385689853621 0 0 0 0 2.5112425206007174 7.1566423435746174 0 7.1566423435746174 -2.2768928198137246 0 0 0 0 -18.836673345903819 -41.841226441555989 0 -41.841226441555989 2.3784761011188493 0 0 0 0 3.9614120944424425 -3.2232057860099541 0 -3.2232057860099541 -0.59298986637861972 0 0 0 0 -5.4959352875121112 -9.4808262778606149 0 -9.4808262778606149 8.1917331944443958 0 0 0 0 -21.576180411131645 -35.703980886172531 0 -35.703980886172531 -4.3694287099126541 0 0 0 0 -29.134938742536178 -10.631259143331363 0 -10.631259143331363 -5.5187663812515808 0 0 0 0 -13.938648678067693 -28.712610585486573 0 -28.712610585486573 11.148515663229091 0 0 0 0 -22.200853529706364 -35.565681055868936 0 -35.565681055868936 21.331816343623586 0 0 0 0 -21.426842162523826 -21.963824123840141 0 -21.963824123840141 34.583169022392383 0 0 0 0 -24.160164924687706 -15.775526030889978 0 -15.775526030889978 22.688226491848923 0 0 0 0 -15.497467519000566 -8.9461460947014757 0 -8.9461460947014757 -2.1237305455039177 0 0 0 0 -15.999292470283763 -8.3131737925237985 0 -8.3131737925237985 0.96461477642750992 0 0 0 0 -22.514100168489676 -18.761044880586894 0 -18.761044880586894 4.2514638081036082 0 0 0 0 -30.595602908924775 -9.6114871948506959 0 -9.6114871948506959 1.7944411775719118 0 0 0 0 -35.726257423597872 -6.0767794152495753 0 -6.0767794152495753 -0.27579002884181136 0 0 0 0 -30.547919411841121 -17.78921465063695 0 -17.78921465063695 -3.7323329479042968 0 0 0 0 -0.74624924351287802 -0.18928822548227853 0 -0.18928822548227853 -0.029026095853838797 0 0 0 0 -23.853367113672903 -39.617552122976292 0 -39.617552122976292 -48.444990215172425 0 0 0 0 -0.086085176220251469 -0.12172378609833778 0 -0.12172378609833778 0.1720197322710868 0 0 0 0 -119.47099722687381 23.002952707790655 0 23.002952707790655 19.418398216387232 0 0 0 0 -11.271581847853668 -7.1122714040716346 0 -7.1122714040716346 -4.0137077169741726 0 0 0 0 -2.1180612366374589 -0.40047668680772619 0 -0.40047668680772619 0.49794620399179718 0 0 0 0 -8.3616091621915984 -11.823057205445821 0 -11.823057205445821 -5.5014261229403019 0 0 0 0 6.2111597470930064 4.8214869545298882 0 4.8214869545298882 -4.7181715651031482 0 0 0 0 4.4368724862973359 -2.5193412509386501 0 -2.5193412509386501 -0.91938283910233842 0 0 0 0 -4.0255182573055208 1.0472402071875422 0 1.0472402071875422 5.2485450455424143 0 0 0 0 -10.657117316406129 -26.670755379563673 0 -26.670755379563673 -39.157448911797019 0 0 0 0 -4.2771065559136332 -7.8625644123696929 0 -7.8625644123696929 -12.703260650887046 0 0 0 0 2.4760137667108211 3.3710532544751004 0 3.3710532544751004 -9.7702914456900203 0 0 0 0 -2.7384906950337609 -5.0156020995932522 0 -5.0156020995932522 14.505953015589512 0 0 0 0 -3.6170664356613997 -2.0356328627419771 0 -2.0356328627419771 4.99080237635917 0 0 0 0 2.340285448688519 -7.6669845229348539 0 -7.6669845229348539 6.8135030462854047 0 0 0 0 7.6943440289005594 -3.9442677357965863 0 -3.9442677357965863 0.48145599893814506 0 0 0 0 -0.33077053578050197 -1.0695873526936879 0 -1.0695873526936879 0.20952912514150035 0 0 0 0 -3.6796613142450951 2.442968015406791 0 2.442968015406791 1.9659825766586891 0 0 0 0 -7.0252766580451862 -6.3744563334332724 0 -6.3744563334332724 -0.24229314647709543 0 0 0 0 3.6224264027409347 -2.9495223878740209 0 -2.9495223878740209 -0.72598205480354849 0 0 0 0 -4.7301287549271365 -18.33259650329893 0 -18.33259650329893 -3.1595415381184466 0 0 0 0 7.7651879850873229 0.31421518517390723 0 0.31421518517390723 -6.2303646534414838 0 0 0 0 -10.656852935290772 -12.28982217954308 0 -12.28982217954308 -7.9981107857197458 0 0 0 0 -4.3672574115989846 -8.2008915572914702 0 -8.2008915572914702 -11.574769131761514 0 0 0 0 -25.025253882509787 -26.586384028085831 0 -26.586384028085831 -12.043978016839446 0 0 0 0 -19.939780758744746 -26.22398301721978 0 -26.22398301721978 -9.0617988807759815 0 0 0 0 -37.591052837099596 -18.499955590851755 0 -18.499955590851755 -2.2718101987807131 0 0 0 0 -18.219864029008022 -5.0411235412823316 0 -5.0411235412823316 4.2649175843753255 0 0 0 0 2.0694407913876915 -13.738479827962705 0 -13.738479827962705 -7.7421033034447646 0 0 0 0 -32.991493372805053 -9.5662804407202202 0 -9.5662804407202202 -1.9463001258395707 0 0 0 0 -8.5803151312647969 -14.768737821058039 0 -14.768737821058039 -10.648422667351952 0 0 0 0 -26.116805147547893 -14.297775504331867 0 -14.297775504331867 -21.653890329502019 0 0 0 0 -57.40878966908258 -19.585094885686658 0 -19.585094885686658 -2.1081140453784428 0 0 0 0 -39.733041962070274 -34.582902210064731 0 -34.582902210064731 -24.556225763184727 0 0 0 0 -83.272699385483065 -36.939440691774166 0 -36.939440691774166 -7.7289968558748114 0 0 0 0 -127.56617494883039 2.9704873725091829 0 2.9704873725091829 2.8191119028401772 0 0 0 0 -54.157062337919797 -4.0192622890269263 0 -4.0192622890269263 -2.8894306300126118 0 0 0 0 -60.294273581136167 -16.195925220340769 0 -16.195925220340769 -3.2763130011135218 0 0 0 0 -24.688707492157846 -25.962522898677435 0 -25.962522898677435 -11.512577147115962 0 0 0 0 -41.746469467861971 -26.558456204439153 0 -26.558456204439153 -12.387293744338194 0 0 0 0 -35.718372919029207 -19.49024040366271 0 -19.49024040366271 -8.9776220756111798 0 0 0 0 -36.68029208061489 -17.275903240688194 0 -17.275903240688194 -16.285933072091439 0 0 0 0 -36.012738127962393 -20.327258669405609 0 -20.327258669405609 -6.9776017853828307 0 0 0 0 -15.154699895172598 -20.542283432635713 0 -20.542283432635713 -16.015641360577774 0 0 0 0 -35.195840810275513 -10.791217734891092 0 -10.791217734891092 -4.8197126436302824 0 0 0 0 -9.560190349853201 -5.169041025506516 0 -5.169041025506516 3.7791480135756501 0 0 0 0 2.2832474027400167 -6.679565739344298 0 -6.679565739344298 -9.8354705499887132 0 0 0 0 8.5148300033124542 -13.903696376885364 0 -13.903696376885364 -1.6397766071645492 0 0 0 0 -2.6093375466880389 -14.857005361136999 0 -14.857005361136999 -7.8717918718615465 0 0 0 0 -14.037222840318577 -11.004286106395952 0 -11.004286106395952 -3.7178425581860211 0 0 0 0 4.5728540326648872 -3.4561200406067076 0 -3.4561200406067076 -0.10050045656349038 0 0 0 0 -11.092767711405941 -31.413783285192153 0 -31.413783285192153 -27.649392942515533 0 0 0 0 2.5524990108715429 0.3498295137533205 0 0.3498295137533205 0.28790671019032743 0 0 0 0 14.003922880270011 0.2860341903301844 0 0.2860341903301844 -6.0686059890531396 0 0 0 0 -36.538531724987479 6.2467165247373941 0 6.2467165247373941 -27.651438846961128 0 0 0 0 -7.1080762943383888 -8.454512806263665 0 -8.454512806263665 3.9780212700762831 0 0 0 0 9.001775063500645 0.07817730665919953 0 0.07817730665919953 2.2321737494833087 0 0 0 0 -1.5625698734020261 -13.172832806674705 0 -13.172832806674705 -2.313378341869111 0 0 0 0 -5.0993598316472344 -14.679685454535047 0 -14.679685454535047 -9.9624591053693621 0 0 0 0 -20.312890508976125 -19.617497688667754 0 -19.617497688667754 -1.5910181409108191 0 0 0 0 -19.586976795185365 -19.567138931399199 0 -19.567138931399199 -7.4898728116950224 0 0 0 0 -19.900561927726812 -22.148280284218799 0 -22.148280284218799 -3.6093438836833229 0 0 0 0 -22.777729779325455 -26.505987535513896 0 -26.505987535513896 -9.4170170942106779 0 0 0 0 -18.345607506904344 -22.454164752679844 0 -22.454164752679844 -5.8139556836490556 0 0 0 0 -31.209413876051258 -36.997890002660142 0 -36.997890002660142 -8.1257939908155095 0 0 0 0 -33.77523052039578 -20.509381049688272 0 -20.509381049688272 7.8608519545437048 0 0 0 0 -22.042070758368936 -29.824257521521758 0 -29.824257521521758 -3.8758530767024695 0 0 0 0 -22.689190120519925 -27.564628872841013 0 -27.564628872841013 -11.721195927653753 0 0 0 0 -1.978573716226947 -8.1451266938402114 0 -8.1451266938402114 8.5470394033072807 0 0 0 0 -14.47556529169924 -10.884975186800659 0 -10.884975186800659 5.2846106345987209 0 0 0 0 -23.282193944865867 -19.422117778028678 0 -19.422117778028678 -0.44381847401746199 0 0 0 0 -8.1398263697474249 0.36621977049298948 0 0.36621977049298948 7.8008051033611991 0 0 0 0 -45.55080640745291 -8.7389811792759247 0 -8.7389811792759247 9.0165257684154767 0 0 0 0 81.584525001690054 28.533972183816104 0 28.533972183816104 -103.65107150234962 0 0 0 0 58.579432156441953 -48.799365670724171 0 -48.799365670724171 -14.713612353057215 0 0 0 0 -37.245198386062839 -24.942908115529463 0 -24.942908115529463 2.244501220670827 0 0 0 0 -84.778834769356763 -29.001174984163754 0 -29.001174984163754 5.547421817463146 0 0 0 0 -61.251508269911938 273.80196107894835 0 273.80196107894835 -264.92251601158932 0 0 0 0 -94.004415253701154 -64.918713058815683 0 -64.918713058815683 -13.091009523257526 0 0 0 0 -135.48920464346156 -41.185088802107657 0 -41.185088802107657 13.553268916603884 0 0 0 0 -17.209249254832685 -14.547717832920398 0 -14.547717832920398 22.346358059009731 0 0 0 0 -17.541626809963418 -35.621447815695319 0 -35.621447815695319 -12.239234167193445 0 0 0 0 -13.257715222763181 -26.994389883713211 0 -26.994389883713211 -12.273718650812953 0 0 0 0 -27.649809858583922 -44.350366849179863 0 -44.350366849179863 -18.415686989318601 0 0 0 0 -29.054150324347574 -51.644661979311422 0 -51.644661979311422 -17.730344600506214 0 0 0 0 -35.893861232558265 -63.185888400672411 0 -63.185888400672411 -21.151666640082567 0 0 0 0 6.0242038677915843 -32.03728365199504 0 -32.03728365199504 -23.669465953678809 0 0 0 0 -5.3089039494298049 -26.694520174122999 0 -26.694520174122999 -14.782671758077413 0 0 0 0 5.8485945031734445 -13.043940630586349 0 -13.043940630586349 -9.7773143675655092 0 0 0 0 -23.095700043582838 -22.337122080709378 0 -22.337122080709378 -11.732494166833078 0 0 0 0 -19.603038348723203 -9.0392324002909845 0 -9.0392324002909845 -4.2103242670440295 0 0 0 0 -42.700500652572345 5.8660608347907086 0 5.8660608347907086 -3.6925188640616398 0 0 0 0 -34.643760834484056 1.8232763817226214 0 1.8232763817226214 4.5896458046136104 0 0 0 0 -22.044238193870115 -11.470389080880977 0 -11.470389080880977 -2.5598707154745171 0 0 0 0 -41.364190950332159 -15.09709921151218 0 -15.09709921151218 -4.5650427752734686 0 0 0 0 -37.909631064911082 -14.177861092852709 0 -14.177861092852709 -5.846774163368309 0 0 0 0 -27.283714429815518 -24.556341943612097 0 -24.556341943612097 -7.3888171912008147 0 0 0 0 -27.654991251174579 -25.432495808254089 0 -25.432495808254089 -9.4549406465949062 0 0 0 0 -84.710770482237422 -0.12513602353430997 0 -0.12513602353430997 -4.4295394359573095 0 0 0 0 -101.25679875330206 10.082321400012802 0 10.082321400012802 -1.2034163389423611 0 0 0 0 -145.16459777008367 8.1500131530767703 0 8.1500131530767703 -5.4705766280460466 0 0 0 0 -101.18715901775977 23.68318867398591 0 23.68318867398591 -20.30197709325239 0 0 0 0 -282.64554045945079 51.846988847928685 0 51.846988847928685 -19.85201078899513 0 0 0 0 -9.7314201437029624 7.6340455589712519 0 7.6340455589712519 -13.421759474113514 0 0 0 0 -2.7236727632888886 -2.5146815223460965 0 -2.5146815223460965 -2.584795336952654 0 0 0 0 -112.90362776594884 30.133369813081174 0 30.133369813081174 -15.297187021091418 0 0 0 0 -77.946806794501754 31.006174762751129 0 31.006174762751129 -15.49471621051724 0 0 0 0 -3.545730502583865 -9.0243997551771145 0 -9.0243997551771145 -1.5038713850005934 0 0 0 0 1.960412503553016 -1.7628114896988336 0 -1.7628114896988336 -12.190259420587836 0 0 0 0 2.0302436161664446 -2.1122132706577474 0 -2.1122132706577474 -12.125059624787355 0 0 0 0 9.9304450455199458 -13.32148842785459 0 -13.32148842785459 -31.444998613692405 0 0 0 0 8.9560109102458227 -5.2940662792527746 0 -5.2940662792527746 -25.243077881607405 0 0 0 0 18.701765028921727 -9.0308522256109427 0 -9.0308522256109427 -29.363866704336942 0 0 0 0 -2.9967582640711043 -17.832485864795672 0 -17.832485864795672 -7.2902349493897418 0 0 0 0 -3.4939697808622441 -8.7776629265237034 0 -8.7776629265237034 -3.0655909038863456 0 0 0 0 2.1229900986663957 -5.4029152287716204 0 -5.4029152287716204 0.073537903436094787 0 0 0 0 -11.759988159439359 -9.5795674881001762 0 -9.5795674881001762 -4.1455041661994647 0 0 0 0 -13.963113299680117 -18.420518037438228 0 -18.420518037438228 18.361291151971955 0 0 0 0 -20.29862374548884 -17.946144047285557 0 -17.946144047285557 18.707752671089111 0 0 0 0 -23.844918884788058 -7.0208985886982873 0 -7.0208985886982873 15.698261659681563 0 0 0 0 -9.1839318210759302 -10.204164593818035 0 -10.204164593818035 14.967761913000913 0 0 0 0 -3.5197036944081894 -1.3533713395892164 0 -1.3533713395892164 -1.340816306567838 0 0 0 0 -68.294221926169485 5.8290193653426172 0 5.8290193653426172 8.0405531655650293 0 0 0 0 -169.29292138380697 -10.296373257781454 0 -10.296373257781454 8.7406037961019649 0 0 0 0 -0.073085964867573239 0.0075391136751150611 0 0.0075391136751150611 -0.3247953167518034 0 0 0 0 -63.370213539408724 5.5978946882771083 0 5.5978946882771083 -7.1270723339182496 0 0 0 0 -3.2248865295083675 -4.429687582019362 0 -4.429687582019362 -4.1941163973007862 0 0 0 0 -57.351866281936054 16.69764388314394 0 16.69764388314394 -5.7083923032892017 0 0 0 0 -55.114759819325627 5.7393028291398309 0 5.7393028291398309 -7.1397142762093608 0 0 0 0 -85.521611822363411 20.842866996646023 0 20.842866996646023 -1.5294982869857279 0 0 0 0 -84.499325982899791 23.351445390420565 0 23.351445390420565 2.9694004550370892 0 0 0 0 -47.262927878913615 21.788256343633748 0 21.788256343633748 -2.8326521841181034 0 0 0 0 -56.170883683502325 12.267520222855978 0 12.267520222855978 16.162540517128605 0 0 0 0 -77.930139455784229 -11.575146814786081 0 -11.575146814786081 -3.6888097912176079 0 0 0 0 -57.853330499350704 12.840029556441095 0 12.840029556441095 -1.0476570393077509 0 0 0 0 -3.1532598278232626 -1.4009329589746127 0 -1.4009329589746127 -0.38692231561082846 0 0 0 0 -31.235609903797013 -28.520947575883298 0 -28.520947575883298 72.559136968900589 0 0 0 0 37.03168235672365 -59.670019429095291 0 -59.670019429095291 43.80641992517721 0 0 0 0 -6.7434918499038758 22.966552524110739 0 22.966552524110739 51.899153751802942 0 0 0 0 -13.250750507631892 -21.008861102112974 0 -21.008861102112974 17.686261904069525 0 0 0 0 -23.62043434615407 -3.0084877200811206 0 -3.0084877200811206 14.970538380437745 0 0 0 0 -48.649499442115484 26.589140697900632 0 26.589140697900632 21.603590802640156 0 0 0 0 -82.67762884404101 45.523569592841852 0 45.523569592841852 2.7705003415037481 0 0 0 0 -71.032105460228195 11.871839029495789 0 11.871839029495789 15.848276824155562 0 0 0 0 -54.735185079792245 33.899563381737416 0 33.899563381737416 13.586681239216546 0 0 0 0 -160.7159735083842 -62.220850084067813 0 -62.220850084067813 -15.394648021684947 0 0 0 0 -154.88178134286863 56.670755505261283 0 56.670755505261283 8.579364325920773 0 0 0 0 -141.7610956591634 17.149797739583619 0 17.149797739583619 24.315982664237822 0 0 0 0 -69.557889071678801 -16.485109215448688 0 -16.485109215448688 6.1019676533398979 0 0 0 0 -12.722464250902703 42.814769380540895 0 42.814769380540895 28.039152873998887 0 0 0 0 -134.37372674974904 32.908528638650736 0 32.908528638650736 27.568173313804778 0 0 0 0 -32.513612545608339 1.3735292243968615 0 1.3735292243968615 9.4138989169531442 0 0 0 0 -26.424445428359377 -7.4572366874600249 0 -7.4572366874600249 17.258537628442355 0 0 0 0 -9.7027669536000758 -6.1963135875478201 0 -6.1963135875478201 17.202515627440434 0 0 0 0 -17.824722476201714 -14.411917608959982 0 -14.411917608959982 -1.4131768129598754 0 0 0 0 -34.391277504419577 -19.487955226867424 0 -19.487955226867424 11.345515321018524 0 0 0 0 -49.737023451476489 -12.048373509410595 0 -12.048373509410595 2.5545045534874404 0 0 0 0 -53.229493969152827 -27.26434714700526 0 -27.26434714700526 -6.0276961929773734 0 0 0 0 -54.74889093531965 -15.508002581229801 0 -15.508002581229801 -71.212603094283224 0 0 0 0 -36.585605500936254 -55.850638125187061 0 -55.850638125187061 10.856983653736471 0 0 0 0 -88.887032729887324 14.083057860873655 0 14.083057860873655 14.298455968937837 0 0 0 0 -141.26508050836355 -16.62488339324776 0 -16.62488339324776 0.074977117109227207 0 0 0 0 -99.781665772911765 37.554375925758379 0 37.554375925758379 -22.650844233105694 0 0 0 0 23.736358330321309 -44.913677002771792 0 -44.913677002771792 -26.87177590635271 0 0 0 0 -1.3954819179199944 -0.49632245568523814 0 -0.49632245568523814 -0.13200059953356988 0 0 0 0 -67.583183373717475 -50.445470053995578 0 -50.445470053995578 -21.341344236575644 0 0 0 0 -27.287995739699909 -2.4306008506165102 0 -2.4306008506165102 -0.075599067544567258 0 0 0 0 -12.45751945102711 23.600848634544743 0 23.600848634544743 -6.1157103037742591 0 0 0 0 -21.735541758131149 -4.2179108174993587 0 -4.2179108174993587 -16.839692508768934 0 0 0 0 -11.721787037209864 -6.4678585558154591 0 -6.4678585558154591 -1.2397437883158196 0 0 0 0 1.6029251862164529 -12.216266095050514 0 -12.216266095050514 7.8092767792109044 0 0 0 0 0.21036276332756643 -24.858137996137017 0 -24.858137996137017 24.418485635113939 0 0 0 0 -3.5950530752330181 -3.3043530406986594 0 -3.3043530406986594 -2.8860712800233719 0 0 0 0 -17.364956724302829 -3.0810035519334633 0 -3.0810035519334633 8.3503845814234978 0 0 0 0 -27.224213537625474 -9.4596212888052378 0 -9.4596212888052378 11.920719974123585 0 0 0 0 -22.215447572820267 -1.3907374151897329 0 -1.3907374151897329 6.9959135059592654 0 0 0 0 -33.183826278142078 -5.0565770804555541 0 -5.0565770804555541 7.0349016930904327 0 0 0 0 -4.3255568857894104 -9.7052099693335094 0 -9.7052099693335094 3.7986518685715964 0 0 0 0 -19.018186857235378 -6.7479846831613486 0 -6.7479846831613486 4.4488392220350761 0 0 0 0 -23.816803378437953 -7.5737949217145228 0 -7.5737949217145228 16.850265669887449 0 0 0 0 -1.9891630616966722 0.64436388184026328 0 0.64436388184026328 27.39412768654438 0 0 0 0 -9.9381273587168835 -55.822475471176261 0 -55.822475471176261 10.362329599128088 0 0 0 0 31.420012891830993 -9.6563014097177984 0 -9.6563014097177984 -8.5459072612816271 0 0 0 0 -22.163140650955029 -39.937117431611341 0 -39.937117431611341 -25.266983696392344 0 0 0 0 -12.719775520760997 -9.0279480458023276 0 -9.0279480458023276 -3.4119517685088865 0 0 0 0 10.058681101803813 -48.374445627075147 0 -48.374445627075147 -16.37812851916101 0 0 0 0 -1.5660869885649049 -1.0911037992634043 0 -1.0911037992634043 -0.64709449874812819 0 0 0 0 -295.17787213157862 21.817848462266284 0 21.817848462266284 171.91085045701982 0 0 0 0 10.944172200852336 -52.952286975349487 0 -52.952286975349487 4.5469961916531929 0 0 0 0 -16.24420142389863 -31.162828474783851 0 -31.162828474783851 5.3156196966845073 0 0 0 0 25.852193451937637 -9.9692666560147813 0 -9.9692666560147813 11.302871793156726 0 0 0 0 -28.448324975226569 -35.206064744727485 0 -35.206064744727485 6.6126509532671776 0 0 0 0 10.963702689661659 -25.983771592919112 0 -25.983771592919112 4.3587676987804116 0 0 0 0 -19.158851283846161 -31.944501035350697 0 -31.944501035350697 -47.179663801352888 0 0 0 0 -24.688746204847121 -12.025665256983331 0 -12.025665256983331 9.5330016836217055 0 0 0 0 -1.3211723127533332 -41.730790889857872 0 -41.730790889857872 3.6763120573701826 0 0 0 0 6.8372125917021549 -5.2914138540344027 0 -5.2914138540344027 -49.727698106296714 0 0 0 0 9.7441879578364023 8.3098365362811251 0 8.3098365362811251 5.2548002805222271 0 0 0 0 -28.597507612019399 44.239732869814134 0 44.239732869814134 20.888335885663764 0 0 0 0 -25.606282449836726 -49.527457943611353 0 -49.527457943611353 16.736209165604464 0 0 0 0 -0.25293653000693439 -0.20188187814477132 0 -0.20188187814477132 0.038098414077935461 0 0 0 0 0.5152952305057994 0.13391608000670319 0 0.13391608000670319 -0.10406344560378497 0 0 0 0 -0.9836916562562692 -1.2584352837142863 0 -1.2584352837142863 -0.79038355127774196 0 0 0 0 29.496593575340739 -36.134171984460167 0 -36.134171984460167 -47.915503048188796 0 0 0 0 5.3215057103079744 -12.129490356134237 0 -12.129490356134237 18.681624742529117 0 0 0 0 3.9605318157573492 -17.908859141809053 0 -17.908859141809053 -0.051917738987625611 0 0 0 0 7.2332848625919723 -8.1986537738356215 0 -8.1986537738356215 0.037652052487919599 0 0 0 0 0.18720769556811234 -0.15564207938872343 0 -0.15564207938872343 0.093461449715512582 0 0 0 0 -15.392500003097666 -2.6520310964732552 0 -2.6520310964732552 0.68389604028945072 0 0 0 0 -15.375414804306104 -3.928389333021308 0 -3.928389333021308 -0.05073528695413506 0 0 0 0 -22.916014510494279 -10.508752989907668 0 -10.508752989907668 -0.069533418715652995 0 0 0 0 -1.7089427838091069 -12.870539426450268 0 -12.870539426450268 -3.2703187809662122 0 0 0 0 12.975510558417909 -16.13746167820187 0 -16.13746167820187 -5.5515723171684783 0 0 0 0 0.70644403051761628 -1.4866941811585908 0 -1.4866941811585908 -0.54850113070982465 0 0 0 0 -10.058552622496791 0.86670840150906869 0 0.86670840150906869 2.8401062901311809 0 0 0 0 -18.648286681758691 4.2747205407391746 0 4.2747205407391746 -3.6228242840659277 0 0 0 0 -2.5337906577453637 0.11121430534770838 0 0.11121430534770838 1.5900304122167435 0 0 0 0 -19.917671226065067 -11.566386132816888 0 -11.566386132816888 6.7472582266194081 0 0 0 0 -22.923815959305102 -2.6641103737188132 0 -2.6641103737188132 -3.2245248687841013 0 0 0 0 -8.4872486446251614 -4.9026902855370444 0 -4.9026902855370444 -3.6508592900074808 0 0 0 0 -30.128539076955349 -4.9318592979207665 0 -4.9318592979207665 7.5869132153398802 0 0 0 0 -12.312174157217669 -10.279288083944468 0 -10.279288083944468 -3.6335522211128808 0 0 0 0 -12.643781790710278 -3.2606970668514266 0 -3.2606970668514266 -1.4836265939167668 0 0 0 0 -13.064313846032299 -0.17766952249686518 0 -0.17766952249686518 2.0888921923057602 0 0 0 0 -14.507291275647077 0.03091516217546042 0 0.03091516217546042 2.9802059194761124 0 0 0 0 -6.7611830764243948 -0.18173071200476798 0 -0.18173071200476798 0.3884635324600888 0 0 0 0 -5.7344217289137305 2.4057654923092286 0 2.4057654923092286 4.5328086792348756 0 0 0 0 -8.7386667412392853 -7.2244549050062812 0 -7.2244549050062812 -15.996388566319805 0 0 0 0 -1.2684440678639035 -0.48093795913052872 0 -0.48093795913052872 -0.11402183893913459 0 0 0 0 -22.860615153800609 -10.660787594472852 0 -10.660787594472852 -2.7411286261343717 0 0 0 0 -26.296666865880979 -22.853787487979943 0 -22.853787487979943 -31.93258839175763 0 0 0 0 -35.839344305775739 -18.126179083223416 0 -18.126179083223416 -0.016183877303228292 0 0 0 0 -65.301075713832688 -40.465318820928999 0 -40.465318820928999 -15.68559265021252 0 0 0 0 -1.8270547711903262 0.54804243474053038 0 0.54804243474053038 0.61958424562952674 0 0 0 0 -85.71351484409206 -38.020256994437979 0 -38.020256994437979 -6.8101838409250508 0 0 0 0 -73.780382165090032 -28.561070187981709 0 -28.561070187981709 -0.035820866081376315 0 0 0 0 -0.32277550318244153 1.3535904816920685 0 1.3535904816920685 0.57932118839151303 0 0 0 0 7.5628486579698802 8.8611875206391488 0 8.8611875206391488 -8.475373826363807 0 0 0 0 -49.18618582995623 -44.759978681073285 0 -44.759978681073285 -47.545626186679101 0 0 0 0 -8.0688563077765139 7.1623423741701302 0 7.1623423741701302 -1.1519064675783071 0 0 0 0 -13.822189595295555 3.9783969104808605 0 3.9783969104808605 6.714929602244573 0 0 0 0 -30.538583507080602 -11.323256051561657 0 -11.323256051561657 4.4577527921192086 0 0 0 0 -31.584443144991383 -2.9536378213948637 0 -2.9536378213948637 4.5549167781259712 0 0 0 0 -30.904179484235556 -2.7084122169756029 0 -2.7084122169756029 3.5078978582214404 0 0 0 0 -13.058545225108094 5.2350861401656967 0 5.2350861401656967 7.0429284787246598 0 0 0 0 -5.3705024759547086 19.822752780849896 0 19.822752780849896 24.702765835210357 0 0 0 0 -63.141724186527426 2.183855541658815 0 2.183855541658815 7.9427434173264828 0 0 0 0 20.525729745513672 13.285921701530981 0 13.285921701530981 3.6778551910641468 0 0 0 0 -52.165378784246059 3.8753877044378413 0 3.8753877044378413 29.315224627572775 0 0 0 0 0.41670464259186701 42.882374802018774 0 42.882374802018774 8.4990233166795406 0 0 0 0 -11.556170907498622 7.654001697103924 0 7.654001697103924 7.7272151978837957 0 0 0 0 -4.2498173267551813 -2.6973802667522193 0 -2.6973802667522193 1.4558849658739159 0 0 0 0 35.097603419939787 9.8561812784503893 0 9.8561812784503893 17.342626634021997 0 0 0 0 -3.7589816080287441 -1.0169446184070043 0 -1.0169446184070043 0.19394269688106114 0 0 0 0 -36.132720875239102 4.169221504040479 0 4.169221504040479 4.969030212510205 0 0 0 0 -43.84037801377599 1.3003941372724057 0 1.3003941372724057 5.597236133195338 0 0 0 0 -37.064332404691413 -25.980885464422784 0 -25.980885464422784 -75.620008039782334 0 0 0 0 -63.886988531299721 -6.9530253321024702 0 -6.9530253321024702 -8.3978989794406402 0 0 0 0 -0.92778525605172035 -9.9270750286258362 0 -9.9270750286258362 -18.53826351464042 0 0 0 0 -27.321301185454558 -30.802055841766599 0 -30.802055841766599 -29.057562530869319 0 0 0 0 -70.325785772640302 -41.735562640172859 0 -41.735562640172859 -14.877804184328532 0 0 0 0 -63.773364412634919 -61.16686762840591 0 -61.16686762840591 -69.419854356964663 0 0 0 0 -118.62618970000221 -91.185979686194202 0 -91.185979686194202 -52.053404916306263 0 0 0 0 -87.827672579505816 -52.055421796476054 0 -52.055421796476054 -44.999050431559077 0 0 0 0 -47.613281600918526 -52.946636227061056 0 -52.946636227061056 -44.989102028995518 0 0 0 0 -127.4713093095088 -67.347717226972421 0 -67.347717226972421 -0.03618611444959291 0 0 0 0 -85.332428325716819 -64.77341935176706 0 -64.77341935176706 -31.202892236488509 0 0 0 0 -156.05449125068117 -90.382057424360838 0 -90.382057424360838 -16.091871851195791 0 0 0 0 -175.99271650272385 -79.699950087495125 0 -79.699950087495125 0.060019216235267042 0 0 0 0 -279.78673180589976 -94.608496589804702 0 -94.608496589804702 42.848070915766016 0 0 0 0 -195.2755708809018 -158.3328133922567 0 -158.3328133922567 -94.610717484580817 0 0 0 0 -129.58667403314757 -85.174334788351743 0 -85.174334788351743 -18.580565855650775 0 0 0 0 -15.898441115700734 -68.224517850967544 0 -68.224517850967544 -0.017918236536441409 0 0 0 0 -112.73863887620814 -14.838403895104365 0 -14.838403895104365 16.163776238449032 0 0 0 0 -115.42465187864946 -46.025384599522241 0 -46.025384599522241 8.8877013917580712 0 0 0 0 -12.441113008841057 -38.783476772759343 0 -38.783476772759343 11.440406925749731 0 0 0 0 -5.5827796346941696 0.080323928058446015 0 0.080323928058446015 0.32077893719807082 0 0 0 0 -7.6893900859240603 -28.528122765500015 0 -28.528122765500015 24.042664377890787 0 0 0 0 -14.382967645891767 -7.996891563182146 0 -7.996891563182146 52.458611079038064 0 0 0 0 -227.79175613967527 -277.95477223381022 0 -277.95477223381022 -327.92125690357955 0 0 0 0 -2.063731176472281 -0.12925154970923458 0 -0.12925154970923458 0.052045625609752233 0 0 0 0 -129.69553929934864 54.887447052243871 0 54.887447052243871 104.51595419661965 0 0 0 0 -105.49893003843096 -106.48301800164988 0 -106.48301800164988 -148.04881592827473 0 0 0 0 -74.779044146140222 -100.48110673664837 0 -100.48110673664837 -125.20335178279737 0 0 0 0 -103.72337744895754 -138.49257357950322 0 -138.49257357950322 -161.51873894030859 0 0 0 0 -108.14297029446425 -73.126060741820694 0 -73.126060741820694 -59.086451364277451 0 0 0 0 -108.15419509388448 -58.610090760781389 0 -58.610090760781389 -148.6663054454331 0 0 0 0 -280.78449231699483 -71.72685726325642 0 -71.72685726325642 -80.701780214400799 0 0 0 0 -94.743114040977161 -64.993203323645787 0 -64.993203323645787 -96.99151356547776 0 0 0 0 -118.6323196928588 -18.722700611467957 0 -18.722700611467957 -32.118087884270906 0 0 0 0 -102.68788089305281 -29.821729523798489 0 -29.821729523798489 29.746751033485484 0 0 0 0 -14.373633784854974 -14.069000191841926 0 -14.069000191841926 -41.021722993425712 0 0 0 0 -192.3885514555659 -54.075467516911743 0 -54.075467516911743 -31.818956515812062 0 0 0 0 -81.650805894928908 -62.755288553368651 0 -62.755288553368651 -34.586113578543248 0 0 0 0 -48.156914137958665 -36.848581359296759 0 -36.848581359296759 -13.431652039686497 0 0 0 0 -51.985845320766202 -35.71591916991666 0 -35.71591916991666 -1.2425156285287358 0 0 0 0 -134.38048756465651 -54.249871069720754 0 -54.249871069720754 2.448633991810425 0 0 0 0 -7.9754409295510413 34.945621337429486 0 34.945621337429486 26.662270315639802 0 0 0 0 0.06734269192823561 0.032484946472099097 0 0.032484946472099097 0.6426092760777633 0 0 0 0 -125.56732424200891 -137.29881230163673 0 -137.29881230163673 -63.516097960630631 0 0 0 0 -103.91340640421004 -118.28290758774845 0 -118.28290758774845 -47.006714122120179 0 0 0 0 -124.31616375933942 -104.94277105160708 0 -104.94277105160708 -49.848993657639085 0 0 0 0 -164.51499248863911 -158.00117424992175 0 -158.00117424992175 -103.06648234289014 0 0 0 0 -106.19165538173365 -95.004205012274497 0 -95.004205012274497 -21.32657812812252 0 0 0 0 -119.3679466447993 -115.18419002946978 0 -115.18419002946978 -42.540433089136016 0 0 0 0 -102.30460953434158 -121.61523569468713 0 -121.61523569468713 -45.038756793301047 0 0 0 0 -99.537580485671413 -121.06346694319438 0 -121.06346694319438 -46.45360991559113 0 0 0 0 -71.855838195198885 -96.531186840167464 0 -96.531186840167464 -70.240446306646163 0 0 0 0 -62.069579081510255 -89.792953977991687 0 -89.792953977991687 -106.36573558540931 0 0 0 0 -73.287886649044594 -102.43388861473471 0 -102.43388861473471 -51.26913961298601 0 0 0 0 -82.301629477111419 -80.972516036641991 0 -80.972516036641991 -41.6852766761819 0 0 0 0 -55.049538515761014 -59.858610850133516 0 -59.858610850133516 -26.28528603180672 0 0 0 0 -81.381354251757131 -40.492689941687559 0 -40.492689941687559 1.831684401347502 0 0 0 0 -34.957209196470103 -50.820640340116626 0 -50.820640340116626 -51.924762542825647 0 0 0 0 -28.917053904429849 1.5407705161293279 0 1.5407705161293279 11.392550311327909 0 0 0 0 -7.9408147649972776 -1.718617231319393 0 -1.718617231319393 1.0214904698380793 0 0 0 0 -54.806276171610079 -16.713920352421837 0 -16.713920352421837 -0.34338430283605703 0 0 0 0 -2.4351584659655803 -0.44659948371631941 0 -0.44659948371631941 -0.067224818059139047 0 0 0 0 27.628770023849938 -8.5176501543569429 0 -8.5176501543569429 -23.623494966413432 0 0 0 0 -50.150787025819227 -67.740022040468887 0 -67.740022040468887 -100.55036661007045 0 0 0 0 -42.161016170724906 -50.264261819850745 0 -50.264261819850745 -74.11700698746688 0 0 0 0 -65.427847427377856 -80.368835883324437 0 -80.368835883324437 -52.96840133877663 0 0 0 0 -31.596949695263902 -43.332761297924833 0 -43.332761297924833 -20.189232157512265 0 0 0 0 -32.746980075069587 -3.4153828325411268 0 -3.4153828325411268 26.957736730408101 0 0 0 0 -0.32384525192537694 4.6242507343308148 0 4.6242507343308148 5.2360066615437972 0 0 0 0 -2.9879298049418139 -16.257645365234794 0 -16.257645365234794 3.2561584734078224 0 0 0 0 -2.070887739771706 -1.3695599243465395 0 -1.3695599243465395 1.2674867472110509 0 0 0 0 -1.957281336982593 -0.01568468223253916 0 -0.01568468223253916 0.55006790352407542 0 0 0 0 -11.191028511874691 0.15171216144854593 0 0.15171216144854593 2.637818911003321 0 0 0 0 -28.994419395080513 -5.2353181451403827 0 -5.2353181451403827 4.7392450448271859 0 0 0 0 -46.224323478842052 -14.313715526215674 0 -14.313715526215674 -2.1835557108024659 0 0 0 0 -1.6800485914128416 1.2495618827908661 0 1.2495618827908661 -0.64447978196972766 0 0 0 0 45.258647365247498 42.914792314706602 0 42.914792314706602 -1.1164774591370588 0 0 0 0 30.638985341543048 31.744073485900799 0 31.744073485900799 21.100243797296883 0 0 0 0 35.979968946398003 -1.6019528337837983 0 -1.6019528337837983 -55.273624816123629 0 0 0 0 1.0205081861380023 4.6609883256773035 0 4.6609883256773035 0.55931857044881506 0 0 0 0 -36.80574035067184 -15.74328894089922 0 -15.74328894089922 -3.1421466881707829 0 0 0 0 -20.125391835017581 -0.14800500914880388 0 -0.14800500914880388 0.34560560201638424 0 0 0 0 -12.201261542767833 6.1726981713749272 0 6.1726981713749272 8.0691121703604018 0 0 0 0 29.785832972636854 27.865959565261164 0 27.865959565261164 39.205424661766301 0 0 0 0 -0.64876533329378105 0.44035431982170437 0 0.44035431982170437 -0.11891004992867238 0 0 0 0 48.683127384678301 43.470331166608901 0 43.470331166608901 18.651767395167326 0 0 0 0 -109.54396819532303 -61.718993759790919 0 -61.718993759790919 -7.5538282617392269 0 0 0 0 -53.922194055635373 -26.985941410180203 0 -26.985941410180203 -29.560007102600593 0 0 0 0 -47.633081713789579 -9.3484846674361961 0 -9.3484846674361961 -3.1565254877459665 0 0 0 0 -46.9402913214617 -8.6199108299358613 0 -8.6199108299358613 2.4842175510093512 0 0 0 0 -49.102279691764124 -11.517739552611602 0 -11.517739552611602 -1.282958083472522 0 0 0 0 -57.247663803366777 -7.9916519099607513 0 -7.9916519099607513 6.3677513408588311 0 0 0 0 -43.947241374066834 1.6887454822540349 0 1.6887454822540349 6.0391814110435007 0 0 0 0 -0.1500355440611898 -0.14107147025772981 0 -0.14107147025772981 -0.28477217019628842 0 0 0 0 50.889847169783934 -3.2574383942788927 0 -3.2574383942788927 -12.76464144136753 0 0 0 0 -19.861262322081529 -26.10864019587666 0 -26.10864019587666 -1.1208751050829662 0 0 0 0 -39.973441948865002 -2.676854875663139 0 -2.676854875663139 25.527203886635334 0 0 0 0 -74.00061323560476 -13.855227475618904 0 -13.855227475618904 17.437237929946605 0 0 0 0 -39.000683350215695 -12.910913464530495 0 -12.910913464530495 -6.7266511397747308 0 0 0 0 -113.26946761068155 -5.651634187204337 0 -5.651634187204337 18.294323536128104 0 0 0 0 -6.7872540883863621 12.973482036160362 0 12.973482036160362 -37.126625897102031 0 0 0 0 0.17873358713402965 -0.40613847394549474 0 -0.40613847394549474 -0.51075414900976313 0 0 0 0 29.255633444900013 -37.25960661168051 0 -37.25960661168051 -21.608052548009709 0 0 0 0 -67.046902490074899 0.26581377077525303 0 0.26581377077525303 0.30374465804834472 0 0 0 0 -35.055504976196062 -1.5950552383976628 0 -1.5950552383976628 -2.5268310905289582 0 0 0 0 -23.166945920653689 -9.040502899205336 0 -9.040502899205336 21.391046820627707 0 0 0 0 -45.21781069941062 -20.978889042213268 0 -20.978889042213268 19.424848493122681 0 0 0 0 -52.611429351471088 18.484762003327248 0 18.484762003327248 20.937876500024572 0 0 0 0 -16.600482364035997 10.661419169121391 0 10.661419169121391 22.394210755457912 0 0 0 0 -51.436751410776196 -13.02691405196326 0 -13.02691405196326 7.5764673551079653 0 0 0 0 -12.31286743715838 6.9079733391762748 0 6.9079733391762748 7.7187417716416089 0 0 0 0 6.2802647059706942 57.225740563357022 0 57.225740563357022 16.843284362332042 0 0 0 0 -499.10675778330415 -141.96601032935158 0 -141.96601032935158 68.21807977506414 0 0 0 0 -267.07179682208698 -303.50244139156246 0 -303.50244139156246 -155.25883430284327 0 0 0 0 -0.94121688656430536 -0.36638855001136683 0 -0.36638855001136683 0.22717339701698841 0 0 0 0 -278.74152228827325 -56.419421975983653 0 -56.419421975983653 66.48721611233367 0 0 0 0 -310.69843077567975 -22.651647419633207 0 -22.651647419633207 -0.11345662692613431 0 0 0 0 -182.52195827538526 -87.791612649442385 0 -87.791612649442385 -16.547149578927925 0 0 0 0 -93.664878628255792 -39.905113491021687 0 -39.905113491021687 -18.812826296031009 0 0 0 0 -183.57854460653951 -59.060760006605562 0 -59.060760006605562 2.9023805559696321 0 0 0 0 -168.60012997657759 -93.178551137578665 0 -93.178551137578665 -30.981959539427827 0 0 0 0 -194.59440129195355 -60.599618293159907 0 -60.599618293159907 -20.259953096704102 0 0 0 0 -175.94449309672746 -205.44959670744851 0 -205.44959670744851 -173.21514645778475 0 0 0 0 -233.37080415976743 -100.28302435661473 0 -100.28302435661473 -47.198091844334002 0 0 0 0 -62.549512426379806 -55.40171910563307 0 -55.40171910563307 -67.677078536849422 0 0 0 0 -72.928524780619227 -49.248496899688533 0 -49.248496899688533 -23.617873842460483 0 0 0 0 -5.942893792207542 -12.434421695834452 0 -12.434421695834452 -33.283724120869444 0 0 0 0 -22.875300922288261 4.9934317378505284 0 4.9934317378505284 14.939544256736568 0 0 0 0 -10.120923929518455 0.29381111437266938 0 0.29381111437266938 1.123767816164577 0 0 0 0 -72.339643252151291 -44.857742136719679 0 -44.857742136719679 -21.573043767614791 0 0 0 0 -0.19855043629708646 -0.015072680573368302 0 -0.015072680573368302 0.026064671449603977 0 0 0 0 -93.245199069778209 -17.091645294750393 0 -17.091645294750393 -0.05207763567244042 0 0 0 0 -0.17730442004972602 -0.056519659409808298 0 -0.056519659409808298 -0.02655376316238639 0 0 0 0 -37.200516699796026 -8.4713936603303566 0 -8.4713936603303566 -0.067118001851749265 0 0 0 0 -70.977610843476214 -45.836947352044 0 -45.836947352044 -16.58818619210966 0 0 0 0 -24.300701084641332 -17.314022463998281 0 -17.314022463998281 -23.438152603336857 0 0 0 0 -33.496607197920639 -9.2669282081746207 0 -9.2669282081746207 4.5645615194348768 0 0 0 0 -17.785574111825554 -24.267058844047703 0 -24.267058844047703 -12.882072729878256 0 0 0 0 0.38008711291410435 -0.21438007668028902 0 -0.21438007668028902 0.34839489803750584 0 0 0 0 -4.6365755083770637 -2.9406829623509303 0 -2.9406829623509303 -0.0097455393260467947 0 0 0 0 -0.38785063065552094 -28.771956876970584 0 -28.771956876970584 -4.0467560639020235 0 0 0 0 54.644798248368716 -18.341958181557864 0 -18.341958181557864 -18.217021755584113 0 0 0 0 -9.0872353332197235 -7.99528649965103 0 -7.99528649965103 15.145898593477369 0 0 0 0 -8.724445417795323 -9.2819478686189711 0 -9.2819478686189711 7.5351627425984589 0 0 0 0 3.0842899068884435 5.3271817448346397 0 5.3271817448346397 -13.170344351940116 0 0 0 0 -1.428693014124125 -1.004058197966085 0 -1.004058197966085 1.2394792227959579 0 0 0 0 -3.3223238812720126 -0.43305808302395477 0 -0.43305808302395477 0.18216889620878374 0 0 0 0 -8.4393442444159277 0.76752277966023197 0 0.76752277966023197 0.70680269701065557 0 0 0 0 -66.856357197671969 -68.795080684075401 0 -68.795080684075401 -57.589764556071088 0 0 0 0 -64.072180700321951 -73.42870639529859 0 -73.42870639529859 -56.979080253872098 0 0 0 0 -89.108002336053687 -109.05917157327048 0 -109.05917157327048 -38.019307030346091 0 0 0 0 -100.83233704496888 -128.46605318446836 0 -128.46605318446836 -69.646344507708761 0 0 0 0 -61.548615243522363 -58.992344862500602 0 -58.992344862500602 -45.668551613483885 0 0 0 0 18.11043502146731 -15.836591547946867 0 -15.836591547946867 38.150886124536896 0 0 0 0 -58.945050881016869 -43.49024218222857 0 -43.49024218222857 30.30654093705175 0 0 0 0 -36.636458267905255 -82.090297909232277 0 -82.090297909232277 -26.191127051814817 0 0 0 0 -86.0820111315752 -87.421160518344095 0 -87.421160518344095 -0.13408531465258022 0 0 0 0 -94.451745885746277 -110.58847292291429 0 -110.58847292291429 -12.218724316716798 0 0 0 0 -123.36931945186916 -106.18946712434656 0 -106.18946712434656 -12.121019310554438 0 0 0 0 -53.268727833377852 -85.826000859068955 0 -85.826000859068955 -18.157581422171297 0 0 0 0 -92.631513441487186 -136.55192955342454 0 -136.55192955342454 -59.154597840357155 0 0 0 0 -101.29607686812597 -132.97628466707269 0 -132.97628466707269 -38.974895066542146 0 0 0 0 -99.786901715061617 -126.27882739510085 0 -126.27882739510085 -54.274652877220888 0 0 0 0 -96.227094162888534 -131.43552574706189 0 -131.43552574706189 -58.451325960368251 0 0 0 0 -94.349563514956571 -126.58255704766478 0 -126.58255704766478 -65.983447964147075 0 0 0 0 -86.422012560347866 -126.00123601555009 0 -126.00123601555009 -92.226356870548443 0 0 0 0 -48.977671604849093 -74.112719623020269 0 -74.112719623020269 -90.304619537186682 0 0 0 0 -40.739781987031165 -94.893061904909473 0 -94.893061904909473 -196.52613892136412 0 0 0 0 -102.01964605785815 -205.51872278389646 0 -205.51872278389646 -356.78558815833594 0 0 0 0 -131.2265672724244 -97.966674096535343 0 -97.966674096535343 -114.28082650890349 0 0 0 0 -140.21917079902414 -165.50472125391434 0 -165.50472125391434 -93.878595980529326 0 0 0 0 -123.41199664559531 -27.443859445839234 0 -27.443859445839234 -67.183827657118457 0 0 0 0 -154.28894844543902 -120.15836779923865 0 -120.15836779923865 -48.378042907348416 0 0 0 0 -213.50350345163133 -25.509187191035124 0 -25.509187191035124 -146.97414123408976 0 0 0 0 -273.08482712493969 -176.82111569569062 0 -176.82111569569062 -138.92000072752722 0 0 0 0 -109.95194291920234 -81.122514087134391 0 -81.122514087134391 -117.32717770529116 0 0 0 0 -80.180433167958654 -12.343029682295747 0 -12.343029682295747 -131.02147366976811 0 0 0 0 -82.350678663159442 11.912050430815537 0 11.912050430815537 11.710379329701723 0 0 0 0 -50.113460897367986 -66.533219366383818 0 -66.533219366383818 -46.385336317096829 0 0 0 0 -75.395471786572671 -86.861763780644367 0 -86.861763780644367 -43.906467050317616 0 0 0 0 -116.59064666763152 -69.986226898710058 0 -69.986226898710058 25.343749535534009 0 0 0 0 -46.095751563199883 -25.186938185076116 0 -25.186938185076116 26.415271227432836 0 0 0 0 -47.946221237216378 -11.78296100249824 0 -11.78296100249824 90.885288767324084 0 0 0 0 -80.0510482966165 -80.208361657152182 0 -80.208361657152182 18.805588192677646 0 0 0 0 -36.607353177250097 -26.107774982782708 0 -26.107774982782708 55.243230104913607 0 0 0 0 -48.937522560778916 53.01126598014207 0 53.01126598014207 149.89062458772776 0 0 0 0 -10.710834142072379 0.9760805076552197 0 0.9760805076552197 0.7383718324930153 0 0 0 0 -13.674545474717888 -50.604291957321038 0 -50.604291957321038 44.893160436692312 0 0 0 0 -48.852889264508121 26.087479560926084 0 26.087479560926084 17.491510519575542 0 0 0 0 -8.9646557366436213 0.95619013515224616 0 0.95619013515224616 0.38936526176492403 0 0 0 0 -19.880713444818866 -91.8318648411352 0 -91.8318648411352 -96.705634217715115 0 0 0 0 -162.18671634505154 -107.33073345420061 0 -107.33073345420061 -75.286786867473694 0 0 0 0 -33.527997137295188 97.865641797518819 0 97.865641797518819 156.64942519483682 0 0 0 0 -13.262752706647007 -44.840389994673394 0 -44.840389994673394 48.983449060084595 0 0 0 0 -68.447367644588667 -62.090410129043228 0 -62.090410129043228 -61.390649735175415 0 0 0 0 -112.17219730439137 -63.484702654399143 0 -63.484702654399143 -141.73846895331516 0 0 0 0 -220.52643231804541 9.2945440266678645 0 9.2945440266678645 -79.790979796364425 0 0 0 0 -60.517153912062895 -33.175155636249684 0 -33.175155636249684 23.255756428597564 0 0 0 0 -50.426533918306973 55.000267619336768 0 55.000267619336768 -72.884866036506978 0 0 0 0 -210.99115227202492 110.69556786106466 0 110.69556786106466 8.7121122473497259 0 0 0 0 -498.76148835809181 187.08142702297707 0 187.08142702297707 3.0514041314311089 0 0 0 0 -496.53031786131396 -338.19274764997851 0 -338.19274764997851 -254.56010728102507 0 0 0 0 -3.6505525621414563 0.34429837858456391 0 0.34429837858456391 -0.27073065204026486 0 0 0 0 -44.945424228159027 238.39932343354533 0 238.39932343354533 -115.19188891424756 0 0 0 0 -128.64872919901791 -122.25025767480304 0 -122.25025767480304 -113.47658529139122 0 0 0 0 -102.69787053052005 -65.701140694415898 0 -65.701140694415898 -81.311719142734461 0 0 0 0 -1.1527900034625347 -0.57280756065373417 0 -0.57280756065373417 0.19841950226639787 0 0 0 0 -437.04301005562957 -139.228644221053 0 -139.228644221053 -14.94119315517165 0 0 0 0 -327.66970691184997 -120.24776485556185 0 -120.24776485556185 -11.687502643584569 0 0 0 0 -499.87112090590017 -62.409340266067474 0 -62.409340266067474 22.317846010913367 0 0 0 0 -500.09972622598383 30.87188731721638 0 30.87188731721638 16.170864825913007 0 0 0 0 -310.11626837103722 -17.341535909697981 0 -17.341535909697981 19.213488099952144 0 0 0 0 -272.73504863973585 -77.167732710056228 0 -77.167732710056228 -41.12224725485855 0 0 0 0 -158.08324131955669 -42.057171464360223 0 -42.057171464360223 -98.202770092268878 0 0 0 0 -124.80149291529415 -18.17600535216927 0 -18.17600535216927 -93.769120204205933 0 0 0 0 -111.61113910044514 -55.652323418154673 0 -55.652323418154673 -121.75001973656738 0 0 0 0 -161.99125854008844 -79.211445930993378 0 -79.211445930993378 -118.70699539757419 0 0 0 0 -282.61955370528767 -69.113268783702836 0 -69.113268783702836 -41.518304481134408 0 0 0 0 -170.89633866998065 -127.96195040545825 0 -127.96195040545825 -76.494662544209874 0 0 0 0 -134.03987989804955 -48.146983427457755 0 -48.146983427457755 -16.691704199645741 0 0 0 0 -96.457815089098403 -69.527296983658232 0 -69.527296983658232 -80.212931861574404 0 0 0 0 -105.38024236256842 -68.895040837031019 0 -68.895040837031019 -40.59580990207435 0 0 0 0 -66.186574292504247 13.446630453071467 0 13.446630453071467 -26.218494014781299 0 0 0 0 -152.06194210725971 -102.50434242721646 0 -102.50434242721646 -74.009875402801526 0 0 0 0 -105.68596763404048 -54.155774228642457 0 -54.155774228642457 -215.76138607087103 0 0 0 0 -147.62544329211141 -140.90805805173756 0 -140.90805805173756 -171.13386660386223 0 0 0 0 -238.58523492963468 -51.526693845994046 0 -51.526693845994046 12.074117692400591 0 0 0 0 -85.387549679926451 -32.481749773439688 0 -32.481749773439688 -51.597332828407019 0 0 0 0 -89.8502177405353 21.335589033973449 0 21.335589033973449 -9.5939709389802772 0 0 0 0 -105.10250061625356 43.785135247695621 0 43.785135247695621 21.702189936195339 0 0 0 0 -2.5806564151270237 -0.40906512315920618 0 -0.40906512315920618 -0.16329848422432502 0 0 0 0 -4.5535907079184881 -18.532273651697498 0 -18.532273651697498 4.1172631019526307 0 0 0 0 0.31055362230199535 1.0737424482048255 0 1.0737424482048255 -30.407383734337827 0 0 0 0 -27.01898226182675 0.11145599028349906 0 0.11145599028349906 10.06205850466867 0 0 0 0 -29.604573043764503 13.782089190177246 0 13.782089190177246 -24.210918913902219 0 0 0 0 -78.446543685447068 14.387555650025519 0 14.387555650025519 13.709975249200625 0 0 0 0 -56.859525044188558 10.692853240430694 0 10.692853240430694 13.458488116012724 0 0 0 0 -7.1105041175005681 12.59701779100201 0 12.59701779100201 -8.9246436889964329 0 0 0 0 -48.446358608637638 -4.8861821025081831 0 -4.8861821025081831 7.6370595212486592 0 0 0 0 -57.329606722003973 1.3832461878930999 0 1.3832461878930999 5.5642428920372566 0 0 0 0 8.8575458669238287 3.347358018355294 0 3.347358018355294 3.1542928891033739 0 0 0 0 0.64542618072737312 0.2598235760647345 0 0.2598235760647345 -0.20410579631603221 0 0 0 0 -72.248989151015849 5.0871174182840377 0 5.0871174182840377 11.42446085938569 0 0 0 0 -55.429155809118129 2.2578018367319821 0 2.2578018367319821 -4.8242600358305197 0 0 0 0 -61.433048877599504 -1.2395597002581624 0 -1.2395597002581624 1.5991529197034993 0 0 0 0 -56.570778428131234 1.4384146892790284 0 1.4384146892790284 -5.2412367599894765 0 0 0 0 -56.358394914133896 -5.6338553222918542 0 -5.6338553222918542 10.863033707464155 0 0 0 0 9.7769148615770973 1.824722371027292 0 1.824722371027292 5.0955322467850692 0 0 0 0 -5.1765650436263968 21.848216116697387 0 21.848216116697387 -15.71686039123415 0 0 0 0 -3.601565606315825 3.4186584626774259 0 3.4186584626774259 1.780151730352467 0 0 0 0 -4.6073685071710511 9.3028602580030366 0 9.3028602580030366 2.236661700508018 0 0 0 0 -30.65554119711669 19.258433779648573 0 19.258433779648573 0.11303253507263378 0 0 0 0 4.2597977620418668 1.2319840071763348 0 1.2319840071763348 -0.25242118476883341 0 0 0 0 -61.492131300432447 7.4062292961644509 0 7.4062292961644509 8.9043431991919846 0 0 0 0 -53.214488885332685 7.4725260290647313 0 7.4725260290647313 0.6659037431095669 0 0 0 0 -32.412158281415373 3.3827117584773077 0 3.3827117584773077 -1.1201616487220463 0 0 0 0 -49.263437905797673 -5.3527980401936306 0 -5.3527980401936306 1.7938065385810518 0 0 0 0 -47.562127513424002 0.73008116518920652 0 0.73008116518920652 3.2747682276666694 0 0 0 0 -43.423499389993594 -2.0778874480238301 0 -2.0778874480238301 1.1193117136222206 0 0 0 0 -52.777867161026734 -1.8616630980146027 0 -1.8616630980146027 1.6250858260673908 0 0 0 0 -50.800619766347154 -2.2218186282933843 0 -2.2218186282933843 0.86406655036419266 0 0 0 0 -61.351497395738988 -5.5608838340762432 0 -5.5608838340762432 3.9904626782799966 0 0 0 0 -56.287182217220561 -9.3743063034497052 0 -9.3743063034497052 6.6999289563682396 0 0 0 0 -58.596799844468478 -4.9618912502912984 0 -4.9618912502912984 3.265063643716303 0 0 0 0 -50.618102395472306 -9.6355649683445534 0 -9.6355649683445534 -5.0021961997022188 0 0 0 0 -40.898278045278857 1.7130993755153252 0 1.7130993755153252 -3.5226750362329873 0 0 0 0 -50.196738160881978 -12.490841708641408 0 -12.490841708641408 4.6451013273288737 0 0 0 0 2.7279314251445612 7.7458010712354053 0 7.7458010712354053 5.8595448132850834 0 0 0 0 -0.82070807857086692 -0.62172886705990038 0 -0.62172886705990038 3.097929929434736 0 0 0 0 -25.870390300570762 8.8951303864133706 0 8.8951303864133706 -0.035895349452324865 0 0 0 0 -0.76052436862722317 -0.23003811807258323 0 -0.23003811807258323 0.56247026635398945 0 0 0 0 -23.475898354745368 10.989538581695456 0 10.989538581695456 11.081705739744962 0 0 0 0 23.831993610555855 10.390399325344362 0 10.390399325344362 1.5610222904871307 0 0 0 0 -20.24399100969822 26.257708580309497 0 26.257708580309497 6.1106572214073651 0 0 0 0 -0.13902828300411585 0.092617027058121693 0 0.092617027058121693 1.7154068828929148 0 0 0 0 -57.522488961285489 -4.3984898606490574 0 -4.3984898606490574 -0.17855812135167071 0 0 0 0 5.8562658250211825 37.844236674315539 0 37.844236674315539 28.011604935092095 0 0 0 0 -0.11812412479785728 0.042180461287774307 0 0.042180461287774307 0.46862080012736013 0 0 0 0 -90.660596510572759 -13.685353587381847 0 -13.685353587381847 2.427277892672322 0 0 0 0 -67.476217071041901 -18.081152841682581 0 -18.081152841682581 14.418959484524919 0 0 0 0 -50.517603558726023 -56.220922403544805 0 -56.220922403544805 -52.123654501584866 0 0 0 0 -72.721560176374624 -76.033204350788992 0 -76.033204350788992 -82.874945660970639 0 0 0 0 -261.97511884640699 -167.64589646837348 0 -167.64589646837348 -74.012092090197768 0 0 0 0 -129.37845407855093 -67.353975597093466 0 -67.353975597093466 -50.459018003638448 0 0 0 0 -59.139312598138531 -12.106056626694723 0 -12.106056626694723 -6.7461865012065232 0 0 0 0 -27.159890748295311 -89.054293725282363 0 -89.054293725282363 -99.154301945353211 0 0 0 0 -48.480958568572532 -25.816197230030241 0 -25.816197230030241 4.0341638617956619 0 0 0 0 -22.700058629759951 -9.7290777017808523 0 -9.7290777017808523 11.426050514375333 0 0 0 0 -21.769418098309984 -8.2866376472493215 0 -8.2866376472493215 8.9101771666735203 0 0 0 0 -10.732347638394458 -4.3548427319000211 0 -4.3548427319000211 6.9239048858057686 0 0 0 0 -14.058785028626517 -4.1604290182585828 0 -4.1604290182585828 10.637065938408455 0 0 0 0 -11.725820978244883 -13.968997726755219 0 -13.968997726755219 5.722754215915046 0 0 0 0 -17.422580276394001 -10.248687879047907 0 -10.248687879047907 5.0703933334348221 0 0 0 0 -28.219053556712879 -17.680328626132393 0 -17.680328626132393 6.6655119365274231 0 0 0 0 -11.065585931133683 -27.998258632636976 0 -27.998258632636976 -5.9727864169282157 0 0 0 0 0.71343357088577619 -1.2842947867952628 0 -1.2842947867952628 -2.4345471825469907 0 0 0 0 -8.8154237993676361 -10.596866176543472 0 -10.596866176543472 -4.0049283672129832 0 0 0 0 7.7405259998931797 -13.865202142849398 0 -13.865202142849398 -5.0803244741147182 0 0 0 0 -514.87080643456375 -214.70957306802944 0 -214.70957306802944 -88.018192348552162 0 0 0 0 -499.73416214658209 -199.99174802582718 0 -199.99174802582718 -74.306029005740399 0 0 0 0 -500.04289673582662 -210.48861306634993 0 -210.48861306634993 -98.736348514244582 0 0 0 0 -542.49786779825536 -238.95776835052527 0 -238.95776835052527 -116.42965252123635 0 0 0 0 58.532565500539931 -5.4801960014228115 0 -5.4801960014228115 -26.037024404197076 0 0 0 0 -0.10290343342137298 -0.41431673878062192 0 -0.41431673878062192 -0.78438901355668489 0 0 0 0 -270.92332258884744 -121.50441655921128 0 -121.50441655921128 -92.55450638466489 0 0 0 0 -399.23181637339985 -195.22322218421974 0 -195.22322218421974 -133.56797441603695 0 0 0 0 -499.9322604711918 -183.04383055572359 0 -183.04383055572359 -33.810442153625687 0 0 0 0 -62.859218361537387 2.5632104489367293 0 2.5632104489367293 -4.3430437105280362 0 0 0 0 -109.45080697084632 4.1935163682601342 0 4.1935163682601342 -0.090136540153253009 0 0 0 0 -89.968109561672463 -1.4005858427160547 0 -1.4005858427160547 6.2621620010124843 0 0 0 0 -43.982510488638582 5.710937320250423 0 5.710937320250423 -2.6276890996450675 0 0 0 0 -63.427013920694208 2.897549841840771 0 2.897549841840771 -1.0579809823543656 0 0 0 0 -50.318971359161878 12.040273974213164 0 12.040273974213164 0.072743139173780946 0 0 0 0 -0.36310096838043648 -0.41748749460405232 0 -0.41748749460405232 -0.069065570810155741 0 0 0 0 -11.24057308992451 19.313897898908635 0 19.313897898908635 -8.3625559675115255 0 0 0 0 -1.5124846043459357 -1.5671325245554533 0 -1.5671325245554533 -1.7674817266074729 0 0 0 0 -1.1904266998963067 -28.551314295339466 0 -28.551314295339466 44.400906433675345 0 0 0 0 -38.301880801322113 -3.2902755242075727 0 -3.2902755242075727 -9.4362631256437908 0 0 0 0 -54.527445773082036 15.866048739649898 0 15.866048739649898 -14.96080756304741 0 0 0 0 -158.5541138100034 14.561539671784999 0 14.561539671784999 2.3723552315334473 0 0 0 0 -107.66154778768578 -40.565178784593854 0 -40.565178784593854 -42.514263263044427 0 0 0 0 -159.76230835734805 -48.62003333837572 0 -48.62003333837572 -9.0791172718490998 0 0 0 0 -116.25353377017927 -8.956077508915314 0 -8.956077508915314 -27.887155918748476 0 0 0 0 -98.786339056510769 -22.760663328373084 0 -22.760663328373084 -17.474629516379309 0 0 0 0 2.3158612067991271 -4.8172604707665414 0 -4.8172604707665414 0.021386422938576288 0 0 0 0 -1.7092124814917042 -2.9723698113393766 0 -2.9723698113393766 19.684874472593037 0 0 0 0 8.1900140699472104 -9.6575173341582286 0 -9.6575173341582286 1.0670470777508854 0 0 0 0 -0.93436873561016753 -0.23607937319414241 0 -0.23607937319414241 0.53948966236720786 0 0 0 0 -36.8073972497059 -105.06979877448998 0 -105.06979877448998 -85.779575065291851 0 0 0 0 -0.51221526534859052 0.33061954780915137 0 0.33061954780915137 -0.30756664369599562 0 0 0 0 1.6703106758632202 -6.4411993455523771 0 -6.4411993455523771 -33.16610165758766 0 0 0 0 5.3963243522794073 9.5417347831375992 0 9.5417347831375992 -19.740525793155939 0 0 0 0 -63.696666362702672 -39.403498056340482 0 -39.403498056340482 -3.2934675760586742 0 0 0 0 -20.839310565158485 -26.278417557596526 0 -26.278417557596526 -17.233773111725895 0 0 0 0 -46.075103811161171 -72.576193910726943 0 -72.576193910726943 -68.181383424208093 0 0 0 0 -89.442349375783124 -40.268314640522931 0 -40.268314640522931 -2.4802841463738332 0 0 0 0 -65.604246591172341 -41.361806557773889 0 -41.361806557773889 -2.5429279831343692 0 0 0 0 -21.492518370618654 -33.328087504550524 0 -33.328087504550524 -24.204631640748175 0 0 0 0 -114.84597135283184 -15.463622069587473 0 -15.463622069587473 2.4801442340492486 0 0 0 0 -92.4017394077473 -44.645443423486086 0 -44.645443423486086 -8.852642435592827 0 0 0 0 -80.311940350222358 -22.846278488911366 0 -22.846278488911366 3.5724249426110646 0 0 0 0 -68.559751936294219 -24.268988709251175 0 -24.268988709251175 6.9501718025762784 0 0 0 0 -63.192401532149233 -23.905586523940201 0 -23.905586523940201 5.6294099030974394 0 0 0 0 -86.839634413693602 -24.419507295734434 0 -24.419507295734434 7.8699539196297792 0 0 0 0 -47.262866574903455 -35.262984576596637 0 -35.262984576596637 -2.3718141015259562 0 0 0 0 -63.293793263141197 -32.955498247055857 0 -32.955498247055857 1.6874816362865204 0 0 0 0 -56.722009581471525 -30.230023607775152 0 -30.230023607775152 2.8175773357202161 0 0 0 0 -56.568372224661289 -27.972607496062892 0 -27.972607496062892 -1.1403801164179939 0 0 0 0 -53.093448616309161 -5.9025794939140042 0 -5.9025794939140042 8.3801542195556067 0 0 0 0 -45.991867249977759 -21.115056147737846 0 -21.115056147737846 2.2523345586719188 0 0 0 0 -50.266068204819021 -5.6213159286037353 0 -5.6213159286037353 6.9286219910567297 0 0 0 0 -50.423809500405241 -5.8295551559763226 0 -5.8295551559763226 7.4159053160083204 0 0 0 0 -41.03717541431979 -9.4878491037143249 0 -9.4878491037143249 2.6078974765270004 0 0 0 0 -45.296640348575238 -6.779133848246147 0 -6.779133848246147 7.1247461799625853 0 0 0 0 -49.91077955230503 -4.329390584324301 0 -4.329390584324301 7.7371011614477538 0 0 0 0 -64.847325898470217 -4.9515416329895743 0 -4.9515416329895743 7.6881217332525011 0 0 0 0 -58.460987104248488 -7.683474857948795 0 -7.683474857948795 7.4632623662362221 0 0 0 0 -44.214565918893641 0.78995529864948821 0 0.78995529864948821 4.5317850736059881 0 0 0 0 -63.391946836262377 0.090748908390168026 0 0.090748908390168026 5.253537511797731 0 0 0 0 -61.414687629619948 -7.4185232709564843 0 -7.4185232709564843 4.9946066352765683 0 0 0 0 -43.472139005294594 3.9569949392862327 0 3.9569949392862327 1.0905816266449619 0 0 0 0 -43.685838767384666 -0.2273503613507728 0 -0.2273503613507728 5.9181641816567208 0 0 0 0 -27.694800723669687 8.4767218277941083 0 8.4767218277941083 1.1126189166115239 0 0 0 0 -19.469304552035283 0.75955829534359509 0 0.75955829534359509 0.22210639455806813 0 0 0 0 -25.002298808252817 -3.4549697588306572 0 -3.4549697588306572 -0.1271267792708386 0 0 0 0 -16.978529776408323 6.8936389209275148 0 6.8936389209275148 0.34071197291483202 0 0 0 0 -26.939668377242924 -2.717936966200341 0 -2.717936966200341 0.76834396712638409 0 0 0 0 -42.602168048480962 -1.2374155744578275 0 -1.2374155744578275 5.7396686717775083 0 0 0 0 -29.733897447040363 1.8793132813134434 0 1.8793132813134434 4.4225516184037588 0 0 0 0 -23.443714176599315 -14.915717004057115 0 -14.915717004057115 -3.1294722886600823 0 0 0 0 -28.539379672514769 -7.5541380896629562 0 -7.5541380896629562 3.2594870710263422 0 0 0 0 -39.400845774617665 -6.1130511106275662 0 -6.1130511106275662 4.1598959084667513 0 0 0 0 -6.1061855844009187 -6.397183654033114 0 -6.397183654033114 -5.4584172185022908 0 0 0 0 -6.2781801773512598 8.6949770672208615 0 8.6949770672208615 32.754855585876385 0 0 0 0 9.7754787785961526 14.2039781382814 0 14.2039781382814 8.972542684504333 0 0 0 0 -7.1507566934412257 1.5445215603228295 0 1.5445215603228295 4.5483436962828172 0 0 0 0 -1.7595424107080913 2.3102916084986358 0 2.3102916084986358 -0.68164719775177396 0 0 0 0 -9.9629654543605284 1.2601740757473863 0 1.2601740757473863 5.7917503090498883 0 0 0 0 -5.336455792542381 9.4060620069337162 0 9.4060620069337162 -2.3138388445993314 0 0 0 0 -17.832395165255548 7.2477864247958905 0 7.2477864247958905 5.3374106930373273 0 0 0 0 -4.6767413411343313 0.64858124158161701 0 0.64858124158161701 1.6406743550290876 0 0 0 0 -16.911219881441866 -3.6017702371710953 0 -3.6017702371710953 3.1682511208638857 0 0 0 0 -6.7651180992851572 -0.73092809060152497 0 -0.73092809060152497 2.4520300504110026 0 0 0 0 -10.603934733449023 3.0721122744702143 0 3.0721122744702143 0.30950356289304182 0 0 0 0 -4.5702770510614652 2.7777551614715943 0 2.7777551614715943 3.4145463676068832 0 0 0 0 -9.2838165600242064 1.2980775693464892 0 1.2980775693464892 0.51569161395158147 0 0 0 0 -0.089628465105738186 1.5000323158665179 0 1.5000323158665179 0.89316474947606395 0 0 0 0 -3.8832569682344911 3.7116183381299379 0 3.7116183381299379 -0.16575673340230423 0 0 0 0 -5.180653569421338 -3.4465323622149242 0 -3.4465323622149242 -4.2480698360006954 0 0 0 0 -18.722072167763599 2.8513149127797419 0 2.8513149127797419 5.8283426908824367 0 0 0 0 -7.2768100439752743 -4.648476353566366 0 -4.648476353566366 1.3536835272311691 0 0 0 0 -8.0030819054160052 1.0202510433348042 0 1.0202510433348042 4.4050553315440215 0 0 0 0 -0.88701388013396532 0.18347383528879924 0 0.18347383528879924 0.81436510362974524 0 0 0 0 -7.018701186438534 -0.81822846168538965 0 -0.81822846168538965 0.38301518756920394 0 0 0 0 -7.1552011728981597 -8.998598328794003 0 -8.998598328794003 15.821174841240577 0 0 0 0 -2.2087501570832409 -1.6375449849889527 0 -1.6375449849889527 1.2800795905815596 0 0 0 0 -12.630773626937298 -4.0354962083490022 0 -4.0354962083490022 1.5180860581148607 0 0 0 0 -12.71649105569486 -1.403410815209071 0 -1.403410815209071 1.3530854425680303 0 0 0 0 -11.888067394454993 -3.4265188776959157 0 -3.4265188776959157 0.44635082224040451 0 0 0 0 -7.0348280043331215 -2.703702667266715 0 -2.703702667266715 0.35111053513480672 0 0 0 0 -1.9913757949876594 1.708109524488556 0 1.708109524488556 1.8953948338361832 0 0 0 0 -14.037256613599311 -5.9048375404889555 0 -5.9048375404889555 -0.44938306560277397 0 0 0 0 -10.464162111833502 -6.0967050656085746 0 -6.0967050656085746 -1.9766073753663989 0 0 0 0 11.484195826894393 2.7659777872780751 0 2.7659777872780751 -22.10170832803044 0 0 0 0 -8.9637534138801129 -3.2364888640893099 0 -3.2364888640893099 -2.1828909783822041 0 0 0 0 0.3077429298256309 -0.7185825894042388 0 -0.7185825894042388 0.30523959795741451 0 0 0 0 -14.301600347784188 -0.51142101407137375 0 -0.51142101407137375 0.8417720996586695 0 0 0 0 -9.2575165723783357 -0.69314577751201512 0 -0.69314577751201512 2.1453021173290381 0 0 0 0 -12.641813502342302 -1.7256765457603365 0 -1.7256765457603365 2.9653933759968254 0 0 0 0 -5.8007452895704006 1.7202447920423616 0 1.7202447920423616 3.293486933628281 0 0 0 0 -6.1572502626841015 3.5345639923599785 0 3.5345639923599785 1.2265461287326893 0 0 0 0 -2.6060016432805728 1.5198910002299453 0 1.5198910002299453 1.6214290993351521 0 0 0 0 -0.82945097403020362 -0.67765215077161045 0 -0.67765215077161045 -0.87277414423225996 0 0 0 0 -3.5158512478538455 2.8274633116342809 0 2.8274633116342809 2.0180164017158093 0 0 0 0 -14.226757448042008 -6.2884302827950194 0 -6.2884302827950194 -2.6641809480411212 0 0 0 0 -6.5853491431334987 4.7624903925129729 0 4.7624903925129729 4.8735412323591731 0 0 0 0 -5.7944451679310944 -0.50742681699582093 0 -0.50742681699582093 1.0240905247354615 0 0 0 0 -8.1182945279033447 3.8020756239137654 0 3.8020756239137654 4.5325129124007617 0 0 0 0 -8.4434153586912544 0.75538575720050005 0 0.75538575720050005 2.7936503068758611 0 0 0 0 -3.8469863044283557 2.1899083038907747 0 2.1899083038907747 2.9685070166340779 0 0 0 0 -5.1744424362268546 2.0505197622379683 0 2.0505197622379683 6.4951995011504096 0 0 0 0 -6.3390275551109738 1.5350281673413466 0 1.5350281673413466 1.8582934525744685 0 0 0 0 -19.922316163546384 28.99587261870613 0 28.99587261870613 48.082157539417892 0 0 0 0 -11.451727914602998 -2.9256322088808702 0 -2.9256322088808702 38.011532885609313 0 0 0 0 -18.866446974360315 -5.6351773467267208 0 -5.6351773467267208 38.357747521388205 0 0 0 0 -30.042003913242297 10.164120197634816 0 10.164120197634816 25.032735199824401 0 0 0 0 -28.626527524222183 19.385477681293878 0 19.385477681293878 2.8384572380703048 0 0 0 0 -48.915613552362402 16.526040232187974 0 16.526040232187974 18.369849582401685 0 0 0 0 -41.476404809332053 32.221412944062877 0 32.221412944062877 22.68497681963936 0 0 0 0 -76.735215447088194 13.251406868207141 0 13.251406868207141 -18.163725569259213 0 0 0 0 -50.52796088964692 -3.2662640511764494 0 -3.2662640511764494 -8.2359828129583548 0 0 0 0 -79.13534195210741 -27.647617466083261 0 -27.647617466083261 -33.862142507293811 0 0 0 0 -62.813322703665108 -17.651566222314159 0 -17.651566222314159 7.6528669726372982 0 0 0 0 -74.448984842358414 -55.867635919255036 0 -55.867635919255036 -21.851292326086423 0 0 0 0 -79.868337211471783 -4.139419141943776 0 -4.139419141943776 -1.441117918565169 0 0 0 0 -1.9912656457581761 6.3297350756085109 0 6.3297350756085109 3.9537889208203865 0 0 0 0 -7.5318859988806679 2.9330795162172585 0 2.9330795162172585 3.2544976760592217 0 0 0 0 -5.7155375989818822 2.8724745023783242 0 2.8724745023783242 4.2446465175029289 0 0 0 0 -5.5563540887524141 6.5093624807836932 0 6.5093624807836932 3.0195412341619203 0 0 0 0 -3.1381769935308972 3.1456559008988378 0 3.1456559008988378 1.624610241686137 0 0 0 0 -4.3200416192285047 17.64082220819364 0 17.64082220819364 26.813701795274028 0 0 0 0 11.438859806661185 48.788194199588531 0 48.788194199588531 31.560119907131707 0 0 0 0 11.901542762940153 12.34841112375841 0 12.34841112375841 11.195445388659266 0 0 0 0 -20.125451502229225 10.263315726087058 0 10.263315726087058 -25.685292424327599 0 0 0 0 -14.716521457668023 35.83490001863683 0 35.83490001863683 -1.253027249660704 0 0 0 0 -3.44072858286256 5.526228538149482 0 5.526228538149482 2.0680113779355178 0 0 0 0 43.299997884348159 53.272309498217624 0 53.272309498217624 10.457228321851062 0 0 0 0 0.66777286792603263 6.4442956457022547 0 6.4442956457022547 2.3275157611396935 0 0 0 0 -1.9125223865001217 3.4657107445830633 0 3.4657107445830633 1.7063458644501559 0 0 0 0 7.563468579957771 13.039554381654284 0 13.039554381654284 4.1394835702878581 0 0 0 0 8.0725283610436236 -1.8846484613846428 0 -1.8846484613846428 -40.036111060435076 0 0 0 0 -31.451735904787711 13.614922035265153 0 13.614922035265153 -35.390021185447324 0 0 0 0 -14.439803151231899 -37.039098437740691 0 -37.039098437740691 -69.188057661878659 0 0 0 0 48.948692964670272 18.007162927492033 0 18.007162927492033 -26.835864146056736 0 0 0 0 -5.4887760388892275 -5.6013539039513063 0 -5.6013539039513063 -1.0575267157325925 0 0 0 0 -92.982085734870907 1.4746996584574674 0 1.4746996584574674 -50.093462947940111 0 0 0 0 -157.04735182568947 -72.360048066824504 0 -72.360048066824504 -66.537698587849718 0 0 0 0 -170.27327036765928 -65.653864940132053 0 -65.653864940132053 -47.915701944921125 0 0 0 0 -105.0408246214065 -45.617571306522279 0 -45.617571306522279 -69.742208193685656 0 0 0 0 -117.5415513656626 -73.483615791952786 0 -73.483615791952786 -69.016092050264433 0 0 0 0 -133.94192747096076 -33.787292726078192 0 -33.787292726078192 -28.487386119169969 0 0 0 0 -44.237611151393139 -17.438140399579623 0 -17.438140399579623 -54.980839460859997 0 0 0 0 -81.908521067909533 -12.436745165626576 0 -12.436745165626576 -32.623034588698658 0 0 0 0 -58.111667580058565 29.563688726826285 0 29.563688726826285 -30.176206706310722 0 0 0 0 -123.72078300962858 -32.686128188416205 0 -32.686128188416205 -52.914913609115736 0 0 0 0 -75.549540916443675 20.06222431946415 0 20.06222431946415 -96.316902659103505 0 0 0 0 -93.467607425938695 -31.398886340930432 0 -31.398886340930432 -72.514278017685172 0 0 0 0 -112.32695244184833 29.245927693393298 0 29.245927693393298 -199.87715698553325 0 0 0 0 -1.1279141569622624 0.71226074168976439 0 0.71226074168976439 -0.94870789440458825 0 0 0 0 -239.83514687845673 9.0021826119838693 0 9.0021826119838693 -74.14333174777471 0 0 0 0 -203.47204876697378 -105.72404594221598 0 -105.72404594221598 -77.27098200515843 0 0 0 0 -248.19768260403725 1.685730246034467 0 1.685730246034467 -141.77708092011892 0 0 0 0 -161.25710111264743 2.1686939969836203 0 2.1686939969836203 -76.117003238928874 0 0 0 0 -246.78560811611351 -42.765294332235811 0 -42.765294332235811 -61.949409444855064 0 0 0 0 -136.16068830139193 -63.328901520938757 0 -63.328901520938757 -105.40635417508608 0 0 0 0 -139.16610434770701 76.332229998743514 0 76.332229998743514 -41.780173378270604 0 0 0 0 88.483490944225196 70.727448618223647 0 70.727448618223647 -72.416696922890679 0 0 0 0 96.338969782485947 31.453654488143968 0 31.453654488143968 -28.912946125666338 0 0 0 0 80.461496352594622 59.81804528905117 0 59.81804528905117 -43.879082335471537 0 0 0 0 91.348233764210818 50.44541346851554 0 50.44541346851554 -60.435096553568286 0 0 0 0 -0.61925658474426193 0.27758464525451032 0 0.27758464525451032 -0.26930965349192376 0 0 0 0 69.476033773041763 71.520875255801229 0 71.520875255801229 -49.651038210192596 0 0 0 0 -15.156441783999981 109.42667599726775 0 109.42667599726775 -14.202143619868849 0 0 0 0 -143.29541047792191 11.243498976544558 0 11.243498976544558 59.390910811538276 0 0 0 0 19.957932815750354 8.771975832822708 0 8.771975832822708 45.92769886222743 0 0 0 0 39.143645559785909 42.973146356623658 0 42.973146356623658 66.168748854016542 0 0 0 0 22.107793043935999 122.0704013849425 0 122.0704013849425 66.615921789184938 0 0 0 0 -2.9671667871514558 1.4180414640888674 0 1.4180414640888674 -0.34409507332522832 0 0 0 0 8.7523129657038226 -170.83548242284317 0 -170.83548242284317 -359.31837097513818 0 0 0 0 -123.26513842629629 -103.1441255309532 0 -103.1441255309532 -108.56535863350541 0 0 0 0 -310.48296469545858 -225.72910892542853 0 -225.72910892542853 116.2815181949055 0 0 0 0 -120.11683763260771 -56.088283548178424 0 -56.088283548178424 -40.793672437957866 0 0 0 0 -97.88416094060085 -69.519925605662138 0 -69.519925605662138 -110.24348888770643 0 0 0 0 -102.77305519412948 -54.1208178197503 0 -54.1208178197503 -86.363815980884738 0 0 0 0 -84.139663671187009 -41.055087868683586 0 -41.055087868683586 -41.818447206886304 0 0 0 0 -121.9726514484073 -73.85314517021709 0 -73.85314517021709 -44.965250479588121 0 0 0 0 -63.493507327841144 -37.030930723560004 0 -37.030930723560004 4.0655565187823868 0 0 0 0 -46.438945149244319 -130.21750898904315 0 -130.21750898904315 -36.717698179731542 0 0 0 0 -12.0243016143977 -80.534510443423187 0 -80.534510443423187 -33.301792807413605 0 0 0 0 -94.261004893190602 -92.912603935819106 0 -92.912603935819106 -33.289767591910959 0 0 0 0 -98.918222065926329 -112.04649955238619 0 -112.04649955238619 -35.644882185796632 0 0 0 0 -123.48149163180415 -70.660298374902567 0 -70.660298374902567 -61.255134413609312 0 0 0 0 -2.1882800542445526 1.470335798911746 0 1.470335798911746 -1.2199467231599628 0 0 0 0 -121.7925728929813 -73.72822450796582 0 -73.72822450796582 -91.517915035036879 0 0 0 0 -240.81749181779742 -40.726234204641514 0 -40.726234204641514 -71.396358680578487 0 0 0 0 -0.24473371061442251 -0.49508132875830313 0 -0.49508132875830313 -0.99166754261975765 0 0 0 0 -218.59701245945507 -1.7113323868846919 0 -1.7113323868846919 2.3195101319165587 0 0 0 0 -137.39082503078407 -40.828115050733345 0 -40.828115050733345 -35.336765189848848 0 0 0 0 -203.41030274582226 -243.666410954139 0 -243.666410954139 -45.001121728622877 0 0 0 0 17.878699296627929 -2.6155229351045364 0 -2.6155229351045364 34.581418323915443 0 0 0 0 55.549000611622432 -107.73537028965745 0 -107.73537028965745 -32.05986576524333 0 0 0 0 -37.711585645841751 -44.384562331976582 0 -44.384562331976582 6.1208447126618921 0 0 0 0 -6.9242864969819493 -1.4114286981910027 0 -1.4114286981910027 1.5955328435192655 0 0 0 0 -3.35564856601024 1.3629421100837433 0 1.3629421100837433 0.27842491558692384 0 0 0 0 -4.5409623179180016 0.56410460363568404 0 0.56410460363568404 0.49913153461392312 0 0 0 0 -7.8590506046104807 1.5212262743519314 0 1.5212262743519314 0.091985681041759304 0 0 0 0 -3.1203874597194954 -2.0798459622332075 0 -2.0798459622332075 4.8866996098247455 0 0 0 0 -2.1246827989943817 -0.51902856090348237 0 -0.51902856090348237 -0.1727319500413782 0 0 0 0 -97.723039698254979 -115.6050158964469 0 -115.6050158964469 -50.448250489189945 0 0 0 0 -1.1841237441829087 0.63122975550416172 0 0.63122975550416172 -0.39409672594841494 0 0 0 0 -142.07543623365655 14.465615023293168 0 14.465615023293168 5.7093918000639405 0 0 0 0 -3.2047944922898157 1.5162472523560226 0 1.5162472523560226 -0.33575936874499213 0 0 0 0 -27.948483397282871 34.844600215508763 0 34.844600215508763 80.104194952082565 0 0 0 0 -0.92673592083701806 3.9203052680586268 0 3.9203052680586268 -1.9396642692013302 0 0 0 0 -3.6584138873675496 1.3039289980129807 0 1.3039289980129807 -0.010504367789082536 0 0 0 0 -11.539985266925669 -12.215266043515626 0 -12.215266043515626 21.789817204639988 0 0 0 0 -18.484379727798114 -5.4470316883748069 0 -5.4470316883748069 34.140945486872013 0 0 0 0 -27.619120310081144 -6.9083598536976325 0 -6.9083598536976325 21.248818813763222 0 0 0 0 -26.554096064215173 -24.883008868793581 0 -24.883008868793581 15.560730096322249 0 0 0 0 -33.123218672078565 -43.275400930533934 0 -43.275400930533934 -33.784223917601338 0 0 0 0 -111.6930995186317 52.342129442388156 0 52.342129442388156 -58.992557135778625 0 0 0 0 -35.981148252606687 -4.7363127008364518 0 -4.7363127008364518 -32.209625480778726 0 0 0 0 -36.596601187041472 -9.3028865584038662 0 -9.3028865584038662 -0.49660157946829031 0 0 0 0 -97.402316771058395 15.252373083681334 0 15.252373083681334 -0.27750994820161168 0 0 0 0 -52.894350565234618 31.08297858736114 0 31.08297858736114 -25.314458734893442 0 0 0 0 -43.639929585018649 7.3663770631216678 0 7.3663770631216678 1.08527051579307 0 0 0 0 -52.537751177995233 18.856102025334394 0 18.856102025334394 -1.0934977299281243 0 0 0 0 -70.212269818300229 -1.3966822316675547 0 -1.3966822316675547 -4.2910338656943736 0 0 0 0 -55.999106793104602 28.075796402138025 0 28.075796402138025 1.3618003261616423 0 0 0 0 -53.10600968116205 18.636772817258574 0 18.636772817258574 7.1550229210182579 0 0 0 0 -68.095746853253786 -24.489147866307732 0 -24.489147866307732 -12.865115854134977 0 0 0 0 -62.605116908390528 -4.1804670917143909 0 -4.1804670917143909 -6.5593829576213238 0 0 0 0 -43.434141131742763 -13.791175887116708 0 -13.791175887116708 -8.2789042900758716 0 0 0 0 -37.553652276616504 7.0194409297901075 0 7.0194409297901075 -2.8347941117337996 0 0 0 0 -51.21927254234879 -12.438170657813941 0 -12.438170657813941 2.3826452382767229 0 0 0 0 -2.106240458601361 2.2593004159896992 0 2.2593004159896992 -1.5168389968381879 0 0 0 0 54.0911793692826 82.779393423541137 0 82.779393423541137 37.530394606868896 0 0 0 0 -90.377389819733139 -22.029685168375352 0 -22.029685168375352 -15.801887320549866 0 0 0 0 -0.75911307119581117 0.89518899439078137 0 0.89518899439078137 -0.84187445251800952 0 0 0 0 138.14827549111487 97.202235596597887 0 97.202235596597887 -74.513554775126508 0 0 0 0 -172.7975835984148 -42.170811989273375 0 -42.170811989273375 -3.8934451735576374 0 0 0 0 -94.020033087946103 23.074276992689462 0 23.074276992689462 64.374463912522273 0 0 0 0 105.6926255832982 -1.7461283228574693 0 -1.7461283228574693 -42.438080192985694 0 0 0 0 -200.15465017917541 -36.20914249936348 0 -36.20914249936348 -10.956770814776917 0 0 0 0 -53.36455205706261 16.013728661422505 0 16.013728661422505 -19.857616650519187 0 0 0 0 -107.33271068470367 -105.39145827646973 0 -105.39145827646973 -164.47517082478078 0 0 0 0 -45.023716770213468 -53.359898943291867 0 -53.359898943291867 -122.43587524971838 0 0 0 0 -97.839319323514246 -44.99790501556356 0 -44.99790501556356 -41.082510090772644 0 0 0 0 -93.012481463591939 -78.091065621407324 0 -78.091065621407324 -29.999628725854549 0 0 0 0 -74.195864079022158 -40.264952103121473 0 -40.264952103121473 16.516584322568903 0 0 0 0 -25.997892153468456 -30.817833567228448 0 -30.817833567228448 8.5913817644872594 0 0 0 0 -22.845375195804991 -39.284226891148641 0 -39.284226891148641 -23.066594310955594 0 0 0 0 -42.443770807288274 -36.646764672378445 0 -36.646764672378445 -38.852100971736263 0 0 0 0 -39.963997943070353 -65.960613998179838 0 -65.960613998179838 -46.639676484058242 0 0 0 0 -28.141706969393226 -42.781283601132522 0 -42.781283601132522 -1.2229795810349628 0 0 0 0 -46.294553276367878 -42.123987826522239 0 -42.123987826522239 -6.021359436753599 0 0 0 0 -36.844169217472427 -50.847139560946417 0 -50.847139560946417 -19.43387942492306 0 0 0 0 -50.390362854935574 -48.527903206355958 0 -48.527903206355958 -1.9213617256324294 0 0 0 0 -6.8629042332540848 -14.548179074836625 0 -14.548179074836625 -18.122189810670132 0 0 0 0 -37.538463136927021 -37.894432489027388 0 -37.894432489027388 -22.095155532693468 0 0 0 0 -111.38120891422386 -70.134484272958375 0 -70.134484272958375 -17.758572042089611 0 0 0 0 -39.29886856102371 -25.630336284353632 0 -25.630336284353632 -98.043874565758429 0 0 0 0 -45.482914455599712 -14.395007650009077 0 -14.395007650009077 19.418562552895366 0 0 0 0 17.030363082811164 33.474758500223437 0 33.474758500223437 42.452728345231165 0 0 0 0 -27.940501882684657 -16.498598354943326 0 -16.498598354943326 24.908582393536456 0 0 0 0 -9.9944923182351886 -14.77629227423909 0 -14.77629227423909 9.6256114731547768 0 0 0 0 6.3144778064288403 -16.464495055990838 0 -16.464495055990838 -12.037029326809858 0 0 0 0 -45.651023458908639 -15.388867602523419 0 -15.388867602523419 4.3011028600716372 0 0 0 0 -2.7075445006321441 2.7469695944105856 0 2.7469695944105856 -1.5305487865646623 0 0 0 0 -41.281174657603003 -16.680019888405383 0 -16.680019888405383 9.6055008536175137 0 0 0 0 -44.335108384887462 -20.629853268025158 0 -20.629853268025158 4.8558179648833573 0 0 0 0 -2.8793015194887923 2.8505653583197184 0 2.8505653583197184 -1.2650736030954088 0 0 0 0 43.531117201187044 37.958070307407461 0 37.958070307407461 3.0829191819406105 0 0 0 0 4.8430727328918692 -26.055351835959527 0 -26.055351835959527 15.891048415959013 0 0 0 0 -31.55184128588553 40.621749651168273 0 40.621749651168273 11.906445139827952 0 0 0 0 -108.25873706029324 -44.218329541116262 0 -44.218329541116262 15.542517246688021 0 0 0 0 -51.155818192834886 -19.272042526299288 0 -19.272042526299288 20.812891276076584 0 0 0 0 -40.561726665807555 -14.537753622257952 0 -14.537753622257952 -47.82593624463766 0 0 0 0 -1.9105147863810998 17.403866191085058 0 17.403866191085058 -41.500879990860028 0 0 0 0 -12.865072375073396 25.663137194922115 0 25.663137194922115 29.642747408424725 0 0 0 0 14.978727394172211 -7.2426780844928942 0 -7.2426780844928942 -7.9570793641238993 0 0 0 0 -50.318258696449902 -3.0410683682663944 0 -3.0410683682663944 -5.8123337705701488 0 0 0 0 -4.3408598366049773 12.832984392926221 0 12.832984392926221 -20.683045400140543 0 0 0 0 -35.46016875360192 21.995792870851915 0 21.995792870851915 15.972130350690918 0 0 0 0 2.5139288570658209 10.041155391619597 0 10.041155391619597 16.649733578160294 0 0 0 0 34.300923914755003 39.293843460989194 0 39.293843460989194 -40.529881983430869 0 0 0 0 20.748278603872677 47.451769158410684 0 47.451769158410684 13.346635275849735 0 0 0 0 -2.4005440445144908 2.3630215733352706 0 2.3630215733352706 -0.15996308950320737 0 0 0 0 6.8678160326580837 -18.58680939984572 0 -18.58680939984572 -5.1055198635599481 0 0 0 0 -5.8268913342526503 5.105463572935605 0 5.105463572935605 25.448014080333223 0 0 0 0 -14.596821309480219 11.36666778103978 0 11.36666778103978 21.281974697018427 0 0 0 0 -61.825097164297858 8.577805481692053 0 8.577805481692053 -64.719464507323437 0 0 0 0 -84.307623224407962 58.120033855403513 0 58.120033855403513 -60.367646830336753 0 0 0 0 -23.728823575336264 -37.311721011628833 0 -37.311721011628833 -37.099970448260407 0 0 0 0 -6.6227911406485873 3.8704839011623449 0 3.8704839011623449 9.7641845470723752 0 0 0 0 -71.158545089972904 -7.8214942963847989 0 -7.8214942963847989 5.131115440753149 0 0 0 0 -90.12099338367625 5.1910399272438781 0 5.1910399272438781 -1.968426355706697 0 0 0 0 -70.372785535837465 19.630384511744865 0 19.630384511744865 7.5601417674593563 0 0 0 0 -55.465605760653716 9.3573179059076779 0 9.3573179059076779 14.622492151478241 0 0 0 0 -55.931968403811879 7.0582293192611019 0 7.0582293192611019 3.3000484779915382 0 0 0 0 -64.025573986613381 -6.338342137244581 0 -6.338342137244581 -6.8259889350739513 0 0 0 0 138.99355075138919 72.354084413412693 0 72.354084413412693 -103.83198854748298 0 0 0 0 -134.81983590476011 -16.772451727278167 0 -16.772451727278167 -63.978430153125927 0 0 0 0 -43.102327119358961 -50.180272163193536 0 -50.180272163193536 -30.258019210020109 0 0 0 0 -0.35117614434587274 -0.10030146930959294 0 -0.10030146930959294 -0.11834435774109475 0 0 0 0 -50.148717190195157 13.576003259934652 0 13.576003259934652 13.598915095547227 0 0 0 0 -1.141898739990177 0.084533879947015889 0 0.084533879947015889 -0.073833829922394234 0 0 0 0 -2.2342432228535323 0.11781275117954637 0 0.11781275117954637 0.037813635928308054 0 0 0 0 -89.759435331765417 -11.800607481148063 0 -11.800607481148063 36.680943074316474 0 0 0 0 5.663215584481577 -14.023615457006144 0 -14.023615457006144 -6.9532002543141971 0 0 0 0 -7.4821200310034328 12.681205840188113 0 12.681205840188113 -0.36477239678356455 0 0 0 0 5.3796406722235588 -2.4662876110498928 0 -2.4662876110498928 -4.7664158695663446 0 0 0 0 -4.1956187943651457 -15.826054146684669 0 -15.826054146684669 13.016445620928209 0 0 0 0 -1.1716195827129887 -0.86454027986569448 0 -0.86454027986569448 -0.44510863219468189 0 0 0 0 -2.9988947233787151 -1.0037310554409222 0 -1.0037310554409222 -0.67998383107262639 0 0 0 0 -9.3148456872695533 -9.6598069414339989 0 -9.6598069414339989 -39.615921424381554 0 0 0 0 2.2805528625963234 -2.1188403329559833 0 -2.1188403329559833 -1.834169245087196 0 0 0 0 -22.288665761219818 -2.7313066733794358 0 -2.7313066733794358 -41.660000329168952 0 0 0 0 18.945113635075813 -33.0455275903592 0 -33.0455275903592 -19.533491753386556 0 0 0 0 -1.1113922484190031 -0.068803054093437011 0 -0.068803054093437011 0.029035432723644838 0 0 0 0 -67.757562870227957 -19.941468519376826 0 -19.941468519376826 14.889046353244112 0 0 0 0 24.887696354915988 34.435869410548776 0 34.435869410548776 -51.013377754515261 0 0 0 0 -10.803529948527853 -6.5393269006857651 0 -6.5393269006857651 9.4164322382564478 0 0 0 0 -51.421187063670914 59.438688731280052 0 59.438688731280052 -28.393978746742505 0 0 0 0 -3.3764182027396146 15.434218376676654 0 15.434218376676654 -7.4210203064660618 0 0 0 0 -37.90934238446539 33.121223642631819 0 33.121223642631819 -12.986239293021754 0 0 0 0 -30.089541179599451 4.6282974682683644 0 4.6282974682683644 -2.9355907697730572 0 0 0 0 -18.649866966792615 7.5375263695483454 0 7.5375263695483454 -3.2467276830979017 0 0 0 0 -30.285591279549408 -10.262480037839339 0 -10.262480037839339 1.5556472930192058 0 0 0 0 -41.508374161512847 -24.190938990864254 0 -24.190938990864254 7.8866694685798393 0 0 0 0 -6.7773601274864177 -25.890132689051512 0 -25.890132689051512 -14.225379667215293 0 0 0 0 -54.196065291384912 -30.93198251452327 0 -30.93198251452327 4.7882885804970101 0 0 0 0 0.91688920125432105 4.2235292554805142 0 4.2235292554805142 3.266493874401931 0 0 0 0 -20.774163963264073 4.3044086202482958 0 4.3044086202482958 32.516952213598174 0 0 0 0 -26.235427141119089 -12.045419285363607 0 -12.045419285363607 0.36230218307309769 0 0 0 0 23.488097625518094 235.05539184785516 0 235.05539184785516 -456.91910443517287 0 0 0 0 -499.07387670516209 287.93351993239071 0 287.93351993239071 -23.216548792812048 0 0 0 0 -21.42057766193011 48.331613696364187 0 48.331613696364187 -80.411068709899212 0 0 0 0 -122.09671856001682 71.510259348676755 0 71.510259348676755 -50.021036958104503 0 0 0 0 -88.35881889026416 19.015176840213009 0 19.015176840213009 -25.59789604275209 0 0 0 0 -6.0883710608159163 -2.1400928705127171 0 -2.1400928705127171 -0.86037312997024173 0 0 0 0 -1.6691477837696738 -0.20896036783772232 0 -0.20896036783772232 -1.0214557097501877 0 0 0 0 -4.3345979816087024 -0.042257818991499718 0 -0.042257818991499718 -0.3943947816903467 0 0 0 0 -497.59984175773275 29.347291964379391 0 29.347291964379391 43.635855616123699 0 0 0 0 -0.61740852994641671 0.45178333128516091 0 0.45178333128516091 -0.81588584350712789 0 0 0 0 -0.89467115050911339 0.50273616039146418 0 0.50273616039146418 -0.96026538590893806 0 0 0 0 -496.32101588588739 2.4353718709397265 0 2.4353718709397265 -1.5625610663745533 0 0 0 0 -24.875435143137111 -178.63229084919419 0 -178.63229084919419 -115.33830192048651 0 0 0 0 -123.05809927989321 -15.027237782192294 0 -15.027237782192294 83.230268356242561 0 0 0 0 -8.1956404104429019 -4.490253504940509 0 -4.490253504940509 -2.3396858469011228 0 0 0 0 -498.7730115545437 -2.7173670444433187 0 -2.7173670444433187 -4.0038700914294161 0 0 0 0 17.608372768245317 86.195196779439954 0 86.195196779439954 -37.679639001081497 0 0 0 0 -1.4882887235507152 -0.67925852226065508 0 -0.67925852226065508 -0.74100996303509659 0 0 0 0 0.58374349189136687 -2.3336442679014713 0 -2.3336442679014713 -3.9687008145823888 0 0 0 0 -10.917675945192059 -7.3138013442190868 0 -7.3138013442190868 -3.7487377775671575 0 0 0 0 -416.21040231289226 -248.38010703381821 0 -248.38010703381821 -149.47800485826872 0 0 0 0 1.4004604760270283 -1.523515065511758 0 -1.523515065511758 -4.4744780079149393 0 0 0 0 -9.7992637814568297 -5.5723910730698663 0 -5.5723910730698663 -5.6878132472827474 0 0 0 0 -10.877821790269081 -6.8388764795667214 0 -6.8388764795667214 -1.7318799770814621 0 0 0 0 -9.7368284377043892 -4.8138303480491231 0 -4.8138303480491231 -1.9707238934853422 0 0 0 0 -11.119491813051354 -5.947804834141948 0 -5.947804834141948 -2.6731490918007239 0 0 0 0 -11.820227618727586 -3.6106721842722891 0 -3.6106721842722891 -2.6650083760912366 0 0 0 0 27.581897212910008 -52.417700603908962 0 -52.417700603908962 -8.9017094431980794 0 0 0 0 -9.9459139742112832 -4.0003425379620703 0 -4.0003425379620703 -1.2963155262813717 0 0 0 0 -6.2080883134011025 -1.5288987425813145 0 -1.5288987425813145 -0.3155191010929686 0 0 0 0 -12.889705806762777 -5.7630624739635152 0 -5.7630624739635152 0.43577806835151023 0 0 0 0 -6.3232112266414333 -1.1889339477584144 0 -1.1889339477584144 0.79355937633829399 0 0 0 0 -6.3670056981365342 -1.4245021029705036 0 -1.4245021029705036 1.975510859459841 0 0 0 0 -10.473879610473887 -5.4858162343355161 0 -5.4858162343355161 3.9237736763190014 0 0 0 0 -10.611323511030378 -7.7959194518594899 0 -7.7959194518594899 0.40077401937855939 0 0 0 0 -9.5629074636399309 -4.2983667024022196 0 -4.2983667024022196 -0.034237573423482104 0 0 0 0 -4.5992819318250753 -0.73306387916493687 0 -0.73306387916493687 3.4426038454668526 0 0 0 0 -10.616955507230443 -1.7973182759863278 0 -1.7973182759863278 8.1372095832839477 0 0 0 0 -7.7171104761637253 -2.0205245032925632 0 -2.0205245032925632 1.0473942939464393 0 0 0 0 -6.769050333105497 -3.5419147832413778 0 -3.5419147832413778 0.1502523156677853 0 0 0 0 -9.9502067107805487 -3.8430025094177154 0 -3.8430025094177154 0.90628426218734148 0 0 0 0 -2.9748668027262468 -2.8263884015655236 0 -2.8263884015655236 2.159593070416403 0 0 0 0 -7.4922660256863978 1.9936616614315881 0 1.9936616614315881 1.3738493737932664 0 0 0 0 -17.485753771233703 10.398296698955061 0 10.398296698955061 -0.46027485539036661 0 0 0 0 -9.2976799162770476 -1.5528016167989449 0 -1.5528016167989449 -0.032158493461622584 0 0 0 0 -7.0684739487223851 0.10795664806425975 0 0.10795664806425975 -1.0683790256638304 0 0 0 0 -8.2665297268222275 -0.19745809672929227 0 -0.19745809672929227 1.613756810116854 0 0 0 0 -6.4972846159295159 0.89126067160657385 0 0.89126067160657385 -0.03185585163930682 0 0 0 0 -40.20617052230773 -17.172900095506968 0 -17.172900095506968 3.1991693991246706 0 0 0 0 -24.201629020724795 -4.3437328614310502 0 -4.3437328614310502 13.35651311184796 0 0 0 0 -6.5725802903425574 -10.718371435902867 0 -10.718371435902867 -26.332453968766302 0 0 0 0 -6.787864700818016 -0.2019638262230159 0 -0.2019638262230159 0.5333048624437291 0 0 0 0 9.7338267175391593 6.5126385339497617 0 6.5126385339497617 -9.0773842421817221 0 0 0 0 -15.167558374242617 -7.7553430242086847 0 -7.7553430242086847 -5.2448296604425622 0 0 0 0 -1.3010896231926941 -0.56141029454821467 0 -0.56141029454821467 0.93632962206118919 0 0 0 0 -26.661683702000573 -1.6073248922091636 0 -1.6073248922091636 -0.5469789353854253 0 0 0 0 -0.40627971118374795 1.391195572044736 0 1.391195572044736 0.52426118605642691 0 0 0 0 -26.396013230829794 -1.3121042117427351 0 -1.3121042117427351 -0.44039339513710729 0 0 0 0 -5.9933189014849546 1.1692603630571234 0 1.1692603630571234 2.6313776248300496 0 0 0 0 -19.212708007976062 3.4544875849688026 0 3.4544875849688026 20.988946634984757 0 0 0 0 -28.505128652815984 -9.1210192172820825 0 -9.1210192172820825 5.2969303348600079 0 0 0 0 -23.331660979987646 -7.1556351149270547 0 -7.1556351149270547 2.5311307304682034 0 0 0 0 -33.517151898867724 -0.48307159224050533 0 -0.48307159224050533 5.8059876691310262 0 0 0 0 -21.117778346666455 -9.7492963251324944 0 -9.7492963251324944 4.1946793295339289 0 0 0 0 -25.336045520620246 -11.405205217247859 0 -11.405205217247859 9.1427496000068675 0 0 0 0 -19.775387830584279 -2.8479996970578667 0 -2.8479996970578667 0.83069596308602756 0 0 0 0 -26.793899766595132 -9.2849289542153262 0 -9.2849289542153262 9.3319013636169359 0 0 0 0 -24.902107172156548 -7.0088665976958051 0 -7.0088665976958051 3.4395220552326009 0 0 0 0 -20.759077968532438 -6.1513586435803962 0 -6.1513586435803962 3.9515115304065844 0 0 0 0 -23.728389263760619 -10.189093983716564 0 -10.189093983716564 -1.2042173079867773 0 0 0 0 0.64136705619340972 -2.4863227515773367 0 -2.4863227515773367 -0.11734217846039899 0 0 0 0 -26.342623023345823 -7.529715148844323 0 -7.529715148844323 -1.5829346835657958 0 0 0 0 -60.141453798682051 -14.803128434906775 0 -14.803128434906775 -2.8952445727466696 0 0 0 0 -30.329240429091442 -10.719529677105855 0 -10.719529677105855 -2.3721433285167075 0 0 0 0 -43.478908583732391 -5.770700155314902 0 -5.770700155314902 2.5836240569079685 0 0 0 0 -31.227818352037502 -5.7205122789663427 0 -5.7205122789663427 3.6476841707243004 0 0 0 0 -32.065874204397005 -6.9527285846911937 0 -6.9527285846911937 1.8359453084684034 0 0 0 0 -35.97723164605577 2.3427598164221743 0 2.3427598164221743 0.40509064833491237 0 0 0 0 -41.848201025060916 3.6571351504186529 0 3.6571351504186529 1.261541619361215 0 0 0 0 -43.848063704109791 1.9967962865981304 0 1.9967962865981304 -0.11686455832465725 0 0 0 0 -42.932898206575373 3.6847434238925425 0 3.6847434238925425 2.6452529800804321 0 0 0 0 -3.2268260597590919 9.6174049433422084 0 9.6174049433422084 1.1321038247439159 0 0 0 0 6.1713054352649124 -6.5171617217702007 0 -6.5171617217702007 -1.2157698644067239 0 0 0 0 -66.029607513544761 -26.900452588036927 0 -26.900452588036927 -1.3650385014526814 0 0 0 0 -25.043677950410711 3.2631156297518533 0 3.2631156297518533 -11.499899801125096 0 0 0 0 -5.2513257698334792 8.9704362993599922 0 8.9704362993599922 0.22665196600879448 0 0 0 0 -36.510916236260528 -3.0844915697460635 0 -3.0844915697460635 3.7368324492375837 0 0 0 0 -22.011293939092141 -6.0199403848031068 0 -6.0199403848031068 -0.95584549083083359 0 0 0 0 2.8226877974893796 -18.374688806102085 0 -18.374688806102085 7.0268042782954865 0 0 0 0 -4.5146755280037922 0.10037292085734517 0 0.10037292085734517 -2.1762913080582189 0 0 0 0 -41.978670189501827 -49.968702564547677 0 -49.968702564547677 -91.656332293597757 0 0 0 0 -2.2035519829735648 1.9712961214601554 0 1.9712961214601554 -0.75909249270485768 0 0 0 0 -119.16291782877488 24.804847871157296 0 24.804847871157296 6.1136483124866174 0 0 0 0 -134.78040957684607 -25.430090728440391 0 -25.430090728440391 -27.758194726640454 0 0 0 0 -115.48654177860772 -78.540790290131298 0 -78.540790290131298 -32.385260386428897 0 0 0 0 -0.28567615328519036 0.29365844340455904 0 0.29365844340455904 -0.7725226155282876 0 0 0 0 -168.82678725953883 -111.50418536097419 0 -111.50418536097419 -50.377063167586343 0 0 0 0 53.542934991330526 -3.3081055222959606 0 -3.3081055222959606 -39.649302609760014 0 0 0 0 -42.25030560141613 -39.38823429243908 0 -39.38823429243908 -1.803078665144568 0 0 0 0 -18.40074361117513 12.060198865991651 0 12.060198865991651 -75.56797305406576 0 0 0 0 -25.681854073868635 10.833618079909286 0 10.833618079909286 -32.965180277633806 0 0 0 0 -49.247992301254271 -70.254846600480221 0 -70.254846600480221 -132.07182429145391 0 0 0 0 -67.623839364493961 -12.096519398129658 0 -12.096519398129658 -13.845986683110823 0 0 0 0 -2.1344800690640113 -7.2621461830837006 0 -7.2621461830837006 28.726059617589783 0 0 0 0 -53.94102708112996 5.9631375024060844 0 5.9631375024060844 38.281448577158699 0 0 0 0 -17.892608070728102 1.2092439936844244 0 1.2092439936844244 33.351442534943772 0 0 0 0 -1.3190671451444267 -1.6130580774809724 0 -1.6130580774809724 -1.6713449012602686 0 0 0 0 5.0032779309131001 -4.4459836794525245 0 -4.4459836794525245 -9.3963646332503004 0 0 0 0 -13.388672150596562 -65.096593676258493 0 -65.096593676258493 78.28391138015968 0 0 0 0 -42.027723461134883 21.827703162257876 0 21.827703162257876 37.688526886636737 0 0 0 0 -166.07629221582238 -10.535408616191205 0 -10.535408616191205 -0.91083885641181439 0 0 0 0 -0.4660727157946889 -0.73229335723365541 0 -0.73229335723365541 -0.97384272699534913 0 0 0 0 -108.90484470708816 -45.432859057355756 0 -45.432859057355756 -22.576877502223965 0 0 0 0 -8.7766525938436644 22.951255230938386 0 22.951255230938386 -14.771046642045178 0 0 0 0 -3.5556385410091025 2.2252775199317512 0 2.2252775199317512 -15.426389177858965 0 0 0 0 -154.35327329365475 -85.865694314488167 0 -85.865694314488167 32.312610765219347 0 0 0 0 -165.25229860226818 -143.85953252175943 0 -143.85953252175943 54.707284260439565 0 0 0 0 -146.98664297147957 -111.01129734015684 0 -111.01129734015684 12.896837596924684 0 0 0 0 -174.5032349096241 -78.911806532066834 0 -78.911806532066834 -24.548816782289819 0 0 0 0 -137.39088020983922 -38.705906436632318 0 -38.705906436632318 -1.2047881869295338 0 0 0 0 -2.361636456899737 3.5472507779791269 0 3.5472507779791269 -0.29366158406752052 0 0 0 0 9.0345258742553369 51.295328584923737 0 51.295328584923737 -80.113791390575159 0 0 0 0 42.239762199968709 -129.14367054528094 0 -129.14367054528094 -106.18729841372613 0 0 0 0 -16.493380689332298 -79.993558286532249 0 -79.993558286532249 -119.57379284937286 0 0 0 0 -51.952700261148721 -6.2742248073001825 0 -6.2742248073001825 33.103699249339115 0 0 0 0 -109.42191925476868 -48.6483583949626 0 -48.6483583949626 11.424505558539636 0 0 0 0 -18.11997725315814 -4.9115960723845404 0 -4.9115960723845404 -1.245839220544589 0 0 0 0 0.081054471133989558 -0.22226383393485616 0 -0.22226383393485616 0.18573188776663896 0 0 0 0 -51.35671611761245 34.009388870756851 0 34.009388870756851 -7.8327408811554733 0 0 0 0 -74.529647430157638 20.635338064968835 0 20.635338064968835 12.697261278114382 0 0 0 0 -79.13389467270494 18.071080508819296 0 18.071080508819296 -6.949342510333679 0 0 0 0 -182.93583774480385 52.440429572867821 0 52.440429572867821 35.942468573170032 0 0 0 0 -35.651984551172973 -8.8363852245831396 0 -8.8363852245831396 9.5309867881953494 0 0 0 0 -75.818374146589122 -26.539273571736445 0 -26.539273571736445 3.5099176212997634 0 0 0 0 -2.8091638026957924 3.8534031505137629 0 3.8534031505137629 -2.2462754854232538 0 0 0 0 60.951072370507518 -0.11659925272127225 0 -0.11659925272127225 -41.043422790739612 0 0 0 0 -59.345553209207992 12.349674969168319 0 12.349674969168319 -38.340803927566526 0 0 0 0 -0.96069399956792978 0.52293912842210299 0 0.52293912842210299 -0.044441822846243317 0 0 0 0 -20.524229705018115 -6.700070384876085 0 -6.700070384876085 32.086111594481054 0 0 0 0 -137.80818200041222 -0.012577286002128929 0 -0.012577286002128929 -10.35356389109363 0 0 0 0 -115.43048678716514 -72.644453197694503 0 -72.644453197694503 -19.181464327723667 0 0 0 0 -285.71471636563319 31.228436754022155 0 31.228436754022155 8.3870678143679243 0 0 0 0 -314.49263434417026 71.933423705400315 0 71.933423705400315 118.31084951507566 0 0 0 0 -138.43117667220758 110.67047628881551 0 110.67047628881551 71.655010780243131 0 0 0 0 -0.91894830463999533 0.19802794802634871 0 0.19802794802634871 0.411724133428095 0 0 0 0 -158.50884255129495 -71.512720111198291 0 -71.512720111198291 -55.382963229596967 0 0 0 0 -308.85570156868334 -148.02641575885201 0 -148.02641575885201 -9.2905413496968947 0 0 0 0 -249.95173543909459 -131.00107168915093 0 -131.00107168915093 5.5689141366256649 0 0 0 0 -499.86924823228236 -31.240371454436012 0 -31.240371454436012 151.44180854920415 0 0 0 0 -310.03674609785776 25.526987049520368 0 25.526987049520368 146.81989640294222 0 0 0 0 -500.03753857932134 95.226965728740623 0 95.226965728740623 141.64818708525249 0 0 0 0 -183.14335194761225 55.098260003398437 0 55.098260003398437 63.315067820542268 0 0 0 0 -290.04239374662586 97.719483421544652 0 97.719483421544652 50.315597855248896 0 0 0 0 -157.11981321297571 136.69140654456601 0 136.69140654456601 -61.522908598442051 0 0 0 0 -295.92977506937075 162.10589316662276 0 162.10589316662276 46.914828885369715 0 0 0 0 -499.01809481602265 203.38340286577014 0 203.38340286577014 -19.084519987727756 0 0 0 0 -1.1614982183931004 -0.03146632958224016 0 -0.03146632958224016 -0.42625880382525527 0 0 0 0 -81.806813285841599 159.03444077687587 0 159.03444077687587 -165.80840100554366 0 0 0 0 -7.5362197013851073 -1.0579038691637948 0 -1.0579038691637948 -20.924274699475063 0 0 0 0 58.102510249661293 -32.921194667497531 0 -32.921194667497531 -108.80308294037668 0 0 0 0 -8.8671773539722949 -3.2510558310477791 0 -3.2510558310477791 4.5218718298960994 0 0 0 0 -0.7437141826822975 -0.38258069027054731 0 -0.38258069027054731 0.60977425534404828 0 0 0 0 -2.5686857613136551 2.1558840972880811 0 2.1558840972880811 -0.95847587158091385 0 0 0 0 -497.17235428871095 -264.93066911153795 0 -264.93066911153795 -112.82538075340946 0 0 0 0 -271.25514611627091 238.68531476264894 0 238.68531476264894 -214.86628714308929 0 0 0 0 -2.9738021940043975 0.58074271695386837 0 0.58074271695386837 -0.40064086566265988 0 0 0 0 -179.80408913514611 -61.115754662081926 0 -61.115754662081926 5.4125088039218667 0 0 0 0 -142.02827136947553 -36.674806325252938 0 -36.674806325252938 -6.7660898845656945 0 0 0 0 -499.59425426259577 -192.68621072171612 0 -192.68621072171612 1.8234044585144178 0 0 0 0 -1.3094536840564386 0.099816380596726262 0 0.099816380596726262 0.46741414790626828 0 0 0 0 -184.13301588320718 -79.462141822121836 0 -79.462141822121836 -17.227590266579259 0 0 0 0 28.429092006099609 -25.575996468066961 0 -25.575996468066961 16.460394061166866 0 0 0 0 -3.0142329466498268 -0.0037035332028949597 0 -0.0037035332028949597 -0.79443801138927483 0 0 0 0 -3.0515905806420172 2.0484583714861491 0 2.0484583714861491 -0.86440304356922681 0 0 0 0 -1.8798791321317414 0.51645649461675447 0 0.51645649461675447 -0.55304410177081675 0 0 0 0 -174.88683587106175 -67.15330644479063 0 -67.15330644479063 -13.592245608894427 0 0 0 0 -3.2171416456803552 3.5275764039530371 0 3.5275764039530371 -2.3614271445540651 0 0 0 0 -44.428299479788166 101.12829287356442 0 101.12829287356442 -184.75101492447493 0 0 0 0 0.14180929725550317 0.76910406018684063 0 0.76910406018684063 -0.89707999639315661 0 0 0 0 -177.98646330650607 -0.11650125891667784 0 -0.11650125891667784 73.09665418646739 0 0 0 0 31.216998957484975 3.8042707769748461 0 3.8042707769748461 -24.769185468989292 0 0 0 0 -151.96535666122418 -236.50529229152744 0 -236.50529229152744 -10.308931621901706 0 0 0 0 -174.41663652955845 -6.9418561198892235 0 -6.9418561198892235 38.246180798220507 0 0 0 0 -90.407456472432955 31.316622687228865 0 31.316622687228865 4.6253933780381544 0 0 0 0 -174.74132402184762 -11.891880556813163 0 -11.891880556813163 71.81353830537455 0 0 0 0 -121.2482406435438 -52.12034244868849 0 -52.12034244868849 -7.9707262249040696 0 0 0 0 -137.8339759753635 -33.872254076018748 0 -33.872254076018748 -13.758187857400117 0 0 0 0 -1.1659585356090103 0.39528023495445824 0 0.39528023495445824 0.0038263920509146176 0 0 0 0 -73.978853092080954 -49.778996823990184 0 -49.778996823990184 -41.474331938303933 0 0 0 0 43.956320453214062 17.655313787027552 0 17.655313787027552 -13.541252048324054 0 0 0 0 -71.852747550389267 -58.62525318092807 0 -58.62525318092807 -27.535847538766973 0 0 0 0 -90.280648096834966 -25.320840514868507 0 -25.320840514868507 21.746562377592461 0 0 0 0 -95.55694727371565 -41.815491081343907 0 -41.815491081343907 -39.342623680468421 0 0 0 0 -95.668687968224276 -47.857871078522095 0 -47.857871078522095 -18.531279806282441 0 0 0 0 -96.458934944110524 -38.475716735470627 0 -38.475716735470627 -32.943566050877905 0 0 0 0 -102.82563088157121 -45.225249594158612 0 -45.225249594158612 -10.476081716095848 0 0 0 0 -91.349030351094143 -7.4698844153202515 0 -7.4698844153202515 -8.2810960028035652 0 0 0 0 -89.610687066043738 -26.731621839632794 0 -26.731621839632794 -23.312302113849853 0 0 0 0 -114.04282960065723 -32.881353409089357 0 -32.881353409089357 -10.795185583323416 0 0 0 0 -90.832886538659295 -25.366177978880529 0 -25.366177978880529 -10.091579367932209 0 0 0 0 -44.978384208296575 4.8424846383230999 0 4.8424846383230999 -11.155610108989936 0 0 0 0 -13.386071388390747 18.832888436847753 0 18.832888436847753 0.62277366386780386 0 0 0 0 -47.752235886532446 1.1436569315248484 0 1.1436569315248484 12.436679031510494 0 0 0 0 -0.4424068649345827 14.875893053687378 0 14.875893053687378 6.321213661307695 0 0 0 0 -49.851833065030405 -17.406733498250787 0 -17.406733498250787 -15.040557917208332 0 0 0 0 26.897886400024049 -32.458305988579696 0 -32.458305988579696 -125.34401148537893 0 0 0 0 -0.48894359775525542 -0.38770807827896925 0 -0.38770807827896925 -0.39522940599439771 0 0 0 0 -53.649047988278056 -23.020697598384864 0 -23.020697598384864 7.5493956308174575 0 0 0 0 -6.3330051593491135 50.772018756088983 0 50.772018756088983 -99.177973098457699 0 0 0 0 -62.175915483771121 -45.107549739473782 0 -45.107549739473782 -34.753937520640079 0 0 0 0 -130.25357592681425 -5.4787364282695989 0 -5.4787364282695989 -34.127453343575098 0 0 0 0 -83.234946135470636 -6.1069994341534652 0 -6.1069994341534652 -89.716716147226975 0 0 0 0 -40.457709311071994 -3.3921426671349195 0 -3.3921426671349195 -90.119058116657925 0 0 0 0 -2.1904204058566883 -0.63959540172371665 0 -0.63959540172371665 -0.093112704085665243 0 0 0 0 -70.181623627080171 -160.77055707042405 0 -160.77055707042405 -165.87855673381466 0 0 0 0 -88.919459325892603 -90.609913536413728 0 -90.609913536413728 -91.130430266888084 0 0 0 0 -133.66725986284928 52.45673524678142 0 52.45673524678142 134.0607381927108 0 0 0 0 -48.300109616495092 -44.63934794387896 0 -44.63934794387896 121.82342821335186 0 0 0 0 -5.3032719281883791 -1.3538640313281798 0 -1.3538640313281798 -0.07388327321689836 0 0 0 0 -30.431187613288103 -3.4089823073376806 0 -3.4089823073376806 24.587211007527912 0 0 0 0 -124.63704226179118 -20.280347359616428 0 -20.280347359616428 -2.5551844175290626 0 0 0 0 47.806480248575156 -18.925164581187772 0 -18.925164581187772 -10.976658194403683 0 0 0 0 -0.1584172060624951 -25.31511370530734 0 -25.31511370530734 -17.939636434910085 0 0 0 0 10.945062803858946 -20.827770707904506 0 -20.827770707904506 -16.553647315093826 0 0 0 0 22.887364433816174 -33.506729428434198 0 -33.506729428434198 -8.9621789376544712 0 0 0 0 22.883614210713404 -36.042898639651469 0 -36.042898639651469 -21.135914037706925 0 0 0 0 20.748112327267677 -49.316549665729539 0 -49.316549665729539 21.487535667756106 0 0 0 0 24.362760845242065 -35.293972349800413 0 -35.293972349800413 -12.211350188222312 0 0 0 0 1.6275490627117506 3.9759946814873501 0 3.9759946814873501 -8.8205008386738299 0 0 0 0 -6.5035448266888771 -2.3586382155426273 0 -2.3586382155426273 -0.48505679797867762 0 0 0 0 -1.0977725040613677 -34.247863942145727 0 -34.247863942145727 46.994549201706661 0 0 0 0 -3.0164010080278949 -1.4941578343120305 0 -1.4941578343120305 -0.90296787185757532 0 0 0 0 -4.4207096519498918 4.7130905402480323 0 4.7130905402480323 6.9952492270496123 0 0 0 0 -7.5311080841956937 -5.5251208580424418 0 -5.5251208580424418 31.592690473385716 0 0 0 0 -2.5527153904818078 -12.535162244651303 0 -12.535162244651303 34.67595130561017 0 0 0 0 0.079371818266736227 -1.6721744550668518 0 -1.6721744550668518 16.464122906840203 0 0 0 0 14.480637288097341 -21.062395253973193 0 -21.062395253973193 -4.8684441680748023 0 0 0 0 -4.0415451576445776 -11.283342545607638 0 -11.283342545607638 23.813552470813988 0 0 0 0 8.8937227904357314 -22.078536210495486 0 -22.078536210495486 14.734738189817563 0 0 0 0 19.434676284406123 -32.173660106807688 0 -32.173660106807688 17.259995556339504 0 0 0 0 19.671242524673517 -30.09127311757851 0 -30.09127311757851 -6.1626665272461878 0 0 0 0 37.196337272145684 -29.068291093253833 0 -29.068291093253833 -21.570612352900753 0 0 0 0 31.894719428506278 -17.296230850819256 0 -17.296230850819256 -23.396996078328357 0 0 0 0 20.457453659240855 -16.573474162522302 0 -16.573474162522302 -6.3296140694776 0 0 0 0 14.62498908135035 -8.4568695119345989 0 -8.4568695119345989 -6.4850751787721492 0 0 0 0 0.60980160191498367 -0.25244538226956981 0 -0.25244538226956981 0.058259799312334271 0 0 0 0 12.73588364360603 -25.83174677267732 0 -25.83174677267732 -6.0980759833401521 0 0 0 0 30.836211545600463 -1.9725112133119183 0 -1.9725112133119183 -21.316411999067668 0 0 0 0 42.568581444164693 -34.297223406296155 0 -34.297223406296155 -17.274586415665453 0 0 0 0 -38.465833667006791 -25.64322012736784 0 -25.64322012736784 52.44807464635096 0 0 0 0 86.658490636086526 -1.3245580492974796 0 -1.3245580492974796 -87.419502188476145 0 0 0 0 55.290531914118219 -43.950959366090096 0 -43.950959366090096 -21.664651447710639 0 0 0 0 55.867908384632301 -16.545298331401455 0 -16.545298331401455 -24.457456596446264 0 0 0 0 20.408337965095143 -34.468338164675629 0 -34.468338164675629 -19.364944575040909 0 0 0 0 16.095048390249303 -21.87415642641065 0 -21.87415642641065 -24.979254250953915 0 0 0 0 15.999549457602143 -29.173130292233736 0 -29.173130292233736 -43.741822248724702 0 0 0 0 -8.8233757122186489 19.184496580908444 0 19.184496580908444 -38.593344881212715 0 0 0 0 -14.094432366378442 20.167170701390546 0 20.167170701390546 -33.19130261867619 0 0 0 0 -0.99058593362298808 -1.1367937614464316 0 -1.1367937614464316 -1.3692683777439267 0 0 0 0 18.857538202080661 -11.624086488716941 0 -11.624086488716941 -13.147971099485176 0 0 0 0 0.22732138519054201 0.065798963013445011 0 0.065798963013445011 -0.24127807757507153 0 0 0 0 -3.8354165658213333 -8.1293349033356321 0 -8.1293349033356321 -30.471547321635654 0 0 0 0 14.576337963950579 0.72533744866593608 0 0.72533744866593608 -18.476733101553236 0 0 0 0 1.540517028658769 3.073738024811604 0 3.073738024811604 -5.406053557864098 0 0 0 0 17.223131934118499 -4.3157425845958812 0 -4.3157425845958812 -1.2664403044921073 0 0 0 0 9.432640512818125 -23.439565180116574 0 -23.439565180116574 -20.813256488965635 0 0 0 0 -0.39948225748839317 -0.27258076522683883 0 -0.27258076522683883 -0.27110909585577492 0 0 0 0 12.136320361360958 16.126028362579405 0 16.126028362579405 -37.838442893931642 0 0 0 0 -0.66469852690939923 -1.3032668634267992 0 -1.3032668634267992 -1.743714233020401 0 0 0 0 -0.050977092790162715 -2.3360865943167255 0 -2.3360865943167255 -0.054954699581685418 0 0 0 0 -4.4535349093532659 -0.17592613684405478 0 -0.17592613684405478 9.8429472103804727 0 0 0 0 6.6791165723016093 8.5725568621975157 0 8.5725568621975157 -5.3501633367243642 0 0 0 0 -1.2037474698509845 -1.2673440980895161 0 -1.2673440980895161 -1.1329450809918895 0 0 0 0 -0.15028278843260523 -17.692613820708345 0 -17.692613820708345 8.6222730604235664 0 0 0 0 12.28243210434357 -14.646869012810583 0 -14.646869012810583 -11.493994149695027 0 0 0 0 -6.2111655972964854 -0.77891516869905786 0 -0.77891516869905786 -5.9025248479122752 0 0 0 0 -2.4432402066353234 0.046893451660750429 0 0.046893451660750429 -19.717647297266069 0 0 0 0 -13.775659383699576 10.897936529233064 0 10.897936529233064 -15.774847509487529 0 0 0 0 -0.48991761082049834 -3.7834635586328034 0 -3.7834635586328034 -11.949700209779394 0 0 0 0 0.47386082290620379 4.3300177514647729 0 4.3300177514647729 -20.22304225705463 0 0 0 0 -6.2259214305227033 14.290611263578242 0 14.290611263578242 -16.698132957943827 0 0 0 0 -4.7827055967466094 8.3882606920540326 0 8.3882606920540326 -9.7974240525404994 0 0 0 0 -3.9086090754891529 7.6527132573011585 0 7.6527132573011585 -24.789174156222714 0 0 0 0 -11.256072522279055 7.513664368454954 0 7.513664368454954 -21.466251686097593 0 0 0 0 -11.792675081713014 16.389906449582924 0 16.389906449582924 -23.176575003025761 0 0 0 0 7.8525430035586226 0.56599790743921652 0 0.56599790743921652 -11.491564500326433 0 0 0 0 5.1844058520588305 -1.0935508521681996 0 -1.0935508521681996 -12.21443520756921 0 0 0 0 -2.292816609549277 4.1774124468816325 0 4.1774124468816325 -7.3079220009840924 0 0 0 0 -8.0696354885859591 6.6926364946600003 0 6.6926364946600003 -5.7813186463229158 0 0 0 0 -11.058890894896365 15.380891913057312 0 15.380891913057312 -13.950080127449809 0 0 0 0 -2.2532372529004761 10.626875708203308 0 10.626875708203308 -19.918064423636622 0 0 0 0 -7.4568584321128242 20.721828205662526 0 20.721828205662526 -23.940259721172453 0 0 0 0 -5.6370196182829204 17.786479187461609 0 17.786479187461609 -30.243366880112156 0 0 0 0 -5.5636580154731519 17.263079296011711 0 17.263079296011711 -26.709266663045184 0 0 0 0 -13.1741045895144 15.932419664025858 0 15.932419664025858 -22.839107286588316 0 0 0 0 -5.1578058023614517 14.542282287693503 0 14.542282287693503 -28.023755605773999 0 0 0 0 -11.5210355391348 14.217798331103282 0 14.217798331103282 -25.203818100412519 0 0 0 0 -11.632364088677264 20.017660688672905 0 20.017660688672905 -26.264617686794907 0 0 0 0 -23.369709831671628 14.954583513762422 0 14.954583513762422 -27.180134273986539 0 0 0 0 -15.657410013206345 19.221708136313353 0 19.221708136313353 -29.87506775305383 0 0 0 0 -25.605923770838331 18.944332602638831 0 18.944332602638831 -33.110133286598966 0 0 0 0 -21.722133336476418 20.554563091736156 0 20.554563091736156 -28.147122186006641 0 0 0 0 -16.854285944092169 15.314683450518999 0 15.314683450518999 -23.52811676860162 0 0 0 0 -27.885437909953623 13.572511968875233 0 13.572511968875233 -21.177091863944071 0 0 0 0 -23.367316663417341 11.680131378049893 0 11.680131378049893 -14.246292201932395 0 0 0 0 -27.377615822346513 17.057310607503439 0 17.057310607503439 -20.2170642910352 0 0 0 0 -13.862456776147496 17.057360781889763 0 17.057360781889763 -23.872600763047217 0 0 0 0 -37.823910384520786 10.061310145703743 0 10.061310145703743 -6.0013056932048343 0 0 0 0 -47.959987438531243 17.194453927608748 0 17.194453927608748 -16.916677469620225 0 0 0 0 -41.560161902645291 16.727849767689079 0 16.727849767689079 -16.883867570348912 0 0 0 0 -35.490132751171814 14.384083284297844 0 14.384083284297844 -33.499719878487809 0 0 0 0 -35.554739904714779 19.89358518132812 0 19.89358518132812 -26.322141211877408 0 0 0 0 -40.427138306448796 18.367292800484677 0 18.367292800484677 -34.300217387957446 0 0 0 0 -33.598210743831942 12.306735292314244 0 12.306735292314244 -30.292693342031924 0 0 0 0 -46.838080292716086 9.9306556069220591 0 9.9306556069220591 -30.875623261385535 0 0 0 0 -47.431413060028035 14.710749358163937 0 14.710749358163937 -47.978495416124758 0 0 0 0 -63.181168893762106 -2.7738677077080709 0 -2.7738677077080709 -41.010833030601432 0 0 0 0 -47.565226793471538 3.6814835134470485 0 3.6814835134470485 -47.884978616611903 0 0 0 0 -67.800623835250008 -8.2223868957325408 0 -8.2223868957325408 -33.160938949344796 0 0 0 0 -36.997437348499489 12.786081539035948 0 12.786081539035948 -32.213752309501842 0 0 0 0 -40.792790173305093 -0.90366390403323749 0 -0.90366390403323749 -33.848467305653614 0 0 0 0 -33.935984424090975 10.375597889964865 0 10.375597889964865 -42.677045205969605 0 0 0 0 -48.700458482064448 4.8899965094663926 0 4.8899965094663926 -33.835543552577178 0 0 0 0 -25.81380751766892 9.932874625479073 0 9.932874625479073 -37.20363225428892 0 0 0 0 -34.306226865868211 12.26065614157406 0 12.26065614157406 -29.601095379732101 0 0 0 0 -15.571654006837434 11.442190515697575 0 11.442190515697575 -29.653986278707606 0 0 0 0 -25.270404165938544 13.571223385384556 0 13.571223385384556 -24.787423024890046 0 0 0 0 -16.196283838800696 14.283605239105192 0 14.283605239105192 -27.940807358313975 0 0 0 0 -18.793374681623618 3.946016214476316 0 3.946016214476316 -25.348956691284144 0 0 0 0 -33.849230147122853 1.4385949178385431 0 1.4385949178385431 -20.901928650020963 0 0 0 0 -27.267069321483177 10.602335344212392 0 10.602335344212392 -25.186923633335624 0 0 0 0 -17.069887737201952 4.8026232217844065 0 4.8026232217844065 -24.685833003863479 0 0 0 0 -16.938259314397328 2.7181763058597141 0 2.7181763058597141 -11.720988803545481 0 0 0 0 -42.864459670410042 -2.4770178407311079 0 -2.4770178407311079 -3.6937002090509168 0 0 0 0 -73.088746739055523 -11.290148546152906 0 -11.290148546152906 -16.263472230191837 0 0 0 0 -72.922942031612209 -21.924042456589696 0 -21.924042456589696 -27.550290130421615 0 0 0 0 -77.553586885913546 -16.336886691615675 0 -16.336886691615675 -22.663124570863033 0 0 0 0 -59.924805702021487 -11.05521026887385 0 -11.05521026887385 -42.054059264173418 0 0 0 0 -60.229596444709387 -0.22868619706326854 0 -0.22868619706326854 -19.482463427345891 0 0 0 0 -45.937891320246081 7.438755139894468 0 7.438755139894468 -18.037098212883734 0 0 0 0 -89.613730224794836 -26.448749034070431 0 -26.448749034070431 -57.53594951305044 0 0 0 0 -113.50733609216854 -16.031375662470708 0 -16.031375662470708 -48.668125617227773 0 0 0 0 -85.235113808794267 -16.572795353172324 0 -16.572795353172324 -38.477475979059847 0 0 0 0 -81.107252713449043 -27.118599760808905 0 -27.118599760808905 -46.490863588756341 0 0 0 0 -94.836540583506462 -29.710568095823135 0 -29.710568095823135 -28.139873850604772 0 0 0 0 -93.989376026880336 -32.742065651155613 0 -32.742065651155613 -53.873364174521754 0 0 0 0 -100.02267779670501 -35.471925558286088 0 -35.471925558286088 -36.741805718297286 0 0 0 0 -78.687343297829273 -26.294345760222178 0 -26.294345760222178 -72.764651109818686 0 0 0 0 -95.332988680759229 24.484829961713729 0 24.484829961713729 -85.887975772879713 0 0 0 0 -160.16253310289966 49.550158080144826 0 49.550158080144826 -76.037178430693629 0 0 0 0 -146.70688610556965 -4.1292807824563145 0 -4.1292807824563145 -58.286998500399477 0 0 0 0 -111.09649477078233 -16.459604635913614 0 -16.459604635913614 -60.697161916792176 0 0 0 0 -145.49836366186889 0.15156698136762259 0 0.15156698136762259 -56.097487544861842 0 0 0 0 -185.6346389878307 -22.699439300444244 0 -22.699439300444244 -49.023651982020475 0 0 0 0 -178.29060648443351 3.851317562888946 0 3.851317562888946 -52.314650935416701 0 0 0 0 -86.864774001238288 -14.466549277433998 0 -14.466549277433998 -51.70330924740432 0 0 0 0 -93.197369292726535 -4.1728934144639425 0 -4.1728934144639425 -63.266652341340929 0 0 0 0 -108.80493597332884 -28.984244522029357 0 -28.984244522029357 -62.379497784794971 0 0 0 0 -88.978730395862613 -9.6465323858777197 0 -9.6465323858777197 -52.948590696685471 0 0 0 0 -82.522922545004803 -17.199638114107671 0 -17.199638114107671 -48.613869559879404 0 0 0 0 -66.932022126744783 -12.852687945524403 0 -12.852687945524403 -52.852010644959307 0 0 0 0 -62.954971091056677 0.11721263198590748 0 0.11721263198590748 -56.22199474596303 0 0 0 0 -55.928389441737636 6.2933715947945217 0 6.2933715947945217 -61.278803194422224 0 0 0 0 -45.278766562169494 10.963417966259129 0 10.963417966259129 -35.627213484291659 0 0 0 0 -76.233143624122704 -7.3369273692028827 0 -7.3369273692028827 -42.614849738363233 0 0 0 0 -45.388081123178154 13.013874066239453 0 13.013874066239453 -35.03206888969617 0 0 0 0 -60.33866328796546 4.9285835495262873 0 4.9285835495262873 -33.558667531697552 0 0 0 0 -51.032402831707941 18.351837058264678 0 18.351837058264678 -16.095313384049035 0 0 0 0 -50.735483644210717 5.1233575299963929 0 5.1233575299963929 -17.348640833681003 0 0 0 0 -45.511152477160607 6.3476303445865518 0 6.3476303445865518 7.1420595295938369 0 0 0 0 -40.385066564070939 13.690222692336874 0 13.690222692336874 -11.521250042812454 0 0 0 0 -46.032343304716392 7.5927808901638336 0 7.5927808901638336 -7.4727661158528917 0 0 0 0 -46.523015584216864 13.593169187794317 0 13.593169187794317 1.0948716075368168 0 0 0 0 0.14041462095706103 0.035081541569248476 0 0.035081541569248476 0.12190130018853174 0 0 0 0 -21.137202584373142 10.253736855934925 0 10.253736855934925 -27.243290809241124 0 0 0 0 -27.159865514136584 5.1819376447955516 0 5.1819376447955516 -26.566180624785918 0 0 0 0 -0.49825154536388733 -0.60366929604900654 0 -0.60366929604900654 -0.51216721559828748 0 0 0 0 -97.198002270881773 -91.258317747285076 0 -91.258317747285076 -57.329215883605016 0 0 0 0 -534.09718083698885 12.636513229447164 0 12.636513229447164 11.679754978985843 0 0 0 0 -41.731632811384088 11.938426552764582 0 11.938426552764582 9.6115149079486031 0 0 0 0 -38.751516140359541 -14.667364587383565 0 -14.667364587383565 -56.795103987127739 0 0 0 0 -60.250005633499427 -32.99055844031237 0 -32.99055844031237 -70.858812105845743 0 0 0 0 -153.70049017546842 -46.439809268775555 0 -46.439809268775555 -54.340215237024154 0 0 0 0 -338.59847775751967 -0.53259364772063567 0 -0.53259364772063567 -11.94745201797523 0 0 0 0 -214.94810301951975 -22.145932295978518 0 -22.145932295978518 -33.168698356915293 0 0 0 0 -319.01698402304731 10.260174428957139 0 10.260174428957139 -54.994476184020343 0 0 0 0 -419.49763855777644 31.817445939694604 0 31.817445939694604 -8.0838913906931715 0 0 0 0 -504.17026560895255 -37.327679938601598 0 -37.327679938601598 -28.874087796183638 0 0 0 0 -441.7614666727797 -19.538923931682355 0 -19.538923931682355 -52.684102010406001 0 0 0 0 -464.50668982447473 -37.047228944386418 0 -37.047228944386418 -63.478971691207221 0 0 0 0 -487.42160300647919 -11.687807708062973 0 -11.687807708062973 -7.0446029700832495 0 0 0 0 -439.94357144284675 -10.022229236164641 0 -10.022229236164641 -8.0619600244261704 0 0 0 0 -499.83587899274835 27.879512626149143 0 27.879512626149143 6.1932430004008943 0 0 0 0 -416.50346761144442 53.090795493345411 0 53.090795493345411 13.80300498020166 0 0 0 0 -434.26152401596244 53.357218106490947 0 53.357218106490947 17.706587748743036 0 0 0 0 -500.16724279399853 97.349366259176705 0 97.349366259176705 42.301736984733488 0 0 0 0 -395.22186025478754 88.847404564853051 0 88.847404564853051 -4.3481653674731717 0 0 0 0 -320.94740331031699 36.775571337410426 0 36.775571337410426 -10.9342768740804 0 0 0 0 -322.85909566753014 31.810901033888619 0 31.810901033888619 -22.845898685567764 0 0 0 0 -204.60119010395636 35.486697766412334 0 35.486697766412334 -51.608805373908197 0 0 0 0 -352.08927694721569 70.851088942909854 0 70.851088942909854 -0.66515929879693081 0 0 0 0 -278.30894792322908 115.29775659815471 0 115.29775659815471 -63.2263646067818 0 0 0 0 -209.50590205323761 25.601329835705435 0 25.601329835705435 -43.650765952154757 0 0 0 0 -156.73931993541464 61.138541723052484 0 61.138541723052484 -104.7833274058989 0 0 0 0 -343.50344226241532 252.15716100878475 0 252.15716100878475 -113.43977607554876 0 0 0 0 -147.35058369688363 84.941482194555661 0 84.941482194555661 -56.275009540902033 0 0 0 0 -417.22475535781996 139.68326938873886 0 139.68326938873886 9.6717353675041142 0 0 0 0 -400.72160973639848 135.42045880297667 0 135.42045880297667 10.504815055600783 0 0 0 0 -100.58387756354341 -5.5395904508815761 0 -5.5395904508815761 33.540016705046241 0 0 0 0 -8.4564178871846956 1.2471259161971777 0 1.2471259161971777 0.21634637057486006 0 0 0 0 -14.10533571120186 59.028614527412458 0 59.028614527412458 59.676979164660452 0 0 0 0 -10.495601289303465 5.3363109053619837 0 5.3363109053619837 11.468531070129842 0 0 0 0 -10.861366653475386 0.23950644930766884 0 0.23950644930766884 7.0133126377391477 0 0 0 0 -9.6780990520696832 0.45828270787086467 0 0.45828270787086467 6.9143260480247477 0 0 0 0 -8.5725131197459064 -6.1443621808533067 0 -6.1443621808533067 5.8533438781907989 0 0 0 0 -10.12348096018593 -0.87548213234576622 0 -0.87548213234576622 1.1608429382818031 0 0 0 0 3.8439855506030653 31.125234675695765 0 31.125234675695765 34.260208111726541 0 0 0 0 -8.5024608475902816 1.5501143629280567 0 1.5501143629280567 0.10576241789649599 0 0 0 0 5.3869446921439703 10.117207770364246 0 10.117207770364246 -11.917240485783623 0 0 0 0 7.3671220948604059 3.6585065676386535 0 3.6585065676386535 -8.9001533129949735 0 0 0 0 2.6449082283360212 11.566629404042374 0 11.566629404042374 3.0917716920439489 0 0 0 0 5.4143171923183218 -1.9887185235120342 0 -1.9887185235120342 -6.8480158854447382 0 0 0 0 3.7325558717995762 4.0596035914270541 0 4.0596035914270541 -4.0887926040927596 0 0 0 0 3.7155373940041905 1.8727091073721902 0 1.8727091073721902 -8.8283348436893903 0 0 0 0 11.35706523773797 1.558257778061602 0 1.558257778061602 -16.887800362901203 0 0 0 0 2.0741624457605212 -10.719812928747274 0 -10.719812928747274 -16.382138316678038 0 0 0 0 -11.299150900326822 -1.5862647918057746 0 -1.5862647918057746 -6.5495785356080312 0 0 0 0 -17.400567964480388 -11.024243133600294 0 -11.024243133600294 -15.47525973662232 0 0 0 0 -14.962858683602235 -3.1443986729562425 0 -3.1443986729562425 -13.977677280141506 0 0 0 0 9.6564689524994947 8.8659552177067695 0 8.8659552177067695 -61.022512417469557 0 0 0 0 -6.1187784213225314 -15.833913919672398 0 -15.833913919672398 -33.012571128902437 0 0 0 0 17.421215068839729 32.643848307442624 0 32.643848307442624 -22.005277028459091 0 0 0 0 -51.050520845717529 -41.799389318949409 0 -41.799389318949409 -44.139422892203726 0 0 0 0 -88.930807693480574 -2.6998839355650546 0 -2.6998839355650546 10.282111291938349 0 0 0 0 -73.95443738502081 16.623720893934319 0 16.623720893934319 15.455416420829692 0 0 0 0 -22.819970723255665 -2.787249269485784 0 -2.787249269485784 2.7952367922899839 0 0 0 0 -9.7264921288133337 -17.7740597777929 0 -17.7740597777929 0.07400722119814418 0 0 0 0 -23.474928167090184 -3.7042055840882995 0 -3.7042055840882995 2.7490967478809125 0 0 0 0 -7.9472862324473681 -3.2515431179667189 0 -3.2515431179667189 20.302613165936009 0 0 0 0 -9.6108101326503856 -16.270679250098453 0 -16.270679250098453 5.1924889464326043 0 0 0 0 -7.9776908400945103 -9.7526246464920519 0 -9.7526246464920519 16.998596241952669 0 0 0 0 -17.035012522547277 26.405084519933723 0 26.405084519933723 9.1974884378743695 0 0 0 0 -1.094195351153326 0.06921036052606927 0 0.06921036052606927 -0.070511657235088232 0 0 0 0 -16.778093675097807 -76.844943980577142 0 -76.844943980577142 -130.01432136130973 0 0 0 0 7.0020915011691613 1.9221121571260937 0 1.9221121571260937 1.389410252154903 0 0 0 0 -2.8665064075013111 0.53663837741688258 0 0.53663837741688258 1.4911812309810379 0 0 0 0 3.3425318308791248 2.1305477321421904 0 2.1305477321421904 -10.388755138661281 0 0 0 0 -6.2376532519471803 -2.2503700706633802 0 -2.2503700706633802 0.49773425340911803 0 0 0 0 1.5181169004263211 -1.2461847380233166 0 -1.2461847380233166 4.1422495105243797 0 0 0 0 -5.2494452235262816 -2.9925233591238971 0 -2.9925233591238971 2.0119035828958949 0 0 0 0 -2.3179533441179956 -1.221731213622661 0 -1.221731213622661 2.7935378238489648 0 0 0 0 -6.7411634341100637 -4.3815457217871234 0 -4.3815457217871234 0.48654825791418643 0 0 0 0 -7.2829625849634567 -1.565039333778742 0 -1.565039333778742 -4.8258041477638471 0 0 0 0 -1.786927894128894 -6.1171724396372156 0 -6.1171724396372156 0.48015488969781472 0 0 0 0 0.16239491979338538 -0.86651204288150341 0 -0.86651204288150341 -0.00055126033114000217 0 0 0 0 -0.9612811146871536 -5.6393539178384344 0 -5.6393539178384344 -1.6138390237202884 0 0 0 0 -2.2505550298319577 -6.4837700359946666 0 -6.4837700359946666 1.1294805958486904 0 0 0 0 13.985902548705781 -6.0537139167631437 0 -6.0537139167631437 -5.5489918924038193 0 0 0 0 0.75798323105391319 -7.1765255593902566 0 -7.1765255593902566 0.15655687588483147 0 0 0 0 3.9099123169035011 -9.5198936530110814 0 -9.5198936530110814 -0.99272612210129552 0 0 0 0 -6.1198731195208893 -13.086471422813361 0 -13.086471422813361 4.2792745568484634 0 0 0 0 -1.45995729023889 -10.815596175985547 0 -10.815596175985547 -1.0463015612397939 0 0 0 0 -3.036437040290366 -3.5244192711969617 0 -3.5244192711969617 10.639548167005358 0 0 0 0 -3.4754590543961967 -8.1878931616670343 0 -8.1878931616670343 10.290699102441749 0 0 0 0 -3.3453347766062507 -5.1475059614065231 0 -5.1475059614065231 5.8073050233458616 0 0 0 0 -2.9377712093703394 -8.5181105244359685 0 -8.5181105244359685 2.08146222411483 0 0 0 0 0.69018126592254703 -8.194103802645202 0 -8.194103802645202 2.1015043541083287 0 0 0 0 -5.4266463468574848 -2.8643442314176344 0 -2.8643442314176344 -0.16517329357972543 0 0 0 0 -2.502007545921515 -5.6301396739125948 0 -5.6301396739125948 2.8842514509686907 0 0 0 0 -5.9863164976923144 -7.5117754690948573 0 -7.5117754690948573 0.84539169363256406 0 0 0 0 -1.9832479360084108 -6.4768944387553802 0 -6.4768944387553802 1.5281274326289349 0 0 0 0 -1.5481664768212795 -6.3278837929362908 0 -6.3278837929362908 0.57751079062495592 0 0 0 0 -1.830042257122841 -6.6806590737862734 0 -6.6806590737862734 0.98325283555300302 0 0 0 0 -5.4275400062483641 -10.355550928729635 0 -10.355550928729635 -3.4479774188258716 0 0 0 0 -5.3578005602485632 -9.5597344796293555 0 -9.5597344796293555 1.7285045220019128 0 0 0 0 -4.1691629464148718 -8.8676299922010458 0 -8.8676299922010458 1.5962418024807334 0 0 0 0 -2.2223549036502845 -11.30577905076666 0 -11.30577905076666 2.054704496164959 0 0 0 0 -3.3458528798978477 -9.2870029528485247 0 -9.2870029528485247 -1.1988774653061682 0 0 0 0 -1.4397787731404605 -8.7225909124995269 0 -8.7225909124995269 1.9439566270866635 0 0 0 0 -3.0497250192429419 -11.733164788098406 0 -11.733164788098406 11.653486709001299 0 0 0 0 -5.8893056519327729 -5.2761275510977157 0 -5.2761275510977157 8.7450982430796103 0 0 0 0 0.8111552259151722 -11.470362689679405 0 -11.470362689679405 2.7486566549111444 0 0 0 0 -3.8137212171859574 -7.9508304647379191 0 -7.9508304647379191 3.9232747853785668 0 0 0 0 -2.7085204844951054 -0.64279987780733072 0 -0.64279987780733072 0.1983695436378885 0 0 0 0 -5.6742030518048523 -4.1950868795744327 0 -4.1950868795744327 14.153881322312145 0 0 0 0 -4.0452305395783696 -13.023079052115463 0 -13.023079052115463 9.7572701958365542 0 0 0 0 -5.1595652862911265 -11.773025887060783 0 -11.773025887060783 -4.4592281257441755 0 0 0 0 1.399143859911673 -1.3238011174994724 0 -1.3238011174994724 0.12214949380344942 0 0 0 0 -3.4346680624257715 -13.611257037949997 0 -13.611257037949997 -38.89471781948555 0 0 0 0 -2.2758188119123588 -0.20801730190464696 0 -0.20801730190464696 -10.428976239685312 0 0 0 0 -7.1831894701108467 -10.839633294651662 0 -10.839633294651662 -1.4651132858234632 0 0 0 0 -6.5610141216770899 -0.8223166987862669 0 -0.8223166987862669 -26.793003133055777 0 0 0 0 -25.541726669852778 -21.619147092941603 0 -21.619147092941603 -30.161406915434782 0 0 0 0 3.3861113293369272 -8.8677635023511812 0 -8.8677635023511812 -62.251953787405682 0 0 0 0 -0.42203884763157262 0.0410599116745618 0 0.0410599116745618 0.25844213860985943 0 0 0 0 -26.507884155979923 -19.827283981537619 0 -19.827283981537619 -8.6676892896737172 0 0 0 0 -37.638568321492812 -15.458436499579648 0 -15.458436499579648 -9.2961428979510856 0 0 0 0 -9.2031810950561521 -14.54402154057027 0 -14.54402154057027 -8.3433899920161707 0 0 0 0 -28.585515525945311 -2.6620645741667204 0 -2.6620645741667204 -5.75285595955188 0 0 0 0 -7.2497499284213518 -6.0200424145853049 0 -6.0200424145853049 -17.434998946171163 0 0 0 0 19.758369664765041 -20.318793887822494 0 -20.318793887822494 -9.5206141335145844 0 0 0 0 -4.5707184552262277 -18.958399515312493 0 -18.958399515312493 -17.036131172115461 0 0 0 0 14.411281276690261 -8.4657781447554044 0 -8.4657781447554044 -11.371616674424757 0 0 0 0 -20.335223167583081 -6.9533295752995059 0 -6.9533295752995059 -39.632915043122239 0 0 0 0 -11.81165658152895 -25.753610206094891 0 -25.753610206094891 -69.873205112241749 0 0 0 0 -31.623550145994045 -34.502523512749008 0 -34.502523512749008 0.30956248245274764 0 0 0 0 -3.5958726740606846 -0.27165608574987199 0 -0.27165608574987199 0.13645123333526255 0 0 0 0 -7.6903177751191834 -34.470305239113372 0 -34.470305239113372 -64.161174512170817 0 0 0 0 19.064219139861052 -30.821288612006697 0 -30.821288612006697 0.012014502978118458 0 0 0 0 -71.827645054682762 23.792118585458965 0 23.792118585458965 -2.0307318827963172 0 0 0 0 -1.1129509388029386 0.24058908478001584 0 0.24058908478001584 0.04430218767405103 0 0 0 0 -70.417085009140919 2.414669412941862 0 2.414669412941862 0.86876544666665723 0 0 0 0 -28.730389026824923 0.027808755212618053 0 0.027808755212618053 -7.8909101614276551 0 0 0 0 -7.2376175556958264 0.99713489085678242 0 0.99713489085678242 0.75306164328782299 0 0 0 0 -27.224868767327962 -4.1886278347462849 0 -4.1886278347462849 62.322153207856729 0 0 0 0 -45.368810835327793 -53.440188930387805 0 -53.440188930387805 15.185143663120016 0 0 0 0 -6.1437973072069099 6.5376532523582114 0 6.5376532523582114 2.8841351945158067 0 0 0 0 -6.6132139668046648 5.5001627480779121 0 5.5001627480779121 6.1353228954501731 0 0 0 0 -7.1446581740050874 7.5165288362326805 0 7.5165288362326805 7.6447670959566949 0 0 0 0 -47.228924259761698 10.858027128760511 0 10.858027128760511 10.10685651808376 0 0 0 0 1.3369826097005755 3.7147013604701287 0 3.7147013604701287 2.3594411819441099 0 0 0 0 -45.65292468361622 11.336461742852407 0 11.336461742852407 -4.2404004308691583 0 0 0 0 -43.864398479419833 19.462427905901677 0 19.462427905901677 -17.45945202332905 0 0 0 0 -36.084150682057953 4.6757505756859246 0 4.6757505756859246 -13.65309931381671 0 0 0 0 -36.084150682050677 4.6757505756827413 0 4.6757505756827413 -13.653099313814892 0 0 0 0 -36.084150682050677 4.6757505756859246 0 4.6757505756859246 -13.653099313817393 0 0 0 0 -42.24765996698352 -1.1551371234827457 0 -1.1551371234827457 3.5927235146830299 0 0 0 0 -39.474229097669649 17.434514475735568 0 17.434514475735568 13.164772880044211 0 0 0 0 -19.986625923354495 3.6825182584616414 0 3.6825182584616414 -1.6327731133192174 0 0 0 0 -14.818344019059168 -15.0345684899292 0 -15.0345684899292 36.757090335406247 0 0 0 0 -24.644347523117403 3.4091542857750028 0 3.4091542857750028 19.650625849784092 0 0 0 0 -2.9295344346246566 -1.1610210652459045 0 -1.1610210652459045 -6.1478740887687309 0 0 0 0 -2.9617348027941262 -8.2673593329132018 0 -8.2673593329132018 4.0839555765392106 0 0 0 0 -2.8622841438031319 -1.5497707602138187 0 -1.5497707602138187 -0.61618051110469763 0 0 0 0 1.3010255019996919 3.8194604226248421 0 3.8194604226248421 3.6790218856038903 0 0 0 0 -4.5666531609786034 5.6650890045423239 0 5.6650890045423239 0.14940237380278631 0 0 0 0 -7.95234037696423 6.948409840435545 0 6.948409840435545 2.7921456298433327 0 0 0 0 13.849999924974099 -29.074410741678093 0 -29.074410741678093 9.9234065000171654 0 0 0 0 -2.8189974336762589 -2.9455891992839724 0 -2.9455891992839724 12.299199453513438 0 0 0 0 -0.12659360314319201 -2.7791007670994077 0 -2.7791007670994077 -0.31960575911875821 0 0 0 0 -0.83086377011514312 -0.78271880369579883 0 -0.78271880369579883 -1.0604264251675295 0 0 0 0 3.3302132593603346 -3.0935891707717929 0 -3.0935891707717929 3.9736609769488496 0 0 0 0 2.2976084674746744 -32.781536885401351 0 -32.781536885401351 25.639873088152569 0 0 0 0 -24.540260810192876 5.9707981490898874 0 5.9707981490898874 -2.0064480252171961 0 0 0 0 -24.719084870255642 -10.916214421307018 0 -10.916214421307018 12.527148918608418 0 0 0 0 -4.8492480358387411 0.3639192559283515 0 0.3639192559283515 -0.075724429124448989 0 0 0 0 -1.7481818220794398 -1.9186596813895709 0 -1.9186596813895709 -1.8070349639289942 0 0 0 0 -1.4311745218428884 -1.5430199070089015 0 -1.5430199070089015 -1.5146742746496802 0 0 0 0 -0.29286337251232908 -2.4730801096206392 0 -2.4730801096206392 1.7373643507905854 0 0 0 0 -1.4354727589462755 -0.77175499006878567 0 -0.77175499006878567 -1.2720806583609203 0 0 0 0 -1.486182188615544 -0.73059510003290029 0 -0.73059510003290029 0.17661324835188452 0 0 0 0 -1.7714039813348537 -1.4292479165770375 0 -1.4292479165770375 -1.0235062500700116 0 0 0 0 -0.19443002101354934 -0.38740272036209067 0 -0.38740272036209067 -0.81714610548816358 0 0 0 0 -0.081123552723608938 -0.12020516480926879 0 -0.12020516480926879 -0.31934778137699427 0 0 0 0 -11.727351182189409 -2.37529375608392 0 -2.37529375608392 -1.1646224007735384 0 0 0 0 -6.533546405405005 -7.1296012607060391 0 -7.1296012607060391 5.6620037715902072 0 0 0 0 -5.282198618886639 -7.5442420590496653 0 -7.5442420590496653 -15.763514619580235 0 0 0 0 -16.102219354530121 25.625704222741099 0 25.625704222741099 -32.018379481380236 0 0 0 0 -9.7353017943319173 8.0239449256187783 0 8.0239449256187783 -39.264127656174452 0 0 0 0 -0.66602658876036747 0.43359621880036525 0 0.43359621880036525 0.61568075708082748 0 0 0 0 -5.4972185046329969 -2.157418090158842 0 -2.157418090158842 4.9265321458736935 0 0 0 0 -1.8388135363143192 -2.5675975273143479 0 -2.5675975273143479 1.677497105700013 0 0 0 0 -1.3765618855160717 0.17908474820130804 0 0.17908474820130804 0.80671200437837909 0 0 0 0 0.1034854091598163 0.34556918710296713 0 0.34556918710296713 0.31538701782028511 0 0 0 0 -5.5733495443028005 7.369726708709436 0 7.369726708709436 -2.6550500108183996 0 0 0 0 -4.9965746885807931 -1.9245975116762457 0 -1.9245975116762457 -0.53196625327523761 0 0 0 0 2.2932571679311877 0.21181544823457443 0 0.21181544823457443 3.0878776191830184 0 0 0 0 0.93050837197392866 -8.9929501408653891 0 -8.9929501408653891 -1.5442167960179631 0 0 0 0 -2.8767403632502919 2.4304633236614848 0 2.4304633236614848 -1.0635822002855946 0 0 0 0 -1.6955193542355351 -0.97643955921044689 0 -0.97643955921044689 -0.68604710128394586 0 0 0 0 -3.3305499851660443 2.9396914310774491 0 2.9396914310774491 -4.2283180245934773 0 0 0 0 0.23164829982454194 8.9387229140407953 0 8.9387229140407953 -33.125992434635336 0 0 0 0 -0.20403940652355906 -0.055346816421919964 0 -0.055346816421919964 -0.79513649914069107 0 0 0 0 1.3326910699346399 4.0123768439766252 0 4.0123768439766252 -12.90270116428772 0 0 0 0 -3.3122860210311273 0.88616991864870442 0 0.88616991864870442 -0.89535007712765946 0 0 0 0 -0.34697711310988111 0.2209714186110614 0 0.2209714186110614 -0.00550398849175604 0 0 0 0 -2.8345395500866672 4.8179856571676538 0 4.8179856571676538 -0.92505933913366789 0 0 0 0 -8.9672229811352508 8.4021246699487619 0 8.4021246699487619 0.30109429434401136 0 0 0 0 -6.9454693438816548 5.3565659293844874 0 5.3565659293844874 4.5892003563751587 0 0 0 0 -16.22192548265275 8.3500470627050731 0 8.3500470627050731 -4.932229376767248 0 0 0 0 -11.391571958775671 4.6209714876110013 0 4.6209714876110013 -3.2786476180068576 0 0 0 0 -14.0409555705711 9.135047616391887 0 9.135047616391887 -1.324598330196892 0 0 0 0 -17.29586494671554 8.2060418028044069 0 8.2060418028044069 0.80920810771681317 0 0 0 0 -16.729052687638045 5.5615677513905837 0 5.5615677513905837 -0.72848180241692262 0 0 0 0 -9.6396528114564717 9.694083096334623 0 9.694083096334623 -3.5444238191346358 0 0 0 0 -10.58339534608217 7.9701252433097807 0 7.9701252433097807 -0.73900031175108438 0 0 0 0 -11.416345964463062 7.2039741595152975 0 7.2039741595152975 -1.025806331927015 0 0 0 0 -7.0631850273213672 6.3930529927845896 0 6.3930529927845896 1.8080290923601297 0 0 0 0 -10.596588626240532 7.3861830934527575 0 7.3861830934527575 1.5294725759645189 0 0 0 0 -9.0062227033396312 7.2625585284772569 0 7.2625585284772569 3.3426958075284574 0 0 0 0 -13.366302182143954 6.0847050621275116 0 6.0847050621275116 4.3553709429523479 0 0 0 0 -13.892744618436609 4.8940149615321218 0 4.8940149615321218 3.8928447284840786 0 0 0 0 -5.3631459406983026 6.4531393900956289 0 6.4531393900956289 5.8072622672689249 0 0 0 0 -11.666220179924323 3.9011312958248254 0 3.9011312958248254 7.1576849922942074 0 0 0 0 -7.6686837156478305 2.5083552165601191 0 2.5083552165601191 7.5581660708809864 0 0 0 0 -8.4009261165140856 5.9706216090395969 0 5.9706216090395969 5.7334741671178335 0 0 0 0 -14.705909098983868 -4.8364039434032149 0 -4.8364039434032149 8.5151745621734563 0 0 0 0 -17.259598355510036 -5.0937428442848898 0 -5.0937428442848898 9.2947965374323758 0 0 0 0 -14.913450493953292 0.27808650954227687 0 0.27808650954227687 8.2221846454614251 0 0 0 0 -15.216372109962627 0.24087247994472705 0 0.24087247994472705 8.2420427983398667 0 0 0 0 -21.691788492523983 3.8874939644524602 0 3.8874939644524602 6.2284875574131888 0 0 0 0 -27.190759345898073 2.1681590296129798 0 2.1681590296129798 9.2002278071818751 0 0 0 0 -18.942355226863057 -3.8516280665837428 0 -3.8516280665837428 12.126429405811223 0 0 0 0 -21.944880580311633 0.092099534721967302 0 0.092099534721967302 4.7044150916800618 0 0 0 0 -29.285303426247953 5.8881281457555055 0 5.8881281457555055 0.99201933908648243 0 0 0 0 -28.487709217306879 -2.3198192060294751 0 -2.3198192060294751 3.8700985162895449 0 0 0 0 -32.176135047960713 4.8915754422493478 0 4.8915754422493478 -2.9067667263845465 0 0 0 0 -18.9830904407711 2.9199567860928823 0 2.9199567860928823 5.5000200383271931 0 0 0 0 -23.493713112426008 7.2156730194153056 0 7.2156730194153056 1.4220968106258169 0 0 0 0 -21.997715506357281 0.55136976530013726 0 0.55136976530013726 4.4314005469923359 0 0 0 0 -25.100210541200738 2.2420073251075223 0 2.2420073251075223 -3.5873135418415245 0 0 0 0 -26.925165412415026 5.4124233650729252 0 5.4124233650729252 1.5764109339182042 0 0 0 0 -24.708278840118965 3.2482947134664357 0 3.2482947134664357 -3.769087635580604 0 0 0 0 -18.536089754885666 8.0435673699916492 0 8.0435673699916492 -4.091311425375693 0 0 0 0 -28.033676032518343 -1.2859700850287226 0 -1.2859700850287226 -8.7780471203695924 0 0 0 0 -25.216907281906401 5.6193836304909723 0 5.6193836304909723 -9.7817923606583008 0 0 0 0 -26.306841233361922 -0.89132695461819367 0 -0.89132695461819367 -14.440116845737634 0 0 0 0 -31.847114427814063 5.1295870205691472 0 5.1295870205691472 -4.7747069460658622 0 0 0 0 -31.147772553574896 2.0868728153099028 0 2.0868728153099028 -12.349950188758839 0 0 0 0 -35.225184415569117 -4.0501120218522146 0 -4.0501120218522146 -23.668440991893135 0 0 0 0 -38.452646232437559 -7.2910810457531738 0 -7.2910810457531738 -13.233028874388197 0 0 0 0 -50.373197034073854 -27.681753254345793 0 -27.681753254345793 -31.81400343437997 0 0 0 0 -29.721646569363884 -3.9826485823277835 0 -3.9826485823277835 -20.995884215847269 0 0 0 0 -41.417554784404388 -38.15218503993492 0 -38.15218503993492 -39.638228148096687 0 0 0 0 -46.754989663900837 -108.21930619447512 0 -108.21930619447512 -98.911544049440636 0 0 0 0 31.958811211720899 -58.608205550913766 0 -58.608205550913766 -69.347087705108379 0 0 0 0 -18.889161421516491 -13.312950669245623 0 -13.312950669245623 -9.1919140172883544 0 0 0 0 -40.874534547199119 -39.895902270716988 0 -39.895902270716988 -37.459694750040512 0 0 0 0 -8.1165236842717263 -26.86973156650987 0 -26.86973156650987 -6.599781580099858 0 0 0 0 29.086631195032822 13.047418749393472 0 13.047418749393472 33.14445170724855 0 0 0 0 -13.32770926647396 3.2368351638689887 0 3.2368351638689887 2.3382311807416727 0 0 0 0 -26.52313709092941 -8.4337362958590631 0 -8.4337362958590631 21.804442267134732 0 0 0 0 -29.059086571322354 -13.567803899670942 0 -13.567803899670942 -11.157694817406195 0 0 0 0 -38.253511599907455 30.370983555656892 0 30.370983555656892 -15.92092341800344 0 0 0 0 9.8832835840258326 -17.875804266830926 0 -17.875804266830926 -87.437652851298822 0 0 0 0 -169.42958565491153 41.443045041950256 0 41.443045041950256 20.2906865029247 0 0 0 0 -0.4432498163754679 -0.23258827721504138 0 -0.23258827721504138 -0.030982352936165469 0 0 0 0 -321.27080367414317 -113.35468745912362 0 -113.35468745912362 -105.15784947131829 0 0 0 0 -217.82261777266999 -179.18318810248502 0 -179.18318810248502 -26.510245421687614 0 0 0 0 -29.059275598748854 -140.26243708159939 0 -140.26243708159939 -80.107406045621929 0 0 0 0 -369.66163627000748 -19.236720598794648 0 -19.236720598794648 -5.9167200723400128 0 0 0 0 96.597442663132767 -70.735802938100562 0 -70.735802938100562 -65.848028071535055 0 0 0 0 -0.55438381844877394 -0.83901287507022504 0 -0.83901287507022504 -0.84695670084553543 0 0 0 0 -311.1694837398648 37.649189072321462 0 37.649189072321462 -8.4207667544321794 0 0 0 0 -189.96332224983968 -75.788661425965444 0 -75.788661425965444 -73.198301460884409 0 0 0 0 -59.145895366007778 -6.5940052279304382 0 -6.5940052279304382 -64.203295591940787 0 0 0 0 -181.99564265132278 -8.5491118648535576 0 -8.5491118648535576 -8.6625830077692854 0 0 0 0 -168.72044045358894 20.035479936953948 0 20.035479936953948 -11.775867481853822 0 0 0 0 -179.46707149784095 19.693688986245036 0 19.693688986245036 13.921569204462003 0 0 0 0 -154.33999753696224 53.471516174362023 0 53.471516174362023 -6.682322044248167 0 0 0 0 -178.0114579289866 20.294596079129064 0 20.294596079129064 14.16924734756185 0 0 0 0 -84.671718134357945 8.8660381927014669 0 8.8660381927014669 -17.186195832029625 0 0 0 0 -4.5164547455252659 -16.599070035029797 0 -16.599070035029797 13.885464306817084 0 0 0 0 21.547796416528485 -33.784882741605628 0 -33.784882741605628 17.200126983830501 0 0 0 0 1.7881647346646758 -9.8754653306689306 0 -9.8754653306689306 7.1771131168470674 0 0 0 0 -1.1355882336537144 -2.1359728570713385 0 -2.1359728570713385 -2.4293459609795836 0 0 0 0 -2.8121885370953805 -9.8593305268299218 0 -9.8593305268299218 4.2047712700445743 0 0 0 0 -12.598430582624985 -13.13342403349094 0 -13.13342403349094 12.521688567165711 0 0 0 0 -5.3335061573976645 -7.1606001445767333 0 -7.1606001445767333 6.2054542999827049 0 0 0 0 -8.1652603162991539 -4.1091710546779154 0 -4.1091710546779154 -1.9718562460078601 0 0 0 0 -9.0445618468363023 -1.5447539844895459 0 -1.5447539844895459 -0.99409416943331053 0 0 0 0 -8.1225049251400137 1.4699946699353059 0 1.4699946699353059 -0.61499289966952486 0 0 0 0 -7.8881193310066351 -2.3395217127947774 0 -2.3395217127947774 -2.1677749343090227 0 0 0 0 -4.4014637088889685 34.369357421119219 0 34.369357421119219 -205.04620077197569 0 0 0 0 23.469409639642549 -34.804313000401919 0 -34.804313000401919 -58.029305811005543 0 0 0 0 -1.9875145511059575 -2.5377045623122352 0 -2.5377045623122352 -4.5400371650520777 0 0 0 0 -79.385398531954593 -31.263338569255211 0 -31.263338569255211 -6.9517125787715486 0 0 0 0 -1.2461548169389713 -2.8719977992820067 0 -2.8719977992820067 -3.8427052724536201 0 0 0 0 -280.01777100996833 -37.776238188330581 0 -37.776238188330581 57.421600016033153 0 0 0 0 -274.87178518332485 121.87262148799039 0 121.87262148799039 -13.786735699672718 0 0 0 0 -2.1596513054367463 -1.5903681620280867 0 -1.5903681620280867 -1.3851846144204352 0 0 0 0 -2.4276224909915527 -52.438045148860624 0 -52.438045148860624 -57.995119934673312 0 0 0 0 9.6430950377470595 7.5465818929395141 0 7.5465818929395141 -31.222704373454235 0 0 0 0 -233.38642292666827 -56.694982828188103 0 -56.694982828188103 -1.1413973665307822 0 0 0 0 -283.2060751717695 107.66608514873553 0 107.66608514873553 28.147532484967769 0 0 0 0 -117.12925667845593 -4.630303819361643 0 -4.630303819361643 3.9546033821226274 0 0 0 0 -62.926371321408624 -16.393463412895926 0 -16.393463412895926 1.6717243548857823 0 0 0 0 -207.39394513688148 80.141806004569617 0 80.141806004569617 56.538021689869765 0 0 0 0 -5.8267818850487174 -38.281712287983538 0 -38.281712287983538 -10.124279971354326 0 0 0 0 -26.614660219270945 12.3844562203127 0 12.3844562203127 -23.283641898075075 0 0 0 0 31.330297083497953 -38.132681030556569 0 -38.132681030556569 -71.091309906582239 0 0 0 0 21.237025886431411 -57.762877201485878 0 -57.762877201485878 7.4869064157552998 0 0 0 0 -76.090573720290649 24.408975395283733 0 24.408975395283733 -20.127799224637897 0 0 0 0 -161.42957084879549 98.545227049304685 0 98.545227049304685 16.191705627703868 0 0 0 0 -296.86156702301878 171.89815383839982 0 171.89815383839982 -22.700800336792554 0 0 0 0 -24.217440109068775 -228.60116958572098 0 -228.60116958572098 -426.82594098685331 0 0 0 0 -205.88068399302711 -35.305237803902855 0 -35.305237803902855 4.7338760307279699 0 0 0 0 -55.964030582433452 -24.847250859807446 0 -24.847250859807446 -13.36544755188288 0 0 0 0 -309.52721968709642 8.0632597571479891 0 8.0632597571479891 53.95218919367835 0 0 0 0 -209.88628384282856 35.325984826573631 0 35.325984826573631 36.112533888041526 0 0 0 0 -35.633822132227579 -25.270498652621427 0 -25.270498652621427 6.9772986482200849 0 0 0 0 -64.861332970851663 2.0062149057980605 0 2.0062149057980605 12.458607109096192 0 0 0 0 -95.223210158652364 -31.154945126818234 0 -31.154945126818234 -7.3473063887322496 0 0 0 0 34.118856335240253 1.3952693330514876 0 1.3952693330514876 -30.379795971833232 0 0 0 0 -3.0399091757894894 1.8673455116854711 0 1.8673455116854711 -4.4980785490556627 0 0 0 0 -0.21978845174906425 2.494856147454287 0 2.494856147454287 -1.310985726460749 0 0 0 0 6.1184565368771473 -10.605233040580629 0 -10.605233040580629 -5.1319703517447124 0 0 0 0 0.033675283227246666 1.935086114740705 0 1.935086114740705 -3.3645602703733335 0 0 0 0 -4.3299030140601644 4.4932238791235477 0 4.4932238791235477 -2.4386241583479205 0 0 0 0 38.654895554203904 98.767414231760995 0 98.767414231760995 15.406762677465849 0 0 0 0 0.20996049029995589 -0.17926023040762784 0 -0.17926023040762784 -1.2593802861029224 0 0 0 0 -15.380471126910379 7.1130231018737504 0 7.1130231018737504 6.5386191433444765 0 0 0 0 -164.25979493666591 70.800435439893363 0 70.800435439893363 74.075759585677133 0 0 0 0 -9.3776800374189406 58.390273710791462 0 58.390273710791462 32.193829058505344 0 0 0 0 -159.49473101494095 51.509494209786681 0 51.509494209786681 48.545854210293328 0 0 0 0 -153.95174917902341 20.28962974719002 0 20.28962974719002 37.359781074558839 0 0 0 0 -123.52728501163642 49.468303067953116 0 49.468303067953116 32.71150825876839 0 0 0 0 -9.5546098444829113 -17.710921597074503 0 -17.710921597074503 -46.159599818374204 0 0 0 0 -9.3875696580057593 -21.517474117364486 0 -21.517474117364486 -21.192979884729084 0 0 0 0 -37.013648101638466 -13.599281401692267 0 -13.599281401692267 -31.568645869715738 0 0 0 0 -14.605192736431945 2.9817313387412696 0 2.9817313387412696 -49.847725268408254 0 0 0 0 -14.560728083913091 1.6667263841172257 0 1.6667263841172257 -11.484314058454629 0 0 0 0 -4.5995065054307815 -8.13523275049522 0 -8.13523275049522 -34.471500510111355 0 0 0 0 1.4089439261510961 -0.95954145801692903 0 -0.95954145801692903 -9.549250352977765 0 0 0 0 -5.6307016710138669 -9.9423289273839259 0 -9.9423289273839259 -5.1747012510193144 0 0 0 0 114.77761557381882 -24.230124053903637 0 -24.230124053903637 -34.90282113576302 0 0 0 0 -0.06005744712923744 0.20451786291619634 0 0.20451786291619634 0.33689972683577363 0 0 0 0 -22.912259250197621 -24.115868529970498 0 -24.115868529970498 -16.779357998324713 0 0 0 0 53.210498862631539 -34.710873560955633 0 -34.710873560955633 -31.513392373167335 0 0 0 0 42.417844171823617 -5.4264866886715026 0 -5.4264866886715026 -52.213234663867524 0 0 0 0 2.9620748731349522 -21.950610601009657 0 -21.950610601009657 -33.024585129824914 0 0 0 0 0.17488733267418866 -32.416602863066146 0 -32.416602863066146 -14.658338624508588 0 0 0 0 16.812463998056728 -21.218589662578609 0 -21.218589662578609 -29.264044015948912 0 0 0 0 17.507936837757825 -22.444635972473634 0 -22.444635972473634 -34.31906465706129 0 0 0 0 19.599561889612232 -6.6235591565490495 0 -6.6235591565490495 -12.021070325023629 0 0 0 0 -4.6834856250379744 -27.962261751504911 0 -27.962261751504911 -12.522782775792621 0 0 0 0 -5.2864280178439458 -22.549162041480329 0 -22.549162041480329 -22.117488817707908 0 0 0 0 -27.376730366321681 -21.386480478368867 0 -21.386480478368867 -3.5003787064442804 0 0 0 0 -41.061988913584855 -14.308086863278788 0 -14.308086863278788 -22.344961889969909 0 0 0 0 -33.087439559033555 -30.230313703983029 0 -30.230313703983029 -21.279864388704482 0 0 0 0 -50.729926930015608 -25.832897963157393 0 -25.832897963157393 -12.265631354693937 0 0 0 0 -27.480261909832059 -11.578654399918804 0 -11.578654399918804 -6.5238953749021675 0 0 0 0 -30.534408261408771 -20.67766124874106 0 -20.67766124874106 -3.0996249607801474 0 0 0 0 -25.09008235987676 -13.630666703924135 0 -13.630666703924135 5.8335530722956719 0 0 0 0 -9.7504374274958536 -24.04886614348834 0 -24.04886614348834 -4.1415288121050366 0 0 0 0 -3.7920712130253378 -17.256784252118905 0 -17.256784252118905 2.7934232054044514 0 0 0 0 13.243418482063134 -26.392635916196696 0 -26.392635916196696 11.093031829180291 0 0 0 0 -13.921415686193995 -23.199914941961879 0 -23.199914941961879 18.678702059370607 0 0 0 0 -30.403689434750504 -11.180703328456048 0 -11.180703328456048 13.809204131177921 0 0 0 0 -11.015272991518032 -19.75020211476658 0 -19.75020211476658 4.7409545649936149 0 0 0 0 12.955348633517133 -17.477809582917416 0 -17.477809582917416 -6.5842384201262121 0 0 0 0 16.839732846858169 -32.213872931429023 0 -32.213872931429023 11.77161504309754 0 0 0 0 -86.905960032320749 -7.682695432202074 0 -7.682695432202074 3.7948519105025298 0 0 0 0 -5.7969236574851086 -4.7301382485136454 0 -4.7301382485136454 -3.7350924992375241 0 0 0 0 -2.0502851642991118 -26.077785414098486 0 -26.077785414098486 23.431395627152597 0 0 0 0 9.230654244591733 -42.836453337117746 0 -42.836453337117746 20.928137396175771 0 0 0 0 -8.2527085478838185 -7.2466277273413162 0 -7.2466277273413162 -6.1004156864157961 0 0 0 0 -22.359479023395238 28.707008602904693 0 28.707008602904693 -39.244012374527813 0 0 0 0 -17.287795094479748 31.248085440279965 0 31.248085440279965 -65.210434486299391 0 0 0 0 -59.751095023132905 12.698632792475328 0 12.698632792475328 -40.348135216468791 0 0 0 0 -17.395267194226733 29.085408993630608 0 29.085408993630608 -47.438260163640052 0 0 0 0 -59.656910230123145 32.058651021459468 0 32.058651021459468 -8.4835368678320719 0 0 0 0 -8.1686201853851674 -20.630349131999019 0 -20.630349131999019 -5.3445205591693821 0 0 0 0 -56.0185075103537 47.498432822275049 0 47.498432822275049 -32.950331990090604 0 0 0 0 -50.822302233122343 12.988872688318793 0 12.988872688318793 -97.531244921653411 0 0 0 0 -62.129075535807537 0.88441525094957996 0 0.88441525094957996 -79.267519321843793 0 0 0 0 -51.514223192807741 35.330065820416252 0 35.330065820416252 -48.245489240805455 0 0 0 0 -16.769794994747258 43.714147433135622 0 43.714147433135622 -57.733038993444836 0 0 0 0 -24.553422165147822 41.347163156156682 0 41.347163156156682 -54.351265927781128 0 0 0 0 -18.554244850248438 26.105180630344222 0 26.105180630344222 -26.797472328503773 0 0 0 0 -5.9516582736923738 -28.258383089052813 0 -28.258383089052813 18.595409566514434 0 0 0 0 -9.7520173323355266 -19.90406007491049 0 -19.90406007491049 10.305891463520311 0 0 0 0 -11.159325510868939 -18.725608948771651 0 -18.725608948771651 20.011736658133486 0 0 0 0 -38.064430536342797 31.87236646280013 0 31.87236646280013 -41.911738714931516 0 0 0 0 -0.20780789707527747 -1.3312771411789122 0 -1.3312771411789122 -2.0539141501384868 0 0 0 0 -10.932643828821298 -8.9561632812810341 0 -8.9561632812810341 -7.2903675142975555 0 0 0 0 8.2674704569726032 -29.251920402422172 0 -29.251920402422172 -32.708791725824995 0 0 0 0 -61.155916356208849 23.694184763700605 0 23.694184763700605 -36.722695672097871 0 0 0 0 -5.2629393897826731 -19.750427481255016 0 -19.750427481255016 11.898711705423921 0 0 0 0 -9.7647244278050458 -5.746152178298253 0 -5.746152178298253 -2.8450397735551367 0 0 0 0 -14.151812889037501 -23.018319904742384 0 -23.018319904742384 24.648095032667015 0 0 0 0 -18.810366941843313 -2.5042409579398281 0 -2.5042409579398281 -2.7164083980308078 0 0 0 0 -20.885186240657276 -18.993701619219337 0 -18.993701619219337 15.281882654313222 0 0 0 0 -49.081601653067992 11.855458306115906 0 11.855458306115906 10.515176142789187 0 0 0 0 -32.46704312483871 -1.1857714066434255 0 -1.1857714066434255 9.8098530618758559 0 0 0 0 -2.7904585380506433 -22.177136567361913 0 -22.177136567361913 8.2694998516190026 0 0 0 0 -3.3595040217301744 6.3067376864044959 0 6.3067376864044959 -27.96212973468937 0 0 0 0 -53.828665217131856 4.423613823339565 0 4.423613823339565 45.927307625191474 0 0 0 0 4.5165584505452898 10.05775434590214 0 10.05775434590214 -3.1118308902505305 0 0 0 0 -1.8968060390869326 6.9007101127182686 0 6.9007101127182686 4.2533085305806146 0 0 0 0 0.19353953416350578 3.7270356332185202 0 3.7270356332185202 7.0499062193306372 0 0 0 0 4.1855590699238068 8.1426919091361825 0 8.1426919091361825 -9.1828723540488681 0 0 0 0 -10.298081924650546 18.064217780259696 0 18.064217780259696 14.120864560103655 0 0 0 0 -6.948851244137968 4.6331947492771741 0 4.6331947492771741 0.4754117863684888 0 0 0 0 1.0743868948318926 1.2024071036871011 0 1.2024071036871011 -0.031123594028315438 0 0 0 0 -53.11250402358246 -8.7673733473995981 0 -8.7673733473995981 -0.11483925628249381 0 0 0 0 -24.523495622405648 3.6988625314831083 0 3.6988625314831083 4.839589785647604 0 0 0 0 -42.738780127003338 7.8477705532163782 0 7.8477705532163782 5.179640485770733 0 0 0 0 -1.1829434592582195 2.9929672959340525 0 2.9929672959340525 -0.16935142762783784 0 0 0 0 -2.79279007972454 1.6848367190517415 0 1.6848367190517415 4.4548306254091585 0 0 0 0 -11.70885280120001 2.2715604468075981 0 2.2715604468075981 8.6844380722045571 0 0 0 0 -6.1054000327169931 0.36537513437386959 0 0.36537513437386959 0.25390752759880453 0 0 0 0 -37.756733283255016 -14.443812040427929 0 -14.443812040427929 14.054693305363344 0 0 0 0 -0.54785468379851954 2.9867200470090145 0 2.9867200470090145 -1.4275335741896935 0 0 0 0 16.696575607257273 -10.843860697666514 0 -10.843860697666514 -29.099926227476317 0 0 0 0 -22.735278110954823 11.573265148124392 0 11.573265148124392 7.308422970743095 0 0 0 0 -8.5512552467598653 8.8932245318933383 0 8.8932245318933383 -8.6995969364543271 0 0 0 0 -39.163347742357018 26.842752385894642 0 26.842752385894642 -18.424324319640618 0 0 0 0 -41.254530532349236 4.5799944281766329 0 4.5799944281766329 6.5272632835893489 0 0 0 0 -66.33701817597921 6.3835305532268194 0 6.3835305532268194 6.9047963714527896 0 0 0 0 -43.573985863698908 -3.8573439537847207 0 -3.8573439537847207 3.7010368788918413 0 0 0 0 -30.190953961811829 -13.218497613702766 0 -13.218497613702766 6.3911153784839598 0 0 0 0 -44.745165150215826 3.240564216810526 0 3.240564216810526 9.4868815539630305 0 0 0 0 -5.8477669908436383 65.573386958095625 0 65.573386958095625 -6.8055642723006713 0 0 0 0 -13.803252799107399 5.2603817914430868 0 5.2603817914430868 2.2236475303195338 0 0 0 0 -94.903877515786633 -28.9669939709445 0 -28.9669939709445 -0.3142273481967095 0 0 0 0 -19.581860645449353 -32.88161519047344 0 -32.88161519047344 -34.169988143577712 0 0 0 0 18.285609463942208 -2.7066826113943989 0 -2.7066826113943989 -10.496944717974657 0 0 0 0 -24.006819049325056 -4.6271526115410495 0 -4.6271526115410495 0.11334578173432597 0 0 0 0 -15.309212460606886 -22.649152914002343 0 -22.649152914002343 4.85022709621785 0 0 0 0 -23.507242682731359 -6.2261767704424074 0 -6.2261767704424074 14.134098263090209 0 0 0 0 -68.520335817481822 -30.027177691491715 0 -30.027177691491715 1.7540721077562011 0 0 0 0 -4.4057819248181431 15.663459881913013 0 15.663459881913013 -19.432970908313109 0 0 0 0 -55.904169914347307 27.201773588590044 0 27.201773588590044 0.44888906515870985 0 0 0 0 -10.610158628681347 6.8123925320139733 0 6.8123925320139733 6.5843541848912537 0 0 0 0 -23.421564324574831 11.579746922587674 0 11.579746922587674 16.849510272809312 0 0 0 0 -7.7382312745370427 11.407679259916165 0 11.407679259916165 -5.6424815803829915 0 0 0 0 -11.50491592832044 3.258804735082371 0 3.258804735082371 0.039872517730185741 0 0 0 0 -12.797194449724429 18.440511053101318 0 18.440511053101318 -5.6245659993569461 0 0 0 0 5.6195537530957154 5.2806811536902387 0 5.2806811536902387 5.5670782659075257 0 0 0 0 -1.3021423275169255 0.82946026809877615 0 0.82946026809877615 8.1858119316713385e-05 0 0 0 0 -6.6148441907150541 -0.49530764599412613 0 -0.49530764599412613 0.54179498859935427 0 0 0 0 -6.9555777300720365 5.4334195775786611 0 5.4334195775786611 -19.907921860930628 0 0 0 0 -7.7039755570121997 -6.9488030576785604 0 -6.9488030576785604 4.4346689651902125 0 0 0 0 -10.397582131368836 -6.7213598971102329 0 -6.7213598971102329 9.0158575738300897 0 0 0 0 -2.3727824892760534 -3.3162275504680192 0 -3.3162275504680192 1.7714892809192699 0 0 0 0 -4.7333247643409777 4.8194994616669646 0 4.8194994616669646 -34.492108038993138 0 0 0 0 0.15619334778239136 -17.773510501072451 0 -17.773510501072451 4.6103638718991533 0 0 0 0 -28.063617925399885 -11.048491390675025 0 -11.048491390675025 20.373983445107115 0 0 0 0 -15.65572734190963 -4.1756859531217678 0 -4.1756859531217678 -0.68242967046930403 0 0 0 0 5.5972385907248281 0.63282346840856007 0 0.63282346840856007 3.896871041562008 0 0 0 0 -9.1985176562820925 -9.7328868891863749 0 -9.7328868891863749 -2.7241704465222938 0 0 0 0 -3.2056544954776385 -1.5562036038747156 0 -1.5562036038747156 -0.22009162021696227 0 0 0 0 6.8981532784036972 -3.4643564621192127 0 -3.4643564621192127 -14.745489123960397 0 0 0 0 -14.52349616526044 7.7965700540971739 0 7.7965700540971739 -11.360322971907408 0 0 0 0 -1.8745721647625331 -0.95147725506933956 0 -0.95147725506933956 1.0265729989433652 0 0 0 0 -13.011982482252279 10.827301257980707 0 10.827301257980707 -31.906402110758791 0 0 0 0 -16.711400762664198 14.478090086849988 0 14.478090086849988 -35.45299156501369 0 0 0 0 -3.2369190241061006 -2.46732990025248 0 -2.46732990025248 -32.59385435824106 0 0 0 0 -28.87686241045958 22.801946537790172 0 22.801946537790172 -26.773774305562711 0 0 0 0 -28.180188138572703 15.498279700973853 0 15.498279700973853 -27.198862525168806 0 0 0 0 4.7894684283237439 26.661649896128722 0 26.661649896128722 -64.180932832400686 0 0 0 0 -1.0365387303643878 -0.71895221750054894 0 -0.71895221750054894 -0.35557678967394546 0 0 0 0 -88.97324487053811 78.249708078505137 0 78.249708078505137 -92.540156426434351 0 0 0 0 -81.200148240975977 42.286149332082005 0 42.286149332082005 -33.960776154212454 0 0 0 0 -133.3323380389229 -4.252514851919841 0 -4.252514851919841 -0.2163585380293398 0 0 0 0 -73.895910794996325 17.047313839621324 0 17.047313839621324 -12.033002728435349 0 0 0 0 -213.94619842182146 -38.086168271190672 0 -38.086168271190672 6.3694479169980696 0 0 0 0 -204.96206469241588 55.915172272817927 0 55.915172272817927 -21.38384270002939 0 0 0 0 -17.351523491803164 -33.334316701908847 0 -33.334316701908847 -68.420551030433444 0 0 0 0 -53.256474299634647 -46.619358607447793 0 -46.619358607447793 31.840451885410857 0 0 0 0 -56.757103068062634 -57.261058935906419 0 -57.261058935906419 3.9891124700534419 0 0 0 0 -31.181393409407065 -13.933584590567193 0 -13.933584590567193 2.0029437433327075 0 0 0 0 -25.472699926664063 -15.124674578586109 0 -15.124674578586109 -1.8275407497028446 0 0 0 0 -13.058595644723027 4.2526807431686393 0 4.2526807431686393 0.25186183372727555 0 0 0 0 -27.76770323996243 -1.7563710488468587 0 -1.7563710488468587 -1.63551866939315 0 0 0 0 -38.656209423392056 2.6502901497811422 0 2.6502901497811422 -2.367826508689177 0 0 0 0 -35.17714986023384 -13.205676716232119 0 -13.205676716232119 -4.5966284974365408 0 0 0 0 -47.223477524676127 -20.106866496310886 0 -20.106866496310886 -1.8076480020923462 0 0 0 0 -57.005967379894344 -7.8482808942633184 0 -7.8482808942633184 -2.255284698970172 0 0 0 0 -66.082145347139885 -10.481690121382144 0 -10.481690121382144 0.080211463716523212 0 0 0 0 -84.709939524429501 0.010584052527065069 0 0.010584052527065069 -2.9240695674006929 0 0 0 0 -58.936713249914646 24.413345069734987 0 24.413345069734987 -20.751441355727366 0 0 0 0 -48.476808528241236 -3.9953153903088605 0 -3.9953153903088605 -2.9148068102713687 0 0 0 0 -57.135500637293262 8.0667499067627659 0 8.0667499067627659 -8.3116735406820226 0 0 0 0 -29.440032246049668 4.3729713965667543 0 4.3729713965667543 -7.8190301412594181 0 0 0 0 -26.970389157761247 15.42376105738299 0 15.42376105738299 -21.369675943221409 0 0 0 0 -27.424079992237239 13.337433080502251 0 13.337433080502251 -16.951521576013874 0 0 0 0 -20.930610463252378 9.9596844474690442 0 9.9596844474690442 -23.085285974722865 0 0 0 0 -22.540369375914452 13.570974828921862 0 13.570974828921862 -14.205113249522583 0 0 0 0 -18.27114374798839 9.4400054938628273 0 9.4400054938628273 -17.384288854191709 0 0 0 0 -18.255554754422384 12.295582782558842 0 12.295582782558842 -16.594843935879908 0 0 0 0 -16.555776934822916 7.7225261714027056 0 7.7225261714027056 -8.5475371148813792 0 0 0 0 -21.359096899064753 10.733110201991849 0 10.733110201991849 -2.3181472768305866 0 0 0 0 -18.138845029678123 7.148151946222697 0 7.148151946222697 -6.8732762447943117 0 0 0 0 -30.813619842154367 5.7964631685993027 0 5.7964631685993027 -6.9232882061760392 0 0 0 0 -15.306419387379719 5.6475945861534456 0 5.6475945861534456 0.9630769226926077 0 0 0 0 -15.600521666538043 10.290622399858648 0 10.290622399858648 -1.029449654500695 0 0 0 0 -8.0575107839486009 9.6294377632295891 0 9.6294377632295891 -3.9216650385196772 0 0 0 0 -7.5424692222750309 7.5951966106727014 0 7.5951966106727014 -3.2479938077422048 0 0 0 0 -11.409856755175497 11.072352020734343 0 11.072352020734343 -5.9558807643820728 0 0 0 0 -6.3648448348849342 11.070754396227358 0 11.070754396227358 -12.408760540977255 0 0 0 0 -11.244569362364928 8.2124273533008818 0 8.2124273533008818 -6.0665536549813623 0 0 0 0 -15.240393969171464 12.41080752667699 0 12.41080752667699 -10.231882730781763 0 0 0 0 -13.766256026923656 8.3244703857626519 0 8.3244703857626519 -13.143161367142056 0 0 0 0 -9.1794148502904136 10.423201057067217 0 10.423201057067217 -19.652719387914658 0 0 0 0 -12.968512514885035 8.4664428873666253 0 8.4664428873666253 -22.535372803696191 0 0 0 0 -11.967827867047163 13.1457067783615 0 13.1457067783615 -22.268427264964885 0 0 0 0 -9.124101527841276 9.6335615354375363 0 9.6335615354375363 -12.494881696239645 0 0 0 0 -5.5871500622488384 10.311198419048878 0 10.311198419048878 -16.75020255529364 0 0 0 0 -6.7879123713773879 4.5651409245651848 0 4.5651409245651848 -18.968113124995853 0 0 0 0 -7.3566966162954941 6.5016299856733326 0 6.5016299856733326 -11.160654796901326 0 0 0 0 -6.479832113485827 10.350884569613299 0 10.350884569613299 -11.993290765288862 0 0 0 0 -7.1538112196490147 10.99749556568122 0 10.99749556568122 -10.440283364771403 0 0 0 0 -1.2420574141478937 12.144215521603201 0 12.144215521603201 -10.943501308373925 0 0 0 0 -4.4160121599336435 11.648667003860652 0 11.648667003860652 -9.6279814839244864 0 0 0 0 -5.1778877625056339 8.4899968801578325 0 8.4899968801578325 -7.5297996341319049 0 0 0 0 1.3639270945186581 6.7717272110428439 0 6.7717272110428439 -6.6858511494776849 0 0 0 0 -4.3998167533700325 6.3403542664626684 0 6.3403542664626684 -1.5903572623519722 0 0 0 0 -4.8990116270761064 7.4923242506754377 0 7.4923242506754377 -0.085537491813738598 0 0 0 0 -3.2887167038552434 5.3901305886756745 0 5.3901305886756745 0.94077639032252591 0 0 0 0 -6.911595895323444 4.5737739094885228 0 4.5737739094885228 9.2694511760337264 0 0 0 0 -2.8294787932654799 1.312253540682832 0 1.312253540682832 12.294727238867836 0 0 0 0 -4.4521299675023833 0.27820621666858059 0 0.27820621666858059 0.088706095006297669 0 0 0 0 -1.4551583683996228 -0.34502802823705903 0 -0.34502802823705903 0.39406276764342785 0 0 0 0 -4.2458319457355174 8.87176975509351 0 8.87176975509351 12.370588115739793 0 0 0 0 -7.797122355472311 -11.85068660627644 0 -11.85068660627644 2.1021831377238414 0 0 0 0 -1.1164151644752565 6.3553559379412263 0 6.3553559379412263 8.2402151430561617 0 0 0 0 -7.60214540394918 1.45457782729477 0 1.45457782729477 11.236852399706208 0 0 0 0 -4.0556224797351206 1.1053096820823498 0 1.1053096820823498 9.8657651969142535 0 0 0 0 -8.3557619644534498 0.9575398724086881 0 0.9575398724086881 10.310617643594014 0 0 0 0 -8.9972454142916831 2.3309197920193583 0 2.3309197920193583 10.059516713872654 0 0 0 0 -10.796185328981664 2.8779215602130535 0 2.8779215602130535 10.409845939452453 0 0 0 0 -14.119104580326166 5.974386873050662 0 5.974386873050662 7.2084816951842186 0 0 0 0 -9.8583536912410636 1.4960753164742755 0 1.4960753164742755 10.695537682902795 0 0 0 0 -6.0270425333492312 5.4533211524176295 0 5.4533211524176295 4.5486292519208291 0 0 0 0 -10.31556758210786 8.550243141292043 0 8.550243141292043 0.43312414161391644 0 0 0 0 -9.4111972519967821 6.254660033484015 0 6.254660033484015 4.5957209991083232 0 0 0 0 -10.692951351801071 4.9268319942802634 0 4.9268319942802634 3.9131377216453984 0 0 0 0 -18.911249127961923 -0.67321104934131881 0 -0.67321104934131881 11.511573256901102 0 0 0 0 -18.011848641848701 7.5605971879217577 0 7.5605971879217577 5.2643747753254502 0 0 0 0 -15.242499610854793 2.1042212007555463 0 2.1042212007555463 14.731367397318536 0 0 0 0 -11.266412096461863 0.16047632362256081 0 0.16047632362256081 9.9983936464695944 0 0 0 0 -12.670464588331015 1.5782464673902723 0 1.5782464673902723 10.052244172286009 0 0 0 0 -10.955024577453514 -1.0567029379495807 0 -1.0567029379495807 10.192823772382098 0 0 0 0 -6.6398812736497348 0.45616521198758164 0 0.45616521198758164 9.6679398561597054 0 0 0 0 -7.4747955758575699 -5.8676470304958457 0 -5.8676470304958457 16.219848678453786 0 0 0 0 10.913721130052181 -16.324203845395004 0 -16.324203845395004 12.570583369761607 0 0 0 0 -2.8066870289303552 -4.1941358406929794 0 -4.1941358406929794 4.5237906249635671 0 0 0 0 -5.678172866040768 -0.47030866938109739 0 -0.47030866938109739 5.1505847360681116 0 0 0 0 -30.609069325050314 -6.4643895151359629 0 -6.4643895151359629 3.4407759129776423 0 0 0 0 0.080945920409407179 0.4042481637394566 0 0.4042481637394566 0.070996667894140941 0 0 0 0 -15.726634271661169 -3.3041801602180385 0 -3.3041801602180385 2.57730719787628 0 0 0 0 -16.32227974224952 -6.3112577591600711 0 -6.3112577591600711 34.32298272500725 0 0 0 0 2.8359575559843506 -4.5853675501598445 0 -4.5853675501598445 3.8260466259798704 0 0 0 0 -88.463126565364746 10.525917740760292 0 10.525917740760292 4.7442155667245061 0 0 0 0 -64.859375554736289 -6.9264744870888535 0 -6.9264744870888535 -9.05436408807509 0 0 0 0 -59.802718298386935 -1.8291006835631833 0 -1.8291006835631833 -5.8492756683226617 0 0 0 0 -57.097854860742132 -9.7233206324499974 0 -9.7233206324499974 3.9087015505683667 0 0 0 0 -61.022193837275154 13.467829866288412 0 13.467829866288412 0.023083235599415275 0 0 0 0 -53.430603674437975 4.9684991728963155 0 4.9684991728963155 -9.6401492928080188 0 0 0 0 -0.27987574546024518 0.18597179582033618 0 0.18597179582033618 -0.52800430496436368 0 0 0 0 -58.006059758097763 8.6084967354518085 0 8.6084967354518085 7.8049620501728896 0 0 0 0 -2.223964852248173 2.8648742155041873 0 2.8648742155041873 5.7217709634740004 0 0 0 0 -7.1659960861125001 7.6928966297075476 0 7.6928966297075476 -8.841773570285568 0 0 0 0 -13.752338035066714 7.1482046717164849 0 7.1482046717164849 -6.782993934643855 0 0 0 0 -1.1296290817681287 0.78223299499848231 0 0.78223299499848231 0.058794437908170849 0 0 0 0 -7.5760714157222537 12.915351605842716 0 12.915351605842716 -2.4500882498082319 0 0 0 0 -2.7073514334806532 18.880072914055063 0 18.880072914055063 -18.644587737061102 0 0 0 0 -2.8774604930804344 15.86453116130798 0 15.86453116130798 -14.009084545780752 0 0 0 0 -2.4780967179394793 21.262979356775986 0 21.262979356775986 -6.7063468652112306 0 0 0 0 2.5198791969960439 12.046298808812708 0 12.046298808812708 -12.542185955209106 0 0 0 0 2.97092512456652 4.9014818370897331 0 4.9014818370897331 -8.0613712456015492 0 0 0 0 -40.453178631554692 11.581452991697688 0 11.581452991697688 -8.0181318611607821 0 0 0 0 -41.934694513113755 16.883711195269143 0 16.883711195269143 -14.202339824719047 0 0 0 0 -18.86127278891945 -20.338988867824696 0 -20.338988867824696 -3.7985966084406755 0 0 0 0 -28.24243984102867 47.294505042370758 0 47.294505042370758 -32.421036406893563 0 0 0 0 -0.37428617821266386 0.0018777096027293716 0 0.0018777096027293716 0.24952977132528176 0 0 0 0 4.6032477185299285 9.6726433351309424 0 9.6726433351309424 -18.205972871908671 0 0 0 0 0.53459456244263492 11.397849337362686 0 11.397849337362686 -12.291630648988303 0 0 0 0 7.1142004484090648 1.1125974639448941 0 1.1125974639448941 -4.8422280789294518 0 0 0 0 -25.775252705294406 -35.498545683477573 0 -35.498545683477573 -41.259407978619379 0 0 0 0 -11.189837455890654 11.963449300158587 0 11.963449300158587 10.092215518683361 0 0 0 0 -3.2912247284853215 -0.19511890042990621 0 -0.19511890042990621 0.25806959633062165 0 0 0 0 -79.600525200764423 -88.784486331092012 0 -88.784486331092012 -102.39037739084202 0 0 0 0 -1.3698156695836801 -0.3263534234002442 0 -0.3263534234002442 0.15454903134396147 0 0 0 0 -147.05315186300641 -15.908151293589583 0 -15.908151293589583 -24.704104742208756 0 0 0 0 -128.46953546906298 -12.953619989970662 0 -12.953619989970662 -2.8566963058707415 0 0 0 0 -107.33756678767077 30.339018263314074 0 30.339018263314074 -14.971154780103916 0 0 0 0 -77.171789197047929 -48.477840946480171 0 -48.477840946480171 -54.141103644381246 0 0 0 0 -37.977276321570912 -5.8287257706694504 0 -5.8287257706694504 -92.657337846036398 0 0 0 0 -104.47417403650797 26.797915556964881 0 26.797915556964881 -49.332183435443653 0 0 0 0 -61.538599750900175 21.340594667264611 0 21.340594667264611 -50.070573060933867 0 0 0 0 -66.988583936566101 -0.22168682727358657 0 -0.22168682727358657 7.8940012259782009 0 0 0 0 -53.278962302220407 -49.193425596693018 0 -49.193425596693018 -14.983805416973368 0 0 0 0 -40.659804806042303 -10.107178639096595 0 -10.107178639096595 -10.940541343953853 0 0 0 0 -81.982783146248039 -32.758077344344656 0 -32.758077344344656 -23.031917574204385 0 0 0 0 -36.260743603348601 -47.758242206419254 0 -47.758242206419254 -35.130289540280458 0 0 0 0 -32.277062204601407 -31.33755148243003 0 -31.33755148243003 -35.8589177782261 0 0 0 0 -32.322028801592751 -39.473269258479263 0 -39.473269258479263 -17.872969251287259 0 0 0 0 -10.587310535808683 -17.407907200498528 0 -17.407907200498528 -19.732487067087732 0 0 0 0 -31.811553555909086 -38.849311282548967 0 -38.849311282548967 -20.529404272416059 0 0 0 0 -32.91592311844397 -45.01890715827318 0 -45.01890715827318 -19.444203273189551 0 0 0 0 -32.811300107392071 -44.303617331768876 0 -44.303617331768876 -15.692216262551568 0 0 0 0 -43.464179313691602 -40.728244934013773 0 -40.728244934013773 -8.1829839790783581 0 0 0 0 -10.925752560949149 -20.462444196162487 0 -20.462444196162487 -14.944256691936111 0 0 0 0 2.7899125197964167 8.6829169372991828 0 8.6829169372991828 14.745957477259026 0 0 0 0 -30.508441787499805 -32.461929243015078 0 -32.461929243015078 -20.696512194382194 0 0 0 0 -8.9911726422578724 0.54866970328640363 0 0.54866970328640363 0.0071740281340972878 0 0 0 0 -16.443952214071942 20.710362240034215 0 20.710362240034215 44.262801666025567 0 0 0 0 -14.416509723372258 1.3433932175618524 0 1.3433932175618524 0.015481635477391342 0 0 0 0 -19.897790287856878 -0.55860282934534666 0 -0.55860282934534666 46.511962058381414 0 0 0 0 -9.4698063620339781 19.617196025074037 0 19.617196025074037 19.848286437262459 0 0 0 0 -7.2522012636738964 1.3624249229307566 0 1.3624249229307566 5.3591006315177481 0 0 0 0 -45.254494387255363 -5.3234332403440803 0 -5.3234332403440803 34.373456900814574 0 0 0 0 4.2807947512574174 10.820557557833297 0 10.820557557833297 -75.185327003431667 0 0 0 0 -4.0214849062995199 2.5186285368149584 0 2.5186285368149584 2.4565826360583287 0 0 0 0 -0.71773062890017147 2.6999223278121391 0 2.6999223278121391 -0.55154455298794192 0 0 0 0 8.1818470774232992 -3.5919251573296265 0 -3.5919251573296265 -2.0379803509540579 0 0 0 0 4.178207682150969 0.83592240443783794 0 0.83592240443783794 -4.8961173216265479 0 0 0 0 2.7732039713155245 1.6395457759404053 0 1.6395457759404053 -5.3020524529748627 0 0 0 0 2.0497937622967584 0.2175700384340189 0 0.2175700384340189 -3.9619744939504926 0 0 0 0 3.1737480477895588 -0.54772659408251911 0 -0.54772659408251911 -3.4679011830849049 0 0 0 0 -1.0162027091100754 2.7202307692259637 0 2.7202307692259637 -1.2870874542611546 0 0 0 0 0.59075715230301284 -1.739836562259427 0 -1.739836562259427 3.7207392565703685 0 0 0 0 1.3016810340886877 -5.9609834914424482 0 -5.9609834914424482 12.10041904842285 0 0 0 0 -2.7636015852935785 0.22287136038854127 0 0.22287136038854127 0.20856954678664474 0 0 0 0 -2.8633566911321395 0.51193789019737324 0 0.51193789019737324 3.1147174898580943 0 0 0 0 -2.611392412942223 -2.8450081076525748 0 -2.8450081076525748 -6.532188427814333 0 0 0 0 -1.4009495338963029 0.86101957023129749 0 0.86101957023129749 0.43253110281609874 0 0 0 0 -28.083951167569467 -15.301233620854191 0 -15.301233620854191 12.717875418640176 0 0 0 0 -20.634097609898163 7.0395297294344346 0 7.0395297294344346 20.842023763020094 0 0 0 0 -4.8543752682371633 -0.81145604573225683 0 -0.81145604573225683 4.2585247163860913 0 0 0 0 -14.807478977796563 -20.188691135229192 0 -20.188691135229192 -10.255831998603981 0 0 0 0 -6.7182225825239215 0.8799807957563015 0 0.8799807957563015 0.56659201966271833 0 0 0 0 -22.676125390767993 -3.7242729468439393 0 -3.7242729468439393 20.481030294261075 0 0 0 0 8.5562567978959123 13.540792481313702 0 13.540792481313702 -9.0603419324106653 0 0 0 0 -6.5857545818889776 -5.9871081572154026 0 -5.9871081572154026 -15.787473587845398 0 0 0 0 -0.89256616012482937 0.021049352176939706 0 0.021049352176939706 0.42090503980128835 0 0 0 0 8.7486177562823286 22.404315692805994 0 22.404315692805994 -13.661685288623914 0 0 0 0 4.6720234921085648 39.528684654455105 0 39.528684654455105 -11.52037194072895 0 0 0 0 -5.2255182997068914 9.704380659826441 0 9.704380659826441 36.68809953005286 0 0 0 0 -44.072517248817348 54.011616767381469 0 54.011616767381469 41.113540714579926 0 0 0 0 6.6505138736320077 22.454170911225923 0 22.454170911225923 8.270007278618877 0 0 0 0 -2.247681977441971 35.212889749168546 0 35.212889749168546 15.767349948864236 0 0 0 0 -29.939857252939873 -5.5910722418926042 0 -5.5910722418926042 8.8871202398780724 0 0 0 0 -27.255967105760647 -6.702953820746302 0 -6.702953820746302 7.6802420216893097 0 0 0 0 -13.124799328372319 3.5303532632013912 0 3.5303532632013912 10.758766099199306 0 0 0 0 12.834289033058667 12.6379772559294 0 12.6379772559294 5.4904563800389496 0 0 0 0 -25.242933783096305 19.034645580593519 0 19.034645580593519 7.0365002158000607 0 0 0 0 -9.7319569766332279 -7.9416350810986387 0 -7.9416350810986387 5.0900596461094665 0 0 0 0 -5.0803877572965703 0.084279487111847962 0 0.084279487111847962 0.2302254900908034 0 0 0 0 -9.0621595752272697 -1.9482372101622332 0 -1.9482372101622332 17.243566503198053 0 0 0 0 -2.680587930342643 -0.20733514657864394 0 -0.20733514657864394 0.55467439859865797 0 0 0 0 -11.699600363332138 11.959880784063898 0 11.959880784063898 22.301132049036369 0 0 0 0 -25.084132583726387 -13.829254084039889 0 -13.829254084039889 2.4050722086983569 0 0 0 0 -19.299540753070687 -8.6410061543620031 0 -8.6410061543620031 3.2468540662653709 0 0 0 0 -23.542839862478104 -18.461021193512124 0 -18.461021193512124 -4.5644026804075111 0 0 0 0 -4.3218315154908851 1.8943250882504117 0 1.8943250882504117 5.9651281541673598 0 0 0 0 -21.188640557213148 -22.686537253498841 0 -22.686537253498841 0.91223780642485508 0 0 0 0 -48.267758155763659 -42.589896435810445 0 -42.589896435810445 -9.7039960583925335 0 0 0 0 -46.937586711928816 -12.82856807849852 0 -12.82856807849852 11.598749439914187 0 0 0 0 -22.512846692131461 -32.084637178720143 0 -32.084637178720143 -59.132649137086673 0 0 0 0 -59.637267926483219 -68.090810747051989 0 -68.090810747051989 -31.371189147270798 0 0 0 0 -70.664724827313876 -116.34055390378842 0 -116.34055390378842 -163.1412549757257 0 0 0 0 -26.835079352431421 23.628073840105685 0 23.628073840105685 -25.921553131208185 0 0 0 0 -3.1139288964916041 -0.03788930127770751 0 -0.03788930127770751 -0.071243358758655173 0 0 0 0 -231.65169596681699 -71.401425578301314 0 -71.401425578301314 3.7085503667854596 0 0 0 0 -93.18895925750985 -22.369411619833954 0 -22.369411619833954 12.658472957158281 0 0 0 0 -46.012015174263979 -1.4190700167021078 0 -1.4190700167021078 -0.39103104617504414 0 0 0 0 0.63164485019726246 2.5147618844180943 0 2.5147618844180943 -2.0343642925285241 0 0 0 0 9.5168068729126389 -4.9628346165927724 0 -4.9628346165927724 3.0287175139828832 0 0 0 0 -54.264188327426382 4.5647753317077218 0 4.5647753317077218 29.411387845608402 0 0 0 0 0.50156107193257782 0.11951596626580496 0 0.11951596626580496 0.078639103730101301 0 0 0 0 23.694337403725513 73.104155169472989 0 73.104155169472989 9.5389628886204036 0 0 0 0 -0.16164887087506496 0.9492422627266226 0 0.9492422627266226 0.64854588010291714 0 0 0 0 -57.815030993107939 128.52634556629891 0 128.52634556629891 -55.763145776305123 0 0 0 0 116.57192674931321 8.292788051686216 0 8.292788051686216 -41.298788552100518 0 0 0 0 -0.287832947791685 4.1586775462103276 0 4.1586775462103276 -2.3405714979621735 0 0 0 0 -0.43091735320649605 7.6721820994121117 0 7.6721820994121117 2.8189563789990757 0 0 0 0 -1.1710556113432631 6.9995909284962892 0 6.9995909284962892 -2.8563023486086649 0 0 0 0 20.349906098999782 7.5277065494566386 0 7.5277065494566386 -3.0090298042914441 0 0 0 0 -1.0774724843344536 2.1294458659115261 0 2.1294458659115261 -2.4983200697279386 0 0 0 0 -0.98081734730112657 2.9057260298951775 0 2.9057260298951775 -2.0641292943523695 0 0 0 0 2.3144353739990038 4.5080176734986139 0 4.5080176734986139 -2.3738212079742951 0 0 0 0 6.140820995622903 3.1046200166445352 0 3.1046200166445352 -4.7261250385895437 0 0 0 0 6.0575734425783594 6.478529463690478 0 6.478529463690478 -8.2798921554645801 0 0 0 0 -49.960483089173067 -13.648779400456931 0 -13.648779400456931 -20.628460526025776 0 0 0 0 -8.2793724574926273 -17.454051025290539 0 -17.454051025290539 -24.867340502222305 0 0 0 0 -0.83527439647514257 -8.4721844974204146 0 -8.4721844974204146 -15.204185635358158 0 0 0 0 -3.0601115081967691 -8.8071008045483836 0 -8.8071008045483836 -13.742696625786948 0 0 0 0 70.874039231323877 -34.520643020410887 0 -34.520643020410887 -38.575868295712326 0 0 0 0 -26.162170405501456 -152.30564197460058 0 -152.30564197460058 -135.74839731508638 0 0 0 0 -3.5911712171291583 -60.659341360318138 0 -60.659341360318138 -47.659741439197887 0 0 0 0 -85.57946509458543 -53.475062221018618 0 -53.475062221018618 -3.5127306809491188 0 0 0 0 -41.073630336887618 -4.0364198513506437 0 -4.0364198513506437 1.7546722806253001 0 0 0 0 -74.24857324551067 -13.58793560957929 0 -13.58793560957929 32.600411325616903 0 0 0 0 -247.81942378726671 -1.8942702382035463 0 -1.8942702382035463 10.734833814443732 0 0 0 0 -27.269761505236602 -21.681526274374335 0 -21.681526274374335 6.9979561730998796 0 0 0 0 -64.742836441526833 43.714371567479944 0 43.714371567479944 15.074946827848407 0 0 0 0 -0.37930131064513262 0.51820489590767238 0 0.51820489590767238 -6.2860358756965979 0 0 0 0 0.88721334083038528 21.646670829652038 0 21.646670829652038 -39.025271203167222 0 0 0 0 0.099790395011360999 0.30456535418211672 0 0.30456535418211672 0.11702005549594852 0 0 0 0 -7.3436962289761141 -5.9459454291070415 0 -5.9459454291070415 52.418777125239387 0 0 0 0 -2.910410677944224 0.89966249383118546 0 0.89966249383118546 -0.14359796805025021 0 0 0 0 -28.271216367041234 10.550241504025934 0 10.550241504025934 39.15393691841723 0 0 0 0 11.977432460813361 40.504232396840337 0 40.504232396840337 44.95664197312999 0 0 0 0 11.797004059309984 41.237058870588669 0 41.237058870588669 46.230827815745016 0 0 0 0 12.799956536378886 41.052966098772288 0 41.052966098772288 45.294487999267062 0 0 0 0 16.416935558146633 6.3188006108849688 0 6.3188006108849688 25.700805151291092 0 0 0 0 -3.0522463920005976 48.042626777267685 0 48.042626777267685 -39.63344699303002 0 0 0 0 -0.98316451158607165 0.41849330168203291 0 0.41849330168203291 -0.13480092815690459 0 0 0 0 3.217399534548349 0.97931978323509838 0 0.97931978323509838 2.1507912621208334 0 0 0 0 -58.990566817210492 -36.427790677402953 0 -36.427790677402953 5.9150165271938704 0 0 0 0 -92.493159285319962 -4.0929528878656924 0 -4.0929528878656924 1.8887684307206882 0 0 0 0 -45.72941463062125 -28.437116901728871 0 -28.437116901728871 12.167759706231777 0 0 0 0 -129.72813565143952 12.766304955837256 0 12.766304955837256 58.503964166548343 0 0 0 0 -42.380173936703613 -52.690472906067896 0 -52.690472906067896 -49.495683543455129 0 0 0 0 -36.486471853993862 16.407478218600431 0 16.407478218600431 -55.451614609047333 0 0 0 0 -29.707052201792976 -19.215426967656754 0 -19.215426967656754 18.052936335656728 0 0 0 0 -19.867049615959331 -36.38982237382794 0 -36.38982237382794 -7.6991899318635433 0 0 0 0 -10.167585823118543 -9.3242200542323062 0 -9.3242200542323062 -28.966990860028545 0 0 0 0 -25.998516239002129 -8.1139610973951903 0 -8.1139610973951903 -17.752156610903455 0 0 0 0 -15.51254280681087 -1.5845843265252739 0 -1.5845843265252739 -23.883542939099698 0 0 0 0 -2.0471886179875582 10.320937163542794 0 10.320937163542794 -11.562001474279043 0 0 0 0 -6.2918145989533514 24.12808529738561 0 24.12808529738561 -8.2644961436049158 0 0 0 0 -6.7168733343632994 22.436526148735254 0 22.436526148735254 4.7268618760915615 0 0 0 0 0.98589845076639904 9.9759779377116047 0 9.9759779377116047 -7.1454935229194803 0 0 0 0 0.24941784378825105 14.212680922156835 0 14.212680922156835 -12.69971274995936 0 0 0 0 -3.1525636559908889 12.436401182254883 0 12.436401182254883 -11.354839650005488 0 0 0 0 -2.0170699040572799 5.4537035762491541 0 5.4537035762491541 -21.680779447030119 0 0 0 0 -17.039905353940412 18.018030639489666 0 18.018030639489666 -25.592994887986151 0 0 0 0 -10.26432492461754 14.127175792369371 0 14.127175792369371 -23.454076527515781 0 0 0 0 -8.6966453420172911 18.941553781531411 0 18.941553781531411 -17.848985979115241 0 0 0 0 -16.520115595383231 16.632900604534342 0 16.632900604534342 -30.421943350404945 0 0 0 0 -20.118232042763793 31.399429637067911 0 31.399429637067911 -32.510469782866494 0 0 0 0 -11.461816992625245 17.814097903326797 0 17.814097903326797 -3.1066667015725216 0 0 0 0 -19.27065014378968 27.479719227885766 0 27.479719227885766 -14.480358884654038 0 0 0 0 -29.211422042299091 29.273905728430975 0 29.273905728430975 15.572692712600883 0 0 0 0 -23.309312417248748 13.944321522847815 0 13.944321522847815 10.140567007074424 0 0 0 0 -4.8604911205984536 18.300061784216382 0 18.300061784216382 9.8005333331629743 0 0 0 0 -3.0416361612697074 15.439815069123881 0 15.439815069123881 10.006001489516962 0 0 0 0 -3.0993494897895744 15.916245350150255 0 15.916245350150255 6.2662624605608244 0 0 0 0 -1.562863756364095 18.60600270019529 0 18.60600270019529 6.243810585876302 0 0 0 0 -11.191596467066574 20.879162412808206 0 20.879162412808206 17.436247111628404 0 0 0 0 0.37870251360662266 0.5246324251907879 0 0.5246324251907879 0.18824413853120203 0 0 0 0 -8.5844356520537985 9.4198768145814711 0 9.4198768145814711 29.291063999235348 0 0 0 0 5.5337015471704945 17.033912881174729 0 17.033912881174729 -20.570313980005949 0 0 0 0 1.3741727121287113 7.3464694232387728 0 7.3464694232387728 9.139695345115058 0 0 0 0 -3.3013494977476512 19.32764075757018 0 19.32764075757018 8.096658143037871 0 0 0 0 -22.28958907139895 81.08769426749609 0 81.08769426749609 148.84137384543416 0 0 0 0 1.906904048982824 -15.461225961074298 0 -15.461225961074298 7.2627306772657221 0 0 0 0 74.358114472995112 70.255246263322789 0 70.255246263322789 26.855625099421786 0 0 0 0 5.2422771035653568 -8.8999259756203628 0 -8.8999259756203628 -7.9707093664288777 0 0 0 0 -2.701493441403727 24.159569429137164 0 24.159569429137164 7.8898441065523457 0 0 0 0 -12.965413802678086 16.939242130400316 0 16.939242130400316 24.206427616122994 0 0 0 0 -4.2406410463341011 1.0022491746352058 0 1.0022491746352058 -0.034994403123312035 0 0 0 0 2.6283137781076675 -4.5667882032157792 0 -4.5667882032157792 48.374260256168554 0 0 0 0 11.077950583056008 40.653338863443139 0 40.653338863443139 45.758061424846346 0 0 0 0 38.175757703153067 22.436299935762037 0 22.436299935762037 -53.517663652662634 0 0 0 0 -1.8019029330023031 0.56855876894319834 0 0.56855876894319834 -0.20575380159382239 0 0 0 0 -100.61141481531013 108.57837963085979 0 108.57837963085979 19.044697112527956 0 0 0 0 -18.080848555680859 -63.563765505867138 0 -63.563765505867138 -112.7729822595083 0 0 0 0 -12.089900834727814 -34.764346684888977 0 -34.764346684888977 8.9145357067781106 0 0 0 0 -162.13152817668333 -70.010287386892045 0 -70.010287386892045 103.8072867710639 0 0 0 0 -4.0682414389870303 0.31649254236070767 0 0.31649254236070767 0.21571372212470463 0 0 0 0 -64.41567425888752 -76.647629107393669 0 -76.647629107393669 104.17878031167083 0 0 0 0 0.37657503036137285 0.94098059160324743 0 0.94098059160324743 0.28370123673498121 0 0 0 0 -4.5879781762981793 12.505851389335977 0 12.505851389335977 4.1882475331944988 0 0 0 0 -77.803396345876536 2.358129074389808 0 2.358129074389808 176.74334284302523 0 0 0 0 -91.292870275428868 -39.716874295599382 0 -39.716874295599382 162.63406104079331 0 0 0 0 -10.35516110181743 -57.755983205159197 0 -57.755983205159197 10.443202117102601 0 0 0 0 -1.4611622802721058 0.069308795839714943 0 0.069308795839714943 0.083013068806330526 0 0 0 0 12.650488713803952 -41.068518146250995 0 -41.068518146250995 -12.493627594410952 0 0 0 0 -8.2149978490342619 24.014131850425429 0 24.014131850425429 -84.924131835696329 0 0 0 0 -0.11370684917918084 -0.2840562569512155 0 -0.2840562569512155 0.15993037636686347 0 0 0 0 -3.7702218392842042 13.329501778060376 0 13.329501778060376 -53.626891986596092 0 0 0 0 37.177663187707367 7.1416638313235694 0 7.1416638313235694 56.142862433049117 0 0 0 0 3.8118412664289281 -48.216144604565471 0 -48.216144604565471 5.3465454661707099 0 0 0 0 -80.031342142598078 -29.004140650862468 0 -29.004140650862468 57.890212797219391 0 0 0 0 -13.823087818043859 -59.186086623051693 0 -59.186086623051693 0.64679230558783729 0 0 0 0 11.87089164507961 43.571016079442941 0 43.571016079442941 -55.113367171208495 0 0 0 0 -58.199403107318631 -27.735368456428375 0 -27.735368456428375 -48.053078548703127 0 0 0 0 -39.685623664390732 49.731377618595957 0 49.731377618595957 -68.25245056546197 0 0 0 0 -38.449417074085432 5.9933826365349319 0 5.9933826365349319 -5.1289916950715053 0 0 0 0 -112.55021663904517 23.649010934744439 0 23.649010934744439 -7.9797413520585678 0 0 0 0 -55.610800752026989 27.829303756454635 0 27.829303756454635 4.1741785644046558 0 0 0 0 -33.103841271686179 1.7259921714667428 0 1.7259921714667428 -13.549878115772685 0 0 0 0 -57.392313398868737 10.405026192687046 0 10.405026192687046 19.580778343480574 0 0 0 0 -39.354443617083689 -19.677198240013368 0 -19.677198240013368 -0.31168731369336911 0 0 0 0 -34.054293565744956 -5.3905248647662347 0 -5.3905248647662347 29.372670744209074 0 0 0 0 -37.822865136788096 20.798396609851579 0 20.798396609851579 26.791713012839296 0 0 0 0 -10.045538564412709 -12.434360507102724 0 -12.434360507102724 7.3229322393270309 0 0 0 0 -28.636767204072385 -16.000650103116641 0 -16.000650103116641 21.9555058119347 0 0 0 0 -27.467473220151078 -9.7679531793926344 0 -9.7679531793926344 19.1942842445726 0 0 0 0 -26.274242877811048 -18.521830952000016 0 -18.521830952000016 7.7301348059607449 0 0 0 0 -36.492198782916603 -8.3174129287623941 0 -8.3174129287623941 25.78123592189344 0 0 0 0 -31.471191053077746 -4.3632734724043303 0 -4.3632734724043303 3.6958550083697332 0 0 0 0 -35.882490988526229 -31.2453151148041 0 -31.2453151148041 -4.9175430242505627 0 0 0 0 -39.120851241443233 -8.8377042478654175 0 -8.8377042478654175 1.5897158434082428 0 0 0 0 -38.798445643010382 -32.433979391667208 0 -32.433979391667208 -0.46917466582186762 0 0 0 0 -79.744362692804089 -45.567548862076478 0 -45.567548862076478 22.980355571215 0 0 0 0 -93.696588170269024 18.015272130835001 0 18.015272130835001 -3.8002748896762171 0 0 0 0 -29.453965065944885 77.087504306991462 0 77.087504306991462 50.451960149141769 0 0 0 0 -1.3471310691284799 0.23621308875856606 0 0.23621308875856606 0.067222784431618221 0 0 0 0 1.1538601863639997 32.897291796201358 0 32.897291796201358 -78.298741638592276 0 0 0 0 -7.7227454735466381 -4.7839924325929815 0 -4.7839924325929815 5.362835719874397 0 0 0 0 7.7023291949851682 -0.55866365701785803 0 -0.55866365701785803 -4.465102909274492 0 0 0 0 -0.0082747998419421265 -0.073312208338716545 0 -0.073312208338716545 -0.23383311780379623 0 0 0 0 7.7606531130131771 -13.385549446583411 0 -13.385549446583411 2.0770749992210824 0 0 0 0 6.7601734265672349 -15.593262747297672 0 -15.593262747297672 8.8324719069116782 0 0 0 0 21.570891322395255 -18.506468782827824 0 -18.506468782827824 0.62599693127202727 0 0 0 0 -9.0316132246006422 -8.5436718380470076 0 -8.5436718380470076 3.0957124430087752 0 0 0 0 9.043371404031177 -19.241509621218007 0 -19.241509621218007 3.8467526493605533 0 0 0 0 16.246468698293938 -13.422726619259265 0 -13.422726619259265 5.5861762610326764 0 0 0 0 -9.111580581707079 -8.7570892526202773 0 -8.7570892526202773 2.6923836935338237 0 0 0 0 19.707166685385573 -18.221525935829035 0 -18.221525935829035 -6.93541424398191 0 0 0 0 -0.95252630373306602 -1.6089039555666318 0 -1.6089039555666318 -1.0334887922193161 0 0 0 0 -15.975832407738835 -5.1064376215844334 0 -5.1064376215844334 7.9239335030885343 0 0 0 0 -14.10712133065681 9.8538919858076781 0 9.8538919858076781 -15.576906365708751 0 0 0 0 -45.073668925994298 22.033888545508773 0 22.033888545508773 -2.61827234499642 0 0 0 0 -31.087996235532046 3.3134304002614527 0 3.3134304002614527 9.242576429428766 0 0 0 0 -26.21101665876995 7.3085712848731816 0 7.3085712848731816 6.7334424567699784 0 0 0 0 -35.909254566061009 -7.0229254512306056 0 -7.0229254512306056 11.951448882921454 0 0 0 0 -58.185667206603284 15.57802788014186 0 15.57802788014186 7.6522888516537932 0 0 0 0 -0.0013722233105459836 -0.11544554634790316 0 -0.11544554634790316 -0.25292786766519493 0 0 0 0 18.441490934968897 -8.6942795559120327 0 -8.6942795559120327 15.276437930151701 0 0 0 0 -14.911058648934386 -11.167949659364226 0 -11.167949659364226 12.997662046294408 0 0 0 0 -3.727749318010865 -6.5924071857793365 0 -6.5924071857793365 6.2728107623466371 0 0 0 0 8.4544612937477268 -24.87962583379138 0 -24.87962583379138 3.6077041233354521 0 0 0 0 1.4345270504381915 -43.401604147258354 0 -43.401604147258354 -7.3863902147711542 0 0 0 0 -8.6869956855603512 -8.3149567872202006 0 -8.3149567872202006 3.9344272031188217 0 0 0 0 -10.146469509369762 -6.7239900709738336 0 -6.7239900709738336 4.4922168964647584 0 0 0 0 14.252595935347927 -10.868362948768493 0 -10.868362948768493 -7.1939877715782359 0 0 0 0 -7.6760656390179065 -13.773112952938277 0 -13.773112952938277 13.82469169453725 0 0 0 0 -10.554154349670398 -21.514538000579037 0 -21.514538000579037 -4.7304388282459513 0 0 0 0 -14.780004270592599 -6.4224015046152658 0 -6.4224015046152658 -3.123514010102781 0 0 0 0 -1.2739989862479888 -21.953465358194904 0 -21.953465358194904 -4.9956404374026988 0 0 0 0 -3.1247799159382339 6.0489747315385785 0 6.0489747315385785 2.8329641233090399 0 0 0 0 14.038323891826394 -10.146095569176872 0 -10.146095569176872 0.38179277067888506 0 0 0 0 -4.3660174362557882 -8.3380659635522534 0 -8.3380659635522534 14.754857442292973 0 0 0 0 -0.70163513372234831 -2.6391782923046954 0 -2.6391782923046954 0.65329598480934381 0 0 0 0 -73.517474683349064 27.31479225164037 0 27.31479225164037 12.574347633747266 0 0 0 0 -53.193504964393014 21.063890136631997 0 21.063890136631997 12.973670226785885 0 0 0 0 -76.498384503256602 -9.148147204878228 0 -9.148147204878228 8.8400655489389237 0 0 0 0 -33.033579641705273 -2.1229133788518482 0 -2.1229133788518482 7.2505150813893806 0 0 0 0 -25.137904941069792 4.0359099936076746 0 4.0359099936076746 -17.552829570778002 0 0 0 0 -33.263727947054576 -25.771525812325308 0 -25.771525812325308 -20.486230249139339 0 0 0 0 -64.175983527288281 -5.1404191798280294 0 -5.1404191798280294 4.2261319606723191 0 0 0 0 -125.3730894438213 23.905005204507347 0 23.905005204507347 14.097716871802675 0 0 0 0 -109.55428114442111 -23.199881308160059 0 -23.199881308160059 1.2843201596911058 0 0 0 0 -37.824446756794714 8.3352536536399384 0 8.3352536536399384 20.674216542210459 0 0 0 0 -140.1594201733792 89.696412060748344 0 89.696412060748344 58.28688219015612 0 0 0 0 -146.85153287986668 4.5675492172288159 0 4.5675492172288159 21.023976033102677 0 0 0 0 -153.93618900173578 7.3851337707166635 0 7.3851337707166635 49.468008427253153 0 0 0 0 -203.59190121651045 -1.085487793783841 0 -1.085487793783841 48.969590388189772 0 0 0 0 -89.009375216517128 19.520989892348894 0 19.520989892348894 -68.162274958871649 0 0 0 0 -79.905848722198471 -15.404563192102444 0 -15.404563192102444 -5.2332741830832674 0 0 0 0 -15.035716160791708 -28.916129691632818 0 -28.916129691632818 -28.787719237449778 0 0 0 0 -5.0018255374320066 -0.48888056840895944 0 -0.48888056840895944 -0.10128828901183051 0 0 0 0 -129.58150305312301 -60.194087809490156 0 -60.194087809490156 -2.0299383791661967 0 0 0 0 -119.74891952818587 420.7135490724055 0 420.7135490724055 -17.295018227249102 0 0 0 0 -3.9698966503180984 0.47090268681134528 0 0.47090268681134528 0.013171113712047877 0 0 0 0 13.447334073020102 -12.824256416914295 0 -12.824256416914295 -32.762542466381632 0 0 0 0 -307.85509377696144 192.0906071599311 0 192.0906071599311 -179.41006425899332 0 0 0 0 -269.9796045471503 -15.492068700156096 0 -15.492068700156096 60.863152628789294 0 0 0 0 -284.86965215237865 78.387307997868533 0 78.387307997868533 67.660969958494206 0 0 0 0 423.02127337626825 294.61291970384764 0 294.61291970384764 -558.77234253657161 0 0 0 0 -2.2125087094154101 -0.13501443923635481 0 -0.13501443923635481 0.55506363434575068 0 0 0 0 2.1169772454913982 -0.1998427052376428 0 -0.1998427052376428 -0.74441145248579232 0 0 0 0 -3.0424053557508159 6.9113217635023148 0 6.9113217635023148 -4.4717582272591585 0 0 0 0 14.127718642172567 -2.532186894066399 0 -2.532186894066399 -2.1923227151801257 0 0 0 0 -0.92085788143867831 -9.9832659542612419 0 -9.9832659542612419 12.626592673666437 0 0 0 0 11.691870429489455 17.909602053392067 0 17.909602053392067 -15.504941359098439 0 0 0 0 -8.8126345448827124 -7.0535714130688234 0 -7.0535714130688234 -21.450963032701111 0 0 0 0 -26.456280686132231 4.9159771821425693 0 4.9159771821425693 -1.9985082022482175 0 0 0 0 -4.5687306405011441 14.206596657158741 0 14.206596657158741 21.066054829037057 0 0 0 0 -8.2795817990301597 -0.21731879416438593 0 -0.21731879416438593 0.16343775811669808 0 0 0 0 -99.30502537759412 -58.241306677115176 0 -58.241306677115176 222.20207122352076 0 0 0 0 14.471151612934136 -31.536473753227824 0 -31.536473753227824 47.654071098716486 0 0 0 0 -7.9516116801969474 1.9477951287642554 0 1.9477951287642554 1.0563858371830861 0 0 0 0 -8.2605146203102926 -0.091414320887861056 0 -0.091414320887861056 0.77281429452087669 0 0 0 0 -1.3100975372348613 0.18852106451295381 0 0.18852106451295381 1.0144502245833245 0 0 0 0 -30.598688095733451 7.2923826211412575 0 7.2923826211412575 15.198475991831856 0 0 0 0 -21.556451039169588 -5.6888495460202648 0 -5.6888495460202648 4.6392105495062879 0 0 0 0 -2.3959735708226337 3.4127093304030973 0 3.4127093304030973 2.6415245082084566 0 0 0 0 -4.2983216343982349 -2.5771258747538468 0 -2.5771258747538468 -6.9154265800711983 0 0 0 0 -3.3991305797244422 -7.7439875667312208 0 -7.7439875667312208 10.610066733682061 0 0 0 0 -9.9061445328743503 -0.13583673545144848 0 -0.13583673545144848 8.3640612129702276 0 0 0 0 -1.0260087851488606 5.4501964511126104 0 5.4501964511126104 -6.2135116759003495 0 0 0 0 -16.215468475919806 13.181757547361666 0 13.181757547361666 3.1545723432980619 0 0 0 0 -17.227592191087751 15.913139662012744 0 15.913139662012744 4.2009207351369433 0 0 0 0 -11.276210627738237 -4.5964138270371109 0 -4.5964138270371109 -2.4177527291126921 0 0 0 0 -7.5621099595173291 15.732868923564354 0 15.732868923564354 -19.65714774706521 0 0 0 0 -0.076201803707755644 -0.043552805674563988 0 -0.043552805674563988 0.1925124106075296 0 0 0 0 -36.585105814044482 -8.2246196778476133 0 -8.2246196778476133 -18.265461055749171 0 0 0 0 -29.701302232823764 17.566963682193609 0 17.566963682193609 -17.081454259512313 0 0 0 0 -24.270019545861942 19.92915919814547 0 19.92915919814547 -1.7727915069709752 0 0 0 0 -26.683863101998668 7.7324847279712401 0 7.7324847279712401 0.68287183072467883 0 0 0 0 -19.760182750076638 22.169123511175844 0 22.169123511175844 12.915841541320923 0 0 0 0 -12.860356219709047 15.151276301616917 0 15.151276301616917 0.63607094270942399 0 0 0 0 -19.241353181820269 1.8959959960417487 0 1.8959959960417487 -0.12340784851604458 0 0 0 0 -36.955780487119227 7.3892473198404929 0 7.3892473198404929 42.508654533162201 0 0 0 0 -37.331782764767922 11.561615725964543 0 11.561615725964543 71.90394518215075 0 0 0 0 -34.185925457335543 -10.693260028112832 0 -10.693260028112832 42.847909931885511 0 0 0 0 -19.022647076006706 12.032547380966321 0 12.032547380966321 38.571968627487195 0 0 0 0 -22.941630183337111 -0.45671803822676793 0 -0.45671803822676793 27.613099042589198 0 0 0 0 -6.6411571094398765 0.89218124498694706 0 0.89218124498694706 0.44908821726390702 0 0 0 0 -17.916093185724094 -17.996041877048043 0 -17.996041877048043 25.583952342522025 0 0 0 0 -26.212482338707559 -3.3467152795000175 0 -3.3467152795000175 24.908875514182 0 0 0 0 -30.956729715069741 -12.506498882911501 0 -12.506498882911501 46.827882541458848 0 0 0 0 -32.146161040152947 -7.106634444232327 0 -7.106634444232327 22.575632551353664 0 0 0 0 -30.134422397926755 11.669251022960225 0 11.669251022960225 31.950265381271493 0 0 0 0 -25.267913058769409 -0.57661864110838223 0 -0.57661864110838223 -6.2091715377871424 0 0 0 0 -18.715238299525275 3.4202884376324412 0 3.4202884376324412 1.6548922622792446 0 0 0 0 -3.0713256090100334 0.79437364401335486 0 0.79437364401335486 0.036806709845567998 0 0 0 0 -5.0420967895206559 -6.5071401640493605 0 -6.5071401640493605 12.18260694212745 0 0 0 0 -22.498764052407751 3.4413820404097351 0 3.4413820404097351 1.6113621307056292 0 0 0 0 -23.128297792532209 3.0134904791008505 0 3.0134904791008505 0.50399400041008335 0 0 0 0 -17.933980856090784 11.110489889659959 0 11.110489889659959 9.5075646293309433 0 0 0 0 -23.530085289258295 17.141608409401897 0 17.141608409401897 23.613872802914784 0 0 0 0 -7.7680104116521775 4.0456616795755513 0 4.0456616795755513 3.7313287350479629 0 0 0 0 -23.22687154133564 -9.8642950120763544 0 -9.8642950120763544 41.835890863431246 0 0 0 0 
</DataArray>
<DataArray type="Float64" Name="cross_section_updated" format="ascii">
1 1 1 1 1 1 1 1 0.010026948528640368 1 1 1 1 0.0099696247833178202 0.0099948257229812223 0.0098924034838388623 1 1 1 1 1 0.0099629807097426221 1 0.0099745223281745479 1 1 1 1 1 1 1 1 0.010003942055523681 1 1 1 1 0.010015701933248296 1 1 1 1 1 1 1 1 1 1 1 0.010033707977112328 1 1 1 0.010002636151762176 1 1 0.0098230517958857854 1 0.010007744161794001 1 1 0.010051298653111877 1 1 1 0.010076623254554528 0.0099966599034943225 1 0.0098189296783991811 0.0099640899044881465 1 0.0098005913617871324 1 1 1 1 1 1 1 1 0.0096307760451489876 1 1 0.010385141085059509 1 0.0099463780667975038 1 1 1 1 1 0.010026004439429401 1 1 0.0097961699308413263 1 1 0.009835887194672004 1 1 1 1 1 1 1 1 1 1 0.0099842458027621477 1 1 1 1 0.0099317122584456907 1 1 1 1 1 0.0099594164654056155 1 0.0097550732629364256 1 1 1 0.0096364693568578956 0.010234067928434273 0.0099540659938841362 1 1 1 1 0.0099292560992310895 1 1 1 1 0.0099688664580401438 1 1 1 1 1 1 1 0.01001188577277393 1 1 1 1 1 0.010010026273700593 1 1 1 1 1 1 1 1 1 1 1 1 1 1 1 1 1 1 1 0.0099924234790095389 0.0099924101212521751 1 1 1 1 1 1 1 1 1 1 1 1 1 1 0.0098563679789608755 1 1 1 1 1 0.0098703853251955395 1 1 1 1 1 1 0.0099482749328803546 1 1 1 1 1 1 1 1 0.0099981405009266604 1 1 1 1 0.0099374859081466267 1 1 1 1 1 0.0099883476801613993 1 1 1 0.0099796989544913891 1 1 1 1 1 1 1 0.009983824901068904 1 1 1 0.0099115577360150212 0.010006986647122506 1 1 1 1 1 1 1 0.0099350501720647175 1 1 0.010112012642650292 1 1 1 1 1 1 1 1 1 1 0.0097962954737599271 1 1 1 1 1 0.0087345223477059211 1 0.0099678959264841126 1 1 0.01014405299816294 1 1 1 1 1 1 1 1 0.0099941149555493845 1 1 0.0088539220971087275 1 1 1 0.0090221745691575397 1 0.0099742996266931321 1 1 1 1 1 0.010065711990215153 1 0.0089855551027376041 0.0096854384596934198 1 1 1 1 1 1 0.010231513321599627 1 1 1 1 1 1 1 1 1 1 1 1 1 1 1 1 1 1 1 1 1 1 1 1 1 1 0.0091636391797255499 1 1 0.0098868039139981736 1 1 1 1 1 1 1 1 1 1 1 1 1 1 1 1 0.0098892972847339673 1 1 1 1 1 1 1 0.0097127251080859241 1 1 1 1 1 1 1 1 1 1 1 1 1 1 1 1 1 1 1 0.0094356879528486402 1 1 1 1 1 1 0.0098034091129733207 1 1 1 1 1 1 1 1 1 1 1 1 1 1 1 1 1 0.0094690460865309127 0.0099929237513190425 1 1 1 1 1 1 1 1 0.0081491410796731903 1 1 0.0080778292680210133 1 1 0.0096810821962438308 1 1 1 1 1 0.0099816351139377507 1 1 1 1 0.009988711362618705 1 1 1 1 1 1 0.009938773072657078 1 1 1 1 1 1 1 1 1 1 0.0098215601602102843 1 1 1 0.0080449571207191796 1 1 1 1 1 0.008058344469935759 1 1 1 1 0.009727541467559532 1 1 1 1 1 1 1 0.0099154917299988463 1 1 1 1 1 1 0.010098723933818174 1 1 0.0097954154375404588 1 1 1 1 1 1 1 1 1 1 1 1 1 0.0099699510524843705 1 1 1 1 0.010018143192130171 1 1 1 1 0.0098929471282526316 1 1 0.0099132552806450881 1 0.0098800338448587714 1 1 1 0.010272198941052307 1 1 1 1 1 0.0097399905364138964 1 1 1 1 1 1 0.0086903730038067478 1 1 1 1 1 1 1 1 0.0090448133195325398 1 1 0.0097749920733982663 1 1 0.0099998405476252727 1 1 0.0099539595842717439 1 1 0.009600779771905623 1 1 1 1 0.010021750979306934 1 1 1 1 1 1 1 0.0098676303291728839 1 1 0.010131138791768499 1 1 1 1 0.0095738731811264837 1 1 1 1 1 1 0.0098211929217774836 0.0097125001614794676 0.010012627994206973 1 1 1 1 1 1 0.01002101817743002 1 1 1 1 1 1 1 1 1 1 1 1 1 1 1 1 1 1 1 1 1 1 1 1 1 1 1 1 1 1 1 1 1 1 0.010172496888571629 1 1 1 1 1 1 1 0.0097991886796153262 1 1 1 1 0.0098377172001601169 1 1 1 1 1 1 1 1 1 1 1 1 1 1 1 1 1 1 1 1 1 1 0.0096167068756632598 1 1 0.010067913647016737 1 1 1 1 1 0.0097496531871098507 1 1 0.0093789766033890686 1 1 0.0093290571401879845 1 0.0096864242492486485 1 1 1 1 1 0.0098875743195038154 1 1 1 1 0.0096911635123307534 1 1 1 1 1 1 1 1 0.009777108293023128 1 1 1 0.009727790125408739 0.0097390639283361259 0.0096545109888009125 0.010057365248598944 1 1 1 1 1 1 1 1 1 1 0.0099711058915129269 1 0.0099673006362257337 1 1 0.010086626826269643 1 1 1 1 1 1 1 1 1 1 1 1 1 1 0.01007274951627524 0.0099633107326522752 0.0092057962633036641 1 1 0.0099237822479680063 1 1 0.0099996151772785997 0.0096875510367002184 1 1 1 1 0.0098478796190269949 1 1 0.0091765084579527659 1 1 0.0096397425129116487 1 1 1 1 1 1 1 1 1 1 1 1 0.0099812026142075353 1 1 1 1 1 0.0099795678278554265 1 0.009952504073593051 1 1 0.010069912633245994 0.0097562673633213894 1 1 1 1 1 0.0099163504618166066 1 1 0.0099710944583002153 1 1 0.0090734654147510401 1 1 0.0098785097720833284 1 1 0.0099751615143558667 0.009495812599212285 1 1 0.0096853220733528825 1 1 0.009483200697699791 1 0.0094569346783756284 0.0096348922611206311 1 1 1 1 0.0094705465156544946 1 1 1 0.010001047867502057 1 0.01002166473313201 1 1 1 0.0098608855099511332 1 1 1 0.0085425844345099269 1 1 1 0.0098875822870472287 1 1 0.010017072082043041 0.0097525460589563961 1 1 1 0.0099719597412360611 1 1 1 1 0.0098767409506910764 1 0.0081711190278313424 1 1 1 0.010052975046848184 1 0.0073586344446004539 1 1 1 1 1 1 1 1 1 1 1 1 1 1 1 1 1 0.0098758602415747396 1 1 1 1 1 1 1 0.010032667838052706 1 1 1 1 1 1 1 1 1 1 1 1 1 1 1 1 1 1 1 1 1 1 1 1 1 1 1 1 1 1 1 1 1 1 1 1 1 1 0.0099957378310941633 1 1 1 1 1 1 1 1 1 1 1 1 1 1 1 1 1 1 1 1 1 1 1 1 1 1 1 1 1 1 1 1 1 1 1 1 1 1 1 1 1 0.0099363362939590121 1 1 0.0099115941963603734 1 0.0099086375096258637 1 1 1 1 1 0.0095991591422370948 0.0099997335632587576 0.009572571550944653 1 1 1 1 1 1 1 1 0.0099638083293147658 1 1 1 1 1 1 1 1 1 1 0.0099370482072374672 1 1 1 1 1 0.0098535707451126754 1 1 1 1 1 1 0.0098358040785681746 1 1 1 1 1 0.0096102484786211636 0.0094592815640076825 1 1 1 1 1 1 1 1 1 1 1 1 0.01000332023716082 0.0088729570606806158 1 1 1 1 1 1 1 1 0.0088243831177694521 1 1 1 1 1 1 0.010004228463233539 1 1 1 1 1 1 1 1 1 1 1 1 1 1 1 1 1 1 1 1 1 1 1 1 1 1 1 1 1 1 1 0.0099867388296920323 1 1 1 1 1 1 0.0099547011847184626 1 1 1 1 1 0.010093286781495748 1 1 1 1 0.009223690551354885 1 0.0099705635858453844 1 1 1 1 0.010016958173969602 1 1 1 1 1 0.0099458925198762649 1 1 1 1 1 0.0097459216481427594 1 1 1 0.0095822773498014241 1 1 1 0.010008050962242672 1 1 1 1 1 1 1 1 1 1 1 1 1 1 1 1 0.0097753982038016277 1 0.0097675508706684261 1 1 1 1 0.0096873007605278623 1 1 1 0.0098737180015065502 1 1 0.0097481732072061695 1 1 1 0.0099999112957863852 0.0098910182693919997 1 1 1 1 1 1 1 1 1 1 1 1 1 1 1 1 1 1 1 1 0.0099854592050362886 1 1 0.0097310697449151419 1 1 1 1 0.0097064011213042044 1 1 1 0.0098879210217669641 1 1 1 1 0.0099433845177720644 1 1 1 1 1 1 1 1 1 1 1 1 1 1 1 1 1 1 1 1 1 1 1 0.0098814962790065679 1 1 1 1 1 1 1 1 1 1 1 1 1 1 1 1 1 1 1 1 1 1 1 1 1 0.0099742844862466921 0.0099370498920884048 1 1 1 1 1 1 1 1 1 1 1 1 1 1 1 1 1 1 1 1 1 1 1 1 1 1 0.0097378355119107866 1 1 1 1 1 1 1 1 1 1 1 1 1 1 1 1 1 1 1 1 1 1 1 1 1 1 1 0.0098040245640360346 1 1 1 1 1 1 1 0.0099230167075208785 1 1 1 1 1 1 1 1 1 1 1 1 1 1 1 1 1 1 1 1 0.0098139747693881223 0.010047290110530507 1 1 1 1 1 1 1 1 1 1 1 1 1 1 1 1 1 1 0.0098985012449754346 0.0098161523065185032 1 1 0.0099606449054609747 1 1 1 1 1 1 1 1 1 0.0098406000490714081 0.0099953814475665249 0.0099974020538535022 1 1 1 1 0.0098997268580722879 1 1 0.0094521479151326408 1 1 1 1 0.009765858286750027 1 1 1 1 1 1 1 0.0098544916327277746 1 1 1 1 1 1 0.0096740049463404313 0.0099827430405276373 0.009250133857425246 1 1 1 1 1 1 1 1 1 1 1 1 1 1 1 0.0099495758065871551 1 1 1 1 1 1 0.0099177312712451643 1 1 1 1 1 1 1 1 1 1 1 0.01000481178009917 0.0099158717129017339 1 1 1 1 0.0099603974865575418 1 1 1 0.0099822818528843421 1 1 1 1 1 1 1 1 1 1 1 1 1 1 1 1 0.0093720255813317058 0.0092186686396833854 1 0.0098255147716686045 0.010531839765865338 1 1 1 0.0097327071724635211 1 0.0099969128315546291 1 1 1 1 1 0.0099967481992536845 1 1 1 1 1 1 1 1 1 0.0099610517590854077 1 1 1 1 1 0.008991114072799556 1 1 1 0.009150399269422075 1 0.0095991137025163292 1 1 1 1 0.0099539920786485252 1 0.0099792925448686665 1 1 1 1 1 0.0094160477184841093 1 1 1 1 1 1 1 1 1 1 1 1 1 1 1 0.009162509369593003 1 1 1 1 0.0099919348884107244 1 1 1 1 1 1 1 1 1 1 1 1 1 1 1 1 1 1 1 1 1 1 1 1 1 1 1 1 1 1 1 1 1 1 1 1 1 1 1 1 1 1 1 0.0088843530213051913 1 0.010359219258468397 1 0.0090212499228052908 1 1 1 1 1 1 1 0.0098326965677002168 1 1 1 0.0096705353995421156 1 1 1 1 1 1 1 1 0.0096233000075697222 1 1 1 1 1 1 1 1 0.0089247838321232734 1 1 1 1 1 1 1 1 1 1 1 1 1 1 1 1 1 1 1 1 1 1 1 1 1 1 1 1 1 1 1 1 1 1 1 1 1 1 1 1 1 1 1 1 1 1 1 1 1 1 1 1 1 1 1 1 1 0.009084378006387079 1 1 1 1 1 1 1 1 1 0.0090456779183176218 1 1 0.01000001784073448 1 1 0.0098823727029023287 1 1 1 0.0099962752959561335 0.010130871659961752 1 0.0099596932986308166 0.0096048612870416345 1 1 1 0.0087522776442758281 1 1 0.0094027551864122386 1 1 1 1 1 1 0.0089903769678746134 1 1 1 1 1 1 1 1 1 1 1 1 1 0.0092775283646547076 0.0095877451382808971 1 1 1 0.0091088358754830775 1 1 1 1 1 0.009490817025951323 1 1 1 1 0.0099669320552832029 1 1 0.0094490344797318326 1 0.0099761853358471195 1 0.0098572211721298115 1 0.0097963377652049086 1 0.009999732218891411 1 0.0093834370841127269 1 1 1 1 1 1 1 1 0.0089169365897661217 0.0090501241831822104 1 1 1 1 1 1 1 1 1 1 1 1 1 1 1 1 1 1 1 1 1 1 1 1 1 1 1 1 1 1 1 0.0099623368677477352 1 1 1 1 1 1 0.0098765893776898185 1 1 1 1 1 1 0.0099654953037116457 1 1 1 1 0.009563088037328929 1 0.010141684985139945 1 1 1 1 1 1 1 1 1 1 0.0097805903528623249 1 1 1 0.0093677415512235344 1 1 1 1 1 1 1 1 1 1 1 0.0099996760787203973 1 1 1 1 1 1 1 1 1 1 1 1 1 1 0.0099571667423213207 1 1 1 0.0096886867619796566 0.009999514071148425 1 0.009902171789608602 1 1 0.0096176958923685427 1 1 1 0.0098361101430202331 0.0099966157079867998 1 1 1 1 1 0.0099442218888207787 1 1 0.0098473447285293003 1 1 0.0099685872661953081 1 1 1 1 0.0099496751670230723 1 1 1 1 1 1 1 1 1 1 1 1 1 1 1 0.0099807639795481615 1 1 1 1 1 1 1 0.0095200994584939604 1 1 1 1 1 1 1 0.009487058679705649 1 1 1 1 1 1 1 1 1 1 1 1 1 1 1 1 1 1 1 1 1 0.0096316289186609057 1 1 1 1 1 0.0099508206975858892 1 1 0.0098958822982426076 1 1 0.0098358694315569366 1 1 1 1 1 1 1 1 1 1 1 1 1 1 1 1 1 1 1 1 1 1 1 1 1 1 1 1 1 1 1 1 1 1 1 1 1 1 1 1 1 1 1 1 1 1 1 1 1 1 0.0091693796185732292 1 1 0.0089911751330710166 1 1 1 0.009856427965057004 1 1 1 1 1 1 1 1 1 1 1 1 1 0.0098377610261217701 1 1 1 1 1 1 0.0095759407412128461 1 1 1 0.009750249401906632 1 1 1 0.0098812564829653497 1 1 0.0098509309108310641 1 1 1 1 0.01003264367091904 1 1 1 1 1 1 1 1 0.0098232281133078629 1 1 1 1 1 1 1 1 1 1 1 0.0099234479704659404 1 1 1 1 1 1 1 1 1 1 0.0098623276228100593 1 1 1 0.0099026879816588829 1 1 1 1 1 1 1 1 1 1 1 0.010008541281329745 1 0.0094222735694037673 1 1 1 0.0089198733655399352 1 1 1 1 1 1 1 1 0.0096221512459778932 1 1 1 1 1 1 1 0.011241737216135122 1 1 1 1 0.010901272340455542 1 0.010009138392207928 1 1 1 1 0.0087472749499754848 1 1 1 1 1 1 0.0092419846781069542 1 1 1 1 1 1 1 1 1 1 1 1 1 0.009745175273802531 1 1 1 1 0.0096340594666641244 1 1 1 1 1 0.0098603287298581199 1 1 1 1 1 1 1 1 1 1 1 1 1 0.0089131591174526001 1 1 0.0099171541943563774 1 1 1 1 1 1 1 1 1 1 1 1 1 1 0.0097424801324996844 0.010182176590938286 1 1 1 1 1 1 1 1 1 1 1 1 1 1 1 1 1 1 1 1 1 1 1 1 0.0097737307368060064 1 1 1 1 1 0.0097981657989845254 1 1 1 1 1 1 1 1 0.0095802896790158527 1 1 1 1 0.0096152840862822331 1 1 1 1 1 1 1 1 1 1 1 1 1 1 1 1 1 1 1 1 0.0099716000854926448 1 1 0.0097387246517139214 1 0.0099497214267391179 1 1 1 1 1 1 1 1 1 1 1 1 1 1 1 1 1 1 1 1 1 1 1 1 0.010043262509337179 1 1 1 1 1 1 1 1 1 1 1 0.010042540257588547 1 1 1 1 1 0.010085802766925724 1 1 1 1 1 1 1 1 1 1 1 1 1 1 1 1 1 1 1 1 1 1 1 1 1 1 1 1 1 1 1 1 1 1 1 1 1 1 1 1 0.010035694578976958 1 1 1 1 1 1 1 1 1 1 1 0.0095729789383404394 1 1 0.010000551990175471 1 1 1 0.009714434070189789 1 1 1 1 1 1 1 1 1 1 1 1 1 1 1 1 1 1 1 1 1 1 1 1 1 1 1 1 1 1 1 1 1 0.010297612336699071 1 1 1 0.0093466479356709934 1 0.010010566803608107 1 1 1 0.0090647012251595886 1 1 1 1 0.0096382738488663272 1 1 1 1 1 1 1 1 1 1 0.0099662359758827014 1 1 1 1 1 1 0.0080907642120487296 0.0095235743850970184 1 1 1 1 0.0073879499346151453 1 1 1 1 0.010230180947850089 1 1 1 1 1 1 1 1 1 0.0098906056707363174 1 1 1 1 1 1 1 0.0080227180756938816 1 1 0.009886133467273758 0.007681253044858569 1 1 1 1 1 1 1 1 1 1 1 0.009937145212145183 1 0.0098446710384559738 1 0.008552271199202887 1 1 1 1 0.0092327459397474141 1 1 1 1 1 0.010025521572321314 1 0.010075608390158433 1 0.010041024004746135 1 1 1 1 1 1 1 1 1 1 0.0097658808308364511 1 0.0099418626195242714 1 1 0.0098683153117267615 1 0.0095677732364227736 1 1 1 1 0.0099348686930788924 1 1 1 1 1 1 1 1 1 1 1 1 1 0.0098476433008569501 1 1 1 1 1 1 0.0099520136277324658 1 1 0.0099394614173193545 1 1 1 1 1 1 1 1 1 0.0099732254414366516 1 1 1 1 1 1 1 0.0090207440481515286 1 1 1 1 1 0.0088609229339322408 1 1 1 1 1 1 1 1 1 1 1 1 0.009976730782544057 1 1 0.0099746815286175725 1 1 1 1 0.009940771125158206 1 1 1 1 1 1 1 1 1 1 1 1 1 1 1 1 1 1 1 1 1 1 1 1 1 1 1 1 1 1 1 1 1 1 1 1 1 1 0.0093027453294067496 0.0097465931895942236 1 1 1 1 1 1 1 1 1 1 1 1 1 0.0097958659112474186 1 1 1 1 1 1 1 1 1 1 1 1 1 0.009913244476872262 1 1 1 1 1 1 1 1 1 1 1 1 1 1 1 0.0098322440644853949 1 1 1 1 1 1 1 1 1 0.010091356796989498 1 0.0095108793076153324 1 1 1 0.010005365094564756 1 1 0.010034161654892326 1 1 1 1 1 1 1 1 1 1 1 1 1 1 1 1 1 1 1 1 0.0099124705379782484 1 0.0099565592495398265 1 1 0.0097453285010744069 1 1 1 1 1 1 1 1 1 1 0.0098772351071382929 0.010077700394945476 1 1 0.0097991830666555053 1 1 1 1 1 1 1 1 0.0098072740789022783 1 1 1 0.0094601941358959125 1 1 1 0.0097531587068640652 1 0.0090575622147810019 1 0.010013331616144565 1 0.010034902378664397 1 1 1 1 1 1 1 1 1 1 1 1 1 1 1 0.010008608853130686 1 1 1 1 1 1 1 1 1 1 1 1 1 1 1 1 1 1 1 0.0097875589382665149 1 1 1 1 1 1 1 1 1 0.0099887850584371579 1 1 1 1 1 0.0099851914840622114 1 1 1 1 1 1 1 1 1 1 0.0098199002134043024 1 0.0099959877541835451 1 1 1 1 0.0097473979817390994 0.009999798435123556 1 1 1 1 1 1 1 1 1 1 1 1 1 1 1 0.0096441114747384503 1 1 1 1 1 0.0095545668344513938 1 1 1 1 1 1 1 1 1 1 1 1 0.0098479438961220321 1 1 1 1 0.0099882474895289092 1 1 1 1 1 1 1 0.0095655729713233616 0.0099945814356680943 1 1 1 0.010145473653034559 1 1 1 1 1 1 1 1 1 1 1 0.0099939101628288129 1 0.010415441624292034 1 1 1 1 0.010127499408897431 1 1 1 1 1 1 0.0089439467518888302 1 1 1 1 1 1 0.0099968725153471074 1 1 1 1 1 1 0.0095593024718363083 1 1 0.009188513005911253 1 1 1 1 1 1 1 1 1 1 1 1 1 1 1 1 0.0096302985172977175 1 1 1 1 1 1 1 1 1 0.0099581502780526163 1 1 1 1 1 1 1 1 1 1 1 1 1 1 1 1 1 1 1 1 1 0.0099286921807603644 1 1 0.0099629106628868758 1 1 1 0.0098748162507488121 1 1 0.010017933004706133 1 0.0099998695083927426 1 1 1 1 1 1 1 0.0099710467859986524 1 1 1 1 1 1 1 1 1 1 1 1 0.009999422627682308 0.010000828488036344 1 1 1 1 1 0.0099354361463068405 1 1 0.0099888724720045945 1 1 0.010024790622344121 1 1 1 1 1 0.009999273950948219 1 0.009980198201799826 1 1 1 1 0.0099941210853524629 1 1 1 1 1 1 1 1 0.0099954639767094403 1 0.010001722122531862 0.010000635054432896 1 1 1 1 0.010000048518948489 1 0.0099619630693947823 1 1 0.0099999908056770583 1 1 1 0.0099630289086502771 1 1 0.010007948225578493 1 0.009965173360748654 1 1 0.009988145883367992 1 0.0099930768479551957 0.009916951535945271 1 0.010016090596924361 1 1 1 0.0099859757460374933 1 0.0099962515322564414 1 1 1 0.009975927465151635 0.0097907789574801923 1 1 1 1 1 0.0099866916414364949 1 1 0.0096318010964126285 1 0.010000203675498746 1 1 1 1 0.0099561698864325081 1 0.0098298715922398444 1 1 0.0099976957299989459 1 0.0099287631466722544 1 1 1 0.0097986694090295787 1 1 0.0099927701997113792 0.010090967265025568 1 0.009959418446131121 0.010013826204402587 1 1 1 0.010031894812258349 1 0.010044836191771931 1 1 0.010034336575983887 1 1 1 0.0099469355373585124 0.0097340897466220502 0.0097671276014317833 1 0.010103928307299498 1 1 0.01002454127390036 0.0099385717033750737 1 1 0.0093950148251532948 1 1 1 1 0.0094799868331955448 1 0.0098388049929305187 1 1 1 1 0.0095947803859395119 1 1 1 1 1 1 1 1 0.010000418025002313 1 0.0097802023116333493 1 0.0099531787816241665 1 1 1 1 1 0.0098365609263937042 0.0099376678875153258 1 0.00999952850978739 1 1 1 1 1 1 1 1 1 1 0.010048475331398091 0.010016017167335396 0.010088546206629754 1 1 1 1 1 1 1 1 1 1 0.010026497729486116 1 0.0099913977645198042 1 1 0.0090239466747051474 0.010061034147797 1 1 1 1 0.0099973888215887513 1 1 1 1 1 1 1 1 1 1 1 0.0088021073112857645 1 1 1 1 1 0.0088639287307115591 1 1 1 1 1 0.0099724092276413604 1 1 1 1 0.009997892171367033 1 0.0090798922483573997 1 0.0097870889629722378 1 1 0.010017785151354158 1 1 0.0091766629045341823 1 1 1 1 1 1 1 0.0087903064946973034 1 1 1 1 1 1 1 1 1 1 1 1 1 1 1 1 1 1 1 1 1 0.0090563306473129667 1 1 1 1 1 0.0097282738364907924 1 1 1 0.0099003276590195373 0.0097797697095757096 1 1 1 1 1 1 1 1 1 1 1 1 0.0092529787887568257 1 1 1 1 1 1 1 0.0093721960416657535 1 1 1 1 1 1 1 1 1 0.009997011073824091 1 0.0094287604153081572 1 1 0.0097836488069594704 0.010040553096500581 0.010000157605669042 1 1 0.0094899022106648967 1 1 1 1 1 1 1 1 0.0099992369812026104 1 1 1 1 1 1 1 0.0099884263695266453 1 0.010011461048137589 1 0.0099702822990804484 1 1 1 1 1 1 0.0096283044994321144 0.010054098412684148 1 1 0.0099995296573458306 1 1 1 1 1 1 1 1 1 1 1 1 1 0.0096098872700662065 1 1 1 0.0097676094502757334 1 1 1 1 1 1 1 1 1 1 1 1 1 1 1 1 1 1 1 1 1 1 1 1 1 1 1 1 1 1 1 1 1 0.0099610080465480852 1 1 0.0099617433463554967 1 1 1 1 1 1 1 1 1 1 0.010046514652787547 1 1 1 1 1 1 1 1 1 1 1 1 1 0.0099237078145980543 1 0.0098580147032177878 1 1 1 0.0099030183913828458 1 1 1 1 0.0096076919768089096 1 1 1 1 1 1 1 1 1 1 1 0.0099793105767847935 1 1 1 1 1 1 1 1 1 1 1 1 1 1 0.0088420121895784534 0.0089161017047629902 1 1 1 1 0.008980793385059499 1 1 1 1 1 1 1 0.0099698582128205874 1 1 1 0.0092223777770398495 1 1 1 1 1 1 1 1 1 1 1 1 1 1 1 1 0.010179581339022008 1 1 1 1 0.010069570602652926 1 0.0099097353309235154 1 1 1 1 1 1 1 0.0097202978512962272 1 1 1 1 1 1 1 1 1 1 1 1 1 1 1 1 1 1 1 1 1 1 1 1 0.0097487410432265768 1 0.0091711726090294172 0.0095962965396790955 1 1 1 1 1 1 1 1 1 1 1 1 1 0.010143959972891919 1 1 1 1 1 1 0.0088530910527921114 1 1 1 0.010006018672262397 1 1 1 1 1 1 1 1 0.0097213043927597623 1 1 1 1 0.0099854750484530096 0.01000055387409938 0.010620340826284621 1 0.0090255912414164245 1 1 1 1 1 0.0096507908146736387 1 1 1 1 1 1 1 0.0097320952002625145 1 1 1 1 1 1 1 1 1 0.0094915817016240911 0.0097589287915493209 1 1 1 1 1 1 1 1 1 1 1 1 1 1 1 1 1 1 1 1 1 1 1 0.010021481937487888 1 1 1 1 1 1 0.010022793040263808 0.010131464222707141 1 1 1 1 0.0099986275404688983 1 0.010068509912722857 1 1 0.009538510600492725 1 1 1 1 0.0095318833376538507 1 1 1 0.0099660442922799627 1 1 1 1 1 1 1 1 0.0097505469494620495 1 0.0099135996919277446 0.0096873629359411732 1 1 1 1 1 1 1 0.0098783105364226454 1 1 1 1 0.010022797425918026 1 1 1 1 1 1 1 1 1 1 1 1 1 1 1 1 0.010143447551650912 0.0099939698226811161 1 0.010041864479399481 1 0.0099970651772333212 1 0.010044144377821805 1 1 1 1 1 1 1 0.010029765253488995 1 1 1 1 1 1 1 1 1 1 1 1 1 1 1 1 1 1 1 1 1 1 1 1 1 1 0.0099930120011749689 1 0.0099367053450153328 1 1 1 0.0098503814749429843 1 0.009989123735170205 1 1 1 1 1 1 1 1 1 1 1 1 1 1 1 1 1 1 1 1 1 1 1 1 1 0.009917083451745641 0.0098950783888150928 1 1 0.010003373639535202 1 0.010000505527040286 1 1 1 1 1 1 1 1 0.0099829300536566565 1 1 1 1 0.0098051396300999991 1 0.0099988635515478787 1 1 1 1 1 1 1 0.0098295821306848708 1 1 0.010001599522672306 1 1 1 1 1 1 1 1 1 1 1 1 1 1 1 1 1 1 1 1 1 1 1 1 1 1 1 1 1 1 0.0098949350289537809 1 0.0098291154596801024 1 1 1 1 1 1 0.0098675232526179123 0.0096226490714314741 1 1 1 1 0.0098461550966916084 1 1 1 1 0.0099967724970277273 0.0097635290483919675 1 0.0099963594335757255 1 1 1 1 0.010096488780938821 1 1 1 1 1 0.0099998606678055012 0.0096998588125023558 1 1 0.0096002148705745041 1 1 1 0.0098932186233962292 1 1 0.009986303031847393 1 1 1 1 1 1 1 1 1 1 0.0091612691262191147 1 1 1 0.010003959826191369 1 0.010004328433422889 1 1 0.0099258797367804998 1 1 1 1 1 0.010035570193142232 1 0.0098522029405468513 1 1 0.0096825555535834506 0.009649582336162631 1 1 1 0.0094068841045864791 0.010000686765902581 1 1 0.0098364276641279471 0.0096696136301404022 1 0.0098873114966358793 1 1 1 0.0099474861857743735 0.0097621409337278024 0.009811216941467962 1 0.0096701500015995319 1 1 0.0097255537540364284 1 1 1 1 1 1 1 1 1 0.0099225664950866287 0.0098257409441165674 1 1 1 0.01009191324288105 1 1 0.0098266627895404121 0.0097440296805072126 0.010000531846784632 0.0099704191133345062 1 1 1 0.010006007328504868 0.0097988949992701396 1 1 1 1 1 0.0097837390727536847 1 1 1 1 1 1 1 1 1 1 1 1 1 0.0092697274995771697 1 1 1 0.0099943626273915846 1 1 1 0.0099829699524955975 1 1 1 1 1 1 0.0094027770872998281 1 1 1 1 1 1 1 1 1 1 1 1 1 0.0091693888179848245 1 0.010024001016850298 1 1 1 1 1 0.010218588545884724 1 1 1 1 1 1 0.010015039232994342 1 0.010138480033648737 1 1 1 1 1 1 1 1 1 1 1 1 1 0.010049463813467116 1 1 1 1 1 1 1 1 1 1 1 1 1 1 1 1 1 0.0099759715526361991 1 1 1 0.0099286709291597809 1 1 1 1 1 1 1 1 1 1 1 1 1 0.0097769229969814596 1 1 0.010050104278432639 0.010094684630314701 1 0.009548471186456034 1 1 0.0098302673654725795 1 1 1 1 1 1 1 1 1 1 1 1 1 1 1 1 1 1 1 1 0.0097880422817628598 1 1 1 1 1 1 1 1 1 1 1 1 1 1 1 0.010048388659381161 1 0.0098574258061800788 1 1 1 1 0.01001786944106213 1 1 0.009561475118790002 1 0.010001670475928559 1 1 1 1 1 1 1 0.010006655747277538 1 1 1 1 1 0.0094641354515447081 1 1 1 1 1 1 1 1 1 1 1 1 1 1 1 1 1 1 1 1 1 1 1 1 0.0099143214259520603 1 1 1 1 1 0.010002814722729467 1 1 1 1 1 1 1 1 1 1 1 1 1 1 1 1 1 1 1 1 1 1 1 1 1 1 1 1 1 1 1 1 1 1 1 1 1 1 1 1 1 1 1 1 1 1 0.0094082469963966166 1 1 1 1 0.010097282674421502 1 0.0092440822837662577 1 1 1 0.010267217741013822 1 1 1 1 1 1 0.010006710941868849 1 1 0.010288648160402482 1 1 1 1 1 1 1 0.009954073451129055 1 1 1 1 1 1 1 1 1 1 1 1 1 1 1 1 1 1 1 1 1 1 1 1 1 1 1 1 1 1 1 1 1 1 1 1 1 1 1 1 1 1 0.0097805596722393105 1 1 0.0098794765966371354 1 1 1 1 1 1 0.0096391664892791599 1 1 1 1 0.0099625795066653981 1 0.0091403930578460683 1 1 0.0098560149920001155 1 1 0.0096848254812231718 1 1 1 1 1 1 1 0.0099933661162420143 1 1 1 1 1 1 1 1 1 1 1 0.0098704069363987137 1 1 1 1 0.0098195643397757434 1 1 1 0.0099900248313550509 0.010376798460244601 1 1 0.009967186041178723 1 1 1 0.0099374144261217857 1 1 0.0097686264765803419 1 1 1 1 1 1 1 1 0.010009252260060447 1 1 0.0099416003485554572 1 1 0.0098360068783509384 1 1 1 0.0099946157575714189 1 1 1 0.0093976714649592064 1 1 1 1 1 0.010019869809363926 1 1 1 1 1 0.0092079689200456408 1 1 1 1 1 1 1 1 1 0.0099908487917722694 1 1 1 1 0.0099867918242379609 1 1 1 1 1 1 1 1 0.0095859661827347852 1 0.0091171627775021736 1 1 1 1 1 1 1 1 1 1 0.008057709130729028 1 1 1 1 1 1 0.0099990993875108281 1 1 0.00995908862844898 1 1 0.0099947028894692407 1 1 1 1 1 1 1 1 1 0.010016054755461261 1 1 1 1 1 1 0.0099607739626338468 1 1 0.0091810952198242424 1 1 1 1 1 1 1 1 1 1 0.0099702302273131371 0.0089064230323606369 1 1 1 0.010169787309690728 0.0088868974393422669 1 1 1 1 0.008802951047820317 1 1 0.010176255430381115 0.0092137957672583162 1 1 0.0089466745578503683 1 1 1 0.0099400310738247399 1 1 0.010298986606569522 0.01061053806249674 1 1 1 1 1 1 1 0.0092255342144991707 1 1 1 1 1 1 1 1 1 1 1 1 1 1 1 0.010026694126732114 1 1 1 1 1 1 1 0.010201935018789566 1 1 0.0099072784536475313 0.010060830235224137 1 0.0097592675636993184 1 0.010086840863568423 1 1 0.009750093732250522 1 1 1 0.010343941088605093 0.0095790332086576196 1 1 1 1 0.0086324856629883921 1 1 0.010305863516880518 1 1 0.0085432455516885625 1 1 0.010011776506585421 1 1 1 1 0.0098894965169983445 0.0091060555580396389 1 1 1 0.0099573969471124114 1 1 1 1 1 1 1 1 1 1 1 1 1 1 1 1 1 1 1 1 1 1 1 1 1 1 1 1 1 1 1 1 1 1 1 1 1 1 1 1 1 1 1 1 1 1 1 1 0.0099101889096575458 1 1 1 1 0.0097276760400954471 1 1 1 1 1 1 0.0074316262345562305 1 1 1 1 0.0078378468888657266 0.0097377138956383346 1 1 1 1 1 1 1 1 1 1 1 1 1 1 1 1 1 1 1 1 1 1 0.0073416913139506892 1 1 1 1 1 1 1 1 1 1 1 1 1 1 1 1 0.010096645933660945 1 1 1 1 0.01000491296946299 1 1 1 1 1 1 1 1 0.010083091350702926 1 1 1 1 1 1 1 1 0.010005099734386706 1 1 1 1 0.0091700954083046814 1 0.010037260458138965 1 1 1 1 1 1 1 1 1 1 1 1 1 1 1 1 1 1 1 1 1 1 1 1 1 1 1 0.0097049217089735153 1 1 1 1 1 1 1 0.010139882081838357 1 1 1 1 1 1 1 1 1 1 1 0.010037344805855251 1 1 1 1 1 1 1 1 0.010378658575287724 1 1 1 1 1 1 1 1 1 1 0.010258332182578177 1 0.0089682827006335418 1 1 1 1 0.0075648533424003605 1 1 1 1 0.010152935987264177 1 1 0.0090238022070105433 1 1 1 1 1 1 0.0085826980849896903 1 1 1 1 1 1 1 1 1 0.0093995353371092993 1 1 1 0.0097550222419506612 1 0.0092564794833902963 1 1 0.0094285046667140528 1 0.0086113158384668407 1 1 0.008901597881650368 1 1 1 1 1 1 1 0.0085873208996847319 1 1 1 1 1 0.0099520938561915365 1 1 1 1 1 1 1 1 1 1 1 1 0.0099767392237174284 1 1 1 0.0099288330799089664 1 1 1 1 0.0098653361498830285 1 1 1 1 1 0.0093143653676454035 1 1 0.0091564447591772 1 1 1 0.0092866681192247565 1 1 1 1 0.0096369369816893102 1 1 0.0093435792913351932 0.010002863335692728 1 1 1 1 1 1 1 1 1 1 1 0.0096547616051922656 1 1 1 1 1 1 1 1 1 1 1 1 1 1 0.0095796199797350007 1 0.010019323958867938 1 1 1 1 1 1 1 1 1 1 1 1 1 1 1 1 1 1 1 1 1 1 1 0.0099534648772499103 1 1 1 1 1 1 1 1 1 1 1 1 1 1 0.0097832512204965669 1 1 1 1 1 1 1 1 1 1 1 1 1 1 1 1 1 1 1 1 1 1 1 1 1 1 1 1 1 1 1 1 1 1 1 1 1 1 1 1 0.0099767288360761552 1 1 1 1 1 1 1 1 1 1 0.0099887143881342549 1 0.0099377368826242384 1 1 1 1 1 0.0098970921770093739 1 1 1 1 1 1 1 1 1 1 0.0099585811895021338 1 1 0.0098310072433859079 1 1 0.0099019567184508231 1 1 1 1 1 0.010010297701615696 1 1 1 0.0099433755289486895 0.0099499399380680951 1 1 0.0097864828495142636 1 1 1 1 1 1 1 0.0099750043216977197 0.0098424057538244146 1 0.0099868923180866393 1 1 1 1 1 0.010018193081148798 1 1 1 1 1 1 1 1 1 1 1 1 1 1 0.010219980918316475 1 1 1 0.010235756518750593 1 0.0097253798294487381 1 1 1 1 1 0.010189428339321596 1 1 1 1 1 1 1 1 1 1 1 1 1 1 0.010154219323201647 1 1 1 0.0098544265892109503 1 1 1 1 1 0.010039120448021362 1 1 1 0.0099542572848277857 0.0099014423249474889 1 1 1 1 1 1 1 1 1 1 1 1 1 1 1 1 0.0098570035645110209 0.0099779151408408498 1 1 1 0.009946824953088608 1 1 0.0099372653065943495 1 0.010003827798941208 1 0.0097817737752761529 1 1 1 0.0099909306247243229 1 0.0099428497846897022 1 1 1 1 1 1 0.0088982779921963056 1 1 1 1 1 1 1 1 0.009905599197774697 1 1 1 1 1 0.0098209850339400894 1 0.010005192157770884 1 1 1 1 1 1 1 1 1 0.0098675527187167579 1 0.010021922622480384 1 1 1 1 1 1 1 1 1 1 1 1 1 1 1 1 0.0099217821755372883 1 1 1 1 1 1 1 1 1 0.0098127958230342788 1 1 1 1 1 1 1 1 1 1 1 0.0099156428570014582 1 1 1 1 1 1 1 1 0.0098796335512780532 1 1 1 1 1 1 0.0099465775050425146 1 1 1 1 1 1 1 1 1 1 1 1 1 0.0099822729603109058 1 1 1 1 1 1 1 1 1 1 1 1 1 1 1 1 1 0.009855324690269486 1 1 1 1 1 1 1 1 1 1 1 1 1 1 1 1 1 1 1 1 1 1 1 1 1 1 1 1 1 1 0.0089167498190506345 1 1 1 1 1 1 1 1 1 1 1 1 0.010221112556060322 1 0.010068981654949996 1 1 1 1 1 1 1 1 1 1 0.0099835810412047202 1 1 1 1 1 1 1 1 1 1 1 0.008601361954863886 1 0.0098821710684054744 0.010445060911324362 1 1 0.0099960032573773051 1 1 0.010271526722478552 0.0089730232071148705 1 1 0.0094363684669932068 1 1 0.0095114997927757024 1 1 1 1 1 1 1 1 0.0099931240027932942 1 1 1 1 1 1 1 1 1 0.008559887444035099 1 1 1 1 1 1 1 0.0098842763577340377 0.0097808177137296958 1 0.010086406360888915 1 1 1 0.0092169202202332795 1 1 1 1 1 0.009671853565615101 1 1 1 1 1 1 0.0088283691859610113 1 1 1 1 1 1 0.0091606027042140485 1 1 0.0096256678472294299 1 1 1 1 1 0.010576919613027206 1 0.0090979332693754671 1 0.0096561237371422456 1 1 1 1 1 1 1 1 1 1 0.0089785286676296126 1 0.0097909986894312729 1 1 0.0088436792867531231 1 1 1 0.0099708072669119369 0.0099974420286373569 1 1 1 1 0.0088054938890433764 1 0.010818761376203679 1 1 0.0095484677367965124 1 1 1 1 1 1 1 1 1 1 1 1 1 1 1 1 1 1 1 1 1 1 1 1 0.010009660448093625 1 1 1 1 1 1 1 0.0092615284388438412 1 1 1 1 0.010418613434445473 1 1 1 0.009467305569001664 1 1 0.0095946788160041659 1 0.010647703736837743 1 1 1 1 1 1 1 1 0.010184214319927104 1 1 1 0.010013535929041374 1 1 1 1 0.010000212501038127 1 0.0096658649373176468 1 1 1 1 1 1 0.0092578216774665146 1 1 1 0.010302550020355048 1 1 0.0089195523956777812 1 1 1 1 1 0.0092006544865221446 1 1 1 1 1 0.010315926660462334 0.010000916781330044 1 1 1 1 1 1 1 1 1 1 1 1 1 1 1 1 1 1 1 1 1 1 1 1 1 1 1 1 1 1 1 1 1 1 1 1 1 1 1 1 1 1 1 1 1 1 1 0.0099247060190744314 1 1 1 1 1 1 1 1 1 1 1 1 1 1 1 1 1 1 0.0099722467844717347 1 1 1 1 1 1 1 0.0099712411418245214 1 1 1 1 0.010070343337913932 1 1 1 1 1 1 1 1 1 1 1 0.0099683207183738059 1 1 1 1 1 1 0.0099998297528925573 1 1 0.010196037089287451 1 0.0099997890344476099 0.010004366993103326 0.0099951115010145156 1 1 1 1 1 1 1 1 1 1 1 1 1 1 1 1 1 1 1 1 1 1 1 1 1 1 1 1 1 1 1 1 1 1 1 1 1 1 1 1 1 1 1 1 1 1 1 1 1 1 1 1 1 1 1 1 0.010007925024268257 1 1 1 0.010064282385791651 1 0.0099935793898667732 1 1 1 1 1 1 1 1 1 1 1 0.010003590598001579 1 1 1 0.010016488060161876 1 0.0099999971377820462 1 0.0098433175672461206 1 1 1 1 1 1 1 1 1 1 1 1 1 1 1 1 1 1 1 1 1 1 0.0096650245293101612 1 1 1 1 1 1 1 1 1 1 1 1 1 1 1 0.0099519903686688359 1 1 1 1 0.0091083213267029381 0.0099826026256820116 1 1 0.0099980972454288154 1 1 1 1 0.010055246112904655 1 0.0096558847705654361 1 0.010134932765790073 1 1 1 0.010005220090230088 1 0.0091337111704291301 1 1 1 1 1 1 1 1 0.0081169659701133181 1 1 1 0.0080120545567623769 1 1 1 0.0096830771231513745 1 1 1 1 1 1 1 1 1 1 1 1 1 1 1 1 1 1 1 0.010029716076404018 1 1 1 1 1 1 1 1 1 1 1 1 1 1 1 1 0.008321653197719877 1 1 1 0.0086785269237339025 1 1 1 1 1 1 0.010043726787190874 1 1 1 1 1 1 1 1 1 1 0.010070444058984227 1 1 1 1 1 1 1 1 1 1 1 1 1 1 1 1 1 1 1 1 1 1 1 1 1 1 1 1 1 0.009234577079202274 1 1 1 1 0.010028493056332778 0.0093372187189360526 1 1 1 0.010104720103709892 1 1 1 1 1 1 1 0.010009632702558753 1 1 1 0.0091703834712478383 1 1 1 1 0.009762926627435109 1 0.0093227683170195828 0.010181391449875192 1 1 0.010429675907463234 1 1 1 1 1 0.009581134052393336 1 0.0097201668533499746 1 1 0.0096241721837471046 1 0.010000124259298644 0.009998882539247661 1 1 0.010072625728504384 0.0091283102961498309 1 1 1 1 0.010489409183399105 1 0.010377010067741357 1 1 1 0.0098614951717437872 0.010353622293477926 1 1 1 1 1 0.0094037256313708462 1 1 1 0.0097784120447494335 1 1 1 1 1 0.0099542934074341519 1 1 1 1 1 1 0.0099546514657300311 1 1 1 1 1 1 1 1 0.01017839216219513 0.010170847647011684 0.010389883903571581 1 0.01030825934583042 1 1 0.0096119201339900269 1 1 1 1 1 1 1 1 1 1 1 0.010005913802104053 1 1 1 1 1 1 1 1 1 0.010207523717090992 1 1 1 1 1 1 1 1 0.0099456239328888311 1 1 1 1 1 0.0099122046042450437 1 1 1 1 1 1 1 0.0094923252525871554 1 1 1 0.010004999410845213 1 1 0.0099647565679108555 1 1 1 1 1 1 1 1 1 1 1 1 1 1 1 1 1 1 1 1 1 1 1 0.0099581339388210358 1 1 1 1 1 0.0099787919832287526 1 1 1 1 1 1 1 1 1 1 1 1 1 1 0.0096436684859636437 1 1 1 1 1 1 1 1 1 0.010383453216260219 1 0.010222008059997846 1 1 1 1 1 0.010012268364031436 1 0.0099182603020271688 0.010001046976895639 1 1 1 1 1 1 1 0.010007682941850353 1 1 1 1 1 1 0.0099920788640544423 1 0.0098392920260112395 1 0.0099855854384070953 1 1 1 1 1 1 1 1 1 1 1 1 1 1 1 1 1 1 1 1 1 1 1 1 1 1 1 1 1 1 1 1 1 1 1 1 1 1 1 1 1 1 0.0091878814676620898 1 1 1 1 1 1 1 1 1 0.010024829150645058 1 1 1 1 1 1 0.0094588980026597998 1 1 0.0099927238030795545 1 1 1 1 1 1 1 1 1 1 1 1 0.0093758372581160525 1 1 0.0092989041130641659 1 1 1 1 0.0090735270437238679 1 0.0086890301476171741 1 1 1 1 0.0086312091621813317 1 0.0087762465362025317 1 1 1 1 0.0099675640656298782 0.010026888829752303 1 0.0084685845742106039 1 1 1 1 1 1 1 1 1 1 1 1 1 1 0.0085754412943879321 1 1 1 1 1 1 1 1 1 1 1 1 1 1 1 1 1 1 1 0.0083087373973914289 1 1 0.0085417024917491657 1 1 1 0.0094648962056654538 1 1 1 1 1 0.0083641310739546639 1 1 1 1 1 1 1 1 1 1 1 1 0.01002607511004695 1 0.0096552372124881509 1 1 1 0.0094384640456373625 1 1 1 0.0093848046827001777 1 0.0097448601166242876 1 1 1 1 1 0.0096851361703535581 1 1 1 0.0083681302442602228 1 1 1 1 0.0080778060134876085 1 1 1 1 0.010269550536742863 1 1 0.0078495557397849046 1 1 1 0.010163603159456259 1 1 1 1 1 1 1 1 1 0.010091625055598116 1 1 0.010051085295108852 1 1 1 0.0098846709694519266 1 1 1 1 1 1 1 1 1 1 1 1 1 1 1 1 1 1 1 1 1 1 1 1 1 1 1 1 1 1 1 1 1 1 1 0.0099700251730351162 1 1 1 1 1 1 1 1 1 1 1 1 1 1 1 0.0099310944695470069 0.0098602455659581364 1 1 1 1 1 1 1 0.0097750356648070719 1 1 1 1 1 1 1 1 1 1 1 1 1 1 1 1 1 1 1 1 1 1 1 1 1 1 1 1 1 1 1 1 1 1 1 1 0.0098982032377622747 1 1 0.0099677234995934477 1 1 1 1 1 1 1 1 1 0.0098962875043318785 1 1 1 1 1 1 1 1 1 1 1 1 1 1 0.010014010710786857 1 1 1 1 1 1 1 0.0089422047289192223 1 1 1 1 0.0099809599332304766 1 0.011173751671086345 1 1 1 1 1 1 1 1 1 1 0.009931743547220203 1 1 1 1 0.0098283920750838992 1 1 1 1 1 1 0.0099874074691852829 1 1 0.011370087048057734 1 1 1 0.0096133548129748794 1 1 1 1 0.0096818288060813423 1 1 1 0.0097798145157061006 1 1 1 1 1 1 1 1 1 0.009973521017230742 0.0097620698745485863 1 1 1 1 1 1 1 0.01000529852658354 1 1 1 1 1 0.01001978224999657 1 1 0.0097178821223895279 1 1 1 1 1 1 1 1 0.0092577895208794773 1 1 1 1 1 0.0089916208535375727 1 1 1 1 1 1 1 1 1 1 1 1 1 1 1 1 1 1 1 1 1 0.010029044739032711 1 1 1 1 1 1 1 0.0097897248232395075 1 1 1 1 1 1 1 0.0094553184154645212 1 0.0099409543852308716 0.0098997455245927561 1 1 1 1 1 1 1 1 1 1 1 1 1 1 1 1 1 1 1 1 1 1 1 1 1 1 1 1 1 0.010066389544887961 1 1 1 1 1 1 1 1 1 1 1 1 1 1 1 1 1 1 1 1 1 1 1 1 0.0099871505463873609 1 1 1 1 0.009966492501979644 1 1 1 1 1 1 1 1 1 1 1 1 1 1 1 1 1 1 1 1 1 1 1 1 1 1 1 1 1 1 1 1 1 1 1 1 1 1 0.0086485889400261945 1 1 1 1 1 1 1 1 1 0.010018964137180536 1 0.01004873956775543 0.0092997016568703988 1 1 1 1 1 0.0088026982666202479 1 1 1 0.010005087262525239 1 1 1 1 1 1 1 1 1 1 1 1 1 1 1 1 1 1 1 1 1 1 1 1 1 1 1 1 1 1 1 1 1 1 1 1 1 1 1 1 1 1 1 1 0.0080467045705026382 1 1 1 1 1 1 1 1 1 1 1 1 1 1 1 1 1 1 1 0.0095190814865328908 1 1 0.0091034590290127605 1 0.01009589846685956 1 1 1 1 1 1 1 0.0094861330636168972 1 1 1 1 1 1 1 1 1 0.0096762125439568414 1 1 1 1 1 1 1 1 1 1 1 1 0.0099439336024082364 1 1 1 1 1 1 1 1 1 1 1 1 1 1 1 1 1 1 0.0094496912992433173 1 1 1 1 1 0.0096385835683043524 0.0094911661787311277 1 1 1 0.0095288538182266343 1 1 1 1 1 0.0087740011872088023 1 0.0098229603941401792 1 1 1 1 1 0.010387315621228868 0.0085249748674763245 1 0.0087183959606429561 1 1 1 1 1 1 1 1 1 1 1 1 1 1 0.008902466251415813 1 1 1 1 1 1 1 1 1 1 1 1 1 1 1 1 1 1 1 1 1 0.009414331782063471 1 1 1 1 1 0.0091827448748767401 1 1 1 1 1 1 0.0090842228601216816 1 0.0099248683283854194 0.010027543981672478 1 1 1 1 1 1 1 1 1 1 1 1 1 1 1 1 1 1 1 1 1 1 1 1 0.0099886686065242397 1 1 1 1 1 1 1 1 0.0099134406822242969 1 1 1 1 1 1 1 1 1 0.0098070826167665302 1 1 1 1 1 1 1 1 0.010167370192470137 1 1 0.0098908989837059921 1 1 1 1 0.0099678307279441186 0.0096283401274687239 1 1 0.010207340766312608 0.0094895301368519494 1 1 1 1 1 0.0098384578448150756 1 1 1 1 1 0.0099890908547374049 1 1 1 1 1 1 1 1 0.010038379413985245 1 1 1 1 1 1 1 1 1 1 0.010013991424226626 0.010288119600141999 1 1 1 1 1 1 0.010102204798943307 1 1 1 1 1 1 1 1 1 1 0.0098650903385346985 1 1 1 1 1 1 1 1 1 1 1 1 0.0096347649442743225 1 1 1 1 1 1 1 1 1 1 1 1 1 1 1 1 1 1 1 1 1 1 1 1 0.0099615070368958194 1 1 1 1 1 1 1 1 1 1 1 1 1 1 0.010143650176778258 1 1 1 1 1 1 1 1 1 1 1 1 1 1 1 1 1 1 1 1 1 1 1 1 1 1 1 1 1 1 1 1 1 1 1 1 1 1 1 0.0098751433272066466 1 1 1 1 1 1 1 1 1 1 1 1 1 1 1 1 0.010065972461223611 1 1 0.010210679180556728 1 1 1 1 1 0.010014648174199484 1 1 1 1 1 1 1 1 1 1 1 1 1 1 1 1 1 1 1 1 1 1 1 1 1 0.0092146563428157618 1 1 1 0.0088243607020633778 1 1 1 1 1 0.0097142999874758711 1 1 1 1 1 1 1 1 1 1 1 1 1 1 1 1 1 1 1 1 1 1 1 1 1 1 1 1 1 1 1 1 1 1 1 1 1 1 1 1 1 1 1 1 1 1 1 1 1 0.0099205549231551719 1 0.0093529327780062007 1 1 1 1 1 1 1 1 1 1 1 1 1 1 1 1 1 0.0092717722396382617 1 1 1 1 1 1 1 1 1 0.0093572971688618712 1 1 1 1 1 1 1 1 0.0096925906784092811 1 1 1 1 1 1 1 1 1 1 1 1 1 1 1 1 1 1 1 1 1 1 1 1 1 1 1 0.0096710569656435486 0.0097427277024430339 1 1 1 0.010167585394374071 1 1 0.0099976616038992688 1 1 0.0092818957043299174 1 1 1 1 0.0095421441487489253 1 1 0.010010176097668712 1 0.010000025376563079 1 1 1 1 1 1 1 1 1 1 1 1 1 1 1 1 1 1 0.0097297996213345332 1 1 1 1 1 1 1 1 1 1 1 1 1 1 1 1 1 1 1 1 1 1 1 1 1 1 0.01010326758675735 1 1 1 1 1 1 0.010385997152565104 1 1 1 1 1 0.010041335638864928 0.009189677892735686 1 1 1 1 0.0094006977125136067 0.010243932435403707 1 1 0.0097661360293101462 1 1 0.0088115810396573388 1 1 0.009911034736987772 1 1 1 1 0.0090547889515382 1 1 1 1 1 1 1 1 1 1 1 0.010051505012953862 1 1 1 0.010013514417520766 1 1 0.0097821024441519262 1 1 1 0.0089768747079261232 1 1 0.009466552969197491 0.0098080095192121693 0.009789423599236461 1 1 1 1 1 1 1 1 1 1 1 1 0.0099669512689355109 1 1 1 1 1 1 1 1 1 1 1 1 1 1 1 1 1 1 1 0.0099792132359362625 1 1 1 0.0099461645048717733 1 1 1 1 0.0099468574087230501 1 1 1 1 1 1 1 0.0099589378334113045 1 1 1 1 0.0099058835930418178 1 1 1 1 1 1 1 1 1 1 1 1 1 1 1 1 0.0096071235463850956 1 0.010043260791594233 1 0.0099076559693870858 1 1 0.010030213536467027 1 1 0.009949523828636125 1 1 1 1 1 0.0099170707093912645 1 0.0096375355724617473 1 1 0.0099901999101270345 1 1 1 1 1 1 1 1 1 1 1 1 1 1 1 1 1 1 1 1 1 1 1 1 1 1 1 0.010001755964218408 1 1 1 1 0.009923026703820205 1 1 1 1 1 1 1 0.0099965624145326136 1 1 0.009412006671443764 0.0098163009015715969 1 1 1 0.010000167034905083 1 1 0.01021627066346663 1 0.0101173478537161 0.00999541463229843 0.009698792142597331 1 1 0.0098530012939879522 0.010015451051964431 1 1 1 0.009760784690089095 1 1 0.010240940801192743 1 1 1 0.010308512339082849 1 1 0.0097696093876127044 1 1 1 0.009878944940402019 1 1 1 1 1 1 1 0.0099964916889430828 1 0.0093140294739534231 1 1 1 1 1 0.0099381168839806772 1 0.009980814393018244 1 1 1 1 1 1 1 1 1 1 1 0.010394364184355567 1 1 0.010311247315422272 1 1 1 1 0.0092833072117050816 1 0.010239173085089625 1 1 1 1 1 1 1 1 0.0088633420240498591 0.010209620910562996 1 1 1 1 1 1 1 1 1 1 1 1 1 1 1 1 1 1 1 1 1 1 0.009493623127104743 1 1 1 0.0098070517713122717 1 1 1 1 1 1 1 1 1 1 1 0.0099002200013653743 1 1 1 1 1 1 1 0.0099889014457641145 1 1 0.0099694569697952439 1 1 1 1 1 1 0.009931108212044789 1 1 1 1 1 1 1 1 1 1 1 1 1 1 0.0099892575857132987 1 1 1 1 1 1 1 1 1 1 1 1 1 1 1 1 1 1 0.0097479102195528883 1 1 0.0098514078572632183 1 1 1 1 1 1 1 1 1 1 1 0.0099676881443043364 1 1 0.0094681162664917752 1 0.0095605793228479129 1 1 0.010193220761400848 1 1 1 0.0099025527325934757 0.0099270826518353828 1 0.010151792185281889 1 1 1 1 0.010081578085547176 1 1 1 1 1 1 1 1 1 0.0099733258902316088 1 1 1 1 1 1 1 1 1 1 1 1 1 0.010023801636984971 1 1 1 1 1 1 1 1 1 1 1 1 1 0.0099527089836453277 1 1 1 1 1 1 1 0.0097405159325128117 1 1 1 1 1 0.0099244102200551128 1 1 1 1 1 1 1 1 1 1 1 1 1 1 1 1 1 1 1 0.010028629000759497 0.010093121799900604 1 1 1 1 1 1 0.0099961426483461367 1 1 1 1 0.0097993197087916858 1 1 1 1 0.009986398660122367 1 1 1 1 0.0099616729300775492 1 0.0098637881839096966 1 1 1 1 1 1 1 1 1 1 1 1 1 1 1 0.0098794002120663263 1 1 0.0094220302288391157 0.0099230877891058888 1 1 1 1 1 1 1 1 1 0.010005421478335955 1 1 1 1 0.010002096490441804 1 0.0092397983855669347 0.010022711892061302 1 1 1 1 1 1 0.0099497743914267571 1 1 1 1 0.0095945120649654769 0.014343638181334821 1 0.0096319906140461403 1 1 0.0099115889171610405 1 1 1 1 1 1 0.0098155879468022449 1 1 1 1 0.0095956369062220603 1 1 1 1 1 0.0096920336679835913 1 1 1 1 1 1 0.0098346767062669274 1 1 1 1 0.0098312748739796275 1 1 1 1 1 1 1 1 1 1 1 1 1 1 1 0.0099475171982823744 1 1 1 1 1 1 1 1 1 1 1 1 0.0098401738074220309 1 1 1 1 1 1 1 1 1 1 0.0098866729548646518 1 1 1 1 1 1 1 1 1 1 1 1 1 1 1 1 1 1 1 1 1 1 1 1 1 1 1 1 0.0095213254125445616 1 1 1 1 0.0097967991191943923 1 1 1 1 1 1 1 1 1 1 1 1 1 1 1 1 0.010452956202011844 1 1 1 1 1 1 1 1 1 0.01029255095711025 1 1 1 1 1 1 0.010163734182500132 1 1 0.0099793806419922262 1 1 1 1 1 1 1 1 1 1 1 0.010072137662971386 1 1 1 0.010017125820498038 1 1 1 1 1 1 1 1 1 1 1 1 1 1 0.00999268808061533 1 1 0.0099821894587008263 1 0.010017896789986871 1 1 1 0.010052476367102544 1 1 1 1 1 0.0099895013780855017 1 1 1 1 1 1 1 1 1 1 1 1 1 1 1 1 1 1 1 1 1 1 1 1 1 1 1 1 1 1 1 1 1 1 1 1 1 1 0.009783559051947846 1 1 0.0097601320487164939 1 1 1 1 1 1 1 1 1 1 1 1 1 1 1 1 1 1 0.0094547664862230912 1 1 1 1 1 1 0.0093584557974957204 1 1 1 0.0099910344470774057 1 1 1 1 1 1 1 1 1 1 1 0.0099909087600906013 1 1 1 1 1 1 1 1 1 1 0.0099516973365012789 1 1 1 1 1 1 1 1 0.01007829091082217 1 0.0096316546784335193 1 1 0.0097570953676678444 1 1 0.0099449663142575518 0.0099210607484983577 0.0099328834075123676 1 1 1 0.0095088533987752553 1 1 1 1 0.0099996418646801088 1 1 1 1 1 1 0.0099816727787239348 0.0098444308749233763 1 1 1 1 1 1 1 1 1 1 1 1 0.010000403968751875 1 1 1 1 1 1 0.0096690349928395258 1 1 1 1 1 1 1 1 1 0.0094925090802158805 1 1 1 1 1 1 1 1 1 0.0099060995699290083 1 1 1 1 0.009795198946604345 1 1 1 1 1 0.0097140315191703002 1 1 0.0097256459439083679 1 1 1 1 1 0.0098303024557229932 1 1 1 1 1 1 1 1 1 1 1 1 1 1 0.0098934559926142605 1 1 1 1 1 0.0098005338575097509 0.009621527996538197 1 1 1 0.0099440910149496721 1 1 1 1 0.0096268729731264248 1 1 0.010010117414896191 1 1 1 1 1 1 1 1 1 1 1 1 1 0.0098249441663941558 1 1 1 1 1 1 1 0.010003953137233096 1 1 1 1 1 1 1 1 1 1 1 0.0099571173793378716 1 1 1 1 1 1 1 1 1 1 1 1 1 1 1 1 1 0.009684059945430817 1 1 1 1 1 1 0.0098583486668665753 1 1 1 0.0094203415651688271 1 1 1 1 1 0.0091395632060090638 1 1 1 0.0088439775434458467 1 1 1 1 1 1 1 0.0088436785135211967 1 1 0.0098928301874376227 1 1 1 1 1 1 1 1 1 1 0.0099767434276188619 0.0097936871996559417 1 1 1 1 1 1 1 1 1 1 1 1 1 1 1 1 1 0.010743553323680492 1 1 1 1 1 1 0.010000602217044784 1 1 1 0.0093602745864761732 1 1 1 0.0093378038579444867 1 1 1 1 1 1 1 1 1 0.010061920271281532 1 1 1 1 1 1 0.0096971545025604962 1 1 1 1 1 1 1 1 1 1 1 1 1 1 1 1 0.010185646997099628 1 1 0.0097295927884156787 1 0.010057573672787541 1 1 1 1 1 1 1 0.010021318960971594 1 0.0098613799338851289 1 1 1 1 1 1 0.009942985504340314 1 1 0.0097227482752283434 1 1 1 1 1 1 1 1 1 0.0098224330004199837 1 1 1 1 1 0.0098913304932523784 1 1 1 1 1 1 0.0099483449889120647 1 1 1 1 1 1 1 1 0.010343295757273767 1 1 1 1 1 1 1 1 1 1 1 1 1 0.0099249570523604544 1 0.010008019143212117 1 1 0.009787323453249357 1 1 0.010269763033847364 1 1 1 1 1 1 1 1 0.010071413390893992 1 1 0.010300542660106146 1 1 1 1 1 1 1 1 1 1 1 1 1 1 1 1 1 1 1 1 1 1 1 1 1 1 1 1 1 1 0.010416135841851039 1 1 1 1 1 1 1 1 1 1 1 1 1 1 1 1 1 1 1 1 1 1 1 1 1 1 1 1 1 1 1 1 1 1 1 1 1 1 1 1 1 1 1 1 1 1 1 1 1 1 1 1 1 0.009487527723217367 1 1 1 1 1 1 1 1 1 1 0.01053601583558254 0.0083207946476167634 1 1 1 1 0.0099278703039161632 1 1 0.0099734463603216063 1 0.0091840679198894465 1 1 1 1 1 1 1 1 0.0096327748888184409 1 1 1 1 1 1 1 1 1 1 1 1 1 1 1 1 1 1 1 1 1 1 1 1 1 1 1 1 0.0098492158368705934 1 1 1 1 0.0087982280784132151 1 1 0.0093469328067255913 1 1 1 1 1 1 1 1 1 1 1 0.0083775893238990859 1 0.0097818856687198093 1 1 1 1 1 1 1 1 1 1 1 1 1 0.0099711748144556082 0.010048749415072125 1 1 1 1 1 0.0099979855909975782 1 1 1 1 1 0.01009539192319317 1 1 0.0099970734684881046 1 1 0.0089114857439438408 1 1 0.0088003649902183897 0.0094596866608239617 0.0085618914184793504 0.0098422650726674547 1 1 0.0099981750407609118 1 1 1 1 0.0099986304310967361 1 1 0.0099450096659238537 1 1 1 0.0096950577250964603 1 1 1 0.0096258690191484558 1 1 1 1 1 0.0094973767513662471 0.010002486448184036 1 0.0099567530070968028 1 1 1 1 1 1 1 1 1 1 1 1 1 1 1 1 1 1 1 1 1 1 0.0094970312003196666 1 1 1 0.0098230118777308216 1 1 1 1 1 1 1 1 1 1 1 1 1 1 1 1 1 0.010048266381910295 1 1 1 1 1 1 1 1 1 1 1 1 1 1 1 1 0.009255739381920796 1 0.010001419939216183 1 1 1 1 1 1 1 1 0.010158854063483019 0.0099913068738292539 0.0088950359191859035 1 1 0.0097749432978977077 1 1 1 0.0099971670638925193 1 1 0.0096376644770017148 1 0.0099252473262397105 1 1 1 1 1 1 1 1 0.0099661276606326874 1 1 1 1 1 1 1 0.0099348468169609717 1 1 1 1 1 1 1 1 0.0095424741041481055 1 1 1 0.0099601759429478152 1 1 1 1 1 1 1 1 1 1 1 1 1 0.0090847361089207782 1 0.0099985833610497631 1 0.0099985859371886834 1 1 1 1 1 0.010048446659132262 1 1 1 1 1 1 0.010157469064339609 0.010007431052018612 0.0092028418458361076 1 1 1 1 1 1 1 1 1 1 1 1 1 1 1 1 1 1 1 1 1 1 1 1 1 1 1 1 1 1 1 1 1 1 1 1 1 1 0.0089865462128689184 1 1 0.0091410133290446595 1 1 1 1 1 1 1 1 1 1 1 1 0.0096485590376033884 1 1 1 0.0099596490301946377 1 1 1 1 1 1 1 1 1 1 1 1 1 1 1 1 1 1 1 1 1 1 1 0.0097541529905072616 1 1 1 1 1 1 1 1 1 1 0.009977284722985676 1 1 1 1 1 1 1 0.010038212864984981 0.0098689457320132196 1 0.0099965965994945963 1 1 1 1 1 1 1 1 1 1 1 1 1 1 1 0.010313518959022128 1 0.0099872361440748181 1 1 1 0.010153167631784829 1 1 0.010040378572742262 1 1 1 1 1 1 1 1 1 1 1 1 1 1 1 1 1 0.0098811802145758795 1 1 1 1 1 1 1 0.009957574286382706 1 1 1 1 1 1 1 1 1 0.0099966190461073731 1 0.009694120591871417 1 1 1 1 1 1 1 1 1 1 1 0.010003585676778453 1 0.0099913603586396747 1 1 1 1 1 1 1 1 1 1 1 1 1 1 1 1 1 1 1 1 1 1 1 1 1 1 1 1 1 1 1 1 1 1 1 1 1 1 1 1 1 1 1 1 1 0.0099646422027446242 0.0096666615001575456 1 1 1 0.0099864876063299433 1 0.0099528375288526379 1 0.0098491915415512537 1 0.010194550893131352 1 1 1 1 0.010220179257931554 0.0099990238561550177 0.009325824050577072 1 0.01017581828474504 1 1 1 1 0.0099560898752257283 1 1 1 1 0.010056189587294465 1 1 1 0.0099007582578999505 1 0.0099366950956267189 0.0099370613054131224 0.0095330199300189648 1 1 0.0095501469767924601 1 1 1 1 0.0093736458410282331 1 1 1 1 1 1 1 1 1 1 1 1 1 1 0.0097354304425871143 1 1 0.01003444631297061 1 1 1 1 1 0.009536907298446539 1 1 0.010034962318002667 1 1 1 1 1 1 1 1 1 1 1 1 1 1 1 1 1 1 1 0.0098291217406453919 1 1 1 1 1 1 1 1 1 1 1 0.0099277473811513507 1 1 1 1 1 1 0.0096935106613450592 1 1 1 1 1 1 1 1 1 1 1 1 1 1 0.0096983022523523532 1 1 0.0098766078271468431 1 1 1 1 1 1 1 0.0097091597742074327 1 0.0092755216226715967 1 0.0099043467149880094 1 0.0098691805117069632 1 0.0096189555264612325 1 1 0.0096840528226427563 1 1 1 1 1 1 1 1 1 1 1 1 1 1 1 1 1 1 1 1 0.0096338665093762387 1 1 0.0098391622644590261 1 1 1 1 1 1 1 1 1 1 1 1 1 1 1 1 1 1 1 1 1 1 1 1 1 1 1 1 1 0.0095740971514666449 1 1 0.0095800215430353816 1 1 1 1 1 1 1 1 1 1 1 1 1 1 1 0.0097169885707789009 1 1 1 1 1 1 1 1 1 1 1 1 1 1 1 1 0.009961297510137513 1 0.0098851814702356315 0.0097764315591208038 1 1 1 1 1 0.009841607171204643 0.0096641468463385533 1 1 1 1 0.0098912500888851725 1 1 1 1 1 1 1 1 1 1 1 1 1 1 1 1 1 1 1 1 1 0.0098730318816590626 0.0095719916938754035 1 0.0099494659104361893 0.0098616859816062011 1 1 1 0.008962545698855828 1 1 0.0099649131876725795 0.0098149389958437916 1 1 0.0099776669011183775 1 1 1 1 1 1 0.0088499097386380964 0.009348863401365327 1 1 0.0097599583041204571 1 1 1 0.0098628870276491632 1 1 1 1 0.010325559851534162 0.0099688156258993001 1 1 1 1 1 1 1 1 0.0093281907430040056 1 1 0.01010650534064367 1 0.0099964367381868997 1 0.010054352725095176 1 1 1 1 1 1 0.0080743053994416641 1 1 1 1 0.010123231535328608 1 1 1 1 1 1 1 1 1 1 0.0097554494479726271 1 1 1 0.0096843164232405035 1 0.007655311330295891 1 0.0097710800625386424 1 0.0099204770607536699 1 1 1 0.0099138670736642603 1 1 1 1 1 1 1 1 1 1 0.0096884827589867849 1 1 1 1 0.0098535697374940636 1 1 1 1 1 1 1 1 0.0096896876671025631 1 1 1 1 1 1 0.010029377770620922 1 1 1 1 1 1 0.0094948032452398436 1 1 0.0099166637466831156 1 1 1 1 1 1 0.0099781792299416285 1 1 1 1 1 1 1 1 1 1 1 0.0099363569070157094 1 1 1 1 0.010068219305966637 0.0096574142170163559 1 1 0.0096901668105430824 1 1 1 0.0099781429323262394 1 1 1 0.0096502240778253163 0.0098887885862520616 1 0.0095020326207918716 1 0.0098720556275605845 1 1 1 1 1 1 1 1 0.0098720362277119871 1 1 1 1 1 1 1 1 1 1 1 1 1 1 1 1 1 1 0.0099171538124832367 1 1 1 1 1 1 0.0097705690630448608 1 1 1 1 0.0094484275962333462 1 1 1 1 1 1 1 1 1 1 0.0093097150668328774 1 0.0096602289933128086 1 1 1 1 1 1 1 1 1 1 1 1 1 0.01006895896121332 1 1 1 1 1 1 1 1 1 1 1 1 0.0097773156623469776 1 0.010016952590124858 1 1 1 1 1 0.0099495923884996579 1 0.009768040693159891 1 1 1 0.0097878958586247872 1 1 1 1 1 1 1 1 1 1 1 1 1 1 1 1 1 1 1 1 1 1 1 1 1 1 1 1 1 1 1 1 1 1 1 1 1 1 1 1 1 1 1 1 1 1 1 1 1 1 1 1 1 1 1 1 1 1 1 1 1 1 1 1 1 1 1 1 1 1 1 1 1 1 1 1 1 1 1 1 1 1 1 1 1 1 1 1 1 1 1 1 1 1 1 1 1 1 1 1 0.010012084369992949 1 1 0.009930296538243703 1 1 1 1 1 1 1 1 1 1 1 1 1 1 1 1 1 1 1 1 1 1 1 1 1 1 1 1 1 1 1 1 0.009172369168946445 1 1 1 1 1 1 1 0.0091479988252240723 1 1 1 1 1 1 1 1 1 1 1 1 1 1 1 1 1 1 1 1 1 1 1 1 0.0098923099632818364 1 1 0.00998724010934713 1 0.0095055258752215193 1 0.009424040153825872 1 0.010244362589335896 1 1 0.0099993294062500349 1 1 1 1 1 1 1 1 1 1 1 1 0.0094478364629699049 1 1 1 1 1 1 1 1 1 1 1 1 1 1 1 0.0099999775764256452 1 1 1 0.010189006129431777 1 1 1 1 1 1 0.0099976648486967846 1 1 1 1 1 1 1 1 1 1 1 0.0096684195356097798 1 1 1 0.010008020750423023 1 1 0.0093023830162547554 1 1 1 1 1 1 0.0104342632859798 1 1 1 1 1 1 1 1 1 1 1 1 0.0096470107203872404 0.010560561316081711 1 1 1 1 1 0.009844084573915144 1 1 1 1 1 0.0096589492183980045 0.0097223130476023177 1 1 1 0.0097125265820419381 0.0098997256951380772 0.0099631197359440326 1 1 1 1 1 0.010001905942323969 1 1 0.010072132031977744 1 1 0.0094439463743796019 1 1 1 0.0097734377252934063 1 1 0.0099224158902627424 1 1 0.0099992019853545749 1 1 1 1 1 1 1 1 1 1 1 1 1 1 1 1 1 1 1 1 1 1 1 1 1 1 1 1 1 1 1 1 1 1 1 1 1 1 1 1 1 1 1 1 1 1 1 1 1 1 1 1 1 1 1 1 1 1 1 1 0.0099575560962325352 1 1 1 1 1 0.0098750963119199949 1 1 1 1 1 1 1 1 1 1 1 1 0.009658426055793725 1 1 1 1 1 0.0091787946897459085 1 1 1 0.0094356918305705945 1 0.0094889126768853676 1 1 0.0096628704527386682 1 1 1 1 1 1 1 1 1 1 1 1 1 1 1 1 1 1 1 1 1 1 1 1 0.010001763543761366 1 0.0097839031449406116 1 1 0.010015931067100803 1 1 1 1 1 1 1 1 1 1 1 1 1 1 1 0.010028308970055489 1 1 1 1 1 1 1 1 1 1 1 1 1 1 1 1 1 1 1 1 1 1 1 1 1 1 0.0090481331600843068 1 1 0.0085553914334677624 1 1 1 1 1 1 1 1 1 1 1 1 1 1 1 1 1 0.0099343367648130204 0.0081892704966338558 1 1 1 0.0088650965187138178 1 1 1 1 1 1 1 1 1 0.010443236097612661 1 1 1 0.0091149969242916989 0.0099575909305771957 1 1 1 0.0099908588645477095 1 1 0.0094360465321755033 1 0.0098650565906321167 1 1 1 1 1 1 1 1 1 1 0.009243448323383769 1 1 1 0.0077252645977619241 1 1 1 1 1 1 1 1 0.0089253668975356037 1 1 0.0099641834555274245 0.0093519743622593136 1 1 1 0.010212305184195129 1 1 1 0.0084068360636667915 1 1 0.0096270330537691559 1 1 0.0099982848341590713 1 1 1 1 1 1 0.0098687460853992357 1 1 1 1 1 1 1 1 1 1 1 1 1 1 1 1 1 1 1 1 1 1 1 1 1 1 1 1 1 1 1 1 1 1 1 1 1 1 1 1 1 1 1 1 1 1 1 1 1 1 1 1 1 1 1 1 1 1 1 1 0.0095692535067153379 0.0099478725172244768 1 1 1 1 1 1 1 1 1 1 1 1 1 1 1 1 1 1 1 1 1 1 1 1 1 1 0.010022072856557696 1 1 1 1 1 1 1 1 1 0.0099788022049656106 1 1 1 1 0.010007900733419185 1 1 1 1 1 1 1 1 1 1 0.0099829560345803137 1 1 1 1 1 0.0097019695637614554 1 0.0098880032295595964 1 1 1 1 1 1 1 1 1 1 1 1 1 1 1 1 1 1 1 1 1 1 0.009104767386368888 1 0.008550882495387142 1 1 1 1 1 1 0.010044026295173689 1 1 1 1 1 1 1 1 0.0097311535528648956 1 1 0.010068581319662703 1 1 1 1 0.0093305907962814554 1 1 1 0.0099520569054504099 1 1 1 1 1 1 1 1 1 1 1 1 0.0095204412070544892 1 0.0098580689094119461 1 1 1 1 1 1 1 1 1 1 1 1 0.0096965241160412684 1 1 1 0.0098989252066304413 1 1 0.010012253666886576 1 0.010097064214456573 1 1 1 1 1 1 0.0095973615633556005 1 1 1 1 1 1 1 1 1 1 1 1 1 1 1 1 1 1 1 0.010021299719310782 1 0.009684999759491152 1 1 1 1 1 1 0.0098888518185783342 1 1 1 1 1 1 1 1 1 1 1 1 1 1 1 1 1 1 1 1 1 1 1 1 1 1 1 1 1 1 1 1 1 0.010056591008985817 1 1 1 1 1 1 1 1 1 1 0.0095535640554819303 1 1 1 0.0098016831532402454 1 1 1 1 0.0095974768886912219 1 0.010072116147035523 1 1 1 1 0.009861916101706697 1 1 0.01000060527270406 1 1 1 1 1 1 1 1 1 1 1 1 1 1 1 1 1 1 1 1 1 1 1 1 1 1 1 1 0.0098714432239962579 1 1 1 0.009977730940378942 1 1 1 0.0094035512620462003 1 1 0.0093526149897838595 1 1 1 1 1 1 1 1 1 0.0099764126953035496 1 1 1 1 1 0.0094959522038200253 0.0096383302898679496 1 1 1 1 1 1 1 1 0.010010869058014129 1 1 1 1 1 1 1 1 1 1 1 1 1 1 1 1 1 0.009512729937273718 1 1 0.0095998529728121181 1 1 1 1 1 0.010029946532546978 1 1 1 1 1 1 1 1 0.0091751846233820936 1 1 1 0.0091761693412327327 0.010093724516336108 1 1 0.010176597507695886 1 1 1 1 1 1 1 1 0.0099927762961513344 1 1 1 1 1 1 0.0080625330081624865 1 1 1 1 1 0.010013882877093762 1 1 1 1 1 1 0.0080728885153096321 0.010006569963294038 1 1 0.0076508936360560938 1 1 0.010261549001091552 1 
</DataArray>
</CellData>
</Piece>
</UnstructuredGrid>
</VTKFile>
