<?xml version="1.0"?>
<VTKFile type="UnstructuredGrid" version="0.1" byte_order="LittleEndian">
<UnstructuredGrid>
<Piece NumberOfPoints="30972" NumberOfCells="10842">
<Points>
<DataArray type="Float64" NumberOfComponents="3" format="ascii">
-0.5 -0.5 0 -0.4656923782564602 -0.46714357305114512 0 -0.43179662995678308 -0.49219264151174769 0 -0.5 -0.5 0 -0.39077372265239102 -0.5 0 -0.43179662995678308 -0.49219264151174769 0 -0.5 -0.5 0 -0.4656923782564602 -0.46714357305114512 0 -0.47488359933155072 -0.46306371676810659 0 -0.5 -0.5 0 -0.47488359933155072 -0.46306371676810659 0 -0.49999999999999911 -0.46029921021984682 0 -0.43865985116486889 -0.47519983126815218 0 -0.4656923782564602 -0.46714357305114512 0 -0.43179662995678308 -0.49219264151174769 0 -0.43865985116486889 -0.47519983126815218 0 -0.44976719866310222 -0.46582822331636642 0 -0.4656923782564602 -0.46714357305114512 0 -0.44935010497525713 -0.45144061304350308 0 -0.45053224158810362 -0.42642549264287632 0 -0.42402515746288849 -0.44788725249385519 0 -0.44935010497525713 -0.45144061304350308 0 -0.44976719866310222 -0.46582822331636642 0 -0.43645930401940181 -0.45964568633721181 0 -0.44976719866310222 -0.46582822331636642 0 -0.42850439407505569 -0.46407200925224301 0 -0.44976719866310222 -0.46582822331636642 0 -0.42850439407505569 -0.46407200925224301 0 -0.43645930401940181 -0.45964568633721181 0 -0.44935010497525713 -0.45144061304350308 0 -0.46205389600505731 -0.45898406408225118 0 -0.47467505248762559 -0.45499397359315119 0 -0.44976719866310222 -0.46582822331636642 0 -0.46205389600505731 -0.45898406408225118 0 -0.47488359933155072 -0.46306371676810659 0 -0.44976719866310222 -0.46582822331636642 0 -0.4656923782564602 -0.46714357305114512 0 -0.47488359933155072 -0.46306371676810659 0 -0.44976719866310222 -0.46582822331636642 0 -0.47488359933155072 -0.46306371676810659 0 -0.44976719866310222 -0.46582822331636642 0 -0.4656923782564602 -0.46714357305114512 0 -0.44935010497525713 -0.45144061304350308 0 -0.47467505248762559 -0.45499397359315119 0 -0.44935010497525713 -0.45144061304350308 0 -0.44976719866310222 -0.46582822331636642 0 -0.46205389600505731 -0.45898406408225118 0 -0.44935010497525713 -0.45144061304350308 0 -0.47467505248762559 -0.45499397359315119 0 -0.47509574517783992 -0.42810502851887372 0 -0.47467505248762559 -0.45499397359315119 0 -0.5 -0.43825246372684862 0 -0.47509574517783992 -0.42810502851887372 0 -0.47488359933155072 -0.46306371676810659 0 -0.47467505248762559 -0.45499397359315119 0 -0.49999999999999439 -0.45854733414279841 0 -0.46205389600505731 -0.45898406408225118 0 -0.47488359933155072 -0.46306371676810659 0 -0.47467505248762559 -0.45499397359315119 0 -0.47488359933155072 -0.46306371676810659 0 -0.49999999999999911 -0.46029921021984682 0 -0.47488359933155072 -0.46306371676810659 0 -0.49999999999999439 -0.45854733414279841 0 -0.49999999999999911 -0.46029921021984682 0 -0.47467505248762559 -0.45499397359315119 0 -0.49999999999999439 -0.45854733414279841 0 -0.47467505248762559 -0.45499397359315119 0 -0.49999999999999439 -0.45854733414279841 0 -0.5 -0.43825246372684862 0 -0.48643549634406819 -0.40943322291718082 0 -0.47509574517783992 -0.42810502851887372 0 -0.47199362695718039 -0.39660445064681288 0 -0.5 -0.43825246372684862 0 -0.5 -0.41795759331089888 0 -0.47509574517783992 -0.42810502851887372 0 -0.5 -0.41795759331089888 0 -0.48643549634406819 -0.40943322291718082 0 -0.47509574517783992 -0.42810502851887372 0 -0.5 -0.41795759331089888 0 -0.48643549634406819 -0.40943322291718082 0 -0.49999999999999822 -0.39766272289494919 0 -0.49999999999999878 -0.38412199820164061 0 -0.48296735088199949 -0.38227215457928648 0 -0.48986959253786022 -0.36321827667384149 0 -0.49999999999999878 -0.38412199820164061 0 -0.49999999999999822 -0.39766272289494919 0 -0.48296735088199949 -0.38227215457928648 0 -0.48643549634406819 -0.40943322291718082 0 -0.49999999999999822 -0.39766272289494919 0 -0.47199362695718039 -0.39660445064681288 0 -0.49999999999999822 -0.39766272289494919 0 -0.47199362695718039 -0.39660445064681288 0 -0.49999999999999822 -0.39766272289494919 0 -0.47199362695718039 -0.39660445064681288 0 -0.48296735088199949 -0.38227215457928648 0 -0.47199362695718039 -0.39660445064681288 0 -0.48296735088199949 -0.38227215457928648 0 -0.46321688699365088 -0.38112005446674863 0 -0.48296735088199949 -0.38227215457928648 0 -0.46321688699365088 -0.38112005446674863 0 -0.47352554036796501 -0.36993574898521719 0 -0.47199362695718039 -0.39660445064681288 0 -0.46321688699365088 -0.38112005446674863 0 -0.44398725391436261 -0.39554617839867662 0 -0.47199362695718039 -0.39660445064681288 0 -0.44398725391436261 -0.39554617839867662 0 -0.47199362695718039 -0.39660445064681288 0 -0.44398725391436261 -0.39554617839867662 0 -0.45053224158810362 -0.42642549264287632 0 -0.46321688699365088 -0.38112005446674863 0 -0.44398725391436261 -0.39554617839867662 0 -0.44356625432934749 -0.37774813027686421 0 -0.47509574517783992 -0.42810502851887372 0 -0.47199362695718039 -0.39660445064681288 0 -0.45053224158810362 -0.42642549264287632 0 -0.44935010497525713 -0.45144061304350308 0 -0.47509574517783992 -0.42810502851887372 0 -0.45053224158810362 -0.42642549264287632 0 -0.44398725391436261 -0.39554617839867662 0 -0.45053224158810362 -0.42642549264287632 0 -0.4284178561414913 -0.41991993691217783 0 -0.45053224158810362 -0.42642549264287632 0 -0.4284178561414913 -0.41991993691217783 0 -0.42402515746288849 -0.44788725249385519 0 -0.4284178561414913 -0.41991993691217783 0 -0.41598088087154472 -0.3944879061505403 0 -0.40139991859235491 -0.41102035711232282 0 -0.4284178561414913 -0.41991993691217783 0 -0.41015707937411339 -0.42907007189623869 0 -0.40139991859235491 -0.41102035711232282 0 -0.4284178561414913 -0.41991993691217783 0 -0.41015707937411339 -0.42907007189623869 0 -0.42402515746288849 -0.44788725249385519 0 -0.44398725391436261 -0.39554617839867662 0 -0.44356625432934749 -0.37774813027686421 0 -0.42317389780165121 -0.3800376726098959 0 -0.44398725391436261 -0.39554617839867662 0 -0.42317389780165121 -0.3800376726098959 0 -0.41598088087154472 -0.3944879061505403 0 -0.44398725391436261 -0.39554617839867662 0 -0.41598088087154472 -0.3944879061505403 0 -0.44398725391436261 -0.39554617839867662 0 -0.4284178561414913 -0.41991993691217783 0 -0.41598088087154472 -0.3944879061505403 0 -0.42317389780165121 -0.3800376726098959 0 -0.40761490702247438 -0.38390181607978657 0 -0.40649974809747741 -0.36772259419188569 0 -0.42317389780165121 -0.3800376726098959 0 -0.41598088087154472 -0.3944879061505403 0 -0.40761490702247438 -0.38390181607978657 0 -0.42317389780165121 -0.3800376726098959 0 -0.40761490702247438 -0.38390181607978657 0 -0.41598088087154472 -0.3944879061505403 0 -0.40761490702247438 -0.38390181607978657 0 -0.39205591624329778 -0.3877659595496783 0 -0.39205591624329778 -0.3877659595496783 0 -0.40649974809747741 -0.36772259419188569 0 -0.39102284214959621 -0.37422759502820119 0 -0.39205591624329778 -0.3877659595496783 0 -0.40649974809747741 -0.36772259419188569 0 -0.40761490702247438 -0.38390181607978657 0 -0.39205591624329778 -0.3877659595496783 0 -0.40649974809747741 -0.36772259419188569 0 -0.40761490702247438 -0.38390181607978657 0 -0.39205591624329778 -0.3877659595496783 0 -0.41598088087154472 -0.3944879061505403 0 -0.39205591624329778 -0.3877659595496783 0 -0.38797450782872689 -0.39342963390240532 0 -0.41598088087154472 -0.3944879061505403 0 -0.38797450782872689 -0.39342963390240532 0 -0.40139991859235491 -0.41102035711232282 0 -0.41598088087154472 -0.3944879061505403 0 -0.38797450782872689 -0.39342963390240532 0 -0.37968344780272312 -0.40493494267242691 0 -0.38797450782872689 -0.39342963390240532 0 -0.40139991859235491 -0.41102035711232282 0 -0.37968344780272312 -0.40493494267242691 0 -0.38797450782872689 -0.39342963390240532 0 -0.37058365568509732 -0.39309868945467707 0 -0.39205591624329778 -0.3877659595496783 0 -0.38797450782872689 -0.39342963390240532 0 -0.37058365568509732 -0.39309868945467707 0 -0.38797450782872689 -0.39342963390240532 0 -0.37058365568509732 -0.39309868945467707 0 -0.37968344780272312 -0.40493494267242691 0 -0.38797450782872689 -0.39342963390240532 0 -0.38077490902030608 -0.38580170660475638 0 -0.38014804237086358 -0.37436813971595567 0 -0.37058365568509732 -0.39309868945467707 0 -0.38014804237086358 -0.37436813971595567 0 -0.37058365568509732 -0.39309868945467707 0 -0.39205591624329778 -0.3877659595496783 0 -0.37058365568509732 -0.39309868945467707 0 -0.39205591624329778 -0.3877659595496783 0 -0.38077490902030608 -0.38580170660475638 0 -0.37058365568509732 -0.39309868945467707 0 -0.39205591624329778 -0.3877659595496783 0 -0.38797450782872689 -0.39342963390240532 0 -0.39205591624329778 -0.3877659595496783 0 -0.38077490902030608 -0.38580170660475638 0 -0.39102284214959621 -0.37422759502820119 0 -0.38077490902030608 -0.38580170660475638 0 -0.39102284214959621 -0.37422759502820119 0 -0.38014804237086358 -0.37436813971595567 0 -0.41015707937411339 -0.42907007189623869 0 -0.38723460888519051 -0.42419360495579672 0 -0.39870020995051991 -0.44433389194420719 0 -0.41015707937411339 -0.42907007189623869 0 -0.40139991859235491 -0.41102035711232282 0 -0.38723460888519051 -0.42419360495579672 0 -0.37968344780272312 -0.40493494267242691 0 -0.38723460888519051 -0.42419360495579672 0 -0.35931698530543932 -0.41516293014979228 0 -0.37968344780272312 -0.40493494267242691 0 -0.40139991859235491 -0.41102035711232282 0 -0.38723460888519051 -0.42419360495579672 0 -0.38723460888519051 -0.42419360495579672 0 -0.39870020995051991 -0.44433389194420719 0 -0.37337526243815139 -0.44078053139455919 0 -0.37971676225351608 -0.4529634334142939 0 -0.39870020995051991 -0.44433389194420719 0 -0.37337526243815139 -0.44078053139455919 0 -0.39870020995051991 -0.44433389194420719 0 -0.37337526243815139 -0.44078053139455919 0 -0.37971676225351608 -0.4529634334142939 0 -0.39870020995051991 -0.44433389194420719 0 -0.38804485053532151 -0.46073022905112931 0 -0.39870020995051991 -0.44433389194420719 0 -0.38804485053532151 -0.46073022905112931 0 -0.40724158948700928 -0.46231579518811949 0 -0.38127074830315849 -0.46468918318305058 0 -0.40724158948700928 -0.46231579518811949 0 -0.38804485053532151 -0.46073022905112931 0 -0.38127074830315849 -0.46468918318305058 0 -0.40724158948700928 -0.46231579518811949 0 -0.38804485053532151 -0.46073022905112931 0 -0.40724158948700928 -0.46231579518811949 0 -0.38127074830315849 -0.46468918318305058 0 -0.39569981458329417 -0.47177930043561672 0 -0.40724158948700928 -0.46231579518811949 0 -0.37971676225351608 -0.4529634334142939 0 -0.38804485053532151 -0.46073022905112931 0 -0.38127074830315849 -0.46468918318305058 0 -0.37971676225351608 -0.4529634334142939 0 -0.38127074830315849 -0.46468918318305058 0 -0.36861387050571071 -0.45547274231786522 0 -0.38306306282912889 -0.48319951780185633 0 -0.39569981458329417 -0.47177930043561672 0 -0.36866612254339032 -0.47475483899524168 0 -0.38127074830315849 -0.46468918318305058 0 -0.39569981458329417 -0.47177930043561672 0 -0.36866612254339032 -0.47475483899524168 0 -0.39569981458329417 -0.47177930043561672 0 -0.36866612254339032 -0.47475483899524168 0 -0.38306306282912889 -0.48319951780185633 0 -0.37357405279752098 -0.48673035917827789 0 -0.36866612254339032 -0.47475483899524168 0 -0.38534619110644569 -0.49625766097799889 0 -0.39077372265239102 -0.5 0 -0.3741348568845082 -0.49723879900344709 0 -0.38534619110644569 -0.49625766097799889 0 -0.3741348568845082 -0.49723879900344709 0 -0.38306306282912889 -0.48319951780185633 0 -0.38534619110644569 -0.49625766097799889 0 -0.37357405279752098 -0.48673035917827789 0 -0.38306306282912889 -0.48319951780185633 0 -0.38534619110644569 -0.49625766097799889 0 -0.39371049363698007 -0.48650749406981092 0 -0.38534619110644569 -0.49625766097799889 0 -0.40296574342064567 -0.49471572025759752 0 -0.38534619110644569 -0.49625766097799889 0 -0.39371049363698007 -0.48650749406981092 0 -0.40296574342064567 -0.49471572025759752 0 -0.38534619110644569 -0.49625766097799889 0 -0.39077372265239102 -0.5 0 -0.40296574342064567 -0.49471572025759752 0 -0.40296574342064567 -0.49471572025759752 0 -0.40108272621159208 -0.48411221909830648 0 -0.40901553769031951 -0.48131311522945819 0 -0.39371049363698007 -0.48650749406981092 0 -0.40296574342064567 -0.49471572025759752 0 -0.40108272621159208 -0.48411221909830648 0 -0.39569981458329417 -0.47177930043561672 0 -0.41218378539668571 -0.4758534754353046 0 -0.40901553769031951 -0.48131311522945819 0 -0.39371049363698007 -0.48650749406981092 0 -0.39569981458329417 -0.47177930043561672 0 -0.40108272621159208 -0.48411221909830648 0 -0.38306306282912889 -0.48319951780185633 0 -0.39371049363698007 -0.48650749406981092 0 -0.39569981458329417 -0.47177930043561672 0 -0.39569981458329417 -0.47177930043561672 0 -0.40108272621159208 -0.48411221909830648 0 -0.40901553769031951 -0.48131311522945819 0 -0.39077372265239102 -0.5 0 -0.40296574342064567 -0.49471572025759752 0 -0.43179662995678308 -0.49219264151174769 0 -0.39569981458329417 -0.47177930043561672 0 -0.41218378539668571 -0.4758534754353046 0 -0.4227335066231982 -0.46880376187599171 0 -0.39569981458329417 -0.47177930043561672 0 -0.4227335066231982 -0.46880376187599171 0 -0.41218378539668571 -0.4758534754353046 0 -0.40901553769031951 -0.48131311522945819 0 -0.4212862826899309 -0.48151772420015182 0 -0.41218378539668571 -0.4758534754353046 0 -0.4212862826899309 -0.48151772420015182 0 -0.4227335066231982 -0.46880376187599171 0 -0.40296574342064567 -0.49471572025759752 0 -0.4212862826899309 -0.48151772420015182 0 -0.43179662995678308 -0.49219264151174769 0 -0.40296574342064567 -0.49471572025759752 0 -0.40901553769031951 -0.48131311522945819 0 -0.4212862826899309 -0.48151772420015182 0 -0.40296574342064567 -0.49471572025759752 0 -0.43179662995678308 -0.49219264151174769 0 -0.43865985116486889 -0.47519983126815218 0 -0.44976719866310222 -0.46582822331636642 0 -0.4227335066231982 -0.46880376187599171 0 -0.43865985116486889 -0.47519983126815218 0 -0.4212862826899309 -0.48151772420015182 0 -0.4227335066231982 -0.46880376187599171 0 -0.43865985116486889 -0.47519983126815218 0 -0.4212862826899309 -0.48151772420015182 0 -0.43179662995678308 -0.49219264151174769 0 -0.42850439407505569 -0.46407200925224301 0 -0.43645930401940181 -0.45964568633721181 0 -0.40724158948700928 -0.46231579518811949 0 -0.43645930401940181 -0.45964568633721181 0 -0.42402515746288849 -0.44788725249385519 0 -0.40724158948700928 -0.46231579518811949 0 -0.44976719866310222 -0.46582822331636642 0 -0.4227335066231982 -0.46880376187599171 0 -0.44976719866310222 -0.46582822331636642 0 -0.4227335066231982 -0.46880376187599171 0 -0.42850439407505569 -0.46407200925224301 0 -0.44935010497525713 -0.45144061304350308 0 -0.42402515746288849 -0.44788725249385519 0 -0.44935010497525713 -0.45144061304350308 0 -0.43645930401940181 -0.45964568633721181 0 -0.42402515746288849 -0.44788725249385519 0 -0.39870020995051991 -0.44433389194420719 0 -0.42402515746288849 -0.44788725249385519 0 -0.40724158948700928 -0.46231579518811949 0 -0.41015707937411339 -0.42907007189623869 0 -0.39870020995051991 -0.44433389194420719 0 -0.42402515746288849 -0.44788725249385519 0 -0.39870020995051991 -0.44433389194420719 0 -0.42402515746288849 -0.44788725249385519 0 -0.42850439407505569 -0.46407200925224301 0 -0.40724158948700928 -0.46231579518811949 0 -0.43645930401940181 -0.45964568633721181 0 -0.40724158948700928 -0.46231579518811949 0 -0.39569981458329417 -0.47177930043561672 0 -0.4227335066231982 -0.46880376187599171 0 -0.40724158948700928 -0.46231579518811949 0 -0.4227335066231982 -0.46880376187599171 0 -0.42850439407505569 -0.46407200925224301 0 -0.40724158948700928 -0.46231579518811949 0 -0.44931651271345041 -0.26336383704182709 0 -0.42397476907017401 -0.25353629667850253 0 -0.44974283407700649 -0.24306414261632861 0 -0.44931651271345041 -0.26336383704182709 0 -0.45679229400594179 -0.28286644411207712 0 -0.4326681241482403 -0.27421566583274593 0 -0.44931651271345041 -0.26336383704182709 0 -0.47465825635672682 -0.27319137740515148 0 -0.44931651271345041 -0.26336383704182709 0 -0.47465825635672682 -0.27319137740515148 0 -0.45679229400594179 -0.28286644411207712 0 -0.44931651271345041 -0.26336383704182709 0 -0.4732173901985986 -0.2449964777997132 0 -0.44974283407700649 -0.24306414261632861 0 -0.44931651271345041 -0.26336383704182709 0 -0.47465825635672682 -0.27319137740515148 0 -0.4732173901985986 -0.2449964777997132 0 -0.5 -0.25392509870510832 0 -0.47465825635672682 -0.27319137740515148 0 -0.4732173901985986 -0.2449964777997132 0 -0.47465825635672682 -0.27319137740515148 0 -0.50000000000000289 -0.2830189177684771 0 -0.5 -0.25392509870510832 0 -0.47465825635672682 -0.27319137740515148 0 -0.50000000000000289 -0.2830189177684771 0 -0.46934538538681908 -0.28788056515810673 0 -0.48595418912033589 -0.29282819239720881 0 -0.45997680206427222 -0.30263624671798928 0 -0.47465825635672682 -0.27319137740515148 0 -0.46934538538681908 -0.28788056515810673 0 -0.48595418912033589 -0.29282819239720881 0 -0.48595418912033589 -0.29282819239720881 0 -0.50000000000000289 -0.2830189177684771 0 -0.5 -0.30829468787676811 0 -0.47465825635672682 -0.27319137740515148 0 -0.48595418912033589 -0.29282819239720881 0 -0.50000000000000289 -0.2830189177684771 0 -0.48595418912033589 -0.29282819239720881 0 -0.5 -0.30829468787676811 0 -0.47916391783233148 -0.31156265172044773 0 -0.48595418912033589 -0.29282819239720881 0 -0.47916391783233148 -0.31156265172044773 0 -0.45997680206427222 -0.30263624671798928 0 -0.48595418912033589 -0.29282819239720881 0 -0.45997680206427222 -0.30263624671798928 0 -0.46934538538681908 -0.28788056515810673 0 -0.45997680206427222 -0.30263624671798928 0 -0.45679229400594179 -0.28286644411207712 0 -0.47465825635672682 -0.27319137740515148 0 -0.46934538538681908 -0.28788056515810673 0 -0.45679229400594179 -0.28286644411207712 0 -0.45679229400594179 -0.28286644411207712 0 -0.44040997839427848 -0.29300408824306279 0 -0.4326681241482403 -0.27421566583274593 0 -0.45997680206427222 -0.30263624671798928 0 -0.45679229400594179 -0.28286644411207712 0 -0.44040997839427848 -0.29300408824306279 0 -0.45997680206427222 -0.30263624671798928 0 -0.44832267714006868 -0.32022440938382202 0 -0.43399941500820838 -0.31244430103876991 0 -0.45997680206427222 -0.30263624671798928 0 -0.43399941500820838 -0.31244430103876991 0 -0.45997680206427222 -0.30263624671798928 0 -0.44040997839427848 -0.29300408824306279 0 -0.43399941500820838 -0.31244430103876991 0 -0.44832267714006868 -0.32022440938382202 0 -0.4353874118058354 -0.32763586347629992 0 -0.43399941500820838 -0.31244430103876991 0 -0.44832267714006868 -0.32022440938382202 0 -0.45077069004196368 -0.3332948711469913 0 -0.4353874118058354 -0.32763586347629992 0 -0.45077069004196368 -0.3332948711469913 0 -0.4436866212687603 -0.34704509491193358 0 -0.4353874118058354 -0.32763586347629992 0 -0.45077069004196368 -0.3332948711469913 0 -0.4619998298153119 -0.34517436114606048 0 -0.4436866212687603 -0.34704509491193358 0 -0.45077069004196368 -0.3332948711469913 0 -0.46445691017984259 -0.32639462681684028 0 -0.4619998298153119 -0.34517436114606048 0 -0.46445691017984259 -0.32639462681684028 0 -0.47973918507572272 -0.34231455514604198 0 -0.4619998298153119 -0.34517436114606048 0 -0.44832267714006868 -0.32022440938382202 0 -0.45077069004196368 -0.3332948711469913 0 -0.46445691017984259 -0.32639462681684028 0 -0.45997680206427222 -0.30263624671798928 0 -0.44832267714006868 -0.32022440938382202 0 -0.46445691017984259 -0.32639462681684028 0 -0.47916391783233148 -0.31156265172044773 0 -0.45997680206427222 -0.30263624671798928 0 -0.46445691017984259 -0.32639462681684028 0 -0.47916391783233148 -0.31156265172044773 0 -0.46445691017984259 -0.32639462681684028 0 -0.48504409331780501 -0.32601046964832969 0 -0.5 -0.30829468787676811 0 -0.48504409331780501 -0.32601046964832969 0 -0.5 -0.33357045798505902 0 -0.5 -0.30829468787676811 0 -0.47916391783233148 -0.31156265172044773 0 -0.48504409331780501 -0.32601046964832969 0 -0.48504409331780501 -0.32601046964832969 0 -0.5 -0.33357045798505902 0 -0.47973918507572272 -0.34231455514604198 0 -0.46445691017984259 -0.32639462681684028 0 -0.48504409331780501 -0.32601046964832969 0 -0.47973918507572272 -0.34231455514604198 0 -0.47973918507572272 -0.34231455514604198 0 -0.474074884019836 -0.35706903966680298 0 -0.48986959253786022 -0.36321827667384149 0 -0.47973918507572272 -0.34231455514604198 0 -0.474074884019836 -0.35706903966680298 0 -0.4619998298153119 -0.34517436114606048 0 -0.5 -0.33357045798505902 0 -0.47973918507572272 -0.34231455514604198 0 -0.5 -0.35884622809334987 0 -0.47973918507572272 -0.34231455514604198 0 -0.5 -0.35884622809334987 0 -0.48986959253786022 -0.36321827667384149 0 -0.47973918507572272 -0.34231455514604198 0 -0.48986959253786022 -0.36321827667384149 0 -0.49999999999999878 -0.38412199820164061 0 -0.48986959253786022 -0.36321827667384149 0 -0.49999999999999878 -0.38412199820164061 0 -0.5 -0.35884622809334987 0 -0.48986959253786022 -0.36321827667384149 0 -0.474074884019836 -0.35706903966680298 0 -0.48986959253786022 -0.36321827667384149 0 -0.47352554036796501 -0.36993574898521719 0 -0.48296735088199949 -0.38227215457928648 0 -0.48986959253786022 -0.36321827667384149 0 -0.47352554036796501 -0.36993574898521719 0 -0.46321688699365088 -0.38112005446674863 0 -0.47352554036796501 -0.36993574898521719 0 -0.45749898740647832 -0.36599921953940628 0 -0.46321688699365088 -0.38112005446674863 0 -0.44356625432934749 -0.37774813027686421 0 -0.45749898740647832 -0.36599921953940628 0 -0.474074884019836 -0.35706903966680298 0 -0.47352554036796501 -0.36993574898521719 0 -0.45749898740647832 -0.36599921953940628 0 -0.474074884019836 -0.35706903966680298 0 -0.45749898740647832 -0.36599921953940628 0 -0.4619998298153119 -0.34517436114606048 0 -0.45749898740647832 -0.36599921953940628 0 -0.4619998298153119 -0.34517436114606048 0 -0.4436866212687603 -0.34704509491193358 0 -0.45749898740647832 -0.36599921953940628 0 -0.4436866212687603 -0.34704509491193358 0 -0.43651809519982598 -0.36368229513731182 0 -0.44356625432934749 -0.37774813027686421 0 -0.45749898740647832 -0.36599921953940628 0 -0.43651809519982598 -0.36368229513731182 0 -0.42317389780165121 -0.3800376726098959 0 -0.43651809519982598 -0.36368229513731182 0 -0.4217838302626527 -0.36478044769329648 0 -0.44356625432934749 -0.37774813027686421 0 -0.42317389780165121 -0.3800376726098959 0 -0.43651809519982598 -0.36368229513731182 0 -0.43651809519982598 -0.36368229513731182 0 -0.42094357995165638 -0.34767922883409291 0 -0.4217838302626527 -0.36478044769329648 0 -0.4436866212687603 -0.34704509491193358 0 -0.43651809519982598 -0.36368229513731182 0 -0.42094357995165638 -0.34767922883409291 0 -0.42094357995165638 -0.34767922883409291 0 -0.40649974809747741 -0.36772259419188569 0 -0.42094357995165638 -0.34767922883409291 0 -0.4039855820110434 -0.35222663274364208 0 -0.39894998587307212 -0.33754709206040778 0 -0.42094357995165638 -0.34767922883409291 0 -0.40649974809747741 -0.36772259419188569 0 -0.4039855820110434 -0.35222663274364208 0 -0.42094357995165638 -0.34767922883409291 0 -0.40649974809747741 -0.36772259419188569 0 -0.4217838302626527 -0.36478044769329648 0 -0.42317389780165121 -0.3800376726098959 0 -0.40649974809747741 -0.36772259419188569 0 -0.4217838302626527 -0.36478044769329648 0 -0.40649974809747741 -0.36772259419188569 0 -0.39102284214959621 -0.37422759502820119 0 -0.38954901412196791 -0.35595761588818181 0 -0.38014804237086358 -0.37436813971595567 0 -0.38954901412196791 -0.35595761588818181 0 -0.39102284214959621 -0.37422759502820119 0 -0.38014804237086358 -0.37436813971595567 0 -0.38954901412196791 -0.35595761588818181 0 -0.38014804237086358 -0.37436813971595567 0 -0.38954901412196791 -0.35595761588818181 0 -0.37164753038444098 -0.35797121495657769 0 -0.38954901412196791 -0.35595761588818181 0 -0.39894998587307212 -0.33754709206040778 0 -0.38067162737967358 -0.33937454717217602 0 -0.38954901412196791 -0.35595761588818181 0 -0.38067162737967358 -0.33937454717217602 0 -0.37164753038444098 -0.35797121495657769 0 -0.40649974809747741 -0.36772259419188569 0 -0.38954901412196791 -0.35595761588818181 0 -0.4039855820110434 -0.35222663274364208 0 -0.38954901412196791 -0.35595761588818181 0 -0.4039855820110434 -0.35222663274364208 0 -0.39894998587307212 -0.33754709206040778 0 -0.38954901412196791 -0.35595761588818181 0 -0.39894998587307212 -0.33754709206040778 0 -0.38067162737967358 -0.33937454717217602 0 -0.39019949945474802 -0.32211521915647212 0 -0.37206967738156171 -0.323004225057405 0 -0.39894998587307212 -0.33754709206040778 0 -0.38067162737967358 -0.33937454717217602 0 -0.39019949945474802 -0.32211521915647212 0 -0.39019949945474802 -0.32211521915647212 0 -0.37786419201092292 -0.30432161963799192 0 -0.37206967738156171 -0.323004225057405 0 -0.39019949945474802 -0.32211521915647212 0 -0.40802202795214482 -0.32225235535955038 0 -0.40424065602874598 -0.30878878761144901 0 -0.39894998587307212 -0.33754709206040778 0 -0.39019949945474802 -0.32211521915647212 0 -0.40802202795214482 -0.32225235535955038 0 -0.40802202795214482 -0.32225235535955038 0 -0.43399941500820838 -0.31244430103876991 0 -0.41646881856614532 -0.31141430338547382 0 -0.40802202795214482 -0.32225235535955038 0 -0.42031638982050601 -0.33200125211040638 0 -0.43399941500820838 -0.31244430103876991 0 -0.40802202795214482 -0.32225235535955038 0 -0.41646881856614532 -0.31141430338547382 0 -0.40424065602874598 -0.30878878761144901 0 -0.40802202795214482 -0.32225235535955038 0 -0.43399941500820838 -0.31244430103876991 0 -0.39894998587307212 -0.33754709206040778 0 -0.40802202795214482 -0.32225235535955038 0 -0.42031638982050601 -0.33200125211040638 0 -0.42094357995165638 -0.34767922883409291 0 -0.39894998587307212 -0.33754709206040778 0 -0.42031638982050601 -0.33200125211040638 0 -0.42094357995165638 -0.34767922883409291 0 -0.42031638982050601 -0.33200125211040638 0 -0.4353874118058354 -0.32763586347629992 0 -0.4436866212687603 -0.34704509491193358 0 -0.42094357995165638 -0.34767922883409291 0 -0.4353874118058354 -0.32763586347629992 0 -0.42094357995165638 -0.34767922883409291 0 -0.4353874118058354 -0.32763586347629992 0 -0.42031638982050601 -0.33200125211040638 0 -0.4353874118058354 -0.32763586347629992 0 -0.43399941500820838 -0.31244430103876991 0 -0.44040997839427848 -0.29300408824306279 0 -0.43399941500820838 -0.31244430103876991 0 -0.41961317527548192 -0.30217176953212621 0 -0.43399941500820838 -0.31244430103876991 0 -0.41961317527548192 -0.30217176953212621 0 -0.41646881856614532 -0.31141430338547382 0 -0.44040997839427848 -0.29300408824306279 0 -0.41748350215914792 -0.28715654297321952 0 -0.4326681241482403 -0.27421566583274593 0 -0.44040997839427848 -0.29300408824306279 0 -0.41748350215914792 -0.28715654297321952 0 -0.41961317527548192 -0.30217176953212621 0 -0.44040997839427848 -0.29300408824306279 0 -0.41748350215914792 -0.28715654297321952 0 -0.41748350215914792 -0.28715654297321952 0 -0.41961317527548192 -0.30217176953212621 0 -0.40567921003298868 -0.29503644461832601 0 -0.41961317527548192 -0.30217176953212621 0 -0.40424065602874598 -0.30878878761144901 0 -0.40567921003298868 -0.29503644461832601 0 -0.41961317527548192 -0.30217176953212621 0 -0.41646881856614532 -0.31141430338547382 0 -0.40424065602874598 -0.30878878761144901 0 -0.40424065602874598 -0.30878878761144901 0 -0.37786419201092292 -0.30432161963799192 0 -0.40424065602874598 -0.30878878761144901 0 -0.37786419201092292 -0.30432161963799192 0 -0.39250169077755009 -0.29575612527145911 0 -0.39019949945474802 -0.32211521915647212 0 -0.40424065602874598 -0.30878878761144901 0 -0.37786419201092292 -0.30432161963799192 0 -0.40424065602874598 -0.30878878761144901 0 -0.39250169077755009 -0.29575612527145911 0 -0.40567921003298868 -0.29503644461832601 0 -0.37964120054615819 -0.28923929854994118 0 -0.39455702592401709 -0.28130899770337608 0 -0.3716305496888862 -0.2754614524335337 0 -0.37786419201092292 -0.30432161963799192 0 -0.37964120054615819 -0.28923929854994118 0 -0.39250169077755009 -0.29575612527145911 0 -0.37964120054615819 -0.28923929854994118 0 -0.39455702592401709 -0.28130899770337608 0 -0.39250169077755009 -0.29575612527145911 0 -0.41748350215914792 -0.28715654297321952 0 -0.39455702592401709 -0.28130899770337608 0 -0.40567921003298868 -0.29503644461832601 0 -0.41748350215914792 -0.28715654297321952 0 -0.39455702592401709 -0.28130899770337608 0 -0.39455702592401709 -0.28130899770337608 0 -0.39250169077755009 -0.29575612527145911 0 -0.40567921003298868 -0.29503644461832601 0 -0.39455702592401709 -0.28130899770337608 0 -0.38597450920953752 -0.25809088743320169 0 -0.40803168854644961 -0.26536678594778679 0 -0.39455702592401709 -0.28130899770337608 0 -0.38597450920953752 -0.25809088743320169 0 -0.3716305496888862 -0.2754614524335337 0 -0.38597450920953752 -0.25809088743320169 0 -0.3716305496888862 -0.2754614524335337 0 -0.39455702592401709 -0.28130899770337608 0 -0.3716305496888862 -0.2754614524335337 0 -0.38597450920953752 -0.25809088743320169 0 -0.36764123883450761 -0.25737832796895799 0 -0.37443718435660461 -0.2389812387045101 0 -0.38597450920953752 -0.25809088743320169 0 -0.36764123883450761 -0.25737832796895799 0 -0.3716305496888862 -0.2754614524335337 0 -0.38597450920953752 -0.25809088743320169 0 -0.40803168854644961 -0.26536678594778679 0 -0.39863302542689749 -0.24370875631517799 0 -0.40803168854644961 -0.26536678594778679 0 -0.42397476907017401 -0.25353629667850253 0 -0.39863302542689749 -0.24370875631517799 0 -0.40803168854644961 -0.26536678594778679 0 -0.4326681241482403 -0.27421566583274593 0 -0.42397476907017401 -0.25353629667850253 0 -0.41748350215914792 -0.28715654297321952 0 -0.39455702592401709 -0.28130899770337608 0 -0.40803168854644961 -0.26536678594778679 0 -0.41748350215914792 -0.28715654297321952 0 -0.40803168854644961 -0.26536678594778679 0 -0.4326681241482403 -0.27421566583274593 0 -0.44931651271345041 -0.26336383704182709 0 -0.42397476907017401 -0.25353629667850253 0 -0.44931651271345041 -0.26336383704182709 0 -0.4326681241482403 -0.27421566583274593 0 -0.42397476907017401 -0.25353629667850253 0 -0.32847411645108021 -0.25369701977162651 0 -0.311618892084079 -0.26015509305394652 0 -0.3165201609574339 -0.24265484446821489 0 -0.33950543886857149 -0.26726773622987998 0 -0.311618892084079 -0.26015509305394652 0 -0.33950543886857149 -0.26726773622987998 0 -0.32847411645108021 -0.25369701977162651 0 -0.311618892084079 -0.26015509305394652 0 -0.3203277945232596 -0.27118039855026049 0 -0.30980952195535921 -0.26976827165469142 0 -0.311618892084079 -0.26015509305394652 0 -0.31525366649823222 -0.27686320032085382 0 -0.3203277945232596 -0.27118039855026049 0 -0.30980952195535921 -0.26976827165469142 0 -0.3203277945232596 -0.27118039855026049 0 -0.33950543886857149 -0.26726773622987998 0 -0.311618892084079 -0.26015509305394652 0 -0.31602084973301181 -0.28039531344597518 0 -0.31525366649823222 -0.27686320032085382 0 -0.31163682371991142 -0.28233559815212123 0 -0.31525366649823222 -0.27686320032085382 0 -0.32000134762486721 -0.27884501277309609 0 -0.3203277945232596 -0.27118039855026049 0 -0.31602084973301181 -0.28039531344597518 0 -0.32000134762486721 -0.27884501277309609 0 -0.31719156108903651 -0.28353744253782998 0 -0.31602084973301181 -0.28039531344597518 0 -0.31525366649823222 -0.27686320032085382 0 -0.32000134762486721 -0.27884501277309609 0 -0.32000134762486721 -0.27884501277309609 0 -0.32726778685223479 -0.2776712262571045 0 -0.32314001737946701 -0.28382525242087309 0 -0.32000134762486721 -0.27884501277309609 0 -0.32726778685223479 -0.2776712262571045 0 -0.3203277945232596 -0.27118039855026049 0 -0.33950543886857149 -0.26726773622987998 0 -0.32741520504563448 -0.29373012488063588 0 -0.32726778685223479 -0.2776712262571045 0 -0.33950543886857149 -0.26726773622987998 0 -0.32741520504563448 -0.29373012488063588 0 -0.32726778685223479 -0.2776712262571045 0 -0.3203277945232596 -0.27118039855026049 0 -0.33950543886857149 -0.26726773622987998 0 -0.33950543886857149 -0.26726773622987998 0 -0.3418284310783295 -0.27883761619266778 0 -0.32741520504563448 -0.29373012488063588 0 -0.33950543886857149 -0.26726773622987998 0 -0.32847411645108021 -0.25369701977162651 0 -0.35059595663878029 -0.2429934669418396 0 -0.33950543886857149 -0.26726773622987998 0 -0.35556799427872943 -0.27136459433170479 0 -0.35059595663878029 -0.2429934669418396 0 -0.33950543886857149 -0.26726773622987998 0 -0.35059595663878029 -0.2429934669418396 0 -0.36764123883450761 -0.25737832796895799 0 -0.35556799427872943 -0.27136459433170479 0 -0.35059595663878029 -0.2429934669418396 0 -0.3716305496888862 -0.2754614524335337 0 -0.35556799427872943 -0.27136459433170479 0 -0.3716305496888862 -0.2754614524335337 0 -0.35556799427872943 -0.27136459433170479 0 -0.36155913884099322 -0.28765795204903499 0 -0.36764123883450761 -0.25737832796895799 0 -0.3716305496888862 -0.2754614524335337 0 -0.35556799427872943 -0.27136459433170479 0 -0.33950543886857149 -0.26726773622987998 0 -0.35556799427872943 -0.27136459433170479 0 -0.35556799427872943 -0.27136459433170479 0 -0.35002116330003402 -0.28213990510755849 0 -0.36155913884099322 -0.28765795204903499 0 -0.33950543886857149 -0.26726773622987998 0 -0.3418284310783295 -0.27883761619266778 0 -0.35556799427872943 -0.27136459433170479 0 -0.3418284310783295 -0.27883761619266778 0 -0.35556799427872943 -0.27136459433170479 0 -0.35002116330003402 -0.28213990510755849 0 -0.3418284310783295 -0.27883761619266778 0 -0.35002116330003402 -0.28213990510755849 0 -0.34018106902909628 -0.28705791682195109 0 -0.35002116330003402 -0.28213990510755849 0 -0.34861913178579529 -0.28823843621843431 0 -0.34018106902909628 -0.28705791682195109 0 -0.34861913178579529 -0.28823843621843431 0 -0.34378287066291641 -0.2922093747005281 0 -0.34018106902909628 -0.28705791682195109 0 -0.34378287066291641 -0.2922093747005281 0 -0.35033955223799218 -0.29425490757171913 0 -0.34554467053578503 -0.29884792418155459 0 -0.34861913178579529 -0.28823843621843431 0 -0.34378287066291641 -0.2922093747005281 0 -0.35033955223799218 -0.29425490757171913 0 -0.35033955223799218 -0.29425490757171913 0 -0.34554467053578503 -0.29884792418155459 0 -0.35033955223799218 -0.29425490757171913 0 -0.36155913884099322 -0.28765795204903499 0 -0.35148772799309957 -0.29985445166453578 0 -0.34861913178579529 -0.28823843621843431 0 -0.35033955223799218 -0.29425490757171913 0 -0.36155913884099322 -0.28765795204903499 0 -0.36155913884099322 -0.28765795204903499 0 -0.35148772799309957 -0.29985445166453578 0 -0.35002116330003402 -0.28213990510755849 0 -0.34861913178579529 -0.28823843621843431 0 -0.36155913884099322 -0.28765795204903499 0 -0.37786419201092292 -0.30432161963799192 0 -0.37964120054615819 -0.28923929854994118 0 -0.36155913884099322 -0.28765795204903499 0 -0.37964120054615819 -0.28923929854994118 0 -0.3716305496888862 -0.2754614524335337 0 -0.36155913884099322 -0.28765795204903499 0 -0.3716305496888862 -0.2754614524335337 0 -0.36155913884099322 -0.28765795204903499 0 -0.37786419201092292 -0.30432161963799192 0 -0.36449476787506851 -0.31161214756111377 0 -0.35148772799309957 -0.29985445166453578 0 -0.37786419201092292 -0.30432161963799192 0 -0.35148772799309957 -0.29985445166453578 0 -0.37786419201092292 -0.30432161963799192 0 -0.36155913884099322 -0.28765795204903499 0 -0.35148772799309957 -0.29985445166453578 0 -0.36449476787506851 -0.31161214756111377 0 -0.35507073957858898 -0.31241725375512758 0 -0.35148772799309957 -0.29985445166453578 0 -0.35507073957858898 -0.31241725375512758 0 -0.35148772799309957 -0.29985445166453578 0 -0.34624807352299569 -0.31707897070170732 0 -0.35148772799309957 -0.29985445166453578 0 -0.34554467053578503 -0.29884792418155459 0 -0.3352639181585656 -0.31950151932936588 0 -0.35148772799309957 -0.29985445166453578 0 -0.3352639181585656 -0.31950151932936588 0 -0.34624807352299569 -0.31707897070170732 0 -0.35148772799309957 -0.29985445166453578 0 -0.34554467053578503 -0.29884792418155459 0 -0.35033955223799218 -0.29425490757171913 0 -0.35148772799309957 -0.29985445166453578 0 -0.34554467053578503 -0.29884792418155459 0 -0.34554467053578503 -0.29884792418155459 0 -0.32599203405061988 -0.31757739233528709 0 -0.35148772799309957 -0.29985445166453578 0 -0.3352639181585656 -0.31950151932936588 0 -0.34554467053578503 -0.29884792418155459 0 -0.33204780967045372 -0.30432859615729452 0 -0.32599203405061988 -0.31757739233528709 0 -0.34554467053578503 -0.29884792418155459 0 -0.32599203405061988 -0.31757739233528709 0 -0.3352639181585656 -0.31950151932936588 0 -0.34554467053578503 -0.29884792418155459 0 -0.33204780967045372 -0.30432859615729452 0 -0.32110830220587222 -0.29470933449352121 0 -0.34554467053578503 -0.29884792418155459 0 -0.32741520504563448 -0.29373012488063588 0 -0.32110830220587222 -0.29470933449352121 0 -0.34378287066291641 -0.2922093747005281 0 -0.34554467053578503 -0.29884792418155459 0 -0.32741520504563448 -0.29373012488063588 0 -0.34378287066291641 -0.2922093747005281 0 -0.34018106902909628 -0.28705791682195109 0 -0.32741520504563448 -0.29373012488063588 0 -0.34554467053578503 -0.29884792418155459 0 -0.32110830220587222 -0.29470933449352121 0 -0.3418284310783295 -0.27883761619266778 0 -0.34018106902909628 -0.28705791682195109 0 -0.32741520504563448 -0.29373012488063588 0 -0.32726778685223479 -0.2776712262571045 0 -0.32741520504563448 -0.29373012488063588 0 -0.32314001737946701 -0.28382525242087309 0 -0.32741520504563448 -0.29373012488063588 0 -0.32110830220587222 -0.29470933449352121 0 -0.32103344234237369 -0.28894848295999659 0 -0.32741520504563448 -0.29373012488063588 0 -0.32103344234237369 -0.28894848295999659 0 -0.32314001737946701 -0.28382525242087309 0 -0.32103344234237369 -0.28894848295999659 0 -0.32314001737946701 -0.28382525242087309 0 -0.31719156108903651 -0.28353744253782998 0 -0.32000134762486721 -0.27884501277309609 0 -0.32314001737946701 -0.28382525242087309 0 -0.31719156108903651 -0.28353744253782998 0 -0.32103344234237369 -0.28894848295999659 0 -0.31719156108903651 -0.28353744253782998 0 -0.31631212599185871 -0.28894026046712279 0 -0.31631212599185871 -0.28894026046712279 0 -0.3132864305207323 -0.28595686755737137 0 -0.31237803783571622 -0.28999330738521639 0 -0.31719156108903651 -0.28353744253782998 0 -0.31631212599185871 -0.28894026046712279 0 -0.3132864305207323 -0.28595686755737137 0 -0.31602084973301181 -0.28039531344597518 0 -0.31719156108903651 -0.28353744253782998 0 -0.31163682371991142 -0.28233559815212123 0 -0.31719156108903651 -0.28353744253782998 0 -0.3132864305207323 -0.28595686755737137 0 -0.31163682371991142 -0.28233559815212123 0 -0.32110830220587222 -0.29470933449352121 0 -0.32103344234237369 -0.28894848295999659 0 -0.31631212599185871 -0.28894026046712279 0 -0.32110830220587222 -0.29470933449352121 0 -0.31631212599185871 -0.28894026046712279 0 -0.31454217924732258 -0.29481024641351361 0 -0.31631212599185871 -0.28894026046712279 0 -0.31454217924732258 -0.29481024641351361 0 -0.31237803783571622 -0.28999330738521639 0 -0.32110830220587222 -0.29470933449352121 0 -0.31547336973009421 -0.30401620152784781 0 -0.32263629028376739 -0.30518495586429251 0 -0.32110830220587222 -0.29470933449352121 0 -0.31454217924732258 -0.29481024641351361 0 -0.31547336973009421 -0.30401620152784781 0 -0.31547336973009421 -0.30401620152784781 0 -0.31981648972715399 -0.31134404477679939 0 -0.31033794446020191 -0.31991949744251968 0 -0.31454217924732258 -0.29481024641351361 0 -0.31547336973009421 -0.30401620152784781 0 -0.30823237218248323 -0.29557775589592478 0 -0.31547336973009421 -0.30401620152784781 0 -0.31981648972715399 -0.31134404477679939 0 -0.32263629028376739 -0.30518495586429251 0 -0.33204780967045372 -0.30432859615729452 0 -0.32263629028376739 -0.30518495586429251 0 -0.3246428101110867 -0.31002217671404958 0 -0.33204780967045372 -0.30432859615729452 0 -0.3246428101110867 -0.31002217671404958 0 -0.32599203405061988 -0.31757739233528709 0 -0.31981648972715399 -0.31134404477679939 0 -0.32263629028376739 -0.30518495586429251 0 -0.3246428101110867 -0.31002217671404958 0 -0.33204780967045372 -0.30432859615729452 0 -0.32110830220587222 -0.29470933449352121 0 -0.32263629028376739 -0.30518495586429251 0 -0.31981648972715399 -0.31134404477679939 0 -0.32599203405061988 -0.31757739233528709 0 -0.31033794446020191 -0.31991949744251968 0 -0.32599203405061988 -0.31757739233528709 0 -0.30643939756545552 -0.33630686048902048 0 -0.31033794446020191 -0.31991949744251968 0 -0.32599203405061988 -0.31757739233528709 0 -0.31904010832403129 -0.33914858699419559 0 -0.3352639181585656 -0.31950151932936588 0 -0.32599203405061988 -0.31757739233528709 0 -0.30643939756545552 -0.33630686048902048 0 -0.31981648972715399 -0.31134404477679939 0 -0.3246428101110867 -0.31002217671404958 0 -0.32599203405061988 -0.31757739233528709 0 -0.32599203405061988 -0.31757739233528709 0 -0.31904010832403129 -0.33914858699419559 0 -0.30643939756545552 -0.33630686048902048 0 -0.31904010832403129 -0.33914858699419559 0 -0.3352639181585656 -0.31950151932936588 0 -0.31904010832403129 -0.33914858699419559 0 -0.31873938166318228 -0.34991336617752178 0 -0.30643939756545552 -0.33630686048902048 0 -0.31904010832403129 -0.33914858699419559 0 -0.33411974512123149 -0.3324771208791768 0 -0.32855550656029409 -0.34283047345945272 0 -0.31904010832403129 -0.33914858699419559 0 -0.33411974512123149 -0.3324771208791768 0 -0.3352639181585656 -0.31950151932936588 0 -0.33411974512123149 -0.3324771208791768 0 -0.32855550656029409 -0.34283047345945272 0 -0.34008245038164908 -0.34000252202488102 0 -0.33411974512123149 -0.3324771208791768 0 -0.34008245038164908 -0.34000252202488102 0 -0.34560798705520712 -0.32807443509355633 0 -0.3352639181585656 -0.31950151932936588 0 -0.34624807352299569 -0.31707897070170732 0 -0.34560798705520712 -0.32807443509355633 0 -0.33411974512123149 -0.3324771208791768 0 -0.3352639181585656 -0.31950151932936588 0 -0.34560798705520712 -0.32807443509355633 0 -0.34624807352299569 -0.31707897070170732 0 -0.34560798705520712 -0.32807443509355633 0 -0.35702530168381669 -0.32146803802095758 0 -0.36449476787506851 -0.31161214756111377 0 -0.35507073957858898 -0.31241725375512758 0 -0.35702530168381669 -0.32146803802095758 0 -0.35507073957858898 -0.31241725375512758 0 -0.34624807352299569 -0.31707897070170732 0 -0.35702530168381669 -0.32146803802095758 0 -0.37786419201092292 -0.30432161963799192 0 -0.36449476787506851 -0.31161214756111377 0 -0.37206967738156171 -0.323004225057405 0 -0.35702530168381669 -0.32146803802095758 0 -0.37206967738156171 -0.323004225057405 0 -0.36113558864576539 -0.33947837172352291 0 -0.36449476787506851 -0.31161214756111377 0 -0.35702530168381669 -0.32146803802095758 0 -0.37206967738156171 -0.323004225057405 0 -0.38067162737967358 -0.33937454717217602 0 -0.37206967738156171 -0.323004225057405 0 -0.36113558864576539 -0.33947837172352291 0 -0.34560798705520712 -0.32807443509355633 0 -0.35702530168381669 -0.32146803802095758 0 -0.36113558864576539 -0.33947837172352291 0 -0.34008245038164908 -0.34000252202488102 0 -0.34560798705520712 -0.32807443509355633 0 -0.36113558864576539 -0.33947837172352291 0 -0.36113558864576539 -0.33947837172352291 0 -0.35439625030616922 -0.35980771141496443 0 -0.34008245038164908 -0.34000252202488102 0 -0.36113558864576539 -0.33947837172352291 0 -0.34253583682028699 -0.3533044859555996 0 -0.36113558864576539 -0.33947837172352291 0 -0.35439625030616922 -0.35980771141496443 0 -0.34253583682028699 -0.3533044859555996 0 -0.35439625030616922 -0.35980771141496443 0 -0.33762702278031742 -0.36418841540222879 0 -0.34253583682028699 -0.3533044859555996 0 -0.36113558864576539 -0.33947837172352291 0 -0.37164753038444098 -0.35797121495657769 0 -0.35439625030616922 -0.35980771141496443 0 -0.38067162737967358 -0.33937454717217602 0 -0.36113558864576539 -0.33947837172352291 0 -0.37164753038444098 -0.35797121495657769 0 -0.38014804237086358 -0.37436813971595567 0 -0.37164753038444098 -0.35797121495657769 0 -0.36118957927782253 -0.37232727251836312 0 -0.37164753038444098 -0.35797121495657769 0 -0.36118957927782253 -0.37232727251836312 0 -0.35439625030616922 -0.35980771141496443 0 -0.35439625030616922 -0.35980771141496443 0 -0.34765691196657289 -0.38013705110640589 0 -0.35439625030616922 -0.35980771141496443 0 -0.33762702278031742 -0.36418841540222879 0 -0.34765691196657289 -0.38013705110640589 0 -0.36118957927782253 -0.37232727251836312 0 -0.35439625030616922 -0.35980771141496443 0 -0.34765691196657289 -0.38013705110640589 0 -0.33007103011208377 -0.37478571175297543 0 -0.33762702278031742 -0.36418841540222879 0 -0.34765691196657289 -0.38013705110640589 0 -0.33762702278031742 -0.36418841540222879 0 -0.33079584731137651 -0.35261077122148832 0 -0.32080638456026489 -0.36413435641964681 0 -0.33007103011208377 -0.37478571175297543 0 -0.33762702278031742 -0.36418841540222879 0 -0.32080638456026489 -0.36413435641964681 0 -0.33762702278031742 -0.36418841540222879 0 -0.34253583682028699 -0.3533044859555996 0 -0.33079584731137651 -0.35261077122148832 0 -0.34008245038164908 -0.34000252202488102 0 -0.34253583682028699 -0.3533044859555996 0 -0.33079584731137651 -0.35261077122148832 0 -0.32855550656029409 -0.34283047345945272 0 -0.34008245038164908 -0.34000252202488102 0 -0.33079584731137651 -0.35261077122148832 0 -0.33079584731137651 -0.35261077122148832 0 -0.31873938166318228 -0.34991336617752178 0 -0.32080638456026489 -0.36413435641964681 0 -0.32855550656029409 -0.34283047345945272 0 -0.33079584731137651 -0.35261077122148832 0 -0.31873938166318228 -0.34991336617752178 0 -0.31904010832403129 -0.33914858699419559 0 -0.32855550656029409 -0.34283047345945272 0 -0.31873938166318228 -0.34991336617752178 0 -0.31873938166318228 -0.34991336617752178 0 -0.32080638456026489 -0.36413435641964681 0 -0.30570356223595879 -0.356339611485057 0 -0.32080638456026489 -0.36413435641964681 0 -0.30651277177938208 -0.36856750644284231 0 -0.31546247105234559 -0.37852390254038581 0 -0.33007103011208377 -0.37478571175297543 0 -0.32080638456026489 -0.36413435641964681 0 -0.31546247105234559 -0.37852390254038581 0 -0.30651277177938208 -0.36856750644284231 0 -0.30570356223595879 -0.356339611485057 0 -0.29672056234021038 -0.36592269710066799 0 -0.30651277177938208 -0.36856750644284231 0 -0.29672056234021038 -0.36592269710066799 0 -0.29710588804814853 -0.37867623553919227 0 -0.32080638456026489 -0.36413435641964681 0 -0.30651277177938208 -0.36856750644284231 0 -0.30570356223595879 -0.356339611485057 0 -0.31873938166318228 -0.34991336617752178 0 -0.30570356223595879 -0.356339611485057 0 -0.30643939756545552 -0.33630686048902048 0 -0.30570356223595879 -0.356339611485057 0 -0.28688676108029099 -0.35503632864275381 0 -0.30643939756545552 -0.33630686048902048 0 -0.28688676108029099 -0.35503632864275381 0 -0.30643939756545552 -0.33630686048902048 0 -0.30570356223595879 -0.356339611485057 0 -0.28688676108029099 -0.35503632864275381 0 -0.29672056234021038 -0.36592269710066799 0 -0.28688676108029099 -0.35503632864275381 0 -0.27677185894696082 -0.35177455933098029 0 -0.28997751440021652 -0.33950297379240091 0 -0.28688676108029099 -0.35503632864275381 0 -0.29672056234021038 -0.36592269710066799 0 -0.28739382855727141 -0.37099380339349453 0 -0.28688676108029099 -0.35503632864275381 0 -0.28739382855727141 -0.37099380339349453 0 -0.27700026691642282 -0.3732873398037001 0 -0.29672056234021038 -0.36592269710066799 0 -0.28739382855727141 -0.37099380339349453 0 -0.29710588804814853 -0.37867623553919227 0 -0.28688676108029099 -0.35503632864275381 0 -0.26820669038733591 -0.36458238973878188 0 -0.26733412459512662 -0.37376579679648708 0 -0.28688676108029099 -0.35503632864275381 0 -0.26733412459512662 -0.37376579679648708 0 -0.28688676108029099 -0.35503632864275381 0 -0.27700026691642282 -0.3732873398037001 0 -0.26733412459512662 -0.37376579679648708 0 -0.26820669038733591 -0.36458238973878188 0 -0.26733412459512662 -0.37376579679648708 0 -0.26458634119166569 -0.36946848545616701 0 -0.27700026691642282 -0.3732873398037001 0 -0.26733412459512662 -0.37376579679648708 0 -0.27189931286356639 -0.37638821473323603 0 -0.26733412459512662 -0.37376579679648708 0 -0.26294412357548957 -0.3716201384419861 0 -0.26458634119166569 -0.36946848545616701 0 -0.26733412459512662 -0.37376579679648708 0 -0.26294412357548957 -0.3716201384419861 0 -0.2644276864009461 -0.3761725021908145 0 -0.26820669038733591 -0.36458238973878188 0 -0.25986042620871092 -0.36790561684741291 0 -0.26458634119166569 -0.36946848545616701 0 -0.26294412357548957 -0.3716201384419861 0 -0.25663434928953388 -0.37245856678327838 0 -0.2644276864009461 -0.3761725021908145 0 -0.26294412357548957 -0.3716201384419861 0 -0.25986042620871092 -0.36790561684741291 0 -0.25663434928953388 -0.37245856678327838 0 -0.26294412357548957 -0.3716201384419861 0 -0.25986042620871092 -0.36790561684741291 0 -0.26458634119166569 -0.36946848545616701 0 -0.26820669038733591 -0.36458238973878188 0 -0.25986042620871092 -0.36790561684741291 0 -0.26136607069844497 -0.36289394840145861 0 -0.26136607069844497 -0.36289394840145861 0 -0.25129988172241152 -0.36202624914387271 0 -0.26609728447532172 -0.35706153787576722 0 -0.26820669038733591 -0.36458238973878188 0 -0.26136607069844497 -0.36289394840145861 0 -0.26609728447532172 -0.35706153787576722 0 -0.25986042620871092 -0.36790561684741291 0 -0.26136607069844497 -0.36289394840145861 0 -0.25129988172241152 -0.36202624914387271 0 -0.25986042620871092 -0.36790561684741291 0 -0.25129988172241152 -0.36202624914387271 0 -0.25281973194894081 -0.36989072027067538 0 -0.25281973194894081 -0.36989072027067538 0 -0.25663434928953388 -0.37245856678327838 0 -0.24311977831358031 -0.37670385616550278 0 -0.25986042620871092 -0.36790561684741291 0 -0.25281973194894081 -0.36989072027067538 0 -0.25663434928953388 -0.37245856678327838 0 -0.25129988172241152 -0.36202624914387271 0 -0.27269104439163899 -0.34268956660519773 0 -0.24770300688035971 -0.35248990327902557 0 -0.26315652546931578 -0.33553777910730659 0 -0.24770300688035971 -0.35248990327902557 0 -0.25129988172241152 -0.36202624914387271 0 -0.27269104439163899 -0.34268956660519773 0 -0.25129988172241152 -0.36202624914387271 0 -0.26609728447532172 -0.35706153787576722 0 -0.27269104439163899 -0.34268956660519773 0 -0.28688676108029099 -0.35503632864275381 0 -0.26820669038733591 -0.36458238973878188 0 -0.27677185894696082 -0.35177455933098029 0 -0.26609728447532172 -0.35706153787576722 0 -0.27677185894696082 -0.35177455933098029 0 -0.27269104439163899 -0.34268956660519773 0 -0.27677185894696082 -0.35177455933098029 0 -0.27269104439163899 -0.34268956660519773 0 -0.28997751440021652 -0.33950297379240091 0 -0.26820669038733591 -0.36458238973878188 0 -0.26609728447532172 -0.35706153787576722 0 -0.27677185894696082 -0.35177455933098029 0 -0.27269104439163899 -0.34268956660519773 0 -0.26315652546931578 -0.33553777910730659 0 -0.27861004405827178 -0.3185856549355876 0 -0.26315652546931578 -0.33553777910730659 0 -0.25253068005804957 -0.32698450917250949 0 -0.24770300688035971 -0.35248990327902557 0 -0.27269104439163899 -0.34268956660519773 0 -0.26315652546931578 -0.33553777910730659 0 -0.24770300688035971 -0.35248990327902557 0 -0.25253068005804957 -0.32698450917250949 0 -0.24770300688035971 -0.35248990327902557 0 -0.25253068005804957 -0.32698450917250949 0 -0.264134082673189 -0.31826781997659942 0 -0.25735835323573958 -0.30147911506599351 0 -0.25253068005804957 -0.32698450917250949 0 -0.25735835323573958 -0.30147911506599351 0 -0.24260914844155909 -0.31500426102389079 0 -0.25253068005804957 -0.32698450917250949 0 -0.25735835323573958 -0.30147911506599351 0 -0.26315652546931578 -0.33553777910730659 0 -0.25253068005804957 -0.32698450917250949 0 -0.264134082673189 -0.31826781997659942 0 -0.264134082673189 -0.31826781997659942 0 -0.27861004405827178 -0.3185856549355876 0 -0.27420405063856612 -0.30643050351536227 0 -0.26315652546931578 -0.33553777910730659 0 -0.27861004405827178 -0.3185856549355876 0 -0.26315652546931578 -0.33553777910730659 0 -0.264134082673189 -0.31826781997659942 0 -0.27861004405827178 -0.3185856549355876 0 -0.27861004405827178 -0.3185856549355876 0 -0.29408220706086657 -0.32335288406652268 0 -0.29406356264722783 -0.30163353076386851 0 -0.28688676108029099 -0.35503632864275381 0 -0.28997751440021652 -0.33950297379240091 0 -0.30643939756545552 -0.33630686048902048 0 -0.29408220706086657 -0.32335288406652268 0 -0.28997751440021652 -0.33950297379240091 0 -0.30111812721941122 -0.32893455800663107 0 -0.27269104439163899 -0.34268956660519773 0 -0.29408220706086657 -0.32335288406652268 0 -0.28997751440021652 -0.33950297379240091 0 -0.27269104439163899 -0.34268956660519773 0 -0.29408220706086657 -0.32335288406652268 0 -0.27269104439163899 -0.34268956660519773 0 -0.27861004405827178 -0.3185856549355876 0 -0.29408220706086657 -0.32335288406652268 0 -0.28997751440021652 -0.33950297379240091 0 -0.30111812721941122 -0.32893455800663107 0 -0.30643939756545552 -0.33630686048902048 0 -0.30111812721941122 -0.32893455800663107 0 -0.30643939756545552 -0.33630686048902048 0 -0.31033794446020191 -0.31991949744251968 0 -0.29408220706086657 -0.32335288406652268 0 -0.30111812721941122 -0.32893455800663107 0 -0.31033794446020191 -0.31991949744251968 0 -0.31547336973009421 -0.30401620152784781 0 -0.29408220706086657 -0.32335288406652268 0 -0.31547336973009421 -0.30401620152784781 0 -0.29408220706086657 -0.32335288406652268 0 -0.31033794446020191 -0.31991949744251968 0 -0.31547336973009421 -0.30401620152784781 0 -0.30823237218248323 -0.29557775589592478 0 -0.29406356264722783 -0.30163353076386851 0 -0.31547336973009421 -0.30401620152784781 0 -0.29408220706086657 -0.32335288406652268 0 -0.29406356264722783 -0.30163353076386851 0 -0.31237803783571622 -0.28999330738521639 0 -0.30823237218248323 -0.29557775589592478 0 -0.30951708123618388 -0.28468140659214941 0 -0.30951708123618388 -0.28468140659214941 0 -0.29611557652834902 -0.28798438341479471 0 -0.29406356264722783 -0.30163353076386851 0 -0.30823237218248323 -0.29557775589592478 0 -0.30951708123618388 -0.28468140659214941 0 -0.29406356264722783 -0.30163353076386851 0 -0.30951708123618388 -0.28468140659214941 0 -0.29406356264722783 -0.30163353076386851 0 -0.31454217924732258 -0.29481024641351361 0 -0.31237803783571622 -0.28999330738521639 0 -0.30823237218248323 -0.29557775589592478 0 -0.31163682371991142 -0.28233559815212123 0 -0.30951708123618388 -0.28468140659214941 0 -0.30372272003979051 -0.28296922220515902 0 -0.3132864305207323 -0.28595686755737137 0 -0.31163682371991142 -0.28233559815212123 0 -0.30951708123618388 -0.28468140659214941 0 -0.3132864305207323 -0.28595686755737137 0 -0.31237803783571622 -0.28999330738521639 0 -0.30951708123618388 -0.28468140659214941 0 -0.30372272003979051 -0.28296922220515902 0 -0.29611557652834902 -0.28798438341479471 0 -0.30040296538899602 -0.27689540923789152 0 -0.30951708123618388 -0.28468140659214941 0 -0.30372272003979051 -0.28296922220515902 0 -0.29611557652834902 -0.28798438341479471 0 -0.29611557652834902 -0.28798438341479471 0 -0.27685421057840209 -0.2921863968347625 0 -0.28238693410109889 -0.2772955892028412 0 -0.29611557652834902 -0.28798438341479471 0 -0.29406356264722783 -0.30163353076386851 0 -0.27685421057840209 -0.2921863968347625 0 -0.27861004405827178 -0.3185856549355876 0 -0.29406356264722783 -0.30163353076386851 0 -0.27420405063856612 -0.30643050351536227 0 -0.29406356264722783 -0.30163353076386851 0 -0.27420405063856612 -0.30643050351536227 0 -0.27685421057840209 -0.2921863968347625 0 -0.27861004405827178 -0.3185856549355876 0 -0.29406356264722783 -0.30163353076386851 0 -0.27420405063856612 -0.30643050351536227 0 -0.25735835323573958 -0.30147911506599351 0 -0.27685421057840209 -0.2921863968347625 0 -0.264134082673189 -0.31826781997659942 0 -0.27420405063856612 -0.30643050351536227 0 -0.25735835323573958 -0.30147911506599351 0 -0.25735835323573958 -0.30147911506599351 0 -0.27685421057840209 -0.2921863968347625 0 -0.26218602641342958 -0.27597372095947742 0 -0.25735835323573958 -0.30147911506599351 0 -0.26218602641342958 -0.27597372095947742 0 -0.25735835323573958 -0.30147911506599351 0 -0.26218602641342958 -0.27597372095947742 0 -0.240565729014138 -0.29477389795429298 0 -0.27685421057840209 -0.2921863968347625 0 -0.26218602641342958 -0.27597372095947742 0 -0.28238693410109889 -0.2772955892028412 0 -0.26218602641342958 -0.27597372095947742 0 -0.28324850172526761 -0.2602482642556479 0 -0.28238693410109889 -0.2772955892028412 0 -0.26218602641342958 -0.27597372095947742 0 -0.24827797024798609 -0.25545493364081862 0 -0.24119414992733251 -0.27395725060427578 0 -0.26218602641342958 -0.27597372095947742 0 -0.26701369959111959 -0.25046832685296128 0 -0.24827797024798609 -0.25545493364081862 0 -0.26218602641342958 -0.27597372095947742 0 -0.26701369959111959 -0.25046832685296128 0 -0.26701369959111959 -0.25046832685296128 0 -0.28324850172526761 -0.2602482642556479 0 -0.28510652308584211 -0.24408715454833749 0 -0.26218602641342958 -0.27597372095947742 0 -0.26701369959111959 -0.25046832685296128 0 -0.28324850172526761 -0.2602482642556479 0 -0.29837167340287668 -0.26321137635022929 0 -0.30193187422854639 -0.24947705084208491 0 -0.28510652308584211 -0.24408715454833749 0 -0.28324850172526761 -0.2602482642556479 0 -0.29837167340287668 -0.26321137635022929 0 -0.28510652308584211 -0.24408715454833749 0 -0.29837167340287668 -0.26321137635022929 0 -0.28510652308584211 -0.24408715454833749 0 -0.28324850172526761 -0.2602482642556479 0 -0.29210513022931772 -0.27312700449228089 0 -0.29837167340287668 -0.26321137635022929 0 -0.28324850172526761 -0.2602482642556479 0 -0.28238693410109889 -0.2772955892028412 0 -0.29210513022931772 -0.27312700449228089 0 -0.29611557652834902 -0.28798438341479471 0 -0.29210513022931772 -0.27312700449228089 0 -0.30040296538899602 -0.27689540923789152 0 -0.29611557652834902 -0.28798438341479471 0 -0.28238693410109889 -0.2772955892028412 0 -0.29210513022931772 -0.27312700449228089 0 -0.29210513022931772 -0.27312700449228089 0 -0.30040296538899602 -0.27689540923789152 0 -0.29837167340287668 -0.26321137635022929 0 -0.31163682371991142 -0.28233559815212123 0 -0.30040296538899602 -0.27689540923789152 0 -0.29837167340287668 -0.26321137635022929 0 -0.31163682371991142 -0.28233559815212123 0 -0.30980952195535921 -0.26976827165469142 0 -0.29837167340287668 -0.26321137635022929 0 -0.31163682371991142 -0.28233559815212123 0 -0.29837167340287668 -0.26321137635022929 0 -0.31163682371991142 -0.28233559815212123 0 -0.30372272003979051 -0.28296922220515902 0 -0.30040296538899602 -0.27689540923789152 0 -0.31525366649823222 -0.27686320032085382 0 -0.31163682371991142 -0.28233559815212123 0 -0.30980952195535921 -0.26976827165469142 0 -0.311618892084079 -0.26015509305394652 0 -0.30193187422854639 -0.24947705084208491 0 -0.3165201609574339 -0.24265484446821489 0 -0.30980952195535921 -0.26976827165469142 0 -0.311618892084079 -0.26015509305394652 0 -0.29837167340287668 -0.26321137635022929 0 -0.311618892084079 -0.26015509305394652 0 -0.29837167340287668 -0.26321137635022929 0 -0.30193187422854639 -0.24947705084208491 0 -0.33764644244916681 -0.45760173926219522 0 -0.32932906593545691 -0.46943595917291342 0 -0.35529990711930781 -0.46706257117798211 0 -0.32932906593545691 -0.46943595917291342 0 -0.35529990711930781 -0.46706257117798211 0 -0.33764644244916681 -0.45760173926219522 0 -0.32054911338324171 -0.4567760016132561 0 -0.32932906593545691 -0.46943595917291342 0 -0.33764644244916681 -0.45760173926219522 0 -0.32814420715405951 -0.44868262694222621 0 -0.32054911338324171 -0.4567760016132561 0 -0.33764644244916681 -0.45760173926219522 0 -0.34805031492578331 -0.43722717084490847 0 -0.33764644244916681 -0.45760173926219522 0 -0.33514404107295692 -0.4436076617665804 0 -0.34805031492578331 -0.43722717084490847 0 -0.33514404107295692 -0.4436076617665804 0 -0.34805031492578331 -0.43722717084490847 0 -0.3338334548891061 -0.43523239357757348 0 -0.33514404107295692 -0.4436076617665804 0 -0.32804578594666878 -0.43929437820599537 0 -0.3338334548891061 -0.43523239357757348 0 -0.33514404107295692 -0.4436076617665804 0 -0.32814420715405951 -0.44868262694222621 0 -0.32804578594666878 -0.43929437820599537 0 -0.33764644244916681 -0.45760173926219522 0 -0.33514404107295692 -0.4436076617665804 0 -0.32814420715405951 -0.44868262694222621 0 -0.32814420715405951 -0.44868262694222621 0 -0.3164652655650203 -0.44236489516629179 0 -0.32054911338324171 -0.4567760016132561 0 -0.3164652655650203 -0.44236489516629179 0 -0.32054911338324171 -0.4567760016132561 0 -0.30109672889312511 -0.453159076618662 0 -0.32814420715405951 -0.44868262694222621 0 -0.32804578594666878 -0.43929437820599537 0 -0.3164652655650203 -0.44236489516629179 0 -0.32054911338324171 -0.4567760016132561 0 -0.314038178978015 -0.46976493553682819 0 -0.32932906593545691 -0.46943595917291342 0 -0.33446372643346017 -0.48912545522388079 0 -0.34530397034837079 -0.5 0 -0.29076423389735012 -0.5 0 -0.314038178978015 -0.46976493553682819 0 -0.32570323196582218 -0.47839238024040098 0 -0.30905275797869258 -0.48590517371351588 0 -0.314038178978015 -0.46976493553682819 0 -0.32570323196582218 -0.47839238024040098 0 -0.32932906593545691 -0.46943595917291342 0 -0.32570323196582218 -0.47839238024040098 0 -0.33446372643346017 -0.48912545522388079 0 -0.30905275797869258 -0.48590517371351588 0 -0.33446372643346017 -0.48912545522388079 0 -0.30905275797869258 -0.48590517371351588 0 -0.32570323196582218 -0.47839238024040098 0 -0.33446372643346017 -0.48912545522388079 0 -0.34163243050348641 -0.47773037755486669 0 -0.32570323196582218 -0.47839238024040098 0 -0.34163243050348641 -0.47773037755486669 0 -0.32932906593545691 -0.46943595917291342 0 -0.34163243050348641 -0.47773037755486669 0 -0.32932906593545691 -0.46943595917291342 0 -0.35529990711930781 -0.46706257117798211 0 -0.34163243050348641 -0.47773037755486669 0 -0.35987469488822771 -0.49234573673424581 0 -0.36866612254339032 -0.47475483899524168 0 -0.34163243050348641 -0.47773037755486669 0 -0.36866612254339032 -0.47475483899524168 0 -0.34163243050348641 -0.47773037755486669 0 -0.36866612254339032 -0.47475483899524168 0 -0.35529990711930781 -0.46706257117798211 0 -0.39077372265239102 -0.5 0 -0.34530397034837079 -0.5 0 -0.3741348568845082 -0.49723879900344709 0 -0.33446372643346017 -0.48912545522388079 0 -0.34530397034837079 -0.5 0 -0.35987469488822771 -0.49234573673424581 0 -0.33446372643346017 -0.48912545522388079 0 -0.34163243050348641 -0.47773037755486669 0 -0.35987469488822771 -0.49234573673424581 0 -0.33446372643346017 -0.48912545522388079 0 -0.35987469488822771 -0.49234573673424581 0 -0.38534619110644569 -0.49625766097799889 0 -0.35987469488822771 -0.49234573673424581 0 -0.3741348568845082 -0.49723879900344709 0 -0.34530397034837079 -0.5 0 -0.35987469488822771 -0.49234573673424581 0 -0.3741348568845082 -0.49723879900344709 0 -0.34530397034837079 -0.5 0 -0.3741348568845082 -0.49723879900344709 0 -0.35987469488822771 -0.49234573673424581 0 -0.37357405279752098 -0.48673035917827789 0 -0.36866612254339032 -0.47475483899524168 0 -0.38534619110644569 -0.49625766097799889 0 -0.35987469488822771 -0.49234573673424581 0 -0.38534619110644569 -0.49625766097799889 0 -0.35987469488822771 -0.49234573673424581 0 -0.37357405279752098 -0.48673035917827789 0 -0.38127074830315849 -0.46468918318305058 0 -0.36866612254339032 -0.47475483899524168 0 -0.35529990711930781 -0.46706257117798211 0 -0.38127074830315849 -0.46468918318305058 0 -0.36861387050571071 -0.45547274231786522 0 -0.35529990711930781 -0.46706257117798211 0 -0.38127074830315849 -0.46468918318305058 0 -0.35529990711930781 -0.46706257117798211 0 -0.33764644244916681 -0.45760173926219522 0 -0.35529990711930781 -0.46706257117798211 0 -0.35421052450234758 -0.45195170658183742 0 -0.36861387050571071 -0.45547274231786522 0 -0.35529990711930781 -0.46706257117798211 0 -0.35421052450234758 -0.45195170658183742 0 -0.33764644244916681 -0.45760173926219522 0 -0.35421052450234758 -0.45195170658183742 0 -0.34805031492578331 -0.43722717084490847 0 -0.35421052450234758 -0.45195170658183742 0 -0.37337526243815139 -0.44078053139455919 0 -0.34805031492578331 -0.43722717084490847 0 -0.36861387050571071 -0.45547274231786522 0 -0.35421052450234758 -0.45195170658183742 0 -0.37337526243815139 -0.44078053139455919 0 -0.37337526243815139 -0.44078053139455919 0 -0.34805031492578331 -0.43722717084490847 0 -0.37971676225351608 -0.4529634334142939 0 -0.36861387050571071 -0.45547274231786522 0 -0.37337526243815139 -0.44078053139455919 0 -0.38723460888519051 -0.42419360495579672 0 -0.37337526243815139 -0.44078053139455919 0 -0.35931698530543932 -0.41516293014979228 0 -0.37337526243815139 -0.44078053139455919 0 -0.35931698530543932 -0.41516293014979228 0 -0.34805031492578331 -0.43722717084490847 0 -0.35931698530543932 -0.41516293014979228 0 -0.34602796595468988 -0.4129342985722132 0 -0.35575061465603808 -0.39678254012626429 0 -0.35931698530543932 -0.41516293014979228 0 -0.34602796595468988 -0.4129342985722132 0 -0.34434208017236823 -0.42408743552928241 0 -0.35931698530543932 -0.41516293014979228 0 -0.34434208017236823 -0.42408743552928241 0 -0.34805031492578331 -0.43722717084490847 0 -0.35931698530543932 -0.41516293014979228 0 -0.34805031492578331 -0.43722717084490847 0 -0.38014804237086358 -0.37436813971595567 0 -0.36972926369223169 -0.3806534679218625 0 -0.37058365568509732 -0.39309868945467707 0 -0.38014804237086358 -0.37436813971595567 0 -0.36118957927782253 -0.37232727251836312 0 -0.36972926369223169 -0.3806534679218625 0 -0.36118957927782253 -0.37232727251836312 0 -0.36972926369223169 -0.3806534679218625 0 -0.35886936897906091 -0.38498397527551709 0 -0.36972926369223169 -0.3806534679218625 0 -0.36565889768521531 -0.38849408191951967 0 -0.37058365568509732 -0.39309868945467707 0 -0.36972926369223169 -0.3806534679218625 0 -0.36565889768521531 -0.38849408191951967 0 -0.35886936897906091 -0.38498397527551709 0 -0.36565889768521531 -0.38849408191951967 0 -0.36114946501616019 -0.39138702547992488 0 -0.35886936897906091 -0.38498397527551709 0 -0.35931698530543932 -0.41516293014979228 0 -0.37058365568509732 -0.39309868945467707 0 -0.35575061465603808 -0.39678254012626429 0 -0.37968344780272312 -0.40493494267242691 0 -0.35931698530543932 -0.41516293014979228 0 -0.37058365568509732 -0.39309868945467707 0 -0.35931698530543932 -0.41516293014979228 0 -0.37058365568509732 -0.39309868945467707 0 -0.36114946501616019 -0.39138702547992488 0 -0.36779932011886468 -0.39266727737656443 0 -0.35575061465603808 -0.39678254012626429 0 -0.36779932011886468 -0.39266727737656443 0 -0.37058365568509732 -0.39309868945467707 0 -0.35575061465603808 -0.39678254012626429 0 -0.37058365568509732 -0.39309868945467707 0 -0.35575061465603808 -0.39678254012626429 0 -0.36565889768521531 -0.38849408191951967 0 -0.36114946501616019 -0.39138702547992488 0 -0.36779932011886468 -0.39266727737656443 0 -0.36565889768521531 -0.38849408191951967 0 -0.36779932011886468 -0.39266727737656443 0 -0.37058365568509732 -0.39309868945467707 0 -0.36779932011886468 -0.39266727737656443 0 -0.37058365568509732 -0.39309868945467707 0 -0.35575061465603808 -0.39678254012626429 0 -0.34765691196657289 -0.38013705110640589 0 -0.34091757362697778 -0.40046639079784779 0 -0.34602796595468988 -0.4129342985722132 0 -0.35575061465603808 -0.39678254012626429 0 -0.34091757362697778 -0.40046639079784779 0 -0.35575061465603808 -0.39678254012626429 0 -0.34091757362697778 -0.40046639079784779 0 -0.36114946501616019 -0.39138702547992488 0 -0.35575061465603808 -0.39678254012626429 0 -0.35886936897906091 -0.38498397527551709 0 -0.35575061465603808 -0.39678254012626429 0 -0.35886936897906091 -0.38498397527551709 0 -0.34765691196657289 -0.38013705110640589 0 -0.34765691196657289 -0.38013705110640589 0 -0.34091757362697778 -0.40046639079784779 0 -0.36118957927782253 -0.37232727251836312 0 -0.35886936897906091 -0.38498397527551709 0 -0.34765691196657289 -0.38013705110640589 0 -0.34765691196657289 -0.38013705110640589 0 -0.32880236020091841 -0.3869448332962101 0 -0.34091757362697778 -0.40046639079784779 0 -0.33007103011208377 -0.37478571175297543 0 -0.34765691196657289 -0.38013705110640589 0 -0.32880236020091841 -0.3869448332962101 0 -0.32880236020091841 -0.3869448332962101 0 -0.34091757362697778 -0.40046639079784779 0 -0.32330772770154548 -0.39592330086460248 0 -0.34091757362697778 -0.40046639079784779 0 -0.31669635260985129 -0.40648183706647112 0 -0.34091757362697778 -0.40046639079784779 0 -0.32330772770154548 -0.39592330086460248 0 -0.31669635260985129 -0.40648183706647112 0 -0.32330772770154548 -0.39592330086460248 0 -0.31669635260985129 -0.40648183706647112 0 -0.31187365468682171 -0.3961112795479888 0 -0.32330772770154548 -0.39592330086460248 0 -0.31785586657269299 -0.38939792419957259 0 -0.31187365468682171 -0.3961112795479888 0 -0.32880236020091841 -0.3869448332962101 0 -0.32330772770154548 -0.39592330086460248 0 -0.31785586657269299 -0.38939792419957259 0 -0.32880236020091841 -0.3869448332962101 0 -0.31785586657269299 -0.38939792419957259 0 -0.31546247105234559 -0.37852390254038581 0 -0.31785586657269299 -0.38939792419957259 0 -0.31546247105234559 -0.37852390254038581 0 -0.30640763455457909 -0.38761813705057302 0 -0.33007103011208377 -0.37478571175297543 0 -0.32880236020091841 -0.3869448332962101 0 -0.31546247105234559 -0.37852390254038581 0 -0.32804578594666878 -0.43929437820599537 0 -0.33448167978682269 -0.41988038450192139 0 -0.32804578594666878 -0.43929437820599537 0 -0.3338334548891061 -0.43523239357757348 0 -0.33448167978682269 -0.41988038450192139 0 -0.34434208017236823 -0.42408743552928241 0 -0.34805031492578331 -0.43722717084490847 0 -0.3338334548891061 -0.43523239357757348 0 -0.34805031492578331 -0.43722717084490847 0 -0.3338334548891061 -0.43523239357757348 0 -0.34434208017236823 -0.42408743552928241 0 -0.3338334548891061 -0.43523239357757348 0 -0.33448167978682269 -0.41988038450192139 0 -0.34602796595468988 -0.4129342985722132 0 -0.34434208017236823 -0.42408743552928241 0 -0.33448167978682269 -0.41988038450192139 0 -0.34091757362697778 -0.40046639079784779 0 -0.33448167978682269 -0.41988038450192139 0 -0.31669635260985129 -0.40648183706647112 0 -0.34602796595468988 -0.4129342985722132 0 -0.34091757362697778 -0.40046639079784779 0 -0.33448167978682269 -0.41988038450192139 0 -0.34091757362697778 -0.40046639079784779 0 -0.33448167978682269 -0.41988038450192139 0 -0.31669635260985129 -0.40648183706647112 0 -0.31985706428818261 -0.42580597969284412 0 -0.30539690575222261 -0.43023831029449222 0 -0.33448167978682269 -0.41988038450192139 0 -0.31669635260985129 -0.40648183706647112 0 -0.31985706428818261 -0.42580597969284412 0 -0.32804578594666878 -0.43929437820599537 0 -0.3164652655650203 -0.44236489516629179 0 -0.31985706428818261 -0.42580597969284412 0 -0.3164652655650203 -0.44236489516629179 0 -0.31985706428818261 -0.42580597969284412 0 -0.30539690575222261 -0.43023831029449222 0 -0.32804578594666878 -0.43929437820599537 0 -0.33448167978682269 -0.41988038450192139 0 -0.31985706428818261 -0.42580597969284412 0 -0.31669635260985129 -0.40648183706647112 0 -0.30539690575222261 -0.43023831029449222 0 -0.29247513159272448 -0.41249728333509278 0 -0.31669635260985129 -0.40648183706647112 0 -0.29247513159272448 -0.41249728333509278 0 -0.29247513159272448 -0.41249728333509278 0 -0.27284209246239899 -0.41737323454724218 0 -0.29247513159272448 -0.41249728333509278 0 -0.27020420779849391 -0.43130961455558853 0 -0.30539690575222261 -0.43023831029449222 0 -0.29247513159272448 -0.41249728333509278 0 -0.28874761695656542 -0.43709191004478448 0 -0.29247513159272448 -0.41249728333509278 0 -0.28874761695656542 -0.43709191004478448 0 -0.27020420779849391 -0.43130961455558853 0 -0.30651277177938208 -0.36856750644284231 0 -0.31546247105234559 -0.37852390254038581 0 -0.29710588804814853 -0.37867623553919227 0 -0.31546247105234559 -0.37852390254038581 0 -0.29710588804814853 -0.37867623553919227 0 -0.30640763455457909 -0.38761813705057302 0 -0.29710588804814853 -0.37867623553919227 0 -0.30640763455457909 -0.38761813705057302 0 -0.29742426409992961 -0.39428415330883299 0 -0.29247513159272448 -0.41249728333509278 0 -0.29742426409992961 -0.39428415330883299 0 -0.31187365468682171 -0.3961112795479888 0 -0.29247513159272448 -0.41249728333509278 0 -0.31187365468682171 -0.3961112795479888 0 -0.31669635260985129 -0.40648183706647112 0 -0.29247513159272448 -0.41249728333509278 0 -0.31187365468682171 -0.3961112795479888 0 -0.30640763455457909 -0.38761813705057302 0 -0.29742426409992961 -0.39428415330883299 0 -0.31187365468682171 -0.3961112795479888 0 -0.31785586657269299 -0.38939792419957259 0 -0.30640763455457909 -0.38761813705057302 0 -0.31187365468682171 -0.3961112795479888 0 -0.29247513159272448 -0.41249728333509278 0 -0.29742426409992961 -0.39428415330883299 0 -0.28719344017666593 -0.39863152837545562 0 -0.29247513159272448 -0.41249728333509278 0 -0.28719344017666593 -0.39863152837545562 0 -0.27755706171758637 -0.40411894928547692 0 -0.28719344017666593 -0.39863152837545562 0 -0.28009943059364539 -0.39272140088361779 0 -0.27755706171758637 -0.40411894928547692 0 -0.28719344017666593 -0.39863152837545562 0 -0.28841131287944338 -0.38953585506425781 0 -0.28009943059364539 -0.39272140088361779 0 -0.29742426409992961 -0.39428415330883299 0 -0.28719344017666593 -0.39863152837545562 0 -0.28841131287944338 -0.38953585506425781 0 -0.29710588804814853 -0.37867623553919227 0 -0.29742426409992961 -0.39428415330883299 0 -0.28841131287944338 -0.38953585506425781 0 -0.29710588804814853 -0.37867623553919227 0 -0.28841131287944338 -0.38953585506425781 0 -0.28260545436571372 -0.38140155621940031 0 -0.28841131287944338 -0.38953585506425781 0 -0.28260545436571372 -0.38140155621940031 0 -0.28009943059364539 -0.39272140088361779 0 -0.28739382855727141 -0.37099380339349453 0 -0.27700026691642282 -0.3732873398037001 0 -0.28260545436571372 -0.38140155621940031 0 -0.28739382855727141 -0.37099380339349453 0 -0.29710588804814853 -0.37867623553919227 0 -0.28260545436571372 -0.38140155621940031 0 -0.26733412459512662 -0.37376579679648708 0 -0.26913278438577087 -0.37932779573144471 0 -0.27189931286356639 -0.37638821473323603 0 -0.26733412459512662 -0.37376579679648708 0 -0.26913278438577087 -0.37932779573144471 0 -0.2644276864009461 -0.3761725021908145 0 -0.26913278438577087 -0.37932779573144471 0 -0.26580824432444577 -0.38158321433340892 0 -0.26774640211187262 -0.38500042421592812 0 -0.26913278438577087 -0.37932779573144471 0 -0.26580824432444577 -0.38158321433340892 0 -0.2644276864009461 -0.3761725021908145 0 -0.26913278438577087 -0.37932779573144471 0 -0.27494703930791858 -0.37916584774760159 0 -0.27409737800811929 -0.38542433225022688 0 -0.26913278438577087 -0.37932779573144471 0 -0.27189931286356639 -0.37638821473323603 0 -0.27494703930791858 -0.37916584774760159 0 -0.27700026691642282 -0.3732873398037001 0 -0.28260545436571372 -0.38140155621940031 0 -0.27494703930791858 -0.37916584774760159 0 -0.27700026691642282 -0.3732873398037001 0 -0.27189931286356639 -0.37638821473323603 0 -0.27494703930791858 -0.37916584774760159 0 -0.28260545436571372 -0.38140155621940031 0 -0.27494703930791858 -0.37916584774760159 0 -0.27409737800811929 -0.38542433225022688 0 -0.27409737800811929 -0.38542433225022688 0 -0.268513825439325 -0.39367612964084098 0 -0.28009943059364539 -0.39272140088361779 0 -0.28260545436571372 -0.38140155621940031 0 -0.27409737800811929 -0.38542433225022688 0 -0.28009943059364539 -0.39272140088361779 0 -0.26774640211187262 -0.38500042421592812 0 -0.268513825439325 -0.39367612964084098 0 -0.26192610439919373 -0.38583213519544779 0 -0.27409737800811929 -0.38542433225022688 0 -0.26774640211187262 -0.38500042421592812 0 -0.268513825439325 -0.39367612964084098 0 -0.26913278438577087 -0.37932779573144471 0 -0.27409737800811929 -0.38542433225022688 0 -0.26774640211187262 -0.38500042421592812 0 -0.268513825439325 -0.39367612964084098 0 -0.28009943059364539 -0.39272140088361779 0 -0.27755706171758637 -0.40411894928547692 0 -0.268513825439325 -0.39367612964084098 0 -0.27755706171758637 -0.40411894928547692 0 -0.26257145873531379 -0.40724166260602251 0 -0.25661643408579998 -0.39481139302580059 0 -0.26257145873531379 -0.40724166260602251 0 -0.23834789625766301 -0.40191449656852118 0 -0.268513825439325 -0.39367612964084098 0 -0.25661643408579998 -0.39481139302580059 0 -0.26257145873531379 -0.40724166260602251 0 -0.268513825439325 -0.39367612964084098 0 -0.25661643408579998 -0.39481139302580059 0 -0.26192610439919373 -0.38583213519544779 0 -0.25663434928953388 -0.37245856678327838 0 -0.2644276864009461 -0.3761725021908145 0 -0.24311977831358031 -0.37670385616550278 0 -0.2519220738839355 -0.38585802058224389 0 -0.2644276864009461 -0.3761725021908145 0 -0.24311977831358031 -0.37670385616550278 0 -0.2644276864009461 -0.3761725021908145 0 -0.24311977831358031 -0.37670385616550278 0 -0.26580824432444577 -0.38158321433340892 0 -0.26774640211187262 -0.38500042421592812 0 -0.26192610439919373 -0.38583213519544779 0 -0.25661643408579998 -0.39481139302580059 0 -0.26192610439919373 -0.38583213519544779 0 -0.2519220738839355 -0.38585802058224389 0 -0.26580824432444577 -0.38158321433340892 0 -0.26192610439919373 -0.38583213519544779 0 -0.2644276864009461 -0.3761725021908145 0 -0.26192610439919373 -0.38583213519544779 0 -0.2519220738839355 -0.38585802058224389 0 -0.2644276864009461 -0.3761725021908145 0 -0.29247513159272448 -0.41249728333509278 0 -0.27755706171758637 -0.40411894928547692 0 -0.27284209246239899 -0.41737323454724218 0 -0.29247513159272448 -0.41249728333509278 0 -0.27020420779849391 -0.43130961455558853 0 -0.27284209246239899 -0.41737323454724218 0 -0.27755706171758637 -0.40411894928547692 0 -0.27284209246239899 -0.41737323454724218 0 -0.26257145873531379 -0.40724166260602251 0 -0.27284209246239899 -0.41737323454724218 0 -0.25320905333207361 -0.42224918575939208 0 -0.26257145873531379 -0.40724166260602251 0 -0.25320905333207361 -0.42224918575939208 0 -0.23834789625766301 -0.40191449656852118 0 -0.27284209246239899 -0.41737323454724218 0 -0.26257145873531379 -0.40724166260602251 0 -0.25320905333207361 -0.42224918575939208 0 -0.27020420779849391 -0.43130961455558853 0 -0.25320905333207361 -0.42224918575939208 0 -0.24603497244118491 -0.43532695237943653 0 -0.27020420779849391 -0.43130961455558853 0 -0.27284209246239899 -0.41737323454724218 0 -0.25320905333207361 -0.42224918575939208 0 -0.27020420779849391 -0.43130961455558853 0 -0.24793328400426279 -0.45012194577608389 0 -0.29076423389735012 -0.5 0 -0.2413320614864905 -0.48316137101608569 0 -0.22075999741693711 -0.49483426866728109 0 -0.27020420779849391 -0.43130961455558853 0 -0.27456511074626111 -0.45825526542008638 0 -0.24793328400426279 -0.45012194577608389 0 -0.27020420779849391 -0.43130961455558853 0 -0.24793328400426279 -0.45012194577608389 0 -0.24603497244118491 -0.43532695237943653 0 -0.27456511074626111 -0.45825526542008638 0 -0.25582340876531362 -0.47691927435091558 0 -0.24793328400426279 -0.45012194577608389 0 -0.28874761695656542 -0.43709191004478448 0 -0.27020420779849391 -0.43130961455558853 0 -0.27456511074626111 -0.45825526542008638 0 -0.28874761695656542 -0.43709191004478448 0 -0.27456511074626111 -0.45825526542008638 0 -0.30109672889312511 -0.453159076618662 0 -0.27456511074626111 -0.45825526542008638 0 -0.30109672889312511 -0.453159076618662 0 -0.29377398093374768 -0.47424122098538479 0 -0.32054911338324171 -0.4567760016132561 0 -0.314038178978015 -0.46976493553682819 0 -0.30109672889312511 -0.453159076618662 0 -0.314038178978015 -0.46976493553682819 0 -0.30109672889312511 -0.453159076618662 0 -0.29377398093374768 -0.47424122098538479 0 -0.3164652655650203 -0.44236489516629179 0 -0.30539690575222261 -0.43023831029449222 0 -0.30109672889312511 -0.453159076618662 0 -0.30539690575222261 -0.43023831029449222 0 -0.28874761695656542 -0.43709191004478448 0 -0.30109672889312511 -0.453159076618662 0 -0.33446372643346017 -0.48912545522388079 0 -0.30905275797869258 -0.48590517371351588 0 -0.29076423389735012 -0.5 0 -0.30905275797869258 -0.48590517371351588 0 -0.29377398093374768 -0.47424122098538479 0 -0.29076423389735012 -0.5 0 -0.314038178978015 -0.46976493553682819 0 -0.30905275797869258 -0.48590517371351588 0 -0.29377398093374768 -0.47424122098538479 0 -0.27456511074626111 -0.45825526542008638 0 -0.29377398093374768 -0.47424122098538479 0 -0.27873168358566808 -0.47735394018909671 0 -0.29377398093374768 -0.47424122098538479 0 -0.29076423389735012 -0.5 0 -0.27873168358566808 -0.47735394018909671 0 -0.29076423389735012 -0.5 0 -0.25582340876531362 -0.47691927435091558 0 -0.2413320614864905 -0.48316137101608569 0 -0.29076423389735012 -0.5 0 -0.27873168358566808 -0.47735394018909671 0 -0.25582340876531362 -0.47691927435091558 0 -0.27456511074626111 -0.45825526542008638 0 -0.27873168358566808 -0.47735394018909671 0 -0.25582340876531362 -0.47691927435091558 0 -0.29076423389735012 -0.5 0 -0.22075999741693711 -0.49483426866728109 0 -0.21597272653835051 -0.5 0 -0.25582340876531362 -0.47691927435091558 0 -0.2421618843202723 -0.46982680551560768 0 -0.2413320614864905 -0.48316137101608569 0 -0.2421618843202723 -0.46982680551560768 0 -0.2413320614864905 -0.48316137101608569 0 -0.2256623602100323 -0.46893427699657991 0 -0.2256623602100323 -0.46893427699657991 0 -0.22075999741693711 -0.49483426866728109 0 -0.2256623602100323 -0.46893427699657991 0 -0.22075999741693711 -0.49483426866728109 0 -0.21612805640910171 -0.47698793847542592 0 -0.2413320614864905 -0.48316137101608569 0 -0.2256623602100323 -0.46893427699657991 0 -0.22075999741693711 -0.49483426866728109 0 -0.2256623602100323 -0.46893427699657991 0 -0.21612805640910171 -0.47698793847542592 0 -0.21938822312387421 -0.47090353931461298 0 -0.2256623602100323 -0.46893427699657991 0 -0.21612805640910171 -0.47698793847542592 0 -0.24793328400426279 -0.45012194577608389 0 -0.22961918720588831 -0.44802970698405969 0 -0.24603497244118491 -0.43532695237943653 0 -0.2256623602100323 -0.46893427699657991 0 -0.24793328400426279 -0.45012194577608389 0 -0.22961918720588831 -0.44802970698405969 0 -0.25582340876531362 -0.47691927435091558 0 -0.2421618843202723 -0.46982680551560768 0 -0.24793328400426279 -0.45012194577608389 0 -0.2421618843202723 -0.46982680551560768 0 -0.2256623602100323 -0.46893427699657991 0 -0.24793328400426279 -0.45012194577608389 0 -0.2256623602100323 -0.46893427699657991 0 -0.24793328400426279 -0.45012194577608389 0 -0.21938822312387421 -0.47090353931461298 0 -0.2256623602100323 -0.46893427699657991 0 -0.2137646871222991 -0.45164242409333472 0 -0.2256623602100323 -0.46893427699657991 0 -0.22961918720588831 -0.44802970698405969 0 -0.2137646871222991 -0.45164242409333472 0 -0.2256623602100323 -0.46893427699657991 0 -0.22961918720588831 -0.44802970698405969 0 -0.22961918720588831 -0.44802970698405969 0 -0.22171339315545521 -0.43995100384331698 0 -0.2137646871222991 -0.45164242409333472 0 -0.22961918720588831 -0.44802970698405969 0 -0.22171339315545521 -0.43995100384331698 0 -0.23357601420174781 -0.42712513697154009 0 -0.22961918720588831 -0.44802970698405969 0 -0.23357601420174781 -0.42712513697154009 0 -0.2137646871222991 -0.45164242409333472 0 -0.20332563995887601 -0.44423875098405458 0 -0.1973916137322467 -0.45393882194166152 0 -0.2137646871222991 -0.45164242409333472 0 -0.20814115112072379 -0.43238130887205628 0 -0.2137646871222991 -0.45164242409333472 0 -0.20332563995887601 -0.44423875098405458 0 -0.20814115112072379 -0.43238130887205628 0 -0.2137646871222991 -0.45164242409333472 0 -0.2098936840918898 -0.43300674732433431 0 -0.20814115112072379 -0.43238130887205628 0 -0.22171339315545521 -0.43995100384331698 0 -0.2137646871222991 -0.45164242409333472 0 -0.2098936840918898 -0.43300674732433431 0 -0.2137646871222991 -0.45164242409333472 0 -0.20420666171286281 -0.46713012453180619 0 -0.1973916137322467 -0.45393882194166152 0 -0.21938822312387421 -0.47090353931461298 0 -0.2137646871222991 -0.45164242409333472 0 -0.20420666171286281 -0.46713012453180619 0 -0.21938822312387421 -0.47090353931461298 0 -0.2137646871222991 -0.45164242409333472 0 -0.1973916137322467 -0.45393882194166152 0 -0.18438984416438431 -0.47522646828299409 0 -0.1835583032715265 -0.45096465920198081 0 -0.20420666171286281 -0.46713012453180619 0 -0.1973916137322467 -0.45393882194166152 0 -0.18438984416438431 -0.47522646828299409 0 -0.1973916137322467 -0.45393882194166152 0 -0.1835583032715265 -0.45096465920198081 0 -0.19510454616353171 -0.43443050455579779 0 -0.20332563995887601 -0.44423875098405458 0 -0.1973916137322467 -0.45393882194166152 0 -0.19510454616353171 -0.43443050455579779 0 -0.1835583032715265 -0.45096465920198081 0 -0.19510454616353171 -0.43443050455579779 0 -0.1835583032715265 -0.45096465920198081 0 -0.1861715028575199 -0.43583467027574568 0 -0.19510454616353171 -0.43443050455579779 0 -0.20420666171286281 -0.46713012453180619 0 -0.21597272653835051 -0.5 0 -0.18438984416438431 -0.47522646828299409 0 -0.20420666171286281 -0.46713012453180619 0 -0.21597272653835051 -0.5 0 -0.21612805640910171 -0.47698793847542592 0 -0.22075999741693711 -0.49483426866728109 0 -0.21597272653835051 -0.5 0 -0.21612805640910171 -0.47698793847542592 0 -0.21938822312387421 -0.47090353931461298 0 -0.20420666171286281 -0.46713012453180619 0 -0.21612805640910171 -0.47698793847542592 0 -0.21597272653835051 -0.5 0 -0.16048329391911989 -0.5 0 -0.18438984416438431 -0.47522646828299409 0 -0.16048329391911989 -0.5 0 -0.15872051805300799 -0.48653222743286478 0 -0.18438984416438431 -0.47522646828299409 0 -0.15872051805300799 -0.48653222743286478 0 -0.18438984416438431 -0.47522646828299409 0 -0.172083767652639 -0.46754888895694668 0 -0.15872051805300799 -0.48653222743286478 0 -0.172083767652639 -0.46754888895694668 0 -0.15872051805300799 -0.48653222743286478 0 -0.172083767652639 -0.46754888895694668 0 -0.15550292113352621 -0.46882293778577372 0 -0.18438984416438431 -0.47522646828299409 0 -0.172083767652639 -0.46754888895694668 0 -0.1835583032715265 -0.45096465920198081 0 -0.172083767652639 -0.46754888895694668 0 -0.17912763525507991 -0.45169177961634638 0 -0.1835583032715265 -0.45096465920198081 0 -0.172083767652639 -0.46754888895694668 0 -0.1835583032715265 -0.45096465920198081 0 -0.172083767652639 -0.46754888895694668 0 -0.17912763525507991 -0.45169177961634638 0 -0.17912763525507991 -0.45169177961634638 0 -0.1861715028575199 -0.43583467027574568 0 -0.16019917503423381 -0.43991720420593089 0 -0.1861715028575199 -0.43583467027574568 0 -0.17912763525507991 -0.45169177961634638 0 -0.16019917503423381 -0.43991720420593089 0 -0.1861715028575199 -0.43583467027574568 0 -0.17912763525507991 -0.45169177961634638 0 -0.1835583032715265 -0.45096465920198081 0 -0.1861715028575199 -0.43583467027574568 0 -0.16019917503423381 -0.43991720420593089 0 -0.1638928096886276 -0.45555703393313102 0 -0.15089075505252181 -0.45492227916971778 0 -0.17912763525507991 -0.45169177961634638 0 -0.16019917503423381 -0.43991720420593089 0 -0.1638928096886276 -0.45555703393313102 0 -0.172083767652639 -0.46754888895694668 0 -0.1638928096886276 -0.45555703393313102 0 -0.15550292113352621 -0.46882293778577372 0 -0.172083767652639 -0.46754888895694668 0 -0.17912763525507991 -0.45169177961634638 0 -0.1638928096886276 -0.45555703393313102 0 -0.1638928096886276 -0.45555703393313102 0 -0.15089075505252181 -0.45492227916971778 0 -0.15550292113352621 -0.46882293778577372 0 -0.15089075505252181 -0.45492227916971778 0 -0.14027129269772071 -0.46737028282102711 0 -0.15550292113352621 -0.46882293778577372 0 -0.15089075505252181 -0.45492227916971778 0 -0.13422684721094749 -0.44399973813611582 0 -0.14027129269772071 -0.46737028282102711 0 -0.16019917503423381 -0.43991720420593089 0 -0.15089075505252181 -0.45492227916971778 0 -0.13422684721094749 -0.44399973813611582 0 -0.16019917503423381 -0.43991720420593089 0 -0.13422684721094749 -0.44399973813611582 0 -0.13422684721094749 -0.44399973813611582 0 -0.12725453073383031 -0.46040420120067788 0 -0.1209715931291258 -0.44608330280195979 0 -0.13422684721094749 -0.44399973813611582 0 -0.1209715931291258 -0.44608330280195979 0 -0.13422684721094749 -0.44399973813611582 0 -0.12725453073383031 -0.46040420120067788 0 -0.14027129269772071 -0.46737028282102711 0 -0.12725453073383031 -0.46040420120067788 0 -0.14027129269772071 -0.46737028282102711 0 -0.12557641315546761 -0.47775406968757211 0 -0.13422684721094749 -0.44399973813611582 0 -0.14027129269772071 -0.46737028282102711 0 -0.14027129269772071 -0.46737028282102711 0 -0.12557641315546761 -0.47775406968757211 0 -0.13957639539165079 -0.48712909960974538 0 -0.16048329391911989 -0.5 0 -0.13957639539165079 -0.48712909960974538 0 -0.119318990882151 -0.5 0 -0.12557641315546761 -0.47775406968757211 0 -0.13957639539165079 -0.48712909960974538 0 -0.119318990882151 -0.5 0 -0.16048329391911989 -0.5 0 -0.15872051805300799 -0.48653222743286478 0 -0.13957639539165079 -0.48712909960974538 0 -0.15872051805300799 -0.48653222743286478 0 -0.15550292113352621 -0.46882293778577372 0 -0.14818710495301571 -0.47824031340684958 0 -0.15872051805300799 -0.48653222743286478 0 -0.13957639539165079 -0.48712909960974538 0 -0.14818710495301571 -0.47824031340684958 0 -0.14027129269772071 -0.46737028282102711 0 -0.13957639539165079 -0.48712909960974538 0 -0.14818710495301571 -0.47824031340684958 0 -0.14027129269772071 -0.46737028282102711 0 -0.15550292113352621 -0.46882293778577372 0 -0.14818710495301571 -0.47824031340684958 0 -0.14635924308058351 -0.39435851299033681 0 -0.1502800263237424 -0.40695321198566958 0 -0.1621729654345358 -0.39032044626008289 0 -0.14635924308058351 -0.39435851299033681 0 -0.13369692947340239 -0.40016576909178991 0 -0.1502800263237424 -0.40695321198566958 0 -0.13928705109065459 -0.37999462462380168 0 -0.15708068220054949 -0.37884940773775111 0 -0.1621729654345358 -0.39032044626008289 0 -0.14011060610960371 -0.37702294557959681 0 -0.15708068220054949 -0.37884940773775111 0 -0.14521968082413839 -0.37021657594269219 0 -0.14011060610960371 -0.37702294557959681 0 -0.13928705109065459 -0.37999462462380168 0 -0.15708068220054949 -0.37884940773775111 0 -0.14635924308058351 -0.39435851299033681 0 -0.13928705109065459 -0.37999462462380168 0 -0.1621729654345358 -0.39032044626008289 0 -0.13928705109065459 -0.37999462462380168 0 -0.1621729654345358 -0.39032044626008289 0 -0.13928705109065459 -0.37999462462380168 0 -0.15708068220054949 -0.37884940773775111 0 -0.13928705109065459 -0.37999462462380168 0 -0.13369692947340239 -0.40016576909178991 0 -0.13781369823175171 -0.37932986731501922 0 -0.1312159761628823 -0.38885093340404592 0 -0.117090005787617 -0.37984665274065649 0 -0.13928705109065459 -0.37999462462380168 0 -0.1312159761628823 -0.38885093340404592 0 -0.13369692947340239 -0.40016576909178991 0 -0.13781369823175171 -0.37932986731501922 0 -0.117090005787617 -0.37984665274065649 0 -0.13781369823175171 -0.37932986731501922 0 -0.13928705109065459 -0.37999462462380168 0 -0.1312159761628823 -0.38885093340404592 0 -0.14011060610960371 -0.37702294557959681 0 -0.13781369823175171 -0.37932986731501922 0 -0.13928705109065459 -0.37999462462380168 0 -0.14011060610960371 -0.37702294557959681 0 -0.13928705109065459 -0.37999462462380168 0 -0.13781369823175171 -0.37932986731501922 0 -0.13928705109065459 -0.37999462462380168 0 -0.1312159761628823 -0.38885093340404592 0 -0.12712275605433601 -0.39520900375222628 0 -0.11968314310199001 -0.38776723715545369 0 -0.14635924308058351 -0.39435851299033681 0 -0.13928705109065459 -0.37999462462380168 0 -0.13369692947340239 -0.40016576909178991 0 -0.1312159761628823 -0.38885093340404592 0 -0.12712275605433601 -0.39520900375222628 0 -0.13369692947340239 -0.40016576909178991 0 -0.12712275605433601 -0.39520900375222628 0 -0.13369692947340239 -0.40016576909178991 0 -0.1238949754790693 -0.40405207535761578 0 -0.1281068078561492 -0.42033691355977781 0 -0.1238949754790693 -0.40405207535761578 0 -0.13369692947340239 -0.40016576909178991 0 -0.1281068078561492 -0.42033691355977781 0 -0.1502800263237424 -0.40695321198566958 0 -0.13369692947340239 -0.40016576909178991 0 -0.1281068078561492 -0.42033691355977781 0 -0.1238949754790693 -0.40405207535761578 0 -0.13369692947340239 -0.40016576909178991 0 -0.1281068078561492 -0.42033691355977781 0 -0.13422684721094749 -0.44399973813611582 0 -0.1281068078561492 -0.42033691355977781 0 -0.14644636230664851 -0.42569384071416078 0 -0.13422684721094749 -0.44399973813611582 0 -0.1281068078561492 -0.42033691355977781 0 -0.1209715931291258 -0.44608330280195979 0 -0.13422684721094749 -0.44399973813611582 0 -0.1281068078561492 -0.42033691355977781 0 -0.16019917503423381 -0.43991720420593089 0 -0.13422684721094749 -0.44399973813611582 0 -0.14644636230664851 -0.42569384071416078 0 -0.16019917503423381 -0.43991720420593089 0 -0.14644636230664851 -0.42569384071416078 0 -0.15941895510816889 -0.41726213568330739 0 -0.14644636230664851 -0.42569384071416078 0 -0.1502800263237424 -0.40695321198566958 0 -0.15941895510816889 -0.41726213568330739 0 -0.1281068078561492 -0.42033691355977781 0 -0.14644636230664851 -0.42569384071416078 0 -0.1502800263237424 -0.40695321198566958 0 -0.1502800263237424 -0.40695321198566958 0 -0.15941895510816889 -0.41726213568330739 0 -0.16997764942778981 -0.40790152465411578 0 -0.15941895510816889 -0.41726213568330739 0 -0.16997764942778981 -0.40790152465411578 0 -0.1750360514602439 -0.42209236474722461 0 -0.16019917503423381 -0.43991720420593089 0 -0.15941895510816889 -0.41726213568330739 0 -0.1750360514602439 -0.42209236474722461 0 -0.1750360514602439 -0.42209236474722461 0 -0.1861715028575199 -0.43583467027574568 0 -0.19310397731671519 -0.42022832846116248 0 -0.16019917503423381 -0.43991720420593089 0 -0.1750360514602439 -0.42209236474722461 0 -0.1861715028575199 -0.43583467027574568 0 -0.1750360514602439 -0.42209236474722461 0 -0.1813450490170363 -0.41141032520308668 0 -0.19310397731671519 -0.42022832846116248 0 -0.16997764942778981 -0.40790152465411578 0 -0.1750360514602439 -0.42209236474722461 0 -0.1813450490170363 -0.41141032520308668 0 -0.17758944877765381 -0.39727615949345868 0 -0.1893281580467325 -0.39502089325523421 0 -0.19300593212077161 -0.40423187272683531 0 -0.17758944877765381 -0.39727615949345868 0 -0.19300593212077161 -0.40423187272683531 0 -0.1813450490170363 -0.41141032520308668 0 -0.17758944877765381 -0.39727615949345868 0 -0.19300593212077161 -0.40423187272683531 0 -0.17758944877765381 -0.39727615949345868 0 -0.18355628587205131 -0.38778499855771131 0 -0.1893281580467325 -0.39502089325523421 0 -0.16997764942778981 -0.40790152465411578 0 -0.1813450490170363 -0.41141032520308668 0 -0.17758944877765381 -0.39727615949345868 0 -0.1502800263237424 -0.40695321198566958 0 -0.16997764942778981 -0.40790152465411578 0 -0.1621729654345358 -0.39032044626008289 0 -0.16997764942778981 -0.40790152465411578 0 -0.17758944877765381 -0.39727615949345868 0 -0.1621729654345358 -0.39032044626008289 0 -0.16997764942778981 -0.40790152465411578 0 -0.1621729654345358 -0.39032044626008289 0 -0.17758944877765381 -0.39727615949345868 0 -0.1621729654345358 -0.39032044626008289 0 -0.17279079216484389 -0.38627986657569241 0 -0.17758944877765381 -0.39727615949345868 0 -0.1621729654345358 -0.39032044626008289 0 -0.15708068220054949 -0.37884940773775111 0 -0.17279079216484389 -0.38627986657569241 0 -0.18458746861158801 -0.37816347272102208 0 -0.15708068220054949 -0.37884940773775111 0 -0.1621729654345358 -0.39032044626008289 0 -0.17279079216484389 -0.38627986657569241 0 -0.15708068220054949 -0.37884940773775111 0 -0.18458746861158801 -0.37816347272102208 0 -0.15708068220054949 -0.37884940773775111 0 -0.1621729654345358 -0.39032044626008289 0 -0.17758944877765381 -0.39727615949345868 0 -0.17279079216484389 -0.38627986657569241 0 -0.18355628587205131 -0.38778499855771131 0 -0.17279079216484389 -0.38627986657569241 0 -0.18355628587205131 -0.38778499855771131 0 -0.18458746861158801 -0.37816347272102208 0 -0.18355628587205131 -0.38778499855771131 0 -0.18458746861158801 -0.37816347272102208 0 -0.19348556175943851 -0.38218460074314908 0 -0.18458746861158801 -0.37816347272102208 0 -0.19348556175943851 -0.38218460074314908 0 -0.21209425502262641 -0.37747753770429288 0 -0.19348556175943851 -0.38218460074314908 0 -0.20003645177590951 -0.40462198664657878 0 -0.21209425502262641 -0.37747753770429288 0 -0.18458746861158801 -0.37816347272102208 0 -0.21209425502262641 -0.37747753770429288 0 -0.18355628587205131 -0.38778499855771131 0 -0.19348556175943851 -0.38218460074314908 0 -0.1893281580467325 -0.39502089325523421 0 -0.19348556175943851 -0.38218460074314908 0 -0.1893281580467325 -0.39502089325523421 0 -0.20003645177590951 -0.40462198664657878 0 -0.19348556175943851 -0.38218460074314908 0 -0.20003645177590951 -0.40462198664657878 0 -0.1893281580467325 -0.39502089325523421 0 -0.19300593212077161 -0.40423187272683531 0 -0.20003645177590951 -0.40462198664657878 0 -0.20003645177590951 -0.40462198664657878 0 -0.21776290556495501 -0.40198386179276901 0 -0.21919623784771791 -0.38762839766593699 0 -0.20003645177590951 -0.40462198664657878 0 -0.21209425502262641 -0.37747753770429288 0 -0.20003645177590951 -0.40462198664657878 0 -0.21209425502262641 -0.37747753770429288 0 -0.21919623784771791 -0.38762839766593699 0 -0.21209425502262641 -0.37747753770429288 0 -0.22578344531487499 -0.37713617121996929 0 -0.21439476535257179 -0.37229864367902321 0 -0.19510454616353171 -0.43443050455579779 0 -0.20814115112072379 -0.43238130887205628 0 -0.20332563995887601 -0.44423875098405458 0 -0.19510454616353171 -0.43443050455579779 0 -0.20814115112072379 -0.43238130887205628 0 -0.1861715028575199 -0.43583467027574568 0 -0.19510454616353171 -0.43443050455579779 0 -0.19310397731671519 -0.42022832846116248 0 -0.1861715028575199 -0.43583467027574568 0 -0.19510454616353171 -0.43443050455579779 0 -0.1861715028575199 -0.43583467027574568 0 -0.19310397731671519 -0.42022832846116248 0 -0.19510454616353171 -0.43443050455579779 0 -0.19310397731671519 -0.42022832846116248 0 -0.20471952019005549 -0.42066191602352931 0 -0.19510454616353171 -0.43443050455579779 0 -0.20471952019005549 -0.42066191602352931 0 -0.20814115112072379 -0.43238130887205628 0 -0.19510454616353171 -0.43443050455579779 0 -0.20471952019005549 -0.42066191602352931 0 -0.19300593212077161 -0.40423187272683531 0 -0.20003645177590951 -0.40462198664657878 0 -0.19310397731671519 -0.42022832846116248 0 -0.20003645177590951 -0.40462198664657878 0 -0.19310397731671519 -0.42022832846116248 0 -0.20471952019005549 -0.42066191602352931 0 -0.20003645177590951 -0.40462198664657878 0 -0.20471952019005549 -0.42066191602352931 0 -0.1813450490170363 -0.41141032520308668 0 -0.19300593212077161 -0.40423187272683531 0 -0.19310397731671519 -0.42022832846116248 0 -0.20003645177590951 -0.40462198664657878 0 -0.19310397731671519 -0.42022832846116248 0 -0.21776290556495501 -0.40198386179276901 0 -0.20471952019005549 -0.42066191602352931 0 -0.20003645177590951 -0.40462198664657878 0 -0.21776290556495501 -0.40198386179276901 0 -0.20471952019005549 -0.42066191602352931 0 -0.21776290556495501 -0.40198386179276901 0 -0.20471952019005549 -0.42066191602352931 0 -0.22014407368494471 -0.41692323283832089 0 -0.20471952019005549 -0.42066191602352931 0 -0.21145020904508899 -0.42527127987859747 0 -0.22014407368494471 -0.41692323283832089 0 -0.20471952019005549 -0.42066191602352931 0 -0.21145020904508899 -0.42527127987859747 0 -0.20814115112072379 -0.43238130887205628 0 -0.20471952019005549 -0.42066191602352931 0 -0.20814115112072379 -0.43238130887205628 0 -0.21145020904508899 -0.42527127987859747 0 -0.21799846006375431 -0.42443078195748318 0 -0.22014407368494471 -0.41692323283832089 0 -0.21145020904508899 -0.42527127987859747 0 -0.21799846006375431 -0.42443078195748318 0 -0.21494180417253711 -0.4317530246040297 0 -0.21494180417253711 -0.4317530246040297 0 -0.2098936840918898 -0.43300674732433431 0 -0.20814115112072379 -0.43238130887205628 0 -0.21494180417253711 -0.4317530246040297 0 -0.2098936840918898 -0.43300674732433431 0 -0.21145020904508899 -0.42527127987859747 0 -0.21494180417253711 -0.4317530246040297 0 -0.20814115112072379 -0.43238130887205628 0 -0.21494180417253711 -0.4317530246040297 0 -0.20814115112072379 -0.43238130887205628 0 -0.22171339315545521 -0.43995100384331698 0 -0.21494180417253711 -0.4317530246040297 0 -0.2098936840918898 -0.43300674732433431 0 -0.21799846006375431 -0.42443078195748318 0 -0.21494180417253711 -0.4317530246040297 0 -0.23357601420174781 -0.42712513697154009 0 -0.22171339315545521 -0.43995100384331698 0 -0.21494180417253711 -0.4317530246040297 0 -0.23357601420174781 -0.42712513697154009 0 -0.21494180417253711 -0.4317530246040297 0 -0.23357601420174781 -0.42712513697154009 0 -0.21799846006375431 -0.42443078195748318 0 -0.23357601420174781 -0.42712513697154009 0 -0.22014407368494471 -0.41692323283832089 0 -0.23357601420174781 -0.42712513697154009 0 -0.22014407368494471 -0.41692323283832089 0 -0.23834789625766301 -0.40191449656852118 0 -0.21776290556495501 -0.40198386179276901 0 -0.22014407368494471 -0.41692323283832089 0 -0.23834789625766301 -0.40191449656852118 0 -0.23357601420174781 -0.42712513697154009 0 -0.23834789625766301 -0.40191449656852118 0 -0.25320905333207361 -0.42224918575939208 0 -0.23357601420174781 -0.42712513697154009 0 -0.23834789625766301 -0.40191449656852118 0 -0.25320905333207361 -0.42224918575939208 0 -0.23357601420174781 -0.42712513697154009 0 -0.24603497244118491 -0.43532695237943653 0 -0.22961918720588831 -0.44802970698405969 0 -0.23357601420174781 -0.42712513697154009 0 -0.24603497244118491 -0.43532695237943653 0 -0.25320905333207361 -0.42224918575939208 0 -0.23357601420174781 -0.42712513697154009 0 -0.22924715615321001 -0.37860743888485909 0 -0.2276343157237318 -0.37709001618004862 0 -0.24311977831358031 -0.37670385616550278 0 -0.22924715615321001 -0.37860743888485909 0 -0.2276343157237318 -0.37709001618004862 0 -0.22578344531487499 -0.37713617121996929 0 -0.22924715615321001 -0.37860743888485909 0 -0.22578344531487499 -0.37713617121996929 0 -0.2276343157237318 -0.37709001618004862 0 -0.22578344531487499 -0.37713617121996929 0 -0.22924715615321001 -0.37860743888485909 0 -0.22501759038429961 -0.38201597116886982 0 -0.22578344531487499 -0.37713617121996929 0 -0.23080629093985469 -0.38330580756200899 0 -0.22924715615321001 -0.37860743888485909 0 -0.22501759038429961 -0.38201597116886982 0 -0.21209425502262641 -0.37747753770429288 0 -0.22501759038429961 -0.38201597116886982 0 -0.22578344531487499 -0.37713617121996929 0 -0.21209425502262641 -0.37747753770429288 0 -0.22578344531487499 -0.37713617121996929 0 -0.21209425502262641 -0.37747753770429288 0 -0.22501759038429961 -0.38201597116886982 0 -0.21919623784771791 -0.38762839766593699 0 -0.23080629093985469 -0.38330580756200899 0 -0.22501759038429961 -0.38201597116886982 0 -0.21919623784771791 -0.38762839766593699 0 -0.21776290556495501 -0.40198386179276901 0 -0.23080629093985469 -0.38330580756200899 0 -0.23834789625766301 -0.40191449656852118 0 -0.21776290556495501 -0.40198386179276901 0 -0.23080629093985469 -0.38330580756200899 0 -0.21919623784771791 -0.38762839766593699 0 -0.21776290556495501 -0.40198386179276901 0 -0.23080629093985469 -0.38330580756200899 0 -0.25661643408579998 -0.39481139302580059 0 -0.2519220738839355 -0.38585802058224389 0 -0.23834789625766301 -0.40191449656852118 0 -0.23834789625766301 -0.40191449656852118 0 -0.24311977831358031 -0.37670385616550278 0 -0.23080629093985469 -0.38330580756200899 0 -0.23834789625766301 -0.40191449656852118 0 -0.24311977831358031 -0.37670385616550278 0 -0.2519220738839355 -0.38585802058224389 0 -0.23834789625766301 -0.40191449656852118 0 -0.24311977831358031 -0.37670385616550278 0 -0.23080629093985469 -0.38330580756200899 0 -0.22924715615321001 -0.37860743888485909 0 -0.24311977831358031 -0.37670385616550278 0 -0.2276343157237318 -0.37709001618004862 0 -0.24311977831358031 -0.37670385616550278 0 -0.23241863977348509 -0.37564940920759182 0 -0.2276343157237318 -0.37709001618004862 0 -0.24311977831358031 -0.37670385616550278 0 -0.24311977831358031 -0.37670385616550278 0 -0.24770300688035971 -0.35248990327902557 0 -0.24311977831358031 -0.37670385616550278 0 -0.24171788947160461 -0.36501608504200489 0 -0.24770300688035971 -0.35248990327902557 0 -0.25129988172241152 -0.36202624914387271 0 -0.25281973194894081 -0.36989072027067538 0 -0.24311977831358031 -0.37670385616550278 0 -0.25129988172241152 -0.36202624914387271 0 -0.24311977831358031 -0.37670385616550278 0 -0.24770300688035971 -0.35248990327902557 0 -0.24115210805684439 -0.35979621038137483 0 -0.24171788947160461 -0.36501608504200489 0 -0.24278567696604109 -0.35672530956117271 0 -0.23907099908908841 -0.36112527945884038 0 -0.24115210805684439 -0.35979621038137483 0 -0.24171788947160461 -0.36501608504200489 0 -0.23907099908908841 -0.36112527945884038 0 -0.24115210805684439 -0.35979621038137483 0 -0.23882785937880061 -0.35722244771451878 0 -0.24171788947160461 -0.36501608504200489 0 -0.23683600826330961 -0.36474408136416969 0 -0.23797488152085769 -0.3712893738823595 0 -0.23907099908908841 -0.36112527945884038 0 -0.24171788947160461 -0.36501608504200489 0 -0.23683600826330961 -0.36474408136416969 0 -0.23683600826330961 -0.36474408136416969 0 -0.2358746206296729 -0.35990223993862008 0 -0.23272239018908689 -0.36274628961641969 0 -0.23907099908908841 -0.36112527945884038 0 -0.23683600826330961 -0.36474408136416969 0 -0.2358746206296729 -0.35990223993862008 0 -0.23907099908908841 -0.36112527945884038 0 -0.2358746206296729 -0.35990223993862008 0 -0.23882785937880061 -0.35722244771451878 0 -0.23241863977348509 -0.37564940920759182 0 -0.24311977831358031 -0.37670385616550278 0 -0.23797488152085769 -0.3712893738823595 0 -0.24311977831358031 -0.37670385616550278 0 -0.24171788947160461 -0.36501608504200489 0 -0.23797488152085769 -0.3712893738823595 0 -0.23241863977348509 -0.37564940920759182 0 -0.23797488152085769 -0.3712893738823595 0 -0.23337981300626989 -0.36770179109229401 0 -0.23683600826330961 -0.36474408136416969 0 -0.23797488152085769 -0.3712893738823595 0 -0.23337981300626989 -0.36770179109229401 0 -0.23241863977348509 -0.37564940920759182 0 -0.2276343157237318 -0.37709001618004862 0 -0.21343045759801271 -0.35514775126803882 0 -0.23241863977348509 -0.37564940920759182 0 -0.23337981300626989 -0.36770179109229401 0 -0.227772281814177 -0.3633091062002628 0 -0.23241863977348509 -0.37564940920759182 0 -0.21343045759801271 -0.35514775126803882 0 -0.23241863977348509 -0.37564940920759182 0 -0.227772281814177 -0.3633091062002628 0 -0.21343045759801271 -0.35514775126803882 0 -0.23337981300626989 -0.36770179109229401 0 -0.23272239018908689 -0.36274628961641969 0 -0.227772281814177 -0.3633091062002628 0 -0.23683600826330961 -0.36474408136416969 0 -0.23337981300626989 -0.36770179109229401 0 -0.23272239018908689 -0.36274628961641969 0 -0.2358746206296729 -0.35990223993862008 0 -0.23272239018908689 -0.36274628961641969 0 -0.23053989259388899 -0.35882078622566432 0 -0.227772281814177 -0.3633091062002628 0 -0.2239734472958588 -0.35732869904776682 0 -0.23053989259388899 -0.35882078622566432 0 -0.23272239018908689 -0.36274628961641969 0 -0.227772281814177 -0.3633091062002628 0 -0.23053989259388899 -0.35882078622566432 0 -0.2276343157237318 -0.37709001618004862 0 -0.22578344531487499 -0.37713617121996929 0 -0.21507355867412031 -0.37077054852917363 0 -0.22578344531487499 -0.37713617121996929 0 -0.21439476535257179 -0.37229864367902321 0 -0.22297289037900769 -0.3496282031009319 0 -0.22548200333638471 -0.34343065059489591 0 -0.21742061774525259 -0.34594186145980499 0 -0.22297289037900769 -0.3496282031009319 0 -0.22674701573689451 -0.35427532845557608 0 -0.22910709667238471 -0.34897442950905982 0 -0.22297289037900769 -0.3496282031009319 0 -0.22910709667238471 -0.34897442950905982 0 -0.22548200333638471 -0.34343065059489591 0 -0.22297289037900769 -0.3496282031009319 0 -0.2184213986129587 -0.35128373350268782 0 -0.21742061774525259 -0.34594186145980499 0 -0.227772281814177 -0.3633091062002628 0 -0.2239734472958588 -0.35732869904776682 0 -0.21343045759801271 -0.35514775126803882 0 -0.22297289037900769 -0.3496282031009319 0 -0.2210716957295682 -0.35404626735250228 0 -0.2184213986129587 -0.35128373350268782 0 -0.2210716957295682 -0.35404626735250228 0 -0.2239734472958588 -0.35732869904776682 0 -0.21343045759801271 -0.35514775126803882 0 -0.22297289037900769 -0.3496282031009319 0 -0.2210716957295682 -0.35404626735250228 0 -0.22674701573689451 -0.35427532845557608 0 -0.2210716957295682 -0.35404626735250228 0 -0.2239734472958588 -0.35732869904776682 0 -0.22674701573689451 -0.35427532845557608 0 -0.22674701573689451 -0.35427532845557608 0 -0.2317775163829105 -0.35359035006492318 0 -0.22910709667238471 -0.34897442950905982 0 -0.2239734472958588 -0.35732869904776682 0 -0.22674701573689451 -0.35427532845557608 0 -0.23053989259388899 -0.35882078622566432 0 -0.22674701573689451 -0.35427532845557608 0 -0.23053989259388899 -0.35882078622566432 0 -0.2317775163829105 -0.35359035006492318 0 -0.2358746206296729 -0.35990223993862008 0 -0.23053989259388899 -0.35882078622566432 0 -0.23434587355442979 -0.35640888488961381 0 -0.23053989259388899 -0.35882078622566432 0 -0.23434587355442979 -0.35640888488961381 0 -0.2317775163829105 -0.35359035006492318 0 -0.2317775163829105 -0.35359035006492318 0 -0.22910709667238471 -0.34897442950905982 0 -0.23495624410451321 -0.3494312792896348 0 -0.22910709667238471 -0.34897442950905982 0 -0.23228313488003899 -0.34409398703974958 0 -0.22548200333638471 -0.34343065059489591 0 -0.22910709667238471 -0.34897442950905982 0 -0.23228313488003899 -0.34409398703974958 0 -0.23495624410451321 -0.3494312792896348 0 -0.23228313488003899 -0.34409398703974958 0 -0.2381045078700755 -0.3460913205301388 0 -0.23495624410451321 -0.3494312792896348 0 -0.2381045078700755 -0.3460913205301388 0 -0.23495624410451321 -0.3494312792896348 0 -0.23860711320675801 -0.35028773638337929 0 -0.23495624410451321 -0.3494312792896348 0 -0.23860711320675801 -0.35028773638337929 0 -0.2371000209444602 -0.35357998748029013 0 -0.2381045078700755 -0.3460913205301388 0 -0.23860711320675801 -0.35028773638337929 0 -0.24140907670367359 -0.34931687232511238 0 -0.23860711320675801 -0.35028773638337929 0 -0.24140907670367359 -0.34931687232511238 0 -0.24146571641106751 -0.35301922229172028 0 -0.2381045078700755 -0.3460913205301388 0 -0.24140907670367359 -0.34931687232511238 0 -0.24263197771835859 -0.34529796500388787 0 -0.23434587355442979 -0.35640888488961381 0 -0.2371000209444602 -0.35357998748029013 0 -0.23882785937880061 -0.35722244771451878 0 -0.2358746206296729 -0.35990223993862008 0 -0.23434587355442979 -0.35640888488961381 0 -0.23882785937880061 -0.35722244771451878 0 -0.2317775163829105 -0.35359035006492318 0 -0.23495624410451321 -0.3494312792896348 0 -0.2371000209444602 -0.35357998748029013 0 -0.23434587355442979 -0.35640888488961381 0 -0.2317775163829105 -0.35359035006492318 0 -0.2371000209444602 -0.35357998748029013 0 -0.2371000209444602 -0.35357998748029013 0 -0.24146571641106751 -0.35301922229172028 0 -0.23882785937880061 -0.35722244771451878 0 -0.23860711320675801 -0.35028773638337929 0 -0.2371000209444602 -0.35357998748029013 0 -0.24146571641106751 -0.35301922229172028 0 -0.24115210805684439 -0.35979621038137483 0 -0.23882785937880061 -0.35722244771451878 0 -0.24278567696604109 -0.35672530956117271 0 -0.24146571641106751 -0.35301922229172028 0 -0.23882785937880061 -0.35722244771451878 0 -0.24278567696604109 -0.35672530956117271 0 -0.24171788947160461 -0.36501608504200489 0 -0.24278567696604109 -0.35672530956117271 0 -0.24620492361929389 -0.35413326322420408 0 -0.24171788947160461 -0.36501608504200489 0 -0.24770300688035971 -0.35248990327902557 0 -0.24620492361929389 -0.35413326322420408 0 -0.24278567696604109 -0.35672530956117271 0 -0.24372918764348131 -0.35368246471128512 0 -0.24620492361929389 -0.35413326322420408 0 -0.24146571641106751 -0.35301922229172028 0 -0.24278567696604109 -0.35672530956117271 0 -0.24372918764348131 -0.35368246471128512 0 -0.24146571641106751 -0.35301922229172028 0 -0.24372918764348131 -0.35368246471128512 0 -0.2439673667584995 -0.35114625165590008 0 -0.24770300688035971 -0.35248990327902557 0 -0.24620492361929389 -0.35413326322420408 0 -0.2439673667584995 -0.35114625165590008 0 -0.24372918764348131 -0.35368246471128512 0 -0.24620492361929389 -0.35413326322420408 0 -0.2439673667584995 -0.35114625165590008 0 -0.24770300688035971 -0.35248990327902557 0 -0.24620492361929389 -0.35413326322420408 0 -0.24770300688035971 -0.35248990327902557 0 -0.24263197771835859 -0.34529796500388787 0 -0.24527681010467819 -0.33961761805660201 0 -0.24140907670367359 -0.34931687232511238 0 -0.24263197771835859 -0.34529796500388787 0 -0.2439673667584995 -0.35114625165590008 0 -0.24770300688035971 -0.35248990327902557 0 -0.24263197771835859 -0.34529796500388787 0 -0.2439673667584995 -0.35114625165590008 0 -0.24140907670367359 -0.34931687232511238 0 -0.24146571641106751 -0.35301922229172028 0 -0.2439673667584995 -0.35114625165590008 0 -0.25253068005804957 -0.32698450917250949 0 -0.24770300688035971 -0.35248990327902557 0 -0.24527681010467819 -0.33961761805660201 0 -0.25253068005804957 -0.32698450917250949 0 -0.24527681010467819 -0.33961761805660201 0 -0.24175304916753171 -0.33032265664613958 0 -0.24175304916753171 -0.33032265664613958 0 -0.23730274387071629 -0.33818490976330973 0 -0.23210203779693339 -0.32613735535748889 0 -0.23228313488003899 -0.34409398703974958 0 -0.2381045078700755 -0.3460913205301388 0 -0.23730274387071629 -0.33818490976330973 0 -0.24527681010467819 -0.33961761805660201 0 -0.24175304916753171 -0.33032265664613958 0 -0.23730274387071629 -0.33818490976330973 0 -0.2381045078700755 -0.3460913205301388 0 -0.24263197771835859 -0.34529796500388787 0 -0.23730274387071629 -0.33818490976330973 0 -0.24263197771835859 -0.34529796500388787 0 -0.24527681010467819 -0.33961761805660201 0 -0.23730274387071629 -0.33818490976330973 0 -0.24260914844155909 -0.31500426102389079 0 -0.23210203779693339 -0.32613735535748889 0 -0.2313450413769621 -0.31032803194691999 0 -0.25253068005804957 -0.32698450917250949 0 -0.24175304916753171 -0.33032265664613958 0 -0.24260914844155909 -0.31500426102389079 0 -0.24175304916753171 -0.33032265664613958 0 -0.24260914844155909 -0.31500426102389079 0 -0.23210203779693339 -0.32613735535748889 0 -0.23210203779693339 -0.32613735535748889 0 -0.21930613455966161 -0.32115260471126977 0 -0.2313450413769621 -0.31032803194691999 0 -0.21930613455966161 -0.32115260471126977 0 -0.22366310446565441 -0.33041659886935221 0 -0.2161596682716263 -0.33046401019746902 0 -0.23210203779693339 -0.32613735535748889 0 -0.21930613455966161 -0.32115260471126977 0 -0.22366310446565441 -0.33041659886935221 0 -0.23228313488003899 -0.34409398703974958 0 -0.23730274387071629 -0.33818490976330973 0 -0.228615544744525 -0.33661177917908541 0 -0.23228313488003899 -0.34409398703974958 0 -0.228615544744525 -0.33661177917908541 0 -0.22548200333638471 -0.34343065059489591 0 -0.23210203779693339 -0.32613735535748889 0 -0.228615544744525 -0.33661177917908541 0 -0.22366310446565441 -0.33041659886935221 0 -0.23730274387071629 -0.33818490976330973 0 -0.23210203779693339 -0.32613735535748889 0 -0.228615544744525 -0.33661177917908541 0 -0.228615544744525 -0.33661177917908541 0 -0.22366310446565441 -0.33041659886935221 0 -0.2205124112192034 -0.33772308733591228 0 -0.22366310446565441 -0.33041659886935221 0 -0.2205124112192034 -0.33772308733591228 0 -0.2161596682716263 -0.33046401019746902 0 -0.2205124112192034 -0.33772308733591228 0 -0.22548200333638471 -0.34343065059489591 0 -0.21742061774525259 -0.34594186145980499 0 -0.228615544744525 -0.33661177917908541 0 -0.2205124112192034 -0.33772308733591228 0 -0.22548200333638471 -0.34343065059489591 0 -0.2126089943663183 -0.3384062272154949 0 -0.20478744518640779 -0.33624007921338861 0 -0.21343045759801271 -0.35514775126803882 0 -0.20478744518640779 -0.33624007921338861 0 -0.1944422754225402 -0.33464609332848583 0 -0.21343045759801271 -0.35514775126803882 0 -0.2205124112192034 -0.33772308733591228 0 -0.2126089943663183 -0.3384062272154949 0 -0.21742061774525259 -0.34594186145980499 0 -0.2205124112192034 -0.33772308733591228 0 -0.2126089943663183 -0.3384062272154949 0 -0.2161596682716263 -0.33046401019746902 0 -0.2126089943663183 -0.3384062272154949 0 -0.2161596682716263 -0.33046401019746902 0 -0.20741555818299739 -0.3270012679197567 0 -0.2126089943663183 -0.3384062272154949 0 -0.20478744518640779 -0.33624007921338861 0 -0.20741555818299739 -0.3270012679197567 0 -0.20478744518640779 -0.33624007921338861 0 -0.20741555818299739 -0.3270012679197567 0 -0.19881043161653489 -0.32603518372119222 0 -0.21930613455966161 -0.32115260471126977 0 -0.20741555818299739 -0.3270012679197567 0 -0.2032821994548526 -0.31292647350493769 0 -0.21930613455966161 -0.32115260471126977 0 -0.2161596682716263 -0.33046401019746902 0 -0.20741555818299739 -0.3270012679197567 0 -0.20741555818299739 -0.3270012679197567 0 -0.2032821994548526 -0.31292647350493769 0 -0.19881043161653489 -0.32603518372119222 0 -0.2032821994548526 -0.31292647350493769 0 -0.19881043161653489 -0.32603518372119222 0 -0.18966566234460569 -0.31943425941144449 0 -0.19881043161653489 -0.32603518372119222 0 -0.18966566234460569 -0.31943425941144449 0 -0.1944422754225402 -0.33464609332848583 0 -0.2032821994548526 -0.31292647350493769 0 -0.18966566234460569 -0.31943425941144449 0 -0.18900586385319779 -0.30525799030174472 0 -0.20478744518640779 -0.33624007921338861 0 -0.19881043161653489 -0.32603518372119222 0 -0.1944422754225402 -0.33464609332848583 0 -0.19054335992717439 -0.34298394246716468 0 -0.1944422754225402 -0.33464609332848583 0 -0.21343045759801271 -0.35514775126803882 0 -0.19054335992717439 -0.34298394246716468 0 -0.19570940149262001 -0.36436173065799637 0 -0.17702403763266819 -0.35642481763696948 0 -0.19054335992717439 -0.34298394246716468 0 -0.2090888378254537 -0.36003697932360601 0 -0.19054335992717439 -0.34298394246716468 0 -0.19570940149262001 -0.36436173065799637 0 -0.2090888378254537 -0.36003697932360601 0 -0.18458746861158801 -0.37816347272102208 0 -0.21209425502262641 -0.37747753770429288 0 -0.19570940149262001 -0.36436173065799637 0 -0.19570940149262001 -0.36436173065799637 0 -0.21439476535257179 -0.37229864367902321 0 -0.2276343157237318 -0.37709001618004862 0 -0.2090888378254537 -0.36003697932360601 0 -0.21507355867412031 -0.37077054852917363 0 -0.2276343157237318 -0.37709001618004862 0 -0.2090888378254537 -0.36003697932360601 0 -0.21209425502262641 -0.37747753770429288 0 -0.19570940149262001 -0.36436173065799637 0 -0.21439476535257179 -0.37229864367902321 0 -0.19570940149262001 -0.36436173065799637 0 -0.2090888378254537 -0.36003697932360601 0 -0.21439476535257179 -0.37229864367902321 0 -0.2276343157237318 -0.37709001618004862 0 -0.2090888378254537 -0.36003697932360601 0 -0.21343045759801271 -0.35514775126803882 0 -0.2090888378254537 -0.36003697932360601 0 -0.21439476535257179 -0.37229864367902321 0 -0.21507355867412031 -0.37077054852917363 0 -0.22578344531487499 -0.37713617121996929 0 -0.21439476535257179 -0.37229864367902321 0 -0.21507355867412031 -0.37077054852917363 0 -0.21209425502262641 -0.37747753770429288 0 -0.21439476535257179 -0.37229864367902321 0 -0.21439476535257179 -0.37229864367902321 0 -0.21507355867412031 -0.37077054852917363 0 -0.1944422754225402 -0.33464609332848583 0 -0.21343045759801271 -0.35514775126803882 0 -0.19054335992717439 -0.34298394246716468 0 -0.2090888378254537 -0.36003697932360601 0 -0.21343045759801271 -0.35514775126803882 0 -0.2126089943663183 -0.3384062272154949 0 -0.21343045759801271 -0.35514775126803882 0 -0.21742061774525259 -0.34594186145980499 0 -0.2210716957295682 -0.35404626735250228 0 -0.21343045759801271 -0.35514775126803882 0 -0.2184213986129587 -0.35128373350268782 0 -0.21343045759801271 -0.35514775126803882 0 -0.2184213986129587 -0.35128373350268782 0 -0.21742061774525259 -0.34594186145980499 0 -0.22881346986740889 -0.25969517203905867 0 -0.21502492674253099 -0.25133597507959871 0 -0.21978983545209549 -0.24214005824423079 0 -0.22881346986740889 -0.25969517203905867 0 -0.24827797024798609 -0.25545493364081862 0 -0.24119414992733251 -0.27395725060427578 0 -0.22881346986740889 -0.25969517203905867 0 -0.24827797024798609 -0.25545493364081862 0 -0.23149938564111819 -0.23550181565038569 0 -0.22881346986740889 -0.25969517203905867 0 -0.24119414992733251 -0.27395725060427578 0 -0.2261275540936997 -0.2838885284277316 0 -0.22881346986740889 -0.25969517203905867 0 -0.2261275540936997 -0.2838885284277316 0 -0.22881346986740889 -0.25969517203905867 0 -0.2261275540936997 -0.2838885284277316 0 -0.20440207564901741 -0.26346672649732611 0 -0.2261275540936997 -0.2838885284277316 0 -0.240565729014138 -0.29477389795429298 0 -0.21838215358086191 -0.29998253990995061 0 -0.26218602641342958 -0.27597372095947742 0 -0.24119414992733251 -0.27395725060427578 0 -0.240565729014138 -0.29477389795429298 0 -0.24119414992733251 -0.27395725060427578 0 -0.2261275540936997 -0.2838885284277316 0 -0.240565729014138 -0.29477389795429298 0 -0.25735835323573958 -0.30147911506599351 0 -0.24260914844155909 -0.31500426102389079 0 -0.240565729014138 -0.29477389795429298 0 -0.24260914844155909 -0.31500426102389079 0 -0.240565729014138 -0.29477389795429298 0 -0.2313450413769621 -0.31032803194691999 0 -0.240565729014138 -0.29477389795429298 0 -0.2313450413769621 -0.31032803194691999 0 -0.21838215358086191 -0.29998253990995061 0 -0.21930613455966161 -0.32115260471126977 0 -0.2313450413769621 -0.31032803194691999 0 -0.21838215358086191 -0.29998253990995061 0 -0.21930613455966161 -0.32115260471126977 0 -0.2032821994548526 -0.31292647350493769 0 -0.21838215358086191 -0.29998253990995061 0 -0.2032821994548526 -0.31292647350493769 0 -0.21838215358086191 -0.29998253990995061 0 -0.203842137551935 -0.28819660000113179 0 -0.2032821994548526 -0.31292647350493769 0 -0.203842137551935 -0.28819660000113179 0 -0.2032821994548526 -0.31292647350493769 0 -0.18900586385319779 -0.30525799030174472 0 -0.203842137551935 -0.28819660000113179 0 -0.18966566234460569 -0.31943425941144449 0 -0.18900586385319779 -0.30525799030174472 0 -0.1839137744171217 -0.31180351547184021 0 -0.203842137551935 -0.28819660000113179 0 -0.18586669574590889 -0.27463154422777819 0 -0.1874113926770706 -0.28953999437077399 0 -0.18900586385319779 -0.30525799030174472 0 -0.203842137551935 -0.28819660000113179 0 -0.1874113926770706 -0.28953999437077399 0 -0.2261275540936997 -0.2838885284277316 0 -0.21838215358086191 -0.29998253990995061 0 -0.203842137551935 -0.28819660000113179 0 -0.203842137551935 -0.28819660000113179 0 -0.20440207564901741 -0.26346672649732611 0 -0.2261275540936997 -0.2838885284277316 0 -0.203842137551935 -0.28819660000113179 0 -0.20440207564901741 -0.26346672649732611 0 -0.203842137551935 -0.28819660000113179 0 -0.20440207564901741 -0.26346672649732611 0 -0.18586669574590889 -0.27463154422777819 0 -0.20440207564901741 -0.26346672649732611 0 -0.18397289317318519 -0.25976340762325162 0 -0.18586669574590889 -0.27463154422777819 0 -0.1974750033546612 -0.25093860666183337 0 -0.20440207564901741 -0.26346672649732611 0 -0.18397289317318519 -0.25976340762325162 0 -0.1974750033546612 -0.25093860666183337 0 -0.20440207564901741 -0.26346672649732611 0 -0.20496201374609979 -0.2387368529935201 0 -0.22881346986740889 -0.25969517203905867 0 -0.20440207564901741 -0.26346672649732611 0 -0.21502492674253099 -0.25133597507959871 0 -0.20440207564901741 -0.26346672649732611 0 -0.20496201374609979 -0.2387368529935201 0 -0.20440207564901741 -0.26346672649732611 0 -0.21502492674253099 -0.25133597507959871 0 -0.20496201374609979 -0.2387368529935201 0 -0.17114208450176149 -0.25392426552431951 0 -0.16305952114753311 -0.26958862485581908 0 -0.1550620366314451 -0.25790203422340391 0 -0.17114208450176149 -0.25392426552431951 0 -0.1550620366314451 -0.25790203422340391 0 -0.15550554633892641 -0.24312817636800099 0 -0.17114208450176149 -0.25392426552431951 0 -0.18397289317318519 -0.25976340762325162 0 -0.1731983638381869 -0.28264162169002027 0 -0.17114208450176149 -0.25392426552431951 0 -0.18397289317318519 -0.25976340762325162 0 -0.18025512079503139 -0.24152858981872261 0 -0.18397289317318519 -0.25976340762325162 0 -0.1731983638381869 -0.28264162169002027 0 -0.17114208450176149 -0.25392426552431951 0 -0.1731983638381869 -0.28264162169002027 0 -0.18397289317318519 -0.25976340762325162 0 -0.18586669574590889 -0.27463154422777819 0 -0.1731983638381869 -0.28264162169002027 0 -0.18586669574590889 -0.27463154422777819 0 -0.1731983638381869 -0.28264162169002027 0 -0.1817625380498403 -0.28299796272105088 0 -0.16305952114753311 -0.26958862485581908 0 -0.15268982874870929 -0.27561422158948512 0 -0.1550620366314451 -0.25790203422340391 0 -0.17114208450176149 -0.25392426552431951 0 -0.16305952114753311 -0.26958862485581908 0 -0.1731983638381869 -0.28264162169002027 0 -0.16305952114753311 -0.26958862485581908 0 -0.16274070082087791 -0.28035557905152958 0 -0.1731983638381869 -0.28264162169002027 0 -0.16305952114753311 -0.26958862485581908 0 -0.16274070082087791 -0.28035557905152958 0 -0.15268982874870929 -0.27561422158948512 0 -0.16274070082087791 -0.28035557905152958 0 -0.15719517675439629 -0.28907403202496001 0 -0.16940469435591279 -0.29069695105202881 0 -0.16274070082087791 -0.28035557905152958 0 -0.15719517675439629 -0.28907403202496001 0 -0.15268982874870929 -0.27561422158948512 0 -0.15719517675439629 -0.28907403202496001 0 -0.16940469435591279 -0.29069695105202881 0 -0.16282313153540229 -0.29912093701690368 0 -0.15719517675439629 -0.28907403202496001 0 -0.16282313153540229 -0.29912093701690368 0 -0.15226528688094759 -0.30019532124210119 0 -0.16940469435591279 -0.29069695105202881 0 -0.17432622854262819 -0.29839302853947608 0 -0.16282313153540229 -0.29912093701690368 0 -0.16274070082087791 -0.28035557905152958 0 -0.16940469435591279 -0.29069695105202881 0 -0.1731983638381869 -0.28264162169002027 0 -0.16940469435591279 -0.29069695105202881 0 -0.1731983638381869 -0.28264162169002027 0 -0.1731983638381869 -0.28264162169002027 0 -0.17432622854262819 -0.29839302853947608 0 -0.16940469435591279 -0.29069695105202881 0 -0.1731983638381869 -0.28264162169002027 0 -0.17432622854262819 -0.29839302853947608 0 -0.1731983638381869 -0.28264162169002027 0 -0.1800089901757661 -0.29010712932268418 0 -0.17432622854262819 -0.29839302853947608 0 -0.1731983638381869 -0.28264162169002027 0 -0.1817625380498403 -0.28299796272105088 0 -0.1800089901757661 -0.29010712932268418 0 -0.18586669574590889 -0.27463154422777819 0 -0.1817625380498403 -0.28299796272105088 0 -0.1874113926770706 -0.28953999437077399 0 -0.1817625380498403 -0.28299796272105088 0 -0.1874113926770706 -0.28953999437077399 0 -0.1800089901757661 -0.29010712932268418 0 -0.1874113926770706 -0.28953999437077399 0 -0.1800089901757661 -0.29010712932268418 0 -0.18239658789785909 -0.29781533888539402 0 -0.1800089901757661 -0.29010712932268418 0 -0.17432622854262819 -0.29839302853947608 0 -0.18239658789785909 -0.29781533888539402 0 -0.17432622854262819 -0.29839302853947608 0 -0.1812304642406328 -0.30577855189229058 0 -0.17545409324706859 -0.31414443538893189 0 -0.17432622854262819 -0.29839302853947608 0 -0.17545409324706859 -0.31414443538893189 0 -0.17432622854262819 -0.29839302853947608 0 -0.18239658789785909 -0.29781533888539402 0 -0.1812304642406328 -0.30577855189229058 0 -0.18900586385319779 -0.30525799030174472 0 -0.1874113926770706 -0.28953999437077399 0 -0.18239658789785909 -0.29781533888539402 0 -0.17432622854262819 -0.29839302853947608 0 -0.17008462227792079 -0.30834698431602242 0 -0.17545409324706859 -0.31414443538893189 0 -0.18900586385319779 -0.30525799030174472 0 -0.18239658789785909 -0.29781533888539402 0 -0.1812304642406328 -0.30577855189229058 0 -0.1839137744171217 -0.31180351547184021 0 -0.1812304642406328 -0.30577855189229058 0 -0.17545409324706859 -0.31414443538893189 0 -0.18900586385319779 -0.30525799030174472 0 -0.1839137744171217 -0.31180351547184021 0 -0.1812304642406328 -0.30577855189229058 0 -0.17008462227792079 -0.30834698431602242 0 -0.17545409324706859 -0.31414443538893189 0 -0.16579900780491 -0.31177731367554401 0 -0.17008462227792079 -0.30834698431602242 0 -0.170536006536116 -0.31517607243335788 0 -0.16579900780491 -0.31177731367554401 0 -0.16447923884528851 -0.3058452276498555 0 -0.17008462227792079 -0.30834698431602242 0 -0.17432622854262819 -0.29839302853947608 0 -0.16447923884528851 -0.3058452276498555 0 -0.17008462227792079 -0.30834698431602242 0 -0.17432622854262819 -0.29839302853947608 0 -0.16447923884528851 -0.3058452276498555 0 -0.16282313153540229 -0.29912093701690368 0 -0.16282313153540229 -0.29912093701690368 0 -0.15887066060654309 -0.309999569950898 0 -0.15226528688094759 -0.30019532124210119 0 -0.16447923884528851 -0.3058452276498555 0 -0.16282313153540229 -0.29912093701690368 0 -0.15887066060654309 -0.309999569950898 0 -0.16579900780491 -0.31177731367554401 0 -0.16447923884528851 -0.3058452276498555 0 -0.15887066060654309 -0.309999569950898 0 -0.15093800621208761 -0.31095751086636281 0 -0.15226528688094759 -0.30019532124210119 0 -0.14299681071281681 -0.30688321670340007 0 -0.15887066060654309 -0.309999569950898 0 -0.15093800621208761 -0.31095751086636281 0 -0.15226528688094759 -0.30019532124210119 0 -0.15226528688094759 -0.30019532124210119 0 -0.14308833712511521 -0.29872559668309939 0 -0.14299681071281681 -0.30688321670340007 0 -0.15093800621208761 -0.31095751086636281 0 -0.14299681071281681 -0.30688321670340007 0 -0.1452988094482818 -0.31866943189739177 0 -0.14299681071281681 -0.30688321670340007 0 -0.13357045237283349 -0.29913522616234661 0 -0.13271673588873309 -0.31271054089298012 0 -0.13357045237283349 -0.29913522616234661 0 -0.13271673588873309 -0.31271054089298012 0 -0.1190213585810594 -0.30565280333975048 0 -0.14308833712511521 -0.29872559668309939 0 -0.14299681071281681 -0.30688321670340007 0 -0.13357045237283349 -0.29913522616234661 0 -0.14308833712511521 -0.29872559668309939 0 -0.13357045237283349 -0.29913522616234661 0 -0.14352079853386271 -0.28868862262454992 0 -0.13357045237283349 -0.29913522616234661 0 -0.12977354104693661 -0.28554722818437678 0 -0.14352079853386271 -0.28868862262454992 0 -0.12977354104693661 -0.28554722818437678 0 -0.14352079853386271 -0.28868862262454992 0 -0.1378963322189545 -0.27032745618766701 0 -0.13357045237283349 -0.29913522616234661 0 -0.12977354104693661 -0.28554722818437678 0 -0.1222774803296154 -0.29483958572579161 0 -0.15226528688094759 -0.30019532124210119 0 -0.14308833712511521 -0.29872559668309939 0 -0.14352079853386271 -0.28868862262454992 0 -0.15719517675439629 -0.28907403202496001 0 -0.15226528688094759 -0.30019532124210119 0 -0.14352079853386271 -0.28868862262454992 0 -0.15719517675439629 -0.28907403202496001 0 -0.14352079853386271 -0.28868862262454992 0 -0.15268982874870929 -0.27561422158948512 0 -0.14352079853386271 -0.28868862262454992 0 -0.15268982874870929 -0.27561422158948512 0 -0.1378963322189545 -0.27032745618766701 0 -0.15268982874870929 -0.27561422158948512 0 -0.1378963322189545 -0.27032745618766701 0 -0.1550620366314451 -0.25790203422340391 0 -0.12977354104693661 -0.28554722818437678 0 -0.1378963322189545 -0.27032745618766701 0 -0.1191187129455763 -0.27606003348986202 0 -0.1378963322189545 -0.27032745618766701 0 -0.12275815006185969 -0.25761869203139598 0 -0.1191187129455763 -0.27606003348986202 0 -0.14093101377403339 -0.25131595786198829 0 -0.12275815006185969 -0.25761869203139598 0 -0.12025598840083281 -0.2415988975586526 0 -0.1378963322189545 -0.27032745618766701 0 -0.14093101377403339 -0.25131595786198829 0 -0.12275815006185969 -0.25761869203139598 0 -0.1378963322189545 -0.27032745618766701 0 -0.14093101377403339 -0.25131595786198829 0 -0.1550620366314451 -0.25790203422340391 0 -0.14093101377403339 -0.25131595786198829 0 -0.1550620366314451 -0.25790203422340391 0 -0.15550554633892641 -0.24312817636800099 0 -0.15833867377271629 -0.34848790461594281 0 -0.17702403763266819 -0.35642481763696948 0 -0.1710694782940726 -0.34204668080416128 0 -0.15833867377271629 -0.34848790461594281 0 -0.16390806708365269 -0.36133957184182941 0 -0.17702403763266819 -0.35642481763696948 0 -0.15833867377271629 -0.34848790461594281 0 -0.17702403763266819 -0.35642481763696948 0 -0.15833867377271629 -0.34848790461594281 0 -0.16390806708365269 -0.36133957184182941 0 -0.1499848381947384 -0.36286508475351792 0 -0.15708068220054949 -0.37884940773775111 0 -0.16390806708365269 -0.36133957184182941 0 -0.17566193140421629 -0.36782780011911342 0 -0.15708068220054949 -0.37884940773775111 0 -0.16390806708365269 -0.36133957184182941 0 -0.1499848381947384 -0.36286508475351792 0 -0.18458746861158801 -0.37816347272102208 0 -0.19570940149262001 -0.36436173065799637 0 -0.17566193140421629 -0.36782780011911342 0 -0.19570940149262001 -0.36436173065799637 0 -0.17566193140421629 -0.36782780011911342 0 -0.17702403763266819 -0.35642481763696948 0 -0.16390806708365269 -0.36133957184182941 0 -0.17566193140421629 -0.36782780011911342 0 -0.17702403763266819 -0.35642481763696948 0 -0.19570940149262001 -0.36436173065799637 0 -0.17702403763266819 -0.35642481763696948 0 -0.15708068220054949 -0.37884940773775111 0 -0.18458746861158801 -0.37816347272102208 0 -0.17566193140421629 -0.36782780011911342 0 -0.19054335992717439 -0.34298394246716468 0 -0.17702403763266819 -0.35642481763696948 0 -0.1710694782940726 -0.34204668080416128 0 -0.19054335992717439 -0.34298394246716468 0 -0.17199788202889391 -0.32593090561072491 0 -0.17542756238416851 -0.32346254232223909 0 -0.19054335992717439 -0.34298394246716468 0 -0.1944422754225402 -0.33464609332848583 0 -0.17542756238416851 -0.32346254232223909 0 -0.19054335992717439 -0.34298394246716468 0 -0.17199788202889391 -0.32593090561072491 0 -0.1710694782940726 -0.34204668080416128 0 -0.19054335992717439 -0.34298394246716468 0 -0.17199788202889391 -0.32593090561072491 0 -0.1944422754225402 -0.33464609332848583 0 -0.17542756238416851 -0.32346254232223909 0 -0.1764092620229871 -0.32114615150580972 0 -0.1944422754225402 -0.33464609332848583 0 -0.17565697746169001 -0.31697785308099502 0 -0.17545409324706859 -0.31414443538893189 0 -0.18966566234460569 -0.31943425941144449 0 -0.1944422754225402 -0.33464609332848583 0 -0.17545409324706859 -0.31414443538893189 0 -0.1944422754225402 -0.33464609332848583 0 -0.1764092620229871 -0.32114615150580972 0 -0.17565697746169001 -0.31697785308099502 0 -0.1944422754225402 -0.33464609332848583 0 -0.17545409324706859 -0.31414443538893189 0 -0.18966566234460569 -0.31943425941144449 0 -0.1839137744171217 -0.31180351547184021 0 -0.17545409324706859 -0.31414443538893189 0 -0.17199788202889391 -0.32593090561072491 0 -0.17542756238416851 -0.32346254232223909 0 -0.17199788202889391 -0.32593090561072491 0 -0.17542756238416851 -0.32346254232223909 0 -0.17210607209679041 -0.32009863203187822 0 -0.17542756238416851 -0.32346254232223909 0 -0.1764092620229871 -0.32114615150580972 0 -0.17210607209679041 -0.32009863203187822 0 -0.17210607209679041 -0.32009863203187822 0 -0.17565697746169001 -0.31697785308099502 0 -0.170536006536116 -0.31517607243335788 0 -0.1764092620229871 -0.32114615150580972 0 -0.17210607209679041 -0.32009863203187822 0 -0.17565697746169001 -0.31697785308099502 0 -0.17565697746169001 -0.31697785308099502 0 -0.17545409324706859 -0.31414443538893189 0 -0.17008462227792079 -0.30834698431602242 0 -0.17545409324706859 -0.31414443538893189 0 -0.170536006536116 -0.31517607243335788 0 -0.17565697746169001 -0.31697785308099502 0 -0.17545409324706859 -0.31414443538893189 0 -0.170536006536116 -0.31517607243335788 0 -0.16579900780491 -0.31177731367554401 0 -0.170536006536116 -0.31517607243335788 0 -0.16502451075868119 -0.31951871402758619 0 -0.17210607209679041 -0.32009863203187822 0 -0.170536006536116 -0.31517607243335788 0 -0.16502451075868119 -0.31951871402758619 0 -0.17199788202889391 -0.32593090561072491 0 -0.16502451075868119 -0.31951871402758619 0 -0.16025358014953531 -0.32549820877868302 0 -0.17199788202889391 -0.32593090561072491 0 -0.16502451075868119 -0.31951871402758619 0 -0.17199788202889391 -0.32593090561072491 0 -0.17210607209679041 -0.32009863203187822 0 -0.16502451075868119 -0.31951871402758619 0 -0.16502451075868119 -0.31951871402758619 0 -0.16025358014953531 -0.32549820877868302 0 -0.1552584634118484 -0.31904001453802261 0 -0.16579900780491 -0.31177731367554401 0 -0.15887066060654309 -0.309999569950898 0 -0.16502451075868119 -0.31951871402758619 0 -0.15887066060654309 -0.309999569950898 0 -0.16502451075868119 -0.31951871402758619 0 -0.1552584634118484 -0.31904001453802261 0 -0.17199788202889391 -0.32593090561072491 0 -0.1710694782940726 -0.34204668080416128 0 -0.15744343810890879 -0.33640583369000571 0 -0.17199788202889391 -0.32593090561072491 0 -0.15744343810890879 -0.33640583369000571 0 -0.17199788202889391 -0.32593090561072491 0 -0.16025358014953531 -0.32549820877868302 0 -0.15744343810890879 -0.33640583369000571 0 -0.16025358014953531 -0.32549820877868302 0 -0.15744343810890879 -0.33640583369000571 0 -0.15234858708927179 -0.32562467488185493 0 -0.15833867377271629 -0.34848790461594281 0 -0.1710694782940726 -0.34204668080416128 0 -0.15744343810890879 -0.33640583369000571 0 -0.15744343810890879 -0.33640583369000571 0 -0.14288899418892359 -0.34688076176928639 0 -0.15744343810890879 -0.33640583369000571 0 -0.1434886443277848 -0.32850988550517141 0 -0.13861217446359561 -0.3372466621781775 0 -0.15744343810890879 -0.33640583369000571 0 -0.13861217446359561 -0.3372466621781775 0 -0.14288899418892359 -0.34688076176928639 0 -0.15744343810890879 -0.33640583369000571 0 -0.1434886443277848 -0.32850988550517141 0 -0.15234858708927179 -0.32562467488185493 0 -0.13861217446359561 -0.3372466621781775 0 -0.14288899418892359 -0.34688076176928639 0 -0.15887066060654309 -0.309999569950898 0 -0.15093800621208761 -0.31095751086636281 0 -0.1552584634118484 -0.31904001453802261 0 -0.15093800621208761 -0.31095751086636281 0 -0.1552584634118484 -0.31904001453802261 0 -0.1452988094482818 -0.31866943189739177 0 -0.16025358014953531 -0.32549820877868302 0 -0.1552584634118484 -0.31904001453802261 0 -0.15234858708927179 -0.32562467488185493 0 -0.1552584634118484 -0.31904001453802261 0 -0.15234858708927179 -0.32562467488185493 0 -0.1452988094482818 -0.31866943189739177 0 -0.1434886443277848 -0.32850988550517141 0 -0.15234858708927179 -0.32562467488185493 0 -0.1452988094482818 -0.31866943189739177 0 -0.1434886443277848 -0.32850988550517141 0 -0.1452988094482818 -0.31866943189739177 0 -0.13407435054536909 -0.3251213316028857 0 -0.1452988094482818 -0.31866943189739177 0 -0.13407435054536909 -0.3251213316028857 0 -0.13271673588873309 -0.31271054089298012 0 -0.14299681071281681 -0.30688321670340007 0 -0.1452988094482818 -0.31866943189739177 0 -0.13271673588873309 -0.31271054089298012 0 -0.13407435054536909 -0.3251213316028857 0 -0.12264219038279819 -0.33503481982302319 0 -0.1207477769855493 -0.31991717986543089 0 -0.13407435054536909 -0.3251213316028857 0 -0.13271673588873309 -0.31271054089298012 0 -0.1207477769855493 -0.31991717986543089 0 -0.13407435054536909 -0.3251213316028857 0 -0.13861217446359561 -0.3372466621781775 0 -0.12264219038279819 -0.33503481982302319 0 -0.13861217446359561 -0.3372466621781775 0 -0.1305054195463452 -0.34463938936098149 0 -0.12264219038279819 -0.33503481982302319 0 -0.13861217446359561 -0.3372466621781775 0 -0.1305054195463452 -0.34463938936098149 0 -0.14288899418892359 -0.34688076176928639 0 -0.1434886443277848 -0.32850988550517141 0 -0.13407435054536909 -0.3251213316028857 0 -0.13861217446359561 -0.3372466621781775 0 -0.1305054195463452 -0.34463938936098149 0 -0.12805458844456849 -0.35755718019689892 0 -0.1207314787024802 -0.34761820280422517 0 -0.12805458844456849 -0.35755718019689892 0 -0.14288899418892359 -0.34688076176928639 0 -0.13671818308892261 -0.36596690695307132 0 -0.12805458844456849 -0.35755718019689892 0 -0.14288899418892359 -0.34688076176928639 0 -0.1305054195463452 -0.34463938936098149 0 -0.12805458844456849 -0.35755718019689892 0 -0.14288899418892359 -0.34688076176928639 0 -0.14288899418892359 -0.34688076176928639 0 -0.1499848381947384 -0.36286508475351792 0 -0.14288899418892359 -0.34688076176928639 0 -0.1499848381947384 -0.36286508475351792 0 -0.13671818308892261 -0.36596690695307132 0 -0.15833867377271629 -0.34848790461594281 0 -0.14288899418892359 -0.34688076176928639 0 -0.1499848381947384 -0.36286508475351792 0 -0.15833867377271629 -0.34848790461594281 0 -0.15744343810890879 -0.33640583369000571 0 -0.14288899418892359 -0.34688076176928639 0 -0.15708068220054949 -0.37884940773775111 0 -0.1499848381947384 -0.36286508475351792 0 -0.14521968082413839 -0.37021657594269219 0 -0.15708068220054949 -0.37884940773775111 0 -0.1499848381947384 -0.36286508475351792 0 -0.1499848381947384 -0.36286508475351792 0 -0.14521968082413839 -0.37021657594269219 0 -0.13671818308892261 -0.36596690695307132 0 -0.14011060610960371 -0.37702294557959681 0 -0.14521968082413839 -0.37021657594269219 0 -0.13671818308892261 -0.36596690695307132 0 -0.13781369823175171 -0.37932986731501922 0 -0.13671818308892261 -0.36596690695307132 0 -0.1132201827002137 -0.36823359862451199 0 -0.13781369823175171 -0.37932986731501922 0 -0.1132201827002137 -0.36823359862451199 0 -0.12805458844456849 -0.35755718019689892 0 -0.13671818308892261 -0.36596690695307132 0 -0.1132201827002137 -0.36823359862451199 0 -0.14011060610960371 -0.37702294557959681 0 -0.13781369823175171 -0.37932986731501922 0 -0.13671818308892261 -0.36596690695307132 0 -0.12805458844456849 -0.35755718019689892 0 -0.1132201827002137 -0.36823359862451199 0 -0.12805458844456849 -0.35755718019689892 0 -0.1132201827002137 -0.36823359862451199 0 -0.114162176598399 -0.35661463327846632 0 -0.1132201827002137 -0.36823359862451199 0 -0.109036414386674 -0.366345937737385 0 -0.114162176598399 -0.35661463327846632 0 -0.109036414386674 -0.366345937737385 0 -0.1049776548386754 -0.35721049107538549 0 -0.114162176598399 -0.35661463327846632 0 -0.1132201827002137 -0.36823359862451199 0 -0.109036414386674 -0.366345937737385 0 -0.1132201827002137 -0.36823359862451199 0 -0.096366313343482321 -0.38036343816629647 0 -0.1132201827002137 -0.36823359862451199 0 -0.109036414386674 -0.366345937737385 0 -0.096366313343482321 -0.38036343816629647 0 -0.109036414386674 -0.366345937737385 0 -0.095738970808133178 -0.36601907424173852 0 -0.1049776548386754 -0.35721049107538549 0 -0.109036414386674 -0.366345937737385 0 -0.095738970808133178 -0.36601907424173852 0 -0.096366313343482321 -0.38036343816629647 0 -0.095533593003616024 -0.35359166308290302 0 -0.1082930185402903 -0.34424499136175579 0 -0.086703903286726197 -0.33776980809553209 0 -0.095738970808133178 -0.36601907424173852 0 -0.095533593003616024 -0.35359166308290302 0 -0.1049776548386754 -0.35721049107538549 0 -0.095533593003616024 -0.35359166308290302 0 -0.1049776548386754 -0.35721049107538549 0 -0.1082930185402903 -0.34424499136175579 0 -0.1049776548386754 -0.35721049107538549 0 -0.1082930185402903 -0.34424499136175579 0 -0.114162176598399 -0.35661463327846632 0 -0.1082930185402903 -0.34424499136175579 0 -0.114162176598399 -0.35661463327846632 0 -0.1207314787024802 -0.34761820280422517 0 -0.12805458844456849 -0.35755718019689892 0 -0.114162176598399 -0.35661463327846632 0 -0.1207314787024802 -0.34761820280422517 0 -0.1305054195463452 -0.34463938936098149 0 -0.1207314787024802 -0.34761820280422517 0 -0.12264219038279819 -0.33503481982302319 0 -0.1082930185402903 -0.34424499136175579 0 -0.1207314787024802 -0.34761820280422517 0 -0.12264219038279819 -0.33503481982302319 0 -0.1082930185402903 -0.34424499136175579 0 -0.12264219038279819 -0.33503481982302319 0 -0.10596301152835071 -0.32681161311008378 0 -0.1207477769855493 -0.31991717986543089 0 -0.10596301152835071 -0.32681161311008378 0 -0.1068182228978866 -0.31027097921747321 0 -0.12264219038279819 -0.33503481982302319 0 -0.1207477769855493 -0.31991717986543089 0 -0.10596301152835071 -0.32681161311008378 0 -0.13271673588873309 -0.31271054089298012 0 -0.1207477769855493 -0.31991717986543089 0 -0.1190213585810594 -0.30565280333975048 0 -0.10596301152835071 -0.32681161311008378 0 -0.092765630745887853 -0.31371234999831138 0 -0.1068182228978866 -0.31027097921747321 0 -0.10596301152835071 -0.32681161311008378 0 -0.086703903286726197 -0.33776980809553209 0 -0.092765630745887853 -0.31371234999831138 0 -0.1082930185402903 -0.34424499136175579 0 -0.10596301152835071 -0.32681161311008378 0 -0.086703903286726197 -0.33776980809553209 0 -0.086703903286726197 -0.33776980809553209 0 -0.081662940613641544 -0.32141558927478547 0 -0.069255093254359121 -0.33097511337982499 0 -0.081662940613641544 -0.32141558927478547 0 -0.092765630745887853 -0.31371234999831138 0 -0.077927135167593004 -0.30320508562547349 0 -0.086703903286726197 -0.33776980809553209 0 -0.092765630745887853 -0.31371234999831138 0 -0.086703903286726197 -0.33776980809553209 0 -0.081662940613641544 -0.32141558927478547 0 -0.092765630745887853 -0.31371234999831138 0 -0.069255093254359121 -0.33097511337982499 0 -0.077927135167593004 -0.30320508562547349 0 -0.061716067288840271 -0.31011417643116629 0 -0.069255093254359121 -0.33097511337982499 0 -0.077927135167593004 -0.30320508562547349 0 -0.081662940613641544 -0.32141558927478547 0 -0.069255093254359121 -0.33097511337982499 0 -0.077927135167593004 -0.30320508562547349 0 -0.086703903286726197 -0.33776980809553209 0 -0.069255093254359121 -0.33097511337982499 0 -0.074296055927443788 -0.34732933220057149 0 -0.069255093254359121 -0.33097511337982499 0 -0.074296055927443788 -0.34732933220057149 0 -0.060583051341125321 -0.35874514113417633 0 -0.074296055927443788 -0.34732933220057149 0 -0.080642175827564569 -0.36182726619275268 0 -0.060583051341125321 -0.35874514113417633 0 -0.069255093254359121 -0.33097511337982499 0 -0.060583051341125321 -0.35874514113417633 0 -0.069735158343403519 -0.37216849695563448 0 -0.080642175827564569 -0.36182726619275268 0 -0.075878470944038934 -0.38073320206582367 0 -0.069735158343403519 -0.37216849695563448 0 -0.080642175827564569 -0.36182726619275268 0 -0.060583051341125321 -0.35874514113417633 0 -0.069735158343403519 -0.37216849695563448 0 -0.060583051341125321 -0.35874514113417633 0 -0.063799252690434766 -0.38051946851676371 0 -0.080642175827564569 -0.36182726619275268 0 -0.075878470944038934 -0.38073320206582367 0 -0.080642175827564569 -0.36182726619275268 0 -0.087283908925451292 -0.37226785258465139 0 -0.075878470944038934 -0.38073320206582367 0 -0.095738970808133178 -0.36601907424173852 0 -0.087283908925451292 -0.37226785258465139 0 -0.096366313343482321 -0.38036343816629647 0 -0.095738970808133178 -0.36601907424173852 0 -0.095533593003616024 -0.35359166308290302 0 -0.080642175827564569 -0.36182726619275268 0 -0.095738970808133178 -0.36601907424173852 0 -0.080642175827564569 -0.36182726619275268 0 -0.087283908925451292 -0.37226785258465139 0 -0.086703903286726197 -0.33776980809553209 0 -0.080642175827564569 -0.36182726619275268 0 -0.086703903286726197 -0.33776980809553209 0 -0.074296055927443788 -0.34732933220057149 0 -0.080642175827564569 -0.36182726619275268 0 -0.095533593003616024 -0.35359166308290302 0 -0.086703903286726197 -0.33776980809553209 0 -0.080642175827564569 -0.36182726619275268 0 -0.096036871119177095 -0.25634881738357052 0 -0.1096444601012021 -0.26065043818009997 0 -0.1024732368110919 -0.27653067110203222 0 -0.096036871119177095 -0.25634881738357052 0 -0.1096444601012021 -0.26065043818009997 0 -0.1087023929305591 -0.24575936891010619 0 -0.12275815006185969 -0.25761869203139598 0 -0.1096444601012021 -0.26065043818009997 0 -0.1087023929305591 -0.24575936891010619 0 -0.12275815006185969 -0.25761869203139598 0 -0.1096444601012021 -0.26065043818009997 0 -0.1191187129455763 -0.27606003348986202 0 -0.1096444601012021 -0.26065043818009997 0 -0.1191187129455763 -0.27606003348986202 0 -0.1024732368110919 -0.27653067110203222 0 -0.096036871119177095 -0.25634881738357052 0 -0.1024732368110919 -0.27653067110203222 0 -0.086599177080826886 -0.27543505787112199 0 -0.1024732368110919 -0.27653067110203222 0 -0.094546944456763093 -0.29672375585563587 0 -0.086599177080826886 -0.27543505787112199 0 -0.1024732368110919 -0.27653067110203222 0 -0.094546944456763093 -0.29672375585563587 0 -0.1088932551630062 -0.29396592383190329 0 -0.12977354104693661 -0.28554722818437678 0 -0.1191187129455763 -0.27606003348986202 0 -0.1222774803296154 -0.29483958572579161 0 -0.1191187129455763 -0.27606003348986202 0 -0.1024732368110919 -0.27653067110203222 0 -0.1088932551630062 -0.29396592383190329 0 -0.1191187129455763 -0.27606003348986202 0 -0.1088932551630062 -0.29396592383190329 0 -0.1222774803296154 -0.29483958572579161 0 -0.1088932551630062 -0.29396592383190329 0 -0.1190213585810594 -0.30565280333975048 0 -0.1068182228978866 -0.31027097921747321 0 -0.1088932551630062 -0.29396592383190329 0 -0.1222774803296154 -0.29483958572579161 0 -0.1190213585810594 -0.30565280333975048 0 -0.13357045237283349 -0.29913522616234661 0 -0.1222774803296154 -0.29483958572579161 0 -0.1190213585810594 -0.30565280333975048 0 -0.1207477769855493 -0.31991717986543089 0 -0.1190213585810594 -0.30565280333975048 0 -0.1068182228978866 -0.31027097921747321 0 -0.092765630745887853 -0.31371234999831138 0 -0.094546944456763093 -0.29672375585563587 0 -0.1068182228978866 -0.31027097921747321 0 -0.094546944456763093 -0.29672375585563587 0 -0.1088932551630062 -0.29396592383190329 0 -0.1068182228978866 -0.31027097921747321 0 -0.092765630745887853 -0.31371234999831138 0 -0.094546944456763093 -0.29672375585563587 0 -0.077927135167593004 -0.30320508562547349 0 -0.077927135167593004 -0.30320508562547349 0 -0.065097304685888466 -0.29198451374351742 0 -0.061716067288840271 -0.31011417643116629 0 -0.077927135167593004 -0.30320508562547349 0 -0.065097304685888466 -0.29198451374351742 0 -0.086599177080826886 -0.27543505787112199 0 -0.094546944456763093 -0.29672375585563587 0 -0.077927135167593004 -0.30320508562547349 0 -0.086599177080826886 -0.27543505787112199 0 -0.077927135167593004 -0.30320508562547349 0 -0.086599177080826886 -0.27543505787112199 0 -0.086599177080826886 -0.27543505787112199 0 -0.064882790274702368 -0.2762100142505946 0 -0.068994526900409914 -0.2628150113923991 0 -0.064882790274702368 -0.2762100142505946 0 -0.068994526900409914 -0.2628150113923991 0 -0.053789020666314968 -0.25831114472560268 0 -0.065097304685888466 -0.29198451374351742 0 -0.086599177080826886 -0.27543505787112199 0 -0.064882790274702368 -0.2762100142505946 0 -0.068994526900409914 -0.2628150113923991 0 -0.053789020666314968 -0.25831114472560268 0 -0.069354248986417039 -0.24986922427479361 0 -0.080970802639528189 -0.25714235240685918 0 -0.083161105180478506 -0.24777117505195931 0 -0.069354248986417039 -0.24986922427479361 0 -0.068994526900409914 -0.2628150113923991 0 -0.080970802639528189 -0.25714235240685918 0 -0.069354248986417039 -0.24986922427479361 0 -0.086599177080826886 -0.27543505787112199 0 -0.068994526900409914 -0.2628150113923991 0 -0.080970802639528189 -0.25714235240685918 0 -0.096036871119177095 -0.25634881738357052 0 -0.086599177080826886 -0.27543505787112199 0 -0.080970802639528189 -0.25714235240685918 0 -0.096036871119177095 -0.25634881738357052 0 -0.080970802639528189 -0.25714235240685918 0 -0.083161105180478506 -0.24777117505195931 0 -0.038053548764808737 -0.26140704825687983 0 -0.04618549483822789 -0.25040962026526192 0 -0.037026263035115803 -0.2455232766625722 0 -0.038053548764808737 -0.26140704825687983 0 -0.04618549483822789 -0.25040962026526192 0 -0.053789020666314968 -0.25831114472560268 0 -0.038053548764808737 -0.26140704825687983 0 -0.02671910463718637 -0.25361334643031169 0 -0.037026263035115803 -0.2455232766625722 0 -0.04618549483822789 -0.25040962026526192 0 -0.053789020666314968 -0.25831114472560268 0 -0.056088383474936929 -0.24485817140682159 0 -0.053789020666314968 -0.25831114472560268 0 -0.056088383474936929 -0.24485817140682159 0 -0.069354248986417039 -0.24986922427479361 0 -0.064882790274702368 -0.2762100142505946 0 -0.053789020666314968 -0.25831114472560268 0 -0.047204535493374847 -0.27908731558968641 0 -0.038053548764808737 -0.26140704825687983 0 -0.053789020666314968 -0.25831114472560268 0 -0.047204535493374847 -0.27908731558968641 0 -0.038053548764808737 -0.26140704825687983 0 -0.047204535493374847 -0.27908731558968641 0 -0.030505484383701618 -0.27595514193124659 0 -0.047204535493374847 -0.27908731558968641 0 -0.036989088527444987 -0.29164144891732952 0 -0.050742590417224148 -0.3005183637837604 0 -0.047204535493374847 -0.27908731558968641 0 -0.036989088527444987 -0.29164144891732952 0 -0.030505484383701618 -0.27595514193124659 0 -0.065097304685888466 -0.29198451374351742 0 -0.064882790274702368 -0.2762100142505946 0 -0.047204535493374847 -0.27908731558968641 0 -0.065097304685888466 -0.29198451374351742 0 -0.047204535493374847 -0.27908731558968641 0 -0.050742590417224148 -0.3005183637837604 0 -0.065097304685888466 -0.29198451374351742 0 -0.061716067288840271 -0.31011417643116629 0 -0.050742590417224148 -0.3005183637837604 0 -0.061716067288840271 -0.31011417643116629 0 -0.050742590417224148 -0.3005183637837604 0 -0.04541376219352794 -0.32318663313574592 0 -0.050742590417224148 -0.3005183637837604 0 -0.028349692953982351 -0.30733549408196709 0 -0.04541376219352794 -0.32318663313574592 0 -0.036989088527444987 -0.29164144891732952 0 -0.050742590417224148 -0.3005183637837604 0 -0.028349692953982351 -0.30733549408196709 0 -0.050742590417224148 -0.3005183637837604 0 -0.028349692953982351 -0.30733549408196709 0 -0.028349692953982351 -0.30733549408196709 0 -0.0059567954907406356 -0.31415262438017377 0 -0.028349692953982351 -0.30733549408196709 0 -0.01478164667245411 -0.29912163559310512 0 -0.0059567954907406356 -0.31415262438017377 0 -0.028349692953982351 -0.30733549408196709 0 -0.01478164667245411 -0.29912163559310512 0 -0.022732430066012999 -0.28646876698280432 0 -0.001658291402832203 -0.29782421469986192 0 -0.0059567954907406356 -0.31415262438017377 0 0.0041958668063563371 -0.307640622600581 0 -0.001658291402832203 -0.29782421469986192 0 -0.01478164667245411 -0.29912163559310512 0 -0.0059567954907406356 -0.31415262438017377 0 -0.001658291402832203 -0.29782421469986192 0 -0.01478164667245411 -0.29912163559310512 0 -0.01098887548766502 -0.28788869494940728 0 -0.001658291402832203 -0.29782421469986192 0 -0.01098887548766502 -0.28788869494940728 0 -0.0018933533600431129 -0.28046667749116883 0 -0.01098887548766502 -0.28788869494940728 0 -0.022732430066012999 -0.28646876698280432 0 -0.013143216177046139 -0.27253145335338741 0 -0.036989088527444987 -0.29164144891732952 0 -0.022732430066012999 -0.28646876698280432 0 -0.030505484383701618 -0.27595514193124659 0 -0.036989088527444987 -0.29164144891732952 0 -0.028349692953982351 -0.30733549408196709 0 -0.022732430066012999 -0.28646876698280432 0 -0.01478164667245411 -0.29912163559310512 0 -0.01098887548766502 -0.28788869494940728 0 -0.022732430066012999 -0.28646876698280432 0 -0.030505484383701618 -0.27595514193124659 0 -0.013143216177046139 -0.27253145335338741 0 -0.024910087273522039 -0.26459481848739258 0 -0.022732430066012999 -0.28646876698280432 0 -0.030505484383701618 -0.27595514193124659 0 -0.013143216177046139 -0.27253145335338741 0 -0.038053548764808737 -0.26140704825687983 0 -0.030505484383701618 -0.27595514193124659 0 -0.024910087273522039 -0.26459481848739258 0 -0.01098887548766502 -0.28788869494940728 0 -0.0018933533600431129 -0.28046667749116883 0 -0.013143216177046139 -0.27253145335338741 0 -0.0018933533600431129 -0.28046667749116883 0 -0.013143216177046139 -0.27253145335338741 0 0.00043718057657325931 -0.27070861411802111 0 -0.013143216177046139 -0.27253145335338741 0 -0.0023769070460768161 -0.25944029114748868 0 0.00043718057657325931 -0.27070861411802111 0 -0.013143216177046139 -0.27253145335338741 0 -0.01483345629724947 -0.25905712350619953 0 -0.0023769070460768161 -0.25944029114748868 0 -0.01483345629724947 -0.25905712350619953 0 -0.0023769070460768161 -0.25944029114748868 0 -0.0050609087585187914 -0.24448965595804831 0 -0.01483345629724947 -0.25905712350619953 0 -0.017653692761977959 -0.24750206074588749 0 -0.0050609087585187914 -0.24448965595804831 0 -0.01483345629724947 -0.25905712350619953 0 -0.02671910463718637 -0.25361334643031169 0 -0.017653692761977959 -0.24750206074588749 0 -0.013143216177046139 -0.27253145335338741 0 -0.01483345629724947 -0.25905712350619953 0 -0.024910087273522039 -0.26459481848739258 0 -0.01483345629724947 -0.25905712350619953 0 -0.024910087273522039 -0.26459481848739258 0 -0.02671910463718637 -0.25361334643031169 0 -0.038053548764808737 -0.26140704825687983 0 -0.024910087273522039 -0.26459481848739258 0 -0.02671910463718637 -0.25361334643031169 0 -0.044346776091072737 -0.3599797216460533 0 -0.049858073189288817 -0.34232811264571072 0 -0.030728177089603501 -0.34341470092639648 0 -0.044346776091072737 -0.3599797216460533 0 -0.030728177089603501 -0.34341470092639648 0 -0.028653569407454501 -0.36889548463545552 0 -0.044346776091072737 -0.3599797216460533 0 -0.028653569407454501 -0.36889548463545552 0 -0.051911009427891529 -0.38651516888852738 0 -0.060583051341125321 -0.35874514113417633 0 -0.051911009427891529 -0.38651516888852738 0 -0.044346776091072737 -0.3599797216460533 0 -0.060583051341125321 -0.35874514113417633 0 -0.051911009427891529 -0.38651516888852738 0 -0.069255093254359121 -0.33097511337982499 0 -0.060583051341125321 -0.35874514113417633 0 -0.049858073189288817 -0.34232811264571072 0 -0.044346776091072737 -0.3599797216460533 0 -0.060583051341125321 -0.35874514113417633 0 -0.049858073189288817 -0.34232811264571072 0 -0.069255093254359121 -0.33097511337982499 0 -0.049858073189288817 -0.34232811264571072 0 -0.04541376219352794 -0.32318663313574592 0 -0.069255093254359121 -0.33097511337982499 0 -0.061716067288840271 -0.31011417643116629 0 -0.04541376219352794 -0.32318663313574592 0 -0.028349692953982351 -0.30733549408196709 0 -0.04541376219352794 -0.32318663313574592 0 -0.02056631902245077 -0.32761302404610387 0 -0.049858073189288817 -0.34232811264571072 0 -0.04541376219352794 -0.32318663313574592 0 -0.030728177089603501 -0.34341470092639648 0 -0.04541376219352794 -0.32318663313574592 0 -0.030728177089603501 -0.34341470092639648 0 -0.02056631902245077 -0.32761302404610387 0 -0.030728177089603501 -0.34341470092639648 0 -0.02056631902245077 -0.32761302404610387 0 -0.01223917899233096 -0.34951788546234519 0 -0.028349692953982351 -0.30733549408196709 0 -0.02056631902245077 -0.32761302404610387 0 -0.0059567954907406356 -0.31415262438017377 0 -0.02056631902245077 -0.32761302404610387 0 -0.0059567954907406356 -0.31415262438017377 0 -0.00018658340215797691 -0.33538528199099882 0 -0.02056631902245077 -0.32761302404610387 0 -0.00018658340215797691 -0.33538528199099882 0 -0.01223917899233096 -0.34951788546234519 0 -0.00018658340215797691 -0.33538528199099882 0 -0.01223917899233096 -0.34951788546234519 0 0.0055230265944788276 -0.35663431609733032 0 -0.01223917899233096 -0.34951788546234519 0 -0.0073527707683874628 -0.36700998164504728 0 0.0055230265944788276 -0.35663431609733032 0 -0.030728177089603501 -0.34341470092639648 0 -0.01223917899233096 -0.34951788546234519 0 -0.028653569407454501 -0.36889548463545552 0 -0.01223917899233096 -0.34951788546234519 0 -0.028653569407454501 -0.36889548463545552 0 -0.0073527707683874628 -0.36700998164504728 0 -0.028653569407454501 -0.36889548463545552 0 -0.0073527707683874628 -0.36700998164504728 0 -0.012292794881639009 -0.38408514781425918 0 -0.0073527707683874628 -0.36700998164504728 0 -0.012292794881639009 -0.38408514781425918 0 0.0094178782718157012 -0.37623746945321768 0 -0.012292794881639009 -0.38408514781425918 0 0.0094178782718157012 -0.37623746945321768 0 0.0026077901979910151 -0.3937155129803267 0 -0.011597975103927471 -0.39921267440386449 0 -0.0021544753678095999 -0.40784943556256648 0 0.0026077901979910151 -0.3937155129803267 0 -0.012292794881639009 -0.38408514781425918 0 -0.011597975103927471 -0.39921267440386449 0 0.0026077901979910151 -0.3937155129803267 0 -0.012292794881639009 -0.38408514781425918 0 -0.011597975103927471 -0.39921267440386449 0 -0.030333108536431942 -0.39749907856961142 0 -0.011597975103927471 -0.39921267440386449 0 -0.030333108536431942 -0.39749907856961142 0 -0.015817286931747821 -0.41291419709255861 0 -0.028653569407454501 -0.36889548463545552 0 -0.012292794881639009 -0.38408514781425918 0 -0.030333108536431942 -0.39749907856961142 0 -0.028653569407454501 -0.36889548463545552 0 -0.030333108536431942 -0.39749907856961142 0 -0.051911009427891529 -0.38651516888852738 0 -0.030333108536431942 -0.39749907856961142 0 -0.051911009427891529 -0.38651516888852738 0 -0.043238967514657722 -0.41428519664287872 0 -0.051911009427891529 -0.38651516888852738 0 -0.043238967514657722 -0.41428519664287872 0 -0.063515185679177563 -0.39588903593776242 0 -0.051911009427891529 -0.38651516888852738 0 -0.043238967514657722 -0.41428519664287872 0 -0.051911009427891529 -0.38651516888852738 0 -0.063799252690434766 -0.38051946851676371 0 -0.063515185679177563 -0.39588903593776242 0 -0.060583051341125321 -0.35874514113417633 0 -0.051911009427891529 -0.38651516888852738 0 -0.063799252690434766 -0.38051946851676371 0 -0.043238967514657722 -0.41428519664287872 0 -0.052162461130084922 -0.44032696311962921 0 -0.065319404463804964 -0.42909252783173479 0 -0.043238967514657722 -0.41428519664287872 0 -0.063515185679177563 -0.39588903593776242 0 -0.068518720909241368 -0.40994218238719382 0 -0.043238967514657722 -0.41428519664287872 0 -0.068518720909241368 -0.40994218238719382 0 -0.065319404463804964 -0.42909252783173479 0 -0.043238967514657722 -0.41428519664287872 0 -0.034566925601423923 -0.44205522439723 0 -0.052162461130084922 -0.44032696311962921 0 -0.043238967514657722 -0.41428519664287872 0 -0.024862703622458879 -0.42769665181648558 0 -0.034566925601423923 -0.44205522439723 0 -0.043238967514657722 -0.41428519664287872 0 -0.034566925601423923 -0.44205522439723 0 -0.024862703622458879 -0.42769665181648558 0 -0.0118329688184439 -0.43912322355566391 0 -0.02267887125344455 -0.44400420826011172 0 -0.024862703622458879 -0.42769665181648558 0 -0.015817286931747821 -0.41291419709255861 0 -0.01224035345367059 -0.42716049895332142 0 -0.024862703622458879 -0.42769665181648558 0 -0.01224035345367059 -0.42716049895332142 0 -0.0118329688184439 -0.43912322355566391 0 -0.043238967514657722 -0.41428519664287872 0 -0.024862703622458879 -0.42769665181648558 0 -0.015817286931747821 -0.41291419709255861 0 -0.030333108536431942 -0.39749907856961142 0 -0.043238967514657722 -0.41428519664287872 0 -0.015817286931747821 -0.41291419709255861 0 -0.011597975103927471 -0.39921267440386449 0 -0.015817286931747821 -0.41291419709255861 0 -0.0021544753678095999 -0.40784943556256648 0 -0.015817286931747821 -0.41291419709255861 0 -0.001601110338014082 -0.42097589615010578 0 -0.01224035345367059 -0.42716049895332142 0 -0.015817286931747821 -0.41291419709255861 0 -0.001601110338014082 -0.42097589615010578 0 -0.0021544753678095999 -0.40784943556256648 0 -0.001601110338014082 -0.42097589615010578 0 -0.01224035345367059 -0.42716049895332142 0 0.00088915341899545048 -0.43615426505860788 0 -0.01224035345367059 -0.42716049895332142 0 -0.0118329688184439 -0.43912322355566391 0 0.00088915341899545048 -0.43615426505860788 0 -0.0118329688184439 -0.43912322355566391 0 -0.0026670013933727068 -0.44670431023323709 0 0.00088915341899545048 -0.43615426505860788 0 -0.0118329688184439 -0.43912322355566391 0 -0.01228573866940167 -0.45073880728240567 0 -0.02267887125344455 -0.44400420826011172 0 -0.0118329688184439 -0.43912322355566391 0 -0.01228573866940167 -0.45073880728240567 0 -0.0026670013933727068 -0.44670431023323709 0 -0.01228573866940167 -0.45073880728240567 0 -0.0026670013933727068 -0.44670431023323709 0 -0.0034812919805265671 -0.45296449102686642 0 -0.0026670013933727068 -0.44670431023323709 0 -0.0034812919805265671 -0.45296449102686642 0 0.0021011584974573948 -0.45182517477826251 0 -0.002347703866505482 -0.45999088199490612 0 -0.0062631933699878028 -0.46411406759441309 0 -0.029846019555494291 -0.46040713424877278 0 -0.01228573866940167 -0.45073880728240567 0 -0.0034812919805265671 -0.45296449102686642 0 -0.002347703866505482 -0.45999088199490612 0 -0.01228573866940167 -0.45073880728240567 0 -0.002347703866505482 -0.45999088199490612 0 -0.029846019555494291 -0.46040713424877278 0 -0.0034812919805265671 -0.45296449102686642 0 -0.002347703866505482 -0.45999088199490612 0 0.0021011584974573948 -0.45182517477826251 0 -0.0062631933699878028 -0.46411406759441309 0 -0.029846019555494291 -0.46040713424877278 0 -0.02098434229454978 -0.47266052848335682 0 -0.0062631933699878028 -0.46411406759441309 0 -0.029846019555494291 -0.46040713424877278 0 -0.002347703866505482 -0.45999088199490612 0 -0.029846019555494291 -0.46040713424877278 0 -0.01228573866940167 -0.45073880728240567 0 -0.029846019555494291 -0.46040713424877278 0 -0.02267887125344455 -0.44400420826011172 0 -0.029846019555494291 -0.46040713424877278 0 -0.02267887125344455 -0.44400420826011172 0 -0.034566925601423923 -0.44205522439723 0 -0.024862703622458879 -0.42769665181648558 0 -0.02267887125344455 -0.44400420826011172 0 -0.034566925601423923 -0.44205522439723 0 -0.0040708438948800496 -0.5 0 -0.009457877438559463 -0.47543664792432039 0 0.0030783257516484299 -0.48155330781822908 0 -0.0040708438948800496 -0.5 0 -0.009457877438559463 -0.47543664792432039 0 -0.02080631460400036 -0.48452504677594271 0 -0.0062631933699878028 -0.46411406759441309 0 -0.009457877438559463 -0.47543664792432039 0 0.00103595329040903 -0.47221624115264649 0 -0.009457877438559463 -0.47543664792432039 0 0.0030783257516484299 -0.48155330781822908 0 0.00103595329040903 -0.47221624115264649 0 -0.0062631933699878028 -0.46411406759441309 0 -0.009457877438559463 -0.47543664792432039 0 -0.02098434229454978 -0.47266052848335682 0 -0.029846019555494291 -0.46040713424877278 0 -0.02098434229454978 -0.47266052848335682 0 -0.038548306504706899 -0.47881974587333492 0 -0.02098434229454978 -0.47266052848335682 0 -0.02080631460400036 -0.48452504677594271 0 -0.038548306504706899 -0.47881974587333492 0 -0.009457877438559463 -0.47543664792432039 0 -0.02098434229454978 -0.47266052848335682 0 -0.02080631460400036 -0.48452504677594271 0 -0.0040708438948800496 -0.5 0 -0.02080631460400036 -0.48452504677594271 0 -0.032302260259275288 -0.5 0 -0.02080631460400036 -0.48452504677594271 0 -0.032302260259275288 -0.5 0 -0.038548306504706899 -0.47881974587333492 0 -0.032302260259275288 -0.5 0 -0.038548306504706899 -0.47881974587333492 0 -0.060533676623670429 -0.5 0 -0.038548306504706899 -0.47881974587333492 0 -0.058928930807331442 -0.47619931511622782 0 -0.048987288436872369 -0.46069688277024012 0 -0.038548306504706899 -0.47881974587333492 0 -0.058928930807331442 -0.47619931511622782 0 -0.060533676623670429 -0.5 0 -0.034566925601423923 -0.44205522439723 0 -0.052627412948902219 -0.45682617638707002 0 -0.052162461130084922 -0.44032696311962921 0 -0.029846019555494291 -0.46040713424877278 0 -0.034566925601423923 -0.44205522439723 0 -0.052627412948902219 -0.45682617638707002 0 -0.029846019555494291 -0.46040713424877278 0 -0.048987288436872369 -0.46069688277024012 0 -0.029846019555494291 -0.46040713424877278 0 -0.052627412948902219 -0.45682617638707002 0 -0.029846019555494291 -0.46040713424877278 0 -0.038548306504706899 -0.47881974587333492 0 -0.048987288436872369 -0.46069688277024012 0 -0.029846019555494291 -0.46040713424877278 0 -0.052627412948902219 -0.45682617638707002 0 -0.048987288436872369 -0.46069688277024012 0 -0.048987288436872369 -0.46069688277024012 0 -0.068128557318250405 -0.46098663129170903 0 -0.058928930807331442 -0.47619931511622782 0 -0.048987288436872369 -0.46069688277024012 0 -0.068128557318250405 -0.46098663129170903 0 -0.052627412948902219 -0.45682617638707002 0 -0.048987288436872369 -0.46069688277024012 0 -0.068128557318250405 -0.46098663129170903 0 -0.052627412948902219 -0.45682617638707002 0 -0.065846189527558815 -0.45667181520189443 0 -0.068128557318250405 -0.46098663129170903 0 -0.052627412948902219 -0.45682617638707002 0 -0.052162461130084922 -0.44032696311962921 0 -0.075408806342310064 -0.45324521852536698 0 -0.052162461130084922 -0.44032696311962921 0 -0.075408806342310064 -0.45324521852536698 0 -0.065319404463804964 -0.42909252783173479 0 -0.075408806342310064 -0.45324521852536698 0 -0.065319404463804964 -0.42909252783173479 0 -0.07995448651059768 -0.43564612770114619 0 -0.068128557318250405 -0.46098663129170903 0 -0.075250078042331775 -0.46109443240526993 0 -0.078446825153157665 -0.48049331564585479 0 -0.052627412948902219 -0.45682617638707002 0 -0.065846189527558815 -0.45667181520189443 0 -0.075408806342310064 -0.45324521852536698 0 -0.065846189527558815 -0.45667181520189443 0 -0.068128557318250405 -0.46098663129170903 0 -0.075408806342310064 -0.45324521852536698 0 -0.052627412948902219 -0.45682617638707002 0 -0.075408806342310064 -0.45324521852536698 0 -0.065846189527558815 -0.45667181520189443 0 -0.068128557318250405 -0.46098663129170903 0 -0.068128557318250405 -0.46098663129170903 0 -0.075250078042331775 -0.46109443240526993 0 -0.068128557318250405 -0.46098663129170903 0 -0.075250078042331775 -0.46109443240526993 0 -0.075408806342310064 -0.45324521852536698 0 -0.075408806342310064 -0.45324521852536698 0 -0.091508836137816185 -0.46725533219134652 0 -0.098190199735717937 -0.44966426066366388 0 -0.075250078042331775 -0.46109443240526993 0 -0.075408806342310064 -0.45324521852536698 0 -0.091508836137816185 -0.46725533219134652 0 -0.075408806342310064 -0.45324521852536698 0 -0.098190199735717937 -0.44966426066366388 0 -0.07995448651059768 -0.43564612770114619 0 -0.075408806342310064 -0.45324521852536698 0 -0.098190199735717937 -0.44966426066366388 0 -0.060533676623670429 -0.5 0 -0.078446825153157665 -0.48049331564585479 0 -0.088765092988065564 -0.50000000000000022 0 -0.058928930807331442 -0.47619931511622782 0 -0.060533676623670429 -0.5 0 -0.078446825153157665 -0.48049331564585479 0 -0.068128557318250405 -0.46098663129170903 0 -0.078446825153157665 -0.48049331564585479 0 -0.058928930807331442 -0.47619931511622782 0 -0.068128557318250405 -0.46098663129170903 0 -0.078446825153157665 -0.48049331564585479 0 -0.075250078042331775 -0.46109443240526993 0 -0.091508836137816185 -0.46725533219134652 0 -0.078446825153157665 -0.48049331564585479 0 -0.091508836137816185 -0.46725533219134652 0 -0.078446825153157665 -0.48049331564585479 0 -0.094455028644722897 -0.48215215226893537 0 -0.078446825153157665 -0.48049331564585479 0 -0.088765092988065564 -0.50000000000000022 0 -0.094455028644722897 -0.48215215226893537 0 -0.078446825153157665 -0.48049331564585479 0 -0.088765092988065564 -0.50000000000000022 0 -0.088765092988065564 -0.50000000000000022 0 -0.119318990882151 -0.5 0 -0.1094814218226537 -0.48754392231146387 0 -0.088765092988065564 -0.50000000000000022 0 -0.094455028644722897 -0.48215215226893537 0 -0.1094814218226537 -0.48754392231146387 0 -0.091508836137816185 -0.46725533219134652 0 -0.10356093410382709 -0.47564059048030582 0 -0.1152265074758895 -0.46681361255671178 0 -0.094455028644722897 -0.48215215226893537 0 -0.10356093410382709 -0.47564059048030582 0 -0.1094814218226537 -0.48754392231146387 0 -0.091508836137816185 -0.46725533219134652 0 -0.094455028644722897 -0.48215215226893537 0 -0.10356093410382709 -0.47564059048030582 0 -0.10356093410382709 -0.47564059048030582 0 -0.1094814218226537 -0.48754392231146387 0 -0.1152265074758895 -0.46681361255671178 0 -0.12557641315546761 -0.47775406968757211 0 -0.1094814218226537 -0.48754392231146387 0 -0.1152265074758895 -0.46681361255671178 0 -0.1094814218226537 -0.48754392231146387 0 -0.1152265074758895 -0.46681361255671178 0 -0.12557641315546761 -0.47775406968757211 0 -0.119318990882151 -0.5 0 -0.1094814218226537 -0.48754392231146387 0 -0.098190199735717937 -0.44966426066366388 0 -0.1209715931291258 -0.44608330280195979 0 -0.1051760692692979 -0.4311993213449144 0 -0.091508836137816185 -0.46725533219134652 0 -0.098190199735717937 -0.44966426066366388 0 -0.1152265074758895 -0.46681361255671178 0 -0.12725453073383031 -0.46040420120067788 0 -0.1152265074758895 -0.46681361255671178 0 -0.1209715931291258 -0.44608330280195979 0 -0.12725453073383031 -0.46040420120067788 0 -0.12557641315546761 -0.47775406968757211 0 -0.1152265074758895 -0.46681361255671178 0 -0.098190199735717937 -0.44966426066366388 0 -0.1152265074758895 -0.46681361255671178 0 -0.1209715931291258 -0.44608330280195979 0 -0.1152265074758895 -0.46681361255671178 0 -0.1209715931291258 -0.44608330280195979 0 -0.098190199735717937 -0.44966426066366388 0 -0.1209715931291258 -0.44608330280195979 0 -0.1281068078561492 -0.42033691355977781 0 -0.1209715931291258 -0.44608330280195979 0 -0.1166422924281777 -0.42793349762982852 0 -0.1051760692692979 -0.4311993213449144 0 -0.1123146994581372 -0.4141144528126609 0 -0.1281068078561492 -0.42033691355977781 0 -0.1209715931291258 -0.44608330280195979 0 -0.1166422924281777 -0.42793349762982852 0 -0.1209715931291258 -0.44608330280195979 0 -0.1166422924281777 -0.42793349762982852 0 -0.1051760692692979 -0.4311993213449144 0 -0.098190199735717937 -0.44966426066366388 0 -0.1051760692692979 -0.4311993213449144 0 -0.091635327336938632 -0.42685028775260059 0 -0.1051760692692979 -0.4311993213449144 0 -0.097615997619852929 -0.41598519555245889 0 -0.091635327336938632 -0.42685028775260059 0 -0.1051760692692979 -0.4311993213449144 0 -0.097615997619852929 -0.41598519555245889 0 -0.1123146994581372 -0.4141144528126609 0 -0.097615997619852929 -0.41598519555245889 0 -0.1123146994581372 -0.4141144528126609 0 -0.098613907479184776 -0.40526870877508703 0 -0.1123146994581372 -0.4141144528126609 0 -0.1081968570404286 -0.4004525816128755 0 -0.098613907479184776 -0.40526870877508703 0 -0.1123146994581372 -0.4141144528126609 0 -0.11505248589157881 -0.4045874850253311 0 -0.1081968570404286 -0.4004525816128755 0 -0.1281068078561492 -0.42033691355977781 0 -0.1123146994581372 -0.4141144528126609 0 -0.1238949754790693 -0.40405207535761578 0 -0.1123146994581372 -0.4141144528126609 0 -0.1238949754790693 -0.40405207535761578 0 -0.11505248589157881 -0.4045874850253311 0 -0.1281068078561492 -0.42033691355977781 0 -0.1166422924281777 -0.42793349762982852 0 -0.1123146994581372 -0.4141144528126609 0 -0.1238949754790693 -0.40405207535761578 0 -0.11532200311750369 -0.39760402813869999 0 -0.11968314310199001 -0.38776723715545369 0 -0.12712275605433601 -0.39520900375222628 0 -0.1238949754790693 -0.40405207535761578 0 -0.11968314310199001 -0.38776723715545369 0 -0.1238949754790693 -0.40405207535761578 0 -0.11532200311750369 -0.39760402813869999 0 -0.11505248589157881 -0.4045874850253311 0 -0.1238949754790693 -0.40405207535761578 0 -0.11968314310199001 -0.38776723715545369 0 -0.11532200311750369 -0.39760402813869999 0 -0.11968314310199001 -0.38776723715545369 0 -0.10948167377996661 -0.38983151018005407 0 -0.11532200311750369 -0.39760402813869999 0 -0.10948167377996661 -0.38983151018005407 0 -0.1081968570404286 -0.4004525816128755 0 -0.11532200311750369 -0.39760402813869999 0 -0.11505248589157881 -0.4045874850253311 0 -0.1081968570404286 -0.4004525816128755 0 -0.13781369823175171 -0.37932986731501922 0 -0.1132201827002137 -0.36823359862451199 0 -0.117090005787617 -0.37984665274065649 0 -0.1312159761628823 -0.38885093340404592 0 -0.11968314310199001 -0.38776723715545369 0 -0.117090005787617 -0.37984665274065649 0 -0.11968314310199001 -0.38776723715545369 0 -0.10948167377996661 -0.38983151018005407 0 -0.117090005787617 -0.37984665274065649 0 -0.117090005787617 -0.37984665274065649 0 -0.096366313343482321 -0.38036343816629647 0 -0.1132201827002137 -0.36823359862451199 0 -0.117090005787617 -0.37984665274065649 0 -0.096366313343482321 -0.38036343816629647 0 -0.10948167377996661 -0.38983151018005407 0 -0.117090005787617 -0.37984665274065649 0 -0.096366313343482321 -0.38036343816629647 0 -0.10948167377996661 -0.38983151018005407 0 -0.096366313343482321 -0.38036343816629647 0 -0.10041262075794399 -0.39473341281352348 0 -0.096366313343482321 -0.38036343816629647 0 -0.10041262075794399 -0.39473341281352348 0 -0.0894012581436123 -0.39831712202478342 0 -0.1081968570404286 -0.4004525816128755 0 -0.10041262075794399 -0.39473341281352348 0 -0.098613907479184776 -0.40526870877508703 0 -0.10948167377996661 -0.38983151018005407 0 -0.1081968570404286 -0.4004525816128755 0 -0.10041262075794399 -0.39473341281352348 0 -0.10041262075794399 -0.39473341281352348 0 -0.098613907479184776 -0.40526870877508703 0 -0.0894012581436123 -0.39831712202478342 0 -0.098613907479184776 -0.40526870877508703 0 -0.0894012581436123 -0.39831712202478342 0 -0.083724190397594864 -0.41127135677714483 0 -0.096366313343482321 -0.38036343816629647 0 -0.0894012581436123 -0.39831712202478342 0 -0.074772078759020338 -0.39590494943549498 0 -0.0894012581436123 -0.39831712202478342 0 -0.0810799434930395 -0.4025383611867237 0 -0.083724190397594864 -0.41127135677714483 0 -0.0894012581436123 -0.39831712202478342 0 -0.0810799434930395 -0.4025383611867237 0 -0.074772078759020338 -0.39590494943549498 0 -0.096366313343482321 -0.38036343816629647 0 -0.074772078759020338 -0.39590494943549498 0 -0.096366313343482321 -0.38036343816629647 0 -0.075878470944038934 -0.38073320206582367 0 -0.096366313343482321 -0.38036343816629647 0 -0.074580448368402968 -0.38588472428997328 0 -0.074772078759020338 -0.39590494943549498 0 -0.087283908925451292 -0.37226785258465139 0 -0.096366313343482321 -0.38036343816629647 0 -0.075878470944038934 -0.38073320206582367 0 -0.096366313343482321 -0.38036343816629647 0 -0.075878470944038934 -0.38073320206582367 0 -0.074580448368402968 -0.38588472428997328 0 -0.069735158343403519 -0.37216849695563448 0 -0.075878470944038934 -0.38073320206582367 0 -0.074580448368402968 -0.38588472428997328 0 -0.075878470944038934 -0.38073320206582367 0 -0.074580448368402968 -0.38588472428997328 0 -0.074580448368402968 -0.38588472428997328 0 -0.063799252690434766 -0.38051946851676371 0 -0.063515185679177563 -0.39588903593776242 0 -0.069735158343403519 -0.37216849695563448 0 -0.074580448368402968 -0.38588472428997328 0 -0.063799252690434766 -0.38051946851676371 0 -0.074580448368402968 -0.38588472428997328 0 -0.074772078759020338 -0.39590494943549498 0 -0.068518720909241368 -0.40994218238719382 0 -0.074580448368402968 -0.38588472428997328 0 -0.068518720909241368 -0.40994218238719382 0 -0.074580448368402968 -0.38588472428997328 0 -0.063515185679177563 -0.39588903593776242 0 -0.068518720909241368 -0.40994218238719382 0 -0.0810799434930395 -0.4025383611867237 0 -0.074772078759020338 -0.39590494943549498 0 -0.068518720909241368 -0.40994218238719382 0 -0.068518720909241368 -0.40994218238719382 0 -0.065319404463804964 -0.42909252783173479 0 -0.077830425923635496 -0.42256049648996408 0 -0.0810799434930395 -0.4025383611867237 0 -0.068518720909241368 -0.40994218238719382 0 -0.083724190397594864 -0.41127135677714483 0 -0.068518720909241368 -0.40994218238719382 0 -0.077830425923635496 -0.42256049648996408 0 -0.083724190397594864 -0.41127135677714483 0 -0.065319404463804964 -0.42909252783173479 0 -0.077830425923635496 -0.42256049648996408 0 -0.07995448651059768 -0.43564612770114619 0 -0.077830425923635496 -0.42256049648996408 0 -0.07995448651059768 -0.43564612770114619 0 -0.091635327336938632 -0.42685028775260059 0 -0.098190199735717937 -0.44966426066366388 0 -0.07995448651059768 -0.43564612770114619 0 -0.091635327336938632 -0.42685028775260059 0 -0.097615997619852929 -0.41598519555245889 0 -0.091635327336938632 -0.42685028775260059 0 -0.083724190397594864 -0.41127135677714483 0 -0.097615997619852929 -0.41598519555245889 0 -0.098613907479184776 -0.40526870877508703 0 -0.083724190397594864 -0.41127135677714483 0 -0.077830425923635496 -0.42256049648996408 0 -0.091635327336938632 -0.42685028775260059 0 -0.083724190397594864 -0.41127135677714483 0 -0.089548879928329231 -0.093710393150088875 0 -0.083614733862720225 -0.076591009424384279 0 -0.10654865767821781 -0.091883937759532436 0 -0.089548879928329231 -0.093710393150088875 0 -0.079822860299075621 -0.079648639169498228 0 -0.079987985073928611 -0.1078849362616814 0 -0.089548879928329231 -0.093710393150088875 0 -0.079822860299075621 -0.079648639169498228 0 -0.083614733862720225 -0.076591009424384279 0 -0.083614733862720225 -0.076591009424384279 0 -0.079790064831643179 -0.074040622065096789 0 -0.079706050957266156 -0.059674269596838157 0 -0.083614733862720225 -0.076591009424384279 0 -0.1045663416402479 -0.059696390425816967 0 -0.079706050957266156 -0.059674269596838157 0 -0.079790064831643179 -0.074040622065096789 0 -0.079706050957266156 -0.059674269596838157 0 -0.079822860299075621 -0.079648639169498228 0 -0.079790064831643179 -0.074040622065096789 0 -0.079822860299075621 -0.079648639169498228 0 -0.083614733862720225 -0.076591009424384279 0 -0.079790064831643179 -0.074040622065096789 0 -0.083614733862720225 -0.076591009424384279 0 -0.079790064831643179 -0.074040622065096789 0 -0.079822860299075621 -0.079648639169498228 0 -0.083614733862720225 -0.076591009424384279 0 -0.079790064831643179 -0.074040622065096789 0 -0.071108324587963859 -0.075743632967931296 0 -0.065881316434799914 -0.064765912068857845 0 -0.079822860299075621 -0.079648639169498228 0 -0.079790064831643179 -0.074040622065096789 0 -0.071108324587963859 -0.075743632967931296 0 -0.079790064831643179 -0.074040622065096789 0 -0.065881316434799914 -0.064765912068857845 0 -0.079706050957266156 -0.059674269596838157 0 -0.079790064831643179 -0.074040622065096789 0 -0.065881316434799914 -0.064765912068857845 0 -0.065881316434799914 -0.064765912068857845 0 -0.063929853442850362 -0.072683386038222747 0 -0.059476848898936903 -0.067124674102462561 0 -0.065881316434799914 -0.064765912068857845 0 -0.059476848898936903 -0.067124674102462561 0 -0.071108324587963859 -0.075743632967931296 0 -0.065881316434799914 -0.064765912068857845 0 -0.063929853442850362 -0.072683386038222747 0 -0.071108324587963859 -0.075743632967931296 0 -0.063929853442850362 -0.072683386038222747 0 -0.065059717802934666 -0.079302302655448395 0 -0.071108324587963859 -0.075743632967931296 0 -0.065059717802934666 -0.079302302655448395 0 -0.07172876625015806 -0.086175423965541051 0 -0.079822860299075621 -0.079648639169498228 0 -0.07172876625015806 -0.086175423965541051 0 -0.079987985073928611 -0.1078849362616814 0 -0.065059717802934666 -0.079302302655448395 0 -0.07172876625015806 -0.086175423965541051 0 -0.060189477682686482 -0.087723935138946954 0 -0.079822860299075621 -0.079648639169498228 0 -0.07172876625015806 -0.086175423965541051 0 -0.079822860299075621 -0.079648639169498228 0 -0.071108324587963859 -0.075743632967931296 0 -0.07172876625015806 -0.086175423965541051 0 -0.07172876625015806 -0.086175423965541051 0 -0.065632122727269343 -0.097241677229118556 0 -0.060189477682686482 -0.087723935138946954 0 -0.07172876625015806 -0.086175423965541051 0 -0.065632122727269343 -0.097241677229118556 0 -0.079987985073928611 -0.1078849362616814 0 -0.065632122727269343 -0.097241677229118556 0 -0.079987985073928611 -0.1078849362616814 0 -0.05692612213036366 -0.106397908830902 0 -0.079480677129163083 -0.1222829519756167 0 -0.05692612213036366 -0.106397908830902 0 -0.066585048374631195 -0.12870657843384459 0 -0.079480677129163083 -0.1222829519756167 0 -0.079987985073928611 -0.1078849362616814 0 -0.05692612213036366 -0.106397908830902 0 -0.079480677129163083 -0.1222829519756167 0 -0.097511515019495371 -0.1161618035163912 0 -0.093982027244670974 -0.1315104457850988 0 -0.079480677129163083 -0.1222829519756167 0 -0.079987985073928611 -0.1078849362616814 0 -0.097511515019495371 -0.1161618035163912 0 -0.089548879928329231 -0.093710393150088875 0 -0.079987985073928611 -0.1078849362616814 0 -0.097511515019495371 -0.1161618035163912 0 -0.079822860299075621 -0.079648639169498228 0 -0.079987985073928611 -0.1078849362616814 0 -0.097511515019495371 -0.1161618035163912 0 -0.11679916795141 -0.11855651071921181 0 -0.10654865767821781 -0.091883937759532436 0 -0.089548879928329231 -0.093710393150088875 0 -0.097511515019495371 -0.1161618035163912 0 -0.10654865767821781 -0.091883937759532436 0 -0.097511515019495371 -0.1161618035163912 0 -0.11679916795141 -0.11855651071921181 0 -0.1092675985926794 -0.13454554542672961 0 -0.10654865767821781 -0.091883937759532436 0 -0.1307815944379738 -0.092699919988012899 0 -0.12948258149371511 -0.10717686609468061 0 -0.11679916795141 -0.11855651071921181 0 -0.10654865767821781 -0.091883937759532436 0 -0.12948258149371511 -0.10717686609468061 0 -0.10654865767821781 -0.091883937759532436 0 -0.12948258149371511 -0.10717686609468061 0 -0.10654865767821781 -0.091883937759532436 0 -0.1137004948943668 -0.072984887862278761 0 -0.13125558309419269 -0.077369862107999898 0 -0.10654865767821781 -0.091883937759532436 0 -0.13125558309419269 -0.077369862107999898 0 -0.1307815944379738 -0.092699919988012899 0 -0.10654865767821781 -0.091883937759532436 0 -0.1021075570188882 -0.075289056368003121 0 -0.1137004948943668 -0.072984887862278761 0 -0.083614733862720225 -0.076591009424384279 0 -0.10654865767821781 -0.091883937759532436 0 -0.083614733862720225 -0.076591009424384279 0 -0.10654865767821781 -0.091883937759532436 0 -0.1021075570188882 -0.075289056368003121 0 -0.083614733862720225 -0.076591009424384279 0 -0.1045663416402479 -0.059696390425816967 0 -0.083614733862720225 -0.076591009424384279 0 -0.1021075570188882 -0.075289056368003121 0 -0.1045663416402479 -0.059696390425816967 0 -0.1021075570188882 -0.075289056368003121 0 -0.1137004948943668 -0.072984887862278761 0 -0.1045663416402479 -0.059696390425816967 0 -0.1137004948943668 -0.072984887862278761 0 -0.13125558309419269 -0.077369862107999898 0 -0.12619302875418351 -0.060577836074509478 0 -0.1137004948943668 -0.072984887862278761 0 -0.1045663416402479 -0.059696390425816967 0 -0.12619302875418351 -0.060577836074509478 0 -0.10261200018752099 -0.05123802051204418 0 -0.1255179494177758 -0.042801771427249863 0 -0.10261200018752099 -0.05123802051204418 0 -0.1045663416402479 -0.059696390425816967 0 -0.1255179494177758 -0.042801771427249863 0 -0.1045663416402479 -0.059696390425816967 0 -0.1255179494177758 -0.042801771427249863 0 -0.1045663416402479 -0.059696390425816967 0 -0.1255179494177758 -0.042801771427249863 0 -0.12619302875418351 -0.060577836074509478 0 -0.1100678636826246 -0.033240756339674098 0 -0.10261200018752099 -0.05123802051204418 0 -0.1255179494177758 -0.042801771427249863 0 -0.1100678636826246 -0.033240756339674098 0 -0.12307210551450951 -0.027110368717823949 0 -0.1255179494177758 -0.042801771427249863 0 -0.1100678636826246 -0.033240756339674098 0 -0.095421607796595739 -0.032621831957992321 0 -0.10261200018752099 -0.05123802051204418 0 -0.10261200018752099 -0.05123802051204418 0 -0.1045663416402479 -0.059696390425816967 0 -0.079706050957266156 -0.059674269596838157 0 -0.1037156554967214 -0.01243178908326047 0 -0.12794466884393851 -0.002708162334285761 0 -0.12471248911896179 -0.01527569869178381 0 -0.1037156554967214 -0.01243178908326047 0 -0.12794466884393851 -0.002708162334285761 0 -0.1037156554967214 -0.01243178908326047 0 -0.12794466884393851 -0.002708162334285761 0 -0.1123354336913058 0.0013520760706568159 0 -0.12471248911896179 -0.01527569869178381 0 -0.12307210551450951 -0.027110368717823949 0 -0.1037156554967214 -0.01243178908326047 0 -0.1100678636826246 -0.033240756339674098 0 -0.12307210551450951 -0.027110368717823949 0 -0.1037156554967214 -0.01243178908326047 0 -0.1100678636826246 -0.033240756339674098 0 -0.095421607796595739 -0.032621831957992321 0 -0.1037156554967214 -0.01243178908326047 0 -0.1037156554967214 -0.01243178908326047 0 -0.093809747996545942 -0.0030093353284433712 0 -0.08517320924149388 -0.01102911899893003 0 -0.1037156554967214 -0.01243178908326047 0 -0.093809747996545942 -0.0030093353284433712 0 -0.1027673763153877 0.00091163931933735138 0 -0.1037156554967214 -0.01243178908326047 0 -0.1027673763153877 0.00091163931933735138 0 -0.1123354336913058 0.0013520760706568159 0 -0.1037156554967214 -0.01243178908326047 0 -0.08517320924149388 -0.01102911899893003 0 -0.079486642149504363 -0.02215541583223524 0 -0.077062003173608132 -0.0072942392970108362 0 -0.074632322639879081 -0.00077634831607193431 0 -0.083103434105877269 0.00052397087483265566 0 -0.08517320924149388 -0.01102911899893003 0 -0.077062003173608132 -0.0072942392970108362 0 -0.083103434105877269 0.00052397087483265566 0 -0.093809747996545942 -0.0030093353284433712 0 -0.08517320924149388 -0.01102911899893003 0 -0.083103434105877269 0.00052397087483265566 0 -0.08517320924149388 -0.01102911899893003 0 -0.078861556947535411 -0.01334686025626348 0 -0.077062003173608132 -0.0072942392970108362 0 -0.08517320924149388 -0.01102911899893003 0 -0.078861556947535411 -0.01334686025626348 0 -0.079465027303920202 -0.01845928239574814 0 -0.095421607796595739 -0.032621831957992321 0 -0.1037156554967214 -0.01243178908326047 0 -0.079486642149504363 -0.02215541583223524 0 -0.1037156554967214 -0.01243178908326047 0 -0.079486642149504363 -0.02215541583223524 0 -0.08517320924149388 -0.01102911899893003 0 -0.079465027303920202 -0.01845928239574814 0 -0.079486642149504363 -0.02215541583223524 0 -0.078861556947535411 -0.01334686025626348 0 -0.079465027303920202 -0.01845928239574814 0 -0.077113745264106651 -0.016868059277999971 0 -0.079465027303920202 -0.01845928239574814 0 -0.078066067768276168 -0.020315593376716418 0 -0.077113745264106651 -0.016868059277999971 0 -0.079465027303920202 -0.01845928239574814 0 -0.079486642149504363 -0.02215541583223524 0 -0.078066067768276168 -0.020315593376716418 0 -0.079465027303920202 -0.01845928239574814 0 -0.079486642149504363 -0.02215541583223524 0 -0.079486642149504363 -0.02215541583223524 0 -0.07132131468200896 -0.026419239319968989 0 -0.073955639575587845 -0.023034130415246341 0 -0.079486642149504363 -0.02215541583223524 0 -0.07132131468200896 -0.026419239319968989 0 -0.071325246910900267 -0.03602675906317878 0 -0.07132131468200896 -0.026419239319968989 0 -0.07052204144283987 -0.021952735966628691 0 -0.073955639575587845 -0.023034130415246341 0 -0.07132131468200896 -0.026419239319968989 0 -0.064116730791888274 -0.028715662213213981 0 -0.071325246910900267 -0.03602675906317878 0 -0.064116730791888274 -0.028715662213213981 0 -0.066247651905591509 -0.022516112482753189 0 -0.0606224431082793 -0.022168106557960639 0 -0.07132131468200896 -0.026419239319968989 0 -0.066247651905591509 -0.022516112482753189 0 -0.07052204144283987 -0.021952735966628691 0 -0.07132131468200896 -0.026419239319968989 0 -0.064116730791888274 -0.028715662213213981 0 -0.066247651905591509 -0.022516112482753189 0 -0.066247651905591509 -0.022516112482753189 0 -0.067909409681297841 -0.018993266192609638 0 -0.07052204144283987 -0.021952735966628691 0 -0.067909409681297841 -0.018993266192609638 0 -0.071386899022682346 -0.018466943769939889 0 -0.07052204144283987 -0.021952735966628691 0 -0.066247651905591509 -0.022516112482753189 0 -0.063710406556967497 -0.01711383215432449 0 -0.067909409681297841 -0.018993266192609638 0 -0.066247651905591509 -0.022516112482753189 0 -0.063710406556967497 -0.01711383215432449 0 -0.0606224431082793 -0.022168106557960639 0 -0.063710406556967497 -0.01711383215432449 0 -0.067909409681297841 -0.018993266192609638 0 -0.067680049478408 -0.014916706589401949 0 -0.071386899022682346 -0.018466943769939889 0 -0.071565284642600896 -0.014005468659128731 0 -0.067680049478408 -0.014916706589401949 0 -0.067909409681297841 -0.018993266192609638 0 -0.071386899022682346 -0.018466943769939889 0 -0.067680049478408 -0.014916706589401949 0 -0.074067968222820538 -0.01642596461434508 0 -0.071386899022682346 -0.018466943769939889 0 -0.071565284642600896 -0.014005468659128731 0 -0.074067968222820538 -0.01642596461434508 0 -0.071386899022682346 -0.018466943769939889 0 -0.075177527286053092 -0.01937175453558633 0 -0.071386899022682346 -0.018466943769939889 0 -0.07052204144283987 -0.021952735966628691 0 -0.072866604161473933 -0.020978370332235631 0 -0.07052204144283987 -0.021952735966628691 0 -0.073955639575587845 -0.023034130415246341 0 -0.072866604161473933 -0.020978370332235631 0 -0.073955639575587845 -0.023034130415246341 0 -0.072866604161473933 -0.020978370332235631 0 -0.075675464603735781 -0.021265376153280099 0 -0.071386899022682346 -0.018466943769939889 0 -0.072866604161473933 -0.020978370332235631 0 -0.075177527286053092 -0.01937175453558633 0 -0.079486642149504363 -0.02215541583223524 0 -0.073955639575587845 -0.023034130415246341 0 -0.075675464603735781 -0.021265376153280099 0 -0.072866604161473933 -0.020978370332235631 0 -0.075675464603735781 -0.021265376153280099 0 -0.075177527286053092 -0.01937175453558633 0 -0.075675464603735781 -0.021265376153280099 0 -0.078066067768276168 -0.020315593376716418 0 -0.075177527286053092 -0.01937175453558633 0 -0.079486642149504363 -0.02215541583223524 0 -0.075675464603735781 -0.021265376153280099 0 -0.078066067768276168 -0.020315593376716418 0 -0.078066067768276168 -0.020315593376716418 0 -0.077113745264106651 -0.016868059277999971 0 -0.075177527286053092 -0.01937175453558633 0 -0.074067968222820538 -0.01642596461434508 0 -0.077113745264106651 -0.016868059277999971 0 -0.075177527286053092 -0.01937175453558633 0 -0.074067968222820538 -0.01642596461434508 0 -0.077113745264106651 -0.016868059277999971 0 -0.075493799754548202 -0.013083601311628451 0 -0.078861556947535411 -0.01334686025626348 0 -0.077113745264106651 -0.016868059277999971 0 -0.075493799754548202 -0.013083601311628451 0 -0.075493799754548202 -0.013083601311628451 0 -0.072786647336589516 -0.010029240432107249 0 -0.077062003173608132 -0.0072942392970108362 0 -0.078861556947535411 -0.01334686025626348 0 -0.075493799754548202 -0.013083601311628451 0 -0.077062003173608132 -0.0072942392970108362 0 -0.072786647336589516 -0.010029240432107249 0 -0.068833286380685962 -0.010684910275239941 0 -0.069548490668443652 -0.0051861188613618759 0 -0.072786647336589516 -0.010029240432107249 0 -0.071565284642600896 -0.014005468659128731 0 -0.068833286380685962 -0.010684910275239941 0 -0.075493799754548202 -0.013083601311628451 0 -0.072786647336589516 -0.010029240432107249 0 -0.071565284642600896 -0.014005468659128731 0 -0.074067968222820538 -0.01642596461434508 0 -0.075493799754548202 -0.013083601311628451 0 -0.071565284642600896 -0.014005468659128731 0 -0.071565284642600896 -0.014005468659128731 0 -0.067680049478408 -0.014916706589401949 0 -0.068833286380685962 -0.010684910275239941 0 -0.067680049478408 -0.014916706589401949 0 -0.062997669888081309 -0.01000650404598839 0 -0.068833286380685962 -0.010684910275239941 0 -0.063710406556967497 -0.01711383215432449 0 -0.067680049478408 -0.014916706589401949 0 -0.062997669888081309 -0.01000650404598839 0 -0.062997669888081309 -0.01000650404598839 0 -0.068833286380685962 -0.010684910275239941 0 -0.069548490668443652 -0.0051861188613618759 0 -0.062997669888081309 -0.01000650404598839 0 -0.069548490668443652 -0.0051861188613618759 0 -0.061854179150853207 0.0001064690093241692 0 -0.069548490668443652 -0.0051861188613618759 0 -0.069146791006042943 0.0016798902546152059 0 -0.061854179150853207 0.0001064690093241692 0 -0.069548490668443652 -0.0051861188613618759 0 -0.074632322639879081 -0.00077634831607193431 0 -0.069146791006042943 0.0016798902546152059 0 -0.069548490668443652 -0.0051861188613618759 0 -0.077062003173608132 -0.0072942392970108362 0 -0.074632322639879081 -0.00077634831607193431 0 -0.072786647336589516 -0.010029240432107249 0 -0.069548490668443652 -0.0051861188613618759 0 -0.077062003173608132 -0.0072942392970108362 0 -0.079706050957266156 -0.059674269596838157 0 -0.079596346553385336 -0.040914842714536687 0 -0.10261200018752099 -0.05123802051204418 0 -0.079706050957266156 -0.059674269596838157 0 -0.079596346553385336 -0.040914842714536687 0 -0.10261200018752099 -0.05123802051204418 0 -0.079706050957266156 -0.059674269596838157 0 -0.095421607796595739 -0.032621831957992321 0 -0.079486642149504363 -0.02215541583223524 0 -0.079596346553385336 -0.040914842714536687 0 -0.079486642149504363 -0.02215541583223524 0 -0.079596346553385336 -0.040914842714536687 0 -0.095421607796595739 -0.032621831957992321 0 -0.10261200018752099 -0.05123802051204418 0 -0.079596346553385336 -0.040914842714536687 0 -0.071325246910900267 -0.03602675906317878 0 -0.069302147159630692 -0.05273993468353079 0 -0.059717415538427472 -0.044027960353144067 0 -0.079486642149504363 -0.02215541583223524 0 -0.079596346553385336 -0.040914842714536687 0 -0.071325246910900267 -0.03602675906317878 0 -0.079596346553385336 -0.040914842714536687 0 -0.071325246910900267 -0.03602675906317878 0 -0.069302147159630692 -0.05273993468353079 0 -0.071325246910900267 -0.03602675906317878 0 -0.059717415538427472 -0.044027960353144067 0 -0.059105624658530038 -0.034737116080632853 0 -0.064116730791888274 -0.028715662213213981 0 -0.071325246910900267 -0.03602675906317878 0 -0.059105624658530038 -0.034737116080632853 0 -0.079706050957266156 -0.059674269596838157 0 -0.079596346553385336 -0.040914842714536687 0 -0.069302147159630692 -0.05273993468353079 0 -0.065881316434799914 -0.064765912068857845 0 -0.079706050957266156 -0.059674269596838157 0 -0.065881316434799914 -0.064765912068857845 0 -0.079706050957266156 -0.059674269596838157 0 -0.069302147159630692 -0.05273993468353079 0 -0.065881316434799914 -0.064765912068857845 0 -0.046915329916180602 -0.052118906045466033 0 -0.059476848898936903 -0.067124674102462561 0 -0.065881316434799914 -0.064765912068857845 0 -0.069302147159630692 -0.05273993468353079 0 -0.046915329916180602 -0.052118906045466033 0 -0.065881316434799914 -0.064765912068857845 0 -0.046915329916180602 -0.052118906045466033 0 -0.069302147159630692 -0.05273993468353079 0 -0.046915329916180602 -0.052118906045466033 0 -0.059717415538427472 -0.044027960353144067 0 -0.046915329916180602 -0.052118906045466033 0 -0.059476848898936903 -0.067124674102462561 0 -0.049094585803705508 -0.062784387785864829 0 -0.059717415538427472 -0.044027960353144067 0 -0.059105624658530038 -0.034737116080632853 0 -0.050528834567478267 -0.04018022736765104 0 -0.059105624658530038 -0.034737116080632853 0 -0.051364848018467232 -0.031548488535391377 0 -0.057580672124018767 -0.027923598951217848 0 -0.059105624658530038 -0.034737116080632853 0 -0.051364848018467232 -0.031548488535391377 0 -0.050528834567478267 -0.04018022736765104 0 -0.051364848018467232 -0.031548488535391377 0 -0.050528834567478267 -0.04018022736765104 0 -0.044232690664000353 -0.033557453500119558 0 -0.046915329916180602 -0.052118906045466033 0 -0.059717415538427472 -0.044027960353144067 0 -0.050528834567478267 -0.04018022736765104 0 -0.046915329916180602 -0.052118906045466033 0 -0.041628042936122447 -0.040518231295865292 0 -0.027949343397561659 -0.039471900022073743 0 -0.046915329916180602 -0.052118906045466033 0 -0.027949343397561659 -0.039471900022073743 0 -0.046915329916180602 -0.052118906045466033 0 -0.050528834567478267 -0.04018022736765104 0 -0.041628042936122447 -0.040518231295865292 0 -0.050528834567478267 -0.04018022736765104 0 -0.041628042936122447 -0.040518231295865292 0 -0.044232690664000353 -0.033557453500119558 0 -0.041628042936122447 -0.040518231295865292 0 -0.044232690664000353 -0.033557453500119558 0 -0.036680109754763122 -0.034982376549129758 0 -0.044232690664000353 -0.033557453500119558 0 -0.036680109754763122 -0.034982376549129758 0 -0.037919182420191287 -0.028857293705977231 0 -0.041628042936122447 -0.040518231295865292 0 -0.036680109754763122 -0.034982376549129758 0 -0.027949343397561659 -0.039471900022073743 0 -0.036680109754763122 -0.034982376549129758 0 -0.031671289355939658 -0.032507004221613282 0 -0.027949343397561659 -0.039471900022073743 0 -0.036680109754763122 -0.034982376549129758 0 -0.031671289355939658 -0.032507004221613282 0 -0.037919182420191287 -0.028857293705977231 0 -0.046915329916180602 -0.052118906045466033 0 -0.037608269641828833 -0.061780569625016678 0 -0.027949343397561659 -0.039471900022073743 0 -0.037608269641828833 -0.061780569625016678 0 -0.027949343397561659 -0.039471900022073743 0 -0.046915329916180602 -0.052118906045466033 0 -0.037608269641828833 -0.061780569625016678 0 -0.049094585803705508 -0.062784387785864829 0 -0.051381789537699042 -0.0047793937464329118 0 -0.04325606691645726 -0.0040175228461035491 0 -0.047442606602610432 0.0044030920321683816 0 -0.051381789537699042 -0.0047793937464329118 0 -0.047143366834408243 -0.009821902846396148 0 -0.04325606691645726 -0.0040175228461035491 0 -0.051381789537699042 -0.0047793937464329118 0 -0.057239564442968467 -0.0045213709031247454 0 -0.055050355264087809 0.0010777032587787399 0 -0.057239564442968467 -0.0045213709031247454 0 -0.061854179150853207 0.0001064690093241692 0 -0.055050355264087809 0.0010777032587787399 0 -0.062997669888081309 -0.01000650404598839 0 -0.057239564442968467 -0.0045213709031247454 0 -0.061854179150853207 0.0001064690093241692 0 -0.051381789537699042 -0.0047793937464329118 0 -0.057239564442968467 -0.0045213709031247454 0 -0.057136329799097198 -0.0096645885328312132 0 -0.062997669888081309 -0.01000650404598839 0 -0.057239564442968467 -0.0045213709031247454 0 -0.057136329799097198 -0.0096645885328312132 0 -0.062997669888081309 -0.01000650404598839 0 -0.057136329799097198 -0.0096645885328312132 0 -0.058517505999778043 -0.015414937413342629 0 -0.063710406556967497 -0.01711383215432449 0 -0.062997669888081309 -0.01000650404598839 0 -0.058517505999778043 -0.015414937413342629 0 -0.057136329799097198 -0.0096645885328312132 0 -0.058517505999778043 -0.015414937413342629 0 -0.052534538441233028 -0.01308567594400393 0 -0.051381789537699042 -0.0047793937464329118 0 -0.057136329799097198 -0.0096645885328312132 0 -0.052534538441233028 -0.01308567594400393 0 -0.051381789537699042 -0.0047793937464329118 0 -0.052534538441233028 -0.01308567594400393 0 -0.047143366834408243 -0.009821902846396148 0 -0.052534538441233028 -0.01308567594400393 0 -0.047143366834408243 -0.009821902846396148 0 -0.047175793768670871 -0.017303971813810541 0 -0.047175793768670871 -0.017303971813810541 0 -0.053852444707744813 -0.021529261311210132 0 -0.046216146167872223 -0.025343514137872451 0 -0.052534538441233028 -0.01308567594400393 0 -0.047175793768670871 -0.017303971813810541 0 -0.053852444707744813 -0.021529261311210132 0 -0.058517505999778043 -0.015414937413342629 0 -0.052534538441233028 -0.01308567594400393 0 -0.053852444707744813 -0.021529261311210132 0 -0.063710406556967497 -0.01711383215432449 0 -0.058517505999778043 -0.015414937413342629 0 -0.0606224431082793 -0.022168106557960639 0 -0.058517505999778043 -0.015414937413342629 0 -0.053852444707744813 -0.021529261311210132 0 -0.0606224431082793 -0.022168106557960639 0 -0.053852444707744813 -0.021529261311210132 0 -0.0606224431082793 -0.022168106557960639 0 -0.057580672124018767 -0.027923598951217848 0 -0.064116730791888274 -0.028715662213213981 0 -0.0606224431082793 -0.022168106557960639 0 -0.057580672124018767 -0.027923598951217848 0 -0.064116730791888274 -0.028715662213213981 0 -0.059105624658530038 -0.034737116080632853 0 -0.057580672124018767 -0.027923598951217848 0 -0.051364848018467232 -0.031548488535391377 0 -0.053852444707744813 -0.021529261311210132 0 -0.046216146167872223 -0.025343514137872451 0 -0.051364848018467232 -0.031548488535391377 0 -0.044232690664000353 -0.033557453500119558 0 -0.046216146167872223 -0.025343514137872451 0 -0.051364848018467232 -0.031548488535391377 0 -0.053852444707744813 -0.021529261311210132 0 -0.057580672124018767 -0.027923598951217848 0 -0.044232690664000353 -0.033557453500119558 0 -0.046216146167872223 -0.025343514137872451 0 -0.037919182420191287 -0.028857293705977231 0 -0.046216146167872223 -0.025343514137872451 0 -0.037919182420191287 -0.028857293705977231 0 -0.04036150886580607 -0.01922245018388858 0 -0.037919182420191287 -0.028857293705977231 0 -0.034759568456069978 -0.022938719717331611 0 -0.04036150886580607 -0.01922245018388858 0 -0.037919182420191287 -0.028857293705977231 0 -0.034759568456069978 -0.022938719717331611 0 -0.029278644432709042 -0.026292627742660359 0 -0.031671289355939658 -0.032507004221613282 0 -0.037919182420191287 -0.028857293705977231 0 -0.029278644432709042 -0.026292627742660359 0 -0.034759568456069978 -0.022938719717331611 0 -0.04036150886580607 -0.01922245018388858 0 -0.031048934757751449 -0.017771957418864351 0 -0.04036150886580607 -0.01922245018388858 0 -0.034066206104214999 -0.011691404741361509 0 -0.031048934757751449 -0.017771957418864351 0 -0.034759568456069978 -0.022938719717331611 0 -0.031048934757751449 -0.017771957418864351 0 -0.029278644432709042 -0.026292627742660359 0 -0.047175793768670871 -0.017303971813810541 0 -0.04036150886580607 -0.01922245018388858 0 -0.040731466667068103 -0.01165924050043572 0 -0.047175793768670871 -0.017303971813810541 0 -0.046216146167872223 -0.025343514137872451 0 -0.04036150886580607 -0.01922245018388858 0 -0.047143366834408243 -0.009821902846396148 0 -0.047175793768670871 -0.017303971813810541 0 -0.040731466667068103 -0.01165924050043572 0 -0.047143366834408243 -0.009821902846396148 0 -0.040731466667068103 -0.01165924050043572 0 -0.04325606691645726 -0.0040175228461035491 0 -0.04036150886580607 -0.01922245018388858 0 -0.040731466667068103 -0.01165924050043572 0 -0.034066206104214999 -0.011691404741361509 0 -0.034066206104214999 -0.011691404741361509 0 -0.034843064896145547 -0.0053333955955667933 0 -0.027257330414840689 -0.010611146979813911 0 -0.040731466667068103 -0.01165924050043572 0 -0.034066206104214999 -0.011691404741361509 0 -0.034843064896145547 -0.0053333955955667933 0 -0.034843064896145547 -0.0053333955955667933 0 -0.024880619595713981 -0.00035602396182286117 0 -0.037994106960812207 0.0030857035800418938 0 -0.034843064896145547 -0.0053333955955667933 0 -0.04325606691645726 -0.0040175228461035491 0 -0.037994106960812207 0.0030857035800418938 0 -0.040731466667068103 -0.01165924050043572 0 -0.034843064896145547 -0.0053333955955667933 0 -0.04325606691645726 -0.0040175228461035491 0 -0.024880619595713981 -0.00035602396182286117 0 -0.0147421469897197 -0.012384041570326619 0 -0.0078605566542857899 -0.00046063017767232288 0 -0.024880619595713981 -0.00035602396182286117 0 -0.027257330414840689 -0.010611146979813911 0 -0.0147421469897197 -0.012384041570326619 0 -0.034843064896145547 -0.0053333955955667933 0 -0.024880619595713981 -0.00035602396182286117 0 -0.027257330414840689 -0.010611146979813911 0 -0.034066206104214999 -0.011691404741361509 0 -0.027257330414840689 -0.010611146979813911 0 -0.031048934757751449 -0.017771957418864351 0 -0.027257330414840689 -0.010611146979813911 0 -0.02202853612638471 -0.020490230700826308 0 -0.0147421469897197 -0.012384041570326619 0 -0.02202853612638471 -0.020490230700826308 0 -0.01089912658788021 -0.028102378353347779 0 -0.0147421469897197 -0.012384041570326619 0 -0.027257330414840689 -0.010611146979813911 0 -0.02202853612638471 -0.020490230700826308 0 -0.031048934757751449 -0.017771957418864351 0 -0.02202853612638471 -0.020490230700826308 0 -0.031048934757751449 -0.017771957418864351 0 -0.029278644432709042 -0.026292627742660359 0 -0.027382038630717361 -0.030238295385303961 0 -0.022529410869999079 -0.02707120317525669 0 -0.026048809864221669 -0.035082346401685512 0 -0.02202853612638471 -0.020490230700826308 0 -0.029278644432709042 -0.026292627742660359 0 -0.022529410869999079 -0.02707120317525669 0 -0.031671289355939658 -0.032507004221613282 0 -0.029278644432709042 -0.026292627742660359 0 -0.027382038630717361 -0.030238295385303961 0 -0.029278644432709042 -0.026292627742660359 0 -0.027382038630717361 -0.030238295385303961 0 -0.022529410869999079 -0.02707120317525669 0 -0.02202853612638471 -0.020490230700826308 0 -0.022529410869999079 -0.02707120317525669 0 -0.01089912658788021 -0.028102378353347779 0 -0.022529410869999079 -0.02707120317525669 0 -0.01089912658788021 -0.028102378353347779 0 -0.026048809864221669 -0.035082346401685512 0 -0.01089912658788021 -0.028102378353347779 0 0.0061510902218013946 -0.016732856684622179 0 -0.01089912658788021 -0.028102378353347779 0 -0.0147421469897197 -0.012384041570326619 0 0.0061510902218013946 -0.016732856684622179 0 -0.01089912658788021 -0.028102378353347779 0 0.0061510902218013946 -0.016732856684622179 0 0.0044416444853491791 -0.042406610406893218 0 -0.0147421469897197 -0.012384041570326619 0 -0.0078605566542857899 -0.00046063017767232288 0 0.0061510902218013946 -0.016732856684622179 0 -0.037608269641828833 -0.061780569625016678 0 -0.020820706790168359 -0.054898325299920531 0 -0.019342402458647139 -0.067658343687861167 0 -0.037608269641828833 -0.061780569625016678 0 -0.020820706790168359 -0.054898325299920531 0 -0.027949343397561659 -0.039471900022073743 0 -0.020820706790168359 -0.054898325299920531 0 -0.0070986439857384188 -0.060767224409321252 0 -0.019342402458647139 -0.067658343687861167 0 -0.01089912658788021 -0.028102378353347779 0 -0.027949343397561659 -0.039471900022073743 0 -0.01210487446706557 -0.044813588755330147 0 -0.020820706790168359 -0.054898325299920531 0 -0.027949343397561659 -0.039471900022073743 0 -0.01210487446706557 -0.044813588755330147 0 -0.01089912658788021 -0.028102378353347779 0 -0.027949343397561659 -0.039471900022073743 0 -0.026048809864221669 -0.035082346401685512 0 -0.01089912658788021 -0.028102378353347779 0 -0.027949343397561659 -0.039471900022073743 0 -0.031671289355939658 -0.032507004221613282 0 -0.027382038630717361 -0.030238295385303961 0 -0.026048809864221669 -0.035082346401685512 0 -0.031671289355939658 -0.032507004221613282 0 -0.027949343397561659 -0.039471900022073743 0 -0.026048809864221669 -0.035082346401685512 0 -0.027949343397561659 -0.039471900022073743 0 -0.026048809864221669 -0.035082346401685512 0 -0.01089912658788021 -0.028102378353347779 0 -0.01210487446706557 -0.044813588755330147 0 0.0044416444853491791 -0.042406610406893218 0 -0.020820706790168359 -0.054898325299920531 0 -0.01210487446706557 -0.044813588755330147 0 -0.0070986439857384188 -0.060767224409321252 0 -0.0062574754781501464 -0.066165341881438272 0 0.0044416444853491791 -0.042406610406893218 0 -0.0070986439857384188 -0.060767224409321252 0 -0.0062574754781501464 -0.066165341881438272 0 0.0044416444853491791 -0.042406610406893218 0 -0.01210487446706557 -0.044813588755330147 0 -0.0070986439857384188 -0.060767224409321252 0 0.0044416444853491791 -0.042406610406893218 0 -0.01028958877322941 -0.075119152791076255 0 -0.01462007858013578 -0.084735545992247974 0 -0.019342402458647139 -0.067658343687861167 0 -0.0070986439857384188 -0.060767224409321252 0 -0.0062574754781501464 -0.066165341881438272 0 -0.0062574754781501464 -0.066165341881438272 0 -0.0048113842628591426 -0.075445492273546855 0 -0.0062574754781501464 -0.066165341881438272 0 -0.0048113842628591426 -0.075445492273546855 0 -0.01028958877322941 -0.075119152791076255 0 -0.0048113842628591426 -0.075445492273546855 0 -0.01028958877322941 -0.075119152791076255 0 -0.0062574754781501464 -0.066165341881438272 0 -0.01028958877322941 -0.075119152791076255 0 -0.0062574754781501464 -0.066165341881438272 0 -0.01028958877322941 -0.075119152791076255 0 -0.019342402458647139 -0.067658343687861167 0 -0.0070986439857384188 -0.060767224409321252 0 -0.0062574754781501464 -0.066165341881438272 0 -0.019342402458647139 -0.067658343687861167 0 -0.0048113842628591426 -0.075445492273546855 0 -0.0094020972900166165 -0.095032591478015155 0 -0.00050519907656484302 -0.1030800188666879 0 -0.0048113842628591426 -0.075445492273546855 0 -0.00050519907656484302 -0.1030800188666879 0 -0.0048113842628591426 -0.075445492273546855 0 -0.01462007858013578 -0.084735545992247974 0 -0.0094020972900166165 -0.095032591478015155 0 -0.0048113842628591426 -0.075445492273546855 0 -0.01028958877322941 -0.075119152791076255 0 -0.01462007858013578 -0.084735545992247974 0 -0.01028958877322941 -0.075119152791076255 0 -0.01462007858013578 -0.084735545992247974 0 -0.01462007858013578 -0.084735545992247974 0 -0.0094020972900166165 -0.095032591478015155 0 -0.01433864707525026 -0.098897150298254077 0 -0.01462007858013578 -0.084735545992247974 0 -0.03304318729884928 -0.093010433502754411 0 -0.02298268168212101 -0.1033057501030579 0 -0.01462007858013578 -0.084735545992247974 0 -0.030376226773111459 -0.078254826407167924 0 -0.03304318729884928 -0.093010433502754411 0 -0.037608269641828833 -0.061780569625016678 0 -0.030376226773111459 -0.078254826407167924 0 -0.019342402458647139 -0.067658343687861167 0 -0.01462007858013578 -0.084735545992247974 0 -0.030376226773111459 -0.078254826407167924 0 -0.019342402458647139 -0.067658343687861167 0 -0.037608269641828833 -0.061780569625016678 0 -0.047267195886096257 -0.084089239227959384 0 -0.050313991944036907 -0.07045185582754325 0 -0.037608269641828833 -0.061780569625016678 0 -0.047267195886096257 -0.084089239227959384 0 -0.037608269641828833 -0.061780569625016678 0 -0.030376226773111459 -0.078254826407167924 0 -0.047267195886096257 -0.084089239227959384 0 -0.037608269641828833 -0.061780569625016678 0 -0.049094585803705508 -0.062784387785864829 0 -0.050313991944036907 -0.07045185582754325 0 -0.030376226773111459 -0.078254826407167924 0 -0.03304318729884928 -0.093010433502754411 0 -0.047267195886096257 -0.084089239227959384 0 -0.03304318729884928 -0.093010433502754411 0 -0.047267195886096257 -0.084089239227959384 0 -0.043841980568274437 -0.096936341047594451 0 -0.047267195886096257 -0.084089239227959384 0 -0.060189477682686482 -0.087723935138946954 0 -0.05692612213036366 -0.106397908830902 0 -0.047267195886096257 -0.084089239227959384 0 -0.060189477682686482 -0.087723935138946954 0 -0.058123059489617053 -0.076480408396412819 0 -0.065059717802934666 -0.079302302655448395 0 -0.060189477682686482 -0.087723935138946954 0 -0.058123059489617053 -0.076480408396412819 0 -0.063929853442850362 -0.072683386038222747 0 -0.065059717802934666 -0.079302302655448395 0 -0.058123059489617053 -0.076480408396412819 0 -0.058123059489617053 -0.076480408396412819 0 -0.059476848898936903 -0.067124674102462561 0 -0.050313991944036907 -0.07045185582754325 0 -0.063929853442850362 -0.072683386038222747 0 -0.058123059489617053 -0.076480408396412819 0 -0.059476848898936903 -0.067124674102462561 0 -0.059476848898936903 -0.067124674102462561 0 -0.049094585803705508 -0.062784387785864829 0 -0.050313991944036907 -0.07045185582754325 0 -0.047267195886096257 -0.084089239227959384 0 -0.058123059489617053 -0.076480408396412819 0 -0.050313991944036907 -0.07045185582754325 0 -0.05692612213036366 -0.106397908830902 0 -0.046003614737837407 -0.11871477076245281 0 -0.066585048374631195 -0.12870657843384459 0 -0.05692612213036366 -0.106397908830902 0 -0.066585048374631195 -0.12870657843384459 0 -0.046003614737837407 -0.11871477076245281 0 -0.066585048374631195 -0.12870657843384459 0 -0.05692612213036366 -0.106397908830902 0 -0.038131416957788593 -0.1042477826287621 0 -0.046003614737837407 -0.11871477076245281 0 -0.047267195886096257 -0.084089239227959384 0 -0.05692612213036366 -0.106397908830902 0 -0.043841980568274437 -0.096936341047594451 0 -0.065632122727269343 -0.097241677229118556 0 -0.060189477682686482 -0.087723935138946954 0 -0.05692612213036366 -0.106397908830902 0 -0.047267195886096257 -0.084089239227959384 0 -0.05692612213036366 -0.106397908830902 0 -0.05692612213036366 -0.106397908830902 0 -0.043841980568274437 -0.096936341047594451 0 -0.038131416957788593 -0.1042477826287621 0 -0.03304318729884928 -0.093010433502754411 0 -0.043841980568274437 -0.096936341047594451 0 -0.038131416957788593 -0.1042477826287621 0 -0.03304318729884928 -0.093010433502754411 0 -0.038131416957788593 -0.1042477826287621 0 -0.02298268168212101 -0.1033057501030579 0 -0.036528151656990457 -0.12376006449302759 0 -0.025422181101043381 -0.10872296309106171 0 -0.036754652129972372 -0.13388812966905281 0 -0.038131416957788593 -0.1042477826287621 0 -0.046003614737837407 -0.11871477076245281 0 -0.025422181101043381 -0.10872296309106171 0 -0.046003614737837407 -0.11871477076245281 0 -0.025422181101043381 -0.10872296309106171 0 -0.046003614737837407 -0.11871477076245281 0 -0.036528151656990457 -0.12376006449302759 0 -0.025422181101043381 -0.10872296309106171 0 -0.046003614737837407 -0.11871477076245281 0 -0.036528151656990457 -0.12376006449302759 0 -0.04662598924457674 -0.13163293957287109 0 -0.025422181101043381 -0.10872296309106171 0 -0.0257789820370312 -0.12628612711485429 0 -0.036754652129972372 -0.13388812966905281 0 -0.0202937414829981 -0.1197680442123264 0 -0.025422181101043381 -0.10872296309106171 0 -0.0257789820370312 -0.12628612711485429 0 -0.025422181101043381 -0.10872296309106171 0 -0.036754652129972372 -0.13388812966905281 0 -0.0202937414829981 -0.1197680442123264 0 -0.0201772428921199 -0.10617666749490751 0 -0.0081881283911954504 -0.118445606477368 0 -0.0202937414829981 -0.1197680442123264 0 -0.025422181101043381 -0.10872296309106171 0 -0.0201772428921199 -0.10617666749490751 0 -0.01462007858013578 -0.084735545992247974 0 -0.02298268168212101 -0.1033057501030579 0 -0.01462007858013578 -0.084735545992247974 0 -0.02298268168212101 -0.1033057501030579 0 -0.01433864707525026 -0.098897150298254077 0 -0.03304318729884928 -0.093010433502754411 0 -0.02298268168212101 -0.1033057501030579 0 -0.038131416957788593 -0.1042477826287621 0 -0.025422181101043381 -0.10872296309106171 0 -0.02298268168212101 -0.1033057501030579 0 -0.025422181101043381 -0.10872296309106171 0 -0.02298268168212101 -0.1033057501030579 0 -0.017279143181744751 -0.1047697074439411 0 -0.02298268168212101 -0.1033057501030579 0 -0.01433864707525026 -0.098897150298254077 0 -0.025422181101043381 -0.10872296309106171 0 -0.0201772428921199 -0.10617666749490751 0 -0.025422181101043381 -0.10872296309106171 0 -0.0201772428921199 -0.10617666749490751 0 -0.02298268168212101 -0.1033057501030579 0 -0.0201772428921199 -0.10617666749490751 0 -0.017279143181744751 -0.1047697074439411 0 -0.0201772428921199 -0.10617666749490751 0 -0.017279143181744751 -0.1047697074439411 0 -0.02298268168212101 -0.1033057501030579 0 -0.0201772428921199 -0.10617666749490751 0 -0.02298268168212101 -0.1033057501030579 0 -0.0094020972900166165 -0.095032591478015155 0 -0.01433864707525026 -0.098897150298254077 0 -0.0091181569718572636 -0.10405307848451981 0 -0.017279143181744751 -0.1047697074439411 0 -0.0091181569718572636 -0.10405307848451981 0 -0.0081881283911954504 -0.118445606477368 0 -0.017279143181744751 -0.1047697074439411 0 -0.01433864707525026 -0.098897150298254077 0 -0.0091181569718572636 -0.10405307848451981 0 -0.0091181569718572636 -0.10405307848451981 0 -0.00050519907656484302 -0.1030800188666879 0 -0.0081881283911954504 -0.118445606477368 0 -0.0094020972900166165 -0.095032591478015155 0 -0.0091181569718572636 -0.10405307848451981 0 -0.00050519907656484302 -0.1030800188666879 0 -0.00050519907656484302 -0.1030800188666879 0 -0.0081881283911954504 -0.118445606477368 0 0.003800986109728721 -0.1307145454598288 0 -0.0202937414829981 -0.1197680442123264 0 -0.0081881283911954504 -0.118445606477368 0 -0.0089898936059314375 -0.13084950001694601 0 -0.0201772428921199 -0.10617666749490751 0 -0.017279143181744751 -0.1047697074439411 0 -0.0081881283911954504 -0.118445606477368 0 -0.0201772428921199 -0.10617666749490751 0 -0.0081881283911954504 -0.118445606477368 0 -0.0081881283911954504 -0.118445606477368 0 0.003800986109728721 -0.1307145454598288 0 -0.0048513909474104822 -0.14039274635042809 0 -0.00099965877895308438 -0.1488051650987488 0 0.003800986109728721 -0.1307145454598288 0 -0.0081881283911954504 -0.118445606477368 0 -0.0089898936059314375 -0.13084950001694601 0 0.003800986109728721 -0.1307145454598288 0 -0.0048513909474104822 -0.14039274635042809 0 -0.0089898936059314375 -0.13084950001694601 0 0.003800986109728721 -0.1307145454598288 0 -0.01291655539011805 -0.14057808000275901 0 -0.0089898936059314375 -0.13084950001694601 0 -0.018961081167006798 -0.13254924091170359 0 -0.0048513909474104822 -0.14039274635042809 0 -0.01291655539011805 -0.14057808000275901 0 -0.0089898936059314375 -0.13084950001694601 0 -0.0202937414829981 -0.1197680442123264 0 -0.018961081167006798 -0.13254924091170359 0 -0.0257789820370312 -0.12628612711485429 0 -0.0202937414829981 -0.1197680442123264 0 -0.0089898936059314375 -0.13084950001694601 0 -0.018961081167006798 -0.13254924091170359 0 -0.018961081167006798 -0.13254924091170359 0 -0.027463254304135109 -0.13650225769012761 0 -0.020703645548638201 -0.14191869874217899 0 -0.01291655539011805 -0.14057808000275901 0 -0.018961081167006798 -0.13254924091170359 0 -0.020703645548638201 -0.14191869874217899 0 -0.027463254304135109 -0.13650225769012761 0 -0.027994784895663021 -0.14376712035145561 0 -0.033868926773102589 -0.14099207800810901 0 -0.018961081167006798 -0.13254924091170359 0 -0.027463254304135109 -0.13650225769012761 0 -0.0257789820370312 -0.12628612711485429 0 -0.027463254304135109 -0.13650225769012761 0 -0.0257789820370312 -0.12628612711485429 0 -0.036754652129972372 -0.13388812966905281 0 -0.024072921671949229 -0.1512684500115048 0 -0.02869852620220141 -0.16100633474849699 0 -0.033673414741908173 -0.15013552490891921 0 -0.024072921671949229 -0.1512684500115048 0 -0.027994784895663021 -0.14376712035145561 0 -0.033673414741908173 -0.15013552490891921 0 -0.024072921671949229 -0.1512684500115048 0 -0.027994784895663021 -0.14376712035145561 0 -0.020703645548638201 -0.14191869874217899 0 -0.027463254304135109 -0.13650225769012761 0 -0.027994784895663021 -0.14376712035145561 0 -0.020703645548638201 -0.14191869874217899 0 -0.01291655539011805 -0.14057808000275901 0 -0.020703645548638201 -0.14191869874217899 0 -0.01590037402896451 -0.14906381334361721 0 -0.024072921671949229 -0.1512684500115048 0 -0.020703645548638201 -0.14191869874217899 0 -0.01590037402896451 -0.14906381334361721 0 -0.024072921671949229 -0.1512684500115048 0 -0.01590037402896451 -0.14906381334361721 0 -0.01505133423359295 -0.15863561199961609 0 -0.01590037402896451 -0.14906381334361721 0 -0.0080929470427568585 -0.1486944806516802 0 -0.01505133423359295 -0.15863561199961609 0 -0.0080929470427568585 -0.1486944806516802 0 -0.0052788150010250542 -0.15630072898752759 0 -0.01505133423359295 -0.15863561199961609 0 -0.01291655539011805 -0.14057808000275901 0 -0.01590037402896451 -0.14906381334361721 0 -0.0080929470427568585 -0.1486944806516802 0 -0.0048513909474104822 -0.14039274635042809 0 -0.01291655539011805 -0.14057808000275901 0 -0.0080929470427568585 -0.1486944806516802 0 -0.0048513909474104822 -0.14039274635042809 0 -0.0080929470427568585 -0.1486944806516802 0 -0.00099965877895308438 -0.1488051650987488 0 -0.00099965877895308438 -0.1488051650987488 0 -0.0052788150010250542 -0.15630072898752759 0 0.0003014096489009662 -0.15827909213919711 0 -0.0080929470427568585 -0.1486944806516802 0 -0.00099965877895308438 -0.1488051650987488 0 -0.0052788150010250542 -0.15630072898752759 0 -0.0052788150010250542 -0.15630072898752759 0 -0.0053703566761962793 -0.162041345540028 0 0.0003014096489009662 -0.15827909213919711 0 -0.0053703566761962793 -0.162041345540028 0 0.0003014096489009662 -0.15827909213919711 0 0.0039027134903483682 -0.1655877358442541 0 -0.0053703566761962793 -0.162041345540028 0 -0.01170134061783454 -0.1704638064009304 0 0.0039027134903483682 -0.1655877358442541 0 -0.0053703566761962793 -0.162041345540028 0 -0.01170134061783454 -0.1704638064009304 0 -0.01505133423359295 -0.15863561199961609 0 -0.0052788150010250542 -0.15630072898752759 0 -0.0053703566761962793 -0.162041345540028 0 -0.01505133423359295 -0.15863561199961609 0 -0.015435746805596539 -0.18637973487241941 0 0.0039027134903483682 -0.1655877358442541 0 -0.015435746805596539 -0.18637973487241941 0 0.00066715547760964802 -0.17832489532098381 0 0.0028164378603697019 -0.18575172484963451 0 -0.01170134061783454 -0.1704638064009304 0 -0.015435746805596539 -0.18637973487241941 0 0.0039027134903483682 -0.1655877358442541 0 -0.015435746805596539 -0.18637973487241941 0 0.0039027134903483682 -0.1655877358442541 0 0.00066715547760964802 -0.17832489532098381 0 -0.015435746805596539 -0.18637973487241941 0 -0.030604706448980511 -0.1739606523948076 0 -0.02170363298012155 -0.16766261651502309 0 -0.01170134061783454 -0.1704638064009304 0 -0.015435746805596539 -0.18637973487241941 0 -0.02170363298012155 -0.16766261651502309 0 -0.015435746805596539 -0.18637973487241941 0 -0.030604706448980511 -0.1739606523948076 0 -0.034150497549535919 -0.1891588061903812 0 -0.015435746805596539 -0.18637973487241941 0 -0.030604706448980511 -0.1739606523948076 0 -0.01505133423359295 -0.15863561199961609 0 -0.02170363298012155 -0.16766261651502309 0 -0.02869852620220141 -0.16100633474849699 0 -0.024072921671949229 -0.1512684500115048 0 -0.01505133423359295 -0.15863561199961609 0 -0.02869852620220141 -0.16100633474849699 0 -0.01170134061783454 -0.1704638064009304 0 -0.01505133423359295 -0.15863561199961609 0 -0.02170363298012155 -0.16766261651502309 0 -0.030604706448980511 -0.1739606523948076 0 -0.02170363298012155 -0.16766261651502309 0 -0.02869852620220141 -0.16100633474849699 0 -0.030604706448980511 -0.1739606523948076 0 -0.02869852620220141 -0.16100633474849699 0 -0.045773666092364433 -0.16154156991719579 0 -0.02869852620220141 -0.16100633474849699 0 -0.045773666092364433 -0.16154156991719579 0 -0.033673414741908173 -0.15013552490891921 0 -0.030604706448980511 -0.1739606523948076 0 -0.045773666092364433 -0.16154156991719579 0 -0.030604706448980511 -0.1739606523948076 0 -0.045773666092364433 -0.16154156991719579 0 -0.052002289186797307 -0.18699464328292081 0 -0.030604706448980511 -0.1739606523948076 0 -0.052002289186797307 -0.18699464328292081 0 -0.034150497549535919 -0.1891588061903812 0 -0.052002289186797307 -0.18699464328292081 0 -0.060305428453466127 -0.16845970066786739 0 -0.072262670056362763 -0.18094976456976181 0 -0.045773666092364433 -0.16154156991719579 0 -0.052002289186797307 -0.18699464328292081 0 -0.060305428453466127 -0.16845970066786739 0 -0.045773666092364433 -0.16154156991719579 0 -0.052002289186797307 -0.18699464328292081 0 -0.045773666092364433 -0.16154156991719579 0 -0.060305428453466127 -0.16845970066786739 0 -0.058595597533760473 -0.15104403891727461 0 -0.045773666092364433 -0.16154156991719579 0 -0.058595597533760473 -0.15104403891727461 0 -0.058595597533760473 -0.15104403891727461 0 -0.053412790337615701 -0.13937991305674249 0 -0.041150908874677233 -0.14265081720511169 0 -0.045773666092364433 -0.16154156991719579 0 -0.058595597533760473 -0.15104403891727461 0 -0.041150908874677233 -0.14265081720511169 0 -0.058595597533760473 -0.15104403891727461 0 -0.061836737218624087 -0.1392467778113938 0 -0.053412790337615701 -0.13937991305674249 0 -0.061836737218624087 -0.1392467778113938 0 -0.05489283598265704 -0.13153619592746091 0 -0.053412790337615701 -0.13937991305674249 0 -0.061836737218624087 -0.1392467778113938 0 -0.05489283598265704 -0.13153619592746091 0 -0.066585048374631195 -0.12870657843384459 0 -0.046003614737837407 -0.11871477076245281 0 -0.05489283598265704 -0.13153619592746091 0 -0.066585048374631195 -0.12870657843384459 0 -0.046003614737837407 -0.11871477076245281 0 -0.05489283598265704 -0.13153619592746091 0 -0.04662598924457674 -0.13163293957287109 0 -0.053412790337615701 -0.13937991305674249 0 -0.04662598924457674 -0.13163293957287109 0 -0.041150908874677233 -0.14265081720511169 0 -0.05489283598265704 -0.13153619592746091 0 -0.053412790337615701 -0.13937991305674249 0 -0.04662598924457674 -0.13163293957287109 0 -0.036528151656990457 -0.12376006449302759 0 -0.036754652129972372 -0.13388812966905281 0 -0.041150908874677233 -0.14265081720511169 0 -0.036528151656990457 -0.12376006449302759 0 -0.041150908874677233 -0.14265081720511169 0 -0.036528151656990457 -0.12376006449302759 0 -0.04662598924457674 -0.13163293957287109 0 -0.041150908874677233 -0.14265081720511169 0 -0.027463254304135109 -0.13650225769012761 0 -0.036754652129972372 -0.13388812966905281 0 -0.033868926773102589 -0.14099207800810901 0 -0.036754652129972372 -0.13388812966905281 0 -0.033868926773102589 -0.14099207800810901 0 -0.041150908874677233 -0.14265081720511169 0 -0.045773666092364433 -0.16154156991719579 0 -0.041150908874677233 -0.14265081720511169 0 -0.027994784895663021 -0.14376712035145561 0 -0.033868926773102589 -0.14099207800810901 0 -0.033673414741908173 -0.15013552490891921 0 -0.045773666092364433 -0.16154156991719579 0 -0.033673414741908173 -0.15013552490891921 0 -0.041150908874677233 -0.14265081720511169 0 -0.033868926773102589 -0.14099207800810901 0 -0.033673414741908173 -0.15013552490891921 0 -0.041150908874677233 -0.14265081720511169 0 -0.02671910463718637 -0.25361334643031169 0 -0.02524851288041547 -0.2404509875535713 0 -0.037026263035115803 -0.2455232766625722 0 -0.02524851288041547 -0.2404509875535713 0 -0.017653692761977959 -0.24750206074588749 0 -0.0144808865699067 -0.23713156620209161 0 -0.02671910463718637 -0.25361334643031169 0 -0.02524851288041547 -0.2404509875535713 0 -0.017653692761977959 -0.24750206074588749 0 -0.017653692761977959 -0.24750206074588749 0 -0.0050609087585187914 -0.24448965595804831 0 -0.0144808865699067 -0.23713156620209161 0 -0.0050609087585187914 -0.24448965595804831 0 -0.0072280375481045024 -0.23276434443998831 0 0.0043532972358198471 -0.23289883483909901 0 -0.0050609087585187914 -0.24448965595804831 0 -0.0144808865699067 -0.23713156620209161 0 -0.0072280375481045024 -0.23276434443998831 0 -0.0144808865699067 -0.23713156620209161 0 -0.0072280375481045024 -0.23276434443998831 0 -0.020482474519229479 -0.2236017116935326 0 -0.00046921512868739422 -0.22569995350716959 0 -0.020482474519229479 -0.2236017116935326 0 0.0052132563045326416 -0.217943300132031 0 -0.020482474519229479 -0.2236017116935326 0 0.0052132563045326416 -0.217943300132031 0 -0.0072280375481045024 -0.23276434443998831 0 -0.00046921512868739422 -0.22569995350716959 0 -0.020482474519229479 -0.2236017116935326 0 -0.0072280375481045024 -0.23276434443998831 0 -0.00046921512868739422 -0.22569995350716959 0 0.0043532972358198471 -0.23289883483909901 0 -0.02524851288041547 -0.2404509875535713 0 -0.020482474519229479 -0.2236017116935326 0 -0.03418504585759493 -0.23438418031812189 0 -0.020482474519229479 -0.2236017116935326 0 -0.03094779218312025 -0.21631682165211111 0 -0.039567378369605673 -0.22064738725025829 0 -0.02524851288041547 -0.2404509875535713 0 -0.0144808865699067 -0.23713156620209161 0 -0.020482474519229479 -0.2236017116935326 0 -0.020482474519229479 -0.2236017116935326 0 -0.025941720447919269 -0.21059366789021941 0 -0.01533608103291358 -0.20434496000532509 0 -0.020482474519229479 -0.2236017116935326 0 -0.03094779218312025 -0.21631682165211111 0 -0.025941720447919269 -0.21059366789021941 0 -0.025941720447919269 -0.21059366789021941 0 -0.025275367445693291 -0.19695893195717409 0 -0.037799595395726603 -0.21042451977443399 0 -0.025941720447919269 -0.21059366789021941 0 -0.01533608103291358 -0.20434496000532509 0 -0.025275367445693291 -0.19695893195717409 0 -0.020482474519229479 -0.2236017116935326 0 -0.0051387385167336562 -0.21108637924508611 0 -0.01533608103291358 -0.20434496000532509 0 -0.020482474519229479 -0.2236017116935326 0 -0.0051387385167336562 -0.21108637924508611 0 0.0052132563045326416 -0.217943300132031 0 -0.0051387385167336562 -0.21108637924508611 0 -0.01533608103291358 -0.20434496000532509 0 -0.00051630681429407424 -0.19859453141270639 0 -0.015435746805596539 -0.18637973487241941 0 -0.00051630681429407424 -0.19859453141270639 0 0.0028164378603697019 -0.18575172484963451 0 -0.01533608103291358 -0.20434496000532509 0 -0.00051630681429407424 -0.19859453141270639 0 -0.014163830441390199 -0.19173661792444241 0 -0.015435746805596539 -0.18637973487241941 0 -0.00051630681429407424 -0.19859453141270639 0 -0.015435746805596539 -0.18637973487241941 0 -0.00051630681429407424 -0.19859453141270639 0 -0.014163830441390199 -0.19173661792444241 0 -0.015435746805596539 -0.18637973487241941 0 -0.014163830441390199 -0.19173661792444241 0 -0.025275367445693291 -0.19695893195717409 0 -0.015435746805596539 -0.18637973487241941 0 -0.025275367445693291 -0.19695893195717409 0 -0.034150497549535919 -0.1891588061903812 0 -0.015435746805596539 -0.18637973487241941 0 -0.025275367445693291 -0.19695893195717409 0 -0.014163830441390199 -0.19173661792444241 0 -0.025275367445693291 -0.19695893195717409 0 -0.01533608103291358 -0.20434496000532509 0 -0.014163830441390199 -0.19173661792444241 0 -0.025275367445693291 -0.19695893195717409 0 -0.025275367445693291 -0.19695893195717409 0 -0.041753139863462067 -0.20470332430290999 0 -0.052002289186797307 -0.18699464328292081 0 -0.034150497549535919 -0.1891588061903812 0 -0.041753139863462067 -0.20470332430290999 0 -0.025275367445693291 -0.19695893195717409 0 -0.034150497549535919 -0.1891588061903812 0 -0.041753139863462067 -0.20470332430290999 0 -0.052002289186797307 -0.18699464328292081 0 -0.058230912281230812 -0.2124477166486457 0 -0.052002289186797307 -0.18699464328292081 0 -0.058230912281230812 -0.2124477166486457 0 -0.067337313310813565 -0.19683638416798491 0 -0.052002289186797307 -0.18699464328292081 0 -0.058230912281230812 -0.2124477166486457 0 -0.041753139863462067 -0.20470332430290999 0 -0.058230912281230812 -0.2124477166486457 0 -0.04817865518562861 -0.21378754846444259 0 -0.041753139863462067 -0.20470332430290999 0 -0.058230912281230812 -0.2124477166486457 0 -0.041753139863462067 -0.20470332430290999 0 -0.058230912281230812 -0.2124477166486457 0 -0.060872439946322923 -0.22324223679183369 0 -0.058230912281230812 -0.2124477166486457 0 -0.054401457689735457 -0.21834190237415399 0 -0.060872439946322923 -0.22324223679183369 0 -0.058230912281230812 -0.2124477166486457 0 -0.054401457689735457 -0.21834190237415399 0 -0.04817865518562861 -0.21378754846444259 0 -0.054401457689735457 -0.21834190237415399 0 -0.04817865518562861 -0.21378754846444259 0 -0.050323823345759633 -0.22389010759169409 0 -0.037799595395726603 -0.21042451977443399 0 -0.039567378369605673 -0.22064738725025829 0 -0.050323823345759633 -0.22389010759169409 0 -0.025275367445693291 -0.19695893195717409 0 -0.041753139863462067 -0.20470332430290999 0 -0.037799595395726603 -0.21042451977443399 0 -0.037799595395726603 -0.21042451977443399 0 -0.050323823345759633 -0.22389010759169409 0 -0.04817865518562861 -0.21378754846444259 0 -0.037799595395726603 -0.21042451977443399 0 -0.050323823345759633 -0.22389010759169409 0 -0.04817865518562861 -0.21378754846444259 0 -0.041753139863462067 -0.20470332430290999 0 -0.037799595395726603 -0.21042451977443399 0 -0.025275367445693291 -0.19695893195717409 0 -0.037799595395726603 -0.21042451977443399 0 -0.03094779218312025 -0.21631682165211111 0 -0.037799595395726603 -0.21042451977443399 0 -0.039567378369605673 -0.22064738725025829 0 -0.03094779218312025 -0.21631682165211111 0 -0.025941720447919269 -0.21059366789021941 0 -0.037799595395726603 -0.21042451977443399 0 -0.020482474519229479 -0.2236017116935326 0 -0.046178205342991663 -0.22926012325503431 0 -0.020482474519229479 -0.2236017116935326 0 -0.046178205342991663 -0.22926012325503431 0 -0.039567378369605673 -0.22064738725025829 0 -0.020482474519229479 -0.2236017116935326 0 -0.046178205342991663 -0.22926012325503431 0 -0.03418504585759493 -0.23438418031812189 0 -0.046178205342991663 -0.22926012325503431 0 -0.04228329748576596 -0.23622167364580879 0 -0.03418504585759493 -0.23438418031812189 0 -0.046178205342991663 -0.22926012325503431 0 -0.039567378369605673 -0.22064738725025829 0 -0.050323823345759633 -0.22389010759169409 0 -0.046178205342991663 -0.22926012325503431 0 -0.071873936166753971 -0.23491853481653599 0 -0.046178205342991663 -0.22926012325503431 0 -0.052301932096045591 -0.23714343008129299 0 -0.071873936166753971 -0.23491853481653599 0 -0.046178205342991663 -0.22926012325503431 0 -0.050323823345759633 -0.22389010759169409 0 -0.060872439946322923 -0.22324223679183369 0 -0.046178205342991663 -0.22926012325503431 0 -0.060872439946322923 -0.22324223679183369 0 -0.071873936166753971 -0.23491853481653599 0 -0.054401457689735457 -0.21834190237415399 0 -0.050323823345759633 -0.22389010759169409 0 -0.060872439946322923 -0.22324223679183369 0 -0.046178205342991663 -0.22926012325503431 0 -0.052301932096045591 -0.23714343008129299 0 -0.04228329748576596 -0.23622167364580879 0 -0.052301932096045591 -0.23714343008129299 0 -0.056088383474936929 -0.24485817140682159 0 -0.045970258249962981 -0.24194846027443331 0 -0.052301932096045591 -0.23714343008129299 0 -0.056088383474936929 -0.24485817140682159 0 -0.071873936166753971 -0.23491853481653599 0 -0.04618549483822789 -0.25040962026526192 0 -0.056088383474936929 -0.24485817140682159 0 -0.045970258249962981 -0.24194846027443331 0 -0.04618549483822789 -0.25040962026526192 0 -0.045970258249962981 -0.24194846027443331 0 -0.037026263035115803 -0.2455232766625722 0 -0.04228329748576596 -0.23622167364580879 0 -0.045970258249962981 -0.24194846027443331 0 -0.037026263035115803 -0.2455232766625722 0 -0.052301932096045591 -0.23714343008129299 0 -0.04228329748576596 -0.23622167364580879 0 -0.045970258249962981 -0.24194846027443331 0 -0.02524851288041547 -0.2404509875535713 0 -0.03418504585759493 -0.23438418031812189 0 -0.037026263035115803 -0.2455232766625722 0 -0.04228329748576596 -0.23622167364580879 0 -0.03418504585759493 -0.23438418031812189 0 -0.037026263035115803 -0.2455232766625722 0 -0.083161105180478506 -0.24777117505195931 0 -0.071873936166753971 -0.23491853481653599 0 -0.097569666990516196 -0.24057694637803759 0 -0.096036871119177095 -0.25634881738357052 0 -0.083161105180478506 -0.24777117505195931 0 -0.097569666990516196 -0.24057694637803759 0 -0.071873936166753971 -0.23491853481653599 0 -0.097569666990516196 -0.24057694637803759 0 -0.083161105180478506 -0.24777117505195931 0 -0.069354248986417039 -0.24986922427479361 0 -0.071873936166753971 -0.23491853481653599 0 -0.056088383474936929 -0.24485817140682159 0 -0.069354248986417039 -0.24986922427479361 0 -0.071873936166753971 -0.23491853481653599 0 -0.060872439946322923 -0.22324223679183369 0 -0.071873936166753971 -0.23491853481653599 0 -0.078905937654431671 -0.22216477695198131 0 -0.058230912281230812 -0.2124477166486457 0 -0.060872439946322923 -0.22324223679183369 0 -0.078905937654431671 -0.22216477695198131 0 -0.078905937654431671 -0.22216477695198131 0 -0.095972115386728563 -0.2205481583904427 0 -0.099580963027632294 -0.231881837255317 0 -0.071873936166753971 -0.23491853481653599 0 -0.078905937654431671 -0.22216477695198131 0 -0.097569666990516196 -0.24057694637803759 0 -0.078905937654431671 -0.22216477695198131 0 -0.099580963027632294 -0.231881837255317 0 -0.097569666990516196 -0.24057694637803759 0 -0.078905937654431671 -0.22216477695198131 0 -0.099580963027632294 -0.231881837255317 0 -0.078905937654431671 -0.22216477695198131 0 -0.086618556277413578 -0.21410956349141791 0 -0.095972115386728563 -0.2205481583904427 0 -0.086618556277413578 -0.21410956349141791 0 -0.097065816698300722 -0.209902634335833 0 -0.095972115386728563 -0.2205481583904427 0 -0.086357957766658305 -0.20541074781144739 0 -0.094976002919610975 -0.1976005708378771 0 -0.097065816698300722 -0.209902634335833 0 -0.086618556277413578 -0.21410956349141791 0 -0.086357957766658305 -0.20541074781144739 0 -0.097065816698300722 -0.209902634335833 0 -0.086618556277413578 -0.21410956349141791 0 -0.086357957766658305 -0.20541074781144739 0 -0.074130118498696995 -0.20837437962717831 0 -0.078905937654431671 -0.22216477695198131 0 -0.086618556277413578 -0.21410956349141791 0 -0.074130118498696995 -0.20837437962717831 0 -0.058230912281230812 -0.2124477166486457 0 -0.074130118498696995 -0.20837437962717831 0 -0.067337313310813565 -0.19683638416798491 0 -0.058230912281230812 -0.2124477166486457 0 -0.078905937654431671 -0.22216477695198131 0 -0.058230912281230812 -0.2124477166486457 0 -0.078905937654431671 -0.22216477695198131 0 -0.074130118498696995 -0.20837437962717831 0 -0.052002289186797307 -0.18699464328292081 0 -0.067337313310813565 -0.19683638416798491 0 -0.072262670056362763 -0.18094976456976181 0 -0.067337313310813565 -0.19683638416798491 0 -0.080060576530980088 -0.19541541671141799 0 -0.072262670056362763 -0.18094976456976181 0 -0.074130118498696995 -0.20837437962717831 0 -0.067337313310813565 -0.19683638416798491 0 -0.080060576530980088 -0.19541541671141799 0 -0.086357957766658305 -0.20541074781144739 0 -0.074130118498696995 -0.20837437962717831 0 -0.080060576530980088 -0.19541541671141799 0 -0.086357957766658305 -0.20541074781144739 0 -0.080060576530980088 -0.19541541671141799 0 -0.094976002919610975 -0.1976005708378771 0 -0.080060576530980088 -0.19541541671141799 0 -0.094976002919610975 -0.1976005708378771 0 -0.090117386210590622 -0.18411738347046119 0 -0.094976002919610975 -0.1976005708378771 0 -0.1076580695554952 -0.1878424532639168 0 -0.090117386210590622 -0.18411738347046119 0 -0.094976002919610975 -0.1976005708378771 0 -0.1085962107556409 -0.2029147894341862 0 -0.1076580695554952 -0.1878424532639168 0 -0.1085962107556409 -0.2029147894341862 0 -0.1076580695554952 -0.1878424532639168 0 -0.12407951960934969 -0.19530210180974111 0 -0.1085962107556409 -0.2029147894341862 0 -0.12380948787171241 -0.2123840995226593 0 -0.1078746246534205 -0.21802065338811219 0 -0.1085962107556409 -0.2029147894341862 0 -0.12407951960934969 -0.19530210180974111 0 -0.12380948787171241 -0.2123840995226593 0 -0.1085962107556409 -0.2029147894341862 0 -0.1078746246534205 -0.21802065338811219 0 -0.097065816698300722 -0.209902634335833 0 -0.094976002919610975 -0.1976005708378771 0 -0.1085962107556409 -0.2029147894341862 0 -0.097065816698300722 -0.209902634335833 0 -0.1078746246534205 -0.21802065338811219 0 -0.097065816698300722 -0.209902634335833 0 -0.095972115386728563 -0.2205481583904427 0 -0.1078746246534205 -0.21802065338811219 0 -0.099580963027632294 -0.231881837255317 0 -0.1185655711151308 -0.2262354405192831 0 -0.1078746246534205 -0.21802065338811219 0 -0.095972115386728563 -0.2205481583904427 0 -0.099580963027632294 -0.231881837255317 0 -0.12380948787171241 -0.2123840995226593 0 -0.1078746246534205 -0.21802065338811219 0 -0.1185655711151308 -0.2262354405192831 0 -0.099580963027632294 -0.231881837255317 0 -0.1185655711151308 -0.2262354405192831 0 -0.12025598840083281 -0.2415988975586526 0 -0.12275815006185969 -0.25761869203139598 0 -0.12025598840083281 -0.2415988975586526 0 -0.1087023929305591 -0.24575936891010619 0 -0.099580963027632294 -0.231881837255317 0 -0.12025598840083281 -0.2415988975586526 0 -0.1087023929305591 -0.24575936891010619 0 -0.099580963027632294 -0.231881837255317 0 -0.12025598840083281 -0.2415988975586526 0 -0.096036871119177095 -0.25634881738357052 0 -0.1087023929305591 -0.24575936891010619 0 -0.097569666990516196 -0.24057694637803759 0 -0.099580963027632294 -0.231881837255317 0 -0.1087023929305591 -0.24575936891010619 0 -0.097569666990516196 -0.24057694637803759 0 -0.085274191498156959 -0.1529837732063361 0 -0.08240960914160339 -0.13638903488746909 0 -0.073744245772733835 -0.14524176726721119 0 -0.085274191498156959 -0.1529837732063361 0 -0.08240960914160339 -0.13638903488746909 0 -0.098234169908575558 -0.14407149134109379 0 -0.08240960914160339 -0.13638903488746909 0 -0.098234169908575558 -0.14407149134109379 0 -0.093982027244670974 -0.1315104457850988 0 -0.08240960914160339 -0.13638903488746909 0 -0.098234169908575558 -0.14407149134109379 0 -0.079480677129163083 -0.1222829519756167 0 -0.08240960914160339 -0.13638903488746909 0 -0.093982027244670974 -0.1315104457850988 0 -0.08240960914160339 -0.13638903488746909 0 -0.066585048374631195 -0.12870657843384459 0 -0.073744245772733835 -0.14524176726721119 0 -0.08240960914160339 -0.13638903488746909 0 -0.066585048374631195 -0.12870657843384459 0 -0.079480677129163083 -0.1222829519756167 0 -0.08240960914160339 -0.13638903488746909 0 -0.066585048374631195 -0.12870657843384459 0 -0.061836737218624087 -0.1392467778113938 0 -0.066585048374631195 -0.12870657843384459 0 -0.073744245772733835 -0.14524176726721119 0 -0.066585048374631195 -0.12870657843384459 0 -0.073744245772733835 -0.14524176726721119 0 -0.058595597533760473 -0.15104403891727461 0 -0.073744245772733835 -0.14524176726721119 0 -0.072892919398045597 -0.1617684866521843 0 -0.058595597533760473 -0.15104403891727461 0 -0.061836737218624087 -0.1392467778113938 0 -0.073744245772733835 -0.14524176726721119 0 -0.085274191498156959 -0.1529837732063361 0 -0.073744245772733835 -0.14524176726721119 0 -0.072892919398045597 -0.1617684866521843 0 -0.072892919398045597 -0.1617684866521843 0 -0.072262670056362763 -0.18094976456976181 0 -0.086891984883220266 -0.16928009889986531 0 -0.060305428453466127 -0.16845970066786739 0 -0.072892919398045597 -0.1617684866521843 0 -0.072262670056362763 -0.18094976456976181 0 -0.060305428453466127 -0.16845970066786739 0 -0.058595597533760473 -0.15104403891727461 0 -0.072892919398045597 -0.1617684866521843 0 -0.080060576530980088 -0.19541541671141799 0 -0.072262670056362763 -0.18094976456976181 0 -0.090117386210590622 -0.18411738347046119 0 -0.072262670056362763 -0.18094976456976181 0 -0.090117386210590622 -0.18411738347046119 0 -0.086891984883220266 -0.16928009889986531 0 -0.090117386210590622 -0.18411738347046119 0 -0.086891984883220266 -0.16928009889986531 0 -0.10024671310071109 -0.17403838265651861 0 -0.085274191498156959 -0.1529837732063361 0 -0.072892919398045597 -0.1617684866521843 0 -0.086891984883220266 -0.16928009889986531 0 -0.085274191498156959 -0.1529837732063361 0 -0.086891984883220266 -0.16928009889986531 0 -0.099064607573091407 -0.15894864648766849 0 -0.086891984883220266 -0.16928009889986531 0 -0.099064607573091407 -0.15894864648766849 0 -0.10024671310071109 -0.17403838265651861 0 -0.099064607573091407 -0.15894864648766849 0 -0.10024671310071109 -0.17403838265651861 0 -0.11084377039950449 -0.16417024651668349 0 -0.099064607573091407 -0.15894864648766849 0 -0.11084377039950449 -0.16417024651668349 0 -0.1128968156483801 -0.14914788630551351 0 -0.1076580695554952 -0.1878424532639168 0 -0.090117386210590622 -0.18411738347046119 0 -0.10024671310071109 -0.17403838265651861 0 -0.1076580695554952 -0.1878424532639168 0 -0.12407951960934969 -0.19530210180974111 0 -0.1219082846621198 -0.1773915086117992 0 -0.1076580695554952 -0.1878424532639168 0 -0.10024671310071109 -0.17403838265651861 0 -0.1219082846621198 -0.1773915086117992 0 -0.10024671310071109 -0.17403838265651861 0 -0.1219082846621198 -0.1773915086117992 0 -0.11084377039950449 -0.16417024651668349 0 -0.1219082846621198 -0.1773915086117992 0 -0.11084377039950449 -0.16417024651668349 0 -0.12535065221621169 -0.16147719466059759 0 -0.11084377039950449 -0.16417024651668349 0 -0.1128968156483801 -0.14914788630551351 0 -0.12535065221621169 -0.16147719466059759 0 -0.1128968156483801 -0.14914788630551351 0 -0.12835596383565359 -0.14713793072949261 0 -0.12535065221621169 -0.16147719466059759 0 -0.1128968156483801 -0.14914788630551351 0 -0.1238367175059541 -0.13407547289885149 0 -0.12835596383565359 -0.14713793072949261 0 -0.099064607573091407 -0.15894864648766849 0 -0.1128968156483801 -0.14914788630551351 0 -0.098234169908575558 -0.14407149134109379 0 -0.1128968156483801 -0.14914788630551351 0 -0.098234169908575558 -0.14407149134109379 0 -0.1092675985926794 -0.13454554542672961 0 -0.085274191498156959 -0.1529837732063361 0 -0.099064607573091407 -0.15894864648766849 0 -0.098234169908575558 -0.14407149134109379 0 -0.097511515019495371 -0.1161618035163912 0 -0.093982027244670974 -0.1315104457850988 0 -0.1092675985926794 -0.13454554542672961 0 -0.098234169908575558 -0.14407149134109379 0 -0.093982027244670974 -0.1315104457850988 0 -0.1092675985926794 -0.13454554542672961 0 -0.11679916795141 -0.11855651071921181 0 -0.1092675985926794 -0.13454554542672961 0 -0.1238367175059541 -0.13407547289885149 0 -0.11679916795141 -0.11855651071921181 0 -0.1238367175059541 -0.13407547289885149 0 -0.1325704388426576 -0.1243072301198026 0 -0.1128968156483801 -0.14914788630551351 0 -0.1092675985926794 -0.13454554542672961 0 -0.1238367175059541 -0.13407547289885149 0 -0.1238367175059541 -0.13407547289885149 0 -0.14031722195299631 -0.1392575064564405 0 -0.12835596383565359 -0.14713793072949261 0 -0.1238367175059541 -0.13407547289885149 0 -0.14031722195299631 -0.1392575064564405 0 -0.1325704388426576 -0.1243072301198026 0 -0.14031722195299631 -0.1392575064564405 0 -0.1325704388426576 -0.1243072301198026 0 -0.15241650530921241 -0.12246979442982869 0 -0.14031722195299631 -0.1392575064564405 0 -0.157632815591496 -0.14769980211167369 0 -0.15241650530921241 -0.12246979442982869 0 -0.14031722195299631 -0.1392575064564405 0 -0.14133565749718219 -0.1573898663627252 0 -0.157632815591496 -0.14769980211167369 0 -0.12835596383565359 -0.14713793072949261 0 -0.12535065221621169 -0.16147719466059759 0 -0.14133565749718219 -0.1573898663627252 0 -0.14031722195299631 -0.1392575064564405 0 -0.12835596383565359 -0.14713793072949261 0 -0.14133565749718219 -0.1573898663627252 0 -0.12535065221621169 -0.16147719466059759 0 -0.13719483867797261 -0.1718064079915754 0 -0.14133565749718219 -0.1573898663627252 0 -0.1219082846621198 -0.1773915086117992 0 -0.12535065221621169 -0.16147719466059759 0 -0.13719483867797261 -0.1718064079915754 0 -0.12407951960934969 -0.19530210180974111 0 -0.1219082846621198 -0.1773915086117992 0 -0.1407593345583866 -0.1866093140656577 0 -0.1219082846621198 -0.1773915086117992 0 -0.13719483867797261 -0.1718064079915754 0 -0.1407593345583866 -0.1866093140656577 0 -0.13719483867797261 -0.1718064079915754 0 -0.1407593345583866 -0.1866093140656577 0 -0.15748309930304841 -0.17252551336550459 0 -0.1407593345583866 -0.1866093140656577 0 -0.15748309930304841 -0.17252551336550459 0 -0.16702952582891081 -0.196489553192918 0 -0.14133565749718219 -0.1573898663627252 0 -0.15748309930304841 -0.17252551336550459 0 -0.157632815591496 -0.14769980211167369 0 -0.13719483867797261 -0.1718064079915754 0 -0.14133565749718219 -0.1573898663627252 0 -0.15748309930304841 -0.17252551336550459 0 -0.15748309930304841 -0.17252551336550459 0 -0.17439901109034109 -0.15787499218406301 0 -0.157632815591496 -0.14769980211167369 0 -0.15748309930304841 -0.17252551336550459 0 -0.18324435849224449 -0.17833127157803461 0 -0.17439901109034109 -0.15787499218406301 0 -0.15748309930304841 -0.17252551336550459 0 -0.18324435849224449 -0.17833127157803461 0 -0.16702952582891081 -0.196489553192918 0 -0.18324435849224449 -0.17833127157803461 0 -0.17439901109034109 -0.15787499218406301 0 -0.19828435294020691 -0.15305565110012501 0 -0.17439901109034109 -0.15787499218406301 0 -0.17535042912470961 -0.13776272276497681 0 -0.19828435294020691 -0.15305565110012501 0 -0.17535042912470961 -0.13776272276497681 0 -0.19828435294020691 -0.15305565110012501 0 -0.17535042912470961 -0.13776272276497681 0 -0.17025878243173759 -0.11811635005738751 0 -0.15241650530921241 -0.12246979442982869 0 -0.17535042912470961 -0.13776272276497681 0 -0.157632815591496 -0.14769980211167369 0 -0.15241650530921241 -0.12246979442982869 0 -0.17535042912470961 -0.13776272276497681 0 -0.15241650530921241 -0.12246979442982869 0 -0.17439901109034109 -0.15787499218406301 0 -0.17535042912470961 -0.13776272276497681 0 -0.157632815591496 -0.14769980211167369 0 -0.14093101377403339 -0.25131595786198829 0 -0.15550554633892641 -0.24312817636800099 0 -0.14130679162205559 -0.22729171487167441 0 -0.14093101377403339 -0.25131595786198829 0 -0.12025598840083281 -0.2415988975586526 0 -0.14130679162205559 -0.22729171487167441 0 -0.14093101377403339 -0.25131595786198829 0 -0.12025598840083281 -0.2415988975586526 0 -0.12380948787171241 -0.2123840995226593 0 -0.1185655711151308 -0.2262354405192831 0 -0.14130679162205559 -0.22729171487167441 0 -0.1185655711151308 -0.2262354405192831 0 -0.12025598840083281 -0.2415988975586526 0 -0.14130679162205559 -0.22729171487167441 0 -0.14130679162205559 -0.22729171487167441 0 -0.15567390943166459 -0.21317250064193191 0 -0.16908580516533619 -0.2252069093586187 0 -0.15550554633892641 -0.24312817636800099 0 -0.14130679162205559 -0.22729171487167441 0 -0.16908580516533619 -0.2252069093586187 0 -0.1417457302527432 -0.2046704459602271 0 -0.15567390943166459 -0.21317250064193191 0 -0.16702952582891081 -0.196489553192918 0 -0.14130679162205559 -0.22729171487167441 0 -0.1417457302527432 -0.2046704459602271 0 -0.15567390943166459 -0.21317250064193191 0 -0.12407951960934969 -0.19530210180974111 0 -0.12380948787171241 -0.2123840995226593 0 -0.1417457302527432 -0.2046704459602271 0 -0.12380948787171241 -0.2123840995226593 0 -0.14130679162205559 -0.22729171487167441 0 -0.1417457302527432 -0.2046704459602271 0 -0.12407951960934969 -0.19530210180974111 0 -0.1407593345583866 -0.1866093140656577 0 -0.1417457302527432 -0.2046704459602271 0 -0.1407593345583866 -0.1866093140656577 0 -0.1417457302527432 -0.2046704459602271 0 -0.16702952582891081 -0.196489553192918 0 -0.18324435849224449 -0.17833127157803461 0 -0.16702952582891081 -0.196489553192918 0 -0.1855365756718983 -0.20321381111995779 0 -0.1855365756718983 -0.20321381111995779 0 -0.16908580516533619 -0.2252069093586187 0 -0.18870054142532439 -0.22040655201447629 0 -0.16702952582891081 -0.196489553192918 0 -0.1855365756718983 -0.20321381111995779 0 -0.16908580516533619 -0.2252069093586187 0 -0.16702952582891081 -0.196489553192918 0 -0.16908580516533619 -0.2252069093586187 0 -0.15567390943166459 -0.21317250064193191 0 -0.16702952582891081 -0.196489553192918 0 -0.16908580516533619 -0.2252069093586187 0 -0.16908580516533619 -0.2252069093586187 0 -0.1831972224734689 -0.23100681118707511 0 -0.18025512079503139 -0.24152858981872261 0 -0.16908580516533619 -0.2252069093586187 0 -0.1831972224734689 -0.23100681118707511 0 -0.18870054142532439 -0.22040655201447629 0 -0.17114208450176149 -0.25392426552431951 0 -0.16908580516533619 -0.2252069093586187 0 -0.18025512079503139 -0.24152858981872261 0 -0.18397289317318519 -0.25976340762325162 0 -0.18025512079503139 -0.24152858981872261 0 -0.1947474225081835 -0.2368851935564828 0 -0.1831972224734689 -0.23100681118707511 0 -0.18025512079503139 -0.24152858981872261 0 -0.1947474225081835 -0.2368851935564828 0 -0.17114208450176149 -0.25392426552431951 0 -0.16908580516533619 -0.2252069093586187 0 -0.17114208450176149 -0.25392426552431951 0 -0.15550554633892641 -0.24312817636800099 0 -0.16908580516533619 -0.2252069093586187 0 -0.20496201374609979 -0.2387368529935201 0 -0.21864938126331959 -0.22543047545859071 0 -0.21978983545209549 -0.24214005824423079 0 -0.21502492674253099 -0.25133597507959871 0 -0.20496201374609979 -0.2387368529935201 0 -0.21978983545209549 -0.24214005824423079 0 -0.18397289317318519 -0.25976340762325162 0 -0.1947474225081835 -0.2368851935564828 0 -0.1974750033546612 -0.25093860666183337 0 -0.18397289317318519 -0.25976340762325162 0 -0.1947474225081835 -0.2368851935564828 0 -0.1974750033546612 -0.25093860666183337 0 -0.20496201374609979 -0.2387368529935201 0 -0.1947474225081835 -0.2368851935564828 0 -0.1831972224734689 -0.23100681118707511 0 -0.1947474225081835 -0.2368851935564828 0 -0.18870054142532439 -0.22040655201447629 0 -0.1947474225081835 -0.2368851935564828 0 -0.205521951843182 -0.21400697948971409 0 -0.20496201374609979 -0.2387368529935201 0 -0.1947474225081835 -0.2368851935564828 0 -0.205521951843182 -0.21400697948971409 0 -0.1947474225081835 -0.2368851935564828 0 -0.18870054142532439 -0.22040655201447629 0 -0.205521951843182 -0.21400697948971409 0 -0.20496201374609979 -0.2387368529935201 0 -0.205521951843182 -0.21400697948971409 0 -0.20496201374609979 -0.2387368529935201 0 -0.21864938126331959 -0.22543047545859071 0 -0.205521951843182 -0.21400697948971409 0 -0.21864938126331959 -0.22543047545859071 0 -0.21806543531455999 -0.2132895570732227 0 -0.205521951843182 -0.21400697948971409 0 -0.21806543531455999 -0.2132895570732227 0 -0.21022064659395009 -0.20402995487915401 0 -0.22046149852518451 -0.20391799246761441 0 -0.21806543531455999 -0.2132895570732227 0 -0.21022064659395009 -0.20402995487915401 0 -0.205521951843182 -0.21400697948971409 0 -0.21022064659395009 -0.20402995487915401 0 -0.205521951843182 -0.21400697948971409 0 -0.1855365756718983 -0.20321381111995779 0 -0.18870054142532439 -0.22040655201447629 0 -0.19462059807277851 -0.2105946715018911 0 -0.18870054142532439 -0.22040655201447629 0 -0.205521951843182 -0.21400697948971409 0 -0.19462059807277851 -0.2105946715018911 0 -0.1855365756718983 -0.20321381111995779 0 -0.19462059807277851 -0.2105946715018911 0 -0.19732749616142001 -0.20218401911108569 0 -0.205521951843182 -0.21400697948971409 0 -0.19462059807277851 -0.2105946715018911 0 -0.19732749616142001 -0.20218401911108569 0 -0.18324435849224449 -0.17833127157803461 0 -0.1855365756718983 -0.20321381111995779 0 -0.19492289300168161 -0.19012845564190961 0 -0.205521951843182 -0.21400697948971409 0 -0.19732749616142001 -0.20218401911108569 0 -0.20605911862316131 -0.19028280964210681 0 -0.1855365756718983 -0.20321381111995779 0 -0.19732749616142001 -0.20218401911108569 0 -0.19492289300168161 -0.19012845564190961 0 -0.19732749616142001 -0.20218401911108569 0 -0.19492289300168161 -0.19012845564190961 0 -0.20605911862316131 -0.19028280964210681 0 -0.205521951843182 -0.21400697948971409 0 -0.20605911862316131 -0.19028280964210681 0 -0.21022064659395009 -0.20402995487915401 0 -0.205521951843182 -0.21400697948971409 0 -0.20605911862316131 -0.19028280964210681 0 -0.21022064659395009 -0.20402995487915401 0 -0.20605911862316131 -0.19028280964210681 0 -0.2144894623300844 -0.19523424110635759 0 -0.21022064659395009 -0.20402995487915401 0 -0.2144894623300844 -0.19523424110635759 0 -0.22046149852518451 -0.20391799246761441 0 -0.2144894623300844 -0.19523424110635759 0 -0.22206507936836339 -0.18816766669326279 0 -0.21493888317954299 -0.18371300755101011 0 -0.20605911862316131 -0.19028280964210681 0 -0.2144894623300844 -0.19523424110635759 0 -0.21493888317954299 -0.18371300755101011 0 -0.22534664697250029 -0.1957277500176248 0 -0.23418530141482741 -0.21130845926171271 0 -0.2368712171885366 -0.1871151028730397 0 -0.2144894623300844 -0.19523424110635759 0 -0.22206507936836339 -0.18816766669326279 0 -0.22534664697250029 -0.1957277500176248 0 -0.22206507936836339 -0.18816766669326279 0 -0.22534664697250029 -0.1957277500176248 0 -0.22850688608396821 -0.186762291897104 0 -0.2144894623300844 -0.19523424110635759 0 -0.22534664697250029 -0.1957277500176248 0 -0.22046149852518451 -0.20391799246761441 0 -0.22534664697250029 -0.1957277500176248 0 -0.22850688608396821 -0.186762291897104 0 -0.2368712171885366 -0.1871151028730397 0 -0.24561626626948921 -0.1962427190764516 0 -0.2368712171885366 -0.1871151028730397 0 -0.23948602157315579 -0.18052997999217571 0 -0.23418530141482741 -0.21130845926171271 0 -0.2368712171885366 -0.1871151028730397 0 -0.24561626626948921 -0.1962427190764516 0 -0.23948602157315579 -0.18052997999217571 0 -0.25775376639060738 -0.1927113805490783 0 -0.24561626626948921 -0.1962427190764516 0 -0.23418530141482741 -0.21130845926171271 0 -0.2368712171885366 -0.1871151028730397 0 -0.24561626626948921 -0.1962427190764516 0 -0.245773254826505 -0.20823126201400199 0 -0.25644432346436052 -0.20276517554389251 0 -0.24561626626948921 -0.1962427190764516 0 -0.245773254826505 -0.20823126201400199 0 -0.23418530141482741 -0.21130845926171271 0 -0.245773254826505 -0.20823126201400199 0 -0.23418530141482741 -0.21130845926171271 0 -0.24952608325490699 -0.22006214967458301 0 -0.21806543531455999 -0.2132895570732227 0 -0.23418530141482741 -0.21130845926171271 0 -0.22046149852518451 -0.20391799246761441 0 -0.21864938126331959 -0.22543047545859071 0 -0.21806543531455999 -0.2132895570732227 0 -0.23418530141482741 -0.21130845926171271 0 -0.22534664697250029 -0.1957277500176248 0 -0.23418530141482741 -0.21130845926171271 0 -0.22046149852518451 -0.20391799246761441 0 -0.21864938126331959 -0.22543047545859071 0 -0.23418530141482741 -0.21130845926171271 0 -0.23149938564111819 -0.23550181565038569 0 -0.21864938126331959 -0.22543047545859071 0 -0.23149938564111819 -0.23550181565038569 0 -0.21978983545209549 -0.24214005824423079 0 -0.23418530141482741 -0.21130845926171271 0 -0.23149938564111819 -0.23550181565038569 0 -0.24952608325490699 -0.22006214967458301 0 -0.23149938564111819 -0.23550181565038569 0 -0.2536317023007878 -0.2372900317130387 0 -0.23418530141482741 -0.21130845926171271 0 -0.24952608325490699 -0.22006214967458301 0 -0.23149938564111819 -0.23550181565038569 0 -0.24827797024798609 -0.25545493364081862 0 -0.23149938564111819 -0.23550181565038569 0 -0.2536317023007878 -0.2372900317130387 0 -0.22881346986740889 -0.25969517203905867 0 -0.23149938564111819 -0.23550181565038569 0 -0.22881346986740889 -0.25969517203905867 0 -0.23149938564111819 -0.23550181565038569 0 -0.21978983545209549 -0.24214005824423079 0 -0.21554852519343631 -0.14979861314923229 0 -0.20326459084737289 -0.1340758140810763 0 -0.19828435294020691 -0.15305565110012501 0 -0.20326459084737289 -0.1340758140810763 0 -0.2191363851110881 -0.12538766070976959 0 -0.1935065428592255 -0.1165606293695631 0 -0.21554852519343631 -0.14979861314923229 0 -0.20326459084737289 -0.1340758140810763 0 -0.2191363851110881 -0.12538766070976959 0 -0.17535042912470961 -0.13776272276497681 0 -0.20326459084737289 -0.1340758140810763 0 -0.1935065428592255 -0.1165606293695631 0 -0.17535042912470961 -0.13776272276497681 0 -0.20326459084737289 -0.1340758140810763 0 -0.19828435294020691 -0.15305565110012501 0 -0.18324435849224449 -0.17833127157803461 0 -0.19828435294020691 -0.15305565110012501 0 -0.2024469160596839 -0.17663036675836319 0 -0.18324435849224449 -0.17833127157803461 0 -0.19492289300168161 -0.19012845564190961 0 -0.2024469160596839 -0.17663036675836319 0 -0.19492289300168161 -0.19012845564190961 0 -0.20605911862316131 -0.19028280964210681 0 -0.2024469160596839 -0.17663036675836319 0 -0.2024469160596839 -0.17663036675836319 0 -0.21493888317954299 -0.18371300755101011 0 -0.2212182767557043 -0.16834857943527309 0 -0.20605911862316131 -0.19028280964210681 0 -0.2024469160596839 -0.17663036675836319 0 -0.21493888317954299 -0.18371300755101011 0 -0.21493888317954299 -0.18371300755101011 0 -0.2212182767557043 -0.16834857943527309 0 -0.21554852519343631 -0.14979861314923229 0 -0.19828435294020691 -0.15305565110012501 0 -0.2212182767557043 -0.16834857943527309 0 -0.19828435294020691 -0.15305565110012501 0 -0.2212182767557043 -0.16834857943527309 0 -0.19828435294020691 -0.15305565110012501 0 -0.2024469160596839 -0.17663036675836319 0 -0.2212182767557043 -0.16834857943527309 0 -0.2212182767557043 -0.16834857943527309 0 -0.23948602157315579 -0.18052997999217571 0 -0.23828378537395919 -0.16381001122639199 0 -0.2212182767557043 -0.16834857943527309 0 -0.23828378537395919 -0.16381001122639199 0 -0.23145267108277021 -0.1433070504979459 0 -0.2212182767557043 -0.16834857943527309 0 -0.23948602157315579 -0.18052997999217571 0 -0.2212182767557043 -0.16834857943527309 0 -0.2270435182757207 -0.17940104289421771 0 -0.23948602157315579 -0.18052997999217571 0 -0.22206507936836339 -0.18816766669326279 0 -0.21493888317954299 -0.18371300755101011 0 -0.2270435182757207 -0.17940104289421771 0 -0.22206507936836339 -0.18816766669326279 0 -0.2270435182757207 -0.17940104289421771 0 -0.22850688608396821 -0.186762291897104 0 -0.21493888317954299 -0.18371300755101011 0 -0.2212182767557043 -0.16834857943527309 0 -0.2270435182757207 -0.17940104289421771 0 -0.2270435182757207 -0.17940104289421771 0 -0.2329769107803453 -0.18345210441413429 0 -0.23948602157315579 -0.18052997999217571 0 -0.2329769107803453 -0.18345210441413429 0 -0.22850688608396821 -0.186762291897104 0 -0.2368712171885366 -0.1871151028730397 0 -0.2270435182757207 -0.17940104289421771 0 -0.2329769107803453 -0.18345210441413429 0 -0.22850688608396821 -0.186762291897104 0 -0.23948602157315579 -0.18052997999217571 0 -0.23828378537395919 -0.16381001122639199 0 -0.24603994590135489 -0.17167346917297491 0 -0.23948602157315579 -0.18052997999217571 0 -0.25775376639060738 -0.1927113805490783 0 -0.2329769107803453 -0.18345210441413429 0 -0.2368712171885366 -0.1871151028730397 0 -0.23948602157315579 -0.18052997999217571 0 -0.23948602157315579 -0.18052997999217571 0 -0.24889463164364681 -0.17799518177576529 0 -0.24603994590135489 -0.17167346917297491 0 -0.23948602157315579 -0.18052997999217571 0 -0.24889463164364681 -0.17799518177576529 0 -0.25399129187800901 -0.18275551748322119 0 -0.23828378537395919 -0.16381001122639199 0 -0.24603994590135489 -0.17167346917297491 0 -0.25418454954943548 -0.16550371179532489 0 -0.23828378537395919 -0.16381001122639199 0 -0.25418454954943548 -0.16550371179532489 0 -0.25118390415433972 -0.15405218721727429 0 -0.23145267108277021 -0.1433070504979459 0 -0.24670829182420889 -0.13553695229414689 0 -0.25118390415433972 -0.15405218721727429 0 -0.23828378537395919 -0.16381001122639199 0 -0.23145267108277021 -0.1433070504979459 0 -0.25118390415433972 -0.15405218721727429 0 -0.2212182767557043 -0.16834857943527309 0 -0.23145267108277021 -0.1433070504979459 0 -0.21554852519343631 -0.14979861314923229 0 -0.2212182767557043 -0.16834857943527309 0 -0.23145267108277021 -0.1433070504979459 0 -0.23145267108277021 -0.1433070504979459 0 -0.2191363851110881 -0.12538766070976959 0 -0.24168706540983631 -0.11826552156061861 0 -0.21554852519343631 -0.14979861314923229 0 -0.23145267108277021 -0.1433070504979459 0 -0.2191363851110881 -0.12538766070976959 0 -0.23145267108277021 -0.1433070504979459 0 -0.24670829182420889 -0.13553695229414689 0 -0.24168706540983631 -0.11826552156061861 0 -0.23145267108277021 -0.1433070504979459 0 -0.24168706540983631 -0.11826552156061861 0 -0.24168706540983631 -0.11826552156061861 0 -0.2450926919459446 -0.10993263026013871 0 -0.21847471151871459 -0.101827052451873 0 -0.24168706540983631 -0.11826552156061861 0 -0.2450926919459446 -0.10993263026013871 0 -0.24168706540983631 -0.11826552156061861 0 -0.2450926919459446 -0.10993263026013871 0 -0.25686826842719213 -0.1164815964754297 0 -0.24898541820143941 -0.099744079344400965 0 -0.23505180382786009 -0.095147691264952178 0 -0.25181003488911058 -0.088936769675605293 0 -0.2450926919459446 -0.10993263026013871 0 -0.24898541820143941 -0.099744079344400965 0 -0.23505180382786009 -0.095147691264952178 0 -0.2450926919459446 -0.10993263026013871 0 -0.23505180382786009 -0.095147691264952178 0 -0.21847471151871459 -0.101827052451873 0 -0.24168706540983631 -0.11826552156061861 0 -0.21847471151871459 -0.101827052451873 0 -0.2191363851110881 -0.12538766070976959 0 -0.24168706540983631 -0.11826552156061861 0 -0.21847471151871459 -0.101827052451873 0 -0.23505180382786009 -0.095147691264952178 0 -0.23639725622590621 -0.073176214108610221 0 -0.25181003488911058 -0.088936769675605293 0 -0.23505180382786009 -0.095147691264952178 0 -0.23639725622590621 -0.073176214108610221 0 -0.2185521229612668 -0.074513868105514289 0 -0.23505180382786009 -0.095147691264952178 0 -0.2185521229612668 -0.074513868105514289 0 -0.21847471151871459 -0.101827052451873 0 -0.23639725622590621 -0.073176214108610221 0 -0.2185521229612668 -0.074513868105514289 0 -0.23132487707746721 -0.05754836942190622 0 -0.2185521229612668 -0.074513868105514289 0 -0.19526235762759239 -0.085388583343128072 0 -0.19924563781459961 -0.060678553006908137 0 -0.19526235762759239 -0.085388583343128072 0 -0.21847471151871459 -0.101827052451873 0 -0.2185521229612668 -0.074513868105514289 0 -0.19526235762759239 -0.085388583343128072 0 -0.21847471151871459 -0.101827052451873 0 -0.19526235762759239 -0.085388583343128072 0 -0.18578909403674279 -0.065516242812727665 0 -0.19924563781459961 -0.060678553006908137 0 -0.2191363851110881 -0.12538766070976959 0 -0.21847471151871459 -0.101827052451873 0 -0.1935065428592255 -0.1165606293695631 0 -0.19526235762759239 -0.085388583343128072 0 -0.21847471151871459 -0.101827052451873 0 -0.1935065428592255 -0.1165606293695631 0 -0.19526235762759239 -0.085388583343128072 0 -0.1935065428592255 -0.1165606293695631 0 -0.17438182378922071 -0.1020608473645457 0 -0.1935065428592255 -0.1165606293695631 0 -0.17025878243173759 -0.11811635005738751 0 -0.17438182378922071 -0.1020608473645457 0 -0.17535042912470961 -0.13776272276497681 0 -0.1935065428592255 -0.1165606293695631 0 -0.17025878243173759 -0.11811635005738751 0 -0.17025878243173759 -0.11811635005738751 0 -0.15896469428820531 -0.10856504232139561 0 -0.17438182378922071 -0.1020608473645457 0 -0.17025878243173759 -0.11811635005738751 0 -0.15896469428820531 -0.10856504232139561 0 -0.15241650530921241 -0.12246979442982869 0 -0.16100371709665859 -0.095831374314302983 0 -0.17438182378922071 -0.1020608473645457 0 -0.1715578129498484 -0.08622750654411282 0 -0.16100371709665859 -0.095831374314302983 0 -0.15896469428820531 -0.10856504232139561 0 -0.17438182378922071 -0.1020608473645457 0 -0.19526235762759239 -0.085388583343128072 0 -0.17205000373647031 -0.068950114234383145 0 -0.1715578129498484 -0.08622750654411282 0 -0.19526235762759239 -0.085388583343128072 0 -0.17438182378922071 -0.1020608473645457 0 -0.1715578129498484 -0.08622750654411282 0 -0.19526235762759239 -0.085388583343128072 0 -0.17205000373647031 -0.068950114234383145 0 -0.19526235762759239 -0.085388583343128072 0 -0.18578909403674279 -0.065516242812727665 0 -0.17205000373647031 -0.068950114234383145 0 -0.18578909403674279 -0.065516242812727665 0 -0.17205000373647031 -0.068950114234383145 0 -0.17398721804235609 -0.057688740130989291 0 -0.15827828913098749 -0.064672849445365485 0 -0.15894751063356341 -0.079882550597827756 0 -0.17398721804235609 -0.057688740130989291 0 -0.17205000373647031 -0.068950114234383145 0 -0.15894751063356341 -0.079882550597827756 0 -0.17398721804235609 -0.057688740130989291 0 -0.15894751063356341 -0.079882550597827756 0 -0.17398721804235609 -0.057688740130989291 0 -0.17205000373647031 -0.068950114234383145 0 -0.1715578129498484 -0.08622750654411282 0 -0.15894751063356341 -0.079882550597827756 0 -0.16100371709665859 -0.095831374314302983 0 -0.1715578129498484 -0.08622750654411282 0 -0.15894751063356341 -0.079882550597827756 0 -0.15894751063356341 -0.079882550597827756 0 -0.1427133466989729 -0.084992572913185238 0 -0.14665366183300629 -0.072017689434434304 0 -0.15894751063356341 -0.079882550597827756 0 -0.1427133466989729 -0.084992572913185238 0 -0.14390780322477059 -0.1020763610646663 0 -0.16100371709665859 -0.095831374314302983 0 -0.15894751063356341 -0.079882550597827756 0 -0.14390780322477059 -0.1020763610646663 0 -0.15894751063356341 -0.079882550597827756 0 -0.14390780322477059 -0.1020763610646663 0 -0.15827828913098749 -0.064672849445365485 0 -0.14665366183300629 -0.072017689434434304 0 -0.15043612902809511 -0.057922026932498122 0 -0.15827828913098749 -0.064672849445365485 0 -0.15894751063356341 -0.079882550597827756 0 -0.14665366183300629 -0.072017689434434304 0 -0.14665366183300629 -0.072017689434434304 0 -0.13894762502059579 -0.063355664815584037 0 -0.15043612902809511 -0.057922026932498122 0 -0.13894762502059579 -0.063355664815584037 0 -0.13125558309419269 -0.077369862107999898 0 -0.12619302875418351 -0.060577836074509478 0 -0.14665366183300629 -0.072017689434434304 0 -0.13894762502059579 -0.063355664815584037 0 -0.13125558309419269 -0.077369862107999898 0 -0.1427133466989729 -0.084992572913185238 0 -0.1307815944379738 -0.092699919988012899 0 -0.14390780322477059 -0.1020763610646663 0 -0.1427133466989729 -0.084992572913185238 0 -0.13125558309419269 -0.077369862107999898 0 -0.1307815944379738 -0.092699919988012899 0 -0.1427133466989729 -0.084992572913185238 0 -0.14665366183300629 -0.072017689434434304 0 -0.13125558309419269 -0.077369862107999898 0 -0.1307815944379738 -0.092699919988012899 0 -0.12948258149371511 -0.10717686609468061 0 -0.14390780322477059 -0.1020763610646663 0 -0.11679916795141 -0.11855651071921181 0 -0.12948258149371511 -0.10717686609468061 0 -0.1325704388426576 -0.1243072301198026 0 -0.12948258149371511 -0.10717686609468061 0 -0.1325704388426576 -0.1243072301198026 0 -0.15241650530921241 -0.12246979442982869 0 -0.15896469428820531 -0.10856504232139561 0 -0.15241650530921241 -0.12246979442982869 0 -0.14390780322477059 -0.1020763610646663 0 -0.12948258149371511 -0.10717686609468061 0 -0.15241650530921241 -0.12246979442982869 0 -0.14390780322477059 -0.1020763610646663 0 -0.12948258149371511 -0.10717686609468061 0 -0.15241650530921241 -0.12246979442982869 0 -0.16100371709665859 -0.095831374314302983 0 -0.15896469428820531 -0.10856504232139561 0 -0.14390780322477059 -0.1020763610646663 0 -0.1412699131596693 -0.020407082981404479 0 -0.15194453017624629 -0.02149233216654985 0 -0.14631868365282649 -0.0092697702074885507 0 -0.15194453017624629 -0.02149233216654985 0 -0.13873123979701091 -0.032147051796899737 0 -0.1412699131596693 -0.020407082981404479 0 -0.15194453017624629 -0.02149233216654985 0 -0.13873123979701091 -0.032147051796899737 0 -0.15194453017624629 -0.02149233216654985 0 -0.13873123979701091 -0.032147051796899737 0 -0.14809585040940271 -0.034486342336645187 0 -0.15194453017624629 -0.02149233216654985 0 -0.14809585040940271 -0.034486342336645187 0 -0.1566799433009681 -0.029888298174077479 0 -0.14631868365282649 -0.0092697702074885507 0 -0.12794466884393851 -0.002708162334285761 0 -0.1521736821911556 0.0070154644146889376 0 -0.15194453017624629 -0.02149233216654985 0 -0.14631868365282649 -0.0092697702074885507 0 -0.15768631885198689 -0.0078660734412130187 0 -0.14631868365282649 -0.0092697702074885507 0 -0.15768631885198689 -0.0078660734412130187 0 -0.1521736821911556 0.0070154644146889376 0 -0.1412699131596693 -0.020407082981404479 0 -0.14631868365282649 -0.0092697702074885507 0 -0.13556668316087001 -0.01447556625107317 0 -0.14631868365282649 -0.0092697702074885507 0 -0.13556668316087001 -0.01447556625107317 0 -0.12794466884393851 -0.002708162334285761 0 -0.12471248911896179 -0.01527569869178381 0 -0.13556668316087001 -0.01447556625107317 0 -0.12794466884393851 -0.002708162334285761 0 -0.12471248911896179 -0.01527569869178381 0 -0.12307210551450951 -0.027110368717823949 0 -0.1327243812800738 -0.021680376722767819 0 -0.12471248911896179 -0.01527569869178381 0 -0.13556668316087001 -0.01447556625107317 0 -0.1327243812800738 -0.021680376722767819 0 -0.12307210551450951 -0.027110368717823949 0 -0.1327243812800738 -0.021680376722767819 0 -0.13873123979701091 -0.032147051796899737 0 -0.1412699131596693 -0.020407082981404479 0 -0.13556668316087001 -0.01447556625107317 0 -0.1327243812800738 -0.021680376722767819 0 -0.1412699131596693 -0.020407082981404479 0 -0.1327243812800738 -0.021680376722767819 0 -0.13873123979701091 -0.032147051796899737 0 -0.1255179494177758 -0.042801771427249863 0 -0.13873123979701091 -0.032147051796899737 0 -0.1255179494177758 -0.042801771427249863 0 -0.14809585040940271 -0.034486342336645187 0 -0.1255179494177758 -0.042801771427249863 0 -0.14019972239350151 -0.048890909528478403 0 -0.14809585040940271 -0.034486342336645187 0 -0.12307210551450951 -0.027110368717823949 0 -0.1255179494177758 -0.042801771427249863 0 -0.13873123979701091 -0.032147051796899737 0 -0.1255179494177758 -0.042801771427249863 0 -0.13873123979701091 -0.032147051796899737 0 -0.14809585040940271 -0.034486342336645187 0 -0.1255179494177758 -0.042801771427249863 0 -0.12619302875418351 -0.060577836074509478 0 -0.14019972239350151 -0.048890909528478403 0 -0.13894762502059579 -0.063355664815584037 0 -0.12619302875418351 -0.060577836074509478 0 -0.14019972239350151 -0.048890909528478403 0 -0.13894762502059579 -0.063355664815584037 0 -0.14019972239350151 -0.048890909528478403 0 -0.15043612902809511 -0.057922026932498122 0 -0.14019972239350151 -0.048890909528478403 0 -0.15043612902809511 -0.057922026932498122 0 -0.15175178906324471 -0.04584125707794813 0 -0.15043612902809511 -0.057922026932498122 0 -0.15175178906324471 -0.04584125707794813 0 -0.1613669261179167 -0.055853240131077911 0 -0.14019972239350151 -0.048890909528478403 0 -0.14809585040940271 -0.034486342336645187 0 -0.15175178906324471 -0.04584125707794813 0 -0.14809585040940271 -0.034486342336645187 0 -0.15175178906324471 -0.04584125707794813 0 -0.15797279556297239 -0.038230984902785863 0 -0.14809585040940271 -0.034486342336645187 0 -0.15797279556297239 -0.038230984902785863 0 -0.1566799433009681 -0.029888298174077479 0 -0.15797279556297239 -0.038230984902785863 0 -0.17009758207081921 -0.035442947675340113 0 -0.1566799433009681 -0.029888298174077479 0 -0.15175178906324471 -0.04584125707794813 0 -0.15797279556297239 -0.038230984902785863 0 -0.16323881297042761 -0.045496079249918393 0 -0.15797279556297239 -0.038230984902785863 0 -0.16323881297042761 -0.045496079249918393 0 -0.17009758207081921 -0.035442947675340113 0 -0.16323881297042761 -0.045496079249918393 0 -0.17009758207081921 -0.035442947675340113 0 -0.1729004806473716 -0.045151628634314711 0 -0.15827828913098749 -0.064672849445365485 0 -0.1613669261179167 -0.055853240131077911 0 -0.17398721804235609 -0.057688740130989291 0 -0.15827828913098749 -0.064672849445365485 0 -0.15043612902809511 -0.057922026932498122 0 -0.1613669261179167 -0.055853240131077911 0 -0.15175178906324471 -0.04584125707794813 0 -0.16323881297042761 -0.045496079249918393 0 -0.1613669261179167 -0.055853240131077911 0 -0.16323881297042761 -0.045496079249918393 0 -0.1613669261179167 -0.055853240131077911 0 -0.16800977018292851 -0.051335433994746417 0 -0.16800977018292851 -0.051335433994746417 0 -0.17398721804235609 -0.057688740130989291 0 -0.1729004806473716 -0.045151628634314711 0 -0.16323881297042761 -0.045496079249918393 0 -0.16800977018292851 -0.051335433994746417 0 -0.1729004806473716 -0.045151628634314711 0 -0.1613669261179167 -0.055853240131077911 0 -0.16800977018292851 -0.051335433994746417 0 -0.17398721804235609 -0.057688740130989291 0 -0.17398721804235609 -0.057688740130989291 0 -0.1892643008988418 -0.052769444302067897 0 -0.1890269254511488 -0.035494929664150847 0 -0.18578909403674279 -0.065516242812727665 0 -0.17398721804235609 -0.057688740130989291 0 -0.1892643008988418 -0.052769444302067897 0 -0.17398721804235609 -0.057688740130989291 0 -0.1890269254511488 -0.035494929664150847 0 -0.17398721804235609 -0.057688740130989291 0 -0.1729004806473716 -0.045151628634314711 0 -0.1890269254511488 -0.035494929664150847 0 -0.17009758207081921 -0.035442947675340113 0 -0.1729004806473716 -0.045151628634314711 0 -0.1890269254511488 -0.035494929664150847 0 -0.17009758207081921 -0.035442947675340113 0 -0.17955082259089561 -0.021666128046344799 0 -0.1890269254511488 -0.035494929664150847 0 -0.17955082259089561 -0.021666128046344799 0 -0.1654769477888865 -0.01683341078555432 0 -0.1566799433009681 -0.029888298174077479 0 -0.17009758207081921 -0.035442947675340113 0 -0.17955082259089561 -0.021666128046344799 0 -0.1566799433009681 -0.029888298174077479 0 -0.17955082259089561 -0.021666128046344799 0 -0.1566799433009681 -0.029888298174077479 0 -0.15194453017624629 -0.02149233216654985 0 -0.1654769477888865 -0.01683341078555432 0 -0.1566799433009681 -0.029888298174077479 0 -0.1654769477888865 -0.01683341078555432 0 -0.15768631885198689 -0.0078660734412130187 0 -0.1725177504508198 0.001249681538838686 0 -0.15194453017624629 -0.02149233216654985 0 -0.1654769477888865 -0.01683341078555432 0 -0.15768631885198689 -0.0078660734412130187 0 -0.17955082259089561 -0.021666128046344799 0 -0.19071046507632669 -0.0018178219343990159 0 -0.1725177504508198 0.001249681538838686 0 -0.17955082259089561 -0.021666128046344799 0 -0.1654769477888865 -0.01683341078555432 0 -0.1725177504508198 0.001249681538838686 0 -0.17955082259089561 -0.021666128046344799 0 -0.19071046507632669 -0.0018178219343990159 0 -0.20242170188082309 -0.013443957918612101 0 -0.19071046507632669 -0.0018178219343990159 0 -0.20242170188082309 -0.013443957918612101 0 -0.20877238643255019 0.0072663334765693576 0 -0.17955082259089561 -0.021666128046344799 0 -0.20242170188082309 -0.013443957918612101 0 -0.1890269254511488 -0.035494929664150847 0 -0.17955082259089561 -0.021666128046344799 0 -0.20242170188082309 -0.013443957918612101 0 -0.20242170188082309 -0.013443957918612101 0 -0.1890269254511488 -0.035494929664150847 0 -0.20643719221934451 -0.034501183273154087 0 -0.20242170188082309 -0.013443957918612101 0 -0.20643719221934451 -0.034501183273154087 0 -0.2217741937323956 -0.0262017070596797 0 -0.20242170188082309 -0.013443957918612101 0 -0.22529258117075071 -0.0052217877908794143 0 -0.20877238643255019 0.0072663334765693576 0 -0.20242170188082309 -0.013443957918612101 0 -0.22529258117075071 -0.0052217877908794143 0 -0.2217741937323956 -0.0262017070596797 0 -0.20242170188082309 -0.013443957918612101 0 -0.22529258117075071 -0.0052217877908794143 0 -0.19924563781459961 -0.060678553006908137 0 -0.1892643008988418 -0.052769444302067897 0 -0.1982726291493615 -0.044468755895563553 0 -0.18578909403674279 -0.065516242812727665 0 -0.19924563781459961 -0.060678553006908137 0 -0.1892643008988418 -0.052769444302067897 0 -0.1892643008988418 -0.052769444302067897 0 -0.1890269254511488 -0.035494929664150847 0 -0.1982726291493615 -0.044468755895563553 0 -0.1890269254511488 -0.035494929664150847 0 -0.1982726291493615 -0.044468755895563553 0 -0.20643719221934451 -0.034501183273154087 0 -0.1982726291493615 -0.044468755895563553 0 -0.20643719221934451 -0.034501183273154087 0 -0.2149568559154264 -0.047328516260760373 0 -0.20643719221934451 -0.034501183273154087 0 -0.2149568559154264 -0.047328516260760373 0 -0.2217741937323956 -0.0262017070596797 0 -0.2185521229612668 -0.074513868105514289 0 -0.19924563781459961 -0.060678553006908137 0 -0.2149568559154264 -0.047328516260760373 0 -0.19924563781459961 -0.060678553006908137 0 -0.1982726291493615 -0.044468755895563553 0 -0.2149568559154264 -0.047328516260760373 0 -0.2149568559154264 -0.047328516260760373 0 -0.23132487707746721 -0.05754836942190622 0 -0.23534848148579371 -0.041720765945479063 0 -0.2185521229612668 -0.074513868105514289 0 -0.2149568559154264 -0.047328516260760373 0 -0.23132487707746721 -0.05754836942190622 0 -0.2149568559154264 -0.047328516260760373 0 -0.23534848148579371 -0.041720765945479063 0 -0.2217741937323956 -0.0262017070596797 0 -0.23534848148579371 -0.041720765945479063 0 -0.2217741937323956 -0.0262017070596797 0 -0.24301377140621319 -0.027391834334228631 0 -0.23534848148579371 -0.041720765945479063 0 -0.25250546270070201 -0.035751721668152991 0 -0.25136966879894268 -0.051002482689167183 0 -0.23534848148579371 -0.041720765945479063 0 -0.24301377140621319 -0.027391834334228631 0 -0.25250546270070201 -0.035751721668152991 0 -0.23132487707746721 -0.05754836942190622 0 -0.23534848148579371 -0.041720765945479063 0 -0.25136966879894268 -0.051002482689167183 0 -0.23639725622590621 -0.073176214108610221 0 -0.23132487707746721 -0.05754836942190622 0 -0.25136966879894268 -0.051002482689167183 0 -0.22529258117075071 -0.0052217877908794143 0 -0.2217741937323956 -0.0262017070596797 0 -0.23289468208456801 -0.017861048885421942 0 -0.2217741937323956 -0.0262017070596797 0 -0.23289468208456801 -0.017861048885421942 0 -0.24301377140621319 -0.027391834334228631 0 -0.24301377140621319 -0.027391834334228631 0 -0.24558861593344469 -0.012195725998687091 0 -0.25896595582832588 -0.019710319931209121 0 -0.23289468208456801 -0.017861048885421942 0 -0.24301377140621319 -0.027391834334228631 0 -0.24558861593344469 -0.012195725998687091 0 -0.24301377140621319 -0.027391834334228631 0 -0.24558861593344469 -0.012195725998687091 0 -0.22529258117075071 -0.0052217877908794143 0 -0.24558861593344469 -0.012195725998687091 0 -0.24816346046067789 0.0030003823368541021 0 -0.22529258117075071 -0.0052217877908794143 0 -0.23289468208456801 -0.017861048885421942 0 -0.24558861593344469 -0.012195725998687091 0 -0.22529258117075071 -0.0052217877908794143 0 -0.24816346046067789 0.0030003823368541021 0 -0.24558861593344469 -0.012195725998687091 0 -0.25126771155282179 -0.0053418015683327838 0 -0.24816346046067789 0.0030003823368541021 0 -0.24558861593344469 -0.012195725998687091 0 -0.24816346046067789 0.0030003823368541021 0 -0.25126771155282179 -0.0053418015683327838 0 -0.25666233569757813 0.0012409316492498191 0 -0.25111082347070451 0.00049171989325213312 0 -0.25126771155282179 -0.0053418015683327838 0 -0.25111082347070451 0.00049171989325213312 0 -0.24816346046067789 0.0030003823368541021 0 -0.25126771155282179 -0.0053418015683327838 0 -0.26150630910382561 -0.0082306034975630476 0 -0.25666233569757813 0.0012409316492498191 0 -0.24558861593344469 -0.012195725998687091 0 -0.25126771155282179 -0.0053418015683327838 0 -0.25896595582832588 -0.019710319931209121 0 -0.25126771155282179 -0.0053418015683327838 0 -0.26150630910382561 -0.0082306034975630476 0 -0.25896595582832588 -0.019710319931209121 0 -0.26150630910382561 -0.0082306034975630476 0 -0.25896595582832588 -0.019710319931209121 0 -0.27237870517348828 -0.0095230257326722363 0 -0.26150630910382561 -0.0082306034975630476 0 -0.25666233569757813 0.0012409316492498191 0 -0.2663175910824343 0.0041000388923687252 0 -0.25896595582832588 -0.019710319931209121 0 -0.26824976825191632 -0.035442074325356773 0 -0.25250546270070201 -0.035751721668152991 0 -0.24301377140621319 -0.027391834334228631 0 -0.25896595582832588 -0.019710319931209121 0 -0.25250546270070201 -0.035751721668152991 0 -0.27605487172662918 -0.023078453342320209 0 -0.27237870517348828 -0.0095230257326722363 0 -0.29011434940838288 -0.01561015546518056 0 -0.25896595582832588 -0.019710319931209121 0 -0.27605487172662918 -0.023078453342320209 0 -0.26824976825191632 -0.035442074325356773 0 -0.25896595582832588 -0.019710319931209121 0 -0.27605487172662918 -0.023078453342320209 0 -0.27237870517348828 -0.0095230257326722363 0 -0.27605487172662918 -0.023078453342320209 0 -0.28910447484146018 -0.03505208954590594 0 -0.26824976825191632 -0.035442074325356773 0 -0.27237870517348828 -0.0095230257326722363 0 -0.29011434940838288 -0.01561015546518056 0 -0.28034186949023432 0.0037744074343769251 0 -0.26150630910382561 -0.0082306034975630476 0 -0.27237870517348828 -0.0095230257326722363 0 -0.2663175910824343 0.0041000388923687252 0 -0.27237870517348828 -0.0095230257326722363 0 -0.28034186949023432 0.0037744074343769251 0 -0.2663175910824343 0.0041000388923687252 0 -0.29011434940838288 -0.01561015546518056 0 -0.28034186949023432 0.0037744074343769251 0 -0.30089842648014392 0.0001112674280922266 0 -0.27605487172662918 -0.023078453342320209 0 -0.29011434940838288 -0.01561015546518056 0 -0.28910447484146018 -0.03505208954590594 0 -0.29011434940838288 -0.01561015546518056 0 -0.30757197148661641 -0.02871725358153162 0 -0.28910447484146018 -0.03505208954590594 0 -0.29011434940838288 -0.01561015546518056 0 -0.30757197148661641 -0.02871725358153162 0 -0.30604511876004159 -0.01406870566435261 0 -0.30757197148661641 -0.02871725358153162 0 -0.30604511876004159 -0.01406870566435261 0 -0.31855581529707588 -0.017374921839872739 0 -0.29011434940838288 -0.01561015546518056 0 -0.30604511876004159 -0.01406870566435261 0 -0.30089842648014392 0.0001112674280922266 0 -0.31451796535328408 -0.0067966948272421349 0 -0.31143887040146051 0.0038024028975646041 0 -0.30089842648014392 0.0001112674280922266 0 -0.30604511876004159 -0.01406870566435261 0 -0.31451796535328408 -0.0067966948272421349 0 -0.30089842648014392 0.0001112674280922266 0 -0.2925873113878813 -0.064573126995756014 0 -0.32068233896886889 -0.060271583439328903 0 -0.30914946811962613 -0.044427276451128699 0 -0.2925873113878813 -0.064573126995756014 0 -0.32068233896886889 -0.060271583439328903 0 -0.30914946811962613 -0.044427276451128699 0 -0.29190469540726077 -0.048659654933632182 0 -0.2925873113878813 -0.064573126995756014 0 -0.30757197148661641 -0.02871725358153162 0 -0.30914946811962613 -0.044427276451128699 0 -0.28910447484146018 -0.03505208954590594 0 -0.30914946811962613 -0.044427276451128699 0 -0.28910447484146018 -0.03505208954590594 0 -0.29190469540726077 -0.048659654933632182 0 -0.28910447484146018 -0.03505208954590594 0 -0.29190469540726077 -0.048659654933632182 0 -0.27677752728007571 -0.050586126741738069 0 -0.29190469540726077 -0.048659654933632182 0 -0.27677752728007571 -0.050586126741738069 0 -0.2925873113878813 -0.064573126995756014 0 -0.27677752728007571 -0.050586126741738069 0 -0.26449228380689371 -0.068874670552183118 0 -0.2925873113878813 -0.064573126995756014 0 -0.28910447484146018 -0.03505208954590594 0 -0.27677752728007571 -0.050586126741738069 0 -0.26824976825191632 -0.035442074325356773 0 -0.27677752728007571 -0.050586126741738069 0 -0.26824976825191632 -0.035442074325356773 0 -0.25136966879894268 -0.051002482689167183 0 -0.26824976825191632 -0.035442074325356773 0 -0.25250546270070201 -0.035751721668152991 0 -0.25136966879894268 -0.051002482689167183 0 -0.27677752728007571 -0.050586126741738069 0 -0.25136966879894268 -0.051002482689167183 0 -0.26449228380689371 -0.068874670552183118 0 -0.23639725622590621 -0.073176214108610221 0 -0.26449228380689371 -0.068874670552183118 0 -0.23639725622590621 -0.073176214108610221 0 -0.26449228380689371 -0.068874670552183118 0 -0.25181003488911058 -0.088936769675605293 0 -0.23639725622590621 -0.073176214108610221 0 -0.25136966879894268 -0.051002482689167183 0 -0.26449228380689371 -0.068874670552183118 0 -0.26449228380689371 -0.068874670552183118 0 -0.25181003488911058 -0.088936769675605293 0 -0.27745789735438009 -0.081765779295857793 0 -0.27745789735438009 -0.081765779295857793 0 -0.27166531799663118 -0.097795201430451978 0 -0.28897478794728299 -0.1014816896399572 0 -0.25181003488911058 -0.088936769675605293 0 -0.27745789735438009 -0.081765779295857793 0 -0.27166531799663118 -0.097795201430451978 0 -0.26449228380689371 -0.068874670552183118 0 -0.2925873113878813 -0.064573126995756014 0 -0.26449228380689371 -0.068874670552183118 0 -0.27745789735438009 -0.081765779295857793 0 -0.2925873113878813 -0.064573126995756014 0 -0.24168706540983631 -0.11826552156061861 0 -0.25686826842719213 -0.1164815964754297 0 -0.2638863961514003 -0.1339865903648281 0 -0.25686826842719213 -0.1164815964754297 0 -0.27332612011857549 -0.1143007619476084 0 -0.2638863961514003 -0.1339865903648281 0 -0.25686826842719213 -0.1164815964754297 0 -0.25915601644770692 -0.1049879978325747 0 -0.27332612011857549 -0.1143007619476084 0 -0.2450926919459446 -0.10993263026013871 0 -0.25686826842719213 -0.1164815964754297 0 -0.25915601644770692 -0.1049879978325747 0 -0.25181003488911058 -0.088936769675605293 0 -0.25915601644770692 -0.1049879978325747 0 -0.27166531799663118 -0.097795201430451978 0 -0.24898541820143941 -0.099744079344400965 0 -0.25181003488911058 -0.088936769675605293 0 -0.25915601644770692 -0.1049879978325747 0 -0.2450926919459446 -0.10993263026013871 0 -0.24898541820143941 -0.099744079344400965 0 -0.25915601644770692 -0.1049879978325747 0 -0.25915601644770692 -0.1049879978325747 0 -0.27166531799663118 -0.097795201430451978 0 -0.27332612011857549 -0.1143007619476084 0 -0.27166531799663118 -0.097795201430451978 0 -0.27332612011857549 -0.1143007619476084 0 -0.28897478794728299 -0.1014816896399572 0 -0.27332612011857549 -0.1143007619476084 0 -0.2638863961514003 -0.1339865903648281 0 -0.2794663231397454 -0.12572361104946189 0 -0.2917399418950154 -0.1198355082005947 0 -0.28897478794728299 -0.1014816896399572 0 -0.30588282774737668 -0.11323602103075241 0 -0.27332612011857549 -0.1143007619476084 0 -0.2917399418950154 -0.1198355082005947 0 -0.28897478794728299 -0.1014816896399572 0 -0.27332612011857549 -0.1143007619476084 0 -0.2917399418950154 -0.1198355082005947 0 -0.2794663231397454 -0.12572361104946189 0 -0.28897478794728299 -0.1014816896399572 0 -0.30674912993655912 -0.09779799411523149 0 -0.29605965562328218 -0.085191111363325828 0 -0.28897478794728299 -0.1014816896399572 0 -0.30674912993655912 -0.09779799411523149 0 -0.30588282774737668 -0.11323602103075241 0 -0.30674912993655912 -0.09779799411523149 0 -0.30588282774737668 -0.11323602103075241 0 -0.31724818339806538 -0.105303144356013 0 -0.30588282774737668 -0.11323602103075241 0 -0.32131704467674232 -0.11872925924087301 0 -0.30325395822530088 -0.12850347570533349 0 -0.2917399418950154 -0.1198355082005947 0 -0.30588282774737668 -0.11323602103075241 0 -0.30325395822530088 -0.12850347570533349 0 -0.27745789735438009 -0.081765779295857793 0 -0.2925873113878813 -0.064573126995756014 0 -0.29605965562328218 -0.085191111363325828 0 -0.27745789735438009 -0.081765779295857793 0 -0.28897478794728299 -0.1014816896399572 0 -0.29605965562328218 -0.085191111363325828 0 -0.30674912993655912 -0.09779799411523149 0 -0.29605965562328218 -0.085191111363325828 0 -0.31102434445446009 -0.087372491168896005 0 -0.29605965562328218 -0.085191111363325828 0 -0.31102434445446009 -0.087372491168896005 0 -0.30722508379179703 -0.077599866462979949 0 -0.2925873113878813 -0.064573126995756014 0 -0.31534522545460081 -0.070199694803843971 0 -0.32068233896886889 -0.060271583439328903 0 -0.2925873113878813 -0.064573126995756014 0 -0.30722508379179703 -0.077599866462979949 0 -0.31534522545460081 -0.070199694803843971 0 -0.2925873113878813 -0.064573126995756014 0 -0.29605965562328218 -0.085191111363325828 0 -0.30722508379179703 -0.077599866462979949 0 -0.31534522545460081 -0.070199694803843971 0 -0.32487174093862359 -0.065387623305069392 0 -0.32068233896886889 -0.060271583439328903 0 -0.31534522545460081 -0.070199694803843971 0 -0.32487174093862359 -0.065387623305069392 0 -0.3265057413603919 -0.073040343842298988 0 -0.32487174093862359 -0.065387623305069392 0 -0.3265057413603919 -0.073040343842298988 0 -0.33236743287184389 -0.065411762181777924 0 -0.31534522545460081 -0.070199694803843971 0 -0.3265057413603919 -0.073040343842298988 0 -0.31972011046805371 -0.080625975354995771 0 -0.30722508379179703 -0.077599866462979949 0 -0.31534522545460081 -0.070199694803843971 0 -0.31972011046805371 -0.080625975354995771 0 -0.31102434445446009 -0.087372491168896005 0 -0.30722508379179703 -0.077599866462979949 0 -0.31972011046805371 -0.080625975354995771 0 -0.30674912993655912 -0.09779799411523149 0 -0.31102434445446009 -0.087372491168896005 0 -0.32174998427863 -0.093444296202575175 0 -0.31102434445446009 -0.087372491168896005 0 -0.31972011046805371 -0.080625975354995771 0 -0.32174998427863 -0.093444296202575175 0 -0.31972011046805371 -0.080625975354995771 0 -0.32174998427863 -0.093444296202575175 0 -0.32964887828480638 -0.08414042191824303 0 -0.3265057413603919 -0.073040343842298988 0 -0.31972011046805371 -0.080625975354995771 0 -0.32964887828480638 -0.08414042191824303 0 -0.32964887828480638 -0.08414042191824303 0 -0.33773560831435601 -0.076230011721568847 0 -0.34725570589963889 -0.084647179823017116 0 -0.32964887828480638 -0.08414042191824303 0 -0.33578700644892762 -0.096448488754935252 0 -0.34725570589963889 -0.084647179823017116 0 -0.32964887828480638 -0.08414042191824303 0 -0.33578700644892762 -0.096448488754935252 0 -0.3333676320486833 -0.096254265500532107 0 -0.32174998427863 -0.093444296202575175 0 -0.32964887828480638 -0.08414042191824303 0 -0.3333676320486833 -0.096254265500532107 0 -0.32964887828480638 -0.08414042191824303 0 -0.33578700644892762 -0.096448488754935252 0 -0.33773560831435601 -0.076230011721568847 0 -0.34036807977142253 -0.065923797186483279 0 -0.33236743287184389 -0.065411762181777924 0 -0.32487174093862359 -0.065387623305069392 0 -0.33236743287184389 -0.065411762181777924 0 -0.32719457661222578 -0.059196550118175102 0 -0.3265057413603919 -0.073040343842298988 0 -0.32964887828480638 -0.08414042191824303 0 -0.33773560831435601 -0.076230011721568847 0 -0.3265057413603919 -0.073040343842298988 0 -0.33773560831435601 -0.076230011721568847 0 -0.33236743287184389 -0.065411762181777924 0 -0.30588282774737668 -0.11323602103075241 0 -0.32131704467674232 -0.11872925924087301 0 -0.31724818339806538 -0.105303144356013 0 -0.32131704467674232 -0.11872925924087301 0 -0.32894299553720091 -0.10351921074311859 0 -0.33324102642618858 -0.112202474737571 0 -0.32131704467674232 -0.11872925924087301 0 -0.31724818339806538 -0.105303144356013 0 -0.32894299553720091 -0.10351921074311859 0 -0.30674912993655912 -0.09779799411523149 0 -0.32174998427863 -0.093444296202575175 0 -0.31724818339806538 -0.105303144356013 0 -0.32174998427863 -0.093444296202575175 0 -0.3333676320486833 -0.096254265500532107 0 -0.32894299553720091 -0.10351921074311859 0 -0.32174998427863 -0.093444296202575175 0 -0.31724818339806538 -0.105303144356013 0 -0.32894299553720091 -0.10351921074311859 0 -0.33578700644892762 -0.096448488754935252 0 -0.33324102642618858 -0.112202474737571 0 -0.34681834072850293 -0.1185683265915812 0 -0.33578700644892762 -0.096448488754935252 0 -0.34681834072850293 -0.1185683265915812 0 -0.33578700644892762 -0.096448488754935252 0 -0.32894299553720091 -0.10351921074311859 0 -0.33324102642618858 -0.112202474737571 0 -0.33578700644892762 -0.096448488754935252 0 -0.3333676320486833 -0.096254265500532107 0 -0.32894299553720091 -0.10351921074311859 0 -0.33578700644892762 -0.096448488754935252 0 -0.3333676320486833 -0.096254265500532107 0 -0.33324102642618858 -0.112202474737571 0 -0.34681834072850293 -0.1185683265915812 0 -0.33387057434113282 -0.1337957211518998 0 -0.32131704467674232 -0.11872925924087301 0 -0.33324102642618858 -0.112202474737571 0 -0.33387057434113282 -0.1337957211518998 0 -0.34681834072850293 -0.1185683265915812 0 -0.36463841033050798 -0.09876463029772839 0 -0.36325787309512553 -0.1168784494371649 0 -0.33578700644892762 -0.096448488754935252 0 -0.36463841033050798 -0.09876463029772839 0 -0.33578700644892762 -0.096448488754935252 0 -0.34681834072850293 -0.1185683265915812 0 -0.36463841033050798 -0.09876463029772839 0 -0.36463841033050798 -0.09876463029772839 0 -0.36325787309512553 -0.1168784494371649 0 -0.37809455910319512 -0.11048055718521541 0 -0.36325787309512553 -0.1168784494371649 0 -0.37580779371669332 -0.125685498048419 0 -0.37809455910319512 -0.11048055718521541 0 -0.33773560831435601 -0.076230011721568847 0 -0.35390898394392512 -0.068702850730659612 0 -0.34725570589963889 -0.084647179823017116 0 -0.35390898394392512 -0.068702850730659612 0 -0.34725570589963889 -0.084647179823017116 0 -0.36505403769633732 -0.079872977447981414 0 -0.33773560831435601 -0.076230011721568847 0 -0.34036807977142253 -0.065923797186483279 0 -0.35390898394392512 -0.068702850730659612 0 -0.34036807977142253 -0.065923797186483279 0 -0.35390898394392512 -0.068702850730659612 0 -0.34896167572579512 -0.056502487499272773 0 -0.33578700644892762 -0.096448488754935252 0 -0.36463841033050798 -0.09876463029772839 0 -0.34725570589963889 -0.084647179823017116 0 -0.36463841033050798 -0.09876463029772839 0 -0.34725570589963889 -0.084647179823017116 0 -0.36505403769633732 -0.079872977447981414 0 -0.36463841033050798 -0.09876463029772839 0 -0.36505403769633732 -0.079872977447981414 0 -0.3803197219795556 -0.084281989074093427 0 -0.36505403769633732 -0.079872977447981414 0 -0.37914736632805901 -0.062968237314408509 0 -0.3803197219795556 -0.084281989074093427 0 -0.35390898394392512 -0.068702850730659612 0 -0.36505403769633732 -0.079872977447981414 0 -0.37914736632805901 -0.062968237314408509 0 -0.35390898394392512 -0.068702850730659612 0 -0.36552395558364581 -0.048642081291832361 0 -0.37914736632805901 -0.062968237314408509 0 -0.36552395558364581 -0.048642081291832361 0 -0.34896167572579512 -0.056502487499272773 0 -0.34666386410034328 -0.044462344794116072 0 -0.35390898394392512 -0.068702850730659612 0 -0.36552395558364581 -0.048642081291832361 0 -0.34896167572579512 -0.056502487499272773 0 -0.34896167572579512 -0.056502487499272773 0 -0.34666386410034328 -0.044462344794116072 0 -0.33834349522963891 -0.054781363493272561 0 -0.35615760165725491 -0.037668845838006122 0 -0.36424129027578461 -0.028452765912320339 0 -0.34677425967628073 -0.029386338165434581 0 -0.36552395558364581 -0.048642081291832361 0 -0.34666386410034328 -0.044462344794116072 0 -0.35615760165725491 -0.037668845838006122 0 -0.34666386410034328 -0.044462344794116072 0 -0.35615760165725491 -0.037668845838006122 0 -0.34677425967628073 -0.029386338165434581 0 -0.36552395558364581 -0.048642081291832361 0 -0.35615760165725491 -0.037668845838006122 0 -0.36424129027578461 -0.028452765912320339 0 -0.36552395558364581 -0.048642081291832361 0 -0.36424129027578461 -0.028452765912320339 0 -0.38498033268007859 -0.035161861431758618 0 -0.36424129027578461 -0.028452765912320339 0 -0.35822270157699548 -0.01632984828271055 0 -0.3785878346708148 -0.01940136801545269 0 -0.36773282995165379 -0.00174619774939233 0 -0.35822270157699548 -0.01632984828271055 0 -0.3785878346708148 -0.01940136801545269 0 -0.36773282995165379 -0.00174619774939233 0 -0.35133934022977531 -0.0050012027761295336 0 -0.35822270157699548 -0.01632984828271055 0 -0.35133934022977531 -0.0050012027761295336 0 -0.34499226762563739 -0.01673168095719749 0 -0.33985588956642782 -0.0098797239003355908 0 -0.35133934022977531 -0.0050012027761295336 0 -0.35822270157699548 -0.01632984828271055 0 -0.34499226762563739 -0.01673168095719749 0 -0.35133934022977531 -0.0050012027761295336 0 -0.33985588956642782 -0.0098797239003355908 0 -0.34154901110111657 0.0037492786904802038 0 -0.36424129027578461 -0.028452765912320339 0 -0.35822270157699548 -0.01632984828271055 0 -0.34677425967628073 -0.029386338165434581 0 -0.35822270157699548 -0.01632984828271055 0 -0.34499226762563739 -0.01673168095719749 0 -0.34677425967628073 -0.029386338165434581 0 -0.34677425967628073 -0.029386338165434581 0 -0.3358519529623567 -0.020462886894036591 0 -0.32637072626273972 -0.035074338841484823 0 -0.3358519529623567 -0.020462886894036591 0 -0.32554687591325288 -0.01095212756479454 0 -0.32637072626273972 -0.035074338841484823 0 -0.34499226762563739 -0.01673168095719749 0 -0.34677425967628073 -0.029386338165434581 0 -0.3358519529623567 -0.020462886894036591 0 -0.34499226762563739 -0.01673168095719749 0 -0.3358519529623567 -0.020462886894036591 0 -0.33985588956642782 -0.0098797239003355908 0 -0.32554687591325288 -0.01095212756479454 0 -0.34154901110111657 0.0037492786904802038 0 -0.33985588956642782 -0.0098797239003355908 0 -0.32554687591325288 -0.01095212756479454 0 -0.34154901110111657 0.0037492786904802038 0 -0.3358519529623567 -0.020462886894036591 0 -0.33985588956642782 -0.0098797239003355908 0 -0.32554687591325288 -0.01095212756479454 0 -0.32554687591325288 -0.01095212756479454 0 -0.32165509881444659 0.00051444964237450791 0 -0.32485586550436651 0.0092805507219395761 0 -0.32554687591325288 -0.01095212756479454 0 -0.32485586550436651 0.0092805507219395761 0 -0.32554687591325288 -0.01095212756479454 0 -0.31451796535328408 -0.0067966948272421349 0 -0.32165509881444659 0.00051444964237450791 0 -0.32554687591325288 -0.01095212756479454 0 -0.31855581529707588 -0.017374921839872739 0 -0.32554687591325288 -0.01095212756479454 0 -0.31451796535328408 -0.0067966948272421349 0 -0.31855581529707588 -0.017374921839872739 0 -0.30604511876004159 -0.01406870566435261 0 -0.31451796535328408 -0.0067966948272421349 0 -0.31855581529707588 -0.017374921839872739 0 -0.31451796535328408 -0.0067966948272421349 0 -0.31143887040146051 0.0038024028975646041 0 -0.32165509881444659 0.00051444964237450791 0 -0.32554687591325288 -0.01095212756479454 0 -0.32637072626273972 -0.035074338841484823 0 -0.30757197148661641 -0.02871725358153162 0 -0.31855581529707588 -0.017374921839872739 0 -0.32637072626273972 -0.035074338841484823 0 -0.32554687591325288 -0.01095212756479454 0 -0.31855581529707588 -0.017374921839872739 0 -0.32637072626273972 -0.035074338841484823 0 -0.30914946811962613 -0.044427276451128699 0 -0.32637072626273972 -0.035074338841484823 0 -0.32068233896886889 -0.060271583439328903 0 -0.30757197148661641 -0.02871725358153162 0 -0.30914946811962613 -0.044427276451128699 0 -0.32637072626273972 -0.035074338841484823 0 -0.32637072626273972 -0.035074338841484823 0 -0.32719457661222578 -0.059196550118175102 0 -0.32637072626273972 -0.035074338841484823 0 -0.32068233896886889 -0.060271583439328903 0 -0.32719457661222578 -0.059196550118175102 0 -0.32487174093862359 -0.065387623305069392 0 -0.32068233896886889 -0.060271583439328903 0 -0.32719457661222578 -0.059196550118175102 0 -0.32637072626273972 -0.035074338841484823 0 -0.32719457661222578 -0.059196550118175102 0 -0.33834349522963891 -0.054781363493272561 0 -0.33236743287184389 -0.065411762181777924 0 -0.32719457661222578 -0.059196550118175102 0 -0.33834349522963891 -0.054781363493272561 0 -0.34036807977142253 -0.065923797186483279 0 -0.33236743287184389 -0.065411762181777924 0 -0.33834349522963891 -0.054781363493272561 0 -0.34036807977142253 -0.065923797186483279 0 -0.34896167572579512 -0.056502487499272773 0 -0.33834349522963891 -0.054781363493272561 0 -0.34666386410034328 -0.044462344794116072 0 -0.34677425967628073 -0.029386338165434581 0 -0.32637072626273972 -0.035074338841484823 0 -0.34666386410034328 -0.044462344794116072 0 -0.32637072626273972 -0.035074338841484823 0 -0.33834349522963891 -0.054781363493272561 0 -0.29804212161249999 -0.2372767857896961 0 -0.30193187422854639 -0.24947705084208491 0 -0.3165201609574339 -0.24265484446821489 0 -0.29804212161249999 -0.2372767857896961 0 -0.32087064687699729 -0.2217508789777782 0 -0.3165201609574339 -0.24265484446821489 0 -0.29804212161249999 -0.2372767857896961 0 -0.32087064687699729 -0.2217508789777782 0 -0.29804212161249999 -0.2372767857896961 0 -0.30189202448949082 -0.21620071349578751 0 -0.32087064687699729 -0.2217508789777782 0 -0.29804212161249999 -0.2372767857896961 0 -0.28756490117097649 -0.22056490963688921 0 -0.28510652308584211 -0.24408715454833749 0 -0.29804212161249999 -0.2372767857896961 0 -0.28756490117097649 -0.22056490963688921 0 -0.30189202448949082 -0.21620071349578751 0 -0.28756490117097649 -0.22056490963688921 0 -0.28510652308584211 -0.24408715454833749 0 -0.27184137276880821 -0.22496293274644491 0 -0.29804212161249999 -0.2372767857896961 0 -0.30193187422854639 -0.24947705084208491 0 -0.28510652308584211 -0.24408715454833749 0 -0.26701369959111959 -0.25046832685296128 0 -0.28510652308584211 -0.24408715454833749 0 -0.27184137276880821 -0.22496293274644491 0 -0.26701369959111959 -0.25046832685296128 0 -0.27184137276880821 -0.22496293274644491 0 -0.28510652308584211 -0.24408715454833749 0 -0.27184137276880821 -0.22496293274644491 0 -0.26701369959111959 -0.25046832685296128 0 -0.2536317023007878 -0.2372900317130387 0 -0.27184137276880821 -0.22496293274644491 0 -0.26701369959111959 -0.25046832685296128 0 -0.24827797024798609 -0.25545493364081862 0 -0.2536317023007878 -0.2372900317130387 0 -0.24952608325490699 -0.22006214967458301 0 -0.2536317023007878 -0.2372900317130387 0 -0.27184137276880821 -0.22496293274644491 0 -0.27184137276880821 -0.22496293274644491 0 -0.27657266375942707 -0.1999667416401433 0 -0.26616836348253331 -0.19891949917083801 0 -0.27184137276880821 -0.22496293274644491 0 -0.27657266375942707 -0.1999667416401433 0 -0.28756490117097649 -0.22056490963688921 0 -0.27184137276880821 -0.22496293274644491 0 -0.27657266375942707 -0.1999667416401433 0 -0.27184137276880821 -0.22496293274644491 0 -0.25644432346436052 -0.20276517554389251 0 -0.26616836348253331 -0.19891949917083801 0 -0.245773254826505 -0.20823126201400199 0 -0.24952608325490699 -0.22006214967458301 0 -0.25644432346436052 -0.20276517554389251 0 -0.24952608325490699 -0.22006214967458301 0 -0.27184137276880821 -0.22496293274644491 0 -0.25644432346436052 -0.20276517554389251 0 -0.27184137276880821 -0.22496293274644491 0 -0.25644432346436052 -0.20276517554389251 0 -0.25775376639060738 -0.1927113805490783 0 -0.26616836348253331 -0.19891949917083801 0 -0.26788362700163898 -0.18321676813887439 0 -0.24561626626948921 -0.1962427190764516 0 -0.25775376639060738 -0.1927113805490783 0 -0.25644432346436052 -0.20276517554389251 0 -0.25775376639060738 -0.1927113805490783 0 -0.25644432346436052 -0.20276517554389251 0 -0.26616836348253331 -0.19891949917083801 0 -0.27657266375942707 -0.1999667416401433 0 -0.26616836348253331 -0.19891949917083801 0 -0.26788362700163898 -0.18321676813887439 0 -0.27657266375942707 -0.1999667416401433 0 -0.29412311610040748 -0.2027978718908435 0 -0.29879811227571501 -0.1871202360689472 0 -0.28756490117097649 -0.22056490963688921 0 -0.27657266375942707 -0.1999667416401433 0 -0.29412311610040748 -0.2027978718908435 0 -0.28756490117097649 -0.22056490963688921 0 -0.29412311610040748 -0.2027978718908435 0 -0.30189202448949082 -0.21620071349578751 0 -0.29412311610040748 -0.2027978718908435 0 -0.30189202448949082 -0.21620071349578751 0 -0.31629226980138692 -0.1992699216040528 0 -0.29879811227571501 -0.1871202360689472 0 -0.32044453036360521 -0.18465670265282449 0 -0.31629226980138692 -0.1992699216040528 0 -0.29879811227571501 -0.1871202360689472 0 -0.31629226980138692 -0.1992699216040528 0 -0.29412311610040748 -0.2027978718908435 0 -0.29879811227571501 -0.1871202360689472 0 -0.31629226980138692 -0.1992699216040528 0 -0.29879811227571501 -0.1871202360689472 0 -0.30794042101866359 -0.1745719465984063 0 -0.32044453036360521 -0.18465670265282449 0 -0.29879811227571501 -0.1871202360689472 0 -0.30794042101866359 -0.1745719465984063 0 -0.29500987417332042 -0.17183906345480601 0 -0.30794042101866359 -0.1745719465984063 0 -0.30065080800530269 -0.16002232337993999 0 -0.32429353754507129 -0.16872181001889389 0 -0.30794042101866359 -0.1745719465984063 0 -0.30065080800530269 -0.16002232337993999 0 -0.29500987417332042 -0.17183906345480601 0 -0.29500987417332042 -0.17183906345480601 0 -0.28130395475004327 -0.17497055053384111 0 -0.2860857268929643 -0.14970765916903789 0 -0.30065080800530269 -0.16002232337993999 0 -0.29500987417332042 -0.17183906345480601 0 -0.2860857268929643 -0.14970765916903789 0 -0.28130395475004327 -0.17497055053384111 0 -0.2860857268929643 -0.14970765916903789 0 -0.29879811227571501 -0.1871202360689472 0 -0.29500987417332042 -0.17183906345480601 0 -0.28130395475004327 -0.17497055053384111 0 -0.27657266375942707 -0.1999667416401433 0 -0.29879811227571501 -0.1871202360689472 0 -0.28130395475004327 -0.17497055053384111 0 -0.29879811227571501 -0.1871202360689472 0 -0.28130395475004327 -0.17497055053384111 0 -0.27657266375942707 -0.1999667416401433 0 -0.28130395475004327 -0.17497055053384111 0 -0.27657266375942707 -0.1999667416401433 0 -0.28130395475004327 -0.17497055053384111 0 -0.26788362700163898 -0.18321676813887439 0 -0.28130395475004327 -0.17497055053384111 0 -0.26788362700163898 -0.18321676813887439 0 -0.26624392945219127 -0.16451136887555801 0 -0.25775376639060738 -0.1927113805490783 0 -0.26788362700163898 -0.18321676813887439 0 -0.25399129187800901 -0.18275551748322119 0 -0.23948602157315579 -0.18052997999217571 0 -0.25775376639060738 -0.1927113805490783 0 -0.25399129187800901 -0.18275551748322119 0 -0.26788362700163898 -0.18321676813887439 0 -0.25618412166313992 -0.1747192439491671 0 -0.26624392945219127 -0.16451136887555801 0 -0.26788362700163898 -0.18321676813887439 0 -0.25618412166313992 -0.1747192439491671 0 -0.25399129187800901 -0.18275551748322119 0 -0.24889463164364681 -0.17799518177576529 0 -0.24603994590135489 -0.17167346917297491 0 -0.25618412166313992 -0.1747192439491671 0 -0.24889463164364681 -0.17799518177576529 0 -0.25618412166313992 -0.1747192439491671 0 -0.25399129187800901 -0.18275551748322119 0 -0.25418454954943548 -0.16550371179532489 0 -0.26624392945219127 -0.16451136887555801 0 -0.25118390415433972 -0.15405218721727429 0 -0.24603994590135489 -0.17167346917297491 0 -0.25618412166313992 -0.1747192439491671 0 -0.25418454954943548 -0.16550371179532489 0 -0.25618412166313992 -0.1747192439491671 0 -0.25418454954943548 -0.16550371179532489 0 -0.26624392945219127 -0.16451136887555801 0 -0.26624392945219127 -0.16451136887555801 0 -0.25118390415433972 -0.15405218721727429 0 -0.28130395475004327 -0.17497055053384111 0 -0.26624392945219127 -0.16451136887555801 0 -0.2860857268929643 -0.14970765916903789 0 -0.28130395475004327 -0.17497055053384111 0 -0.26624392945219127 -0.16451136887555801 0 -0.26624392945219127 -0.16451136887555801 0 -0.26775426738613589 -0.15007937660031381 0 -0.2860857268929643 -0.14970765916903789 0 -0.2638863961514003 -0.1339865903648281 0 -0.2860857268929643 -0.14970765916903789 0 -0.26775426738613589 -0.15007937660031381 0 -0.2638863961514003 -0.1339865903648281 0 -0.2860857268929643 -0.14970765916903789 0 -0.26775426738613589 -0.15007937660031381 0 -0.25118390415433972 -0.15405218721727429 0 -0.2638863961514003 -0.1339865903648281 0 -0.26624392945219127 -0.16451136887555801 0 -0.26775426738613589 -0.15007937660031381 0 -0.25118390415433972 -0.15405218721727429 0 -0.24670829182420889 -0.13553695229414689 0 -0.25118390415433972 -0.15405218721727429 0 -0.2638863961514003 -0.1339865903648281 0 -0.24168706540983631 -0.11826552156061861 0 -0.2638863961514003 -0.1339865903648281 0 -0.24670829182420889 -0.13553695229414689 0 -0.24168706540983631 -0.11826552156061861 0 -0.2638863961514003 -0.1339865903648281 0 -0.2638863961514003 -0.1339865903648281 0 -0.2889128343939904 -0.1347715836848164 0 -0.2860857268929643 -0.14970765916903789 0 -0.2638863961514003 -0.1339865903648281 0 -0.2794663231397454 -0.12572361104946189 0 -0.2889128343939904 -0.1347715836848164 0 -0.2917399418950154 -0.1198355082005947 0 -0.2794663231397454 -0.12572361104946189 0 -0.2889128343939904 -0.1347715836848164 0 -0.2917399418950154 -0.1198355082005947 0 -0.2889128343939904 -0.1347715836848164 0 -0.30325395822530088 -0.12850347570533349 0 -0.2917399418950154 -0.1198355082005947 0 -0.2889128343939904 -0.1347715836848164 0 -0.2889128343939904 -0.1347715836848164 0 -0.29838227583528582 -0.1426201638369442 0 -0.30325395822530088 -0.12850347570533349 0 -0.2889128343939904 -0.1347715836848164 0 -0.2860857268929643 -0.14970765916903789 0 -0.30065080800530269 -0.16002232337993999 0 -0.2860857268929643 -0.14970765916903789 0 -0.29838227583528582 -0.1426201638369442 0 -0.30065080800530269 -0.16002232337993999 0 -0.2860857268929643 -0.14970765916903789 0 -0.2889128343939904 -0.1347715836848164 0 -0.2860857268929643 -0.14970765916903789 0 -0.29838227583528582 -0.1426201638369442 0 -0.30065080800530269 -0.16002232337993999 0 -0.31300805165887058 -0.1400957772455933 0 -0.32378827561297419 -0.15158105859589191 0 -0.30065080800530269 -0.16002232337993999 0 -0.29838227583528582 -0.1426201638369442 0 -0.31300805165887058 -0.1400957772455933 0 -0.29838227583528582 -0.1426201638369442 0 -0.30325395822530088 -0.12850347570533349 0 -0.31300805165887058 -0.1400957772455933 0 -0.32131704467674232 -0.11872925924087301 0 -0.31300805165887058 -0.1400957772455933 0 -0.33387057434113282 -0.1337957211518998 0 -0.32131704467674232 -0.11872925924087301 0 -0.30325395822530088 -0.12850347570533349 0 -0.31300805165887058 -0.1400957772455933 0 -0.31300805165887058 -0.1400957772455933 0 -0.32378827561297419 -0.15158105859589191 0 -0.33387057434113282 -0.1337957211518998 0 -0.32378827561297419 -0.15158105859589191 0 -0.34107160627657412 -0.15470498722356071 0 -0.33387057434113282 -0.1337957211518998 0 -0.34681834072850293 -0.1185683265915812 0 -0.33387057434113282 -0.1337957211518998 0 -0.35784967500807718 -0.14068816442822771 0 -0.34681834072850293 -0.1185683265915812 0 -0.36325787309512553 -0.1168784494371649 0 -0.35784967500807718 -0.14068816442822771 0 -0.34681834072850293 -0.1185683265915812 0 -0.35784967500807718 -0.14068816442822771 0 -0.36325787309512553 -0.1168784494371649 0 -0.35784967500807718 -0.14068816442822771 0 -0.37580779371669332 -0.125685498048419 0 -0.35784967500807718 -0.14068816442822771 0 -0.37580779371669332 -0.125685498048419 0 -0.35784967500807718 -0.14068816442822771 0 -0.37776953653850059 -0.1431302088901347 0 -0.37580779371669332 -0.125685498048419 0 -0.35784967500807718 -0.14068816442822771 0 -0.36584245209404409 -0.15671514072368481 0 -0.37776953653850059 -0.1431302088901347 0 -0.35784967500807718 -0.14068816442822771 0 -0.36584245209404409 -0.15671514072368481 0 -0.36584245209404409 -0.15671514072368481 0 -0.37926534255081168 -0.15797909926129319 0 -0.37776953653850059 -0.1431302088901347 0 -0.34107160627657412 -0.15470498722356071 0 -0.35784967500807718 -0.14068816442822771 0 -0.34107160627657412 -0.15470498722356071 0 -0.35784967500807718 -0.14068816442822771 0 -0.36584245209404409 -0.15671514072368481 0 -0.34107160627657412 -0.15470498722356071 0 -0.33387057434113282 -0.1337957211518998 0 -0.35784967500807718 -0.14068816442822771 0 -0.34918997348902059 -0.16791248789867769 0 -0.36584245209404409 -0.15671514072368481 0 -0.36242210986491191 -0.17111947315326709 0 -0.34107160627657412 -0.15470498722356071 0 -0.34918997348902059 -0.16791248789867769 0 -0.36584245209404409 -0.15671514072368481 0 -0.36584245209404409 -0.15671514072368481 0 -0.37383522918000989 -0.17274211701914241 0 -0.36584245209404409 -0.15671514072368481 0 -0.37383522918000989 -0.17274211701914241 0 -0.37926534255081168 -0.15797909926129319 0 -0.36584245209404409 -0.15671514072368481 0 -0.36242210986491191 -0.17111947315326709 0 -0.37383522918000989 -0.17274211701914241 0 -0.37383522918000989 -0.17274211701914241 0 -0.36703300841006131 -0.18110200339313651 0 -0.3727769921791968 -0.19444492836575819 0 -0.36242210986491191 -0.17111947315326709 0 -0.37383522918000989 -0.17274211701914241 0 -0.36703300841006131 -0.18110200339313651 0 -0.36242210986491191 -0.17111947315326709 0 -0.36703300841006131 -0.18110200339313651 0 -0.35620988615142329 -0.17712561673169411 0 -0.36703300841006131 -0.18110200339313651 0 -0.35734270974983429 -0.18568924236977619 0 -0.36652769740599211 -0.19069906535394229 0 -0.36703300841006131 -0.18110200339313651 0 -0.35734270974983429 -0.18568924236977619 0 -0.35620988615142329 -0.17712561673169411 0 -0.35734270974983429 -0.18568924236977619 0 -0.35620988615142329 -0.17712561673169411 0 -0.3435319047774506 -0.18266184974766739 0 -0.34918997348902059 -0.16791248789867769 0 -0.36242210986491191 -0.17111947315326709 0 -0.35620988615142329 -0.17712561673169411 0 -0.34918997348902059 -0.16791248789867769 0 -0.35620988615142329 -0.17712561673169411 0 -0.3435319047774506 -0.18266184974766739 0 -0.35734270974983429 -0.18568924236977619 0 -0.3435319047774506 -0.18266184974766739 0 -0.35075756625196602 -0.1924416669241325 0 -0.3435319047774506 -0.18266184974766739 0 -0.32429353754507129 -0.16872181001889389 0 -0.32044453036360521 -0.18465670265282449 0 -0.34918997348902059 -0.16791248789867769 0 -0.3435319047774506 -0.18266184974766739 0 -0.32429353754507129 -0.16872181001889389 0 -0.34107160627657412 -0.15470498722356071 0 -0.32429353754507129 -0.16872181001889389 0 -0.34107160627657412 -0.15470498722356071 0 -0.34918997348902059 -0.16791248789867769 0 -0.32429353754507129 -0.16872181001889389 0 -0.32378827561297419 -0.15158105859589191 0 -0.34107160627657412 -0.15470498722356071 0 -0.32429353754507129 -0.16872181001889389 0 -0.30065080800530269 -0.16002232337993999 0 -0.32378827561297419 -0.15158105859589191 0 -0.32429353754507129 -0.16872181001889389 0 -0.30794042101866359 -0.1745719465984063 0 -0.32429353754507129 -0.16872181001889389 0 -0.32044453036360521 -0.18465670265282449 0 -0.31629226980138692 -0.1992699216040528 0 -0.33378642732705888 -0.21141960713915839 0 -0.33181093676334439 -0.19559445187897961 0 -0.32044453036360521 -0.18465670265282449 0 -0.31629226980138692 -0.1992699216040528 0 -0.33181093676334439 -0.19559445187897961 0 -0.31629226980138692 -0.1992699216040528 0 -0.33378642732705888 -0.21141960713915839 0 -0.31629226980138692 -0.1992699216040528 0 -0.33378642732705888 -0.21141960713915839 0 -0.32087064687699729 -0.2217508789777782 0 -0.30189202448949082 -0.21620071349578751 0 -0.31629226980138692 -0.1992699216040528 0 -0.32087064687699729 -0.2217508789777782 0 -0.34369917214149459 -0.20622497216586039 0 -0.32087064687699729 -0.2217508789777782 0 -0.34369917214149459 -0.20622497216586039 0 -0.34374916365757779 -0.22373208101247591 0 -0.32087064687699729 -0.2217508789777782 0 -0.33378642732705888 -0.21141960713915839 0 -0.34369917214149459 -0.20622497216586039 0 -0.32087064687699729 -0.2217508789777782 0 -0.33378642732705888 -0.21141960713915839 0 -0.34369917214149459 -0.20622497216586039 0 -0.33181093676334439 -0.19559445187897961 0 -0.34369917214149459 -0.20622497216586039 0 -0.34213353765333421 -0.1960132029629354 0 -0.33181093676334439 -0.19559445187897961 0 -0.3435319047774506 -0.18266184974766739 0 -0.32044453036360521 -0.18465670265282449 0 -0.33181093676334439 -0.19559445187897961 0 -0.3435319047774506 -0.18266184974766739 0 -0.34213353765333421 -0.1960132029629354 0 -0.33181093676334439 -0.19559445187897961 0 -0.34369917214149459 -0.20622497216586039 0 -0.35075756625196602 -0.1924416669241325 0 -0.36652769740599211 -0.19069906535394229 0 -0.35734270974983429 -0.18568924236977619 0 -0.35075756625196602 -0.1924416669241325 0 -0.36652769740599211 -0.19069906535394229 0 -0.34369917214149459 -0.20622497216586039 0 -0.36652769740599211 -0.19069906535394229 0 -0.35943398798911252 -0.2045734419382215 0 -0.34369917214149459 -0.20622497216586039 0 -0.36652769740599211 -0.19069906535394229 0 -0.3435319047774506 -0.18266184974766739 0 -0.34213353765333421 -0.1960132029629354 0 -0.35075756625196602 -0.1924416669241325 0 -0.34369917214149459 -0.20622497216586039 0 -0.34213353765333421 -0.1960132029629354 0 -0.35075756625196602 -0.1924416669241325 0 -0.36652769740599211 -0.19069906535394229 0 -0.3727769921791968 -0.19444492836575819 0 -0.35943398798911252 -0.2045734419382215 0 -0.36703300841006131 -0.18110200339313651 0 -0.36652769740599211 -0.19069906535394229 0 -0.3727769921791968 -0.19444492836575819 0 -0.37433616301007161 -0.20926161488262709 0 -0.36168647440898849 -0.21871919765379899 0 -0.37795339495275249 -0.2228989092713938 0 -0.3727769921791968 -0.19444492836575819 0 -0.35943398798911252 -0.2045734419382215 0 -0.36168647440898849 -0.21871919765379899 0 -0.3727769921791968 -0.19444492836575819 0 -0.37433616301007161 -0.20926161488262709 0 -0.36168647440898849 -0.21871919765379899 0 -0.3727769921791968 -0.19444492836575819 0 -0.36168647440898849 -0.21871919765379899 0 -0.36168647440898849 -0.21871919765379899 0 -0.35247960380989068 -0.21277904615174759 0 -0.34374916365757779 -0.22373208101247591 0 -0.34369917214149459 -0.20622497216586039 0 -0.35247960380989068 -0.21277904615174759 0 -0.34374916365757779 -0.22373208101247591 0 -0.35943398798911252 -0.2045734419382215 0 -0.36168647440898849 -0.21871919765379899 0 -0.35247960380989068 -0.21277904615174759 0 -0.34369917214149459 -0.20622497216586039 0 -0.35943398798911252 -0.2045734419382215 0 -0.35247960380989068 -0.21277904615174759 0 -0.36168647440898849 -0.21871919765379899 0 -0.35059595663878029 -0.2429934669418396 0 -0.34374916365757779 -0.22373208101247591 0 -0.36168647440898849 -0.21871919765379899 0 -0.35059595663878029 -0.2429934669418396 0 -0.36168647440898849 -0.21871919765379899 0 -0.37443718435660461 -0.2389812387045101 0 -0.37795339495275249 -0.2228989092713938 0 -0.36168647440898849 -0.21871919765379899 0 -0.37443718435660461 -0.2389812387045101 0 -0.35059595663878029 -0.2429934669418396 0 -0.36764123883450761 -0.25737832796895799 0 -0.37443718435660461 -0.2389812387045101 0 -0.35059595663878029 -0.2429934669418396 0 -0.32847411645108021 -0.25369701977162651 0 -0.35059595663878029 -0.2429934669418396 0 -0.33204200891637392 -0.23696565823438701 0 -0.35059595663878029 -0.2429934669418396 0 -0.33204200891637392 -0.23696565823438701 0 -0.34374916365757779 -0.22373208101247591 0 -0.33204200891637392 -0.23696565823438701 0 -0.34374916365757779 -0.22373208101247591 0 -0.32087064687699729 -0.2217508789777782 0 -0.33204200891637392 -0.23696565823438701 0 -0.32087064687699729 -0.2217508789777782 0 -0.3165201609574339 -0.24265484446821489 0 -0.32847411645108021 -0.25369701977162651 0 -0.33204200891637392 -0.23696565823438701 0 -0.3165201609574339 -0.24265484446821489 0 -0.42397476907017401 -0.25353629667850253 0 -0.43480649961984402 -0.2293104065181838 0 -0.44974283407700649 -0.24306414261632861 0 -0.42397476907017401 -0.25353629667850253 0 -0.43480649961984402 -0.2293104065181838 0 -0.41501558743146533 -0.2384769833899873 0 -0.43480649961984402 -0.2293104065181838 0 -0.41466242825083932 -0.22334975743253721 0 -0.42335141310657171 -0.20466390904420459 0 -0.43480649961984402 -0.2293104065181838 0 -0.41466242825083932 -0.22334975743253721 0 -0.41501558743146533 -0.2384769833899873 0 -0.41466242825083932 -0.22334975743253721 0 -0.40031846873018828 -0.2407203224328695 0 -0.41466242825083932 -0.22334975743253721 0 -0.41501558743146533 -0.2384769833899873 0 -0.40031846873018828 -0.2407203224328695 0 -0.41466242825083932 -0.22334975743253721 0 -0.40079004660583439 -0.22741313417258069 0 -0.40347976240504191 -0.21108276046437299 0 -0.42397476907017401 -0.25353629667850253 0 -0.39863302542689749 -0.24370875631517799 0 -0.42397476907017401 -0.25353629667850253 0 -0.41501558743146533 -0.2384769833899873 0 -0.39863302542689749 -0.24370875631517799 0 -0.38597450920953752 -0.25809088743320169 0 -0.39863302542689749 -0.24370875631517799 0 -0.40031846873018828 -0.2407203224328695 0 -0.41501558743146533 -0.2384769833899873 0 -0.39863302542689749 -0.24370875631517799 0 -0.40031846873018828 -0.2407203224328695 0 -0.38597450920953752 -0.25809088743320169 0 -0.40031846873018828 -0.2407203224328695 0 -0.38823937011867399 -0.2423807086131454 0 -0.38597450920953752 -0.25809088743320169 0 -0.40031846873018828 -0.2407203224328695 0 -0.40031846873018828 -0.2407203224328695 0 -0.39414176579205479 -0.23647058072661351 0 -0.40079004660583439 -0.22741313417258069 0 -0.40031846873018828 -0.2407203224328695 0 -0.39414176579205479 -0.23647058072661351 0 -0.38823937011867399 -0.2423807086131454 0 -0.39414176579205479 -0.23647058072661351 0 -0.38823937011867399 -0.2423807086131454 0 -0.39044933269814103 -0.23038998007265629 0 -0.37443718435660461 -0.2389812387045101 0 -0.38823937011867399 -0.2423807086131454 0 -0.39044933269814103 -0.23038998007265629 0 -0.38597450920953752 -0.25809088743320169 0 -0.37443718435660461 -0.2389812387045101 0 -0.38823937011867399 -0.2423807086131454 0 -0.37443718435660461 -0.2389812387045101 0 -0.37795339495275249 -0.2228989092713938 0 -0.39044933269814103 -0.23038998007265629 0 -0.37795339495275249 -0.2228989092713938 0 -0.39044933269814103 -0.23038998007265629 0 -0.38885782028995691 -0.21714251504337651 0 -0.41466242825083932 -0.22334975743253721 0 -0.40031846873018828 -0.2407203224328695 0 -0.40079004660583439 -0.22741313417258069 0 -0.39044933269814103 -0.23038998007265629 0 -0.40079004660583439 -0.22741313417258069 0 -0.38885782028995691 -0.21714251504337651 0 -0.39414176579205479 -0.23647058072661351 0 -0.39044933269814103 -0.23038998007265629 0 -0.40079004660583439 -0.22741313417258069 0 -0.40079004660583439 -0.22741313417258069 0 -0.40347976240504191 -0.21108276046437299 0 -0.38885782028995691 -0.21714251504337651 0 -0.40347976240504191 -0.21108276046437299 0 -0.38885782028995691 -0.21714251504337651 0 -0.38784593028486553 -0.2015796859508738 0 -0.37433616301007161 -0.20926161488262709 0 -0.38885782028995691 -0.21714251504337651 0 -0.38784593028486553 -0.2015796859508738 0 -0.37433616301007161 -0.20926161488262709 0 -0.37939982656821242 -0.1989870361534859 0 -0.38784593028486553 -0.2015796859508738 0 -0.37433616301007161 -0.20926161488262709 0 -0.37795339495275249 -0.2228989092713938 0 -0.38885782028995691 -0.21714251504337651 0 -0.3727769921791968 -0.19444492836575819 0 -0.38264022079871612 -0.19066191541468461 0 -0.37939982656821242 -0.1989870361534859 0 -0.3727769921791968 -0.19444492836575819 0 -0.37433616301007161 -0.20926161488262709 0 -0.37939982656821242 -0.1989870361534859 0 -0.38264022079871612 -0.19066191541468461 0 -0.37939982656821242 -0.1989870361534859 0 -0.38784593028486553 -0.2015796859508738 0 -0.38264022079871612 -0.19066191541468461 0 -0.38784593028486553 -0.2015796859508738 0 -0.39063058517835131 -0.18681896447016039 0 -0.40347976240504191 -0.21108276046437299 0 -0.38784593028486553 -0.2015796859508738 0 -0.40364444722427378 -0.19361142647466531 0 -0.38784593028486553 -0.2015796859508738 0 -0.40364444722427378 -0.19361142647466531 0 -0.39063058517835131 -0.18681896447016039 0 -0.40364444722427378 -0.19361142647466531 0 -0.42335141310657171 -0.20466390904420459 0 -0.41888545648844322 -0.18263723900700721 0 -0.40347976240504191 -0.21108276046437299 0 -0.40364444722427378 -0.19361142647466531 0 -0.42335141310657171 -0.20466390904420459 0 -0.41466242825083932 -0.22334975743253721 0 -0.40347976240504191 -0.21108276046437299 0 -0.42335141310657171 -0.20466390904420459 0 -0.43480649961984402 -0.2293104065181838 0 -0.42335141310657171 -0.20466390904420459 0 -0.44557495167517652 -0.209851757993048 0 -0.42335141310657171 -0.20466390904420459 0 -0.41888545648844322 -0.18263723900700721 0 -0.44039488561280271 -0.18586032600277491 0 -0.42335141310657171 -0.20466390904420459 0 -0.44039488561280271 -0.18586032600277491 0 -0.44557495167517652 -0.209851757993048 0 -0.42873209877534679 -0.16847913354110869 0 -0.41888545648844322 -0.18263723900700721 0 -0.44039488561280271 -0.18586032600277491 0 -0.42873209877534679 -0.16847913354110869 0 -0.42521206900384462 -0.14508654697434001 0 -0.44399413106695151 -0.15914456897721899 0 -0.42873209877534679 -0.16847913354110869 0 -0.41311634331255093 -0.1645111076339581 0 -0.42521206900384462 -0.14508654697434001 0 -0.40364444722427378 -0.19361142647466531 0 -0.41888545648844322 -0.18263723900700721 0 -0.40020347564426578 -0.17455827907491439 0 -0.41311634331255093 -0.1645111076339581 0 -0.41888545648844322 -0.18263723900700721 0 -0.40020347564426578 -0.17455827907491439 0 -0.42873209877534679 -0.16847913354110869 0 -0.41311634331255093 -0.1645111076339581 0 -0.41888545648844322 -0.18263723900700721 0 -0.40364444722427378 -0.19361142647466531 0 -0.40020347564426578 -0.17455827907491439 0 -0.39063058517835131 -0.18681896447016039 0 -0.40020347564426578 -0.17455827907491439 0 -0.39063058517835131 -0.18681896447016039 0 -0.38386750994940511 -0.1701706590777175 0 -0.38264022079871612 -0.19066191541468461 0 -0.39063058517835131 -0.18681896447016039 0 -0.38386750994940511 -0.1701706590777175 0 -0.37383522918000989 -0.17274211701914241 0 -0.3727769921791968 -0.19444492836575819 0 -0.38386750994940511 -0.1701706590777175 0 -0.3727769921791968 -0.19444492836575819 0 -0.38264022079871612 -0.19066191541468461 0 -0.38386750994940511 -0.1701706590777175 0 -0.3727769921791968 -0.19444492836575819 0 -0.38386750994940511 -0.1701706590777175 0 -0.38386750994940511 -0.1701706590777175 0 -0.39495802771961341 -0.1458963897896767 0 -0.37926534255081168 -0.15797909926129319 0 -0.38386750994940511 -0.1701706590777175 0 -0.39495802771961341 -0.1458963897896767 0 -0.37383522918000989 -0.17274211701914241 0 -0.37926534255081168 -0.15797909926129319 0 -0.38386750994940511 -0.1701706590777175 0 -0.41311634331255093 -0.1645111076339581 0 -0.40020347564426578 -0.17455827907491439 0 -0.39495802771961341 -0.1458963897896767 0 -0.40020347564426578 -0.17455827907491439 0 -0.38386750994940511 -0.1701706590777175 0 -0.39495802771961341 -0.1458963897896767 0 -0.37926534255081168 -0.15797909926129319 0 -0.39495802771961341 -0.1458963897896767 0 -0.37776953653850059 -0.1431302088901347 0 -0.39495802771961341 -0.1458963897896767 0 -0.37776953653850059 -0.1431302088901347 0 -0.39276443068780009 -0.12883860715484269 0 -0.37776953653850059 -0.1431302088901347 0 -0.37580779371669332 -0.125685498048419 0 -0.39276443068780009 -0.12883860715484269 0 -0.39495802771961341 -0.1458963897896767 0 -0.39276443068780009 -0.12883860715484269 0 -0.41234133793195588 -0.1279130308640469 0 -0.39276443068780009 -0.12883860715484269 0 -0.41234133793195588 -0.1279130308640469 0 -0.40207242602646542 -0.11995643334472141 0 -0.39495802771961341 -0.1458963897896767 0 -0.41234133793195588 -0.1279130308640469 0 -0.42521206900384462 -0.14508654697434001 0 -0.41311634331255093 -0.1645111076339581 0 -0.39495802771961341 -0.1458963897896767 0 -0.42521206900384462 -0.14508654697434001 0 -0.42521206900384462 -0.14508654697434001 0 -0.44759337652110021 -0.13242881195166301 0 -0.43180389902509531 -0.1192338834619093 0 -0.41234133793195588 -0.1279130308640469 0 -0.42521206900384462 -0.14508654697434001 0 -0.43180389902509531 -0.1192338834619093 0 -0.44759337652110021 -0.13242881195166301 0 -0.44399413106695151 -0.15914456897721899 0 -0.42521206900384462 -0.14508654697434001 0 -0.44759337652110021 -0.13242881195166301 0 -0.44399413106695151 -0.15914456897721899 0 -0.44759337652110021 -0.13242881195166301 0 -0.46993892041413182 -0.14918424583787521 0 -0.44399413106695151 -0.15914456897721899 0 -0.44759337652110021 -0.13242881195166301 0 -0.46696095530472342 -0.1310624224172425 0 -0.46993892041413182 -0.14918424583787521 0 -0.44759337652110021 -0.13242881195166301 0 -0.46696095530472342 -0.1310624224172425 0 -0.46057924045788751 -0.1205779851681158 0 -0.46696095530472342 -0.1310624224172425 0 -0.48169758413695202 -0.12654011477325491 0 -0.46993892041413182 -0.14918424583787521 0 -0.48169758413695202 -0.12654011477325491 0 -0.5 -0.13754982245163311 0 -0.46993892041413182 -0.14918424583787521 0 -0.46696095530472342 -0.1310624224172425 0 -0.48169758413695202 -0.12654011477325491 0 -0.472649507602036 -0.12030416359573699 0 -0.48169758413695202 -0.12654011477325491 0 -0.5 -0.13754982245163311 0 -0.49011189739272087 -0.11923588700793571 0 -0.5 -0.13754982245163311 0 -0.46993892041413182 -0.14918424583787521 0 -0.5 -0.16664364151500191 0 -0.46993892041413182 -0.14918424583787521 0 -0.5 -0.16664364151500191 0 -0.47020523598973329 -0.17627615616928691 0 -0.5 -0.16664364151500191 0 -0.47020523598973329 -0.17627615616928691 0 -0.5 -0.1957374605783706 0 -0.46993892041413182 -0.14918424583787521 0 -0.47020523598973329 -0.17627615616928691 0 -0.44399413106695151 -0.15914456897721899 0 -0.42873209877534679 -0.16847913354110869 0 -0.44399413106695151 -0.15914456897721899 0 -0.44039488561280271 -0.18586032600277491 0 -0.44399413106695151 -0.15914456897721899 0 -0.44039488561280271 -0.18586032600277491 0 -0.47020523598973329 -0.17627615616928691 0 -0.44399413106695151 -0.15914456897721899 0 -0.44039488561280271 -0.18586032600277491 0 -0.44039488561280271 -0.18586032600277491 0 -0.44557495167517652 -0.209851757993048 0 -0.47131180399768507 -0.2047843140567413 0 -0.47131180399768507 -0.2047843140567413 0 -0.47563483755881558 -0.22481297646038231 0 -0.45801015603897888 -0.2246398343433352 0 -0.44557495167517652 -0.209851757993048 0 -0.47131180399768507 -0.2047843140567413 0 -0.45801015603897888 -0.2246398343433352 0 -0.47020523598973329 -0.17627615616928691 0 -0.44039488561280271 -0.18586032600277491 0 -0.47131180399768507 -0.2047843140567413 0 -0.47020523598973329 -0.17627615616928691 0 -0.5 -0.1957374605783706 0 -0.47131180399768507 -0.2047843140567413 0 -0.5 -0.1957374605783706 0 -0.47131180399768507 -0.2047843140567413 0 -0.5 -0.22483127964173941 0 -0.47131180399768507 -0.2047843140567413 0 -0.47563483755881558 -0.22481297646038231 0 -0.5 -0.22483127964173941 0 -0.47563483755881558 -0.22481297646038231 0 -0.4732173901985986 -0.2449964777997132 0 -0.45801015603897888 -0.2246398343433352 0 -0.47563483755881558 -0.22481297646038231 0 -0.5 -0.22483127964173941 0 -0.4732173901985986 -0.2449964777997132 0 -0.5 -0.25392509870510832 0 -0.5 -0.22483127964173941 0 -0.4732173901985986 -0.2449964777997132 0 -0.4732173901985986 -0.2449964777997132 0 -0.45801015603897888 -0.2246398343433352 0 -0.44974283407700649 -0.24306414261632861 0 -0.43480649961984402 -0.2293104065181838 0 -0.44557495167517652 -0.209851757993048 0 -0.45801015603897888 -0.2246398343433352 0 -0.43480649961984402 -0.2293104065181838 0 -0.45801015603897888 -0.2246398343433352 0 -0.44974283407700649 -0.24306414261632861 0 -0.42205554508422982 -0.039816377074084627 0 -0.42248057170117009 -0.022582871488531529 0 -0.40568486704566842 -0.041187406487239883 0 -0.42248057170117009 -0.022582871488531529 0 -0.40568486704566842 -0.041187406487239883 0 -0.41279568120248 -0.053551026128727849 0 -0.42205554508422982 -0.039816377074084627 0 -0.40568486704566842 -0.041187406487239883 0 -0.41279568120248 -0.053551026128727849 0 -0.43010338951272492 -0.049771306551784411 0 -0.42205554508422982 -0.039816377074084627 0 -0.41279568120248 -0.053551026128727849 0 -0.43010338951272492 -0.049771306551784411 0 -0.42308893815764792 -0.064722310244828066 0 -0.43010338951272492 -0.049771306551784411 0 -0.42308893815764792 -0.064722310244828066 0 -0.43980819028983031 -0.062250681101631053 0 -0.43010338951272492 -0.049771306551784411 0 -0.43390451750787401 -0.035451043068354463 0 -0.44656270010713273 -0.042971230502299541 0 -0.42205554508422982 -0.039816377074084627 0 -0.43390451750787401 -0.035451043068354463 0 -0.42248057170117009 -0.022582871488531529 0 -0.43010338951272492 -0.049771306551784411 0 -0.42205554508422982 -0.039816377074084627 0 -0.43390451750787401 -0.035451043068354463 0 -0.43390451750787401 -0.035451043068354463 0 -0.42248057170117009 -0.022582871488531529 0 -0.44832038113411249 -0.022113429725073071 0 -0.42248057170117009 -0.022582871488531529 0 -0.43862839027586409 -0.0046959973151864398 0 -0.44832038113411249 -0.022113429725073071 0 -0.42248057170117009 -0.022582871488531529 0 -0.44832038113411249 -0.022113429725073071 0 -0.42248057170117009 -0.022582871488531529 0 -0.42597947323087543 -0.0090103536709670029 0 -0.43862839027586409 -0.0046959973151864398 0 -0.42248057170117009 -0.022582871488531529 0 -0.43862839027586409 -0.0046959973151864398 0 -0.42597947323087543 -0.0090103536709670029 0 -0.43862839027586409 -0.0046959973151864398 0 -0.43050121763171523 0.001204678559991162 0 -0.42597947323087543 -0.0090103536709670029 0 -0.43050121763171523 0.001204678559991162 0 -0.42262721034591461 0.0039993990915221118 0 -0.42597947323087543 -0.0090103536709670029 0 -0.41065635893431801 -0.01017180525724273 0 -0.40850407597953198 0.0050437946196981174 0 -0.42597947323087543 -0.0090103536709670029 0 -0.40850407597953198 0.0050437946196981174 0 -0.42248057170117009 -0.022582871488531529 0 -0.42597947323087543 -0.0090103536709670029 0 -0.41065635893431801 -0.01017180525724273 0 -0.42248057170117009 -0.022582871488531529 0 -0.41065635893431801 -0.01017180525724273 0 -0.40212431635517332 -0.022952691414324509 0 -0.42248057170117009 -0.022582871488531529 0 -0.40212431635517332 -0.022952691414324509 0 -0.42248057170117009 -0.022582871488531529 0 -0.40212431635517332 -0.022952691414324509 0 -0.40568486704566842 -0.041187406487239883 0 -0.40212431635517332 -0.022952691414324509 0 -0.39926558985260341 -0.0040230340364888727 0 -0.38586672766963009 -0.0039758236297552374 0 -0.41065635893431801 -0.01017180525724273 0 -0.40212431635517332 -0.022952691414324509 0 -0.39926558985260341 -0.0040230340364888727 0 -0.41065635893431801 -0.01017180525724273 0 -0.39926558985260341 -0.0040230340364888727 0 -0.40850407597953198 0.0050437946196981174 0 -0.36773282995165379 -0.00174619774939233 0 -0.38586672766963009 -0.0039758236297552374 0 -0.3785878346708148 -0.01940136801545269 0 -0.40212431635517332 -0.022952691414324509 0 -0.38586672766963009 -0.0039758236297552374 0 -0.3785878346708148 -0.01940136801545269 0 -0.40212431635517332 -0.022952691414324509 0 -0.3785878346708148 -0.01940136801545269 0 -0.38498033268007859 -0.035161861431758618 0 -0.36424129027578461 -0.028452765912320339 0 -0.3785878346708148 -0.01940136801545269 0 -0.38498033268007859 -0.035161861431758618 0 -0.36552395558364581 -0.048642081291832361 0 -0.38498033268007859 -0.035161861431758618 0 -0.39182459664616842 -0.051357121041018049 0 -0.38498033268007859 -0.035161861431758618 0 -0.40568486704566842 -0.041187406487239883 0 -0.39182459664616842 -0.051357121041018049 0 -0.40212431635517332 -0.022952691414324509 0 -0.38498033268007859 -0.035161861431758618 0 -0.40568486704566842 -0.041187406487239883 0 -0.41279568120248 -0.053551026128727849 0 -0.40568486704566842 -0.041187406487239883 0 -0.39182459664616842 -0.051357121041018049 0 -0.39182459664616842 -0.051357121041018049 0 -0.37914736632805901 -0.062968237314408509 0 -0.40385129457438179 -0.072103504009581321 0 -0.41279568120248 -0.053551026128727849 0 -0.39182459664616842 -0.051357121041018049 0 -0.40385129457438179 -0.072103504009581321 0 -0.36552395558364581 -0.048642081291832361 0 -0.39182459664616842 -0.051357121041018049 0 -0.37914736632805901 -0.062968237314408509 0 -0.37914736632805901 -0.062968237314408509 0 -0.3803197219795556 -0.084281989074093427 0 -0.40385129457438179 -0.072103504009581321 0 -0.3803197219795556 -0.084281989074093427 0 -0.39658473782159059 -0.086682051263640522 0 -0.3934898142120884 -0.10108077184052169 0 -0.39658473782159059 -0.086682051263640522 0 -0.40385129457438179 -0.072103504009581321 0 -0.40867812052033681 -0.089261940130365688 0 -0.3803197219795556 -0.084281989074093427 0 -0.39658473782159059 -0.086682051263640522 0 -0.40385129457438179 -0.072103504009581321 0 -0.39658473782159059 -0.086682051263640522 0 -0.3934898142120884 -0.10108077184052169 0 -0.40867812052033681 -0.089261940130365688 0 -0.37914736632805901 -0.062968237314408509 0 -0.40385129457438179 -0.072103504009581321 0 -0.37580779371669332 -0.125685498048419 0 -0.37809455910319512 -0.11048055718521541 0 -0.39376591242530973 -0.11068283166861061 0 -0.37580779371669332 -0.125685498048419 0 -0.39376591242530973 -0.11068283166861061 0 -0.37580779371669332 -0.125685498048419 0 -0.39276443068780009 -0.12883860715484269 0 -0.39376591242530973 -0.11068283166861061 0 -0.36463841033050798 -0.09876463029772839 0 -0.37809455910319512 -0.11048055718521541 0 -0.3934898142120884 -0.10108077184052169 0 -0.36463841033050798 -0.09876463029772839 0 -0.3934898142120884 -0.10108077184052169 0 -0.37809455910319512 -0.11048055718521541 0 -0.3934898142120884 -0.10108077184052169 0 -0.39376591242530973 -0.11068283166861061 0 -0.36463841033050798 -0.09876463029772839 0 -0.3803197219795556 -0.084281989074093427 0 -0.3934898142120884 -0.10108077184052169 0 -0.3934898142120884 -0.10108077184052169 0 -0.39376591242530973 -0.11068283166861061 0 -0.40941802306079611 -0.11239126369138561 0 -0.39276443068780009 -0.12883860715484269 0 -0.39376591242530973 -0.11068283166861061 0 -0.40207242602646542 -0.11995643334472141 0 -0.39376591242530973 -0.11068283166861061 0 -0.40207242602646542 -0.11995643334472141 0 -0.40941802306079611 -0.11239126369138561 0 -0.40941802306079611 -0.11239126369138561 0 -0.42234121809366859 -0.1033969133833149 0 -0.43180389902509531 -0.1192338834619093 0 -0.41234133793195588 -0.1279130308640469 0 -0.40941802306079611 -0.11239126369138561 0 -0.43180389902509531 -0.1192338834619093 0 -0.41234133793195588 -0.1279130308640469 0 -0.40207242602646542 -0.11995643334472141 0 -0.40941802306079611 -0.11239126369138561 0 -0.3934898142120884 -0.10108077184052169 0 -0.42234121809366859 -0.1033969133833149 0 -0.40867812052033681 -0.089261940130365688 0 -0.3934898142120884 -0.10108077184052169 0 -0.40941802306079611 -0.11239126369138561 0 -0.42234121809366859 -0.1033969133833149 0 -0.3934898142120884 -0.10108077184052169 0 -0.42234121809366859 -0.1033969133833149 0 -0.42234121809366859 -0.1033969133833149 0 -0.45119262197524912 -0.10571305492610709 0 -0.42234121809366859 -0.1033969133833149 0 -0.45119262197524912 -0.10571305492610709 0 -0.43883705348916252 -0.095180694103525476 0 -0.42234121809366859 -0.1033969133833149 0 -0.43180389902509531 -0.1192338834619093 0 -0.45119262197524912 -0.10571305492610709 0 -0.40385129457438179 -0.072103504009581321 0 -0.42855522282070457 -0.081238770704754132 0 -0.41279568120248 -0.053551026128727849 0 -0.40385129457438179 -0.072103504009581321 0 -0.42308893815764792 -0.064722310244828066 0 -0.40385129457438179 -0.072103504009581321 0 -0.42855522282070457 -0.081238770704754132 0 -0.42308893815764792 -0.064722310244828066 0 -0.42234121809366859 -0.1033969133833149 0 -0.40867812052033681 -0.089261940130365688 0 -0.42855522282070457 -0.081238770704754132 0 -0.40385129457438179 -0.072103504009581321 0 -0.40867812052033681 -0.089261940130365688 0 -0.42855522282070457 -0.081238770704754132 0 -0.42234121809366859 -0.1033969133833149 0 -0.42855522282070457 -0.081238770704754132 0 -0.43883705348916252 -0.095180694103525476 0 -0.42855522282070457 -0.081238770704754132 0 -0.42308893815764792 -0.064722310244828066 0 -0.43980819028983031 -0.062250681101631053 0 -0.42855522282070457 -0.081238770704754132 0 -0.45576298608403182 -0.071789073190485317 0 -0.43980819028983031 -0.062250681101631053 0 -0.42855522282070457 -0.081238770704754132 0 -0.45325915106702802 -0.09037403739992575 0 -0.43883705348916252 -0.095180694103525476 0 -0.42855522282070457 -0.081238770704754132 0 -0.45325915106702802 -0.09037403739992575 0 -0.42855522282070457 -0.081238770704754132 0 -0.45325915106702802 -0.09037403739992575 0 -0.45576298608403182 -0.071789073190485317 0 -0.45325915106702802 -0.09037403739992575 0 -0.46773701885493968 -0.085131195631220458 0 -0.45576298608403182 -0.071789073190485317 0 -0.45325915106702802 -0.09037403739992575 0 -0.46773701885493968 -0.085131195631220458 0 -0.47440190635006818 -0.098192417790911951 0 -0.45325915106702802 -0.09037403739992575 0 -0.45576298608403182 -0.071789073190485317 0 -0.46773701885493968 -0.085131195631220458 0 -0.45576298608403182 -0.071789073190485317 0 -0.48053537599309448 -0.075077481218276648 0 -0.44759337652110021 -0.13242881195166301 0 -0.45119262197524912 -0.10571305492610709 0 -0.46057924045788751 -0.1205779851681158 0 -0.44759337652110021 -0.13242881195166301 0 -0.43180389902509531 -0.1192338834619093 0 -0.45119262197524912 -0.10571305492610709 0 -0.44759337652110021 -0.13242881195166301 0 -0.45119262197524912 -0.10571305492610709 0 -0.45325915106702802 -0.09037403739992575 0 -0.45119262197524912 -0.10571305492610709 0 -0.43883705348916252 -0.095180694103525476 0 -0.45325915106702802 -0.09037403739992575 0 -0.45119262197524912 -0.10571305492610709 0 -0.45325915106702802 -0.09037403739992575 0 -0.46221796282571309 -0.1001649663562902 0 -0.47440190635006818 -0.098192417790911951 0 -0.45119262197524912 -0.10571305492610709 0 -0.4722170274973761 -0.1074008583772747 0 -0.45119262197524912 -0.10571305492610709 0 -0.46221796282571309 -0.1001649663562902 0 -0.4722170274973761 -0.1074008583772747 0 -0.45325915106702802 -0.09037403739992575 0 -0.47440190635006818 -0.098192417790911951 0 -0.45325915106702802 -0.09037403739992575 0 -0.45119262197524912 -0.10571305492610709 0 -0.46221796282571309 -0.1001649663562902 0 -0.45119262197524912 -0.10571305492610709 0 -0.46057924045788751 -0.1205779851681158 0 -0.4722170274973761 -0.1074008583772747 0 -0.46057924045788751 -0.1205779851681158 0 -0.472649507602036 -0.12030416359573699 0 -0.4722170274973761 -0.1074008583772747 0 -0.46696095530472342 -0.1310624224172425 0 -0.46057924045788751 -0.1205779851681158 0 -0.472649507602036 -0.12030416359573699 0 -0.48169758413695202 -0.12654011477325491 0 -0.472649507602036 -0.12030416359573699 0 -0.48061965691748593 -0.1128010418630136 0 -0.48169758413695202 -0.12654011477325491 0 -0.48061965691748593 -0.1128010418630136 0 -0.49011189739272087 -0.11923588700793571 0 -0.472649507602036 -0.12030416359573699 0 -0.48061965691748593 -0.1128010418630136 0 -0.4722170274973761 -0.1074008583772747 0 -0.48342041077750719 -0.10602960453047269 0 -0.47766475038560929 -0.10610598064041819 0 -0.47440190635006818 -0.098192417790911951 0 -0.48061965691748593 -0.1128010418630136 0 -0.47766475038560929 -0.10610598064041819 0 -0.4722170274973761 -0.1074008583772747 0 -0.48061965691748593 -0.1128010418630136 0 -0.48342041077750719 -0.10602960453047269 0 -0.47766475038560929 -0.10610598064041819 0 -0.47766475038560929 -0.10610598064041819 0 -0.4722170274973761 -0.1074008583772747 0 -0.47440190635006818 -0.098192417790911951 0 -0.46221796282571309 -0.1001649663562902 0 -0.4722170274973761 -0.1074008583772747 0 -0.47440190635006818 -0.098192417790911951 0 -0.47440190635006818 -0.098192417790911951 0 -0.4955446616331089 -0.1060107981818969 0 -0.48781240370355899 -0.090492344307092715 0 -0.4955446616331089 -0.1060107981818969 0 -0.5 -0.10845600338826419 0 -0.5 -0.079362184324895391 0 -0.48342041077750719 -0.10602960453047269 0 -0.47440190635006818 -0.098192417790911951 0 -0.4955446616331089 -0.1060107981818969 0 -0.47440190635006818 -0.098192417790911951 0 -0.4955446616331089 -0.1060107981818969 0 -0.4955446616331089 -0.1060107981818969 0 -0.5 -0.10845600338826419 0 -0.48993932534416462 -0.1105066669943166 0 -0.48342041077750719 -0.10602960453047269 0 -0.4955446616331089 -0.1060107981818969 0 -0.48993932534416462 -0.1105066669943166 0 -0.5 -0.13754982245163311 0 -0.5 -0.10845600338826419 0 -0.49011189739272087 -0.11923588700793571 0 -0.48061965691748593 -0.1128010418630136 0 -0.48342041077750719 -0.10602960453047269 0 -0.48993932534416462 -0.1105066669943166 0 -0.48061965691748593 -0.1128010418630136 0 -0.48993932534416462 -0.1105066669943166 0 -0.49011189739272087 -0.11923588700793571 0 -0.5 -0.10845600338826419 0 -0.48993932534416462 -0.1105066669943166 0 -0.49011189739272087 -0.11923588700793571 0 -0.45576298608403182 -0.071789073190485317 0 -0.48053537599309448 -0.075077481218276648 0 -0.47456609176647269 -0.058331361634392877 0 -0.46773701885493968 -0.085131195631220458 0 -0.48053537599309448 -0.075077481218276648 0 -0.47762167622541529 -0.087223359736875436 0 -0.46773701885493968 -0.085131195631220458 0 -0.47440190635006818 -0.098192417790911951 0 -0.47762167622541529 -0.087223359736875436 0 -0.47440190635006818 -0.098192417790911951 0 -0.47762167622541529 -0.087223359736875436 0 -0.48781240370355899 -0.090492344307092715 0 -0.48053537599309448 -0.075077481218276648 0 -0.47762167622541529 -0.087223359736875436 0 -0.48781240370355899 -0.090492344307092715 0 -0.4955446616331089 -0.1060107981818969 0 -0.5 -0.079362184324895391 0 -0.48781240370355899 -0.090492344307092715 0 -0.48053537599309448 -0.075077481218276648 0 -0.5 -0.079362184324895391 0 -0.48781240370355899 -0.090492344307092715 0 -0.48053537599309448 -0.075077481218276648 0 -0.5 -0.079362184324895391 0 -0.5 -0.050268365261526671 0 -0.48053537599309448 -0.075077481218276648 0 -0.5 -0.050268365261526671 0 -0.47456609176647269 -0.058331361634392877 0 -0.5 -0.050268365261526671 0 -0.47826527565420152 -0.041317779520630787 0 -0.49999999999999711 -0.02117454619815794 0 -0.47826527565420152 -0.041317779520630787 0 -0.46157088873191843 -0.036267715029381323 0 -0.47416019056705477 -0.021643987961615471 0 -0.47826527565420152 -0.041317779520630787 0 -0.47456609176647269 -0.058331361634392877 0 -0.45826682110103528 -0.05320410898104494 0 -0.5 -0.050268365261526671 0 -0.47826527565420152 -0.041317779520630787 0 -0.47456609176647269 -0.058331361634392877 0 -0.45576298608403182 -0.071789073190485317 0 -0.45826682110103528 -0.05320410898104494 0 -0.45576298608403182 -0.071789073190485317 0 -0.47456609176647269 -0.058331361634392877 0 -0.45826682110103528 -0.05320410898104494 0 -0.45826682110103528 -0.05320410898104494 0 -0.46157088873191843 -0.036267715029381323 0 -0.44656270010713273 -0.042971230502299541 0 -0.47826527565420152 -0.041317779520630787 0 -0.45826682110103528 -0.05320410898104494 0 -0.46157088873191843 -0.036267715029381323 0 -0.43390451750787401 -0.035451043068354463 0 -0.44656270010713273 -0.042971230502299541 0 -0.44832038113411249 -0.022113429725073071 0 -0.46157088873191843 -0.036267715029381323 0 -0.44656270010713273 -0.042971230502299541 0 -0.44832038113411249 -0.022113429725073071 0 -0.45576298608403182 -0.071789073190485317 0 -0.45826682110103528 -0.05320410898104494 0 -0.43980819028983031 -0.062250681101631053 0 -0.43010338951272492 -0.049771306551784411 0 -0.44656270010713273 -0.042971230502299541 0 -0.43980819028983031 -0.062250681101631053 0 -0.45826682110103528 -0.05320410898104494 0 -0.44656270010713273 -0.042971230502299541 0 -0.43980819028983031 -0.062250681101631053 0 -0.43862839027586409 -0.0046959973151864398 0 -0.44832038113411249 -0.022113429725073071 0 -0.4578500182818811 -0.0070552588472488969 0 -0.44832038113411249 -0.022113429725073071 0 -0.47416019056705477 -0.021643987961615471 0 -0.44832038113411249 -0.022113429725073071 0 -0.4578500182818811 -0.0070552588472488969 0 -0.47416019056705477 -0.021643987961615471 0 -0.46157088873191843 -0.036267715029381323 0 -0.44832038113411249 -0.022113429725073071 0 -0.47416019056705477 -0.021643987961615471 0 -0.4578500182818811 -0.0070552588472488969 0 -0.47336492058181651 -1.3756092529014339e-05 0 -0.47416019056705477 -0.021643987961615471 0 -0.47336492058181651 -1.3756092529014339e-05 0 -0.47416019056705477 -0.021643987961615471 0 -0.49999999999999711 -0.02117454619815794 0 -0.47826527565420152 -0.041317779520630787 0 -0.47416019056705477 -0.021643987961615471 0 -0.49999999999999711 -0.02117454619815794 0 -0.47416019056705477 -0.021643987961615471 0 -0.49999999999999711 -0.02117454619815794 0 -0.47336492058181651 -1.3756092529014339e-05 0 -0.49999999999999711 -0.02117454619815794 0 -0.5 0.0069786657951326214 0 -0.47336492058181651 -1.3756092529014339e-05 0 -0.5 0.0069786657951326214 0 -0.48386225902648372 0.017098076089857708 0 -0.49123775828230598 0.023787943208615159 0 -0.48386225902648372 0.017098076089857708 0 -0.48108877410274048 0.035943153161047278 0 -0.5 0.0069786657951326214 0 -0.49123775828230598 0.023787943208615159 0 -0.48386225902648372 0.017098076089857708 0 -0.5 0.0069786657951326214 0 -0.49123775828230598 0.023787943208615159 0 -0.5 0.035131877788423027 0 -0.48386225902648372 0.017098076089857708 0 -0.47092402742525041 0.031077751031505479 0 -0.48108877410274048 0.035943153161047278 0 -0.48386225902648372 0.017098076089857708 0 -0.47092402742525041 0.031077751031505479 0 -0.47073185397102701 0.015338236971748419 0 -0.47336492058181651 -1.3756092529014339e-05 0 -0.48386225902648372 0.017098076089857708 0 -0.47073185397102701 0.015338236971748419 0 -0.48707184599994291 0.048964625204851953 0 -0.5 0.035131877788423027 0 -0.49999999999999539 0.063285089781713544 0 -0.48707184599994291 0.048964625204851953 0 -0.47788731744032059 0.065974279252569934 0 -0.49353592299996968 0.063032949870017951 0 -0.48707184599994291 0.048964625204851953 0 -0.49353592299996968 0.063032949870017951 0 -0.48707184599994291 0.048964625204851953 0 -0.49353592299996968 0.063032949870017951 0 -0.49999999999999539 0.063285089781713544 0 -0.48707184599994291 0.048964625204851953 0 -0.49999999999999539 0.063285089781713544 0 -0.48707184599994291 0.048964625204851953 0 -0.5 0.035131877788423027 0 -0.48108877410274048 0.035943153161047278 0 -0.49123775828230598 0.023787943208615159 0 -0.5 0.035131877788423027 0 -0.48108877410274048 0.035943153161047278 0 -0.47092402742525041 0.031077751031505479 0 -0.48707184599994291 0.048964625204851953 0 -0.470869591041987 0.048723400791036382 0 -0.47092402742525041 0.031077751031505479 0 -0.48707184599994291 0.048964625204851953 0 -0.48108877410274048 0.035943153161047278 0 -0.47092402742525041 0.031077751031505479 0 -0.48707184599994291 0.048964625204851953 0 -0.48707184599994291 0.048964625204851953 0 -0.48108877410274048 0.035943153161047278 0 -0.48707184599994291 0.048964625204851953 0 -0.470869591041987 0.048723400791036382 0 -0.47788731744032059 0.065974279252569934 0 -0.470869591041987 0.048723400791036382 0 -0.46275898895820378 0.058805495287743578 0 -0.47788731744032059 0.065974279252569934 0 -0.46275898895820378 0.058805495287743578 0 -0.45407482816920491 0.042995525853485712 0 -0.44658719079500192 0.057498251908467822 0 -0.470869591041987 0.048723400791036382 0 -0.46275898895820378 0.058805495287743578 0 -0.45407482816920491 0.042995525853485712 0 -0.47092402742525041 0.031077751031505479 0 -0.45407482816920491 0.042995525853485712 0 -0.45304598526010098 0.028263092950236931 0 -0.47092402742525041 0.031077751031505479 0 -0.470869591041987 0.048723400791036382 0 -0.45407482816920491 0.042995525853485712 0 -0.45407482816920491 0.042995525853485712 0 -0.4436830952193897 0.035051183448001948 0 -0.45304598526010098 0.028263092950236931 0 -0.45407482816920491 0.042995525853485712 0 -0.4436830952193897 0.035051183448001948 0 -0.43897150383807287 0.045756425474088473 0 -0.43897150383807287 0.045756425474088473 0 -0.44658719079500192 0.057498251908467822 0 -0.42962207560415577 0.056615344910167488 0 -0.44658719079500192 0.057498251908467822 0 -0.42962207560415577 0.056615344910167488 0 -0.44083822906912029 0.069173097248139651 0 -0.45407482816920491 0.042995525853485712 0 -0.43897150383807287 0.045756425474088473 0 -0.44658719079500192 0.057498251908467822 0 -0.4578500182818811 -0.0070552588472488969 0 -0.47336492058181651 -1.3756092529014339e-05 0 -0.45477620885055731 0.01319087685815952 0 -0.47336492058181651 -1.3756092529014339e-05 0 -0.47073185397102701 0.015338236971748419 0 -0.45477620885055731 0.01319087685815952 0 -0.47092402742525041 0.031077751031505479 0 -0.47073185397102701 0.015338236971748419 0 -0.45477620885055731 0.01319087685815952 0 -0.47092402742525041 0.031077751031505479 0 -0.45477620885055731 0.01319087685815952 0 -0.45304598526010098 0.028263092950236931 0 -0.47092402742525041 0.031077751031505479 0 -0.45477620885055731 0.01319087685815952 0 -0.45477620885055731 0.01319087685815952 0 -0.45304598526010098 0.028263092950236931 0 -0.44479676896195802 0.020712417704430029 0 -0.4436830952193897 0.035051183448001948 0 -0.44479676896195802 0.020712417704430029 0 -0.42752638986761132 0.037528455257768642 0 -0.4436830952193897 0.035051183448001948 0 -0.45304598526010098 0.028263092950236931 0 -0.44479676896195802 0.020712417704430029 0 -0.44479676896195802 0.020712417704430029 0 -0.43858662956055822 0.01038327323014902 0 -0.43244464460765591 0.020515626983742982 0 -0.43862839027586409 -0.0046959973151864398 0 -0.45477620885055731 0.01319087685815952 0 -0.43858662956055822 0.01038327323014902 0 -0.43862839027586409 -0.0046959973151864398 0 -0.45477620885055731 0.01319087685815952 0 -0.43862839027586409 -0.0046959973151864398 0 -0.4578500182818811 -0.0070552588472488969 0 -0.45477620885055731 0.01319087685815952 0 -0.45477620885055731 0.01319087685815952 0 -0.44479676896195802 0.020712417704430029 0 -0.43858662956055822 0.01038327323014902 0 -0.43862839027586409 -0.0046959973151864398 0 -0.43858662956055822 0.01038327323014902 0 -0.43050121763171523 0.001204678559991162 0 -0.43858662956055822 0.01038327323014902 0 -0.43050121763171523 0.001204678559991162 0 -0.42889787802318391 0.011119224090242821 0 -0.43858662956055822 0.01038327323014902 0 -0.42889787802318391 0.011119224090242821 0 -0.43244464460765591 0.020515626983742982 0 -0.42889787802318391 0.011119224090242821 0 -0.42262721034591461 0.0039993990915221118 0 -0.41875890212720412 0.012037673197588189 0 -0.42889787802318391 0.011119224090242821 0 -0.41875890212720412 0.012037673197588189 0 -0.42241555662496832 0.022834764636124411 0 -0.43050121763171523 0.001204678559991162 0 -0.42889787802318391 0.011119224090242821 0 -0.42262721034591461 0.0039993990915221118 0 -0.42597947323087543 -0.0090103536709670029 0 -0.42262721034591461 0.0039993990915221118 0 -0.40850407597953198 0.0050437946196981174 0 -0.42262721034591461 0.0039993990915221118 0 -0.41875890212720412 0.012037673197588189 0 -0.40850407597953198 0.0050437946196981174 0 -0.41875890212720412 0.012037673197588189 0 -0.40850407597953198 0.0050437946196981174 0 -0.41134978966242242 0.017191183550353501 0 -0.41134978966242242 0.017191183550353501 0 -0.42241555662496832 0.022834764636124411 0 -0.4108029002178446 0.035767838180730913 0 -0.41134978966242242 0.017191183550353501 0 -0.4108029002178446 0.035767838180730913 0 -0.41134978966242242 0.017191183550353501 0 -0.4108029002178446 0.035767838180730913 0 -0.39914187033371129 0.02978105179437043 0 -0.41875890212720412 0.012037673197588189 0 -0.41134978966242242 0.017191183550353501 0 -0.42241555662496832 0.022834764636124411 0 -0.44479676896195802 0.020712417704430029 0 -0.43244464460765591 0.020515626983742982 0 -0.42752638986761132 0.037528455257768642 0 -0.42241555662496832 0.022834764636124411 0 -0.43244464460765591 0.020515626983742982 0 -0.42752638986761132 0.037528455257768642 0 -0.44479676896195802 0.020712417704430029 0 -0.42752638986761132 0.037528455257768642 0 -0.42889787802318391 0.011119224090242821 0 -0.42241555662496832 0.022834764636124411 0 -0.43244464460765591 0.020515626983742982 0 -0.43897150383807287 0.045756425474088473 0 -0.42752638986761132 0.037528455257768642 0 -0.42962207560415577 0.056615344910167488 0 -0.4436830952193897 0.035051183448001948 0 -0.43897150383807287 0.045756425474088473 0 -0.42752638986761132 0.037528455257768642 0 -0.42752638986761132 0.037528455257768642 0 -0.42962207560415577 0.056615344910167488 0 -0.41025601077326568 0.054344492811108362 0 -0.42962207560415577 0.056615344910167488 0 -0.41025601077326568 0.054344492811108362 0 -0.41791433055127131 0.067670653303130934 0 -0.42752638986761132 0.037528455257768642 0 -0.41025601077326568 0.054344492811108362 0 -0.4108029002178446 0.035767838180730913 0 -0.42241555662496832 0.022834764636124411 0 -0.42752638986761132 0.037528455257768642 0 -0.4108029002178446 0.035767838180730913 0 -0.41025601077326568 0.054344492811108362 0 -0.4108029002178446 0.035767838180730913 0 -0.42752638986761132 0.037528455257768642 0 -0.41025601077326568 0.054344492811108362 0 -0.4108029002178446 0.035767838180730913 0 -0.39504556579687811 0.043665313061486508 0 -0.39914187033371129 0.02978105179437043 0 -0.41025601077326568 0.054344492811108362 0 -0.4108029002178446 0.035767838180730913 0 -0.39504556579687811 0.043665313061486508 0 -0.39504556579687811 0.043665313061486508 0 -0.38748241726322269 0.03318298126891802 0 -0.39914187033371129 0.02978105179437043 0 -0.41025601077326568 0.054344492811108362 0 -0.39406507826889381 0.070109481380825192 0 -0.41025601077326568 0.054344492811108362 0 -0.39187824995997839 0.057312829522212727 0 -0.39406507826889381 0.070109481380825192 0 -0.41025601077326568 0.054344492811108362 0 -0.39504556579687811 0.043665313061486508 0 -0.39187824995997839 0.057312829522212727 0 -0.39187824995997839 0.057312829522212727 0 -0.38240213800211831 0.048439283500169489 0 -0.37478596638445771 0.060295530683281529 0 -0.39504556579687811 0.043665313061486508 0 -0.39187824995997839 0.057312829522212727 0 -0.38240213800211831 0.048439283500169489 0 -0.38240213800211831 0.048439283500169489 0 -0.36950363917516221 0.047003191548943897 0 -0.37478596638445771 0.060295530683281529 0 -0.38748241726322269 0.03318298126891802 0 -0.38561321950145588 0.040521621708151469 0 -0.37752275694360438 0.036798909002031838 0 -0.39504556579687811 0.043665313061486508 0 -0.38240213800211831 0.048439283500169489 0 -0.38561321950145588 0.040521621708151469 0 -0.39504556579687811 0.043665313061486508 0 -0.38748241726322269 0.03318298126891802 0 -0.38561321950145588 0.040521621708151469 0 -0.38240213800211831 0.048439283500169489 0 -0.38561321950145588 0.040521621708151469 0 -0.37752275694360438 0.036798909002031838 0 -0.38240213800211831 0.048439283500169489 0 -0.37752275694360438 0.036798909002031838 0 -0.36950363917516221 0.047003191548943897 0 -0.38748241726322269 0.03318298126891802 0 -0.37752275694360438 0.036798909002031838 0 -0.3735532814768453 0.033152091201028272 0 -0.37752275694360438 0.036798909002031838 0 -0.3735532814768453 0.033152091201028272 0 -0.38748241726322269 0.03318298126891802 0 -0.39102867872818869 0.019097942910363219 0 -0.3735532814768453 0.033152091201028272 0 -0.39102867872818869 0.019097942910363219 0 -0.3735532814768453 0.033152091201028272 0 -0.37514653282305982 0.01299573953559963 0 -0.39102867872818869 0.019097942910363219 0 -0.3735532814768453 0.033152091201028272 0 -0.36773282995165379 -0.00174619774939233 0 -0.38586672766963009 -0.0039758236297552374 0 -0.37514653282305982 0.01299573953559963 0 -0.38586672766963009 -0.0039758236297552374 0 -0.37514653282305982 0.01299573953559963 0 -0.39102867872818869 0.019097942910363219 0 -0.39926558985260341 -0.0040230340364888727 0 -0.40850407597953198 0.0050437946196981174 0 -0.39102867872818869 0.019097942910363219 0 -0.40850407597953198 0.0050437946196981174 0 -0.39102867872818869 0.019097942910363219 0 -0.39926558985260341 -0.0040230340364888727 0 -0.38586672766963009 -0.0039758236297552374 0 -0.39102867872818869 0.019097942910363219 0 -0.40850407597953198 0.0050437946196981174 0 -0.41134978966242242 0.017191183550353501 0 -0.39102867872818869 0.019097942910363219 0 -0.41134978966242242 0.017191183550353501 0 -0.39914187033371129 0.02978105179437043 0 -0.39102867872818869 0.019097942910363219 0 -0.38748241726322269 0.03318298126891802 0 -0.39914187033371129 0.02978105179437043 0 -0.39102867872818869 0.019097942910363219 0 -0.39274238829309133 0.1016453497255231 0 -0.40943663493218752 0.082176922497065027 0 -0.4086172590911083 0.1100093521830217 0 -0.39274238829309133 0.1016453497255231 0 -0.4086172590911083 0.1100093521830217 0 -0.39811754494359242 0.1267666801070397 0 -0.39274238829309133 0.1016453497255231 0 -0.38015904838199821 0.12529305033380139 0 -0.39274238829309133 0.1016453497255231 0 -0.39811754494359242 0.1267666801070397 0 -0.38015904838199821 0.12529305033380139 0 -0.39274238829309133 0.1016453497255231 0 -0.37804285338412053 0.099049560295472294 0 -0.38015904838199821 0.12529305033380139 0 -0.39274238829309133 0.1016453497255231 0 -0.37804285338412053 0.099049560295472294 0 -0.39098049810060859 0.085894683007465861 0 -0.37804285338412053 0.099049560295472294 0 -0.377874145764523 0.085874469950543125 0 -0.39098049810060859 0.085894683007465861 0 -0.377874145764523 0.085874469950543125 0 -0.39406507826889381 0.070109481380825192 0 -0.39098049810060859 0.085894683007465861 0 -0.39187824995997839 0.057312829522212727 0 -0.38008645798265722 0.071949868533357608 0 -0.37478596638445771 0.060295530683281529 0 -0.377874145764523 0.085874469950543125 0 -0.39406507826889381 0.070109481380825192 0 -0.377874145764523 0.085874469950543125 0 -0.38008645798265722 0.071949868533357608 0 -0.39406507826889381 0.070109481380825192 0 -0.39187824995997839 0.057312829522212727 0 -0.38008645798265722 0.071949868533357608 0 -0.39406507826889381 0.070109481380825192 0 -0.4053257282041845 0.077997649117244883 0 -0.39406507826889381 0.070109481380825192 0 -0.39098049810060859 0.085894683007465861 0 -0.41025601077326568 0.054344492811108362 0 -0.4053257282041845 0.077997649117244883 0 -0.39406507826889381 0.070109481380825192 0 -0.39274238829309133 0.1016453497255231 0 -0.4053257282041845 0.077997649117244883 0 -0.40943663493218752 0.082176922497065027 0 -0.39274238829309133 0.1016453497255231 0 -0.4053257282041845 0.077997649117244883 0 -0.39098049810060859 0.085894683007465861 0 -0.39274238829309133 0.1016453497255231 0 -0.4053257282041845 0.077997649117244883 0 -0.40943663493218752 0.082176922497065027 0 -0.42095642233869812 0.089821009301655333 0 -0.41990251515176169 0.077260069976896925 0 -0.41025601077326568 0.054344492811108362 0 -0.4053257282041845 0.077997649117244883 0 -0.40943663493218752 0.082176922497065027 0 -0.41025601077326568 0.054344492811108362 0 -0.40943663493218752 0.082176922497065027 0 -0.41025601077326568 0.054344492811108362 0 -0.40943663493218752 0.082176922497065027 0 -0.41791433055127131 0.067670653303130934 0 -0.40943663493218752 0.082176922497065027 0 -0.41990251515176169 0.077260069976896925 0 -0.41791433055127131 0.067670653303130934 0 -0.42962207560415577 0.056615344910167488 0 -0.41791433055127131 0.067670653303130934 0 -0.42807796285574679 0.067374622588038793 0 -0.41990251515176169 0.077260069976896925 0 -0.41791433055127131 0.067670653303130934 0 -0.42807796285574679 0.067374622588038793 0 -0.41990251515176169 0.077260069976896925 0 -0.42807796285574679 0.067374622588038793 0 -0.42786107815332119 0.078542800530718881 0 -0.42807796285574679 0.067374622588038793 0 -0.42786107815332119 0.078542800530718881 0 -0.44083822906912029 0.069173097248139651 0 -0.42962207560415577 0.056615344910167488 0 -0.42807796285574679 0.067374622588038793 0 -0.44083822906912029 0.069173097248139651 0 -0.42786107815332119 0.078542800530718881 0 -0.43620715385824038 0.090100179950853745 0 -0.44083822906912029 0.069173097248139651 0 -0.42095642233869812 0.089821009301655333 0 -0.42786107815332119 0.078542800530718881 0 -0.43620715385824038 0.090100179950853745 0 -0.42095642233869812 0.089821009301655333 0 -0.43620715385824038 0.090100179950853745 0 -0.42608081938177739 0.100479559839438 0 -0.42095642233869812 0.089821009301655333 0 -0.41990251515176169 0.077260069976896925 0 -0.42786107815332119 0.078542800530718881 0 -0.43620715385824038 0.090100179950853745 0 -0.42608081938177739 0.100479559839438 0 -0.44222730576221397 0.1031323382789098 0 -0.42608081938177739 0.100479559839438 0 -0.42718679086027322 0.11402204660626621 0 -0.44222730576221397 0.1031323382789098 0 -0.42095642233869812 0.089821009301655333 0 -0.42608081938177739 0.100479559839438 0 -0.4086172590911083 0.1100093521830217 0 -0.42608081938177739 0.100479559839438 0 -0.4086172590911083 0.1100093521830217 0 -0.42718679086027322 0.11402204660626621 0 -0.40943663493218752 0.082176922497065027 0 -0.42095642233869812 0.089821009301655333 0 -0.4086172590911083 0.1100093521830217 0 -0.40943663493218752 0.082176922497065027 0 -0.4086172590911083 0.1100093521830217 0 -0.4086172590911083 0.1100093521830217 0 -0.42718679086027322 0.11402204660626621 0 -0.41487635600168282 0.12681197651326459 0 -0.4086172590911083 0.1100093521830217 0 -0.41487635600168282 0.12681197651326459 0 -0.39811754494359242 0.1267666801070397 0 -0.42718679086027322 0.11402204660626621 0 -0.41487635600168282 0.12681197651326459 0 -0.43085895492050452 0.12683622289135341 0 -0.42718679086027322 0.11402204660626621 0 -0.44075422150788718 0.1170431645347506 0 -0.44222730576221397 0.1031323382789098 0 -0.42718679086027322 0.11402204660626621 0 -0.44075422150788718 0.1170431645347506 0 -0.43085895492050452 0.12683622289135341 0 -0.44075422150788718 0.1170431645347506 0 -0.45655536597462121 0.11545699126691319 0 -0.44950786553265182 0.12734074136969811 0 -0.44075422150788718 0.1170431645347506 0 -0.44950786553265182 0.12734074136969811 0 -0.43085895492050452 0.12683622289135341 0 -0.44075422150788718 0.1170431645347506 0 -0.44222730576221397 0.1031323382789098 0 -0.45655536597462121 0.11545699126691319 0 -0.44222730576221397 0.1031323382789098 0 -0.46574285194997261 0.1048547529664539 0 -0.45655536597462121 0.11545699126691319 0 -0.44222730576221397 0.1031323382789098 0 -0.46574285194997261 0.1048547529664539 0 -0.44222730576221397 0.1031323382789098 0 -0.46574285194997261 0.1048547529664539 0 -0.45272789759457888 0.086892332219200522 0 -0.45655536597462121 0.11545699126691319 0 -0.44950786553265182 0.12734074136969811 0 -0.46810730926932198 0.12589260511875061 0 -0.46574285194997261 0.1048547529664539 0 -0.45655536597462121 0.11545699126691319 0 -0.47142694609172803 0.115816322446423 0 -0.45655536597462121 0.11545699126691319 0 -0.47142694609172803 0.115816322446423 0 -0.46810730926932198 0.12589260511875061 0 -0.44083822906912029 0.069173097248139651 0 -0.45272789759457888 0.086892332219200522 0 -0.45506304820082571 0.071240794608707608 0 -0.44658719079500192 0.057498251908467822 0 -0.44083822906912029 0.069173097248139651 0 -0.45506304820082571 0.071240794608707608 0 -0.43620715385824038 0.090100179950853745 0 -0.44222730576221397 0.1031323382789098 0 -0.45272789759457888 0.086892332219200522 0 -0.43620715385824038 0.090100179950853745 0 -0.44083822906912029 0.069173097248139651 0 -0.45272789759457888 0.086892332219200522 0 -0.46574285194997261 0.1048547529664539 0 -0.45272789759457888 0.086892332219200522 0 -0.47628879672710062 0.082852830262138452 0 -0.45272789759457888 0.086892332219200522 0 -0.45506304820082571 0.071240794608707608 0 -0.47628879672710062 0.082852830262138452 0 -0.46275898895820378 0.058805495287743578 0 -0.45506304820082571 0.071240794608707608 0 -0.47788731744032059 0.065974279252569934 0 -0.46275898895820378 0.058805495287743578 0 -0.44658719079500192 0.057498251908467822 0 -0.45506304820082571 0.071240794608707608 0 -0.45506304820082571 0.071240794608707608 0 -0.47788731744032059 0.065974279252569934 0 -0.47628879672710062 0.082852830262138452 0 -0.47788731744032059 0.065974279252569934 0 -0.47628879672710062 0.082852830262138452 0 -0.48752618940722459 0.074441225611079909 0 -0.47628879672710062 0.082852830262138452 0 -0.48991890986873449 0.083244794135489616 0 -0.48256538196697307 0.094828826018850287 0 -0.50000000000000067 0.088604385989082365 0 -0.48991890986873449 0.083244794135489616 0 -0.48256538196697307 0.094828826018850287 0 -0.48991890986873449 0.083244794135489616 0 -0.48752618940722459 0.074441225611079909 0 -0.49999999999999861 0.077101274535183104 0 -0.50000000000000067 0.088604385989082365 0 -0.48991890986873449 0.083244794135489616 0 -0.49999999999999861 0.077101274535183104 0 -0.47628879672710062 0.082852830262138452 0 -0.48991890986873449 0.083244794135489616 0 -0.48752618940722459 0.074441225611079909 0 -0.47788731744032059 0.065974279252569934 0 -0.48752618940722459 0.074441225611079909 0 -0.49353592299996968 0.063032949870017951 0 -0.48752618940722459 0.074441225611079909 0 -0.49999999999999861 0.077101274535183104 0 -0.49353592299996968 0.063032949870017951 0 -0.49999999999999861 0.077101274535183104 0 -0.49353592299996968 0.063032949870017951 0 -0.49999999999999861 0.077101274535183104 0 -0.49353592299996968 0.063032949870017951 0 -0.49999999999999539 0.063285089781713544 0 -0.47142694609172803 0.115816322446423 0 -0.48925839813773109 0.10657716765399711 0 -0.47747080512699358 0.12630009522600019 0 -0.48925839813773109 0.10657716765399711 0 -0.47747080512699358 0.12630009522600019 0 -0.47142694609172803 0.115816322446423 0 -0.47747080512699358 0.12630009522600019 0 -0.46810730926932198 0.12589260511875061 0 -0.46574285194997261 0.1048547529664539 0 -0.47142694609172803 0.115816322446423 0 -0.48925839813773109 0.10657716765399711 0 -0.46574285194997261 0.1048547529664539 0 -0.47628879672710062 0.082852830262138452 0 -0.48256538196697307 0.094828826018850287 0 -0.46574285194997261 0.1048547529664539 0 -0.48925839813773109 0.10657716765399711 0 -0.46574285194997261 0.1048547529664539 0 -0.48256538196697307 0.094828826018850287 0 -0.48925839813773109 0.10657716765399711 0 -0.50000000000000067 0.088604385989082365 0 -0.48256538196697307 0.094828826018850287 0 -0.48925839813773109 0.10657716765399711 0 -0.50000000000000067 0.088604385989082365 0 -0.48925839813773109 0.10657716765399711 0 -0.50000000000000067 0.088604385989082365 0 -0.48925839813773109 0.10657716765399711 0 -0.49999999999999928 0.1073639447361714 0 -0.48925839813773109 0.10657716765399711 0 -0.49999999999999928 0.1073639447361714 0 -0.48925839813773109 0.10657716765399711 0 -0.4902237912302157 0.1234173841300643 0 -0.47747080512699358 0.12630009522600019 0 -0.48925839813773109 0.10657716765399711 0 -0.49999999999999928 0.1073639447361714 0 -0.4902237912302157 0.1234173841300643 0 -0.49999999999999928 0.1073639447361714 0 -0.4902237912302157 0.1234173841300643 0 -0.5 0.1341655427399622 0 -0.4902237912302157 0.1234173841300643 0 -0.5 0.1341655427399622 0 -0.48438975288635411 0.14268017029419061 0 -0.47747080512699358 0.12630009522600019 0 -0.48438975288635411 0.14268017029419061 0 -0.4656832121162563 0.14602302279800339 0 -0.4902237912302157 0.1234173841300643 0 -0.47747080512699358 0.12630009522600019 0 -0.48438975288635411 0.14268017029419061 0 -0.47747080512699358 0.12630009522600019 0 -0.46810730926932198 0.12589260511875061 0 -0.4656832121162563 0.14602302279800339 0 -0.47747080512699358 0.12630009522600019 0 -0.4656832121162563 0.14602302279800339 0 -0.48438975288635411 0.14268017029419061 0 -0.48149869119449429 0.1579069059932085 0 -0.4656832121162563 0.14602302279800339 0 -0.5 0.1341655427399622 0 -0.48438975288635411 0.14268017029419061 0 -0.5 0.1609671407437529 0 -0.48438975288635411 0.14268017029419061 0 -0.5 0.1609671407437529 0 -0.48149869119449429 0.1579069059932085 0 -0.5 0.1609671407437529 0 -0.48301406361354182 0.17219197023973079 0 -0.48149869119449429 0.1579069059932085 0 -0.5 0.1609671407437529 0 -0.48993018662654481 0.18204474589666481 0 -0.48301406361354182 0.17219197023973079 0 -0.5 0.1609671407437529 0 -0.48993018662654481 0.18204474589666481 0 -0.50000000000000289 0.18776873874754371 0 -0.48993018662654481 0.18204474589666481 0 -0.47864614618895113 0.18465925673731309 0 -0.48246509273112248 0.19090124682342241 0 -0.48993018662654481 0.18204474589666481 0 -0.47864614618895113 0.18465925673731309 0 -0.48301406361354182 0.17219197023973079 0 -0.47864614618895113 0.18465925673731309 0 -0.48301406361354182 0.17219197023973079 0 -0.47456958279975558 0.17914249863854109 0 -0.47456958279975558 0.17914249863854109 0 -0.47040441341194278 0.1656959512872187 0 -0.46376531164209039 0.17316535968382171 0 -0.48301406361354182 0.17219197023973079 0 -0.47456958279975558 0.17914249863854109 0 -0.47040441341194278 0.1656959512872187 0 -0.47864614618895113 0.18465925673731309 0 -0.47456958279975558 0.17914249863854109 0 -0.46759404769877111 0.18490415202122371 0 -0.47864614618895113 0.18465925673731309 0 -0.46759404769877111 0.18490415202122371 0 -0.47456958279975558 0.17914249863854109 0 -0.46759404769877111 0.18490415202122371 0 -0.48149869119449429 0.1579069059932085 0 -0.47040441341194278 0.1656959512872187 0 -0.4656832121162563 0.14602302279800339 0 -0.48301406361354182 0.17219197023973079 0 -0.48149869119449429 0.1579069059932085 0 -0.47040441341194278 0.1656959512872187 0 -0.47040441341194278 0.1656959512872187 0 -0.45389561910551901 0.16574595037000661 0 -0.4656832121162563 0.14602302279800339 0 -0.47040441341194278 0.1656959512872187 0 -0.45389561910551901 0.16574595037000661 0 -0.46376531164209039 0.17316535968382171 0 -0.45389561910551901 0.16574595037000661 0 -0.46376531164209039 0.17316535968382171 0 -0.44210802609478089 0.1854688779420092 0 -0.46759404769877111 0.18490415202122371 0 -0.44210802609478089 0.1854688779420092 0 -0.46759404769877111 0.18490415202122371 0 -0.46376531164209039 0.17316535968382171 0 -0.44210802609478089 0.1854688779420092 0 -0.47456958279975558 0.17914249863854109 0 -0.46759404769877111 0.18490415202122371 0 -0.46376531164209039 0.17316535968382171 0 -0.45389561910551901 0.16574595037000661 0 -0.44210802609478089 0.1854688779420092 0 -0.45389561910551901 0.16574595037000661 0 -0.44210802609478089 0.1854688779420092 0 -0.42963367705818212 0.16607856318532879 0 -0.45389561910551901 0.16574595037000661 0 -0.4488704931637521 0.14598558415203969 0 -0.42963367705818212 0.16607856318532879 0 -0.4488704931637521 0.14598558415203969 0 -0.42963367705818212 0.16607856318532879 0 -0.4488704931637521 0.14598558415203969 0 -0.43961375932514729 0.13664695633495069 0 -0.42921772368368077 0.14642527692671151 0 -0.43961375932514729 0.13664695633495069 0 -0.44950786553265182 0.12734074136969811 0 -0.43085895492050452 0.12683622289135341 0 -0.4488704931637521 0.14598558415203969 0 -0.43961375932514729 0.13664695633495069 0 -0.44950786553265182 0.12734074136969811 0 -0.4488704931637521 0.14598558415203969 0 -0.44950786553265182 0.12734074136969811 0 -0.46810730926932198 0.12589260511875061 0 -0.4488704931637521 0.14598558415203969 0 -0.46810730926932198 0.12589260511875061 0 -0.4656832121162563 0.14602302279800339 0 -0.4488704931637521 0.14598558415203969 0 -0.46810730926932198 0.12589260511875061 0 -0.45389561910551901 0.16574595037000661 0 -0.4488704931637521 0.14598558415203969 0 -0.4656832121162563 0.14602302279800339 0 -0.45389561910551901 0.16574595037000661 0 -0.4656832121162563 0.14602302279800339 0 -0.47429755291000419 0.24562381763634661 0 -0.47974007898056131 0.22925782423188751 0 -0.45971207882101112 0.23655914999173319 0 -0.47429755291000419 0.24562381763634661 0 -0.48368830479211727 0.24590756946306941 0 -0.47974007898056131 0.22925782423188751 0 -0.47429755291000419 0.24562381763634661 0 -0.48368830479211727 0.24590756946306941 0 -0.48069604346874462 0.25546786677292138 0 -0.49445852599850509 0.2382617199101506 0 -0.5 0.22618467350116289 0 -0.5 0.25611761196898658 0 -0.49445852599850509 0.2382617199101506 0 -0.4892493226027716 0.26092661876404077 0 -0.48368830479211727 0.24590756946306941 0 -0.49445852599850509 0.2382617199101506 0 -0.47974007898056131 0.22925782423188751 0 -0.48368830479211727 0.24590756946306941 0 -0.49445852599850509 0.2382617199101506 0 -0.4892493226027716 0.26092661876404077 0 -0.5 0.22618467350116289 0 -0.47974007898056131 0.22925782423188751 0 -0.48954431290215578 0.2148727195394847 0 -0.49445852599850509 0.2382617199101506 0 -0.5 0.22618467350116289 0 -0.47974007898056131 0.22925782423188751 0 -0.47974007898056131 0.22925782423188751 0 -0.47843717262806201 0.20779664539154921 0 -0.45687434525609361 0.2193415557497489 0 -0.47974007898056131 0.22925782423188751 0 -0.47843717262806201 0.20779664539154921 0 -0.48954431290215578 0.2148727195394847 0 -0.47843717262806201 0.20779664539154921 0 -0.48954431290215578 0.2148727195394847 0 -0.50000000000002487 0.19625173503333929 0 -0.5 0.22618467350116289 0 -0.48954431290215578 0.2148727195394847 0 -0.50000000000002487 0.19625173503333929 0 -0.47843717262806201 0.20779664539154921 0 -0.50000000000002487 0.19625173503333929 0 -0.47843717262806201 0.20779664539154921 0 -0.50000000000002487 0.19625173503333929 0 -0.4843834106764171 0.1943624198946636 0 -0.50000000000000211 0.19403072401894861 0 -0.4843834106764171 0.1943624198946636 0 -0.50000000000000289 0.18776873874754371 0 -0.4843834106764171 0.1943624198946636 0 -0.50000000000002487 0.19625173503333929 0 -0.50000000000000211 0.19403072401894861 0 -0.4843834106764171 0.1943624198946636 0 -0.50000000000000211 0.19403072401894861 0 -0.50000000000000289 0.18776873874754371 0 -0.4843834106764171 0.1943624198946636 0 -0.48993018662654481 0.18204474589666481 0 -0.4843834106764171 0.1943624198946636 0 -0.48246509273112248 0.19090124682342241 0 -0.48993018662654481 0.18204474589666481 0 -0.50000000000000289 0.18776873874754371 0 -0.4843834106764171 0.1943624198946636 0 -0.48246509273112248 0.19090124682342241 0 -0.47327358943641168 0.19459839215524391 0 -0.47864614618895113 0.18465925673731309 0 -0.48246509273112248 0.19090124682342241 0 -0.47327358943641168 0.19459839215524391 0 -0.4843834106764171 0.1943624198946636 0 -0.47327358943641168 0.19459839215524391 0 -0.4843834106764171 0.1943624198946636 0 -0.48246509273112248 0.19090124682342241 0 -0.47327358943641168 0.19459839215524391 0 -0.4843834106764171 0.1943624198946636 0 -0.47327358943641168 0.19459839215524391 0 -0.46512600828997908 0.2024933355784205 0 -0.4843834106764171 0.1943624198946636 0 -0.46512600828997908 0.2024933355784205 0 -0.47843717262806201 0.20779664539154921 0 -0.4843834106764171 0.1943624198946636 0 -0.46512600828997908 0.2024933355784205 0 -0.47864614618895113 0.18465925673731309 0 -0.46759404769877111 0.18490415202122371 0 -0.47327358943641168 0.19459839215524391 0 -0.47327358943641168 0.19459839215524391 0 -0.45629943271506201 0.20142599393830041 0 -0.4553977215862306 0.1949780750372056 0 -0.47327358943641168 0.19459839215524391 0 -0.4553977215862306 0.1949780750372056 0 -0.47327358943641168 0.19459839215524391 0 -0.45629943271506201 0.20142599393830041 0 -0.46512600828997908 0.2024933355784205 0 -0.46759404769877111 0.18490415202122371 0 -0.47327358943641168 0.19459839215524391 0 -0.4553977215862306 0.1949780750372056 0 -0.47327358943641168 0.19459839215524391 0 -0.45629943271506201 0.20142599393830041 0 -0.46759404769877111 0.18490415202122371 0 -0.44210802609478089 0.1854688779420092 0 -0.4553977215862306 0.1949780750372056 0 -0.46759404769877111 0.18490415202122371 0 -0.4553977215862306 0.1949780750372056 0 -0.44210802609478089 0.1854688779420092 0 -0.4553977215862306 0.1949780750372056 0 -0.43618082061236169 0.19538624142135999 0 -0.4553977215862306 0.1949780750372056 0 -0.43932527599371229 0.20825359572135699 0 -0.43618082061236169 0.19538624142135999 0 -0.4553977215862306 0.1949780750372056 0 -0.43932527599371229 0.20825359572135699 0 -0.45629943271506201 0.20142599393830041 0 -0.4553977215862306 0.1949780750372056 0 -0.43932527599371229 0.20825359572135699 0 -0.4553977215862306 0.1949780750372056 0 -0.43618082061236169 0.19538624142135999 0 -0.44210802609478089 0.1854688779420092 0 -0.43618082061236169 0.19538624142135999 0 -0.45629943271506201 0.20142599393830041 0 -0.4458686059035411 0.2106242512621774 0 -0.43932527599371229 0.20825359572135699 0 -0.45629943271506201 0.20142599393830041 0 -0.43932527599371229 0.20825359572135699 0 -0.4458686059035411 0.2106242512621774 0 -0.45687434525609361 0.2193415557497489 0 -0.43934231080050379 0.2196847723963184 0 -0.45629943271506201 0.20142599393830041 0 -0.46512600828997908 0.2024933355784205 0 -0.4458686059035411 0.2106242512621774 0 -0.46512600828997908 0.2024933355784205 0 -0.4458686059035411 0.2106242512621774 0 -0.45687434525609361 0.2193415557497489 0 -0.47843717262806201 0.20779664539154921 0 -0.45687434525609361 0.2193415557497489 0 -0.47843717262806201 0.20779664539154921 0 -0.46512600828997908 0.2024933355784205 0 -0.45687434525609361 0.2193415557497489 0 -0.46512600828997908 0.2024933355784205 0 -0.4458686059035411 0.2106242512621774 0 -0.47974007898056131 0.22925782423188751 0 -0.45687434525609361 0.2193415557497489 0 -0.45971207882101112 0.23655914999173319 0 -0.45687434525609361 0.2193415557497489 0 -0.43934231080050379 0.2196847723963184 0 -0.43531151788412242 0.23088646610794339 0 -0.45687434525609361 0.2193415557497489 0 -0.45971207882101112 0.23655914999173319 0 -0.43531151788412242 0.23088646610794339 0 -0.45687434525609361 0.2193415557497489 0 -0.43531151788412242 0.23088646610794339 0 -0.43531151788412242 0.23088646610794339 0 -0.45490192420167802 0.25333295980957649 0 -0.45971207882101112 0.23655914999173319 0 -0.43531151788412242 0.23088646610794339 0 -0.45490192420167802 0.25333295980957649 0 -0.43531151788412242 0.23088646610794339 0 -0.45490192420167802 0.25333295980957649 0 -0.43322189072838602 0.25018414293199998 0 -0.45971207882101112 0.23655914999173319 0 -0.46577102953652549 0.24905509368475259 0 -0.45490192420167802 0.25333295980957649 0 -0.47429755291000419 0.24562381763634661 0 -0.45971207882101112 0.23655914999173319 0 -0.46577102953652549 0.24905509368475259 0 -0.41315111516502517 0.24275132308983971 0 -0.40407789528278182 0.2373672317885254 0 -0.40538367728771529 0.24053048630924839 0 -0.41315111516502517 0.24275132308983971 0 -0.43531151788412242 0.23088646610794339 0 -0.41315111516502517 0.24275132308983971 0 -0.43531151788412242 0.23088646610794339 0 -0.43322189072838602 0.25018414293199998 0 -0.41315111516502517 0.24275132308983971 0 -0.43531151788412242 0.23088646610794339 0 -0.42661120351710308 0.2187551669459343 0 -0.43531151788412242 0.23088646610794339 0 -0.42661120351710308 0.2187551669459343 0 -0.43934231080050379 0.2196847723963184 0 -0.43531151788412242 0.23088646610794339 0 -0.42661120351710308 0.2187551669459343 0 -0.42661120351710308 0.2187551669459343 0 -0.42185451595076101 0.22076354921680291 0 -0.41315111516502517 0.24275132308983971 0 -0.42661120351710308 0.2187551669459343 0 -0.40407789528278182 0.2373672317885254 0 -0.42185451595076101 0.22076354921680291 0 -0.40950878604712398 0.2202468348121551 0 -0.42173396386988032 0.21532943907514959 0 -0.42661120351710308 0.2187551669459343 0 -0.42185451595076101 0.22076354921680291 0 -0.40407789528278182 0.2373672317885254 0 -0.42185451595076101 0.22076354921680291 0 -0.40950878604712398 0.2202468348121551 0 -0.40407789528278182 0.2373672317885254 0 -0.42661120351710308 0.2187551669459343 0 -0.40407789528278182 0.2373672317885254 0 -0.40911416479527257 0.21159680690464441 0 -0.42173396386988032 0.21532943907514959 0 -0.40490805054919882 0.19605047409324181 0 -0.42173396386988032 0.21532943907514959 0 -0.40490805054919882 0.19605047409324181 0 -0.40950878604712398 0.2202468348121551 0 -0.40911416479527257 0.21159680690464441 0 -0.40375227416194309 0.21775857354698569 0 -0.40950878604712398 0.2202468348121551 0 -0.40911416479527257 0.21159680690464441 0 -0.42173396386988032 0.21532943907514959 0 -0.40950878604712398 0.2202468348121551 0 -0.42173396386988032 0.21532943907514959 0 -0.4458686059035411 0.2106242512621774 0 -0.43932527599371229 0.20825359572135699 0 -0.42661120351710308 0.2187551669459343 0 -0.42506152560403038 0.21399097691751309 0 -0.43618082061236169 0.19538624142135999 0 -0.42661120351710308 0.2187551669459343 0 -0.42185451595076101 0.22076354921680291 0 -0.42173396386988032 0.21532943907514959 0 -0.4458686059035411 0.2106242512621774 0 -0.43934231080050379 0.2196847723963184 0 -0.42661120351710308 0.2187551669459343 0 -0.42661120351710308 0.2187551669459343 0 -0.42173396386988032 0.21532943907514959 0 -0.42506152560403038 0.21399097691751309 0 -0.42661120351710308 0.2187551669459343 0 -0.42173396386988032 0.21532943907514959 0 -0.43932527599371229 0.20825359572135699 0 -0.42506152560403038 0.21399097691751309 0 -0.43618082061236169 0.19538624142135999 0 -0.42173396386988032 0.21532943907514959 0 -0.42506152560403038 0.21399097691751309 0 -0.42054443558078031 0.19571835775730079 0 -0.4458686059035411 0.2106242512621774 0 -0.42661120351710308 0.2187551669459343 0 -0.42173396386988032 0.21532943907514959 0 -0.42506152560403038 0.21399097691751309 0 -0.43932527599371229 0.20825359572135699 0 -0.42661120351710308 0.2187551669459343 0 -0.42506152560403038 0.21399097691751309 0 -0.43932527599371229 0.20825359572135699 0 -0.42661120351710308 0.2187551669459343 0 -0.43932527599371229 0.20825359572135699 0 -0.42506152560403038 0.21399097691751309 0 -0.44210802609478089 0.1854688779420092 0 -0.43618082061236169 0.19538624142135999 0 -0.42625244352369662 0.18582021008031249 0 -0.43618082061236169 0.19538624142135999 0 -0.42054443558078031 0.19571835775730079 0 -0.42625244352369662 0.18582021008031249 0 -0.42506152560403038 0.21399097691751309 0 -0.43618082061236169 0.19538624142135999 0 -0.42054443558078031 0.19571835775730079 0 -0.43618082061236169 0.19538624142135999 0 -0.42054443558078031 0.19571835775730079 0 -0.42173396386988032 0.21532943907514959 0 -0.42054443558078031 0.19571835775730079 0 -0.40490805054919882 0.19605047409324181 0 -0.42054443558078031 0.19571835775730079 0 -0.40490805054919882 0.19605047409324181 0 -0.42054443558078031 0.19571835775730079 0 -0.42625244352369662 0.18582021008031249 0 -0.41039686095261219 0.18617154221861759 0 -0.42054443558078031 0.19571835775730079 0 -0.40490805054919882 0.19605047409324181 0 -0.41039686095261219 0.18617154221861759 0 -0.40301523206660972 0.19388170140629321 0 -0.41039686095261219 0.18617154221861759 0 -0.40301523206660972 0.19388170140629321 0 -0.40490805054919882 0.19605047409324181 0 -0.41039686095261219 0.18617154221861759 0 -0.40301523206660972 0.19388170140629321 0 -0.41039686095261219 0.18617154221861759 0 -0.39655382045805382 0.18647827992414079 0 -0.40301523206660972 0.19388170140629321 0 -0.40085648253786532 0.19613652927287781 0 -0.39655382045805382 0.18647827992414079 0 -0.40301523206660972 0.19388170140629321 0 -0.40085648253786532 0.19613652927287781 0 -0.40301523206660972 0.19388170140629321 0 -0.39655382045805382 0.18647827992414079 0 -0.40301523206660972 0.19388170140629321 0 -0.40490805054919882 0.19605047409324181 0 -0.40301523206660972 0.19388170140629321 0 -0.40490805054919882 0.19605047409324181 0 -0.40085648253786532 0.19613652927287781 0 -0.40490805054919882 0.19605047409324181 0 -0.40085648253786532 0.19613652927287781 0 -0.40490805054919882 0.19605047409324181 0 -0.40085648253786532 0.19613652927287781 0 -0.40225052616972551 0.2042008083830063 0 -0.40085648253786532 0.19613652927287781 0 -0.38725432200540783 0.19642543874318311 0 -0.39121506598392691 0.20620705131801731 0 -0.40085648253786532 0.19613652927287781 0 -0.38725432200540783 0.19642543874318311 0 -0.40085648253786532 0.19613652927287781 0 -0.39121506598392691 0.20620705131801731 0 -0.40085648253786532 0.19613652927287781 0 -0.39121506598392691 0.20620705131801731 0 -0.40225052616972551 0.2042008083830063 0 -0.40085648253786532 0.19613652927287781 0 -0.38725432200540783 0.19642543874318311 0 -0.39655382045805382 0.18647827992414079 0 -0.38725432200540783 0.19642543874318311 0 -0.38319329506822858 0.18677432593399451 0 -0.38725432200540783 0.19642543874318311 0 -0.39655382045805382 0.18647827992414079 0 -0.38319329506822858 0.18677432593399451 0 -0.37518815340213912 0.1965286258885281 0 -0.38725432200540783 0.19642543874318311 0 -0.38319329506822858 0.18677432593399451 0 -0.37518815340213912 0.1965286258885281 0 -0.38725432200540783 0.19642543874318311 0 -0.37998007696654279 0.2057879129581309 0 -0.38725432200540783 0.19642543874318311 0 -0.37998007696654279 0.2057879129581309 0 -0.39121506598392691 0.20620705131801731 0 -0.38725432200540783 0.19642543874318311 0 -0.39121506598392691 0.20620705131801731 0 -0.37998007696654279 0.2057879129581309 0 -0.39121506598392691 0.20620705131801731 0 -0.37546058849402181 0.22266270510957481 0 -0.39121506598392691 0.20620705131801731 0 -0.37546058849402181 0.22266270510957481 0 -0.37998007696654279 0.2057879129581309 0 -0.37546058849402181 0.22266270510957481 0 -0.37084810965119519 0.20708855910651919 0 -0.39121506598392691 0.20620705131801731 0 -0.39897952943756992 0.22501644984542599 0 -0.37546058849402181 0.22266270510957481 0 -0.37518815340213912 0.1965286258885281 0 -0.37998007696654279 0.2057879129581309 0 -0.37084810965119519 0.20708855910651919 0 -0.39121506598392691 0.20620705131801731 0 -0.4013204508519933 0.21197799324764191 0 -0.39897952943756992 0.22501644984542599 0 -0.39121506598392691 0.20620705131801731 0 -0.39897952943756992 0.22501644984542599 0 -0.39121506598392691 0.20620705131801731 0 -0.40225052616972551 0.2042008083830063 0 -0.4013204508519933 0.21197799324764191 0 -0.40911416479527257 0.21159680690464441 0 -0.40490805054919882 0.19605047409324181 0 -0.40225052616972551 0.2042008083830063 0 -0.40911416479527257 0.21159680690464441 0 -0.40225052616972551 0.2042008083830063 0 -0.4013204508519933 0.21197799324764191 0 -0.40911416479527257 0.21159680690464441 0 -0.40375227416194309 0.21775857354698569 0 -0.4013204508519933 0.21197799324764191 0 -0.40375227416194309 0.21775857354698569 0 -0.4013204508519933 0.21197799324764191 0 -0.39897952943756992 0.22501644984542599 0 -0.39897952943756992 0.22501644984542599 0 -0.38063689746311752 0.23520230412784821 0 -0.40407789528278182 0.2373672317885254 0 -0.40950878604712398 0.2202468348121551 0 -0.40150570344353331 0.22361363914996091 0 -0.40407789528278182 0.2373672317885254 0 -0.40950878604712398 0.2202468348121551 0 -0.40375227416194309 0.21775857354698569 0 -0.40150570344353331 0.22361363914996091 0 -0.40150570344353331 0.22361363914996091 0 -0.39897952943756992 0.22501644984542599 0 -0.40375227416194309 0.21775857354698569 0 -0.40150570344353331 0.22361363914996091 0 -0.39897952943756992 0.22501644984542599 0 -0.39897952943756992 0.22501644984542599 0 -0.40407789528278182 0.2373672317885254 0 -0.40150570344353331 0.22361363914996091 0 -0.39897952943756992 0.22501644984542599 0 -0.40407789528278182 0.2373672317885254 0 -0.39897952943756992 0.22501644984542599 0 -0.38063689746311752 0.23520230412784821 0 -0.39897952943756992 0.22501644984542599 0 -0.37546058849402181 0.22266270510957481 0 -0.38063689746311752 0.23520230412784821 0 -0.38063689746311752 0.23520230412784821 0 -0.38645410250480378 0.25192413442107381 0 -0.37230098287792679 0.25294325508864451 0 -0.38063689746311752 0.23520230412784821 0 -0.40407789528278182 0.2373672317885254 0 -0.38645410250480378 0.25192413442107381 0 -0.40407789528278182 0.2373672317885254 0 -0.40538367728771529 0.24053048630924839 0 -0.38645410250480378 0.25192413442107381 0 -0.40538367728771529 0.24053048630924839 0 -0.38645410250480378 0.25192413442107381 0 -0.39099071244592531 0.25461618007173081 0 -0.40407789528278182 0.2373672317885254 0 -0.38645410250480378 0.25192413442107381 0 -0.41315111516502517 0.24275132308983971 0 -0.39099071244592531 0.25461618007173081 0 -0.41315111516502517 0.24275132308983971 0 -0.40538367728771529 0.24053048630924839 0 -0.39099071244592531 0.25461618007173081 0 -0.40407789528278182 0.2373672317885254 0 -0.40538367728771529 0.24053048630924839 0 -0.40899553808751421 0.1425493529175163 0 -0.42921772368368077 0.14642527692671151 0 -0.4150516164294995 0.15633176772402291 0 -0.40899553808751421 0.1425493529175163 0 -0.4150516164294995 0.15633176772402291 0 -0.40157887579219942 0.1549325929417944 0 -0.40899553808751421 0.1425493529175163 0 -0.41487635600168282 0.12681197651326459 0 -0.42921772368368077 0.14642527692671151 0 -0.40899553808751421 0.1425493529175163 0 -0.41487635600168282 0.12681197651326459 0 -0.39811754494359242 0.1267666801070397 0 -0.41487635600168282 0.12681197651326459 0 -0.43085895492050452 0.12683622289135341 0 -0.42921772368368077 0.14642527692671151 0 -0.43961375932514729 0.13664695633495069 0 -0.43085895492050452 0.12683622289135341 0 -0.42921772368368077 0.14642527692671151 0 -0.4488704931637521 0.14598558415203969 0 -0.42921772368368077 0.14642527692671151 0 -0.42963367705818212 0.16607856318532879 0 -0.42921772368368077 0.14642527692671151 0 -0.42963367705818212 0.16607856318532879 0 -0.4150516164294995 0.15633176772402291 0 -0.42963367705818212 0.16607856318532879 0 -0.42625244352369662 0.18582021008031249 0 -0.41039686095261219 0.18617154221861759 0 -0.44210802609478089 0.1854688779420092 0 -0.42963367705818212 0.16607856318532879 0 -0.42625244352369662 0.18582021008031249 0 -0.44210802609478089 0.1854688779420092 0 -0.42625244352369662 0.18582021008031249 0 -0.42625244352369662 0.18582021008031249 0 -0.41039686095261219 0.18617154221861759 0 -0.42963367705818212 0.16607856318532879 0 -0.41039686095261219 0.18617154221861759 0 -0.41039686095261219 0.18617154221861759 0 -0.41256410644063662 0.16901600218963281 0 -0.4004612504882491 0.1747594312677746 0 -0.42963367705818212 0.16607856318532879 0 -0.41039686095261219 0.18617154221861759 0 -0.41256410644063662 0.16901600218963281 0 -0.42963367705818212 0.16607856318532879 0 -0.4150516164294995 0.15633176772402291 0 -0.41256410644063662 0.16901600218963281 0 -0.4150516164294995 0.15633176772402291 0 -0.41256410644063662 0.16901600218963281 0 -0.40541281781580152 0.16411760996795349 0 -0.4150516164294995 0.15633176772402291 0 -0.40541281781580152 0.16411760996795349 0 -0.40157887579219942 0.1549325929417944 0 -0.40541281781580152 0.16411760996795349 0 -0.3919169713179389 0.16235710017995281 0 -0.40157887579219942 0.1549325929417944 0 -0.41256410644063662 0.16901600218963281 0 -0.40541281781580152 0.16411760996795349 0 -0.4004612504882491 0.1747594312677746 0 -0.40541281781580152 0.16411760996795349 0 -0.3919169713179389 0.16235710017995281 0 -0.4004612504882491 0.1747594312677746 0 -0.3919169713179389 0.16235710017995281 0 -0.4004612504882491 0.1747594312677746 0 -0.38832157652682658 0.17704585628995881 0 -0.41039686095261219 0.18617154221861759 0 -0.4004612504882491 0.1747594312677746 0 -0.39655382045805382 0.18647827992414079 0 -0.41039686095261219 0.18617154221861759 0 -0.39655382045805382 0.18647827992414079 0 -0.4004612504882491 0.1747594312677746 0 -0.39655382045805382 0.18647827992414079 0 -0.38832157652682658 0.17704585628995881 0 -0.39655382045805382 0.18647827992414079 0 -0.38832157652682658 0.17704585628995881 0 -0.38319329506822858 0.18677432593399451 0 -0.38326939629491491 0.16844468527799539 0 -0.37339442102192022 0.1630365714636027 0 -0.38319329506822858 0.18677432593399451 0 -0.38832157652682658 0.17704585628995881 0 -0.38326939629491491 0.16844468527799539 0 -0.38319329506822858 0.18677432593399451 0 -0.37339442102192022 0.1630365714636027 0 -0.39655382045805382 0.18647827992414079 0 -0.38319329506822858 0.18677432593399451 0 -0.39655382045805382 0.18647827992414079 0 -0.38319329506822858 0.18677432593399451 0 -0.38832157652682658 0.17704585628995881 0 -0.3919169713179389 0.16235710017995281 0 -0.38326939629491491 0.16844468527799539 0 -0.37952071753966021 0.15300957252246841 0 -0.3919169713179389 0.16235710017995281 0 -0.38832157652682658 0.17704585628995881 0 -0.38326939629491491 0.16844468527799539 0 -0.38326939629491491 0.16844468527799539 0 -0.37952071753966021 0.15300957252246841 0 -0.37339442102192022 0.1630365714636027 0 -0.37952071753966021 0.15300957252246841 0 -0.37339442102192022 0.1630365714636027 0 -0.3919169713179389 0.16235710017995281 0 -0.37952071753966021 0.15300957252246841 0 -0.39404087372094387 0.14652036713962169 0 -0.37952071753966021 0.15300957252246841 0 -0.37818257778086628 0.14164730372235171 0 -0.38547483673090238 0.1393458410910576 0 -0.37952071753966021 0.15300957252246841 0 -0.37818257778086628 0.14164730372235171 0 -0.36757570847090471 0.14894075094207951 0 -0.37952071753966021 0.15300957252246841 0 -0.39404087372094387 0.14652036713962169 0 -0.38547483673090238 0.1393458410910576 0 -0.3919169713179389 0.16235710017995281 0 -0.39404087372094387 0.14652036713962169 0 -0.40157887579219942 0.1549325929417944 0 -0.40899553808751421 0.1425493529175163 0 -0.39404087372094387 0.14652036713962169 0 -0.40157887579219942 0.1549325929417944 0 -0.40899553808751421 0.1425493529175163 0 -0.39404087372094387 0.14652036713962169 0 -0.39811754494359242 0.1267666801070397 0 -0.39404087372094387 0.14652036713962169 0 -0.39811754494359242 0.1267666801070397 0 -0.38547483673090238 0.1393458410910576 0 -0.37818257778086628 0.14164730372235171 0 -0.38015904838199821 0.12529305033380139 0 -0.36757570847090471 0.14894075094207951 0 -0.39811754494359242 0.1267666801070397 0 -0.38015904838199821 0.12529305033380139 0 -0.38547483673090238 0.1393458410910576 0 -0.37818257778086628 0.14164730372235171 0 -0.38015904838199821 0.12529305033380139 0 -0.38547483673090238 0.1393458410910576 0 -0.38015904838199821 0.12529305033380139 0 -0.36757570847090471 0.14894075094207951 0 -0.38015904838199821 0.12529305033380139 0 -0.3659510969526576 0.14500513250799621 0 -0.36757570847090471 0.14894075094207951 0 -0.38015904838199821 0.12529305033380139 0 -0.36065567313482172 0.12797661595255691 0 -0.3659510969526576 0.14500513250799621 0 -0.36065567313482172 0.12797661595255691 0 -0.3572817299621982 0.14039151753365209 0 -0.3659510969526576 0.14500513250799621 0 -0.36065567313482172 0.12797661595255691 0 -0.3447047479462696 0.13635858554850611 0 -0.3509323009719364 0.1171748886634135 0 -0.36065567313482172 0.12797661595255691 0 -0.3572817299621982 0.14039151753365209 0 -0.3447047479462696 0.13635858554850611 0 -0.3447047479462696 0.13635858554850611 0 -0.35361610641569419 0.15824271913356061 0 -0.3447047479462696 0.13635858554850611 0 -0.35846742852376828 0.1503974950567844 0 -0.35361610641569419 0.15824271913356061 0 -0.3447047479462696 0.13635858554850611 0 -0.35361610641569419 0.15824271913356061 0 -0.34155802068817842 0.15354786577970381 0 -0.3572817299621982 0.14039151753365209 0 -0.3447047479462696 0.13635858554850611 0 -0.35846742852376828 0.1503974950567844 0 -0.35846742852376828 0.1503974950567844 0 -0.36181135358705169 0.1597736251596043 0 -0.35361610641569419 0.15824271913356061 0 -0.35846742852376828 0.1503974950567844 0 -0.36261872000834933 0.1487028821927083 0 -0.36181135358705169 0.1597736251596043 0 -0.36757570847090471 0.14894075094207951 0 -0.36181135358705169 0.1597736251596043 0 -0.36261872000834933 0.1487028821927083 0 -0.36757570847090471 0.14894075094207951 0 -0.36181135358705169 0.1597736251596043 0 -0.3572817299621982 0.14039151753365209 0 -0.36261872000834933 0.1487028821927083 0 -0.3659510969526576 0.14500513250799621 0 -0.3572817299621982 0.14039151753365209 0 -0.35846742852376828 0.1503974950567844 0 -0.36261872000834933 0.1487028821927083 0 -0.36261872000834933 0.1487028821927083 0 -0.3659510969526576 0.14500513250799621 0 -0.36757570847090471 0.14894075094207951 0 -0.3659510969526576 0.14500513250799621 0 -0.36757570847090471 0.14894075094207951 0 -0.37952071753966021 0.15300957252246841 0 -0.36757570847090471 0.14894075094207951 0 -0.37339442102192022 0.1630365714636027 0 -0.36757570847090471 0.14894075094207951 0 -0.37339442102192022 0.1630365714636027 0 -0.36757570847090471 0.14894075094207951 0 -0.37339442102192022 0.1630365714636027 0 -0.36181135358705169 0.1597736251596043 0 -0.37339442102192022 0.1630365714636027 0 -0.36283703739859069 0.18031599535465259 0 -0.37339442102192022 0.1630365714636027 0 -0.36181135358705169 0.1597736251596043 0 -0.36283703739859069 0.18031599535465259 0 -0.36181135358705169 0.1597736251596043 0 -0.36283703739859069 0.18031599535465259 0 -0.35361610641569419 0.15824271913356061 0 -0.38319329506822858 0.18677432593399451 0 -0.36426777199827848 0.18719368261539759 0 -0.38319329506822858 0.18677432593399451 0 -0.37339442102192022 0.1630365714636027 0 -0.36426777199827848 0.18719368261539759 0 -0.37339442102192022 0.1630365714636027 0 -0.36283703739859069 0.18031599535465259 0 -0.36426777199827848 0.18719368261539759 0 -0.36283703739859069 0.18031599535465259 0 -0.36060039241854058 0.18397674484363319 0 -0.36283703739859069 0.18031599535465259 0 -0.36060039241854058 0.18397674484363319 0 -0.36426777199827848 0.18719368261539759 0 -0.36283703739859069 0.18031599535465259 0 -0.36060039241854058 0.18397674484363319 0 -0.35381112477655041 0.17817111475111211 0 -0.36060039241854058 0.18397674484363319 0 -0.35381112477655041 0.17817111475111211 0 -0.34615269748580141 0.1834351948221 0 -0.36283703739859069 0.18031599535465259 0 -0.35381112477655041 0.17817111475111211 0 -0.35277303683597833 0.17023498807151771 0 -0.35381112477655041 0.17817111475111211 0 -0.34615269748580141 0.1834351948221 0 -0.34594609581282232 0.17130132695918859 0 -0.35381112477655041 0.17817111475111211 0 -0.35277303683597833 0.17023498807151771 0 -0.34594609581282232 0.17130132695918859 0 -0.36283703739859069 0.18031599535465259 0 -0.35361610641569419 0.15824271913356061 0 -0.35277303683597833 0.17023498807151771 0 -0.36283703739859069 0.18031599535465259 0 -0.35361610641569419 0.15824271913356061 0 -0.35361610641569419 0.15824271913356061 0 -0.35277303683597833 0.17023498807151771 0 -0.34779999097813208 0.16376401364107179 0 -0.35277303683597833 0.17023498807151771 0 -0.34594609581282232 0.17130132695918859 0 -0.34779999097813208 0.16376401364107179 0 -0.34594609581282232 0.17130132695918859 0 -0.34779999097813208 0.16376401364107179 0 -0.34083712953182349 0.16376331101261771 0 -0.35361610641569419 0.15824271913356061 0 -0.34779999097813208 0.16376401364107179 0 -0.34155802068817842 0.15354786577970381 0 -0.34083712953182349 0.16376331101261771 0 -0.33052633735396708 0.15703128849837319 0 -0.34155802068817842 0.15354786577970381 0 -0.34779999097813208 0.16376401364107179 0 -0.34083712953182349 0.16376331101261771 0 -0.34155802068817842 0.15354786577970381 0 -0.34083712953182349 0.16376331101261771 0 -0.33052633735396708 0.15703128849837319 0 -0.33367691620285689 0.17280513828120889 0 -0.34594609581282232 0.17130132695918859 0 -0.34083712953182349 0.16376331101261771 0 -0.33367691620285689 0.17280513828120889 0 -0.34615269748580141 0.1834351948221 0 -0.33367691620285689 0.17280513828120889 0 -0.33507529188887819 0.18943992587379441 0 -0.33367691620285689 0.17280513828120889 0 -0.32247770492564742 0.1813685216679764 0 -0.33507529188887819 0.18943992587379441 0 -0.34615269748580141 0.1834351948221 0 -0.34594609581282232 0.17130132695918859 0 -0.33367691620285689 0.17280513828120889 0 -0.32247770492564742 0.1813685216679764 0 -0.30937615051756828 0.19578226248874581 0 -0.31058259130658838 0.1795697401161577 0 -0.33367691620285689 0.17280513828120889 0 -0.32247770492564742 0.1813685216679764 0 -0.31454904342674722 0.16482950789284939 0 -0.32247770492564742 0.1813685216679764 0 -0.31454904342674722 0.16482950789284939 0 -0.31058259130658838 0.1795697401161577 0 -0.33052633735396708 0.15703128849837319 0 -0.33367691620285689 0.17280513828120889 0 -0.31454904342674722 0.16482950789284939 0 -0.33052633735396708 0.15703128849837319 0 -0.31454904342674722 0.16482950789284939 0 -0.31865171016954291 0.14739900069409251 0 -0.33052633735396708 0.15703128849837319 0 -0.31865171016954291 0.14739900069409251 0 -0.3321891676438995 0.14447485483654041 0 -0.31865171016954291 0.14739900069409251 0 -0.32615573354296978 0.13273268964692081 0 -0.3321891676438995 0.14447485483654041 0 -0.31865171016954291 0.14739900069409251 0 -0.32615573354296978 0.13273268964692081 0 -0.31156315844750648 0.1321107028343074 0 -0.32615573354296978 0.13273268964692081 0 -0.31156315844750648 0.1321107028343074 0 -0.3198793781922627 0.1208060804587982 0 -0.3447047479462696 0.13635858554850611 0 -0.32615573354296978 0.13273268964692081 0 -0.3321891676438995 0.14447485483654041 0 -0.3447047479462696 0.13635858554850611 0 -0.33579338947684512 0.1144744519634515 0 -0.3447047479462696 0.13635858554850611 0 -0.32615573354296978 0.13273268964692081 0 -0.33579338947684512 0.1144744519634515 0 -0.3447047479462696 0.13635858554850611 0 -0.34155802068817842 0.15354786577970381 0 -0.3321891676438995 0.14447485483654041 0 -0.33052633735396708 0.15703128849837319 0 -0.34155802068817842 0.15354786577970381 0 -0.3321891676438995 0.14447485483654041 0 -0.35970611100411592 0.2391183589011317 0 -0.33501233521178059 0.2258570916036933 0 -0.33656394265933492 0.2425708704437449 0 -0.36229426548866411 0.2453881584102689 0 -0.35970611100411592 0.2391183589011317 0 -0.34395163351421038 0.25557401269268892 0 -0.35970611100411592 0.2391183589011317 0 -0.34395163351421038 0.25557401269268892 0 -0.35970611100411592 0.2391183589011317 0 -0.33656394265933492 0.2425708704437449 0 -0.34395163351421038 0.25557401269268892 0 -0.38063689746311752 0.23520230412784821 0 -0.36229426548866411 0.2453881584102689 0 -0.35970611100411592 0.2391183589011317 0 -0.38063689746311752 0.23520230412784821 0 -0.36229426548866411 0.2453881584102689 0 -0.37230098287792679 0.25294325508864451 0 -0.38063689746311752 0.23520230412784821 0 -0.36229426548866411 0.2453881584102689 0 -0.37546058849402181 0.22266270510957481 0 -0.35970611100411592 0.2391183589011317 0 -0.37546058849402181 0.22266270510957481 0 -0.38063689746311752 0.23520230412784821 0 -0.35970611100411592 0.2391183589011317 0 -0.37546058849402181 0.22266270510957481 0 -0.35970611100411592 0.2391183589011317 0 -0.35885004685950012 0.21620629208441811 0 -0.35970611100411592 0.2391183589011317 0 -0.35885004685950012 0.21620629208441811 0 -0.33501233521178059 0.2258570916036933 0 -0.35885004685950012 0.21620629208441811 0 -0.34780636381516061 0.20491691822366331 0 -0.33501233521178059 0.2258570916036933 0 -0.35885004685950012 0.21620629208441811 0 -0.34780636381516061 0.20491691822366331 0 -0.36426677298072652 0.19759411956192621 0 -0.37546058849402181 0.22266270510957481 0 -0.35885004685950012 0.21620629208441811 0 -0.37084810965119519 0.20708855910651919 0 -0.35885004685950012 0.21620629208441811 0 -0.37084810965119519 0.20708855910651919 0 -0.36426677298072652 0.19759411956192621 0 -0.37518815340213912 0.1965286258885281 0 -0.38319329506822858 0.18677432593399451 0 -0.36426777199827848 0.18719368261539759 0 -0.37518815340213912 0.1965286258885281 0 -0.37084810965119519 0.20708855910651919 0 -0.36426677298072652 0.19759411956192621 0 -0.37518815340213912 0.1965286258885281 0 -0.36426777199827848 0.18719368261539759 0 -0.36426677298072652 0.19759411956192621 0 -0.36060039241854058 0.18397674484363319 0 -0.36426777199827848 0.18719368261539759 0 -0.36426677298072652 0.19759411956192621 0 -0.36060039241854058 0.18397674484363319 0 -0.34780636381516061 0.20491691822366331 0 -0.36426677298072652 0.19759411956192621 0 -0.36060039241854058 0.18397674484363319 0 -0.34780636381516061 0.20491691822366331 0 -0.36060039241854058 0.18397674484363319 0 -0.34615269748580141 0.1834351948221 0 -0.34780636381516061 0.20491691822366331 0 -0.34780636381516061 0.20491691822366331 0 -0.33507529188887819 0.18943992587379441 0 -0.32751172082371138 0.20229484623570149 0 -0.34615269748580141 0.1834351948221 0 -0.34780636381516061 0.20491691822366331 0 -0.33507529188887819 0.18943992587379441 0 -0.32247770492564742 0.1813685216679764 0 -0.33507529188887819 0.18943992587379441 0 -0.32751172082371138 0.20229484623570149 0 -0.32247770492564742 0.1813685216679764 0 -0.32751172082371138 0.20229484623570149 0 -0.30937615051756828 0.19578226248874581 0 -0.32751172082371138 0.20229484623570149 0 -0.31532247858323359 0.21640435755633611 0 -0.30937615051756828 0.19578226248874581 0 -0.32751172082371138 0.20229484623570149 0 -0.31532247858323359 0.21640435755633611 0 -0.33501233521178059 0.2258570916036933 0 -0.34780636381516061 0.20491691822366331 0 -0.33501233521178059 0.2258570916036933 0 -0.34780636381516061 0.20491691822366331 0 -0.32751172082371138 0.20229484623570149 0 -0.33501233521178059 0.2258570916036933 0 -0.33501233521178059 0.2258570916036933 0 -0.31928852524238549 0.23050759930132231 0 -0.32133167483713088 0.2448940891786261 0 -0.31532247858323359 0.21640435755633611 0 -0.33501233521178059 0.2258570916036933 0 -0.31928852524238549 0.23050759930132231 0 -0.31532247858323359 0.21640435755633611 0 -0.31928852524238549 0.23050759930132231 0 -0.30843134910048298 0.22793863775064899 0 -0.31928852524238549 0.23050759930132231 0 -0.31553220836327839 0.2382159469978683 0 -0.30843134910048298 0.22793863775064899 0 -0.33501233521178059 0.2258570916036933 0 -0.32221830660839929 0.24679726498372251 0 -0.32133167483713088 0.2448940891786261 0 -0.31553220836327839 0.2382159469978683 0 -0.32106837165573132 0.2486793803072968 0 -0.30754112098066161 0.23906002845144769 0 -0.31928852524238549 0.23050759930132231 0 -0.31553220836327839 0.2382159469978683 0 -0.32133167483713088 0.2448940891786261 0 -0.31553220836327839 0.2382159469978683 0 -0.32106837165573132 0.2486793803072968 0 -0.32133167483713088 0.2448940891786261 0 -0.32106837165573132 0.2486793803072968 0 -0.30754112098066161 0.23906002845144769 0 -0.32106837165573132 0.2486793803072968 0 -0.32221830660839929 0.24679726498372251 0 -0.324099188522188 0.25083462194133671 0 -0.32221830660839929 0.24679726498372251 0 -0.324099188522188 0.25083462194133671 0 -0.32221830660839929 0.24679726498372251 0 -0.33267593655950928 0.2510925736975908 0 -0.324099188522188 0.25083462194133671 0 -0.32106837165573132 0.2486793803072968 0 -0.32221830660839929 0.24679726498372251 0 -0.32133167483713088 0.2448940891786261 0 -0.32106837165573132 0.2486793803072968 0 -0.32221830660839929 0.24679726498372251 0 -0.32106837165573132 0.2486793803072968 0 -0.324099188522188 0.25083462194133671 0 -0.32221830660839929 0.24679726498372251 0 -0.32133167483713088 0.2448940891786261 0 -0.32221830660839929 0.24679726498372251 0 -0.33656394265933492 0.2425708704437449 0 -0.33267593655950928 0.2510925736975908 0 -0.33501233521178059 0.2258570916036933 0 -0.32221830660839929 0.24679726498372251 0 -0.33656394265933492 0.2425708704437449 0 -0.33501233521178059 0.2258570916036933 0 -0.32221830660839929 0.24679726498372251 0 -0.33656394265933492 0.2425708704437449 0 -0.34395163351421038 0.25557401269268892 0 -0.33267593655950928 0.2510925736975908 0 -0.28739650657821542 0.24626561578924161 0 -0.29897154726595537 0.24684560196851091 0 -0.29401387030558951 0.22944067659560169 0 -0.28739650657821542 0.24626561578924161 0 -0.29401387030558951 0.22944067659560169 0 -0.28134713643184572 0.23018408597700171 0 -0.29897154726595537 0.24684560196851091 0 -0.30754112098066161 0.23906002845144769 0 -0.29401387030558951 0.22944067659560169 0 -0.29897154726595537 0.24684560196851091 0 -0.30833816360920352 0.24979970928733461 0 -0.30754112098066161 0.23906002845144769 0 -0.32106837165573132 0.2486793803072968 0 -0.30833816360920352 0.24979970928733461 0 -0.30754112098066161 0.23906002845144769 0 -0.31553220836327839 0.2382159469978683 0 -0.30754112098066161 0.23906002845144769 0 -0.30843134910048298 0.22793863775064899 0 -0.30754112098066161 0.23906002845144769 0 -0.30843134910048298 0.22793863775064899 0 -0.29401387030558951 0.22944067659560169 0 -0.30754112098066161 0.23906002845144769 0 -0.29401387030558951 0.22944067659560169 0 -0.31532247858323359 0.21640435755633611 0 -0.30843134910048298 0.22793863775064899 0 -0.29791989371710448 0.2140687164716957 0 -0.30843134910048298 0.22793863775064899 0 -0.29401387030558951 0.22944067659560169 0 -0.29791989371710448 0.2140687164716957 0 -0.29401387030558951 0.22944067659560169 0 -0.29791989371710448 0.2140687164716957 0 -0.28076870128250447 0.21608966378568781 0 -0.29401387030558951 0.22944067659560169 0 -0.28134713643184572 0.23018408597700171 0 -0.28076870128250447 0.21608966378568781 0 -0.29791989371710448 0.2140687164716957 0 -0.28829918478595629 0.19937542092163149 0 -0.28076870128250447 0.21608966378568781 0 -0.31532247858323359 0.21640435755633611 0 -0.29791989371710448 0.2140687164716957 0 -0.30937615051756828 0.19578226248874581 0 -0.29791989371710448 0.2140687164716957 0 -0.30937615051756828 0.19578226248874581 0 -0.28829918478595629 0.19937542092163149 0 -0.30937615051756828 0.19578226248874581 0 -0.28829918478595629 0.19937542092163149 0 -0.30937615051756828 0.19578226248874581 0 -0.28829918478595629 0.19937542092163149 0 -0.29592746635639061 0.1762986684150592 0 -0.26722221905434429 0.20296857935451831 0 -0.27454952302599822 0.18532499456576229 0 -0.28829918478595629 0.19937542092163149 0 -0.26722221905434429 0.20296857935451831 0 -0.27454952302599822 0.18532499456576229 0 -0.28829918478595629 0.19937542092163149 0 -0.26722221905434429 0.20296857935451831 0 -0.26722221905434429 0.20296857935451831 0 -0.26157007251894859 0.19808198070212621 0 -0.27454952302599822 0.18532499456576229 0 -0.25669856363692678 0.19129905301876091 0 -0.25785624182739092 0.2045652721842047 0 -0.23571011199556749 0.19027560157752119 0 -0.25669856363692678 0.19129905301876091 0 -0.26157007251894859 0.19808198070212621 0 -0.27454952302599822 0.18532499456576229 0 -0.25669856363692678 0.19129905301876091 0 -0.26157007251894859 0.19808198070212621 0 -0.25785624182739092 0.2045652721842047 0 -0.26722221905434429 0.20296857935451831 0 -0.26157007251894859 0.19808198070212621 0 -0.25785624182739092 0.2045652721842047 0 -0.26722221905434429 0.20296857935451831 0 -0.26071179979650472 0.2064078055336786 0 -0.25785624182739092 0.2045652721842047 0 -0.26722221905434429 0.20296857935451831 0 -0.26030609859934312 0.21962206583865981 0 -0.26722221905434429 0.20296857935451831 0 -0.25785624182739092 0.2045652721842047 0 -0.26722221905434429 0.20296857935451831 0 -0.26071179979650472 0.2064078055336786 0 -0.26030609859934312 0.21962206583865981 0 -0.26071179979650472 0.2064078055336786 0 -0.25785624182739092 0.2045652721842047 0 -0.2576123358244175 0.21099426328065879 0 -0.26071179979650472 0.2064078055336786 0 -0.25785624182739092 0.2045652721842047 0 -0.25785624182739092 0.2045652721842047 0 -0.25157520307443132 0.21338190956609229 0 -0.2576123358244175 0.21099426328065879 0 -0.25157520307443132 0.21338190956609229 0 -0.2576123358244175 0.21099426328065879 0 -0.26030609859934312 0.21962206583865981 0 -0.25157520307443132 0.21338190956609229 0 -0.26030609859934312 0.21962206583865981 0 -0.25207110710078701 0.2198329446334365 0 -0.26071179979650472 0.2064078055336786 0 -0.2576123358244175 0.21099426328065879 0 -0.26030609859934312 0.21962206583865981 0 -0.28829918478595629 0.19937542092163149 0 -0.26722221905434429 0.20296857935451831 0 -0.28076870128250447 0.21608966378568781 0 -0.26722221905434429 0.20296857935451831 0 -0.26982277947105188 0.21549321117589301 0 -0.26030609859934312 0.21962206583865981 0 -0.26722221905434429 0.20296857935451831 0 -0.26982277947105188 0.21549321117589301 0 -0.28076870128250447 0.21608966378568781 0 -0.26982277947105188 0.21549321117589301 0 -0.28076870128250447 0.21608966378568781 0 -0.27099409894801568 0.22329253572470589 0 -0.28134713643184572 0.23018408597700171 0 -0.28076870128250447 0.21608966378568781 0 -0.27099409894801568 0.22329253572470589 0 -0.28134713643184572 0.23018408597700171 0 -0.26702075191911451 0.23165655287197831 0 -0.27099409894801568 0.22329253572470589 0 -0.26982277947105188 0.21549321117589301 0 -0.27099409894801568 0.22329253572470589 0 -0.26030609859934312 0.21962206583865981 0 -0.26702075191911451 0.23165655287197831 0 -0.27099409894801568 0.22329253572470589 0 -0.26030609859934312 0.21962206583865981 0 -0.26030609859934312 0.21962206583865981 0 -0.2525016477119898 0.22545096211968291 0 -0.25338997814434111 0.23627555232280109 0 -0.26030609859934312 0.21962206583865981 0 -0.25338997814434111 0.23627555232280109 0 -0.26702075191911451 0.23165655287197831 0 -0.26030609859934312 0.21962206583865981 0 -0.25338997814434111 0.23627555232280109 0 -0.26030609859934312 0.21962206583865981 0 -0.25207110710078701 0.2198329446334365 0 -0.2525016477119898 0.22545096211968291 0 -0.2525016477119898 0.22545096211968291 0 -0.25087197849701109 0.23172467114630951 0 -0.25338997814434111 0.23627555232280109 0 -0.25338997814434111 0.23627555232280109 0 -0.26906644747202718 0.24890852449672279 0 -0.25338997814434111 0.23627555232280109 0 -0.26906644747202718 0.24890852449672279 0 -0.25694559370152048 0.25065128912585227 0 -0.25338997814434111 0.23627555232280109 0 -0.25694559370152048 0.25065128912585227 0 -0.2445739512607959 0.2575038674604756 0 -0.26702075191911451 0.23165655287197831 0 -0.25338997814434111 0.23627555232280109 0 -0.26906644747202718 0.24890852449672279 0 -0.28134713643184572 0.23018408597700171 0 -0.26702075191911451 0.23165655287197831 0 -0.26906644747202718 0.24890852449672279 0 -0.28739650657821542 0.24626561578924161 0 -0.28134713643184572 0.23018408597700171 0 -0.26906644747202718 0.24890852449672279 0 -0.28153275062988231 0.14383631727947241 0 -0.30131101603804389 0.1510369528255287 0 -0.28610644016741799 0.16137992338250309 0 -0.28153275062988231 0.14383631727947241 0 -0.29447999206370812 0.1280207861497788 0 -0.30131101603804389 0.1510369528255287 0 -0.28153275062988231 0.14383631727947241 0 -0.29447999206370812 0.1280207861497788 0 -0.27541757840336523 0.12981825985503381 0 -0.29447999206370812 0.1280207861497788 0 -0.31156315844750648 0.1321107028343074 0 -0.30131101603804389 0.1510369528255287 0 -0.31865171016954291 0.14739900069409251 0 -0.31156315844750648 0.1321107028343074 0 -0.30131101603804389 0.1510369528255287 0 -0.31454904342674722 0.16482950789284939 0 -0.31865171016954291 0.14739900069409251 0 -0.30131101603804389 0.1510369528255287 0 -0.31454904342674722 0.16482950789284939 0 -0.30131101603804389 0.1510369528255287 0 -0.29592746635639061 0.1762986684150592 0 -0.31454904342674722 0.16482950789284939 0 -0.31058259130658838 0.1795697401161577 0 -0.29592746635639061 0.1762986684150592 0 -0.30937615051756828 0.19578226248874581 0 -0.31058259130658838 0.1795697401161577 0 -0.29592746635639061 0.1762986684150592 0 -0.29592746635639061 0.1762986684150592 0 -0.281741313682913 0.17190633884976239 0 -0.27454952302599822 0.18532499456576229 0 -0.28829918478595629 0.19937542092163149 0 -0.29592746635639061 0.1762986684150592 0 -0.27454952302599822 0.18532499456576229 0 -0.30131101603804389 0.1510369528255287 0 -0.29592746635639061 0.1762986684150592 0 -0.28610644016741799 0.16137992338250309 0 -0.29592746635639061 0.1762986684150592 0 -0.281741313682913 0.17190633884976239 0 -0.28610644016741799 0.16137992338250309 0 -0.281741313682913 0.17190633884976239 0 -0.28610644016741799 0.16137992338250309 0 -0.26941603570988693 0.16248729038763951 0 -0.281741313682913 0.17190633884976239 0 -0.26941603570988693 0.16248729038763951 0 -0.27454952302599822 0.18532499456576229 0 -0.26941603570988693 0.16248729038763951 0 -0.27454952302599822 0.18532499456576229 0 -0.2538068688167292 0.17824741606419039 0 -0.25669856363692678 0.19129905301876091 0 -0.27454952302599822 0.18532499456576229 0 -0.2538068688167292 0.17824741606419039 0 -0.26941603570988693 0.16248729038763951 0 -0.2538068688167292 0.17824741606419039 0 -0.245907630704644 0.16467346334311689 0 -0.26941603570988693 0.16248729038763951 0 -0.25072935194538559 0.15091073656359991 0 -0.245907630704644 0.16467346334311689 0 -0.26941603570988693 0.16248729038763951 0 -0.2635180216702947 0.14109085249426109 0 -0.25072935194538559 0.15091073656359991 0 -0.2635180216702947 0.14109085249426109 0 -0.25072935194538559 0.15091073656359991 0 -0.24681648486499361 0.13989079764542439 0 -0.28153275062988231 0.14383631727947241 0 -0.28610644016741799 0.16137992338250309 0 -0.26941603570988693 0.16248729038763951 0 -0.28153275062988231 0.14383631727947241 0 -0.26941603570988693 0.16248729038763951 0 -0.2635180216702947 0.14109085249426109 0 -0.28153275062988231 0.14383631727947241 0 -0.2635180216702947 0.14109085249426109 0 -0.27541757840336523 0.12981825985503381 0 -0.2635180216702947 0.14109085249426109 0 -0.25560731199770448 0.1231882924394609 0 -0.24681648486499361 0.13989079764542439 0 -0.2635180216702947 0.14109085249426109 0 -0.27541757840336523 0.12981825985503381 0 -0.25560731199770448 0.1231882924394609 0 -0.25560731199770448 0.1231882924394609 0 -0.25649798179994171 0.1077666324077486 0 -0.28194981565523669 0.11295505091219581 0 -0.27163497607041043 0.099554683677957834 0 -0.26291193068027252 0.085092279111468369 0 -0.24284988513574529 0.096642882843885058 0 -0.27163497607041043 0.099554683677957834 0 -0.24284988513574529 0.096642882843885058 0 -0.25649798179994171 0.1077666324077486 0 -0.27163497607041043 0.099554683677957834 0 -0.24284988513574529 0.096642882843885058 0 -0.25649798179994171 0.1077666324077486 0 -0.27163497607041043 0.099554683677957834 0 -0.28194981565523669 0.11295505091219581 0 -0.25560731199770448 0.1231882924394609 0 -0.28194981565523669 0.11295505091219581 0 -0.27541757840336523 0.12981825985503381 0 -0.25560731199770448 0.1231882924394609 0 -0.28194981565523669 0.11295505091219581 0 -0.29447999206370812 0.1280207861497788 0 -0.28194981565523669 0.11295505091219581 0 -0.29537760003130481 0.1083064235432771 0 -0.29447999206370812 0.1280207861497788 0 -0.27541757840336523 0.12981825985503381 0 -0.28194981565523669 0.11295505091219581 0 -0.28194981565523669 0.11295505091219581 0 -0.29108790648228811 0.094053948808632756 0 -0.29537760003130481 0.1083064235432771 0 -0.27163497607041043 0.099554683677957834 0 -0.28194981565523669 0.11295505091219581 0 -0.29108790648228811 0.094053948808632756 0 -0.29108790648228811 0.094053948808632756 0 -0.29537760003130481 0.1083064235432771 0 -0.30908974193557548 0.09940873138167855 0 -0.29537760003130481 0.1083064235432771 0 -0.30908974193557548 0.09940873138167855 0 -0.30890112067851239 0.1126687072307255 0 -0.29447999206370812 0.1280207861497788 0 -0.29537760003130481 0.1083064235432771 0 -0.30890112067851239 0.1126687072307255 0 -0.29447999206370812 0.1280207861497788 0 -0.31156315844750648 0.1321107028343074 0 -0.30890112067851239 0.1126687072307255 0 -0.30905797758167952 0.081999833367399744 0 -0.3080843350590583 0.060631143582027133 0 -0.31569048099385488 0.071044698506477627 0 -0.30905797758167952 0.081999833367399744 0 -0.28860958210788379 0.072768293229925118 0 -0.30905797758167952 0.081999833367399744 0 -0.28860958210788379 0.072768293229925118 0 -0.3080843350590583 0.060631143582027133 0 -0.29108790648228811 0.094053948808632756 0 -0.30908974193557548 0.09940873138167855 0 -0.30905797758167952 0.081999833367399744 0 -0.29108790648228811 0.094053948808632756 0 -0.30905797758167952 0.081999833367399744 0 -0.28860958210788379 0.072768293229925118 0 -0.29108790648228811 0.094053948808632756 0 -0.28860958210788379 0.072768293229925118 0 -0.27710178314023631 0.084608823328274504 0 -0.28860958210788379 0.072768293229925118 0 -0.27160759873598289 0.070809773612540955 0 -0.27710178314023631 0.084608823328274504 0 -0.28860958210788379 0.072768293229925118 0 -0.27160759873598289 0.070809773612540955 0 -0.27979790678356581 0.059842222773058132 0 -0.27163497607041043 0.099554683677957834 0 -0.29108790648228811 0.094053948808632756 0 -0.27710178314023631 0.084608823328274504 0 -0.27160759873598289 0.070809773612540955 0 -0.27710178314023631 0.084608823328274504 0 -0.26291193068027252 0.085092279111468369 0 -0.27163497607041043 0.099554683677957834 0 -0.27710178314023631 0.084608823328274504 0 -0.26291193068027252 0.085092279111468369 0 -0.26291193068027252 0.085092279111468369 0 -0.25136541031898729 0.073845232094683494 0 -0.24284988513574529 0.096642882843885058 0 -0.27160759873598289 0.070809773612540955 0 -0.25136541031898729 0.073845232094683494 0 -0.26787641570603948 0.049267243872486523 0 -0.27160759873598289 0.070809773612540955 0 -0.26291193068027252 0.085092279111468369 0 -0.25136541031898729 0.073845232094683494 0 -0.25136541031898729 0.073845232094683494 0 -0.25597861636397973 0.049123538321515482 0 -0.26787641570603948 0.049267243872486523 0 -0.25136541031898729 0.073845232094683494 0 -0.26787641570603948 0.049267243872486523 0 -0.25136541031898729 0.073845232094683494 0 -0.25597861636397973 0.049123538321515482 0 -0.24384480862188049 0.059602248430989879 0 -0.25597861636397973 0.049123538321515482 0 -0.25207103841232792 0.026061960329184921 0 -0.25597861636397973 0.049123538321515482 0 -0.26564054002631382 0.033927343479510527 0 -0.25207103841232792 0.026061960329184921 0 -0.25597861636397973 0.049123538321515482 0 -0.26564054002631382 0.033927343479510527 0 -0.26787641570603948 0.049267243872486523 0 -0.26564054002631382 0.033927343479510527 0 -0.26787641570603948 0.049267243872486523 0 -0.28438742109309167 0.02468925565028933 0 -0.26787641570603948 0.049267243872486523 0 -0.28438742109309167 0.02468925565028933 0 -0.26787641570603948 0.049267243872486523 0 -0.28438742109309167 0.02468925565028933 0 -0.29039739118820002 0.049988263865168608 0 -0.27979790678356581 0.059842222773058132 0 -0.26787641570603948 0.049267243872486523 0 -0.29039739118820002 0.049988263865168608 0 -0.27160759873598289 0.070809773612540955 0 -0.27979790678356581 0.059842222773058132 0 -0.26787641570603948 0.049267243872486523 0 -0.25670989474245642 0.014084883427816049 0 -0.25207103841232792 0.026061960329184921 0 -0.24816346046067789 0.0030003823368541021 0 -0.25207103841232792 0.026061960329184921 0 -0.24816346046067789 0.0030003823368541021 0 -0.25666233569757813 0.0012409316492498191 0 -0.25670989474245642 0.014084883427816049 0 -0.2663175910824343 0.0041000388923687252 0 -0.25666233569757813 0.0012409316492498191 0 -0.25111082347070451 0.00049171989325213312 0 -0.24816346046067789 0.0030003823368541021 0 -0.25666233569757813 0.0012409316492498191 0 -0.25670989474245642 0.014084883427816049 0 -0.24816346046067789 0.0030003823368541021 0 -0.25670989474245642 0.014084883427816049 0 -0.26795472370386481 0.01887906383336407 0 -0.2663175910824343 0.0041000388923687252 0 -0.26564054002631382 0.033927343479510527 0 -0.25207103841232792 0.026061960329184921 0 -0.26795472370386481 0.01887906383336407 0 -0.25670989474245642 0.014084883427816049 0 -0.25207103841232792 0.026061960329184921 0 -0.26795472370386481 0.01887906383336407 0 -0.26564054002631382 0.033927343479510527 0 -0.26795472370386481 0.01887906383336407 0 -0.28438742109309167 0.02468925565028933 0 -0.26795472370386481 0.01887906383336407 0 -0.28034186949023432 0.0037744074343769251 0 -0.28438742109309167 0.02468925565028933 0 -0.26795472370386481 0.01887906383336407 0 -0.28034186949023432 0.0037744074343769251 0 -0.2663175910824343 0.0041000388923687252 0 -0.28438742109309167 0.02468925565028933 0 -0.30110161761433291 0.021836220914155099 0 -0.30089842648014392 0.0001112674280922266 0 -0.28034186949023432 0.0037744074343769251 0 -0.28438742109309167 0.02468925565028933 0 -0.30089842648014392 0.0001112674280922266 0 -0.28438742109309167 0.02468925565028933 0 -0.30089842648014392 0.0001112674280922266 0 -0.28438742109309167 0.02468925565028933 0 -0.30110161761433291 0.021836220914155099 0 -0.30077663074283473 0.038513770901170842 0 -0.30110161761433291 0.021836220914155099 0 -0.30902853172429401 0.03114689191569547 0 -0.31041707803130031 0.01471991867552766 0 -0.30902853172429401 0.03114689191569547 0 -0.31041707803130031 0.01471991867552766 0 -0.31646314116746099 0.021481879300980181 0 -0.30110161761433291 0.021836220914155099 0 -0.30902853172429401 0.03114689191569547 0 -0.30077663074283473 0.038513770901170842 0 -0.30110161761433291 0.021836220914155099 0 -0.31041707803130031 0.01471991867552766 0 -0.30089842648014392 0.0001112674280922266 0 -0.31041707803130031 0.01471991867552766 0 -0.31143887040146051 0.0038024028975646041 0 -0.30089842648014392 0.0001112674280922266 0 -0.28860958210788379 0.072768293229925118 0 -0.29039739118820002 0.049988263865168608 0 -0.3080843350590583 0.060631143582027133 0 -0.28860958210788379 0.072768293229925118 0 -0.27979790678356581 0.059842222773058132 0 -0.29039739118820002 0.049988263865168608 0 -0.28438742109309167 0.02468925565028933 0 -0.29039739118820002 0.049988263865168608 0 -0.30077663074283473 0.038513770901170842 0 -0.30902853172429401 0.03114689191569547 0 -0.30077663074283473 0.038513770901170842 0 -0.31452512745056982 0.042543375381032172 0 -0.29039739118820002 0.049988263865168608 0 -0.30077663074283473 0.038513770901170842 0 -0.3080843350590583 0.060631143582027133 0 -0.30077663074283473 0.038513770901170842 0 -0.3080843350590583 0.060631143582027133 0 -0.31452512745056982 0.042543375381032172 0 -0.3080843350590583 0.060631143582027133 0 -0.32594536108214378 0.050085943840741151 0 -0.31452512745056982 0.042543375381032172 0 -0.3080843350590583 0.060631143582027133 0 -0.32594536108214378 0.050085943840741151 0 -0.31569048099385488 0.071044698506477627 0 -0.32594536108214378 0.050085943840741151 0 -0.32772586706880857 0.070658658672808627 0 -0.32594536108214378 0.050085943840741151 0 -0.32453282475568762 0.033764905185568198 0 -0.32594536108214378 0.050085943840741151 0 -0.31452512745056982 0.042543375381032172 0 -0.32453282475568762 0.033764905185568198 0 -0.31452512745056982 0.042543375381032172 0 -0.31705014217178512 0.031514907262629621 0 -0.32453282475568762 0.033764905185568198 0 -0.30902853172429401 0.03114689191569547 0 -0.31452512745056982 0.042543375381032172 0 -0.31705014217178512 0.031514907262629621 0 -0.31705014217178512 0.031514907262629621 0 -0.32453282475568762 0.033764905185568198 0 -0.32416485509547921 0.029513229008673651 0 -0.32453282475568762 0.033764905185568198 0 -0.32416485509547921 0.029513229008673651 0 -0.32594536108214378 0.050085943840741151 0 -0.34045160207812281 0.037981512204422092 0 -0.33878661806210347 0.048441589842637918 0 -0.32594536108214378 0.050085943840741151 0 -0.34045160207812281 0.037981512204422092 0 -0.33444945392567599 0.029629228295885851 0 -0.32594536108214378 0.050085943840741151 0 -0.32453282475568762 0.033764905185568198 0 -0.33444945392567599 0.029629228295885851 0 -0.34045160207812281 0.037981512204422092 0 -0.33444945392567599 0.029629228295885851 0 -0.34661330806137147 0.028778874896438569 0 -0.34045160207812281 0.037981512204422092 0 -0.33878661806210347 0.048441589842637918 0 -0.34831883502193589 0.03894908953968651 0 -0.32594536108214378 0.050085943840741151 0 -0.3394995154937156 0.06053897517848536 0 -0.32772586706880857 0.070658658672808627 0 -0.32594536108214378 0.050085943840741151 0 -0.33878661806210347 0.048441589842637918 0 -0.3394995154937156 0.06053897517848536 0 -0.32165509881444659 0.00051444964237450791 0 -0.32416485509547921 0.029513229008673651 0 -0.32165509881444659 0.00051444964237450791 0 -0.32485586550436651 0.0092805507219395761 0 -0.32416485509547921 0.029513229008673651 0 -0.31041707803130031 0.01471991867552766 0 -0.32165509881444659 0.00051444964237450791 0 -0.31646314116746099 0.021481879300980181 0 -0.31041707803130031 0.01471991867552766 0 -0.31143887040146051 0.0038024028975646041 0 -0.32165509881444659 0.00051444964237450791 0 -0.32485586550436651 0.0092805507219395761 0 -0.32416485509547921 0.029513229008673651 0 -0.32165509881444659 0.00051444964237450791 0 -0.31646314116746099 0.021481879300980181 0 -0.32416485509547921 0.029513229008673651 0 -0.32485586550436651 0.0092805507219395761 0 -0.32416485509547921 0.029513229008673651 0 -0.33018209530157772 0.021510816402518888 0 -0.31705014217178512 0.031514907262629621 0 -0.31646314116746099 0.021481879300980181 0 -0.32416485509547921 0.029513229008673651 0 -0.30902853172429401 0.03114689191569547 0 -0.31705014217178512 0.031514907262629621 0 -0.31646314116746099 0.021481879300980181 0 -0.32453282475568762 0.033764905185568198 0 -0.32416485509547921 0.029513229008673651 0 -0.33444945392567599 0.029629228295885851 0 -0.32416485509547921 0.029513229008673651 0 -0.33444945392567599 0.029629228295885851 0 -0.33018209530157772 0.021510816402518888 0 -0.33444945392567599 0.029629228295885851 0 -0.33998655242876052 0.019466737527311029 0 -0.33018209530157772 0.021510816402518888 0 -0.33444945392567599 0.029629228295885851 0 -0.33998655242876052 0.019466737527311029 0 -0.34661330806137147 0.028778874896438569 0 -0.33998655242876052 0.019466737527311029 0 -0.33018209530157772 0.021510816402518888 0 -0.33332388317617162 0.013791934808605841 0 -0.32554687591325288 -0.01095212756479454 0 -0.32485586550436651 0.0092805507219395761 0 -0.34154901110111657 0.0037492786904802038 0 -0.33998655242876052 0.019466737527311029 0 -0.33332388317617162 0.013791934808605841 0 -0.34154901110111657 0.0037492786904802038 0 -0.32485586550436651 0.0092805507219395761 0 -0.33332388317617162 0.013791934808605841 0 -0.34154901110111657 0.0037492786904802038 0 -0.32485586550436651 0.0092805507219395761 0 -0.33018209530157772 0.021510816402518888 0 -0.33332388317617162 0.013791934808605841 0 -0.36773282995165379 -0.00174619774939233 0 -0.35133934022977531 -0.0050012027761295336 0 -0.35755114628898088 0.01845068494575423 0 -0.35133934022977531 -0.0050012027761295336 0 -0.34154901110111657 0.0037492786904802038 0 -0.35755114628898088 0.01845068494575423 0 -0.33998655242876052 0.019466737527311029 0 -0.34154901110111657 0.0037492786904802038 0 -0.35755114628898088 0.01845068494575423 0 -0.34154901110111657 0.0037492786904802038 0 -0.35755114628898088 0.01845068494575423 0 -0.33998655242876052 0.019466737527311029 0 -0.35755114628898088 0.01845068494575423 0 -0.34661330806137147 0.028778874896438569 0 -0.35755114628898088 0.01845068494575423 0 -0.34661330806137147 0.028778874896438569 0 -0.3592162484228012 0.032697937565177138 0 -0.37514653282305982 0.01299573953559963 0 -0.35755114628898088 0.01845068494575423 0 -0.3735532814768453 0.033152091201028272 0 -0.35755114628898088 0.01845068494575423 0 -0.3592162484228012 0.032697937565177138 0 -0.3735532814768453 0.033152091201028272 0 -0.35755114628898088 0.01845068494575423 0 -0.3735532814768453 0.033152091201028272 0 -0.36773282995165379 -0.00174619774939233 0 -0.37514653282305982 0.01299573953559963 0 -0.35755114628898088 0.01845068494575423 0 -0.3394995154937156 0.06053897517848536 0 -0.35652639848528039 0.046845533189756837 0 -0.33878661806210347 0.048441589842637918 0 -0.3394995154937156 0.06053897517848536 0 -0.35652639848528039 0.046845533189756837 0 -0.3394995154937156 0.06053897517848536 0 -0.35652639848528039 0.046845533189756837 0 -0.35666306290045058 0.063485067477955182 0 -0.33878661806210347 0.048441589842637918 0 -0.34831883502193589 0.03894908953968651 0 -0.35652639848528039 0.046845533189756837 0 -0.34045160207812281 0.037981512204422092 0 -0.34661330806137147 0.028778874896438569 0 -0.34831883502193589 0.03894908953968651 0 -0.34661330806137147 0.028778874896438569 0 -0.34831883502193589 0.03894908953968651 0 -0.3592162484228012 0.032697937565177138 0 -0.34831883502193589 0.03894908953968651 0 -0.3592162484228012 0.032697937565177138 0 -0.35652639848528039 0.046845533189756837 0 -0.35652639848528039 0.046845533189756837 0 -0.3735532814768453 0.033152091201028272 0 -0.36950363917516221 0.047003191548943897 0 -0.35652639848528039 0.046845533189756837 0 -0.3735532814768453 0.033152091201028272 0 -0.3592162484228012 0.032697937565177138 0 -0.35652639848528039 0.046845533189756837 0 -0.3735532814768453 0.033152091201028272 0 -0.37752275694360438 0.036798909002031838 0 -0.3735532814768453 0.033152091201028272 0 -0.36950363917516221 0.047003191548943897 0 -0.36950363917516221 0.047003191548943897 0 -0.37478596638445771 0.060295530683281529 0 -0.35666306290045058 0.063485067477955182 0 -0.35652639848528039 0.046845533189756837 0 -0.36950363917516221 0.047003191548943897 0 -0.35666306290045058 0.063485067477955182 0 -0.37478596638445771 0.060295530683281529 0 -0.36660702705474019 0.074639361310034666 0 -0.35666306290045058 0.063485067477955182 0 -0.38008645798265722 0.071949868533357608 0 -0.37478596638445771 0.060295530683281529 0 -0.36660702705474019 0.074639361310034666 0 -0.377874145764523 0.085874469950543125 0 -0.38008645798265722 0.071949868533357608 0 -0.36660702705474019 0.074639361310034666 0 -0.36660702705474019 0.074639361310034666 0 -0.35666306290045058 0.063485067477955182 0 -0.34956782804785702 0.078274157859647697 0 -0.3394995154937156 0.06053897517848536 0 -0.35666306290045058 0.063485067477955182 0 -0.34211354321445359 0.070615258139624076 0 -0.35666306290045058 0.063485067477955182 0 -0.34956782804785702 0.078274157859647697 0 -0.34211354321445359 0.070615258139624076 0 -0.34490434013980081 0.087402818136329205 0 -0.34956782804785702 0.078274157859647697 0 -0.36066470124849598 0.087957073355422938 0 -0.34490434013980081 0.087402818136329205 0 -0.36066470124849598 0.087957073355422938 0 -0.34767135578574032 0.099432054452475827 0 -0.36660702705474019 0.074639361310034666 0 -0.34956782804785702 0.078274157859647697 0 -0.36066470124849598 0.087957073355422938 0 -0.34490434013980081 0.087402818136329205 0 -0.34956782804785702 0.078274157859647697 0 -0.33711144256143633 0.080119431509223543 0 -0.37804285338412053 0.099049560295472294 0 -0.377874145764523 0.085874469950543125 0 -0.36066470124849598 0.087957073355422938 0 -0.377874145764523 0.085874469950543125 0 -0.36660702705474019 0.074639361310034666 0 -0.36066470124849598 0.087957073355422938 0 -0.37804285338412053 0.099049560295472294 0 -0.36066470124849598 0.087957073355422938 0 -0.3658363385160055 0.1076327354000773 0 -0.37804285338412053 0.099049560295472294 0 -0.38015904838199821 0.12529305033380139 0 -0.3658363385160055 0.1076327354000773 0 -0.38015904838199821 0.12529305033380139 0 -0.36065567313482172 0.12797661595255691 0 -0.3658363385160055 0.1076327354000773 0 -0.3509323009719364 0.1171748886634135 0 -0.34767135578574032 0.099432054452475827 0 -0.33579338947684512 0.1144744519634515 0 -0.36065567313482172 0.12797661595255691 0 -0.3658363385160055 0.1076327354000773 0 -0.3509323009719364 0.1171748886634135 0 -0.3447047479462696 0.13635858554850611 0 -0.3509323009719364 0.1171748886634135 0 -0.33579338947684512 0.1144744519634515 0 -0.36066470124849598 0.087957073355422938 0 -0.3658363385160055 0.1076327354000773 0 -0.34767135578574032 0.099432054452475827 0 -0.3658363385160055 0.1076327354000773 0 -0.3509323009719364 0.1171748886634135 0 -0.34767135578574032 0.099432054452475827 0 -0.3658363385160055 0.1076327354000773 0 -0.34767135578574032 0.099432054452475827 0 -0.34767135578574032 0.099432054452475827 0 -0.3297617374826301 0.094181961471158593 0 -0.32950637305547442 0.091231373504876007 0 -0.34767135578574032 0.099432054452475827 0 -0.32950637305547442 0.091231373504876007 0 -0.33579338947684512 0.1144744519634515 0 -0.32688203100742053 0.09259031837839693 0 -0.3297617374826301 0.094181961471158593 0 -0.33579338947684512 0.1144744519634515 0 -0.32688203100742053 0.09259031837839693 0 -0.34767135578574032 0.099432054452475827 0 -0.3297617374826301 0.094181961471158593 0 -0.33579338947684512 0.1144744519634515 0 -0.33579338947684512 0.1144744519634515 0 -0.3198793781922627 0.1208060804587982 0 -0.32104232851064118 0.1075182649961037 0 -0.32615573354296978 0.13273268964692081 0 -0.33579338947684512 0.1144744519634515 0 -0.3198793781922627 0.1208060804587982 0 -0.31156315844750648 0.1321107028343074 0 -0.30890112067851239 0.1126687072307255 0 -0.3198793781922627 0.1208060804587982 0 -0.30890112067851239 0.1126687072307255 0 -0.3198793781922627 0.1208060804587982 0 -0.32104232851064118 0.1075182649961037 0 -0.30908974193557548 0.09940873138167855 0 -0.32104232851064118 0.1075182649961037 0 -0.32688203100742053 0.09259031837839693 0 -0.33579338947684512 0.1144744519634515 0 -0.32104232851064118 0.1075182649961037 0 -0.32688203100742053 0.09259031837839693 0 -0.30908974193557548 0.09940873138167855 0 -0.30890112067851239 0.1126687072307255 0 -0.32104232851064118 0.1075182649961037 0 -0.30908974193557548 0.09940873138167855 0 -0.30905797758167952 0.081999833367399744 0 -0.32688203100742053 0.09259031837839693 0 -0.30905797758167952 0.081999833367399744 0 -0.32688203100742053 0.09259031837839693 0 -0.32950637305547442 0.091231373504876007 0 -0.30905797758167952 0.081999833367399744 0 -0.32049517467495442 0.078733641012890487 0 -0.32950637305547442 0.091231373504876007 0 -0.32049517467495442 0.078733641012890487 0 -0.32772586706880857 0.070658658672808627 0 -0.32950637305547442 0.091231373504876007 0 -0.30905797758167952 0.081999833367399744 0 -0.32950637305547442 0.091231373504876007 0 -0.32594536108214378 0.050085943840741151 0 -0.31569048099385488 0.071044698506477627 0 -0.32772586706880857 0.070658658672808627 0 -0.30905797758167952 0.081999833367399744 0 -0.32049517467495442 0.078733641012890487 0 -0.31569048099385488 0.071044698506477627 0 -0.32049517467495442 0.078733641012890487 0 -0.31569048099385488 0.071044698506477627 0 -0.32772586706880857 0.070658658672808627 0 -0.32772586706880857 0.070658658672808627 0 -0.34211354321445359 0.070615258139624076 0 -0.33711144256143633 0.080119431509223543 0 -0.3394995154937156 0.06053897517848536 0 -0.32772586706880857 0.070658658672808627 0 -0.34211354321445359 0.070615258139624076 0 -0.34956782804785702 0.078274157859647697 0 -0.34211354321445359 0.070615258139624076 0 -0.33711144256143633 0.080119431509223543 0 -0.32772586706880857 0.070658658672808627 0 -0.32950637305547442 0.091231373504876007 0 -0.32772586706880857 0.070658658672808627 0 -0.33711144256143633 0.080119431509223543 0 -0.32950637305547442 0.091231373504876007 0 -0.34490434013980081 0.087402818136329205 0 -0.34767135578574032 0.099432054452475827 0 -0.32950637305547442 0.091231373504876007 0 -0.34490434013980081 0.087402818136329205 0 -0.33711144256143633 0.080119431509223543 0 -0.32950637305547442 0.091231373504876007 0 -0.3297617374826301 0.094181961471158593 0 -0.32950637305547442 0.091231373504876007 0 -0.3297617374826301 0.094181961471158593 0 -0.32688203100742053 0.09259031837839693 0 -0.32950637305547442 0.091231373504876007 0 -0.39340986872036943 0.47847686159125641 0 -0.39902266917126672 0.45762976207991291 0 -0.41396192375636182 0.47283109011922109 0 -0.39340986872036943 0.47847686159125641 0 -0.40206733440067749 0.5 0 -0.41680041680244989 0.4902619760574296 0 -0.39340986872036943 0.47847686159125641 0 -0.37145147134208079 0.47492047415535948 0 -0.37260116959713208 0.5 0 -0.39340986872036943 0.47847686159125641 0 -0.40206733440067749 0.5 0 -0.37260116959713208 0.5 0 -0.39340986872036943 0.47847686159125641 0 -0.38196615058521222 0.46232555044454787 0 -0.37145147134208079 0.47492047415535948 0 -0.39340986872036943 0.47847686159125641 0 -0.38196615058521222 0.46232555044454787 0 -0.39071266099244872 0.46077041008690872 0 -0.38196615058521222 0.46232555044454787 0 -0.38357449999343551 0.44947474228202539 0 -0.36985250797186892 0.45774409643025621 0 -0.38357449999343551 0.44947474228202539 0 -0.36985250797186892 0.45774409643025621 0 -0.38196615058521222 0.46232555044454787 0 -0.38357449999343551 0.44947474228202539 0 -0.38970863315721688 0.45194364205200838 0 -0.38196615058521222 0.46232555044454787 0 -0.38970863315721688 0.45194364205200838 0 -0.39071266099244872 0.46077041008690872 0 -0.38802568426535411 0.44588296056049298 0 -0.38357449999343551 0.44947474228202539 0 -0.37700386651057838 0.43281994941734597 0 -0.38802568426535411 0.44588296056049298 0 -0.39976270268382302 0.43763793998718881 0 -0.37700386651057838 0.43281994941734597 0 -0.38802568426535411 0.44588296056049298 0 -0.37700386651057838 0.43281994941734597 0 -0.38357449999343551 0.44947474228202539 0 -0.38970863315721688 0.45194364205200838 0 -0.38357449999343551 0.44947474228202539 0 -0.4046354696221659 0.43678266256856979 0 -0.38970863315721688 0.45194364205200838 0 -0.39902266917126672 0.45762976207991291 0 -0.4046354696221659 0.43678266256856979 0 -0.39902266917126672 0.45762976207991291 0 -0.4046354696221659 0.43678266256856979 0 -0.38802568426535411 0.44588296056049298 0 -0.38357449999343551 0.44947474228202539 0 -0.4046354696221659 0.43678266256856979 0 -0.38357449999343551 0.44947474228202539 0 -0.38970863315721688 0.45194364205200838 0 -0.4046354696221659 0.43678266256856979 0 -0.38802568426535411 0.44588296056049298 0 -0.39976270268382302 0.43763793998718881 0 -0.4046354696221659 0.43678266256856979 0 -0.39902266917126672 0.45762976207991291 0 -0.40769191675703409 0.44874951840219379 0 -0.4046354696221659 0.43678266256856979 0 -0.39340986872036943 0.47847686159125641 0 -0.39071266099244872 0.46077041008690872 0 -0.39902266917126672 0.45762976207991291 0 -0.39340986872036943 0.47847686159125641 0 -0.39902266917126672 0.45762976207991291 0 -0.38970863315721688 0.45194364205200838 0 -0.39071266099244872 0.46077041008690872 0 -0.39902266917126672 0.45762976207991291 0 -0.41351417206779872 0.45582710195314557 0 -0.43095767306328608 0.45997005566575999 0 -0.41396192375636182 0.47283109011922109 0 -0.39902266917126672 0.45762976207991291 0 -0.41351417206779872 0.45582710195314557 0 -0.41396192375636182 0.47283109011922109 0 -0.39902266917126672 0.45762976207991291 0 -0.41351417206779872 0.45582710195314557 0 -0.40769191675703409 0.44874951840219379 0 -0.41351417206779872 0.45582710195314557 0 -0.40769191675703409 0.44874951840219379 0 -0.4159366775910448 0.43995508349864032 0 -0.41351417206779872 0.45582710195314557 0 -0.4159366775910448 0.43995508349864032 0 -0.43095767306328608 0.45997005566575999 0 -0.40769191675703409 0.44874951840219379 0 -0.4159366775910448 0.43995508349864032 0 -0.4046354696221659 0.43678266256856979 0 -0.4159366775910448 0.43995508349864032 0 -0.43095767306328608 0.45997005566575999 0 -0.4159366775910448 0.43995508349864032 0 -0.43696488849727799 0.43910360734703618 0 -0.43095767306328608 0.45997005566575999 0 -0.43095767306328608 0.45997005566575999 0 -0.41396192375636182 0.47283109011922109 0 -0.44597866853552742 0.47998502783287972 0 -0.41396192375636182 0.47283109011922109 0 -0.41680041680244989 0.4902619760574296 0 -0.44597866853552742 0.47998502783287972 0 -0.39340986872036943 0.47847686159125641 0 -0.41396192375636182 0.47283109011922109 0 -0.41680041680244989 0.4902619760574296 0 -0.40206733440067749 0.5 0 -0.41680041680244989 0.4902619760574296 0 -0.43153349920422301 0.5 0 -0.41680041680244989 0.4902619760574296 0 -0.43153349920422301 0.5 0 -0.44597866853552742 0.47998502783287972 0 -0.5 0.5 0 -0.47387259881690491 0.46563206010587072 0 -0.5 0.41987183277431589 0 -0.44597866853552742 0.47998502783287972 0 -0.46099966400776848 0.49999999999999961 0 -0.47387259881690491 0.46563206010587072 0 -0.43153349920422301 0.5 0 -0.44597866853552742 0.47998502783287972 0 -0.46099966400776848 0.49999999999999961 0 -0.43095767306328608 0.45997005566575999 0 -0.44597866853552742 0.47998502783287972 0 -0.44597866853552742 0.47998502783287972 0 -0.46099966400776848 0.49999999999999961 0 -0.46099966400776848 0.49999999999999961 0 -0.5 0.5 0 -0.47387259881690491 0.46563206010587072 0 -0.47387259881690491 0.46563206010587072 0 -0.46298153777203133 0.42820276893279091 0 -0.5 0.41987183277431589 0 -0.47387259881690491 0.46563206010587072 0 -0.45034298572646231 0.45446003559464943 0 -0.46298153777203133 0.42820276893279091 0 -0.44597866853552742 0.47998502783287972 0 -0.47387259881690491 0.46563206010587072 0 -0.45034298572646231 0.45446003559464943 0 -0.43095767306328608 0.45997005566575999 0 -0.44597866853552742 0.47998502783287972 0 -0.45034298572646231 0.45446003559464943 0 -0.43696488849727799 0.43910360734703618 0 -0.43095767306328608 0.45997005566575999 0 -0.45034298572646231 0.45446003559464943 0 -0.43696488849727799 0.43910360734703618 0 -0.45034298572646231 0.45446003559464943 0 -0.46298153777203133 0.42820276893279091 0 -0.45355831016456782 0.407012508626097 0 -0.46298153777203133 0.42820276893279091 0 -0.47544103967192941 0.39659899887284011 0 -0.43696488849727799 0.43910360734703618 0 -0.46298153777203133 0.42820276893279091 0 -0.43562586022539029 0.41810676517063627 0 -0.45355831016456782 0.407012508626097 0 -0.43377416788321832 0.39979855530697028 0 -0.43562586022539029 0.41810676517063627 0 -0.45355831016456782 0.407012508626097 0 -0.46298153777203133 0.42820276893279091 0 -0.43562586022539029 0.41810676517063627 0 -0.46298153777203133 0.42820276893279091 0 -0.5 0.41987183277431589 0 -0.47544103967192941 0.39659899887284011 0 -0.5 0.41987183277431589 0 -0.47544103967192941 0.39659899887284011 0 -0.5 0.36102136840824889 0 -0.47544103967192941 0.39659899887284011 0 -0.47518292677707319 0.37020038316674259 0 -0.5 0.36102136840824889 0 -0.47544103967192941 0.39659899887284011 0 -0.45551921662651168 0.38715534733427748 0 -0.47518292677707319 0.37020038316674259 0 -0.45355831016456782 0.407012508626097 0 -0.47544103967192941 0.39659899887284011 0 -0.45551921662651168 0.38715534733427748 0 -0.45355831016456782 0.407012508626097 0 -0.45551921662651168 0.38715534733427748 0 -0.43377416788321832 0.39979855530697028 0 -0.45551921662651168 0.38715534733427748 0 -0.4368198845341329 0.38009397786819382 0 -0.43377416788321832 0.39979855530697028 0 -0.45551921662651168 0.38715534733427748 0 -0.4368198845341329 0.38009397786819382 0 -0.45024633034321532 0.36514947141111992 0 -0.4368198845341329 0.38009397786819382 0 -0.41869925507287892 0.38454686025167639 0 -0.43377416788321832 0.39979855530697028 0 -0.4368198845341329 0.38009397786819382 0 -0.41869925507287892 0.38454686025167639 0 -0.42586045274484069 0.36381965503692482 0 -0.41869925507287892 0.38454686025167639 0 -0.40147778116132871 0.38883355985551882 0 -0.4101482392820805 0.37254862533153582 0 -0.41869925507287892 0.38454686025167639 0 -0.41261971288793381 0.40712753491163173 0 -0.40147778116132871 0.38883355985551882 0 -0.41869925507287892 0.38454686025167639 0 -0.41261971288793381 0.40712753491163173 0 -0.41869925507287892 0.38454686025167639 0 -0.43377416788321832 0.39979855530697028 0 -0.41261971288793381 0.40712753491163173 0 -0.43377416788321832 0.39979855530697028 0 -0.43562586022539029 0.41810676517063627 0 -0.42483456420435928 0.41360201664740992 0 -0.43377416788321832 0.39979855530697028 0 -0.42483456420435928 0.41360201664740992 0 -0.41261971288793381 0.40712753491163173 0 -0.43562586022539029 0.41810676517063627 0 -0.42483456420435928 0.41360201664740992 0 -0.42013066492377849 0.4274447138696037 0 -0.4159366775910448 0.43995508349864032 0 -0.43696488849727799 0.43910360734703618 0 -0.42013066492377849 0.4274447138696037 0 -0.43696488849727799 0.43910360734703618 0 -0.43562586022539029 0.41810676517063627 0 -0.42013066492377849 0.4274447138696037 0 -0.43562586022539029 0.41810676517063627 0 -0.42013066492377849 0.4274447138696037 0 -0.42013066492377849 0.4274447138696037 0 -0.4046354696221659 0.43678266256856979 0 -0.42013066492377849 0.4274447138696037 0 -0.40857143178215372 0.43367155452754941 0 -0.4046354696221659 0.43678266256856979 0 -0.42013066492377849 0.4274447138696037 0 -0.4065401707029882 0.42970820957158679 0 -0.40857143178215372 0.43367155452754941 0 -0.4159366775910448 0.43995508349864032 0 -0.42013066492377849 0.4274447138696037 0 -0.4046354696221659 0.43678266256856979 0 -0.4065401707029882 0.42970820957158679 0 -0.40857143178215372 0.43367155452754941 0 -0.4046354696221659 0.43678266256856979 0 -0.4065401707029882 0.42970820957158679 0 -0.40857143178215372 0.43367155452754941 0 -0.42013066492377849 0.4274447138696037 0 -0.4065401707029882 0.42970820957158679 0 -0.41261971288793381 0.40712753491163173 0 -0.4065401707029882 0.42970820957158679 0 -0.41261971288793381 0.40712753491163173 0 -0.42483456420435928 0.41360201664740992 0 -0.42013066492377849 0.4274447138696037 0 -0.41261971288793381 0.40712753491163173 0 -0.4065401707029882 0.42970820957158679 0 -0.39486697608323851 0.40693176911758422 0 -0.39232834634424962 0.42524822850653637 0 -0.4065401707029882 0.42970820957158679 0 -0.39486697608323851 0.40693176911758422 0 -0.39486697608323851 0.40693176911758422 0 -0.39232834634424962 0.42524822850653637 0 -0.38508993310262762 0.41491499694836781 0 -0.4065401707029882 0.42970820957158679 0 -0.41261971288793381 0.40712753491163173 0 -0.39486697608323851 0.40693176911758422 0 -0.39976270268382302 0.43763793998718881 0 -0.4046354696221659 0.43678266256856979 0 -0.4011242179143516 0.43218339121435612 0 -0.4065401707029882 0.42970820957158679 0 -0.4046354696221659 0.43678266256856979 0 -0.4011242179143516 0.43218339121435612 0 -0.4065401707029882 0.42970820957158679 0 -0.4046354696221659 0.43678266256856979 0 -0.4065401707029882 0.42970820957158679 0 -0.4011242179143516 0.43218339121435612 0 -0.39232834634424962 0.42524822850653637 0 -0.39976270268382302 0.43763793998718881 0 -0.4011242179143516 0.43218339121435612 0 -0.39232834634424962 0.42524822850653637 0 -0.39976270268382302 0.43763793998718881 0 -0.39232834634424962 0.42524822850653637 0 -0.37700386651057838 0.43281994941734597 0 -0.39976270268382302 0.43763793998718881 0 -0.37700386651057838 0.43281994941734597 0 -0.38243114464577582 0.42206344604012119 0 -0.37700386651057838 0.43281994941734597 0 -0.3753024326256475 0.415270609288235 0 -0.39232834634424962 0.42524822850653637 0 -0.38243114464577582 0.42206344604012119 0 -0.37700386651057838 0.43281994941734597 0 -0.39486697608323851 0.40693176911758422 0 -0.38508993310262762 0.41491499694836781 0 -0.38199429539907243 0.40354489834884288 0 -0.39232834634424962 0.42524822850653637 0 -0.38243114464577582 0.42206344604012119 0 -0.38508993310262762 0.41491499694836781 0 -0.38243114464577582 0.42206344604012119 0 -0.38508993310262762 0.41491499694836781 0 -0.3753024326256475 0.415270609288235 0 -0.38508993310262762 0.41491499694836781 0 -0.3753024326256475 0.415270609288235 0 -0.38199429539907243 0.40354489834884288 0 -0.39486697608323851 0.40693176911758422 0 -0.38199429539907243 0.40354489834884288 0 -0.38319378146349098 0.38415532866358049 0 -0.3753024326256475 0.415270609288235 0 -0.38199429539907243 0.40354489834884288 0 -0.37074175630953887 0.39739768255072361 0 -0.39486697608323851 0.40693176911758422 0 -0.38319378146349098 0.38415532866358049 0 -0.38199429539907243 0.40354489834884288 0 -0.38319378146349098 0.38415532866358049 0 -0.37074175630953887 0.39739768255072361 0 -0.38319378146349098 0.38415532866358049 0 -0.37074175630953887 0.39739768255072361 0 -0.38319378146349098 0.38415532866358049 0 -0.39548798559074072 0.37108081268718801 0 -0.40147778116132871 0.38883355985551882 0 -0.39548798559074072 0.37108081268718801 0 -0.4101482392820805 0.37254862533153582 0 -0.38319378146349098 0.38415532866358049 0 -0.40147778116132871 0.38883355985551882 0 -0.39548798559074072 0.37108081268718801 0 -0.39486697608323851 0.40693176911758422 0 -0.38319378146349098 0.38415532866358049 0 -0.40147778116132871 0.38883355985551882 0 -0.41261971288793381 0.40712753491163173 0 -0.39486697608323851 0.40693176911758422 0 -0.40147778116132871 0.38883355985551882 0 -0.39608059821172531 0.35609300288532469 0 -0.40168391176567259 0.34595758428574508 0 -0.38852837653544031 0.34699353768145141 0 -0.39608059821172531 0.35609300288532469 0 -0.40168391176567259 0.34595758428574508 0 -0.40778218971798991 0.35800629671079498 0 -0.39608059821172531 0.35609300288532469 0 -0.39548798559074072 0.37108081268718801 0 -0.40778218971798991 0.35800629671079498 0 -0.39548798559074072 0.37108081268718801 0 -0.40778218971798991 0.35800629671079498 0 -0.39548798559074072 0.37108081268718801 0 -0.40778218971798991 0.35800629671079498 0 -0.4101482392820805 0.37254862533153582 0 -0.39608059821172531 0.35609300288532469 0 -0.39548798559074072 0.37108081268718801 0 -0.38692052744878302 0.35842678306144438 0 -0.39548798559074072 0.37108081268718801 0 -0.38411569465526563 0.3697151009907329 0 -0.38692052744878302 0.35842678306144438 0 -0.38411569465526563 0.3697151009907329 0 -0.38027737096482422 0.36277382621864263 0 -0.38692052744878302 0.35842678306144438 0 -0.38319378146349098 0.38415532866358049 0 -0.37353936917537611 0.36531788495073808 0 -0.38319378146349098 0.38415532866358049 0 -0.38411569465526563 0.3697151009907329 0 -0.37353936917537611 0.36531788495073808 0 -0.38319378146349098 0.38415532866358049 0 -0.37353936917537611 0.36531788495073808 0 -0.3705431614235668 0.37254791364451911 0 -0.38319378146349098 0.38415532866358049 0 -0.39548798559074072 0.37108081268718801 0 -0.38411569465526563 0.3697151009907329 0 -0.38411569465526563 0.3697151009907329 0 -0.38027737096482422 0.36277382621864263 0 -0.37353936917537611 0.36531788495073808 0 -0.38027737096482422 0.36277382621864263 0 -0.38100291745562648 0.35857982571845121 0 -0.38692052744878302 0.35842678306144438 0 -0.38027737096482422 0.36277382621864263 0 -0.37580834608906982 0.36182953637184628 0 -0.38100291745562648 0.35857982571845121 0 -0.38027737096482422 0.36277382621864263 0 -0.37580834608906982 0.36182953637184628 0 -0.37353936917537611 0.36531788495073808 0 -0.38100291745562648 0.35857982571845121 0 -0.38692052744878302 0.35842678306144438 0 -0.37918555484205568 0.3505400947690257 0 -0.37580834608906982 0.36182953637184628 0 -0.38100291745562648 0.35857982571845121 0 -0.37918555484205568 0.3505400947690257 0 -0.38692052744878302 0.35842678306144438 0 -0.38852837653544031 0.34699353768145141 0 -0.37918555484205568 0.3505400947690257 0 -0.39608059821172531 0.35609300288532469 0 -0.38692052744878302 0.35842678306144438 0 -0.38852837653544031 0.34699353768145141 0 -0.38852837653544031 0.34699353768145141 0 -0.37918555484205568 0.3505400947690257 0 -0.37906719231399549 0.33714418589191503 0 -0.37906719231399549 0.33714418589191503 0 -0.38615637183148599 0.32609982203653509 0 -0.39202970792404562 0.3379249373586064 0 -0.38852837653544031 0.34699353768145141 0 -0.37906719231399549 0.33714418589191503 0 -0.39202970792404562 0.3379249373586064 0 -0.37906719231399549 0.33714418589191503 0 -0.38615637183148599 0.32609982203653509 0 -0.36760005648933819 0.31877008717568522 0 -0.39642661286538933 0.31731311753141661 0 -0.37295462397507217 0.31131695018609351 0 -0.36760005648933819 0.31877008717568522 0 -0.38615637183148599 0.32609982203653509 0 -0.36760005648933819 0.31877008717568522 0 -0.39642661286538933 0.31731311753141661 0 -0.36760005648933819 0.31877008717568522 0 -0.38615637183148599 0.32609982203653509 0 -0.39642661286538933 0.31731311753141661 0 -0.36760005648933819 0.31877008717568522 0 -0.39642661286538933 0.31731311753141661 0 -0.37295462397507217 0.31131695018609351 0 -0.38615637183148599 0.32609982203653509 0 -0.39642661286538933 0.31731311753141661 0 -0.40471268717363362 0.33342955689738552 0 -0.39642661286538933 0.31731311753141661 0 -0.41177687591846329 0.31653727504062013 0 -0.39642661286538933 0.31731311753141661 0 -0.41177687591846329 0.31653727504062013 0 -0.40301153479583829 0.30414981954983411 0 -0.38615637183148599 0.32609982203653509 0 -0.40471268717363362 0.33342955689738552 0 -0.38615637183148599 0.32609982203653509 0 -0.39202970792404562 0.3379249373586064 0 -0.40471268717363362 0.33342955689738552 0 -0.40168391176567259 0.34595758428574508 0 -0.38852837653544031 0.34699353768145141 0 -0.39202970792404562 0.3379249373586064 0 -0.40168391176567259 0.34595758428574508 0 -0.39202970792404562 0.3379249373586064 0 -0.40471268717363362 0.33342955689738552 0 -0.40168391176567259 0.34595758428574508 0 -0.40471268717363362 0.33342955689738552 0 -0.41890686950811962 0.34315513627077038 0 -0.40471268717363362 0.33342955689738552 0 -0.41890686950811962 0.34315513627077038 0 -0.42248354486935857 0.32396963588321098 0 -0.39642661286538933 0.31731311753141661 0 -0.41177687591846329 0.31653727504062013 0 -0.42248354486935857 0.32396963588321098 0 -0.39642661286538933 0.31731311753141661 0 -0.40471268717363362 0.33342955689738552 0 -0.42248354486935857 0.32396963588321098 0 -0.39642661286538933 0.31731311753141661 0 -0.42248354486935857 0.32396963588321098 0 -0.41177687591846329 0.31653727504062013 0 -0.42248354486935857 0.32396963588321098 0 -0.42246628995519242 0.30997529208591662 0 -0.42248354486935857 0.32396963588321098 0 -0.43407134589639113 0.31323342036233393 0 -0.42246628995519242 0.30997529208591662 0 -0.42248354486935857 0.32396963588321098 0 -0.43680904408736682 0.32780984440870042 0 -0.43407134589639113 0.31323342036233393 0 -0.41890686950811962 0.34315513627077038 0 -0.42897422833190513 0.33446988020441282 0 -0.44006632082403929 0.34382500303524621 0 -0.41890686950811962 0.34315513627077038 0 -0.42248354486935857 0.32396963588321098 0 -0.42897422833190513 0.33446988020441282 0 -0.43680904408736682 0.32780984440870042 0 -0.42897422833190513 0.33446988020441282 0 -0.44006632082403929 0.34382500303524621 0 -0.42248354486935857 0.32396963588321098 0 -0.43680904408736682 0.32780984440870042 0 -0.42897422833190513 0.33446988020441282 0 -0.41890686950811962 0.34315513627077038 0 -0.42586045274484069 0.36381965503692482 0 -0.44006632082403929 0.34382500303524621 0 -0.40168391176567259 0.34595758428574508 0 -0.41890686950811962 0.34315513627077038 0 -0.40778218971798991 0.35800629671079498 0 -0.41890686950811962 0.34315513627077038 0 -0.40778218971798991 0.35800629671079498 0 -0.42586045274484069 0.36381965503692482 0 -0.41869925507287892 0.38454686025167639 0 -0.4101482392820805 0.37254862533153582 0 -0.42586045274484069 0.36381965503692482 0 -0.40778218971798991 0.35800629671079498 0 -0.4101482392820805 0.37254862533153582 0 -0.42586045274484069 0.36381965503692482 0 -0.4368198845341329 0.38009397786819382 0 -0.42586045274484069 0.36381965503692482 0 -0.45024633034321532 0.36514947141111992 0 -0.45024633034321532 0.36514947141111992 0 -0.44006632082403929 0.34382500303524621 0 -0.45413610881771621 0.34961663129969822 0 -0.42586045274484069 0.36381965503692482 0 -0.45024633034321532 0.36514947141111992 0 -0.44006632082403929 0.34382500303524621 0 -0.44006632082403929 0.34382500303524621 0 -0.45413610881771621 0.34961663129969822 0 -0.45769520107156703 0.33844567437976059 0 -0.45024633034321532 0.36514947141111992 0 -0.45413610881771621 0.34961663129969822 0 -0.46853658303204332 0.35104637637266589 0 -0.45413610881771621 0.34961663129969822 0 -0.46853658303204332 0.35104637637266589 0 -0.45769520107156703 0.33844567437976059 0 -0.45551921662651168 0.38715534733427748 0 -0.45024633034321532 0.36514947141111992 0 -0.47518292677707319 0.37020038316674259 0 -0.45024633034321532 0.36514947141111992 0 -0.46853658303204332 0.35104637637266589 0 -0.47518292677707319 0.37020038316674259 0 -0.46853658303204332 0.35104637637266589 0 -0.47518292677707319 0.37020038316674259 0 -0.49124680183232378 0.34767775894946529 0 -0.46853658303204332 0.35104637637266589 0 -0.49124680183232378 0.34767775894946529 0 -0.4810311944004268 0.33958614435613199 0 -0.47518292677707319 0.37020038316674259 0 -0.49124680183232378 0.34767775894946529 0 -0.5 0.36102136840824889 0 -0.49124680183232378 0.34767775894946529 0 -0.5 0.36102136840824889 0 -0.5 0.31779665248144517 0 -0.5 0.31779665248144517 0 -0.48499207123758797 0.32717065738982593 0 -0.47873734064285411 0.3066635558301859 0 -0.49124680183232378 0.34767775894946529 0 -0.5 0.31779665248144517 0 -0.48499207123758797 0.32717065738982593 0 -0.49124680183232378 0.34767775894946529 0 -0.48499207123758797 0.32717065738982593 0 -0.49124680183232378 0.34767775894946529 0 -0.48499207123758797 0.32717065738982593 0 -0.4810311944004268 0.33958614435613199 0 -0.46853658303204332 0.35104637637266589 0 -0.47363696183744952 0.32885496610142612 0 -0.48499207123758797 0.32717065738982593 0 -0.4810311944004268 0.33958614435613199 0 -0.47363696183744952 0.32885496610142612 0 -0.46853658303204332 0.35104637637266589 0 -0.4810311944004268 0.33958614435613199 0 -0.47363696183744952 0.32885496610142612 0 -0.47363696183744952 0.32885496610142612 0 -0.46468699848466372 0.31511611505231579 0 -0.47873734064285411 0.3066635558301859 0 -0.47363696183744952 0.32885496610142612 0 -0.47873734064285411 0.3066635558301859 0 -0.48499207123758797 0.32717065738982593 0 -0.47363696183744952 0.32885496610142612 0 -0.47873734064285411 0.3066635558301859 0 -0.48499207123758797 0.32717065738982593 0 -0.47873734064285411 0.3066635558301859 0 -0.46468699848466372 0.31511611505231579 0 -0.44876495037233399 0.3190335448314604 0 -0.45526414731005382 0.30882794924208901 0 -0.46468699848466372 0.31511611505231579 0 -0.46130730432174999 0.32640169137951303 0 -0.44876495037233399 0.3190335448314604 0 -0.47363696183744952 0.32885496610142612 0 -0.46468699848466372 0.31511611505231579 0 -0.46130730432174999 0.32640169137951303 0 -0.46853658303204332 0.35104637637266589 0 -0.47363696183744952 0.32885496610142612 0 -0.45769520107156703 0.33844567437976059 0 -0.47363696183744952 0.32885496610142612 0 -0.46130730432174999 0.32640169137951303 0 -0.45769520107156703 0.33844567437976059 0 -0.46130730432174999 0.32640169137951303 0 -0.45769520107156703 0.33844567437976059 0 -0.44803498738176961 0.33032130730053783 0 -0.44006632082403929 0.34382500303524621 0 -0.45769520107156703 0.33844567437976059 0 -0.44803498738176961 0.33032130730053783 0 -0.43680904408736682 0.32780984440870042 0 -0.44006632082403929 0.34382500303524621 0 -0.44803498738176961 0.33032130730053783 0 -0.46130730432174999 0.32640169137951303 0 -0.44803498738176961 0.33032130730053783 0 -0.44876495037233399 0.3190335448314604 0 -0.43680904408736682 0.32780984440870042 0 -0.44803498738176961 0.33032130730053783 0 -0.44876495037233399 0.3190335448314604 0 -0.43407134589639113 0.31323342036233393 0 -0.44876495037233399 0.3190335448314604 0 -0.44456863667783469 0.30600822541360129 0 -0.43680904408736682 0.32780984440870042 0 -0.43407134589639113 0.31323342036233393 0 -0.44876495037233399 0.3190335448314604 0 -0.44456863667783469 0.30600822541360129 0 -0.44358508017626452 0.29203780545737962 0 -0.43243771552247268 0.29783856651619961 0 -0.44456863667783469 0.30600822541360129 0 -0.45311248922273289 0.29925616308529362 0 -0.44358508017626452 0.29203780545737962 0 -0.44456863667783469 0.30600822541360129 0 -0.45311248922273289 0.29925616308529362 0 -0.45526414731005382 0.30882794924208901 0 -0.44876495037233399 0.3190335448314604 0 -0.44456863667783469 0.30600822541360129 0 -0.45526414731005382 0.30882794924208901 0 -0.44358508017626452 0.29203780545737962 0 -0.43749048551119191 0.28151631566062019 0 -0.43243771552247268 0.29783856651619961 0 -0.45311248922273289 0.29925616308529362 0 -0.44358508017626452 0.29203780545737962 0 -0.45467350514747013 0.27906683045461861 0 -0.44358508017626452 0.29203780545737962 0 -0.45467350514747013 0.27906683045461861 0 -0.43749048551119191 0.28151631566062019 0 -0.45311248922273289 0.29925616308529362 0 -0.46604840587062202 0.2971581329144895 0 -0.45467350514747013 0.27906683045461861 0 -0.46604840587062202 0.2971581329144895 0 -0.47109180812606838 0.28159649507921353 0 -0.45467350514747013 0.27906683045461861 0 -0.46468699848466372 0.31511611505231579 0 -0.45526414731005382 0.30882794924208901 0 -0.46604840587062202 0.2971581329144895 0 -0.45311248922273289 0.29925616308529362 0 -0.45526414731005382 0.30882794924208901 0 -0.46604840587062202 0.2971581329144895 0 -0.5 0.31779665248144517 0 -0.50000000000000133 0.28605055043681032 0 -0.49069436496247348 0.29852556909159322 0 -0.46468699848466372 0.31511611505231579 0 -0.46604840587062202 0.2971581329144895 0 -0.47873734064285411 0.3066635558301859 0 -0.47873734064285411 0.3066635558301859 0 -0.48404011920703799 0.28359151761793111 0 -0.47873734064285411 0.3066635558301859 0 -0.47109180812606838 0.28159649507921353 0 -0.47873734064285411 0.3066635558301859 0 -0.47109180812606838 0.28159649507921353 0 -0.48404011920703799 0.28359151761793111 0 -0.46604840587062202 0.2971581329144895 0 -0.47873734064285411 0.3066635558301859 0 -0.47109180812606838 0.28159649507921353 0 -0.47109180812606838 0.28159649507921353 0 -0.48404011920703799 0.28359151761793111 0 -0.48404011920703799 0.28359151761793111 0 -0.50000000000000133 0.28605055043681032 0 -0.49069436496247348 0.29852556909159322 0 -0.48404011920703799 0.28359151761793111 0 -0.50000000000000133 0.28605055043681032 0 -0.47873734064285411 0.3066635558301859 0 -0.48404011920703799 0.28359151761793111 0 -0.49069436496247348 0.29852556909159322 0 -0.5 0.31779665248144517 0 -0.47873734064285411 0.3066635558301859 0 -0.49069436496247348 0.29852556909159322 0 -0.49445852599850509 0.2382617199101506 0 -0.4892493226027716 0.26092661876404077 0 -0.5 0.25611761196898658 0 -0.48368830479211727 0.24590756946306941 0 -0.4892493226027716 0.26092661876404077 0 -0.48069604346874462 0.25546786677292138 0 -0.4892493226027716 0.26092661876404077 0 -0.5 0.25611761196898658 0 -0.49332236045245242 0.27167157469694209 0 -0.48404011920703799 0.28359151761793111 0 -0.4892493226027716 0.26092661876404077 0 -0.48075494667388757 0.2668779513353508 0 -0.48404011920703799 0.28359151761793111 0 -0.4892493226027716 0.26092661876404077 0 -0.49332236045245242 0.27167157469694209 0 -0.50000000000000133 0.28605055043681032 0 -0.5 0.25611761196898658 0 -0.49332236045245242 0.27167157469694209 0 -0.48404011920703799 0.28359151761793111 0 -0.4892493226027716 0.26092661876404077 0 -0.48404011920703799 0.28359151761793111 0 -0.50000000000000133 0.28605055043681032 0 -0.49332236045245242 0.27167157469694209 0 -0.48404011920703799 0.28359151761793111 0 -0.48075494667388757 0.2668779513353508 0 -0.47449233051921391 0.27577945351122679 0 -0.47109180812606838 0.28159649507921353 0 -0.47449233051921391 0.27577945351122679 0 -0.46750997712448811 0.26777914208546949 0 -0.47109180812606838 0.28159649507921353 0 -0.48404011920703799 0.28359151761793111 0 -0.47449233051921391 0.27577945351122679 0 -0.47109180812606838 0.28159649507921353 0 -0.46750997712448811 0.26777914208546949 0 -0.48075494667388757 0.2668779513353508 0 -0.47449233051921391 0.27577945351122679 0 -0.47417256221340859 0.26070444730135428 0 -0.47449233051921391 0.27577945351122679 0 -0.46750997712448811 0.26777914208546949 0 -0.47449233051921391 0.27577945351122679 0 -0.47417256221340859 0.26070444730135428 0 -0.46750997712448811 0.26777914208546949 0 -0.4892493226027716 0.26092661876404077 0 -0.48075494667388757 0.2668779513353508 0 -0.48069604346874462 0.25546786677292138 0 -0.48075494667388757 0.2668779513353508 0 -0.47417256221340859 0.26070444730135428 0 -0.48069604346874462 0.25546786677292138 0 -0.47429755291000419 0.24562381763634661 0 -0.47417256221340859 0.26070444730135428 0 -0.48069604346874462 0.25546786677292138 0 -0.47429755291000419 0.24562381763634661 0 -0.46577102953652549 0.24905509368475259 0 -0.47417256221340859 0.26070444730135428 0 -0.46577102953652549 0.24905509368475259 0 -0.47417256221340859 0.26070444730135428 0 -0.45490192420167802 0.25333295980957649 0 -0.47417256221340859 0.26070444730135428 0 -0.45490192420167802 0.25333295980957649 0 -0.46750997712448811 0.26777914208546949 0 -0.45490192420167802 0.25333295980957649 0 -0.46750997712448811 0.26777914208546949 0 -0.45490192420167802 0.25333295980957649 0 -0.46750997712448811 0.26777914208546949 0 -0.45522715856127088 0.26668047759953839 0 -0.47109180812606838 0.28159649507921353 0 -0.46750997712448811 0.26777914208546949 0 -0.45467350514747013 0.27906683045461861 0 -0.47109180812606838 0.28159649507921353 0 -0.45467350514747013 0.27906683045461861 0 -0.46750997712448811 0.26777914208546949 0 -0.45522715856127088 0.26668047759953839 0 -0.45467350514747013 0.27906683045461861 0 -0.45467350514747013 0.27906683045461861 0 -0.44432276014611211 0.26610700607359988 0 -0.43749048551119191 0.28151631566062019 0 -0.45522715856127088 0.26668047759953839 0 -0.45467350514747013 0.27906683045461861 0 -0.44432276014611211 0.26610700607359988 0 -0.45490192420167802 0.25333295980957649 0 -0.44432276014611211 0.26610700607359988 0 -0.43322189072838602 0.25018414293199998 0 -0.45490192420167802 0.25333295980957649 0 -0.45522715856127088 0.26668047759953839 0 -0.44432276014611211 0.26610700607359988 0 -0.44432276014611211 0.26610700607359988 0 -0.43322189072838602 0.25018414293199998 0 -0.42716390144242278 0.26862506585539803 0 -0.41315111516502517 0.24275132308983971 0 -0.43322189072838602 0.25018414293199998 0 -0.42716390144242278 0.26862506585539803 0 -0.41315111516502517 0.24275132308983971 0 -0.40673300605190121 0.26767398370548029 0 -0.42716390144242278 0.26862506585539803 0 -0.40673300605190121 0.26767398370548029 0 -0.42716390144242278 0.26862506585539803 0 -0.42054803570266103 0.28394411279333198 0 -0.40673300605190121 0.26767398370548029 0 -0.42054803570266103 0.28394411279333198 0 -0.40389436293567682 0.28854349601385731 0 -0.42716390144242278 0.26862506585539803 0 -0.43749048551119191 0.28151631566062019 0 -0.42054803570266103 0.28394411279333198 0 -0.44432276014611211 0.26610700607359988 0 -0.42716390144242278 0.26862506585539803 0 -0.43749048551119191 0.28151631566062019 0 -0.43243771552247268 0.29783856651619961 0 -0.41556874275230088 0.29946724900843641 0 -0.42054803570266103 0.28394411279333198 0 -0.43749048551119191 0.28151631566062019 0 -0.43243771552247268 0.29783856651619961 0 -0.42054803570266103 0.28394411279333198 0 -0.43243771552247268 0.29783856651619961 0 -0.42246628995519242 0.30997529208591662 0 -0.41556874275230088 0.29946724900843641 0 -0.43407134589639113 0.31323342036233393 0 -0.44456863667783469 0.30600822541360129 0 -0.43243771552247268 0.29783856651619961 0 -0.43407134589639113 0.31323342036233393 0 -0.43243771552247268 0.29783856651619961 0 -0.42246628995519242 0.30997529208591662 0 -0.41177687591846329 0.31653727504062013 0 -0.41556874275230088 0.29946724900843641 0 -0.40301153479583829 0.30414981954983411 0 -0.41177687591846329 0.31653727504062013 0 -0.42246628995519242 0.30997529208591662 0 -0.41556874275230088 0.29946724900843641 0 -0.41556874275230088 0.29946724900843641 0 -0.40389436293567682 0.28854349601385731 0 -0.40301153479583829 0.30414981954983411 0 -0.41556874275230088 0.29946724900843641 0 -0.42054803570266103 0.28394411279333198 0 -0.40389436293567682 0.28854349601385731 0 -0.40389436293567682 0.28854349601385731 0 -0.38739107950736151 0.29888796015484009 0 -0.38853930137585052 0.27711944751273992 0 -0.40389436293567682 0.28854349601385731 0 -0.40301153479583829 0.30414981954983411 0 -0.38739107950736151 0.29888796015484009 0 -0.39642661286538933 0.31731311753141661 0 -0.40301153479583829 0.30414981954983411 0 -0.38739107950736151 0.29888796015484009 0 -0.39642661286538933 0.31731311753141661 0 -0.38739107950736151 0.29888796015484009 0 -0.37295462397507217 0.31131695018609351 0 -0.38739107950736151 0.29888796015484009 0 -0.37295462397507217 0.31131695018609351 0 -0.36783982085410288 0.29794816612943742 0 -0.38739107950736151 0.29888796015484009 0 -0.37248135068276822 0.28523962060280661 0 -0.36783982085410288 0.29794816612943742 0 -0.38739107950736151 0.29888796015484009 0 -0.38853930137585052 0.27711944751273992 0 -0.37248135068276822 0.28523962060280661 0 -0.38853930137585052 0.27711944751273992 0 -0.36883030972682501 0.26648103705362119 0 -0.37248135068276822 0.28523962060280661 0 -0.38853930137585052 0.27711944751273992 0 -0.39099071244592531 0.25461618007173081 0 -0.36883030972682501 0.26648103705362119 0 -0.39099071244592531 0.25461618007173081 0 -0.36883030972682501 0.26648103705362119 0 -0.38645410250480378 0.25192413442107381 0 -0.39099071244592531 0.25461618007173081 0 -0.36883030972682501 0.26648103705362119 0 -0.38645410250480378 0.25192413442107381 0 -0.36883030972682501 0.26648103705362119 0 -0.38645410250480378 0.25192413442107381 0 -0.37230098287792679 0.25294325508864451 0 -0.36883030972682501 0.26648103705362119 0 -0.41315111516502517 0.24275132308983971 0 -0.40673300605190121 0.26767398370548029 0 -0.39099071244592531 0.25461618007173081 0 -0.40673300605190121 0.26767398370548029 0 -0.38853930137585052 0.27711944751273992 0 -0.39099071244592531 0.25461618007173081 0 -0.40673300605190121 0.26767398370548029 0 -0.40389436293567682 0.28854349601385731 0 -0.38853930137585052 0.27711944751273992 0 -0.35586434715294468 0.27342311719185031 0 -0.34742398918178019 0.27391142714713967 0 -0.33886310680047249 0.28252571735006832 0 -0.35586434715294468 0.27342311719185031 0 -0.34136089237065409 0.26929466540867708 0 -0.33860999464984998 0.26115338908824132 0 -0.35586434715294468 0.27342311719185031 0 -0.33860999464984998 0.26115338908824132 0 -0.35586434715294468 0.27342311719185031 0 -0.33886310680047249 0.28252571735006832 0 -0.35586434715294468 0.27342311719185031 0 -0.34742398918178019 0.27391142714713967 0 -0.34136089237065409 0.26929466540867708 0 -0.34395163351421038 0.25557401269268892 0 -0.35692133885755889 0.25981776918475608 0 -0.33860999464984998 0.26115338908824132 0 -0.35586434715294468 0.27342311719185031 0 -0.35692133885755889 0.25981776918475608 0 -0.33860999464984998 0.26115338908824132 0 -0.36229426548866411 0.2453881584102689 0 -0.34395163351421038 0.25557401269268892 0 -0.35692133885755889 0.25981776918475608 0 -0.36229426548866411 0.2453881584102689 0 -0.34395163351421038 0.25557401269268892 0 -0.35692133885755889 0.25981776918475608 0 -0.37230098287792679 0.25294325508864451 0 -0.36883030972682501 0.26648103705362119 0 -0.36229426548866411 0.2453881584102689 0 -0.35692133885755889 0.25981776918475608 0 -0.37230098287792679 0.25294325508864451 0 -0.35586434715294468 0.27342311719185031 0 -0.36022503899124492 0.27358881968603199 0 -0.37248135068276822 0.28523962060280661 0 -0.36883030972682501 0.26648103705362119 0 -0.36022503899124492 0.27358881968603199 0 -0.37248135068276822 0.28523962060280661 0 -0.35586434715294468 0.27342311719185031 0 -0.37248135068276822 0.28523962060280661 0 -0.35586434715294468 0.27342311719185031 0 -0.36883030972682501 0.26648103705362119 0 -0.35586434715294468 0.27342311719185031 0 -0.35692133885755889 0.25981776918475608 0 -0.36883030972682501 0.26648103705362119 0 -0.36883030972682501 0.26648103705362119 0 -0.36022503899124492 0.27358881968603199 0 -0.35586434715294468 0.27342311719185031 0 -0.36883030972682501 0.26648103705362119 0 -0.36022503899124492 0.27358881968603199 0 -0.35586434715294468 0.27342311719185031 0 -0.37248135068276822 0.28523962060280661 0 -0.35688941502055732 0.28897551686267647 0 -0.37248135068276822 0.28523962060280661 0 -0.36783982085410288 0.29794816612943742 0 -0.35688941502055732 0.28897551686267647 0 -0.37295462397507217 0.31131695018609351 0 -0.36783982085410288 0.29794816612943742 0 -0.34948263508475458 0.30532078284077169 0 -0.37295462397507217 0.31131695018609351 0 -0.34948263508475458 0.30532078284077169 0 -0.36783982085410288 0.29794816612943742 0 -0.34948263508475458 0.30532078284077169 0 -0.35688941502055732 0.28897551686267647 0 -0.37295462397507217 0.31131695018609351 0 -0.34948263508475458 0.30532078284077169 0 -0.35307546783281951 0.31303288224829168 0 -0.34655731222028491 0.30457347823371578 0 -0.34948263508475458 0.30532078284077169 0 -0.33886310680047249 0.28252571735006832 0 -0.34655731222028491 0.30457347823371578 0 -0.3361599693353024 0.30184535454005967 0 -0.35307546783281951 0.31303288224829168 0 -0.34655731222028491 0.30457347823371578 0 -0.34948263508475458 0.30532078284077169 0 -0.35307546783281951 0.31303288224829168 0 -0.34655731222028491 0.30457347823371578 0 -0.34948263508475458 0.30532078284077169 0 -0.34948263508475458 0.30532078284077169 0 -0.35307546783281951 0.31303288224829168 0 -0.34948263508475458 0.30532078284077169 0 -0.35688941502055732 0.28897551686267647 0 -0.33886310680047249 0.28252571735006832 0 -0.35586434715294468 0.27342311719185031 0 -0.35688941502055732 0.28897551686267647 0 -0.33886310680047249 0.28252571735006832 0 -0.34948263508475458 0.30532078284077169 0 -0.33886310680047249 0.28252571735006832 0 -0.33886310680047249 0.28252571735006832 0 -0.33633249334970478 0.29202056804636689 0 -0.32199182125145648 0.29155873866638432 0 -0.33886310680047249 0.28252571735006832 0 -0.32199182125145648 0.29155873866638432 0 -0.32957342064902873 0.2809268294101066 0 -0.34655731222028491 0.30457347823371578 0 -0.33886310680047249 0.28252571735006832 0 -0.33633249334970478 0.29202056804636689 0 -0.33886310680047249 0.28252571735006832 0 -0.32199182125145648 0.29155873866638432 0 -0.33633249334970478 0.29202056804636689 0 -0.32726575590174167 0.29580876896922031 0 -0.32199182125145648 0.29155873866638432 0 -0.33633249334970478 0.29202056804636689 0 -0.3346710441942215 0.2969053008844677 0 -0.32726575590174167 0.29580876896922031 0 -0.3254138457664057 0.30210655599065789 0 -0.35307546783281951 0.31303288224829168 0 -0.3254138457664057 0.30210655599065789 0 -0.32777973188800519 0.32078271065426772 0 -0.35307546783281951 0.31303288224829168 0 -0.3361599693353024 0.30184535454005967 0 -0.3254138457664057 0.30210655599065789 0 -0.35307546783281951 0.31303288224829168 0 -0.34655731222028491 0.30457347823371578 0 -0.33633249334970478 0.29202056804636689 0 -0.3346710441942215 0.2969053008844677 0 -0.34655731222028491 0.30457347823371578 0 -0.3361599693353024 0.30184535454005967 0 -0.3346710441942215 0.2969053008844677 0 -0.3361599693353024 0.30184535454005967 0 -0.3308776537994178 0.29916649509610138 0 -0.3254138457664057 0.30210655599065789 0 -0.3361599693353024 0.30184535454005967 0 -0.3346710441942215 0.2969053008844677 0 -0.3308776537994178 0.29916649509610138 0 -0.3346710441942215 0.2969053008844677 0 -0.3308776537994178 0.29916649509610138 0 -0.32726575590174167 0.29580876896922031 0 -0.31420285653393842 0.30839552503747442 0 -0.3254138457664057 0.30210655599065789 0 -0.32777973188800519 0.32078271065426772 0 -0.31420285653393842 0.30839552503747442 0 -0.3254138457664057 0.30210655599065789 0 -0.32199182125145648 0.29155873866638432 0 -0.3308776537994178 0.29916649509610138 0 -0.3254138457664057 0.30210655599065789 0 -0.32726575590174167 0.29580876896922031 0 -0.32199182125145648 0.29155873866638432 0 -0.30381802219213577 0.27691327909180041 0 -0.32228631675337921 0.28286518587405129 0 -0.32199182125145648 0.29155873866638432 0 -0.30381802219213577 0.27691327909180041 0 -0.32228631675337921 0.28286518587405129 0 -0.32199182125145648 0.29155873866638432 0 -0.32957342064902873 0.2809268294101066 0 -0.3254138457664057 0.30210655599065789 0 -0.32726575590174167 0.29580876896922031 0 -0.32199182125145648 0.29155873866638432 0 -0.32726575590174167 0.29580876896922031 0 -0.32199182125145648 0.29155873866638432 0 -0.32228631675337921 0.28286518587405129 0 -0.32097553126267903 0.27766341151461621 0 -0.31055820435224069 0.27411773116820082 0 -0.32628230788730372 0.27402973776722339 0 -0.31055820435224069 0.27411773116820082 0 -0.32628230788730372 0.27402973776722339 0 -0.32993361851774278 0.26335836219507741 0 -0.31055820435224069 0.27411773116820082 0 -0.32097553126267903 0.27766341151461621 0 -0.32628230788730372 0.27402973776722339 0 -0.31055820435224069 0.27411773116820082 0 -0.32993361851774278 0.26335836219507741 0 -0.31055820435224069 0.27411773116820082 0 -0.32228631675337921 0.28286518587405129 0 -0.32097553126267903 0.27766341151461621 0 -0.3255127708578599 0.27887069404315062 0 -0.32097553126267903 0.27766341151461621 0 -0.32628230788730372 0.27402973776722339 0 -0.3255127708578599 0.27887069404315062 0 -0.32228631675337921 0.28286518587405129 0 -0.3255127708578599 0.27887069404315062 0 -0.32957342064902873 0.2809268294101066 0 -0.32628230788730372 0.27402973776722339 0 -0.3255127708578599 0.27887069404315062 0 -0.32957342064902873 0.2809268294101066 0 -0.33886310680047249 0.28252571735006832 0 -0.32957342064902873 0.2809268294101066 0 -0.33488266657498411 0.27398160943934391 0 -0.32628230788730372 0.27402973776722339 0 -0.33488266657498411 0.27398160943934391 0 -0.32628230788730372 0.27402973776722339 0 -0.32957342064902873 0.2809268294101066 0 -0.33488266657498411 0.27398160943934391 0 -0.32628230788730372 0.27402973776722339 0 -0.3320826294402256 0.26797126433224389 0 -0.32628230788730372 0.27402973776722339 0 -0.33488266657498411 0.27398160943934391 0 -0.3320826294402256 0.26797126433224389 0 -0.32628230788730372 0.27402973776722339 0 -0.3320826294402256 0.26797126433224389 0 -0.32993361851774278 0.26335836219507741 0 -0.3320826294402256 0.26797126433224389 0 -0.32993361851774278 0.26335836219507741 0 -0.33488266657498411 0.27398160943934391 0 -0.3320826294402256 0.26797126433224389 0 -0.34742398918178019 0.27391142714713967 0 -0.33488266657498411 0.27398160943934391 0 -0.34136089237065409 0.26929466540867708 0 -0.3320826294402256 0.26797126433224389 0 -0.34136089237065409 0.26929466540867708 0 -0.33860999464984998 0.26115338908824132 0 -0.33488266657498411 0.27398160943934391 0 -0.3320826294402256 0.26797126433224389 0 -0.34136089237065409 0.26929466540867708 0 -0.33886310680047249 0.28252571735006832 0 -0.33488266657498411 0.27398160943934391 0 -0.34742398918178019 0.27391142714713967 0 -0.33488266657498411 0.27398160943934391 0 -0.34742398918178019 0.27391142714713967 0 -0.33886310680047249 0.28252571735006832 0 -0.33488266657498411 0.27398160943934391 0 -0.34395163351421038 0.25557401269268892 0 -0.3365466114934168 0.2596860984264594 0 -0.33267593655950928 0.2510925736975908 0 -0.34395163351421038 0.25557401269268892 0 -0.3365466114934168 0.2596860984264594 0 -0.34395163351421038 0.25557401269268892 0 -0.33860999464984998 0.26115338908824132 0 -0.34395163351421038 0.25557401269268892 0 -0.33860999464984998 0.26115338908824132 0 -0.3365466114934168 0.2596860984264594 0 -0.33860999464984998 0.26115338908824132 0 -0.3365466114934168 0.2596860984264594 0 -0.3320826294402256 0.26797126433224389 0 -0.33860999464984998 0.26115338908824132 0 -0.3365466114934168 0.2596860984264594 0 -0.3320826294402256 0.26797126433224389 0 -0.3365466114934168 0.2596860984264594 0 -0.32993361851774278 0.26335836219507741 0 -0.3365466114934168 0.2596860984264594 0 -0.32993361851774278 0.26335836219507741 0 -0.324099188522188 0.25083462194133671 0 -0.3365466114934168 0.2596860984264594 0 -0.32993361851774278 0.26335836219507741 0 -0.3320826294402256 0.26797126433224389 0 -0.33860999464984998 0.26115338908824132 0 -0.3365466114934168 0.2596860984264594 0 -0.324099188522188 0.25083462194133671 0 -0.3365466114934168 0.2596860984264594 0 -0.33267593655950928 0.2510925736975908 0 -0.324099188522188 0.25083462194133671 0 -0.32993361851774278 0.26335836219507741 0 -0.324099188522188 0.25083462194133671 0 -0.32993361851774278 0.26335836219507741 0 -0.324099188522188 0.25083462194133671 0 -0.31055820435224069 0.27411773116820082 0 -0.32106837165573132 0.2486793803072968 0 -0.324099188522188 0.25083462194133671 0 -0.31055820435224069 0.27411773116820082 0 -0.32106837165573132 0.2486793803072968 0 -0.30550878180017549 0.2741459881599172 0 -0.30833816360920352 0.24979970928733461 0 -0.30567918650313891 0.26044546311688332 0 -0.30216575257995482 0.25553552221175763 0 -0.30567918650313891 0.26044546311688332 0 -0.30041938612739932 0.27417446884456642 0 -0.29593721223279001 0.25846917992181451 0 -0.32106837165573132 0.2486793803072968 0 -0.30567918650313891 0.26044546311688332 0 -0.30550878180017549 0.2741459881599172 0 -0.32106837165573132 0.2486793803072968 0 -0.30833816360920352 0.24979970928733461 0 -0.30567918650313891 0.26044546311688332 0 -0.30567918650313891 0.26044546311688332 0 -0.30216575257995482 0.25553552221175763 0 -0.29593721223279001 0.25846917992181451 0 -0.29897154726595537 0.24684560196851091 0 -0.30833816360920352 0.24979970928733461 0 -0.30216575257995482 0.25553552221175763 0 -0.29897154726595537 0.24684560196851091 0 -0.30216575257995482 0.25553552221175763 0 -0.29593721223279001 0.25846917992181451 0 -0.32228631675337921 0.28286518587405129 0 -0.31055820435224069 0.27411773116820082 0 -0.30381802219213577 0.27691327909180041 0 -0.32106837165573132 0.2486793803072968 0 -0.31055820435224069 0.27411773116820082 0 -0.30550878180017549 0.2741459881599172 0 -0.31055820435224069 0.27411773116820082 0 -0.30550878180017549 0.2741459881599172 0 -0.31055820435224069 0.27411773116820082 0 -0.30381802219213577 0.27691327909180041 0 -0.31055820435224069 0.27411773116820082 0 -0.30550878180017549 0.2741459881599172 0 -0.30381802219213577 0.27691327909180041 0 -0.30567918650313891 0.26044546311688332 0 -0.30550878180017549 0.2741459881599172 0 -0.30041938612739932 0.27417446884456642 0 -0.30041938612739932 0.27417446884456642 0 -0.30294198960143098 0.2783470944211674 0 -0.28968332517938661 0.28570976865300418 0 -0.30550878180017549 0.2741459881599172 0 -0.30041938612739932 0.27417446884456642 0 -0.30550878180017549 0.2741459881599172 0 -0.30381802219213577 0.27691327909180041 0 -0.30041938612739932 0.27417446884456642 0 -0.30381802219213577 0.27691327909180041 0 -0.30041938612739932 0.27417446884456642 0 -0.30294198960143098 0.2783470944211674 0 -0.30550878180017549 0.2741459881599172 0 -0.30381802219213577 0.27691327909180041 0 -0.30381802219213577 0.27691327909180041 0 -0.30041938612739932 0.27417446884456642 0 -0.30127417694123931 0.2810768277485215 0 -0.30294198960143098 0.2783470944211674 0 -0.30381802219213577 0.27691327909180041 0 -0.30294198960143098 0.2783470944211674 0 -0.30041938612739932 0.27417446884456642 0 -0.2847429167997132 0.26154149667064469 0 -0.2706001263162815 0.27434133992116361 0 -0.30041938612739932 0.27417446884456642 0 -0.2706001263162815 0.27434133992116361 0 -0.27999602346432251 0.28285086070034082 0 -0.30041938612739932 0.27417446884456642 0 -0.27999602346432251 0.28285086070034082 0 -0.28968332517938661 0.28570976865300418 0 -0.30041938612739932 0.27417446884456642 0 -0.2706001263162815 0.27434133992116361 0 -0.30041938612739932 0.27417446884456642 0 -0.2847429167997132 0.26154149667064469 0 -0.30041938612739932 0.27417446884456642 0 -0.29593721223279001 0.25846917992181451 0 -0.2847429167997132 0.26154149667064469 0 -0.28739650657821542 0.24626561578924161 0 -0.29593721223279001 0.25846917992181451 0 -0.2847429167997132 0.26154149667064469 0 -0.28739650657821542 0.24626561578924161 0 -0.29897154726595537 0.24684560196851091 0 -0.29593721223279001 0.25846917992181451 0 -0.28739650657821542 0.24626561578924161 0 -0.26906644747202718 0.24890852449672279 0 -0.2847429167997132 0.26154149667064469 0 -0.26906644747202718 0.24890852449672279 0 -0.2847429167997132 0.26154149667064469 0 -0.26296481268023469 0.26156309459304311 0 -0.26906644747202718 0.24890852449672279 0 -0.2847429167997132 0.26154149667064469 0 -0.2847429167997132 0.26154149667064469 0 -0.2706001263162815 0.27434133992116361 0 -0.26296481268023469 0.26156309459304311 0 -0.2706001263162815 0.27434133992116361 0 -0.25386702737968753 0.27392986973978373 0 -0.26285261894119938 0.28695628319812633 0 -0.2706001263162815 0.27434133992116361 0 -0.25386702737968753 0.27392986973978373 0 -0.26296481268023469 0.26156309459304311 0 -0.25694559370152048 0.25065128912585227 0 -0.26296481268023469 0.26156309459304311 0 -0.2445739512607959 0.2575038674604756 0 -0.25386702737968753 0.27392986973978373 0 -0.26296481268023469 0.26156309459304311 0 -0.2445739512607959 0.2575038674604756 0 -0.26906644747202718 0.24890852449672279 0 -0.25694559370152048 0.25065128912585227 0 -0.26296481268023469 0.26156309459304311 0 -0.25386702737968753 0.27392986973978373 0 -0.26285261894119938 0.28695628319812633 0 -0.24532497764207051 0.29226635226491421 0 -0.25647260987368248 0.30596935954371429 0 -0.26285261894119938 0.28695628319812633 0 -0.24532497764207051 0.29226635226491421 0 -0.25647260987368248 0.30596935954371429 0 -0.26285261894119938 0.28695628319812633 0 -0.27642466075734562 0.2930724428848438 0 -0.26285261894119938 0.28695628319812633 0 -0.27999602346432251 0.28285086070034082 0 -0.27642466075734562 0.2930724428848438 0 -0.2706001263162815 0.27434133992116361 0 -0.26285261894119938 0.28695628319812633 0 -0.27999602346432251 0.28285086070034082 0 -0.27642466075734562 0.2930724428848438 0 -0.28651845578656321 0.29906020411085071 0 -0.27058882498474202 0.3190803142837606 0 -0.25647260987368248 0.30596935954371429 0 -0.27642466075734562 0.2930724428848438 0 -0.27058882498474202 0.3190803142837606 0 -0.29629032311809889 0.30531952647507199 0 -0.27058882498474202 0.3190803142837606 0 -0.28651845578656321 0.29906020411085071 0 -0.29629032311809889 0.30531952647507199 0 -0.27058882498474202 0.3190803142837606 0 -0.28651845578656321 0.29906020411085071 0 -0.29629032311809889 0.30531952647507199 0 -0.29960514489324258 0.29211896825757311 0 -0.27999602346432251 0.28285086070034082 0 -0.27642466075734562 0.2930724428848438 0 -0.28968332517938661 0.28570976865300418 0 -0.27642466075734562 0.2930724428848438 0 -0.28968332517938661 0.28570976865300418 0 -0.27642466075734562 0.2930724428848438 0 -0.28651845578656321 0.29906020411085071 0 -0.28968332517938661 0.28570976865300418 0 -0.28651845578656321 0.29906020411085071 0 -0.28968332517938661 0.28570976865300418 0 -0.29960514489324258 0.29211896825757311 0 -0.30127417694123931 0.2810768277485215 0 -0.28968332517938661 0.28570976865300418 0 -0.29960514489324258 0.29211896825757311 0 -0.30294198960143098 0.2783470944211674 0 -0.28968332517938661 0.28570976865300418 0 -0.32199182125145648 0.29155873866638432 0 -0.30127417694123931 0.2810768277485215 0 -0.29960514489324258 0.29211896825757311 0 -0.32199182125145648 0.29155873866638432 0 -0.30381802219213577 0.27691327909180041 0 -0.30294198960143098 0.2783470944211674 0 -0.32199182125145648 0.29155873866638432 0 -0.30127417694123931 0.2810768277485215 0 -0.30294198960143098 0.2783470944211674 0 -0.32199182125145648 0.29155873866638432 0 -0.29629032311809889 0.30531952647507199 0 -0.29960514489324258 0.29211896825757311 0 -0.30127417694123931 0.2810768277485215 0 -0.30294198960143098 0.2783470944211674 0 -0.28968332517938661 0.28570976865300418 0 -0.31420285653393842 0.30839552503747442 0 -0.29629032311809889 0.30531952647507199 0 -0.29953856064572598 0.32221009340099083 0 -0.32199182125145648 0.29155873866638432 0 -0.29629032311809889 0.30531952647507199 0 -0.31420285653393842 0.30839552503747442 0 -0.32199182125145648 0.29155873866638432 0 -0.29629032311809889 0.30531952647507199 0 -0.31203216161103381 0.33632208230303079 0 -0.29902079216369221 0.33387579068604589 0 -0.29514291976124563 0.34489026675065632 0 -0.29953856064572598 0.32221009340099083 0 -0.31203216161103381 0.33632208230303079 0 -0.29902079216369221 0.33387579068604589 0 -0.29902079216369221 0.33387579068604589 0 -0.2851127833038607 0.33416408230771028 0 -0.29514291976124563 0.34489026675065632 0 -0.29953856064572598 0.32221009340099083 0 -0.29902079216369221 0.33387579068604589 0 -0.2851127833038607 0.33416408230771028 0 -0.2851127833038607 0.33416408230771028 0 -0.28035425374815931 0.3458065335268431 0 -0.29514291976124563 0.34489026675065632 0 -0.29629032311809889 0.30531952647507199 0 -0.29953856064572598 0.32221009340099083 0 -0.27058882498474202 0.3190803142837606 0 -0.29953856064572598 0.32221009340099083 0 -0.2851127833038607 0.33416408230771028 0 -0.27058882498474202 0.3190803142837606 0 -0.2851127833038607 0.33416408230771028 0 -0.26603134851959892 0.33912149519796531 0 -0.28035425374815931 0.3458065335268431 0 -0.2851127833038607 0.33416408230771028 0 -0.27058882498474202 0.3190803142837606 0 -0.26603134851959892 0.33912149519796531 0 -0.27058882498474202 0.3190803142837606 0 -0.26603134851959892 0.33912149519796531 0 -0.24488732685138509 0.33284110209244933 0 -0.26603134851959892 0.33912149519796531 0 -0.243241615744651 0.34560974687225782 0 -0.24488732685138509 0.33284110209244933 0 -0.25647260987368248 0.30596935954371429 0 -0.27058882498474202 0.3190803142837606 0 -0.24488732685138509 0.33284110209244933 0 -0.27058882498474202 0.3190803142837606 0 -0.24488732685138509 0.33284110209244933 0 -0.25131668888737901 0.36573777118583611 0 -0.27765785641069579 0.35998942174633303 0 -0.2484955859805823 0.35515481751859251 0 -0.25131668888737901 0.36573777118583611 0 -0.27850816468071798 0.3713818185060983 0 -0.25131668888737901 0.36573777118583611 0 -0.27850816468071798 0.3713818185060983 0 -0.2633990577201854 0.37585079294208451 0 -0.25131668888737901 0.36573777118583611 0 -0.25415213025302541 0.37590247751886791 0 -0.2633990577201854 0.37585079294208451 0 -0.25131668888737901 0.36573777118583611 0 -0.25415213025302541 0.37590247751886791 0 -0.24609435682760589 0.37689211691858182 0 -0.26151628884784378 0.34961896323254887 0 -0.243241615744651 0.34560974687225782 0 -0.2484955859805823 0.35515481751859251 0 -0.26151628884784378 0.34961896323254887 0 -0.27765785641069579 0.35998942174633303 0 -0.2484955859805823 0.35515481751859251 0 -0.27765785641069579 0.35998942174633303 0 -0.2484955859805823 0.35515481751859251 0 -0.26603134851959892 0.33912149519796531 0 -0.26151628884784378 0.34961896323254887 0 -0.243241615744651 0.34560974687225782 0 -0.26151628884784378 0.34961896323254887 0 -0.2707714103464397 0.34881888727550298 0 -0.27765785641069579 0.35998942174633303 0 -0.26603134851959892 0.33912149519796531 0 -0.26151628884784378 0.34961896323254887 0 -0.2707714103464397 0.34881888727550298 0 -0.26603134851959892 0.33912149519796531 0 -0.2707714103464397 0.34881888727550298 0 -0.28035425374815931 0.3458065335268431 0 -0.2707714103464397 0.34881888727550298 0 -0.28035425374815931 0.3458065335268431 0 -0.27765785641069579 0.35998942174633303 0 -0.25131668888737901 0.36573777118583611 0 -0.27765785641069579 0.35998942174633303 0 -0.27850816468071798 0.3713818185060983 0 -0.27850816468071798 0.3713818185060983 0 -0.30569964047405718 0.3770258658263605 0 -0.27765785641069579 0.35998942174633303 0 -0.27850816468071798 0.3713818185060983 0 -0.30682012684080961 0.36482402597407371 0 -0.27765785641069579 0.35998942174633303 0 -0.30682012684080961 0.36482402597407371 0 -0.27765785641069579 0.35998942174633303 0 -0.29739619461656369 0.35613598418242071 0 -0.30682012684080961 0.36482402597407371 0 -0.27765785641069579 0.35998942174633303 0 -0.28763780613416612 0.35170555155156319 0 -0.29739619461656369 0.35613598418242071 0 -0.28035425374815931 0.3458065335268431 0 -0.28763780613416612 0.35170555155156319 0 -0.29514291976124563 0.34489026675065632 0 -0.28035425374815931 0.3458065335268431 0 -0.27765785641069579 0.35998942174633303 0 -0.28763780613416612 0.35170555155156319 0 -0.28763780613416612 0.35170555155156319 0 -0.29514291976124563 0.34489026675065632 0 -0.29739619461656369 0.35613598418242071 0 -0.31203216161103381 0.33632208230303079 0 -0.29514291976124563 0.34489026675065632 0 -0.30936672432241979 0.35160906675210352 0 -0.29514291976124563 0.34489026675065632 0 -0.29739619461656369 0.35613598418242071 0 -0.30936672432241979 0.35160906675210352 0 -0.29739619461656369 0.35613598418242071 0 -0.30936672432241979 0.35160906675210352 0 -0.30682012684080961 0.36482402597407371 0 -0.30936672432241979 0.35160906675210352 0 -0.30682012684080961 0.36482402597407371 0 -0.32040816114349069 0.35891906637948079 0 -0.27850816468071798 0.3713818185060983 0 -0.30682012684080961 0.36482402597407371 0 -0.30569964047405718 0.3770258658263605 0 -0.30682012684080961 0.36482402597407371 0 -0.32032602911403429 0.37233417665287882 0 -0.30569964047405718 0.3770258658263605 0 -0.30682012684080961 0.36482402597407371 0 -0.32032602911403429 0.37233417665287882 0 -0.33598239727092333 0.36965863020181422 0 -0.30682012684080961 0.36482402597407371 0 -0.33598239727092333 0.36965863020181422 0 -0.32040816114349069 0.35891906637948079 0 -0.30682012684080961 0.36482402597407371 0 -0.33598239727092333 0.36965863020181422 0 -0.32032602911403429 0.37233417665287882 0 -0.33119017128643591 0.37474633449294908 0 -0.3239151479702172 0.37680340651236183 0 -0.32032602911403429 0.37233417665287882 0 -0.33119017128643591 0.37474633449294908 0 -0.33598239727092333 0.36965863020181422 0 -0.33119017128643591 0.37474633449294908 0 -0.33743171254153692 0.37498111133383899 0 -0.33598239727092333 0.36965863020181422 0 -0.33598239727092333 0.36965863020181422 0 -0.33237732794088082 0.35843869943552159 0 -0.32040816114349069 0.35891906637948079 0 -0.34258875828520402 0.36289287400074788 0 -0.33598239727092333 0.36965863020181422 0 -0.33237732794088082 0.35843869943552159 0 -0.34258875828520402 0.36289287400074788 0 -0.34307954554344561 0.3715191433611712 0 -0.33598239727092333 0.36965863020181422 0 -0.34307954554344561 0.3715191433611712 0 -0.33743171254153692 0.37498111133383899 0 -0.33598239727092333 0.36965863020181422 0 -0.33955716230302813 0.35309860480511301 0 -0.33539177439384982 0.34357479794698031 0 -0.34926678015548829 0.34394718637665911 0 -0.34258875828520402 0.36289287400074788 0 -0.33955716230302813 0.35309860480511301 0 -0.33237732794088082 0.35843869943552159 0 -0.33955716230302813 0.35309860480511301 0 -0.33237732794088082 0.35843869943552159 0 -0.32474290381529608 0.34809985126071091 0 -0.33955716230302813 0.35309860480511301 0 -0.32474290381529608 0.34809985126071091 0 -0.33539177439384982 0.34357479794698031 0 -0.33237732794088082 0.35843869943552159 0 -0.32474290381529608 0.34809985126071091 0 -0.32040816114349069 0.35891906637948079 0 -0.30936672432241979 0.35160906675210352 0 -0.32474290381529608 0.34809985126071091 0 -0.32040816114349069 0.35891906637948079 0 -0.31203216161103381 0.33632208230303079 0 -0.30936672432241979 0.35160906675210352 0 -0.32474290381529608 0.34809985126071091 0 -0.31203216161103381 0.33632208230303079 0 -0.32777973188800519 0.32078271065426772 0 -0.32993470715465839 0.33504342256158393 0 -0.31203216161103381 0.33632208230303079 0 -0.32474290381529608 0.34809985126071091 0 -0.32993470715465839 0.33504342256158393 0 -0.31420285653393842 0.30839552503747442 0 -0.29953856064572598 0.32221009340099083 0 -0.32777973188800519 0.32078271065426772 0 -0.29953856064572598 0.32221009340099083 0 -0.32777973188800519 0.32078271065426772 0 -0.29953856064572598 0.32221009340099083 0 -0.31203216161103381 0.33632208230303079 0 -0.32777973188800519 0.32078271065426772 0 -0.32777973188800519 0.32078271065426772 0 -0.3366378448227636 0.32908834091458661 0 -0.34614688756765338 0.32594812402140461 0 -0.32777973188800519 0.32078271065426772 0 -0.34614688756765338 0.32594812402140461 0 -0.35602090313028423 0.31935532790754501 0 -0.32777973188800519 0.32078271065426772 0 -0.35602090313028423 0.31935532790754501 0 -0.32474290381529608 0.34809985126071091 0 -0.33539177439384982 0.34357479794698031 0 -0.32993470715465839 0.33504342256158393 0 -0.32777973188800519 0.32078271065426772 0 -0.32993470715465839 0.33504342256158393 0 -0.3366378448227636 0.32908834091458661 0 -0.32993470715465839 0.33504342256158393 0 -0.3366378448227636 0.32908834091458661 0 -0.34269005268073732 0.33457910642109029 0 -0.3366378448227636 0.32908834091458661 0 -0.34269005268073732 0.33457910642109029 0 -0.34614688756765338 0.32594812402140461 0 -0.33539177439384982 0.34357479794698031 0 -0.34269005268073732 0.33457910642109029 0 -0.34926678015548829 0.34394718637665911 0 -0.33539177439384982 0.34357479794698031 0 -0.32993470715465839 0.33504342256158393 0 -0.34269005268073732 0.33457910642109029 0 -0.35268086346313071 0.33301153147341522 0 -0.35602090313028423 0.31935532790754501 0 -0.3659146246096765 0.34059243213969592 0 -0.35268086346313071 0.33301153147341522 0 -0.3659146246096765 0.34059243213969592 0 -0.34926678015548829 0.34394718637665911 0 -0.34269005268073732 0.33457910642109029 0 -0.35268086346313071 0.33301153147341522 0 -0.34926678015548829 0.34394718637665911 0 -0.34269005268073732 0.33457910642109029 0 -0.35268086346313071 0.33301153147341522 0 -0.34614688756765338 0.32594812402140461 0 -0.32777973188800519 0.32078271065426772 0 -0.35602090313028423 0.31935532790754501 0 -0.35307546783281951 0.31303288224829168 0 -0.35268086346313071 0.33301153147341522 0 -0.34614688756765338 0.32594812402140461 0 -0.35602090313028423 0.31935532790754501 0 -0.35602090313028423 0.31935532790754501 0 -0.35307546783281951 0.31303288224829168 0 -0.36760005648933819 0.31877008717568522 0 -0.35602090313028423 0.31935532790754501 0 -0.35307546783281951 0.31303288224829168 0 -0.37295462397507217 0.31131695018609351 0 -0.35307546783281951 0.31303288224829168 0 -0.36760005648933819 0.31877008717568522 0 -0.35602090313028423 0.31935532790754501 0 -0.36760005648933819 0.31877008717568522 0 -0.3659146246096765 0.34059243213969592 0 -0.35307546783281951 0.31303288224829168 0 -0.36760005648933819 0.31877008717568522 0 -0.35602090313028423 0.31935532790754501 0 -0.36760005648933819 0.31877008717568522 0 -0.37906719231399549 0.33714418589191503 0 -0.36760005648933819 0.31877008717568522 0 -0.3659146246096765 0.34059243213969592 0 -0.35602090313028423 0.31935532790754501 0 -0.3659146246096765 0.34059243213969592 0 -0.37918555484205568 0.3505400947690257 0 -0.37906719231399549 0.33714418589191503 0 -0.3659146246096765 0.34059243213969592 0 -0.37580834608906982 0.36182953637184628 0 -0.3659146246096765 0.34059243213969592 0 -0.36606355733129481 0.35797318876362111 0 -0.37580834608906982 0.36182953637184628 0 -0.3659146246096765 0.34059243213969592 0 -0.3659146246096765 0.34059243213969592 0 -0.36606355733129481 0.35797318876362111 0 -0.35375477870952732 0.35647547147257891 0 -0.37580834608906982 0.36182953637184628 0 -0.37918555484205568 0.3505400947690257 0 -0.3659146246096765 0.34059243213969592 0 -0.37580834608906982 0.36182953637184628 0 -0.36606355733129481 0.35797318876362111 0 -0.37090185516655932 0.36246773239635938 0 -0.37580834608906982 0.36182953637184628 0 -0.37353936917537611 0.36531788495073808 0 -0.37090185516655932 0.36246773239635938 0 -0.37353936917537611 0.36531788495073808 0 -0.3681961480704965 0.36475031949923209 0 -0.37090185516655932 0.36246773239635938 0 -0.36606355733129481 0.35797318876362111 0 -0.3681961480704965 0.36475031949923209 0 -0.37090185516655932 0.36246773239635938 0 -0.37353936917537611 0.36531788495073808 0 -0.3681961480704965 0.36475031949923209 0 -0.3705431614235668 0.37254791364451911 0 -0.3681961480704965 0.36475031949923209 0 -0.3705431614235668 0.37254791364451911 0 -0.36128561476873072 0.36794350613030902 0 -0.3705431614235668 0.37254791364451911 0 -0.36128561476873072 0.36794350613030902 0 -0.36730123819526828 0.38122870665378272 0 -0.36606355733129481 0.35797318876362111 0 -0.36128561476873072 0.36794350613030902 0 -0.35375477870952732 0.35647547147257891 0 -0.36606355733129481 0.35797318876362111 0 -0.3681961480704965 0.36475031949923209 0 -0.36128561476873072 0.36794350613030902 0 -0.36128561476873072 0.36794350613030902 0 -0.35078133794341909 0.36816669472828872 0 -0.35375477870952732 0.35647547147257891 0 -0.36128561476873072 0.36794350613030902 0 -0.35078133794341909 0.36816669472828872 0 -0.35585444955969409 0.37695000614746282 0 -0.35078133794341909 0.36816669472828872 0 -0.34917766401900308 0.37573945475159443 0 -0.35585444955969409 0.37695000614746282 0 -0.34258875828520402 0.36289287400074788 0 -0.34307954554344561 0.3715191433611712 0 -0.35078133794341909 0.36816669472828872 0 -0.34307954554344561 0.3715191433611712 0 -0.35078133794341909 0.36816669472828872 0 -0.34917766401900308 0.37573945475159443 0 -0.34258875828520402 0.36289287400074788 0 -0.35078133794341909 0.36816669472828872 0 -0.35375477870952732 0.35647547147257891 0 -0.3659146246096765 0.34059243213969592 0 -0.34926678015548829 0.34394718637665911 0 -0.35375477870952732 0.35647547147257891 0 -0.34258875828520402 0.36289287400074788 0 -0.33955716230302813 0.35309860480511301 0 -0.35375477870952732 0.35647547147257891 0 -0.33955716230302813 0.35309860480511301 0 -0.34926678015548829 0.34394718637665911 0 -0.35375477870952732 0.35647547147257891 0 -0.34538775997253762 0.39534867551333053 0 -0.35828973115558632 0.41064003643786617 0 -0.35702960071437367 0.39650648733376709 0 -0.34538775997253762 0.39534867551333053 0 -0.35828973115558632 0.41064003643786617 0 -0.34538775997253762 0.39534867551333053 0 -0.35828973115558632 0.41064003643786617 0 -0.34566049643538088 0.41039385894909591 0 -0.35702960071437367 0.39650648733376709 0 -0.34538775997253762 0.39534867551333053 0 -0.35182146589033791 0.38559628849095989 0 -0.34538775997253762 0.39534867551333053 0 -0.35182146589033791 0.38559628849095989 0 -0.34346477147013171 0.37983810821191549 0 -0.34307954554344561 0.3715191433611712 0 -0.34917766401900308 0.37573945475159443 0 -0.34346477147013171 0.37983810821191549 0 -0.34917766401900308 0.37573945475159443 0 -0.35182146589033791 0.38559628849095989 0 -0.34346477147013171 0.37983810821191549 0 -0.34917766401900308 0.37573945475159443 0 -0.35585444955969409 0.37695000614746282 0 -0.35182146589033791 0.38559628849095989 0 -0.35585444955969409 0.37695000614746282 0 -0.35182146589033791 0.38559628849095989 0 -0.36023505928071842 0.38821321148125087 0 -0.35702960071437367 0.39650648733376709 0 -0.35182146589033791 0.38559628849095989 0 -0.36023505928071842 0.38821321148125087 0 -0.38319378146349098 0.38415532866358049 0 -0.36730123819526828 0.38122870665378272 0 -0.37074175630953887 0.39739768255072361 0 -0.36023505928071842 0.38821321148125087 0 -0.36730123819526828 0.38122870665378272 0 -0.37074175630953887 0.39739768255072361 0 -0.38319378146349098 0.38415532866358049 0 -0.3705431614235668 0.37254791364451911 0 -0.36730123819526828 0.38122870665378272 0 -0.35585444955969409 0.37695000614746282 0 -0.36023505928071842 0.38821321148125087 0 -0.36730123819526828 0.38122870665378272 0 -0.36128561476873072 0.36794350613030902 0 -0.35585444955969409 0.37695000614746282 0 -0.36730123819526828 0.38122870665378272 0 -0.35702960071437367 0.39650648733376709 0 -0.36023505928071842 0.38821321148125087 0 -0.37074175630953887 0.39739768255072361 0 -0.37074175630953887 0.39739768255072361 0 -0.35828973115558632 0.41064003643786617 0 -0.35702960071437367 0.39650648733376709 0 -0.37074175630953887 0.39739768255072361 0 -0.35828973115558632 0.41064003643786617 0 -0.37700386651057838 0.43281994941734597 0 -0.35828973115558632 0.41064003643786617 0 -0.37700386651057838 0.43281994941734597 0 -0.35828973115558632 0.41064003643786617 0 -0.35329700073899151 0.415949654931422 0 -0.3753024326256475 0.415270609288235 0 -0.37074175630953887 0.39739768255072361 0 -0.35828973115558632 0.41064003643786617 0 -0.37700386651057838 0.43281994941734597 0 -0.3753024326256475 0.415270609288235 0 -0.35828973115558632 0.41064003643786617 0 -0.37700386651057838 0.43281994941734597 0 -0.34891386464940372 0.42687336396614811 0 -0.35775774519919112 0.4390838723300069 0 -0.37700386651057838 0.43281994941734597 0 -0.34891386464940372 0.42687336396614811 0 -0.37700386651057838 0.43281994941734597 0 -0.34891386464940372 0.42687336396614811 0 -0.35329700073899151 0.415949654931422 0 -0.34891386464940372 0.42687336396614811 0 -0.33194099040494679 0.42869300237798852 0 -0.35775774519919112 0.4390838723300069 0 -0.33194099040494679 0.42869300237798852 0 -0.35775774519919112 0.4390838723300069 0 -0.35828973115558632 0.41064003643786617 0 -0.35329700073899151 0.415949654931422 0 -0.34566049643538088 0.41039385894909591 0 -0.35828973115558632 0.41064003643786617 0 -0.35329700073899151 0.415949654931422 0 -0.35329700073899151 0.415949654931422 0 -0.34612425325150509 0.41720459445693231 0 -0.34566049643538088 0.41039385894909591 0 -0.34891386464940372 0.42687336396614811 0 -0.35329700073899151 0.415949654931422 0 -0.34612425325150509 0.41720459445693231 0 -0.34891386464940372 0.42687336396614811 0 -0.34612425325150509 0.41720459445693231 0 -0.3366256511822443 0.41560149998106338 0 -0.34566049643538088 0.41039385894909591 0 -0.3366256511822443 0.41560149998106338 0 -0.3369635696565958 0.40584868473470531 0 -0.34891386464940372 0.42687336396614811 0 -0.3366256511822443 0.41560149998106338 0 -0.32082386278822878 0.4209267785149502 0 -0.34612425325150509 0.41720459445693231 0 -0.34566049643538088 0.41039385894909591 0 -0.3366256511822443 0.41560149998106338 0 -0.3366256511822443 0.41560149998106338 0 -0.32554909165478252 0.40912504544230022 0 -0.3369635696565958 0.40584868473470531 0 -0.34891386464940372 0.42687336396614811 0 -0.32082386278822878 0.4209267785149502 0 -0.34891386464940372 0.42687336396614811 0 -0.33194099040494679 0.42869300237798852 0 -0.32082386278822878 0.4209267785149502 0 -0.33194099040494679 0.42869300237798852 0 -0.34058357964679459 0.44275890177657229 0 -0.35775774519919112 0.4390838723300069 0 -0.33194099040494679 0.42869300237798852 0 -0.32580950616778209 0.44061671407247188 0 -0.34058357964679459 0.44275890177657229 0 -0.33194099040494679 0.42869300237798852 0 -0.31858907832273581 0.42331905111406087 0 -0.32580950616778209 0.44061671407247188 0 -0.31858907832273581 0.42331905111406087 0 -0.3145452713527559 0.43470420544638377 0 -0.32580950616778209 0.44061671407247188 0 -0.33194099040494679 0.42869300237798852 0 -0.31858907832273581 0.42331905111406087 0 -0.33194099040494679 0.42869300237798852 0 -0.31858907832273581 0.42331905111406087 0 -0.32082386278822878 0.4209267785149502 0 -0.3366256511822443 0.41560149998106338 0 -0.32554909165478252 0.40912504544230022 0 -0.32082386278822878 0.4209267785149502 0 -0.32082386278822878 0.4209267785149502 0 -0.31283987334645708 0.40883442309159063 0 -0.30612423561070251 0.41830213242596997 0 -0.31858907832273581 0.42331905111406087 0 -0.32082386278822878 0.4209267785149502 0 -0.30612423561070251 0.41830213242596997 0 -0.32554909165478252 0.40912504544230022 0 -0.31283987334645708 0.40883442309159063 0 -0.31930414022384079 0.40380913950375158 0 -0.32554909165478252 0.40912504544230022 0 -0.32082386278822878 0.4209267785149502 0 -0.31283987334645708 0.40883442309159063 0 -0.31283987334645708 0.40883442309159063 0 -0.31930414022384079 0.40380913950375158 0 -0.31561806994161018 0.39756415539659501 0 -0.31930414022384079 0.40380913950375158 0 -0.31561806994161018 0.39756415539659501 0 -0.32323275799088358 0.39725640362141618 0 -0.31561806994161018 0.39756415539659501 0 -0.31867808737609749 0.39330414764159438 0 -0.31337275356054389 0.38815648440221762 0 -0.31561806994161018 0.39756415539659501 0 -0.31867808737609749 0.39330414764159438 0 -0.32323275799088358 0.39725640362141618 0 -0.32323275799088358 0.39725640362141618 0 -0.33048585485386373 0.39136346169262448 0 -0.32248876801135229 0.39023954714614878 0 -0.31867808737609749 0.39330414764159438 0 -0.32323275799088358 0.39725640362141618 0 -0.32248876801135229 0.39023954714614878 0 -0.32554909165478252 0.40912504544230022 0 -0.32323275799088358 0.39725640362141618 0 -0.3315948490380336 0.39877434378773619 0 -0.32554909165478252 0.40912504544230022 0 -0.31930414022384079 0.40380913950375158 0 -0.32323275799088358 0.39725640362141618 0 -0.32554909165478252 0.40912504544230022 0 -0.3315948490380336 0.39877434378773619 0 -0.3369635696565958 0.40584868473470531 0 -0.34538775997253762 0.39534867551333053 0 -0.3315948490380336 0.39877434378773619 0 -0.33048585485386373 0.39136346169262448 0 -0.32323275799088358 0.39725640362141618 0 -0.3315948490380336 0.39877434378773619 0 -0.33048585485386373 0.39136346169262448 0 -0.34538775997253762 0.39534867551333053 0 -0.3315948490380336 0.39877434378773619 0 -0.3369635696565958 0.40584868473470531 0 -0.34538775997253762 0.39534867551333053 0 -0.34566049643538088 0.41039385894909591 0 -0.3369635696565958 0.40584868473470531 0 -0.33743171254153692 0.37498111133383899 0 -0.34346477147013171 0.37983810821191549 0 -0.33248578878948859 0.3800573145887951 0 -0.34307954554344561 0.3715191433611712 0 -0.33743171254153692 0.37498111133383899 0 -0.34346477147013171 0.37983810821191549 0 -0.34538775997253762 0.39534867551333053 0 -0.34346477147013171 0.37983810821191549 0 -0.33248578878948859 0.3800573145887951 0 -0.34538775997253762 0.39534867551333053 0 -0.33248578878948859 0.3800573145887951 0 -0.3328911162673962 0.38266991314662269 0 -0.34538775997253762 0.39534867551333053 0 -0.33048585485386373 0.39136346169262448 0 -0.3328911162673962 0.38266991314662269 0 -0.34538775997253762 0.39534867551333053 0 -0.33248578878948859 0.3800573145887951 0 -0.33248578878948859 0.3800573145887951 0 -0.3328911162673962 0.38266991314662269 0 -0.3299343351157496 0.37818967083027238 0 -0.3328911162673962 0.38266991314662269 0 -0.3299343351157496 0.37818967083027238 0 -0.3239151479702172 0.37680340651236183 0 -0.33119017128643591 0.37474633449294908 0 -0.33743171254153692 0.37498111133383899 0 -0.33248578878948859 0.3800573145887951 0 -0.33119017128643591 0.37474633449294908 0 -0.3299343351157496 0.37818967083027238 0 -0.3239151479702172 0.37680340651236183 0 -0.33119017128643591 0.37474633449294908 0 -0.33248578878948859 0.3800573145887951 0 -0.3299343351157496 0.37818967083027238 0 -0.3328911162673962 0.38266991314662269 0 -0.30569964047405718 0.3770258658263605 0 -0.3328911162673962 0.38266991314662269 0 -0.32098762663344271 0.38589105444279492 0 -0.30569964047405718 0.3770258658263605 0 -0.32032602911403429 0.37233417665287882 0 -0.3239151479702172 0.37680340651236183 0 -0.30569964047405718 0.3770258658263605 0 -0.3328911162673962 0.38266991314662269 0 -0.3239151479702172 0.37680340651236183 0 -0.30569964047405718 0.3770258658263605 0 -0.33048585485386373 0.39136346169262448 0 -0.3328911162673962 0.38266991314662269 0 -0.32098762663344271 0.38589105444279492 0 -0.33048585485386373 0.39136346169262448 0 -0.32098762663344271 0.38589105444279492 0 -0.32248876801135229 0.39023954714614878 0 -0.32098762663344271 0.38589105444279492 0 -0.32248876801135229 0.39023954714614878 0 -0.31337275356054389 0.38815648440221762 0 -0.32098762663344271 0.38589105444279492 0 -0.31337275356054389 0.38815648440221762 0 -0.30569964047405718 0.3770258658263605 0 -0.31867808737609749 0.39330414764159438 0 -0.32248876801135229 0.39023954714614878 0 -0.31337275356054389 0.38815648440221762 0 -0.31337275356054389 0.38815648440221762 0 -0.30569964047405718 0.3770258658263605 0 -0.30399264161159162 0.39051428401513089 0 -0.30569964047405718 0.3770258658263605 0 -0.30399264161159162 0.39051428401513089 0 -0.29880191314123461 0.38511984051802728 0 -0.30399264161159162 0.39051428401513089 0 -0.29880191314123461 0.38511984051802728 0 -0.29501882760392428 0.39099155078919978 0 -0.30569964047405718 0.3770258658263605 0 -0.29880191314123461 0.38511984051802728 0 -0.29049654287536503 0.38194766144141817 0 -0.31283987334645708 0.40883442309159063 0 -0.30803488928733991 0.39776557575157251 0 -0.30170722775389502 0.40309123368119859 0 -0.31283987334645708 0.40883442309159063 0 -0.31561806994161018 0.39756415539659501 0 -0.30803488928733991 0.39776557575157251 0 -0.31561806994161018 0.39756415539659501 0 -0.31337275356054389 0.38815648440221762 0 -0.30803488928733991 0.39776557575157251 0 -0.31337275356054389 0.38815648440221762 0 -0.30399264161159162 0.39051428401513089 0 -0.30803488928733991 0.39776557575157251 0 -0.30399264161159162 0.39051428401513089 0 -0.30170722775389502 0.40309123368119859 0 -0.29501882760392428 0.39099155078919978 0 -0.30399264161159162 0.39051428401513089 0 -0.30803488928733991 0.39776557575157251 0 -0.30170722775389502 0.40309123368119859 0 -0.30170722775389502 0.40309123368119859 0 -0.28882358847639372 0.39783978125756297 0 -0.29265693464307369 0.40687018525515523 0 -0.29501882760392428 0.39099155078919978 0 -0.28882358847639372 0.39783978125756297 0 -0.28652235817694899 0.39016841102473421 0 -0.30170722775389502 0.40309123368119859 0 -0.29501882760392428 0.39099155078919978 0 -0.28882358847639372 0.39783978125756297 0 -0.28882358847639372 0.39783978125756297 0 -0.28652235817694899 0.39016841102473421 0 -0.27949585768809948 0.39569713315343791 0 -0.28882358847639372 0.39783978125756297 0 -0.28344486193404589 0.406467529179392 0 -0.29265693464307369 0.40687018525515523 0 -0.28882358847639372 0.39783978125756297 0 -0.27949585768809948 0.39569713315343791 0 -0.28344486193404589 0.406467529179392 0 -0.27850816468071798 0.3713818185060983 0 -0.30569964047405718 0.3770258658263605 0 -0.29049654287536503 0.38194766144141817 0 -0.29880191314123461 0.38511984051802728 0 -0.29501882760392428 0.39099155078919978 0 -0.29049654287536503 0.38194766144141817 0 -0.29501882760392428 0.39099155078919978 0 -0.29049654287536503 0.38194766144141817 0 -0.28652235817694899 0.39016841102473421 0 -0.28652235817694899 0.39016841102473421 0 -0.27877697424096243 0.38436592848205192 0 -0.27949585768809948 0.39569713315343791 0 -0.29049654287536503 0.38194766144141817 0 -0.28652235817694899 0.39016841102473421 0 -0.27877697424096243 0.38436592848205192 0 -0.27850816468071798 0.3713818185060983 0 -0.29049654287536503 0.38194766144141817 0 -0.27877697424096243 0.38436592848205192 0 -0.27850816468071798 0.3713818185060983 0 -0.27222801197401969 0.38040888421547508 0 -0.27877697424096243 0.38436592848205192 0 -0.27222801197401969 0.38040888421547508 0 -0.26822785125421289 0.39003699693166588 0 -0.2633990577201854 0.37585079294208451 0 -0.27850816468071798 0.3713818185060983 0 -0.27222801197401969 0.38040888421547508 0 -0.2633990577201854 0.37585079294208451 0 -0.27222801197401969 0.38040888421547508 0 -0.26822785125421289 0.39003699693166588 0 -0.27877697424096243 0.38436592848205192 0 -0.26822785125421289 0.39003699693166588 0 -0.27877697424096243 0.38436592848205192 0 -0.27949585768809948 0.39569713315343791 0 -0.26822785125421289 0.39003699693166588 0 -0.27949585768809948 0.39569713315343791 0 -0.27167044937907009 0.40639887674431768 0 -0.26822785125421289 0.39003699693166588 0 -0.2579667928209704 0.40233278043420312 0 -0.27167044937907009 0.40639887674431768 0 -0.27949585768809948 0.39569713315343791 0 -0.27167044937907009 0.40639887674431768 0 -0.28344486193404589 0.406467529179392 0 -0.2579667928209704 0.40233278043420312 0 -0.25579841757693111 0.38512922902896918 0 -0.24442080765291929 0.39167101754676842 0 -0.26822785125421289 0.39003699693166588 0 -0.2579667928209704 0.40233278043420312 0 -0.25579841757693111 0.38512922902896918 0 -0.25579841757693111 0.38512922902896918 0 -0.25415213025302541 0.37590247751886791 0 -0.2633990577201854 0.37585079294208451 0 -0.25579841757693111 0.38512922902896918 0 -0.25415213025302541 0.37590247751886791 0 -0.24609435682760589 0.37689211691858182 0 -0.26822785125421289 0.39003699693166588 0 -0.25579841757693111 0.38512922902896918 0 -0.2633990577201854 0.37585079294208451 0 -0.26531974359781979 0.42266845732450947 0 -0.2433305638685194 0.41180726758166358 0 -0.2454072755437606 0.4312301048156057 0 -0.26531974359781979 0.42266845732450947 0 -0.2621958054067226 0.44121532402395131 0 -0.2454072755437606 0.4312301048156057 0 -0.2579667928209704 0.40233278043420312 0 -0.26531974359781979 0.42266845732450947 0 -0.2433305638685194 0.41180726758166358 0 -0.26531974359781979 0.42266845732450947 0 -0.2433305638685194 0.41180726758166358 0 -0.2579667928209704 0.40233278043420312 0 -0.26531974359781979 0.42266845732450947 0 -0.27167044937907009 0.40639887674431768 0 -0.26531974359781979 0.42266845732450947 0 -0.27167044937907009 0.40639887674431768 0 -0.27827659008124578 0.41773886297590151 0 -0.27167044937907009 0.40639887674431768 0 -0.27827659008124578 0.41773886297590151 0 -0.28344486193404589 0.406467529179392 0 -0.26531974359781979 0.42266845732450947 0 -0.27827659008124578 0.41773886297590151 0 -0.28730892332712082 0.43352964706735397 0 -0.28730892332712082 0.43352964706735397 0 -0.2621958054067226 0.44121532402395131 0 -0.26531974359781979 0.42266845732450947 0 -0.28730892332712082 0.43352964706735397 0 -0.2621958054067226 0.44121532402395131 0 -0.26531974359781979 0.42266845732450947 0 -0.28730892332712082 0.43352964706735397 0 -0.28730892332712082 0.43352964706735397 0 -0.28900251095731189 0.41523341435800998 0 -0.29690328249472819 0.42166562048097977 0 -0.27827659008124578 0.41773886297590151 0 -0.28730892332712082 0.43352964706735397 0 -0.28900251095731189 0.41523341435800998 0 -0.28730892332712082 0.43352964706735397 0 -0.29690328249472819 0.42166562048097977 0 -0.30280267559022872 0.42878790312630549 0 -0.28730892332712082 0.43352964706735397 0 -0.30280267559022872 0.42878790312630549 0 -0.28344486193404589 0.406467529179392 0 -0.28900251095731189 0.41523341435800998 0 -0.29265693464307369 0.40687018525515523 0 -0.27827659008124578 0.41773886297590151 0 -0.28344486193404589 0.406467529179392 0 -0.28900251095731189 0.41523341435800998 0 -0.28900251095731189 0.41523341435800998 0 -0.29999680060243789 0.41212441724462617 0 -0.29690328249472819 0.42166562048097977 0 -0.28900251095731189 0.41523341435800998 0 -0.29265693464307369 0.40687018525515523 0 -0.29999680060243789 0.41212441724462617 0 -0.30170722775389502 0.40309123368119859 0 -0.29265693464307369 0.40687018525515523 0 -0.29999680060243789 0.41212441724462617 0 -0.29999680060243789 0.41212441724462617 0 -0.29690328249472819 0.42166562048097977 0 -0.30612423561070251 0.41830213242596997 0 -0.31858907832273581 0.42331905111406087 0 -0.30612423561070251 0.41830213242596997 0 -0.31283987334645708 0.40883442309159063 0 -0.30170722775389502 0.40309123368119859 0 -0.29999680060243789 0.41212441724462617 0 -0.31283987334645708 0.40883442309159063 0 -0.29999680060243789 0.41212441724462617 0 -0.30612423561070251 0.41830213242596997 0 -0.31858907832273581 0.42331905111406087 0 -0.30280267559022872 0.42878790312630549 0 -0.31858907832273581 0.42331905111406087 0 -0.3145452713527559 0.43470420544638377 0 -0.30280267559022872 0.42878790312630549 0 -0.28730892332712082 0.43352964706735397 0 -0.30280267559022872 0.42878790312630549 0 -0.3112724757996756 0.44536604540149882 0 -0.31858907832273581 0.42331905111406087 0 -0.30612423561070251 0.41830213242596997 0 -0.30280267559022872 0.42878790312630549 0 -0.3145452713527559 0.43470420544638377 0 -0.30280267559022872 0.42878790312630549 0 -0.3112724757996756 0.44536604540149882 0 -0.29690328249472819 0.42166562048097977 0 -0.30612423561070251 0.41830213242596997 0 -0.30280267559022872 0.42878790312630549 0 -0.3112724757996756 0.44536604540149882 0 -0.30569698124026867 0.46161996515285081 0 -0.29383096668494058 0.45100909724443078 0 -0.28730892332712082 0.43352964706735397 0 -0.3112724757996756 0.44536604540149882 0 -0.29383096668494058 0.45100909724443078 0 -0.28730892332712082 0.43352964706735397 0 -0.3112724757996756 0.44536604540149882 0 -0.30569698124026867 0.46161996515285081 0 -0.28639821779027291 0.46498297821908963 0 -0.29383096668494058 0.45100909724443078 0 -0.28639821779027291 0.46498297821908963 0 -0.29383096668494058 0.45100909724443078 0 -0.27847823526736509 0.44954685038136089 0 -0.28730892332712082 0.43352964706735397 0 -0.29383096668494058 0.45100909724443078 0 -0.27847823526736509 0.44954685038136089 0 -0.27847823526736509 0.44954685038136089 0 -0.26738213270952338 0.46065332287947591 0 -0.2621958054067226 0.44121532402395131 0 -0.28730892332712082 0.43352964706735397 0 -0.27847823526736509 0.44954685038136089 0 -0.2621958054067226 0.44121532402395131 0 -0.28639821779027291 0.46498297821908963 0 -0.27847823526736509 0.44954685038136089 0 -0.26738213270952338 0.46065332287947591 0 -0.28639821779027291 0.46498297821908963 0 -0.26738213270952338 0.46065332287947591 0 -0.2703236078379358 0.48047242862373302 0 -0.26738213270952338 0.46065332287947591 0 -0.25215212019293959 0.4569327384527293 0 -0.25474480976190428 0.47076961757599162 0 -0.26738213270952338 0.46065332287947591 0 -0.25215212019293959 0.4569327384527293 0 -0.2621958054067226 0.44121532402395131 0 -0.25215212019293959 0.4569327384527293 0 -0.2621958054067226 0.44121532402395131 0 -0.23708268748632519 0.44890100098055058 0 -0.25473651038295009 0.5 0 -0.2703236078379358 0.48047242862373302 0 -0.24529031990638939 0.4829812714305477 0 -0.26738213270952338 0.46065332287947591 0 -0.25474480976190428 0.47076961757599162 0 -0.2703236078379358 0.48047242862373302 0 -0.25474480976190428 0.47076961757599162 0 -0.2703236078379358 0.48047242862373302 0 -0.24529031990638939 0.4829812714305477 0 -0.25473651038295009 0.5 0 -0.2703236078379358 0.48047242862373302 0 -0.28420267518649561 0.5 0 -0.2703236078379358 0.48047242862373302 0 -0.28420267518649561 0.5 0 -0.29919480631509637 0.48226753533387179 0 -0.28639821779027291 0.46498297821908963 0 -0.2703236078379358 0.48047242862373302 0 -0.29919480631509637 0.48226753533387179 0 -0.30569698124026867 0.46161996515285081 0 -0.29919480631509637 0.48226753533387179 0 -0.31908425688571018 0.47239293585077519 0 -0.30569698124026867 0.46161996515285081 0 -0.28639821779027291 0.46498297821908963 0 -0.29919480631509637 0.48226753533387179 0 -0.29919480631509637 0.48226753533387179 0 -0.31366883999004108 0.5 0 -0.31908425688571018 0.47239293585077519 0 -0.28420267518649561 0.5 0 -0.29919480631509637 0.48226753533387179 0 -0.31366883999004108 0.5 0 -0.31366883999004108 0.5 0 -0.33025373365270688 0.48694210923541348 0 -0.31908425688571018 0.47239293585077519 0 -0.34313500479358661 0.5 0 -0.33025373365270688 0.48694210923541348 0 -0.35209570835903942 0.48257551281603572 0 -0.31366883999004108 0.5 0 -0.34313500479358661 0.5 0 -0.33025373365270688 0.48694210923541348 0 -0.33025373365270688 0.48694210923541348 0 -0.31908425688571018 0.47239293585077519 0 -0.33900235481842728 0.46757704292695401 0 -0.33025373365270688 0.48694210923541348 0 -0.33900235481842728 0.46757704292695401 0 -0.35209570835903942 0.48257551281603572 0 -0.31908425688571018 0.47239293585077519 0 -0.32297922846030341 0.45673320650755161 0 -0.33900235481842728 0.46757704292695401 0 -0.3112724757996756 0.44536604540149882 0 -0.30569698124026867 0.46161996515285081 0 -0.32297922846030341 0.45673320650755161 0 -0.30569698124026867 0.46161996515285081 0 -0.31908425688571018 0.47239293585077519 0 -0.32297922846030341 0.45673320650755161 0 -0.3112724757996756 0.44536604540149882 0 -0.32297922846030341 0.45673320650755161 0 -0.32580950616778209 0.44061671407247188 0 -0.3145452713527559 0.43470420544638377 0 -0.3112724757996756 0.44536604540149882 0 -0.32580950616778209 0.44061671407247188 0 -0.32297922846030341 0.45673320650755161 0 -0.32580950616778209 0.44061671407247188 0 -0.33700979584995672 0.45282653564075948 0 -0.32580950616778209 0.44061671407247188 0 -0.33700979584995672 0.45282653564075948 0 -0.34058357964679459 0.44275890177657229 0 -0.33700979584995672 0.45282653564075948 0 -0.34058357964679459 0.44275890177657229 0 -0.35039986061209638 0.45257438446163478 0 -0.32297922846030341 0.45673320650755161 0 -0.33700979584995672 0.45282653564075948 0 -0.33900235481842728 0.46757704292695401 0 -0.33700979584995672 0.45282653564075948 0 -0.33900235481842728 0.46757704292695401 0 -0.35039986061209638 0.45257438446163478 0 -0.33900235481842728 0.46757704292695401 0 -0.35613051595030221 0.46601345057848692 0 -0.35039986061209638 0.45257438446163478 0 -0.35613051595030221 0.46601345057848692 0 -0.35039986061209638 0.45257438446163478 0 -0.36318958447702371 0.4510549129553123 0 -0.34058357964679459 0.44275890177657229 0 -0.35039986061209638 0.45257438446163478 0 -0.35775774519919112 0.4390838723300069 0 -0.35039986061209638 0.45257438446163478 0 -0.35775774519919112 0.4390838723300069 0 -0.36318958447702371 0.4510549129553123 0 -0.38357449999343551 0.44947474228202539 0 -0.37700386651057838 0.43281994941734597 0 -0.35775774519919112 0.4390838723300069 0 -0.38357449999343551 0.44947474228202539 0 -0.35775774519919112 0.4390838723300069 0 -0.36318958447702371 0.4510549129553123 0 -0.38357449999343551 0.44947474228202539 0 -0.36318958447702371 0.4510549129553123 0 -0.36985250797186892 0.45774409643025621 0 -0.38357449999343551 0.44947474228202539 0 -0.35775774519919112 0.4390838723300069 0 -0.35613051595030221 0.46601345057848692 0 -0.36985250797186892 0.45774409643025621 0 -0.37145147134208079 0.47492047415535948 0 -0.38196615058521222 0.46232555044454787 0 -0.36985250797186892 0.45774409643025621 0 -0.37145147134208079 0.47492047415535948 0 -0.35613051595030221 0.46601345057848692 0 -0.36985250797186892 0.45774409643025621 0 -0.35613051595030221 0.46601345057848692 0 -0.36318958447702371 0.4510549129553123 0 -0.36985250797186892 0.45774409643025621 0 -0.35613051595030221 0.46601345057848692 0 -0.37145147134208079 0.47492047415535948 0 -0.35209570835903942 0.48257551281603572 0 -0.37145147134208079 0.47492047415535948 0 -0.37260116959713208 0.5 0 -0.35209570835903942 0.48257551281603572 0 -0.34313500479358661 0.5 0 -0.37260116959713208 0.5 0 -0.35209570835903942 0.48257551281603572 0 -0.33900235481842728 0.46757704292695401 0 -0.35613051595030221 0.46601345057848692 0 -0.35209570835903942 0.48257551281603572 0 -0.14603718706823279 0.47105467522594868 0 -0.1347977349745561 0.48578114025847202 0 -0.16015647918881901 0.48532544048093529 0 -0.14603718706823279 0.47105467522594868 0 -0.16015647918881901 0.48532544048093529 0 -0.14667283848446019 0.5 0 -0.1347977349745561 0.48578114025847202 0 -0.16015647918881901 0.48532544048093529 0 -0.14667283848446019 0.5 0 -0.1347977349745561 0.48578114025847202 0 -0.12084574077210521 0.5 0 -0.14603718706823279 0.47105467522594868 0 -0.1347977349745561 0.48578114025847202 0 -0.1248439306779754 0.47015693353475119 0 -0.1347977349745561 0.48578114025847202 0 -0.1248439306779754 0.47015693353475119 0 -0.1162957698088448 0.48530707093783348 0 -0.14603718706823279 0.47105467522594868 0 -0.1248439306779754 0.47015693353475119 0 -0.14603718706823279 0.47105467522594868 0 -0.1251174229778457 0.44991048187872179 0 -0.14341279482816369 0.44465865230968987 0 -0.14603718706823279 0.47105467522594868 0 -0.1251174229778457 0.44991048187872179 0 -0.14603718706823279 0.47105467522594868 0 -0.1251174229778457 0.44991048187872179 0 -0.1248439306779754 0.47015693353475119 0 -0.1251174229778457 0.44991048187872179 0 -0.14341279482816369 0.44465865230968987 0 -0.1300075274285809 0.43184728509160669 0 -0.1251174229778457 0.44991048187872179 0 -0.14341279482816369 0.44465865230968987 0 -0.14341279482816369 0.44465865230968987 0 -0.15510776921980199 0.45280753098500548 0 -0.16170816667848201 0.43940682274065851 0 -0.14341279482816369 0.44465865230968987 0 -0.16170816667848201 0.43940682274065851 0 -0.14555961165937001 0.42843882914572118 0 -0.14341279482816369 0.44465865230968987 0 -0.16170816667848201 0.43940682274065851 0 -0.14603718706823279 0.47105467522594868 0 -0.14341279482816369 0.44465865230968987 0 -0.15510776921980199 0.45280753098500548 0 -0.14603718706823279 0.47105467522594868 0 -0.15510776921980199 0.45280753098500548 0 -0.16097695288014099 0.46127420158038301 0 -0.14603718706823279 0.47105467522594868 0 -0.16097695288014099 0.46127420158038301 0 -0.1739209515220457 0.47223582537091802 0 -0.15510776921980199 0.45280753098500548 0 -0.16097695288014099 0.46127420158038301 0 -0.16340374464399049 0.44764330306834688 0 -0.16097695288014099 0.46127420158038301 0 -0.16340374464399049 0.44764330306834688 0 -0.17260445979049621 0.45808265733441722 0 -0.16097695288014099 0.46127420158038301 0 -0.17260445979049621 0.45808265733441722 0 -0.1739209515220457 0.47223582537091802 0 -0.16170816667848201 0.43940682274065851 0 -0.16340374464399049 0.44764330306834688 0 -0.1798023828047669 0.44758928765080769 0 -0.16170816667848201 0.43940682274065851 0 -0.16340374464399049 0.44764330306834688 0 -0.15510776921980199 0.45280753098500548 0 -0.16170816667848201 0.43940682274065851 0 -0.16340374464399049 0.44764330306834688 0 -0.16340374464399049 0.44764330306834688 0 -0.1798023828047669 0.44758928765080769 0 -0.17260445979049621 0.45808265733441722 0 -0.16170816667848201 0.43940682274065851 0 -0.1798023828047669 0.44758928765080769 0 -0.18341828266189511 0.43317476416313377 0 -0.1798023828047669 0.44758928765080769 0 -0.1969273690788062 0.43930435800478679 0 -0.18341828266189511 0.43317476416313377 0 -0.1798023828047669 0.44758928765080769 0 -0.18491826710153661 0.46167066900163062 0 -0.19769097969073379 0.45466413097232689 0 -0.17260445979049621 0.45808265733441722 0 -0.18491826710153661 0.46167066900163062 0 -0.1739209515220457 0.47223582537091802 0 -0.1798023828047669 0.44758928765080769 0 -0.17260445979049621 0.45808265733441722 0 -0.18491826710153661 0.46167066900163062 0 -0.18491826710153661 0.46167066900163062 0 -0.1739209515220457 0.47223582537091802 0 -0.20180471597585861 0.47341697551588707 0 -0.18676596519792621 0.48329569450870791 0 -0.1739209515220457 0.47223582537091802 0 -0.19004292544566631 0.47787499222500252 0 -0.18676596519792621 0.48329569450870791 0 -0.1739209515220457 0.47223582537091802 0 -0.17501732753956489 0.48590409805226298 0 -0.14603718706823279 0.47105467522594868 0 -0.1739209515220457 0.47223582537091802 0 -0.16015647918881901 0.48532544048093529 0 -0.14603718706823279 0.47105467522594868 0 -0.1739209515220457 0.47223582537091802 0 -0.1739209515220457 0.47223582537091802 0 -0.16015647918881901 0.48532544048093529 0 -0.17501732753956489 0.48590409805226298 0 -0.14667283848446019 0.5 0 -0.16015647918881901 0.48532544048093529 0 -0.17249993619681539 0.5 0 -0.16015647918881901 0.48532544048093529 0 -0.17427577130940539 0.49959620573592189 0 -0.17501732753956489 0.48590409805226298 0 -0.16015647918881901 0.48532544048093529 0 -0.17249993619681539 0.5 0 -0.17427577130940539 0.49959620573592189 0 -0.16015647918881901 0.48532544048093529 0 -0.17427577130940539 0.49959620573592189 0 -0.17427577130940539 0.49959620573592189 0 -0.19259830486890239 0.5 0 -0.19124916096692821 0.49573674978920562 0 -0.18676596519792621 0.48329569450870791 0 -0.17501732753956489 0.48590409805226298 0 -0.19124916096692821 0.49573674978920562 0 -0.17427577130940539 0.49959620573592189 0 -0.17501732753956489 0.48590409805226298 0 -0.19124916096692821 0.49573674978920562 0 -0.17427577130940539 0.49959620573592189 0 -0.19124916096692821 0.49573674978920562 0 -0.17249993619681539 0.5 0 -0.17427577130940539 0.49959620573592189 0 -0.19259830486890239 0.5 0 -0.19124916096692821 0.49573674978920562 0 -0.20822255062445089 0.49187729384248913 0 -0.19124916096692821 0.49573674978920562 0 -0.19768006908683461 0.48255147350449701 0 -0.20822255062445089 0.49187729384248913 0 -0.19124916096692821 0.49573674978920562 0 -0.20822255062445089 0.49187729384248913 0 -0.18676596519792621 0.48329569450870791 0 -0.19124916096692821 0.49573674978920562 0 -0.19768006908683461 0.48255147350449701 0 -0.19768006908683461 0.48255147350449701 0 -0.20180471597585861 0.47341697551588707 0 -0.20822255062445089 0.49187729384248913 0 -0.1739209515220457 0.47223582537091802 0 -0.19004292544566631 0.47787499222500252 0 -0.20180471597585861 0.47341697551588707 0 -0.1739209515220457 0.47223582537091802 0 -0.20180471597585861 0.47341697551588707 0 -0.18676596519792621 0.48329569450870791 0 -0.19004292544566631 0.47787499222500252 0 -0.19768006908683461 0.48255147350449701 0 -0.19004292544566631 0.47787499222500252 0 -0.19768006908683461 0.48255147350449701 0 -0.20180471597585861 0.47341697551588707 0 -0.20180471597585861 0.47341697551588707 0 -0.20822255062445089 0.49187729384248913 0 -0.21401746641346239 0.48093828771583619 0 -0.22479865775150629 0.48810817308843713 0 -0.21396494735806451 0.46859484102569732 0 -0.20180471597585861 0.47341697551588707 0 -0.20945897863345939 0.47701901219831438 0 -0.20822255062445089 0.49187729384248913 0 -0.20813316361372661 0.47041392600014131 0 -0.20945897863345939 0.47701901219831438 0 -0.21396494735806451 0.46859484102569732 0 -0.20180471597585861 0.47341697551588707 0 -0.20813316361372661 0.47041392600014131 0 -0.20660045617871231 0.46462883009902572 0 -0.20180471597585861 0.47341697551588707 0 -0.20813316361372661 0.47041392600014131 0 -0.20945897863345939 0.47701901219831438 0 -0.20945897863345939 0.47701901219831438 0 -0.21401746641346239 0.48093828771583619 0 -0.20822255062445089 0.49187729384248913 0 -0.20945897863345939 0.47701901219831438 0 -0.21401746641346239 0.48093828771583619 0 -0.21396494735806451 0.46859484102569732 0 -0.19259830486890239 0.5 0 -0.21052133012809041 0.49999999999999789 0 -0.20822255062445089 0.49187729384248913 0 -0.20822255062445089 0.49187729384248913 0 -0.22479865775150629 0.48810817308843713 0 -0.21401746641346239 0.48093828771583619 0 -0.20822255062445089 0.49187729384248913 0 -0.22479865775150629 0.48810817308843713 0 -0.20822255062445089 0.49187729384248913 0 -0.21720322102086259 0.49499636673272979 0 -0.22479865775150629 0.48810817308843713 0 -0.21052133012809041 0.49999999999999789 0 -0.20822255062445089 0.49187729384248913 0 -0.21052133012809041 0.49999999999999789 0 -0.20822255062445089 0.49187729384248913 0 -0.21720322102086259 0.49499636673272979 0 -0.21052133012809041 0.49999999999999789 0 -0.21720322102086259 0.49499636673272979 0 -0.22527034557940451 0.50000000000000244 0 -0.22527034557940451 0.50000000000000244 0 -0.22479865775150629 0.48810817308843713 0 -0.21720322102086259 0.49499636673272979 0 -0.22527034557940451 0.50000000000000244 0 -0.22479865775150629 0.48810817308843713 0 -0.23000946788217411 0.48692332477281308 0 -0.22479865775150629 0.48810817308843713 0 -0.23415103357760439 0.4821979521921107 0 -0.22527034557940451 0.50000000000000244 0 -0.23000946788217411 0.48692332477281308 0 -0.22479865775150629 0.48810817308843713 0 -0.23000946788217411 0.48692332477281308 0 -0.22479865775150629 0.48810817308843713 0 -0.22479865775150629 0.48810817308843713 0 -0.22364623321407931 0.45905414133856359 0 -0.21396494735806451 0.46859484102569732 0 -0.22479865775150629 0.48810817308843713 0 -0.23650568877034661 0.4707790394766449 0 -0.22364623321407931 0.45905414133856359 0 -0.22479865775150629 0.48810817308843713 0 -0.23415103357760439 0.4821979521921107 0 -0.23650568877034661 0.4707790394766449 0 -0.22479865775150629 0.48810817308843713 0 -0.22364623321407931 0.45905414133856359 0 -0.25474480976190428 0.47076961757599162 0 -0.23650568877034661 0.4707790394766449 0 -0.24529031990638939 0.4829812714305477 0 -0.23415103357760439 0.4821979521921107 0 -0.23650568877034661 0.4707790394766449 0 -0.24529031990638939 0.4829812714305477 0 -0.23000946788217411 0.48692332477281308 0 -0.23415103357760439 0.4821979521921107 0 -0.24529031990638939 0.4829812714305477 0 -0.25473651038295009 0.5 0 -0.23000946788217411 0.48692332477281308 0 -0.24529031990638939 0.4829812714305477 0 -0.25473651038295009 0.5 0 -0.22527034557940451 0.50000000000000244 0 -0.23000946788217411 0.48692332477281308 0 -0.2621958054067226 0.44121532402395131 0 -0.23708268748632519 0.44890100098055058 0 -0.2621958054067226 0.44121532402395131 0 -0.23708268748632519 0.44890100098055058 0 -0.2454072755437606 0.4312301048156057 0 -0.25215212019293959 0.4569327384527293 0 -0.23650568877034661 0.4707790394766449 0 -0.23708268748632519 0.44890100098055058 0 -0.25215212019293959 0.4569327384527293 0 -0.25474480976190428 0.47076961757599162 0 -0.23650568877034661 0.4707790394766449 0 -0.23650568877034661 0.4707790394766449 0 -0.23708268748632519 0.44890100098055058 0 -0.22364623321407931 0.45905414133856359 0 -0.22364623321407931 0.45905414133856359 0 -0.21069525132297801 0.44364979047304021 0 -0.222493808676651 0.43000010958868989 0 -0.22364623321407931 0.45905414133856359 0 -0.222493808676651 0.43000010958868989 0 -0.23708268748632519 0.44890100098055058 0 -0.22364623321407931 0.45905414133856359 0 -0.222493808676651 0.43000010958868989 0 -0.21069525132297801 0.44364979047304021 0 -0.21015623503610259 0.45691214073506509 0 -0.19769097969073379 0.45466413097232689 0 -0.22364623321407931 0.45905414133856359 0 -0.21396494735806451 0.46859484102569732 0 -0.21015623503610259 0.45691214073506509 0 -0.22364623321407931 0.45905414133856359 0 -0.21069525132297801 0.44364979047304021 0 -0.21015623503610259 0.45691214073506509 0 -0.21015623503610259 0.45691214073506509 0 -0.20660045617871231 0.46462883009902572 0 -0.19769097969073379 0.45466413097232689 0 -0.21396494735806451 0.46859484102569732 0 -0.21015623503610259 0.45691214073506509 0 -0.20660045617871231 0.46462883009902572 0 -0.20813316361372661 0.47041392600014131 0 -0.21396494735806451 0.46859484102569732 0 -0.20660045617871231 0.46462883009902572 0 -0.20180471597585861 0.47341697551588707 0 -0.20660045617871231 0.46462883009902572 0 -0.19769097969073379 0.45466413097232689 0 -0.18491826710153661 0.46167066900163062 0 -0.20180471597585861 0.47341697551588707 0 -0.19769097969073379 0.45466413097232689 0 -0.20180471597585861 0.47341697551588707 0 -0.19769097969073379 0.45466413097232689 0 -0.1798023828047669 0.44758928765080769 0 -0.19769097969073379 0.45466413097232689 0 -0.1969273690788062 0.43930435800478679 0 -0.21069525132297801 0.44364979047304021 0 -0.19769097969073379 0.45466413097232689 0 -0.1969273690788062 0.43930435800478679 0 -0.1969273690788062 0.43930435800478679 0 -0.20512839864530799 0.42694270558560887 0 -0.18341828266189511 0.43317476416313377 0 -0.19419151936535259 0.41213805344984689 0 -0.20512839864530799 0.42694270558560887 0 -0.18341828266189511 0.43317476416313377 0 -0.20512839864530799 0.42694270558560887 0 -0.18341828266189511 0.43317476416313377 0 -0.19419151936535259 0.41213805344984689 0 -0.20761309019003099 0.40909981334662121 0 -0.20512839864530799 0.42694270558560887 0 -0.19419151936535259 0.41213805344984689 0 -0.20761309019003099 0.40909981334662121 0 -0.1990914428281097 0.40000462035732909 0 -0.21414417041280309 0.4167471765899341 0 -0.20761309019003099 0.40909981334662121 0 -0.22134138413921969 0.40094607783881647 0 -0.21414417041280309 0.4167471765899341 0 -0.20761309019003099 0.40909981334662121 0 -0.20512839864530799 0.42694270558560887 0 -0.21069525132297801 0.44364979047304021 0 -0.1969273690788062 0.43930435800478679 0 -0.20512839864530799 0.42694270558560887 0 -0.21414417041280309 0.4167471765899341 0 -0.20512839864530799 0.42694270558560887 0 -0.222493808676651 0.43000010958868989 0 -0.21069525132297801 0.44364979047304021 0 -0.20512839864530799 0.42694270558560887 0 -0.222493808676651 0.43000010958868989 0 -0.222493808676651 0.43000010958868989 0 -0.2433305638685194 0.41180726758166358 0 -0.22134138413921969 0.40094607783881647 0 -0.2433305638685194 0.41180726758166358 0 -0.22134138413921969 0.40094607783881647 0 -0.21414417041280309 0.4167471765899341 0 -0.222493808676651 0.43000010958868989 0 -0.22134138413921969 0.40094607783881647 0 -0.222493808676651 0.43000010958868989 0 -0.22134138413921969 0.40094607783881647 0 -0.222493808676651 0.43000010958868989 0 -0.2433305638685194 0.41180726758166358 0 -0.2454072755437606 0.4312301048156057 0 -0.23708268748632519 0.44890100098055058 0 -0.222493808676651 0.43000010958868989 0 -0.2454072755437606 0.4312301048156057 0 -0.23587849819277201 0.3812845664901367 0 -0.24442080765291929 0.39167101754676842 0 -0.22863306215097109 0.39113241710644869 0 -0.23587849819277201 0.3812845664901367 0 -0.24609435682760589 0.37689211691858182 0 -0.24442080765291929 0.39167101754676842 0 -0.23587849819277201 0.3812845664901367 0 -0.24609435682760589 0.37689211691858182 0 -0.23631174808201691 0.36970490158577912 0 -0.23587849819277201 0.3812845664901367 0 -0.2310004315715711 0.37500775070015752 0 -0.23631174808201691 0.36970490158577912 0 -0.25579841757693111 0.38512922902896918 0 -0.24609435682760589 0.37689211691858182 0 -0.24442080765291929 0.39167101754676842 0 -0.2579667928209704 0.40233278043420312 0 -0.2433305638685194 0.41180726758166358 0 -0.24442080765291929 0.39167101754676842 0 -0.2433305638685194 0.41180726758166358 0 -0.24442080765291929 0.39167101754676842 0 -0.22863306215097109 0.39113241710644869 0 -0.2433305638685194 0.41180726758166358 0 -0.22863306215097109 0.39113241710644869 0 -0.22134138413921969 0.40094607783881647 0 -0.22134138413921969 0.40094607783881647 0 -0.22045699807677149 0.37864962379514022 0 -0.22863306215097109 0.39113241710644869 0 -0.2244050789082743 0.37966068389404739 0 -0.22045699807677149 0.37864962379514022 0 -0.22863306215097109 0.39113241710644869 0 -0.22134138413921969 0.40094607783881647 0 -0.22045699807677149 0.37864962379514022 0 -0.23587849819277201 0.3812845664901367 0 -0.22863306215097109 0.39113241710644869 0 -0.2244050789082743 0.37966068389404739 0 -0.23587849819277201 0.3812845664901367 0 -0.2310004315715711 0.37500775070015752 0 -0.2244050789082743 0.37966068389404739 0 -0.2310004315715711 0.37500775070015752 0 -0.2244050789082743 0.37966068389404739 0 -0.2272598939465349 0.37262333676813958 0 -0.2244050789082743 0.37966068389404739 0 -0.22045699807677149 0.37864962379514022 0 -0.2272598939465349 0.37262333676813958 0 -0.2244050789082743 0.37966068389404739 0 -0.22045699807677149 0.37864962379514022 0 -0.22045699807677149 0.37864962379514022 0 -0.21014234309151569 0.39541449770465981 0 -0.19712786949277841 0.38806415594015198 0 -0.22045699807677149 0.37864962379514022 0 -0.19712786949277841 0.38806415594015198 0 -0.1997820443454261 0.37335499542845452 0 -0.22045699807677149 0.37864962379514022 0 -0.1997820443454261 0.37335499542845452 0 -0.22134138413921969 0.40094607783881647 0 -0.22045699807677149 0.37864962379514022 0 -0.21014234309151569 0.39541449770465981 0 -0.20761309019003099 0.40909981334662121 0 -0.22134138413921969 0.40094607783881647 0 -0.21014234309151569 0.39541449770465981 0 -0.22134138413921969 0.40094607783881647 0 -0.21014234309151569 0.39541449770465981 0 -0.20761309019003099 0.40909981334662121 0 -0.21014234309151569 0.39541449770465981 0 -0.1990914428281097 0.40000462035732909 0 -0.21014234309151569 0.39541449770465981 0 -0.1990914428281097 0.40000462035732909 0 -0.19712786949277841 0.38806415594015198 0 -0.1990914428281097 0.40000462035732909 0 -0.19712786949277841 0.38806415594015198 0 -0.18530577387678829 0.39765345266744512 0 -0.19419151936535259 0.41213805344984689 0 -0.1990914428281097 0.40000462035732909 0 -0.18530577387678829 0.39765345266744512 0 -0.19712786949277841 0.38806415594015198 0 -0.18237628870676509 0.38281936939278788 0 -0.1997820443454261 0.37335499542845452 0 -0.19712786949277841 0.38806415594015198 0 -0.18237628870676509 0.38281936939278788 0 -0.18530577387678829 0.39765345266744512 0 -0.18237628870676509 0.38281936939278788 0 -0.16465660289972631 0.37579727384196171 0 -0.17910709061408209 0.36806036706176359 0 -0.18237628870676509 0.38281936939278788 0 -0.16465660289972631 0.37579727384196171 0 -0.1682783510117897 0.39398597141694808 0 -0.16465660289972631 0.37579727384196171 0 -0.1682783510117897 0.39398597141694808 0 -0.15020611518537119 0.38353418062216083 0 -0.16465660289972631 0.37579727384196171 0 -0.15020611518537119 0.38353418062216083 0 -0.1682783510117897 0.39398597141694808 0 -0.15595714093192481 0.41147050168140997 0 -0.15020611518537119 0.38353418062216083 0 -0.1682783510117897 0.39398597141694808 0 -0.17620976108036421 0.412837085341553 0 -0.15595714093192481 0.41147050168140997 0 -0.18237628870676509 0.38281936939278788 0 -0.1682783510117897 0.39398597141694808 0 -0.18530577387678829 0.39765345266744512 0 -0.1682783510117897 0.39398597141694808 0 -0.18530577387678829 0.39765345266744512 0 -0.17620976108036421 0.412837085341553 0 -0.19419151936535259 0.41213805344984689 0 -0.18530577387678829 0.39765345266744512 0 -0.17620976108036421 0.412837085341553 0 -0.19419151936535259 0.41213805344984689 0 -0.17620976108036421 0.412837085341553 0 -0.18341828266189511 0.43317476416313377 0 -0.16170816667848201 0.43940682274065851 0 -0.18341828266189511 0.43317476416313377 0 -0.17620976108036421 0.412837085341553 0 -0.18341828266189511 0.43317476416313377 0 -0.1693233378381665 0.42422229348168888 0 -0.16170816667848201 0.43940682274065851 0 -0.18341828266189511 0.43317476416313377 0 -0.1693233378381665 0.42422229348168888 0 -0.16170816667848201 0.43940682274065851 0 -0.15595714093192481 0.41147050168140997 0 -0.16170816667848201 0.43940682274065851 0 -0.1693233378381665 0.42422229348168888 0 -0.15595714093192481 0.41147050168140997 0 -0.17620976108036421 0.412837085341553 0 -0.1693233378381665 0.42422229348168888 0 -0.15595714093192481 0.41147050168140997 0 -0.15595714093192481 0.41147050168140997 0 -0.13671242842969841 0.41481088390524062 0 -0.1447962595306968 0.40019754605569968 0 -0.15595714093192481 0.41147050168140997 0 -0.14555961165937001 0.42843882914572118 0 -0.13671242842969841 0.41481088390524062 0 -0.16170816667848201 0.43940682274065851 0 -0.15595714093192481 0.41147050168140997 0 -0.14555961165937001 0.42843882914572118 0 -0.14341279482816369 0.44465865230968987 0 -0.14555961165937001 0.42843882914572118 0 -0.1300075274285809 0.43184728509160669 0 -0.1300075274285809 0.43184728509160669 0 -0.13671242842969841 0.41481088390524062 0 -0.1171512206080559 0.41918941498794088 0 -0.14555961165937001 0.42843882914572118 0 -0.1300075274285809 0.43184728509160669 0 -0.13671242842969841 0.41481088390524062 0 -0.13671242842969841 0.41481088390524062 0 -0.13630935357579299 0.39097461801398659 0 -0.11359212236027549 0.40313760542957072 0 -0.13671242842969841 0.41481088390524062 0 -0.13630935357579299 0.39097461801398659 0 -0.1447962595306968 0.40019754605569968 0 -0.13671242842969841 0.41481088390524062 0 -0.13630935357579299 0.39097461801398659 0 -0.13630935357579299 0.39097461801398659 0 -0.13602169828187499 0.37396381219365338 0 -0.13630935357579299 0.39097461801398659 0 -0.13602169828187499 0.37396381219365338 0 -0.1235107131369523 0.38376834649550079 0 -0.13602169828187499 0.37396381219365338 0 -0.1218812127072432 0.36962893694440041 0 -0.1235107131369523 0.38376834649550079 0 -0.13630935357579299 0.39097461801398659 0 -0.15020611518537119 0.38353418062216083 0 -0.13602169828187499 0.37396381219365338 0 -0.13630935357579299 0.39097461801398659 0 -0.15020611518537119 0.38353418062216083 0 -0.15595714093192481 0.41147050168140997 0 -0.15020611518537119 0.38353418062216083 0 -0.15595714093192481 0.41147050168140997 0 -0.15020611518537119 0.38353418062216083 0 -0.1447962595306968 0.40019754605569968 0 -0.13630935357579299 0.39097461801398659 0 -0.15020611518537119 0.38353418062216083 0 -0.1447962595306968 0.40019754605569968 0 -0.15036033532043569 0.34735634131424142 0 -0.14523494026894901 0.35938608172171121 0 -0.16217101544151499 0.36372322439173937 0 -0.15036033532043569 0.34735634131424142 0 -0.14523494026894901 0.35938608172171121 0 -0.14090013357628881 0.33832922041857449 0 -0.14523494026894901 0.35938608172171121 0 -0.14090013357628881 0.33832922041857449 0 -0.15020611518537119 0.38353418062216083 0 -0.14523494026894901 0.35938608172171121 0 -0.13602169828187499 0.37396381219365338 0 -0.15020611518537119 0.38353418062216083 0 -0.14523494026894901 0.35938608172171121 0 -0.16217101544151499 0.36372322439173937 0 -0.14523494026894901 0.35938608172171121 0 -0.16217101544151499 0.36372322439173937 0 -0.15020611518537119 0.38353418062216083 0 -0.14523494026894901 0.35938608172171121 0 -0.13602169828187499 0.37396381219365338 0 -0.12731417856514909 0.36251937461001837 0 -0.13573404298795769 0.35695300637332011 0 -0.14523494026894901 0.35938608172171121 0 -0.13602169828187499 0.37396381219365338 0 -0.13573404298795769 0.35695300637332011 0 -0.13602169828187499 0.37396381219365338 0 -0.13573404298795769 0.35695300637332011 0 -0.13602169828187499 0.37396381219365338 0 -0.12731417856514909 0.36251937461001837 0 -0.1218812127072432 0.36962893694440041 0 -0.13573404298795769 0.35695300637332011 0 -0.13022300430503819 0.34697680439308243 0 -0.13534683846353371 0.33405524951990478 0 -0.13573404298795769 0.35695300637332011 0 -0.13022300430503819 0.34697680439308243 0 -0.12059520332410931 0.35307611595970279 0 -0.13573404298795769 0.35695300637332011 0 -0.13534683846353371 0.33405524951990478 0 -0.12731417856514909 0.36251937461001837 0 -0.13573404298795769 0.35695300637332011 0 -0.12059520332410931 0.35307611595970279 0 -0.14523494026894901 0.35938608172171121 0 -0.13573404298795769 0.35695300637332011 0 -0.14090013357628881 0.33832922041857449 0 -0.13573404298795769 0.35695300637332011 0 -0.12059520332410931 0.35307611595970279 0 -0.14523494026894901 0.35938608172171121 0 -0.13573404298795769 0.35695300637332011 0 -0.13022300430503819 0.34697680439308243 0 -0.12900606968278641 0.33806786040455422 0 -0.13534683846353371 0.33405524951990478 0 -0.13534683846353371 0.33405524951990478 0 -0.13656532688362791 0.31727235911543822 0 -0.14090013357628881 0.33832922041857449 0 -0.13022300430503819 0.34697680439308243 0 -0.12900606968278641 0.33806786040455422 0 -0.1220831832376227 0.33899936957319349 0 -0.13573404298795769 0.35695300637332011 0 -0.13534683846353371 0.33405524951990478 0 -0.14090013357628881 0.33832922041857449 0 -0.12900606968278641 0.33806786040455422 0 -0.1283712527249512 0.3322400181320358 0 -0.1220831832376227 0.33899936957319349 0 -0.12900606968278641 0.33806786040455422 0 -0.1283712527249512 0.3322400181320358 0 -0.13534683846353371 0.33405524951990478 0 -0.1283712527249512 0.3322400181320358 0 -0.13534683846353371 0.33405524951990478 0 -0.13656532688362791 0.31727235911543822 0 -0.13656532688362791 0.31727235911543822 0 -0.14090013357628881 0.33832922041857449 0 -0.13656532688362791 0.31727235911543822 0 -0.12734652110589809 0.30819554397352439 0 -0.1236377507415423 0.32520040947199541 0 -0.1283712527249512 0.3322400181320358 0 -0.13656532688362791 0.31727235911543822 0 -0.1236377507415423 0.32520040947199541 0 -0.13656532688362791 0.31727235911543822 0 -0.15299211787041239 0.32486532431053422 0 -0.14090013357628881 0.33832922041857449 0 -0.13656532688362791 0.31727235911543822 0 -0.15299211787041239 0.32486532431053422 0 -0.14361112679995941 0.30484728040275161 0 -0.15299211787041239 0.32486532431053422 0 -0.16594888529195059 0.31187677851033818 0 -0.14361112679995941 0.30484728040275161 0 -0.15299211787041239 0.32486532431053422 0 -0.15147540849748881 0.33782700927056641 0 -0.16164904722281831 0.34075715103891552 0 -0.15036033532043569 0.34735634131424142 0 -0.14090013357628881 0.33832922041857449 0 -0.15147540849748881 0.33782700927056641 0 -0.15299211787041239 0.32486532431053422 0 -0.14090013357628881 0.33832922041857449 0 -0.15147540849748881 0.33782700927056641 0 -0.15036033532043569 0.34735634131424142 0 -0.15147540849748881 0.33782700927056641 0 -0.16164904722281831 0.34075715103891552 0 -0.15299211787041239 0.32486532431053422 0 -0.16164904722281831 0.34075715103891552 0 -0.17692802731694801 0.32958201272077958 0 -0.15299211787041239 0.32486532431053422 0 -0.17692802731694801 0.32958201272077958 0 -0.16594888529195059 0.31187677851033818 0 -0.1859951567860392 0.31481026229346909 0 -0.17692802731694801 0.32958201272077958 0 -0.16594888529195059 0.31187677851033818 0 -0.1859951567860392 0.31481026229346909 0 -0.17692802731694801 0.32958201272077958 0 -0.1911803753788355 0.32855209582425737 0 -0.16164904722281831 0.34075715103891552 0 -0.17692802731694801 0.32958201272077958 0 -0.18778343854158919 0.345089784846079 0 -0.17692802731694801 0.32958201272077958 0 -0.18778343854158919 0.345089784846079 0 -0.1911803753788355 0.32855209582425737 0 -0.16164904722281831 0.34075715103891552 0 -0.18778343854158919 0.345089784846079 0 -0.1739440078932101 0.3529863028017961 0 -0.18778343854158919 0.345089784846079 0 -0.1965124602372193 0.35874139285749218 0 -0.16164904722281831 0.34075715103891552 0 -0.1739440078932101 0.3529863028017961 0 -0.18778343854158919 0.345089784846079 0 -0.15036033532043569 0.34735634131424142 0 -0.16164904722281831 0.34075715103891552 0 -0.16217101544151499 0.36372322439173937 0 -0.16164904722281831 0.34075715103891552 0 -0.1739440078932101 0.3529863028017961 0 -0.16217101544151499 0.36372322439173937 0 -0.1739440078932101 0.3529863028017961 0 -0.16217101544151499 0.36372322439173937 0 -0.17910709061408209 0.36806036706176359 0 -0.16465660289972631 0.37579727384196171 0 -0.16217101544151499 0.36372322439173937 0 -0.17910709061408209 0.36806036706176359 0 -0.16465660289972631 0.37579727384196171 0 -0.15020611518537119 0.38353418062216083 0 -0.16217101544151499 0.36372322439173937 0 -0.16217101544151499 0.36372322439173937 0 -0.17910709061408209 0.36806036706176359 0 -0.18237628870676509 0.38281936939278788 0 -0.17910709061408209 0.36806036706176359 0 -0.1997820443454261 0.37335499542845452 0 -0.1739440078932101 0.3529863028017961 0 -0.17910709061408209 0.36806036706176359 0 -0.1965124602372193 0.35874139285749218 0 -0.16465660289972631 0.37579727384196171 0 -0.17910709061408209 0.36806036706176359 0 -0.17910709061408209 0.36806036706176359 0 -0.1997820443454261 0.37335499542845452 0 -0.17910709061408209 0.36806036706176359 0 -0.1997820443454261 0.37335499542845452 0 -0.1965124602372193 0.35874139285749218 0 -0.17910709061408209 0.36806036706176359 0 -0.1965124602372193 0.35874139285749218 0 -0.1997820443454261 0.37335499542845452 0 -0.1965124602372193 0.35874139285749218 0 -0.21000052961404941 0.36209772880503632 0 -0.18778343854158919 0.345089784846079 0 -0.21391782986036209 0.34942241865323159 0 -0.18778343854158919 0.345089784846079 0 -0.1965124602372193 0.35874139285749218 0 -0.21391782986036209 0.34942241865323159 0 -0.1965124602372193 0.35874139285749218 0 -0.21391782986036209 0.34942241865323159 0 -0.21000052961404941 0.36209772880503632 0 -0.1965124602372193 0.35874139285749218 0 -0.21391782986036209 0.34942241865323159 0 -0.21391782986036209 0.34942241865323159 0 -0.21000052961404941 0.36209772880503632 0 -0.21933331555046839 0.35032021329085289 0 -0.21391782986036209 0.34942241865323159 0 -0.21918582871802819 0.34660188990113783 0 -0.21260003965454469 0.33975046477921411 0 -0.21391782986036209 0.34942241865323159 0 -0.21918582871802819 0.34660188990113783 0 -0.21933331555046839 0.35032021329085289 0 -0.21391782986036209 0.34942241865323159 0 -0.21933331555046839 0.35032021329085289 0 -0.21391782986036209 0.34942241865323159 0 -0.21918582871802819 0.34660188990113783 0 -0.22045699807677149 0.37864962379514022 0 -0.1997820443454261 0.37335499542845452 0 -0.21000052961404941 0.36209772880503632 0 -0.22045699807677149 0.37864962379514022 0 -0.21000052961404941 0.36209772880503632 0 -0.21933331555046839 0.35032021329085289 0 -0.22045699807677149 0.37864962379514022 0 -0.2272598939465349 0.37262333676813958 0 -0.22412521309403979 0.36009372386557392 0 -0.22045699807677149 0.37864962379514022 0 -0.22412521309403979 0.36009372386557392 0 -0.21933331555046839 0.35032021329085289 0 -0.22045699807677149 0.37864962379514022 0 -0.21933331555046839 0.35032021329085289 0 -0.2310004315715711 0.37500775070015752 0 -0.2272598939465349 0.37262333676813958 0 -0.23631174808201691 0.36970490158577912 0 -0.2272598939465349 0.37262333676813958 0 -0.22412521309403979 0.36009372386557392 0 -0.23631174808201691 0.36970490158577912 0 -0.21933331555046839 0.35032021329085289 0 -0.2484955859805823 0.35515481751859251 0 -0.22412521309403979 0.36009372386557392 0 -0.21933331555046839 0.35032021329085289 0 -0.2484955859805823 0.35515481751859251 0 -0.21918582871802819 0.34660188990113783 0 -0.21933331555046839 0.35032021329085289 0 -0.243241615744651 0.34560974687225782 0 -0.21918582871802819 0.34660188990113783 0 -0.21933331555046839 0.35032021329085289 0 -0.21933331555046839 0.35032021329085289 0 -0.243241615744651 0.34560974687225782 0 -0.2484955859805823 0.35515481751859251 0 -0.25131668888737901 0.36573777118583611 0 -0.22412521309403979 0.36009372386557392 0 -0.23631174808201691 0.36970490158577912 0 -0.25131668888737901 0.36573777118583611 0 -0.22412521309403979 0.36009372386557392 0 -0.25131668888737901 0.36573777118583611 0 -0.22412521309403979 0.36009372386557392 0 -0.2484955859805823 0.35515481751859251 0 -0.25131668888737901 0.36573777118583611 0 -0.24609435682760589 0.37689211691858182 0 -0.23631174808201691 0.36970490158577912 0 -0.25647260987368248 0.30596935954371429 0 -0.24488732685138509 0.33284110209244933 0 -0.236307886985645 0.31155240457022038 0 -0.21918582871802819 0.34660188990113783 0 -0.243241615744651 0.34560974687225782 0 -0.24488732685138509 0.33284110209244933 0 -0.21918582871802819 0.34660188990113783 0 -0.21845475028967631 0.32817050877454229 0 -0.21918582871802819 0.34660188990113783 0 -0.24488732685138509 0.33284110209244933 0 -0.21918582871802819 0.34660188990113783 0 -0.24488732685138509 0.33284110209244933 0 -0.21845475028967631 0.32817050877454229 0 -0.24488732685138509 0.33284110209244933 0 -0.21845475028967631 0.32817050877454229 0 -0.236307886985645 0.31155240457022038 0 -0.21845475028967631 0.32817050877454229 0 -0.21772367186132441 0.30973912764794692 0 -0.236307886985645 0.31155240457022038 0 -0.21845475028967631 0.32817050877454229 0 -0.21772367186132441 0.30973912764794692 0 -0.21845475028967631 0.32817050877454229 0 -0.20272936213831161 0.33592363903034012 0 -0.20256563000478781 0.31954633776149349 0 -0.21845475028967631 0.32817050877454229 0 -0.20256563000478781 0.31954633776149349 0 -0.21772367186132441 0.30973912764794692 0 -0.21918582871802819 0.34660188990113783 0 -0.21845475028967631 0.32817050877454229 0 -0.21260003965454469 0.33975046477921411 0 -0.21845475028967631 0.32817050877454229 0 -0.21260003965454469 0.33975046477921411 0 -0.20272936213831161 0.33592363903034012 0 -0.21391782986036209 0.34942241865323159 0 -0.21260003965454469 0.33975046477921411 0 -0.20272936213831161 0.33592363903034012 0 -0.18778343854158919 0.345089784846079 0 -0.20272936213831161 0.33592363903034012 0 -0.1911803753788355 0.32855209582425737 0 -0.18778343854158919 0.345089784846079 0 -0.21391782986036209 0.34942241865323159 0 -0.20272936213831161 0.33592363903034012 0 -0.20272936213831161 0.33592363903034012 0 -0.1911803753788355 0.32855209582425737 0 -0.20256563000478781 0.31954633776149349 0 -0.1859951567860392 0.31481026229346909 0 -0.1911803753788355 0.32855209582425737 0 -0.20256563000478781 0.31954633776149349 0 -0.1859951567860392 0.31481026229346909 0 -0.20256563000478781 0.31954633776149349 0 -0.19875222422565131 0.30384802584509563 0 -0.1859951567860392 0.31481026229346909 0 -0.19875222422565131 0.30384802584509563 0 -0.18008138945524491 0.29926667536886581 0 -0.19875222422565131 0.30384802584509563 0 -0.19480201413570661 0.28660914291789968 0 -0.2113454831108047 0.29311660908089909 0 -0.19875222422565131 0.30384802584509563 0 -0.19480201413570661 0.28660914291789968 0 -0.18008138945524491 0.29926667536886581 0 -0.19480201413570661 0.28660914291789968 0 -0.2113454831108047 0.29311660908089909 0 -0.20698397739827601 0.2790130477901378 0 -0.2113454831108047 0.29311660908089909 0 -0.22079399583561521 0.28158080021329102 0 -0.20698397739827601 0.2790130477901378 0 -0.19875222422565131 0.30384802584509563 0 -0.2113454831108047 0.29311660908089909 0 -0.21772367186132441 0.30973912764794692 0 -0.20256563000478781 0.31954633776149349 0 -0.19875222422565131 0.30384802584509563 0 -0.21772367186132441 0.30973912764794692 0 -0.2113454831108047 0.29311660908089909 0 -0.21772367186132441 0.30973912764794692 0 -0.22851683804105061 0.29652194419003242 0 -0.21772367186132441 0.30973912764794692 0 -0.22851683804105061 0.29652194419003242 0 -0.236307886985645 0.31155240457022038 0 -0.22851683804105061 0.29652194419003242 0 -0.22079399583561521 0.28158080021329102 0 -0.23708398682049101 0.27510624957551733 0 -0.2113454831108047 0.29311660908089909 0 -0.22851683804105061 0.29652194419003242 0 -0.22079399583561521 0.28158080021329102 0 -0.22851683804105061 0.29652194419003242 0 -0.24532497764207051 0.29226635226491421 0 -0.23708398682049101 0.27510624957551733 0 -0.22851683804105061 0.29652194419003242 0 -0.24532497764207051 0.29226635226491421 0 -0.236307886985645 0.31155240457022038 0 -0.25647260987368248 0.30596935954371429 0 -0.24532497764207051 0.29226635226491421 0 -0.236307886985645 0.31155240457022038 0 -0.2445739512607959 0.2575038674604756 0 -0.22119344979997979 0.25982520082248228 0 -0.24225983049638999 0.24450153809524269 0 -0.25386702737968753 0.27392986973978373 0 -0.2445739512607959 0.2575038674604756 0 -0.23708398682049101 0.27510624957551733 0 -0.25386702737968753 0.27392986973978373 0 -0.24532497764207051 0.29226635226491421 0 -0.23708398682049101 0.27510624957551733 0 -0.22079399583561521 0.28158080021329102 0 -0.23708398682049101 0.27510624957551733 0 -0.22119344979997979 0.25982520082248228 0 -0.2445739512607959 0.2575038674604756 0 -0.23708398682049101 0.27510624957551733 0 -0.22119344979997979 0.25982520082248228 0 -0.22119344979997979 0.25982520082248228 0 -0.20648687714957689 0.25050186499486288 0 -0.1978257235791768 0.26739654674117852 0 -0.22119344979997979 0.25982520082248228 0 -0.20698397739827601 0.2790130477901378 0 -0.1978257235791768 0.26739654674117852 0 -0.22079399583561521 0.28158080021329102 0 -0.22119344979997979 0.25982520082248228 0 -0.20698397739827601 0.2790130477901378 0 -0.19480201413570661 0.28660914291789968 0 -0.1978257235791768 0.26739654674117852 0 -0.17560924597656061 0.27735910928292667 0 -0.19480201413570661 0.28660914291789968 0 -0.20698397739827601 0.2790130477901378 0 -0.1978257235791768 0.26739654674117852 0 -0.1978257235791768 0.26739654674117852 0 -0.19032044224941569 0.25159013000670127 0 -0.18124530543056661 0.26193872406647378 0 -0.20648687714957689 0.25050186499486288 0 -0.1978257235791768 0.26739654674117852 0 -0.19032044224941569 0.25159013000670127 0 -0.19032044224941569 0.25159013000670127 0 -0.18124530543056661 0.26193872406647378 0 -0.17408437879610761 0.25064564606173922 0 -0.18124530543056661 0.26193872406647378 0 -0.17408437879610761 0.25064564606173922 0 -0.16838673655157241 0.26270218823982361 0 -0.17408437879610761 0.25064564606173922 0 -0.16838673655157241 0.26270218823982361 0 -0.16145592628632241 0.25191482903985191 0 -0.16838673655157241 0.26270218823982361 0 -0.16145592628632241 0.25191482903985191 0 -0.15212989983233391 0.2688484752333139 0 -0.16838673655157241 0.26270218823982361 0 -0.17560924597656061 0.27735910928292667 0 -0.15212989983233391 0.2688484752333139 0 -0.1978257235791768 0.26739654674117852 0 -0.18124530543056661 0.26193872406647378 0 -0.17560924597656061 0.27735910928292667 0 -0.18124530543056661 0.26193872406647378 0 -0.16838673655157241 0.26270218823982361 0 -0.17560924597656061 0.27735910928292667 0 -0.19480201413570661 0.28660914291789968 0 -0.17560924597656061 0.27735910928292667 0 -0.18008138945524491 0.29926667536886581 0 -0.1859951567860392 0.31481026229346909 0 -0.18008138945524491 0.29926667536886581 0 -0.16594888529195059 0.31187677851033818 0 -0.18008138945524491 0.29926667536886581 0 -0.16594888529195059 0.31187677851033818 0 -0.15608549352310019 0.29788911596562923 0 -0.17560924597656061 0.27735910928292667 0 -0.15608549352310019 0.29788911596562923 0 -0.15212989983233391 0.2688484752333139 0 -0.17560924597656061 0.27735910928292667 0 -0.18008138945524491 0.29926667536886581 0 -0.15608549352310019 0.29788911596562923 0 -0.15608549352310019 0.29788911596562923 0 -0.15212989983233391 0.2688484752333139 0 -0.14358212630255829 0.28799360508428168 0 -0.15608549352310019 0.29788911596562923 0 -0.15212989983233391 0.2688484752333139 0 -0.16594888529195059 0.31187677851033818 0 -0.14361112679995941 0.30484728040275161 0 -0.15608549352310019 0.29788911596562923 0 -0.14358212630255829 0.28799360508428168 0 -0.14361112679995941 0.30484728040275161 0 -0.15608549352310019 0.29788911596562923 0 -0.13656532688362791 0.31727235911543822 0 -0.12734652110589809 0.30819554397352439 0 -0.13223052019096701 0.29621549781230172 0 -0.13656532688362791 0.31727235911543822 0 -0.13223052019096701 0.29621549781230172 0 -0.13656532688362791 0.31727235911543822 0 -0.14361112679995941 0.30484728040275161 0 -0.13223052019096701 0.29621549781230172 0 -0.12734652110589809 0.30819554397352439 0 -0.13223052019096701 0.29621549781230172 0 -0.12525301970957939 0.29382205871496542 0 -0.14358212630255829 0.28799360508428168 0 -0.13223052019096701 0.29621549781230172 0 -0.133853591166431 0.27216765600741238 0 -0.12525301970957939 0.29382205871496542 0 -0.133853591166431 0.27216765600741238 0 -0.12213227451246129 0.28276411285194908 0 -0.14358212630255829 0.28799360508428168 0 -0.14361112679995941 0.30484728040275161 0 -0.13223052019096701 0.29621549781230172 0 -0.13223052019096701 0.29621549781230172 0 -0.12525301970957939 0.29382205871496542 0 -0.133853591166431 0.27216765600741238 0 -0.12525301970957939 0.29382205871496542 0 -0.133853591166431 0.27216765600741238 0 -0.133853591166431 0.27216765600741238 0 -0.12007295344625531 0.27179859115449462 0 -0.12213227451246129 0.28276411285194908 0 -0.133853591166431 0.27216765600741238 0 -0.12941667412378149 0.2578702625739705 0 -0.12007295344625531 0.27179859115449462 0 -0.12941667412378149 0.2578702625739705 0 -0.1424541626232827 0.25051325329985952 0 -0.1228336577714793 0.24442535321989489 0 -0.133853591166431 0.27216765600741238 0 -0.12941667412378149 0.2578702625739705 0 -0.1424541626232827 0.25051325329985952 0 -0.133853591166431 0.27216765600741238 0 -0.1424541626232827 0.25051325329985952 0 -0.15212989983233391 0.2688484752333139 0 -0.1481743061415659 0.23980783450099891 0 -0.133853591166431 0.27216765600741238 0 -0.1424541626232827 0.25051325329985952 0 -0.15212989983233391 0.2688484752333139 0 -0.1424541626232827 0.25051325329985952 0 -0.15212989983233391 0.2688484752333139 0 -0.1481743061415659 0.23980783450099891 0 -0.16145592628632241 0.25191482903985191 0 -0.15212989983233391 0.2688484752333139 0 -0.1481743061415659 0.23980783450099891 0 -0.14358212630255829 0.28799360508428168 0 -0.133853591166431 0.27216765600741238 0 -0.15212989983233391 0.2688484752333139 0 -0.10685576941222211 0.27387362680616961 0 -0.09843916164218916 0.26542804956412802 0 -0.1130949171957656 0.25907730933210138 0 -0.10685576941222211 0.27387362680616961 0 -0.09576178841375485 0.27652500182202988 0 -0.1022943310543542 0.28342210416975572 0 -0.10685576941222211 0.27387362680616961 0 -0.1130848085280463 0.28534236373819921 0 -0.1022943310543542 0.28342210416975572 0 -0.09576178841375485 0.27652500182202988 0 -0.09843916164218916 0.26542804956412802 0 -0.087415340945400447 0.26944904351782928 0 -0.10685576941222211 0.27387362680616961 0 -0.09576178841375485 0.27652500182202988 0 -0.09843916164218916 0.26542804956412802 0 -0.09843916164218916 0.26542804956412802 0 -0.098434194655151852 0.25359205744849089 0 -0.090477240373770626 0.25864787520338561 0 -0.098434194655151852 0.25359205744849089 0 -0.1130949171957656 0.25907730933210138 0 -0.10321315291967641 0.2383374531399286 0 -0.09843916164218916 0.26542804956412802 0 -0.098434194655151852 0.25359205744849089 0 -0.1130949171957656 0.25907730933210138 0 -0.12941667412378149 0.2578702625739705 0 -0.1130949171957656 0.25907730933210138 0 -0.12007295344625531 0.27179859115449462 0 -0.12941667412378149 0.2578702625739705 0 -0.1130949171957656 0.25907730933210138 0 -0.1228336577714793 0.24442535321989489 0 -0.10685576941222211 0.27387362680616961 0 -0.1130949171957656 0.25907730933210138 0 -0.12007295344625531 0.27179859115449462 0 -0.10685576941222211 0.27387362680616961 0 -0.12007295344625531 0.27179859115449462 0 -0.1130848085280463 0.28534236373819921 0 -0.12007295344625531 0.27179859115449462 0 -0.12213227451246129 0.28276411285194908 0 -0.1130848085280463 0.28534236373819921 0 -0.12213227451246129 0.28276411285194908 0 -0.1183969997119942 0.29068989464467421 0 -0.1130848085280463 0.28534236373819921 0 -0.12525301970957939 0.29382205871496542 0 -0.12213227451246129 0.28276411285194908 0 -0.1183969997119942 0.29068989464467421 0 -0.12525301970957939 0.29382205871496542 0 -0.1183969997119942 0.29068989464467421 0 -0.113922502502031 0.29780897164988618 0 -0.1130848085280463 0.28534236373819921 0 -0.113922502502031 0.29780897164988618 0 -0.1028482601902566 0.29423502078314662 0 -0.1183969997119942 0.29068989464467421 0 -0.1130848085280463 0.28534236373819921 0 -0.113922502502031 0.29780897164988618 0 -0.12525301970957939 0.29382205871496542 0 -0.1166524482527279 0.31547646142251817 0 -0.12734652110589809 0.30819554397352439 0 -0.12525301970957939 0.29382205871496542 0 -0.1166524482527279 0.31547646142251817 0 -0.113922502502031 0.29780897164988618 0 -0.10477845802176 0.30553555443414843 0 -0.1166524482527279 0.31547646142251817 0 -0.12525301970957939 0.29382205871496542 0 -0.113922502502031 0.29780897164988618 0 -0.1166524482527279 0.31547646142251817 0 -0.10477845802176 0.30553555443414843 0 -0.093017058723837157 0.29955703977778381 0 -0.094419705115873026 0.31980145713958408 0 -0.113922502502031 0.29780897164988618 0 -0.10477845802176 0.30553555443414843 0 -0.1028482601902566 0.29423502078314662 0 -0.10477845802176 0.30553555443414843 0 -0.1028482601902566 0.29423502078314662 0 -0.093017058723837157 0.29955703977778381 0 -0.1130848085280463 0.28534236373819921 0 -0.1022943310543542 0.28342210416975572 0 -0.1028482601902566 0.29423502078314662 0 -0.1028482601902566 0.29423502078314662 0 -0.092996879484467887 0.28696357673963191 0 -0.093017058723837157 0.29955703977778381 0 -0.09576178841375485 0.27652500182202988 0 -0.1022943310543542 0.28342210416975572 0 -0.092996879484467887 0.28696357673963191 0 -0.1022943310543542 0.28342210416975572 0 -0.1028482601902566 0.29423502078314662 0 -0.092996879484467887 0.28696357673963191 0 -0.09576178841375485 0.27652500182202988 0 -0.092996879484467887 0.28696357673963191 0 -0.086954175476795459 0.28034926816103872 0 -0.092996879484467887 0.28696357673963191 0 -0.082271516094794522 0.28833457942109519 0 -0.086954175476795459 0.28034926816103872 0 -0.092996879484467887 0.28696357673963191 0 -0.082271516094794522 0.28833457942109519 0 -0.093017058723837157 0.29955703977778381 0 -0.082271516094794522 0.28833457942109519 0 -0.093017058723837157 0.29955703977778381 0 -0.080787533435870945 0.30247205014909651 0 -0.082271516094794522 0.28833457942109519 0 -0.07640120320253628 0.28030320834500599 0 -0.086954175476795459 0.28034926816103872 0 -0.093017058723837157 0.29955703977778381 0 -0.080787533435870945 0.30247205014909651 0 -0.094419705115873026 0.31980145713958408 0 -0.080787533435870945 0.30247205014909651 0 -0.094419705115873026 0.31980145713958408 0 -0.080787533435870945 0.30247205014909651 0 -0.065996409097154318 0.30714116087859589 0 -0.078819272017715658 0.32156201488265912 0 -0.080787533435870945 0.30247205014909651 0 -0.065996409097154318 0.30714116087859589 0 -0.064502982277076362 0.2916935718921137 0 -0.080787533435870945 0.30247205014909651 0 -0.064502982277076362 0.2916935718921137 0 -0.067155361755868892 0.28514264315860888 0 -0.082271516094794522 0.28833457942109519 0 -0.080787533435870945 0.30247205014909651 0 -0.067155361755868892 0.28514264315860888 0 -0.080787533435870945 0.30247205014909651 0 -0.067155361755868892 0.28514264315860888 0 -0.082271516094794522 0.28833457942109519 0 -0.067155361755868892 0.28514264315860888 0 -0.07640120320253628 0.28030320834500599 0 -0.067155361755868892 0.28514264315860888 0 -0.067351626309570922 0.27413017072055201 0 -0.054970106980293559 0.27172766263957582 0 -0.067155361755868892 0.28514264315860888 0 -0.067351626309570922 0.27413017072055201 0 -0.07640120320253628 0.28030320834500599 0 -0.075562652837463357 0.26768473922310332 0 -0.07640120320253628 0.28030320834500599 0 -0.079996925635204746 0.25627638070248449 0 -0.067351626309570922 0.27413017072055201 0 -0.075562652837463357 0.26768473922310332 0 -0.060499942260486522 0.25972324630507099 0 -0.067351626309570922 0.27413017072055201 0 -0.075562652837463357 0.26768473922310332 0 -0.07640120320253628 0.28030320834500599 0 -0.07640120320253628 0.28030320834500599 0 -0.087415340945400447 0.26944904351782928 0 -0.079996925635204746 0.25627638070248449 0 -0.07640120320253628 0.28030320834500599 0 -0.087415340945400447 0.26944904351782928 0 -0.086954175476795459 0.28034926816103872 0 -0.07640120320253628 0.28030320834500599 0 -0.079996925635204746 0.25627638070248449 0 -0.09576178841375485 0.27652500182202988 0 -0.087415340945400447 0.26944904351782928 0 -0.086954175476795459 0.28034926816103872 0 -0.090477240373770626 0.25864787520338561 0 -0.079996925635204746 0.25627638070248449 0 -0.090909141276767719 0.24568707827447131 0 -0.098434194655151852 0.25359205744849089 0 -0.090477240373770626 0.25864787520338561 0 -0.090909141276767719 0.24568707827447131 0 -0.087415340945400447 0.26944904351782928 0 -0.090477240373770626 0.25864787520338561 0 -0.079996925635204746 0.25627638070248449 0 -0.09843916164218916 0.26542804956412802 0 -0.087415340945400447 0.26944904351782928 0 -0.090477240373770626 0.25864787520338561 0 -0.070568440882543729 0.25853216062932127 0 -0.060499942260486522 0.25972324630507099 0 -0.067578588882820742 0.24363817085521811 0 -0.079996925635204746 0.25627638070248449 0 -0.070568440882543729 0.25853216062932127 0 -0.067578588882820742 0.24363817085521811 0 -0.075562652837463357 0.26768473922310332 0 -0.079996925635204746 0.25627638070248449 0 -0.070568440882543729 0.25853216062932127 0 -0.075562652837463357 0.26768473922310332 0 -0.060499942260486522 0.25972324630507099 0 -0.075562652837463357 0.26768473922310332 0 -0.070568440882543729 0.25853216062932127 0 -0.060499942260486522 0.25972324630507099 0 -0.060499942260486522 0.25972324630507099 0 -0.054970106980293559 0.27172766263957582 0 -0.045437231683510118 0.25176175338703799 0 -0.054970106980293559 0.27172766263957582 0 -0.041225130906935102 0.26603157950360518 0 -0.045437231683510118 0.25176175338703799 0 -0.060499942260486522 0.25972324630507099 0 -0.067578588882820742 0.24363817085521811 0 -0.056712690044116429 0.24828582856676401 0 -0.054970106980293559 0.27172766263957582 0 -0.045437231683510118 0.25176175338703799 0 -0.060499942260486522 0.25972324630507099 0 -0.045437231683510118 0.25176175338703799 0 -0.056712690044116429 0.24828582856676401 0 -0.060499942260486522 0.25972324630507099 0 -0.045437231683510118 0.25176175338703799 0 -0.067351626309570922 0.27413017072055201 0 -0.060499942260486522 0.25972324630507099 0 -0.054970106980293559 0.27172766263957582 0 -0.054970106980293559 0.27172766263957582 0 -0.042709299113798962 0.2787278375045078 0 -0.052531705532086581 0.2863004834807385 0 -0.054970106980293559 0.27172766263957582 0 -0.042709299113798962 0.2787278375045078 0 -0.041225130906935102 0.26603157950360518 0 -0.042709299113798962 0.2787278375045078 0 -0.041225130906935102 0.26603157950360518 0 -0.02720517512022691 0.2715452085561964 0 -0.042709299113798962 0.2787278375045078 0 -0.02720517512022691 0.2715452085561964 0 -0.02966402778283022 0.28703559877341739 0 -0.041225130906935102 0.26603157950360518 0 -0.045437231683510118 0.25176175338703799 0 -0.03067695542781158 0.25696212032607801 0 -0.041225130906935102 0.26603157950360518 0 -0.03067695542781158 0.25696212032607801 0 -0.02720517512022691 0.2715452085561964 0 -0.018566296301133871 0.25665269269268071 0 -0.02720517512022691 0.2715452085561964 0 -0.0098746745205664094 0.26763692024252328 0 -0.03067695542781158 0.25696212032607801 0 -0.018566296301133871 0.25665269269268071 0 -0.02095094312725191 0.23881936749086971 0 -0.03067695542781158 0.25696212032607801 0 -0.018566296301133871 0.25665269269268071 0 -0.02720517512022691 0.2715452085561964 0 -0.02720517512022691 0.2715452085561964 0 -0.0094230267692259947 0.28411503643911262 0 -0.02966402778283022 0.28703559877341739 0 -0.0098746745205664094 0.26763692024252328 0 -0.0094230267692259947 0.28411503643911262 0 0.0051221579672991388 0.26796090467185169 0 -0.02720517512022691 0.2715452085561964 0 -0.0098746745205664094 0.26763692024252328 0 -0.0094230267692259947 0.28411503643911262 0 -0.0098746745205664094 0.26763692024252328 0 -0.0026056055883075658 0.24895329681263881 0 0.0051221579672991388 0.26796090467185169 0 -0.018566296301133871 0.25665269269268071 0 -0.0098746745205664094 0.26763692024252328 0 -0.0026056055883075658 0.24895329681263881 0 -0.0067385281896786284 0.30985562035238162 0 -0.0094230267692259947 0.28411503643911262 0 -0.024265056619926971 0.30308189205309571 0 -0.0067385281896786284 0.30985562035238162 0 -0.0094230267692259947 0.28411503643911262 0 0.0067024598137256546 0.29774090349646121 0 -0.0094230267692259947 0.28411503643911262 0 -0.02966402778283022 0.28703559877341739 0 -0.024265056619926971 0.30308189205309571 0 -0.02966402778283022 0.28703559877341739 0 -0.024265056619926971 0.30308189205309571 0 -0.039915410299002869 0.30370898372156441 0 -0.024265056619926971 0.30308189205309571 0 -0.039915410299002869 0.30370898372156441 0 -0.037706933981013699 0.31720411607101229 0 -0.039915410299002869 0.30370898372156441 0 -0.044317033131562968 0.29069888200373029 0 -0.053275610187054928 0.29882344610912048 0 -0.039915410299002869 0.30370898372156441 0 -0.051605183232875662 0.31463127483633141 0 -0.037706933981013699 0.31720411607101229 0 -0.02966402778283022 0.28703559877341739 0 -0.039915410299002869 0.30370898372156441 0 -0.044317033131562968 0.29069888200373029 0 -0.042709299113798962 0.2787278375045078 0 -0.02966402778283022 0.28703559877341739 0 -0.044317033131562968 0.29069888200373029 0 -0.042709299113798962 0.2787278375045078 0 -0.044317033131562968 0.29069888200373029 0 -0.052531705532086581 0.2863004834807385 0 -0.064502982277076362 0.2916935718921137 0 -0.067155361755868892 0.28514264315860888 0 -0.054970106980293559 0.27172766263957582 0 -0.064502982277076362 0.2916935718921137 0 -0.054970106980293559 0.27172766263957582 0 -0.052531705532086581 0.2863004834807385 0 -0.064502982277076362 0.2916935718921137 0 -0.054970106980293559 0.27172766263957582 0 -0.044317033131562968 0.29069888200373029 0 -0.052531705532086581 0.2863004834807385 0 -0.053275610187054928 0.29882344610912048 0 -0.064502982277076362 0.2916935718921137 0 -0.052531705532086581 0.2863004834807385 0 -0.053275610187054928 0.29882344610912048 0 -0.039915410299002869 0.30370898372156441 0 -0.053275610187054928 0.29882344610912048 0 -0.051605183232875662 0.31463127483633141 0 -0.065996409097154318 0.30714116087859589 0 -0.053275610187054928 0.29882344610912048 0 -0.051605183232875662 0.31463127483633141 0 -0.065996409097154318 0.30714116087859589 0 -0.064502982277076362 0.2916935718921137 0 -0.053275610187054928 0.29882344610912048 0 -0.065996409097154318 0.30714116087859589 0 -0.051605183232875662 0.31463127483633141 0 -0.064361421460975704 0.32550585438990032 0 -0.051605183232875662 0.31463127483633141 0 -0.047727160276192199 0.33441541118813017 0 -0.064361421460975704 0.32550585438990032 0 -0.047727160276192199 0.33441541118813017 0 -0.075594346354513647 0.34155189119322832 0 -0.047727160276192199 0.33441541118813017 0 -0.052758994208010918 0.35190684723246712 0 -0.075594346354513647 0.34155189119322832 0 -0.047727160276192199 0.33441541118813017 0 -0.023681470620494201 0.32614688697101668 0 -0.035859085478719618 0.35466543313864951 0 -0.051605183232875662 0.31463127483633141 0 -0.047727160276192199 0.33441541118813017 0 -0.037706933981013699 0.31720411607101229 0 -0.047727160276192199 0.33441541118813017 0 -0.037706933981013699 0.31720411607101229 0 -0.023681470620494201 0.32614688697101668 0 -0.0067385281896786284 0.30985562035238162 0 -0.024265056619926971 0.30308189205309571 0 -0.023681470620494201 0.32614688697101668 0 -0.024265056619926971 0.30308189205309571 0 -0.037706933981013699 0.31720411607101229 0 -0.023681470620494201 0.32614688697101668 0 -0.023681470620494201 0.32614688697101668 0 -0.011358049858765529 0.34271416703683821 0 -0.035859085478719618 0.35466543313864951 0 -0.023681470620494201 0.32614688697101668 0 -0.011358049858765529 0.34271416703683821 0 0.0017414686764784179 0.32714726761812218 0 -0.0067385281896786284 0.30985562035238162 0 -0.023681470620494201 0.32614688697101668 0 0.0017414686764784179 0.32714726761812218 0 -0.011358049858765529 0.34271416703683821 0 -0.008767201673121932 0.36301178482875629 0 0.01526557131014524 0.34388807842494001 0 -0.011358049858765529 0.34271416703683821 0 -0.008767201673121932 0.36301178482875629 0 -0.035859085478719618 0.35466543313864951 0 -0.008767201673121932 0.36301178482875629 0 -0.035859085478719618 0.35466543313864951 0 -0.008767201673121932 0.36301178482875629 0 -0.027464114754432129 0.3742998184055179 0 -0.035859085478719618 0.35466543313864951 0 -0.035859085478719618 0.35466543313864951 0 -0.052758994208010918 0.35190684723246712 0 -0.044962318027526683 0.37540596993261061 0 -0.027464114754432129 0.3742998184055179 0 -0.035859085478719618 0.35466543313864951 0 -0.044962318027526683 0.37540596993261061 0 -0.047727160276192199 0.33441541118813017 0 -0.035859085478719618 0.35466543313864951 0 -0.052758994208010918 0.35190684723246712 0 -0.052758994208010918 0.35190684723246712 0 -0.063851915102754619 0.3641500949958576 0 -0.044962318027526683 0.37540596993261061 0 -0.063851915102754619 0.3641500949958576 0 -0.08507219433424526 0.35815365602393862 0 -0.075962308826619709 0.37541484789530782 0 -0.093393957333914077 0.37403637587154343 0 -0.08507219433424526 0.35815365602393862 0 -0.075962308826619709 0.37541484789530782 0 -0.08507219433424526 0.35815365602393862 0 -0.075594346354513647 0.34155189119322832 0 -0.10346153243283319 0.34868837119833362 0 -0.075594346354513647 0.34155189119322832 0 -0.10346153243283319 0.34868837119833362 0 -0.063851915102754619 0.3641500949958576 0 -0.08507219433424526 0.35815365602393862 0 -0.075594346354513647 0.34155189119322832 0 -0.052758994208010918 0.35190684723246712 0 -0.063851915102754619 0.3641500949958576 0 -0.075594346354513647 0.34155189119322832 0 -0.075594346354513647 0.34155189119322832 0 -0.064361421460975704 0.32550585438990032 0 -0.078819272017715658 0.32156201488265912 0 -0.047727160276192199 0.33441541118813017 0 -0.075594346354513647 0.34155189119322832 0 -0.064361421460975704 0.32550585438990032 0 -0.065996409097154318 0.30714116087859589 0 -0.064361421460975704 0.32550585438990032 0 -0.078819272017715658 0.32156201488265912 0 -0.080787533435870945 0.30247205014909651 0 -0.078819272017715658 0.32156201488265912 0 -0.094419705115873026 0.31980145713958408 0 -0.078819272017715658 0.32156201488265912 0 -0.091756216641906418 0.33289967554554978 0 -0.094419705115873026 0.31980145713958408 0 -0.075594346354513647 0.34155189119322832 0 -0.078819272017715658 0.32156201488265912 0 -0.091756216641906418 0.33289967554554978 0 -0.075594346354513647 0.34155189119322832 0 -0.091756216641906418 0.33289967554554978 0 -0.10346153243283319 0.34868837119833362 0 -0.091756216641906418 0.33289967554554978 0 -0.1080518767958758 0.33713086413007098 0 -0.094419705115873026 0.31980145713958408 0 -0.1080518767958758 0.33713086413007098 0 -0.094419705115873026 0.31980145713958408 0 -0.091756216641906418 0.33289967554554978 0 -0.1080518767958758 0.33713086413007098 0 -0.10346153243283319 0.34868837119833362 0 -0.1080518767958758 0.33713086413007098 0 -0.10346153243283319 0.34868837119833362 0 -0.10477845802176 0.30553555443414843 0 -0.094419705115873026 0.31980145713958408 0 -0.1166524482527279 0.31547646142251817 0 -0.1080518767958758 0.33713086413007098 0 -0.094419705115873026 0.31980145713958408 0 -0.1166524482527279 0.31547646142251817 0 -0.12734652110589809 0.30819554397352439 0 -0.1166524482527279 0.31547646142251817 0 -0.1236377507415423 0.32520040947199541 0 -0.1080518767958758 0.33713086413007098 0 -0.1166524482527279 0.31547646142251817 0 -0.1236377507415423 0.32520040947199541 0 -0.1080518767958758 0.33713086413007098 0 -0.1166524482527279 0.31547646142251817 0 -0.1080518767958758 0.33713086413007098 0 -0.1220831832376227 0.33899936957319349 0 -0.12059520332410931 0.35307611595970279 0 -0.1080518767958758 0.33713086413007098 0 -0.1236377507415423 0.32520040947199541 0 -0.1220831832376227 0.33899936957319349 0 -0.1283712527249512 0.3322400181320358 0 -0.1236377507415423 0.32520040947199541 0 -0.1220831832376227 0.33899936957319349 0 -0.1080518767958758 0.33713086413007098 0 -0.12059520332410931 0.35307611595970279 0 -0.10346153243283319 0.34868837119833362 0 -0.12059520332410931 0.35307611595970279 0 -0.10346153243283319 0.34868837119833362 0 -0.13022300430503819 0.34697680439308243 0 -0.1220831832376227 0.33899936957319349 0 -0.12059520332410931 0.35307611595970279 0 -0.1151902231755436 0.35606486559718142 0 -0.12059520332410931 0.35307611595970279 0 -0.10346153243283319 0.34868837119833362 0 -0.1080518767958758 0.33713086413007098 0 -0.12059520332410931 0.35307611595970279 0 -0.12731417856514909 0.36251937461001837 0 -0.12059520332410931 0.35307611595970279 0 -0.11904605412961849 0.36122250895756508 0 -0.1151902231755436 0.35606486559718142 0 -0.12059520332410931 0.35307611595970279 0 -0.11904605412961849 0.36122250895756508 0 -0.12731417856514909 0.36251937461001837 0 -0.11904605412961849 0.36122250895756508 0 -0.1218812127072432 0.36962893694440041 0 -0.1218812127072432 0.36962893694440041 0 -0.10937763365937191 0.36371498291476623 0 -0.10974917875957541 0.38113675989589302 0 -0.1151902231755436 0.35606486559718142 0 -0.11904605412961849 0.36122250895756508 0 -0.10937763365937191 0.36371498291476623 0 -0.11904605412961849 0.36122250895756508 0 -0.1218812127072432 0.36962893694440041 0 -0.10937763365937191 0.36371498291476623 0 -0.093393957333914077 0.37403637587154343 0 -0.10346153243283319 0.34868837119833362 0 -0.093393957333914077 0.37403637587154343 0 -0.08507219433424526 0.35815365602393862 0 -0.10346153243283319 0.34868837119833362 0 -0.093393957333914077 0.37403637587154343 0 -0.10937763365937191 0.36371498291476623 0 -0.10346153243283319 0.34868837119833362 0 -0.093393957333914077 0.37403637587154343 0 -0.10937763365937191 0.36371498291476623 0 -0.10974917875957541 0.38113675989589302 0 -0.1151902231755436 0.35606486559718142 0 -0.10937763365937191 0.36371498291476623 0 -0.10346153243283319 0.34868837119833362 0 -0.098392823681189887 0.40179666865379549 0 -0.10974917875957541 0.38113675989589302 0 -0.11359212236027549 0.40313760542957072 0 -0.093393957333914077 0.37403637587154343 0 -0.098392823681189887 0.40179666865379549 0 -0.10974917875957541 0.38113675989589302 0 -0.10974917875957541 0.38113675989589302 0 -0.1235107131369523 0.38376834649550079 0 -0.11359212236027549 0.40313760542957072 0 -0.1218812127072432 0.36962893694440041 0 -0.10974917875957541 0.38113675989589302 0 -0.1235107131369523 0.38376834649550079 0 -0.13630935357579299 0.39097461801398659 0 -0.1235107131369523 0.38376834649550079 0 -0.11359212236027549 0.40313760542957072 0 -0.13630935357579299 0.39097461801398659 0 -0.11359212236027549 0.40313760542957072 0 -0.13671242842969841 0.41481088390524062 0 -0.11359212236027549 0.40313760542957072 0 -0.1171512206080559 0.41918941498794088 0 -0.1300075274285809 0.43184728509160669 0 -0.1171512206080559 0.41918941498794088 0 -0.1079961570613059 0.43260553736193058 0 -0.1079961570613059 0.43260553736193058 0 -0.090874891144755415 0.41530059284514997 0 -0.08638135507185965 0.43349446705082639 0 -0.1079961570613059 0.43260553736193058 0 -0.090874891144755415 0.41530059284514997 0 -0.1171512206080559 0.41918941498794088 0 -0.1079961570613059 0.43260553736193058 0 -0.090874891144755415 0.41530059284514997 0 -0.11359212236027549 0.40313760542957072 0 -0.090874891144755415 0.41530059284514997 0 -0.11359212236027549 0.40313760542957072 0 -0.1171512206080559 0.41918941498794088 0 -0.090874891144755415 0.41530059284514997 0 -0.098392823681189887 0.40179666865379549 0 -0.11359212236027549 0.40313760542957072 0 -0.090874891144755415 0.41530059284514997 0 -0.090874891144755415 0.41530059284514997 0 -0.073258807136067833 0.4247323852179597 0 -0.090874891144755415 0.41530059284514997 0 -0.073258807136067833 0.4247323852179597 0 -0.083326382234994084 0.39938438054475289 0 -0.073258807136067833 0.4247323852179597 0 -0.083326382234994084 0.39938438054475289 0 -0.090874891144755415 0.41530059284514997 0 -0.08638135507185965 0.43349446705082639 0 -0.073258807136067833 0.4247323852179597 0 -0.073258807136067833 0.4247323852179597 0 -0.062718779043509115 0.41632060756762229 0 -0.051681815925328063 0.43628487900879109 0 -0.073258807136067833 0.4247323852179597 0 -0.063294020635729781 0.44982159014530948 0 -0.073258807136067833 0.4247323852179597 0 -0.051681815925328063 0.43628487900879109 0 -0.063294020635729781 0.44982159014530948 0 -0.08638135507185965 0.43349446705082639 0 -0.073258807136067833 0.4247323852179597 0 -0.063294020635729781 0.44982159014530948 0 -0.062718779043509115 0.41632060756762229 0 -0.083326382234994084 0.39938438054475289 0 -0.05875207829104219 0.40396747849072601 0 -0.073258807136067833 0.4247323852179597 0 -0.062718779043509115 0.41632060756762229 0 -0.083326382234994084 0.39938438054475289 0 -0.083326382234994084 0.39938438054475289 0 -0.065591133040425798 0.38949324509150912 0 -0.05875207829104219 0.40396747849072601 0 -0.098392823681189887 0.40179666865379549 0 -0.090874891144755415 0.41530059284514997 0 -0.083326382234994084 0.39938438054475289 0 -0.093393957333914077 0.37403637587154343 0 -0.098392823681189887 0.40179666865379549 0 -0.083326382234994084 0.39938438054475289 0 -0.093393957333914077 0.37403637587154343 0 -0.083326382234994084 0.39938438054475289 0 -0.093393957333914077 0.37403637587154343 0 -0.083326382234994084 0.39938438054475289 0 -0.075962308826619709 0.37541484789530782 0 -0.083326382234994084 0.39938438054475289 0 -0.075962308826619709 0.37541484789530782 0 -0.065591133040425798 0.38949324509150912 0 -0.063851915102754619 0.3641500949958576 0 -0.075962308826619709 0.37541484789530782 0 -0.065591133040425798 0.38949324509150912 0 -0.065591133040425798 0.38949324509150912 0 -0.044962318027526683 0.37540596993261061 0 -0.046401552081485692 0.3898202281408632 0 -0.063851915102754619 0.3641500949958576 0 -0.065591133040425798 0.38949324509150912 0 -0.044962318027526683 0.37540596993261061 0 -0.065591133040425798 0.38949324509150912 0 -0.042323669271406503 0.40483571642995392 0 -0.065591133040425798 0.38949324509150912 0 -0.05875207829104219 0.40396747849072601 0 -0.042323669271406503 0.40483571642995392 0 -0.065591133040425798 0.38949324509150912 0 -0.042323669271406503 0.40483571642995392 0 -0.046401552081485692 0.3898202281408632 0 -0.042323669271406503 0.40483571642995392 0 -0.032729087986583798 0.38954598110937938 0 -0.02209175699220553 0.40223312386233218 0 -0.042323669271406503 0.40483571642995392 0 -0.046401552081485692 0.3898202281408632 0 -0.032729087986583798 0.38954598110937938 0 -0.027464114754432129 0.3742998184055179 0 -0.044962318027526683 0.37540596993261061 0 -0.032729087986583798 0.38954598110937938 0 -0.044962318027526683 0.37540596993261061 0 -0.046401552081485692 0.3898202281408632 0 -0.032729087986583798 0.38954598110937938 0 -0.027464114754432129 0.3742998184055179 0 -0.032729087986583798 0.38954598110937938 0 -0.01500288060620858 0.38886992301819362 0 -0.008767201673121932 0.36301178482875629 0 -0.027464114754432129 0.3742998184055179 0 -0.01500288060620858 0.38886992301819362 0 -0.032729087986583798 0.38954598110937938 0 -0.02209175699220553 0.40223312386233218 0 -0.01500288060620858 0.38886992301819362 0 -0.02209175699220553 0.40223312386233218 0 -0.00015915912015578059 0.40515224490459789 0 -0.01500288060620858 0.38886992301819362 0 -0.00015915912015578059 0.40515224490459789 0 -0.01500288060620858 0.38886992301819362 0 0.0035961909011746991 0.38454086690399292 0 -0.008767201673121932 0.36301178482875629 0 -0.01500288060620858 0.38886992301819362 0 0.0035961909011746991 0.38454086690399292 0 -0.01905620550238709 0.42017818776839871 0 0.0042112582666323298 0.43552065910684351 0 -0.01251122839825103 0.43606444447367332 0 -0.01905620550238709 0.42017818776839871 0 0.0042112582666323298 0.43552065910684351 0 -0.02209175699220553 0.40223312386233218 0 -0.00015915912015578059 0.40515224490459789 0 -0.01905620550238709 0.42017818776839871 0 -0.00015915912015578059 0.40515224490459789 0 -0.01905620550238709 0.42017818776839871 0 0.0042112582666323298 0.43552065910684351 0 -0.042323669271406503 0.40483571642995392 0 -0.01905620550238709 0.42017818776839871 0 -0.042323669271406503 0.40483571642995392 0 -0.02209175699220553 0.40223312386233218 0 -0.01905620550238709 0.42017818776839871 0 -0.01251122839825103 0.43606444447367332 0 -0.01905620550238709 0.42017818776839871 0 -0.028680490893239551 0.43787214220400711 0 -0.01905620550238709 0.42017818776839871 0 -0.034723378487413678 0.4198101160549757 0 -0.028680490893239551 0.43787214220400711 0 -0.034723378487413678 0.4198101160549757 0 -0.048833148282621572 0.41635441781754312 0 -0.028680490893239551 0.43787214220400711 0 -0.048833148282621572 0.41635441781754312 0 -0.028680490893239551 0.43787214220400711 0 -0.048833148282621572 0.41635441781754312 0 -0.051681815925328063 0.43628487900879109 0 -0.028680490893239551 0.43787214220400711 0 -0.042323669271406503 0.40483571642995392 0 -0.01905620550238709 0.42017818776839871 0 -0.034723378487413678 0.4198101160549757 0 -0.042323669271406503 0.40483571642995392 0 -0.034723378487413678 0.4198101160549757 0 -0.048833148282621572 0.41635441781754312 0 -0.05875207829104219 0.40396747849072601 0 -0.042323669271406503 0.40483571642995392 0 -0.048833148282621572 0.41635441781754312 0 -0.062718779043509115 0.41632060756762229 0 -0.05875207829104219 0.40396747849072601 0 -0.048833148282621572 0.41635441781754312 0 -0.073258807136067833 0.4247323852179597 0 -0.051681815925328063 0.43628487900879109 0 -0.062718779043509115 0.41632060756762229 0 -0.048833148282621572 0.41635441781754312 0 -0.051681815925328063 0.43628487900879109 0 -0.051681815925328063 0.43628487900879109 0 -0.046317674541136153 0.45539952723660132 0 -0.063294020635729781 0.44982159014530948 0 -0.053329234135385428 0.47491079507265688 0 -0.063294020635729781 0.44982159014530948 0 -0.046317674541136153 0.45539952723660132 0 -0.053329234135385428 0.47491079507265688 0 -0.063294020635729781 0.44982159014530948 0 -0.046317674541136153 0.45539952723660132 0 -0.030104824714592249 0.44783737279963048 0 -0.031050732322714329 0.46709715658757389 0 -0.046317674541136153 0.45539952723660132 0 -0.031050732322714329 0.46709715658757389 0 -0.053329234135385428 0.47491079507265688 0 -0.051681815925328063 0.43628487900879109 0 -0.030104824714592249 0.44783737279963048 0 -0.051681815925328063 0.43628487900879109 0 -0.028680490893239551 0.43787214220400711 0 -0.030104824714592249 0.44783737279963048 0 -0.051681815925328063 0.43628487900879109 0 -0.046317674541136153 0.45539952723660132 0 -0.030104824714592249 0.44783737279963048 0 -0.028680490893239551 0.43787214220400711 0 -0.030104824714592249 0.44783737279963048 0 -0.0085278335038570172 0.45938986659047037 0 -0.01251122839825103 0.43606444447367332 0 -0.028680490893239551 0.43787214220400711 0 -0.0085278335038570172 0.45938986659047037 0 -0.028680490893239551 0.43787214220400711 0 -0.0085278335038570172 0.45938986659047037 0 -0.030104824714592249 0.44783737279963048 0 -0.031050732322714329 0.46709715658757389 0 -0.0085278335038570172 0.45938986659047037 0 -0.031050732322714329 0.46709715658757389 0 -0.0085278335038570172 0.45938986659047037 0 -0.01577609056647071 0.4790481694026768 0 -0.030104824714592249 0.44783737279963048 0 -0.0085278335038570172 0.45938986659047037 0 -0.0085278335038570172 0.45938986659047037 0 0.0043144432838517072 0.47310203204207069 0 -0.01251122839825103 0.43606444447367332 0 -0.0085278335038570172 0.45938986659047037 0 0.0042112582666323298 0.43552065910684351 0 -0.0015143242079153931 0.48653361892752911 0 -0.015693057300666721 0.5 0 0.011978333033706099 0.5 0 -0.0015143242079153931 0.48653361892752911 0 -0.01577609056647071 0.4790481694026768 0 -0.015693057300666721 0.5 0 -0.0085278335038570172 0.45938986659047037 0 -0.01577609056647071 0.4790481694026768 0 0.0043144432838517072 0.47310203204207069 0 -0.0015143242079153931 0.48653361892752911 0 -0.01577609056647071 0.4790481694026768 0 0.0043144432838517072 0.47310203204207069 0 -0.031050732322714329 0.46709715658757389 0 -0.01577609056647071 0.4790481694026768 0 -0.031958719272852341 0.48472150541567488 0 -0.015693057300666721 0.5 0 -0.043364447635039681 0.50000000000000377 0 -0.031958719272852341 0.48472150541567488 0 -0.01577609056647071 0.4790481694026768 0 -0.015693057300666721 0.5 0 -0.031958719272852341 0.48472150541567488 0 -0.043364447635039681 0.50000000000000377 0 -0.031958719272852341 0.48472150541567488 0 -0.053329234135385428 0.47491079507265688 0 -0.031050732322714329 0.46709715658757389 0 -0.031958719272852341 0.48472150541567488 0 -0.053329234135385428 0.47491079507265688 0 -0.043364447635039681 0.50000000000000377 0 -0.053329234135385428 0.47491079507265688 0 -0.069191545347394801 0.5 0 -0.043364447635039681 0.50000000000000377 0 -0.053329234135385428 0.47491079507265688 0 -0.053329234135385428 0.47491079507265688 0 -0.069191545347394801 0.5 0 -0.071497844271206298 0.4809829050742912 0 -0.069191545347394801 0.5 0 -0.071497844271206298 0.4809829050742912 0 -0.095018643059750052 0.5 0 -0.087110083064977042 0.46988214320919081 0 -0.071497844271206298 0.4809829050742912 0 -0.095018643059750052 0.5 0 -0.087110083064977042 0.46988214320919081 0 -0.071497844271206298 0.4809829050742912 0 -0.063294020635729781 0.44982159014530948 0 -0.053329234135385428 0.47491079507265688 0 -0.071497844271206298 0.4809829050742912 0 -0.063294020635729781 0.44982159014530948 0 -0.08638135507185965 0.43349446705082639 0 -0.063294020635729781 0.44982159014530948 0 -0.092601027459602941 0.4486011764558267 0 -0.087110083064977042 0.46988214320919081 0 -0.092601027459602941 0.4486011764558267 0 -0.099781605002355944 0.46058561438385992 0 -0.087110083064977042 0.46988214320919081 0 -0.063294020635729781 0.44982159014530948 0 -0.092601027459602941 0.4486011764558267 0 -0.092601027459602941 0.4486011764558267 0 -0.099781605002355944 0.46058561438385992 0 -0.1134425099250068 0.45326185697447779 0 -0.087110083064977042 0.46988214320919081 0 -0.099781605002355944 0.46058561438385992 0 -0.105972799559837 0.47059728089594433 0 -0.099781605002355944 0.46058561438385992 0 -0.1134425099250068 0.45326185697447779 0 -0.105972799559837 0.47059728089594433 0 -0.1079961570613059 0.43260553736193058 0 -0.08638135507185965 0.43349446705082639 0 -0.092601027459602941 0.4486011764558267 0 -0.1079961570613059 0.43260553736193058 0 -0.092601027459602941 0.4486011764558267 0 -0.1134425099250068 0.45326185697447779 0 -0.1251174229778457 0.44991048187872179 0 -0.1079961570613059 0.43260553736193058 0 -0.1134425099250068 0.45326185697447779 0 -0.1251174229778457 0.44991048187872179 0 -0.1079961570613059 0.43260553736193058 0 -0.1251174229778457 0.44991048187872179 0 -0.1300075274285809 0.43184728509160669 0 -0.1079961570613059 0.43260553736193058 0 -0.1251174229778457 0.44991048187872179 0 -0.1134425099250068 0.45326185697447779 0 -0.1251174229778457 0.44991048187872179 0 -0.1134425099250068 0.45326185697447779 0 -0.1248439306779754 0.47015693353475119 0 -0.1134425099250068 0.45326185697447779 0 -0.1248439306779754 0.47015693353475119 0 -0.105972799559837 0.47059728089594433 0 -0.1248439306779754 0.47015693353475119 0 -0.1162957698088448 0.48530707093783348 0 -0.105972799559837 0.47059728089594433 0 -0.12084574077210521 0.5 0 -0.1162957698088448 0.48530707093783348 0 -0.095018643059750052 0.5 0 -0.1347977349745561 0.48578114025847202 0 -0.12084574077210521 0.5 0 -0.1162957698088448 0.48530707093783348 0 -0.1162957698088448 0.48530707093783348 0 -0.095018643059750052 0.5 0 -0.105972799559837 0.47059728089594433 0 -0.087110083064977042 0.46988214320919081 0 -0.095018643059750052 0.5 0 -0.105972799559837 0.47059728089594433 0 -0.16726835492852871 0.076353443748564398 0 -0.15708935888012551 0.098405372719785333 0 -0.14512720393050141 0.075524530629894518 0 -0.16726835492852871 0.076353443748564398 0 -0.1852797032664146 0.090819281175739452 0 -0.15708935888012551 0.098405372719785333 0 -0.16726835492852871 0.076353443748564398 0 -0.1866346627918192 0.06311748533671091 0 -0.15896794836218389 0.05162890801582902 0 -0.16726835492852871 0.076353443748564398 0 -0.14512720393050141 0.075524530629894518 0 -0.15896794836218389 0.05162890801582902 0 -0.16726835492852871 0.076353443748564398 0 -0.1866346627918192 0.06311748533671091 0 -0.1852797032664146 0.090819281175739452 0 -0.1852797032664146 0.090819281175739452 0 -0.17132995622643121 0.110960954347351 0 -0.18774212458305001 0.1162598482240003 0 -0.17132995622643121 0.110960954347351 0 -0.18774212458305001 0.1162598482240003 0 -0.1703759862901113 0.12881718256580399 0 -0.17132995622643121 0.110960954347351 0 -0.15708935888012551 0.098405372719785333 0 -0.15616260811245461 0.1205030870514258 0 -0.17132995622643121 0.110960954347351 0 -0.15616260811245461 0.1205030870514258 0 -0.1703759862901113 0.12881718256580399 0 -0.1852797032664146 0.090819281175739452 0 -0.17132995622643121 0.110960954347351 0 -0.15708935888012551 0.098405372719785333 0 -0.15708935888012551 0.098405372719785333 0 -0.142761346449152 0.1109348850638532 0 -0.1283856502170109 0.09889627259268309 0 -0.15708935888012551 0.098405372719785333 0 -0.15616260811245461 0.1205030870514258 0 -0.142761346449152 0.1109348850638532 0 -0.15616260811245461 0.1205030870514258 0 -0.142761346449152 0.1109348850638532 0 -0.14597742155775081 0.1199539886648068 0 -0.142761346449152 0.1109348850638532 0 -0.14597742155775081 0.1199539886648068 0 -0.13543177976928 0.1255897942953659 0 -0.15616260811245461 0.1205030870514258 0 -0.14597742155775081 0.1199539886648068 0 -0.14113727737491069 0.1272398325320501 0 -0.14597742155775081 0.1199539886648068 0 -0.14113727737491069 0.1272398325320501 0 -0.13543177976928 0.1255897942953659 0 -0.1283856502170109 0.09889627259268309 0 -0.13543177976928 0.1255897942953659 0 -0.1283856502170109 0.09889627259268309 0 -0.13543177976928 0.1255897942953659 0 -0.11988723480721181 0.11352300531899349 0 -0.142761346449152 0.1109348850638532 0 -0.1283856502170109 0.09889627259268309 0 -0.13543177976928 0.1255897942953659 0 -0.1283856502170109 0.09889627259268309 0 -0.14512720393050141 0.075524530629894518 0 -0.1213395206647418 0.0722027508900005 0 -0.15708935888012551 0.098405372719785333 0 -0.1283856502170109 0.09889627259268309 0 -0.14512720393050141 0.075524530629894518 0 -0.14512720393050141 0.075524530629894518 0 -0.13609094182461801 0.054524615380073527 0 -0.1213395206647418 0.0722027508900005 0 -0.13609094182461801 0.054524615380073527 0 -0.1213395206647418 0.0722027508900005 0 -0.12448500522056789 0.053122360731716153 0 -0.13609094182461801 0.054524615380073527 0 -0.12621616728043911 0.040252847469472788 0 -0.12448500522056789 0.053122360731716153 0 -0.13609094182461801 0.054524615380073527 0 -0.12621616728043911 0.040252847469472788 0 -0.138354983634946 0.034214299964623239 0 -0.12621616728043911 0.040252847469472788 0 -0.138354983634946 0.034214299964623239 0 -0.123387765805449 0.026807379020421379 0 -0.13609094182461801 0.054524615380073527 0 -0.138354983634946 0.034214299964623239 0 -0.15896794836218389 0.05162890801582902 0 -0.138354983634946 0.034214299964623239 0 -0.16234621766998389 0.02384077760504796 0 -0.15896794836218389 0.05162890801582902 0 -0.14512720393050141 0.075524530629894518 0 -0.13609094182461801 0.054524615380073527 0 -0.15896794836218389 0.05162890801582902 0 -0.12794466884393851 -0.002708162334285761 0 -0.13780637087705019 0.01631097735332554 0 -0.1521736821911556 0.0070154644146889376 0 -0.12794466884393851 -0.002708162334285761 0 -0.13780637087705019 0.01631097735332554 0 -0.1222144850561783 0.0104564985208432 0 -0.12794466884393851 -0.002708162334285761 0 -0.1521736821911556 0.0070154644146889376 0 -0.13780637087705019 0.01631097735332554 0 -0.1222144850561783 0.0104564985208432 0 -0.123387765805449 0.026807379020421379 0 -0.138354983634946 0.034214299964623239 0 -0.13780637087705019 0.01631097735332554 0 -0.123387765805449 0.026807379020421379 0 -0.13780637087705019 0.01631097735332554 0 -0.1521736821911556 0.0070154644146889376 0 -0.16234621766998389 0.02384077760504796 0 -0.138354983634946 0.034214299964623239 0 -0.13780637087705019 0.01631097735332554 0 -0.16234621766998389 0.02384077760504796 0 -0.1521736821911556 0.0070154644146889376 0 -0.16234621766998389 0.02384077760504796 0 -0.1725177504508198 0.001249681538838686 0 -0.15768631885198689 -0.0078660734412130187 0 -0.1521736821911556 0.0070154644146889376 0 -0.1725177504508198 0.001249681538838686 0 -0.16234621766998389 0.02384077760504796 0 -0.1866441662687485 0.039290536868070762 0 -0.1902896640265446 0.017504961277553781 0 -0.19071046507632669 -0.0018178219343990159 0 -0.1725177504508198 0.001249681538838686 0 -0.1902896640265446 0.017504961277553781 0 -0.16234621766998389 0.02384077760504796 0 -0.1725177504508198 0.001249681538838686 0 -0.1902896640265446 0.017504961277553781 0 -0.16234621766998389 0.02384077760504796 0 -0.15896794836218389 0.05162890801582902 0 -0.1866441662687485 0.039290536868070762 0 -0.1866346627918192 0.06311748533671091 0 -0.15896794836218389 0.05162890801582902 0 -0.1866441662687485 0.039290536868070762 0 -0.1866346627918192 0.06311748533671091 0 -0.21050544349621139 0.049363678898612123 0 -0.2100254630365268 0.069709131965535312 0 -0.1866346627918192 0.06311748533671091 0 -0.1866441662687485 0.039290536868070762 0 -0.21050544349621139 0.049363678898612123 0 -0.1866441662687485 0.039290536868070762 0 -0.21050544349621139 0.049363678898612123 0 -0.21095217372568259 0.02785191898103866 0 -0.21050544349621139 0.049363678898612123 0 -0.21095217372568259 0.02785191898103866 0 -0.2347404694330478 0.037786329720759237 0 -0.21050544349621139 0.049363678898612123 0 -0.22900673975816449 0.058458490982005208 0 -0.2100254630365268 0.069709131965535312 0 -0.19071046507632669 -0.0018178219343990159 0 -0.1902896640265446 0.017504961277553781 0 -0.20877238643255019 0.0072663334765693576 0 -0.1866441662687485 0.039290536868070762 0 -0.1902896640265446 0.017504961277553781 0 -0.21095217372568259 0.02785191898103866 0 -0.1902896640265446 0.017504961277553781 0 -0.21095217372568259 0.02785191898103866 0 -0.20877238643255019 0.0072663334765693576 0 -0.21095217372568259 0.02785191898103866 0 -0.20877238643255019 0.0072663334765693576 0 -0.2273806652430351 0.015640924315588629 0 -0.22529258117075071 -0.0052217877908794143 0 -0.20877238643255019 0.0072663334765693576 0 -0.2273806652430351 0.015640924315588629 0 -0.22529258117075071 -0.0052217877908794143 0 -0.2273806652430351 0.015640924315588629 0 -0.23553239876361701 0.0075094190729034244 0 -0.21095217372568259 0.02785191898103866 0 -0.2273806652430351 0.015640924315588629 0 -0.2347404694330478 0.037786329720759237 0 -0.2273806652430351 0.015640924315588629 0 -0.24129288818000441 0.016618157430050379 0 -0.2347404694330478 0.037786329720759237 0 -0.25207103841232792 0.026061960329184921 0 -0.24129288818000441 0.016618157430050379 0 -0.2347404694330478 0.037786329720759237 0 -0.25207103841232792 0.026061960329184921 0 -0.24129288818000441 0.016618157430050379 0 -0.24816346046067789 0.0030003823368541021 0 -0.22529258117075071 -0.0052217877908794143 0 -0.24816346046067789 0.0030003823368541021 0 -0.23553239876361701 0.0075094190729034244 0 -0.2273806652430351 0.015640924315588629 0 -0.24129288818000441 0.016618157430050379 0 -0.23553239876361701 0.0075094190729034244 0 -0.24129288818000441 0.016618157430050379 0 -0.24816346046067789 0.0030003823368541021 0 -0.23553239876361701 0.0075094190729034244 0 -0.21050544349621139 0.049363678898612123 0 -0.22900673975816449 0.058458490982005208 0 -0.2347404694330478 0.037786329720759237 0 -0.25597861636397973 0.049123538321515482 0 -0.25207103841232792 0.026061960329184921 0 -0.2347404694330478 0.037786329720759237 0 -0.25597861636397973 0.049123538321515482 0 -0.2347404694330478 0.037786329720759237 0 -0.24384480862188049 0.059602248430989879 0 -0.22900673975816449 0.058458490982005208 0 -0.2347404694330478 0.037786329720759237 0 -0.24384480862188049 0.059602248430989879 0 -0.22900673975816449 0.058458490982005208 0 -0.24384480862188049 0.059602248430989879 0 -0.23216471734033031 0.075396517757814169 0 -0.25136541031898729 0.073845232094683494 0 -0.24384480862188049 0.059602248430989879 0 -0.23216471734033031 0.075396517757814169 0 -0.25136541031898729 0.073845232094683494 0 -0.23216471734033031 0.075396517757814169 0 -0.24284988513574529 0.096642882843885058 0 -0.23216471734033031 0.075396517757814169 0 -0.2100254630365268 0.069709131965535312 0 -0.21406479420107991 0.093731082009812255 0 -0.23216471734033031 0.075396517757814169 0 -0.21406479420107991 0.093731082009812255 0 -0.24284988513574529 0.096642882843885058 0 -0.22900673975816449 0.058458490982005208 0 -0.23216471734033031 0.075396517757814169 0 -0.2100254630365268 0.069709131965535312 0 -0.1852797032664146 0.090819281175739452 0 -0.2100254630365268 0.069709131965535312 0 -0.21406479420107991 0.093731082009812255 0 -0.1852797032664146 0.090819281175739452 0 -0.21406479420107991 0.093731082009812255 0 -0.1866346627918192 0.06311748533671091 0 -0.1852797032664146 0.090819281175739452 0 -0.2100254630365268 0.069709131965535312 0 -0.18774212458305001 0.1162598482240003 0 -0.20462239664310539 0.1188469095142272 0 -0.19961469520531189 0.1303945325995573 0 -0.18774212458305001 0.1162598482240003 0 -0.201321245926882 0.1074245226007709 0 -0.20462239664310539 0.1188469095142272 0 -0.1852797032664146 0.090819281175739452 0 -0.18774212458305001 0.1162598482240003 0 -0.201321245926882 0.1074245226007709 0 -0.1852797032664146 0.090819281175739452 0 -0.21406479420107991 0.093731082009812255 0 -0.201321245926882 0.1074245226007709 0 -0.21406479420107991 0.093731082009812255 0 -0.201321245926882 0.1074245226007709 0 -0.2183742696563245 0.109622629898107 0 -0.201321245926882 0.1074245226007709 0 -0.2183742696563245 0.109622629898107 0 -0.20462239664310539 0.1188469095142272 0 -0.20462239664310539 0.1188469095142272 0 -0.21547812764512911 0.1240912382221471 0 -0.19961469520531189 0.1303945325995573 0 -0.2183742696563245 0.109622629898107 0 -0.20462239664310539 0.1188469095142272 0 -0.21547812764512911 0.1240912382221471 0 -0.2183742696563245 0.109622629898107 0 -0.21547812764512911 0.1240912382221471 0 -0.23134156008494661 0.11778794384473749 0 -0.21547812764512911 0.1240912382221471 0 -0.23134156008494661 0.11778794384473749 0 -0.21406479420107991 0.093731082009812255 0 -0.2183742696563245 0.109622629898107 0 -0.24284988513574529 0.096642882843885058 0 -0.21406479420107991 0.093731082009812255 0 -0.24284988513574529 0.096642882843885058 0 -0.2183742696563245 0.109622629898107 0 -0.23134156008494661 0.11778794384473749 0 -0.24284988513574529 0.096642882843885058 0 -0.25649798179994171 0.1077666324077486 0 -0.23134156008494661 0.11778794384473749 0 -0.24284988513574529 0.096642882843885058 0 -0.25560731199770448 0.1231882924394609 0 -0.23134156008494661 0.11778794384473749 0 -0.22926480834017221 0.1334215339667261 0 -0.25560731199770448 0.1231882924394609 0 -0.25649798179994171 0.1077666324077486 0 -0.23134156008494661 0.11778794384473749 0 -0.25560731199770448 0.1231882924394609 0 -0.24681648486499361 0.13989079764542439 0 -0.22926480834017221 0.1334215339667261 0 -0.25560731199770448 0.1231882924394609 0 -0.22926480834017221 0.1334215339667261 0 -0.21547812764512911 0.1240912382221471 0 -0.23134156008494661 0.11778794384473749 0 -0.22926480834017221 0.1334215339667261 0 -0.21547812764512911 0.1240912382221471 0 -0.22926480834017221 0.1334215339667261 0 -0.21179203064145599 0.13105146723086961 0 -0.22926480834017221 0.1334215339667261 0 -0.22059906227062001 0.151125087974118 0 -0.2368957959583374 0.151197903335341 0 -0.24681648486499361 0.13989079764542439 0 -0.22926480834017221 0.1334215339667261 0 -0.2368957959583374 0.151197903335341 0 -0.25072935194538559 0.15091073656359991 0 -0.24681648486499361 0.13989079764542439 0 -0.2368957959583374 0.151197903335341 0 -0.25072935194538559 0.15091073656359991 0 -0.2368957959583374 0.151197903335341 0 -0.245907630704644 0.16467346334311689 0 -0.2538068688167292 0.17824741606419039 0 -0.245907630704644 0.16467346334311689 0 -0.22977569093836281 0.16987608662561909 0 -0.2368957959583374 0.151197903335341 0 -0.245907630704644 0.16467346334311689 0 -0.22977569093836281 0.16987608662561909 0 -0.2538068688167292 0.17824741606419039 0 -0.22977569093836281 0.16987608662561909 0 -0.23571011199556749 0.19027560157752119 0 -0.25669856363692678 0.19129905301876091 0 -0.2538068688167292 0.17824741606419039 0 -0.23571011199556749 0.19027560157752119 0 -0.2538068688167292 0.17824741606419039 0 -0.22977569093836281 0.16987608662561909 0 -0.21356398216374381 0.17598593097083801 0 -0.23571011199556749 0.19027560157752119 0 -0.21831851346693759 0.19535324581936139 0 -0.22977569093836281 0.16987608662561909 0 -0.21356398216374381 0.17598593097083801 0 -0.23571011199556749 0.19027560157752119 0 -0.21356398216374381 0.17598593097083801 0 -0.23571011199556749 0.19027560157752119 0 -0.22059906227062001 0.151125087974118 0 -0.2368957959583374 0.151197903335341 0 -0.22977569093836281 0.16987608662561909 0 -0.22059906227062001 0.151125087974118 0 -0.22977569093836281 0.16987608662561909 0 -0.2057445130599965 0.1615047571870479 0 -0.22977569093836281 0.16987608662561909 0 -0.2057445130599965 0.1615047571870479 0 -0.2057445130599965 0.1615047571870479 0 -0.21356398216374381 0.17598593097083801 0 -0.1914178523319201 0.1616962603641548 0 -0.22977569093836281 0.16987608662561909 0 -0.2057445130599965 0.1615047571870479 0 -0.21356398216374381 0.17598593097083801 0 -0.21356398216374381 0.17598593097083801 0 -0.20161290395602349 0.17159151755943269 0 -0.2021827918735494 0.18848997197293299 0 -0.21356398216374381 0.17598593097083801 0 -0.21831851346693759 0.19535324581936139 0 -0.2021827918735494 0.18848997197293299 0 -0.20161290395602349 0.17159151755943269 0 -0.2021827918735494 0.18848997197293299 0 -0.18648636458765599 0.18220469518806881 0 -0.20161290395602349 0.17159151755943269 0 -0.18648636458765599 0.18220469518806881 0 -0.20161290395602349 0.17159151755943269 0 -0.19039370493538529 0.17165725632822901 0 -0.18648636458765599 0.18220469518806881 0 -0.2057445130599965 0.1615047571870479 0 -0.1914178523319201 0.1616962603641548 0 -0.18171333518163019 0.15313342774847671 0 -0.21356398216374381 0.17598593097083801 0 -0.20161290395602349 0.17159151755943269 0 -0.1914178523319201 0.1616962603641548 0 -0.2057445130599965 0.1615047571870479 0 -0.18171333518163019 0.15313342774847671 0 -0.21356398216374381 0.17598593097083801 0 -0.1914178523319201 0.1616962603641548 0 -0.19039370493538529 0.17165725632822901 0 -0.1914178523319201 0.1616962603641548 0 -0.1820576988659415 0.1711365522012597 0 -0.20161290395602349 0.17159151755943269 0 -0.19039370493538529 0.17165725632822901 0 -0.1914178523319201 0.1616962603641548 0 -0.2029223046826398 0.1436547754939913 0 -0.1765798010251074 0.15388801702125651 0 -0.2029223046826398 0.1436547754939913 0 -0.18567883736827351 0.1446023220450674 0 -0.1765798010251074 0.15388801702125651 0 -0.2029223046826398 0.1436547754939913 0 -0.19049392225187509 0.13982987969299721 0 -0.18567883736827351 0.1446023220450674 0 -0.2057445130599965 0.1615047571870479 0 -0.2029223046826398 0.1436547754939913 0 -0.18171333518163019 0.15313342774847671 0 -0.19049392225187509 0.13982987969299721 0 -0.19961469520531189 0.1303945325995573 0 -0.17375985175127531 0.14066788863337271 0 -0.2029223046826398 0.1436547754939913 0 -0.19049392225187509 0.13982987969299721 0 -0.19961469520531189 0.1303945325995573 0 -0.2029223046826398 0.1436547754939913 0 -0.19961469520531189 0.1303945325995573 0 -0.21179203064145599 0.13105146723086961 0 -0.21547812764512911 0.1240912382221471 0 -0.19961469520531189 0.1303945325995573 0 -0.21179203064145599 0.13105146723086961 0 -0.21547812764512911 0.1240912382221471 0 -0.19961469520531189 0.1303945325995573 0 -0.22926480834017221 0.1334215339667261 0 -0.2029223046826398 0.1436547754939913 0 -0.22926480834017221 0.1334215339667261 0 -0.2029223046826398 0.1436547754939913 0 -0.21179203064145599 0.13105146723086961 0 -0.19961469520531189 0.1303945325995573 0 -0.21179203064145599 0.13105146723086961 0 -0.22059906227062001 0.151125087974118 0 -0.2057445130599965 0.1615047571870479 0 -0.2029223046826398 0.1436547754939913 0 -0.22926480834017221 0.1334215339667261 0 -0.22059906227062001 0.151125087974118 0 -0.2029223046826398 0.1436547754939913 0 -0.22119344979997979 0.25982520082248228 0 -0.22334351471757549 0.2359903166451808 0 -0.24225983049638999 0.24450153809524269 0 -0.22334351471757549 0.2359903166451808 0 -0.24225983049638999 0.24450153809524269 0 -0.2381146611919181 0.23362795865159089 0 -0.25338997814434111 0.23627555232280109 0 -0.2445739512607959 0.2575038674604756 0 -0.24225983049638999 0.24450153809524269 0 -0.25338997814434111 0.23627555232280109 0 -0.2445739512607959 0.2575038674604756 0 -0.25338997814434111 0.23627555232280109 0 -0.24225983049638999 0.24450153809524269 0 -0.2458786025898568 0.23635395315149491 0 -0.24225983049638999 0.24450153809524269 0 -0.2458786025898568 0.23635395315149491 0 -0.2381146611919181 0.23362795865159089 0 -0.2458786025898568 0.23635395315149491 0 -0.2381146611919181 0.23362795865159089 0 -0.2455651673360745 0.22999166076078681 0 -0.2381146611919181 0.23362795865159089 0 -0.2455651673360745 0.22999166076078681 0 -0.2439014790173839 0.2208768410093109 0 -0.25087197849701109 0.23172467114630951 0 -0.25338997814434111 0.23627555232280109 0 -0.2455651673360745 0.22999166076078681 0 -0.25338997814434111 0.23627555232280109 0 -0.2458786025898568 0.23635395315149491 0 -0.2455651673360745 0.22999166076078681 0 -0.2525016477119898 0.22545096211968291 0 -0.25087197849701109 0.23172467114630951 0 -0.2455651673360745 0.22999166076078681 0 -0.25207110710078701 0.2198329446334365 0 -0.2525016477119898 0.22545096211968291 0 -0.2439014790173839 0.2208768410093109 0 -0.2525016477119898 0.22545096211968291 0 -0.2455651673360745 0.22999166076078681 0 -0.2439014790173839 0.2208768410093109 0 -0.2381146611919181 0.23362795865159089 0 -0.2439014790173839 0.2208768410093109 0 -0.2296663547775579 0.22243898958929331 0 -0.22334351471757549 0.2359903166451808 0 -0.2296663547775579 0.22243898958929331 0 -0.20747170692542119 0.21315472565560831 0 -0.22334351471757549 0.2359903166451808 0 -0.2381146611919181 0.23362795865159089 0 -0.2296663547775579 0.22243898958929331 0 -0.2326639743764061 0.20885999891990681 0 -0.21831851346693759 0.19535324581936139 0 -0.20747170692542119 0.21315472565560831 0 -0.2296663547775579 0.22243898958929331 0 -0.2326639743764061 0.20885999891990681 0 -0.20747170692542119 0.21315472565560831 0 -0.2326639743764061 0.20885999891990681 0 -0.20747170692542119 0.21315472565560831 0 -0.25157520307443132 0.21338190956609229 0 -0.2439014790173839 0.2208768410093109 0 -0.2326639743764061 0.20885999891990681 0 -0.25785624182739092 0.2045652721842047 0 -0.25157520307443132 0.21338190956609229 0 -0.2326639743764061 0.20885999891990681 0 -0.2439014790173839 0.2208768410093109 0 -0.2296663547775579 0.22243898958929331 0 -0.2326639743764061 0.20885999891990681 0 -0.25785624182739092 0.2045652721842047 0 -0.2326639743764061 0.20885999891990681 0 -0.25157520307443132 0.21338190956609229 0 -0.25207110710078701 0.2198329446334365 0 -0.2439014790173839 0.2208768410093109 0 -0.25785624182739092 0.2045652721842047 0 -0.23571011199556749 0.19027560157752119 0 -0.25785624182739092 0.2045652721842047 0 -0.2326639743764061 0.20885999891990681 0 -0.23571011199556749 0.19027560157752119 0 -0.2326639743764061 0.20885999891990681 0 -0.23571011199556749 0.19027560157752119 0 -0.21831851346693759 0.19535324581936139 0 -0.21831851346693759 0.19535324581936139 0 -0.2021827918735494 0.18848997197293299 0 -0.20747170692542119 0.21315472565560831 0 -0.1881793455130519 0.20015405791700991 0 -0.2021827918735494 0.18848997197293299 0 -0.18648636458765599 0.18220469518806881 0 -0.1881793455130519 0.20015405791700991 0 -0.2021827918735494 0.18848997197293299 0 -0.20747170692542119 0.21315472565560831 0 -0.20747170692542119 0.21315472565560831 0 -0.18227943947443631 0.21744945239130981 0 -0.1881793455130519 0.20015405791700991 0 -0.20747170692542119 0.21315472565560831 0 -0.18227943947443631 0.21744945239130981 0 -0.22334351471757549 0.2359903166451808 0 -0.20747170692542119 0.21315472565560831 0 -0.1987579692608861 0.2345755233458289 0 -0.20747170692542119 0.21315472565560831 0 -0.1987579692608861 0.2345755233458289 0 -0.18227943947443631 0.21744945239130981 0 -0.1987579692608861 0.2345755233458289 0 -0.18230091315516081 0.23847411121809389 0 -0.18227943947443631 0.21744945239130981 0 -0.20648687714957689 0.25050186499486288 0 -0.19032044224941569 0.25159013000670127 0 -0.1987579692608861 0.2345755233458289 0 -0.19032044224941569 0.25159013000670127 0 -0.1987579692608861 0.2345755233458289 0 -0.18230091315516081 0.23847411121809389 0 -0.20648687714957689 0.25050186499486288 0 -0.22334351471757549 0.2359903166451808 0 -0.1987579692608861 0.2345755233458289 0 -0.22119344979997979 0.25982520082248228 0 -0.20648687714957689 0.25050186499486288 0 -0.22334351471757549 0.2359903166451808 0 -0.16145592628632241 0.25191482903985191 0 -0.16556267387302381 0.2367128139155521 0 -0.1481743061415659 0.23980783450099891 0 -0.17408437879610761 0.25064564606173922 0 -0.16145592628632241 0.25191482903985191 0 -0.16556267387302381 0.2367128139155521 0 -0.17408437879610761 0.25064564606173922 0 -0.16556267387302381 0.2367128139155521 0 -0.18230091315516081 0.23847411121809389 0 -0.19032044224941569 0.25159013000670127 0 -0.17408437879610761 0.25064564606173922 0 -0.18230091315516081 0.23847411121809389 0 -0.16556267387302381 0.2367128139155521 0 -0.18230091315516081 0.23847411121809389 0 -0.18227943947443631 0.21744945239130981 0 -0.16556267387302381 0.2367128139155521 0 -0.15708717202345099 0.22174417912700981 0 -0.18227943947443631 0.21744945239130981 0 -0.15708717202345099 0.22174417912700981 0 -0.18227943947443631 0.21744945239130981 0 -0.16556267387302381 0.2367128139155521 0 -0.15708717202345099 0.22174417912700981 0 -0.1481743061415659 0.23980783450099891 0 -0.15708717202345099 0.22174417912700981 0 -0.16422349862136931 0.2072810259718571 0 -0.18227943947443631 0.21744945239130981 0 -0.15708717202345099 0.22174417912700981 0 -0.16422349862136931 0.2072810259718571 0 -0.15543597806162129 0.2119372970372366 0 -0.15708717202345099 0.22174417912700981 0 -0.16422349862136931 0.2072810259718571 0 -0.16422349862136931 0.2072810259718571 0 -0.15785725078718399 0.2022916339594211 0 -0.15543597806162129 0.2119372970372366 0 -0.1881793455130519 0.20015405791700991 0 -0.18227943947443631 0.21744945239130981 0 -0.17651052720703639 0.20442560227422041 0 -0.16422349862136931 0.2072810259718571 0 -0.18227943947443631 0.21744945239130981 0 -0.17651052720703639 0.20442560227422041 0 -0.1881793455130519 0.20015405791700991 0 -0.17135982521928839 0.1928178728167049 0 -0.18648636458765599 0.18220469518806881 0 -0.1881793455130519 0.20015405791700991 0 -0.17651052720703639 0.20442560227422041 0 -0.17135982521928839 0.1928178728167049 0 -0.17135982521928839 0.1928178728167049 0 -0.18648636458765599 0.18220469518806881 0 -0.17135982521928839 0.1928178728167049 0 -0.15909335348099879 0.191127596025334 0 -0.16251235986611229 0.18102217298292261 0 -0.16422349862136931 0.2072810259718571 0 -0.17651052720703639 0.20442560227422041 0 -0.17135982521928839 0.1928178728167049 0 -0.16422349862136931 0.2072810259718571 0 -0.17135982521928839 0.1928178728167049 0 -0.15785725078718399 0.2022916339594211 0 -0.17135982521928839 0.1928178728167049 0 -0.15785725078718399 0.2022916339594211 0 -0.16422349862136931 0.2072810259718571 0 -0.17135982521928839 0.1928178728167049 0 -0.17135982521928839 0.1928178728167049 0 -0.15785725078718399 0.2022916339594211 0 -0.15909335348099879 0.191127596025334 0 -0.15909335348099879 0.191127596025334 0 -0.15009482819834549 0.1950590468562487 0 -0.14720966402230429 0.18311127529990459 0 -0.15785725078718399 0.2022916339594211 0 -0.15909335348099879 0.191127596025334 0 -0.15009482819834549 0.1950590468562487 0 -0.15785725078718399 0.2022916339594211 0 -0.15009482819834549 0.1950590468562487 0 -0.14320055480970201 0.2032922222282427 0 -0.15009482819834549 0.1950590468562487 0 -0.14174074430183001 0.19477119914129309 0 -0.14320055480970201 0.2032922222282427 0 -0.15009482819834549 0.1950590468562487 0 -0.14174074430183001 0.19477119914129309 0 -0.14720966402230429 0.18311127529990459 0 -0.14174074430183001 0.19477119914129309 0 -0.13367468098829269 0.18975271547439049 0 -0.14720966402230429 0.18311127529990459 0 -0.14174074430183001 0.19477119914129309 0 -0.13367468098829269 0.18975271547439049 0 -0.13424147653794549 0.19895236042398931 0 -0.13367468098829269 0.18975271547439049 0 -0.13424147653794549 0.19895236042398931 0 -0.1228369648098183 0.19157836423330571 0 -0.13424147653794549 0.19895236042398931 0 -0.12413517026960991 0.20328261756003591 0 -0.1228369648098183 0.19157836423330571 0 -0.13424147653794549 0.19895236042398931 0 -0.13487502023546091 0.20624363592022371 0 -0.12413517026960991 0.20328261756003591 0 -0.13424147653794549 0.19895236042398931 0 -0.13487502023546091 0.20624363592022371 0 -0.14320055480970201 0.2032922222282427 0 -0.14174074430183001 0.19477119914129309 0 -0.13424147653794549 0.19895236042398931 0 -0.14320055480970201 0.2032922222282427 0 -0.12808143729227359 0.21365777151523749 0 -0.1443546763550799 0.2117653951021376 0 -0.1201215298800582 0.22876800764800431 0 -0.13487502023546091 0.20624363592022371 0 -0.12808143729227359 0.21365777151523749 0 -0.1443546763550799 0.2117653951021376 0 -0.13487502023546091 0.20624363592022371 0 -0.12808143729227359 0.21365777151523749 0 -0.12413517026960991 0.20328261756003591 0 -0.1443546763550799 0.2117653951021376 0 -0.1459719772207167 0.22363907502650779 0 -0.1443546763550799 0.2117653951021376 0 -0.14320055480970201 0.2032922222282427 0 -0.13487502023546091 0.20624363592022371 0 -0.1443546763550799 0.2117653951021376 0 -0.14320055480970201 0.2032922222282427 0 -0.15785725078718399 0.2022916339594211 0 -0.1443546763550799 0.2117653951021376 0 -0.15543597806162129 0.2119372970372366 0 -0.15785725078718399 0.2022916339594211 0 -0.1443546763550799 0.2117653951021376 0 -0.14320055480970201 0.2032922222282427 0 -0.15785725078718399 0.2022916339594211 0 -0.1443546763550799 0.2117653951021376 0 -0.1443546763550799 0.2117653951021376 0 -0.15543597806162129 0.2119372970372366 0 -0.1459719772207167 0.22363907502650779 0 -0.15708717202345099 0.22174417912700981 0 -0.1459719772207167 0.22363907502650779 0 -0.14785055011673839 0.2374309264722767 0 -0.15708717202345099 0.22174417912700981 0 -0.1481743061415659 0.23980783450099891 0 -0.15708717202345099 0.22174417912700981 0 -0.14785055011673839 0.2374309264722767 0 -0.1481743061415659 0.23980783450099891 0 -0.15708717202345099 0.22174417912700981 0 -0.1459719772207167 0.22363907502650779 0 -0.15708717202345099 0.22174417912700981 0 -0.15543597806162129 0.2119372970372366 0 -0.1459719772207167 0.22363907502650779 0 -0.1459719772207167 0.22363907502650779 0 -0.14785055011673839 0.2374309264722767 0 -0.14386489488029161 0.23247146604840629 0 -0.1459719772207167 0.22363907502650779 0 -0.14785055011673839 0.2374309264722767 0 -0.14386489488029161 0.23247146604840629 0 -0.1459719772207167 0.22363907502650779 0 -0.13984261399805681 0.2313890873292386 0 -0.14386489488029161 0.23247146604840629 0 -0.13984261399805681 0.2313890873292386 0 -0.14200632494200199 0.23739791450387751 0 -0.1459719772207167 0.22363907502650779 0 -0.1248188876052452 0.22724521090494579 0 -0.1443546763550799 0.2117653951021376 0 -0.1459719772207167 0.22363907502650779 0 -0.1248188876052452 0.22724521090494579 0 -0.1443546763550799 0.2117653951021376 0 -0.1201215298800582 0.22876800764800431 0 -0.1443546763550799 0.2117653951021376 0 -0.1201215298800582 0.22876800764800431 0 -0.1248188876052452 0.22724521090494579 0 -0.1459719772207167 0.22363907502650779 0 -0.13984261399805681 0.2313890873292386 0 -0.1248188876052452 0.22724521090494579 0 -0.13081371297826269 0.23337918477023209 0 -0.12405448318332241 0.23615031783259799 0 -0.1248188876052452 0.22724521090494579 0 -0.13081371297826269 0.23337918477023209 0 -0.13984261399805681 0.2313890873292386 0 -0.1248188876052452 0.22724521090494579 0 -0.13984261399805681 0.2313890873292386 0 -0.13453886712642629 0.23873212301414601 0 -0.14200632494200199 0.23739791450387751 0 -0.1424541626232827 0.25051325329985952 0 -0.13794685842589141 0.2436155227601409 0 -0.1228336577714793 0.24442535321989489 0 -0.1424541626232827 0.25051325329985952 0 -0.1228336577714793 0.24442535321989489 0 -0.13081371297826269 0.23337918477023209 0 -0.13984261399805681 0.2313890873292386 0 -0.13453886712642629 0.23873212301414601 0 -0.14027905442366179 0.24079875547744059 0 -0.13794685842589141 0.2436155227601409 0 -0.14292398160573119 0.2419580220569946 0 -0.14027905442366179 0.24079875547744059 0 -0.13453886712642629 0.23873212301414601 0 -0.13794685842589141 0.2436155227601409 0 -0.14027905442366179 0.24079875547744059 0 -0.13453886712642629 0.23873212301414601 0 -0.14200632494200199 0.23739791450387751 0 -0.13081371297826269 0.23337918477023209 0 -0.13453886712642629 0.23873212301414601 0 -0.12405448318332241 0.23615031783259799 0 -0.13453886712642629 0.23873212301414601 0 -0.1228336577714793 0.24442535321989489 0 -0.12405448318332241 0.23615031783259799 0 -0.13453886712642629 0.23873212301414601 0 -0.13794685842589141 0.2436155227601409 0 -0.1228336577714793 0.24442535321989489 0 -0.1424541626232827 0.25051325329985952 0 -0.13794685842589141 0.2436155227601409 0 -0.14292398160573119 0.2419580220569946 0 -0.1424541626232827 0.25051325329985952 0 -0.14785055011673839 0.2374309264722767 0 -0.1424541626232827 0.25051325329985952 0 -0.14785055011673839 0.2374309264722767 0 -0.1481743061415659 0.23980783450099891 0 -0.1424541626232827 0.25051325329985952 0 -0.14292398160573119 0.2419580220569946 0 -0.14785055011673839 0.2374309264722767 0 -0.14027905442366179 0.24079875547744059 0 -0.14292398160573119 0.2419580220569946 0 -0.14200632494200199 0.23739791450387751 0 -0.14292398160573119 0.2419580220569946 0 -0.14200632494200199 0.23739791450387751 0 -0.14785055011673839 0.2374309264722767 0 -0.14386489488029161 0.23247146604840629 0 -0.14200632494200199 0.23739791450387751 0 -0.14785055011673839 0.2374309264722767 0 -0.14785055011673839 0.2374309264722767 0 -0.1481743061415659 0.23980783450099891 0 -0.16780973058002949 0.14923158366596001 0 -0.17375985175127531 0.14066788863337271 0 -0.14790500829723899 0.15094124466718881 0 -0.17375985175127531 0.14066788863337271 0 -0.14790500829723899 0.15094124466718881 0 -0.17375985175127531 0.14066788863337271 0 -0.14790500829723899 0.15094124466718881 0 -0.15350355114741129 0.14136128755626151 0 -0.16780973058002949 0.14923158366596001 0 -0.16085896581463741 0.15440139989604629 0 -0.1765798010251074 0.15388801702125651 0 -0.16780973058002949 0.14923158366596001 0 -0.16085896581463741 0.15440139989604629 0 -0.14790500829723899 0.15094124466718881 0 -0.1585161137422974 0.13525114865876711 0 -0.1703759862901113 0.12881718256580399 0 -0.149408476883923 0.13353794199584251 0 -0.16339421534131229 0.136966559162291 0 -0.17375985175127531 0.14066788863337271 0 -0.15350355114741129 0.14136128755626151 0 -0.16339421534131229 0.136966559162291 0 -0.1585161137422974 0.13525114865876711 0 -0.15350355114741129 0.14136128755626151 0 -0.16339421534131229 0.136966559162291 0 -0.1703759862901113 0.12881718256580399 0 -0.17375985175127531 0.14066788863337271 0 -0.16339421534131229 0.136966559162291 0 -0.1585161137422974 0.13525114865876711 0 -0.1703759862901113 0.12881718256580399 0 -0.19961469520531189 0.1303945325995573 0 -0.1703759862901113 0.12881718256580399 0 -0.17375985175127531 0.14066788863337271 0 -0.19961469520531189 0.1303945325995573 0 -0.1703759862901113 0.12881718256580399 0 -0.18774212458305001 0.1162598482240003 0 -0.19961469520531189 0.1303945325995573 0 -0.1703759862901113 0.12881718256580399 0 -0.19961469520531189 0.1303945325995573 0 -0.17375985175127531 0.14066788863337271 0 -0.2029223046826398 0.1436547754939913 0 -0.1765798010251074 0.15388801702125651 0 -0.18171333518163019 0.15313342774847671 0 -0.19049392225187509 0.13982987969299721 0 -0.18567883736827351 0.1446023220450674 0 -0.17375985175127531 0.14066788863337271 0 -0.18567883736827351 0.1446023220450674 0 -0.17595705518117141 0.14709745284141421 0 -0.17375985175127531 0.14066788863337271 0 -0.16780973058002949 0.14923158366596001 0 -0.17595705518117141 0.14709745284141421 0 -0.17375985175127531 0.14066788863337271 0 -0.16780973058002949 0.14923158366596001 0 -0.17595705518117141 0.14709745284141421 0 -0.1765798010251074 0.15388801702125651 0 -0.18567883736827351 0.1446023220450674 0 -0.17595705518117141 0.14709745284141421 0 -0.1765798010251074 0.15388801702125651 0 -0.1765798010251074 0.15388801702125651 0 -0.18171333518163019 0.15313342774847671 0 -0.18006728990758611 0.158618441685553 0 -0.1914178523319201 0.1616962603641548 0 -0.1801772742265465 0.16378263013983341 0 -0.18006728990758611 0.158618441685553 0 -0.1914178523319201 0.1616962603641548 0 -0.18171333518163019 0.15313342774847671 0 -0.18006728990758611 0.158618441685553 0 -0.1914178523319201 0.1616962603641548 0 -0.1801772742265465 0.16378263013983341 0 -0.1820576988659415 0.1711365522012597 0 -0.1801772742265465 0.16378263013983341 0 -0.17384434322117279 0.16900296892627531 0 -0.17112973237201251 0.16291642824721531 0 -0.1801772742265465 0.16378263013983341 0 -0.1820576988659415 0.1711365522012597 0 -0.17384434322117279 0.16900296892627531 0 -0.1801772742265465 0.16378263013983341 0 -0.18006728990758611 0.158618441685553 0 -0.17112973237201251 0.16291642824721531 0 -0.1765798010251074 0.15388801702125651 0 -0.18006728990758611 0.158618441685553 0 -0.17112973237201251 0.16291642824721531 0 -0.17135982521928839 0.1928178728167049 0 -0.1820576988659415 0.1711365522012597 0 -0.1711974776912491 0.1766454195271201 0 -0.17135982521928839 0.1928178728167049 0 -0.1820576988659415 0.1711365522012597 0 -0.18648636458765599 0.18220469518806881 0 -0.17135982521928839 0.1928178728167049 0 -0.1820576988659415 0.1711365522012597 0 -0.19039370493538529 0.17165725632822901 0 -0.1820576988659415 0.1711365522012597 0 -0.18648636458765599 0.18220469518806881 0 -0.1820576988659415 0.1711365522012597 0 -0.17384434322117279 0.16900296892627531 0 -0.1711974776912491 0.1766454195271201 0 -0.17135982521928839 0.1928178728167049 0 -0.1711974776912491 0.1766454195271201 0 -0.16251235986611229 0.18102217298292261 0 -0.17384434322117279 0.16900296892627531 0 -0.1711974776912491 0.1766454195271201 0 -0.1646595329501144 0.1705338145159479 0 -0.1711974776912491 0.1766454195271201 0 -0.16251235986611229 0.18102217298292261 0 -0.1646595329501144 0.1705338145159479 0 -0.16251235986611229 0.18102217298292261 0 -0.1646595329501144 0.1705338145159479 0 -0.1556371416193813 0.17460273937162391 0 -0.15909335348099879 0.191127596025334 0 -0.16251235986611229 0.18102217298292261 0 -0.14720966402230429 0.18311127529990459 0 -0.1765798010251074 0.15388801702125651 0 -0.17112973237201251 0.16291642824721531 0 -0.15023729736757499 0.16412125854852169 0 -0.16085896581463741 0.15440139989604629 0 -0.1765798010251074 0.15388801702125651 0 -0.15023729736757499 0.16412125854852169 0 -0.1765798010251074 0.15388801702125651 0 -0.15023729736757499 0.16412125854852169 0 -0.17112973237201251 0.16291642824721531 0 -0.1646595329501144 0.1705338145159479 0 -0.15023729736757499 0.16412125854852169 0 -0.17384434322117279 0.16900296892627531 0 -0.17112973237201251 0.16291642824721531 0 -0.1646595329501144 0.1705338145159479 0 -0.1646595329501144 0.1705338145159479 0 -0.15023729736757499 0.16412125854852169 0 -0.1556371416193813 0.17460273937162391 0 -0.15023729736757499 0.16412125854852169 0 -0.13267835803843411 0.15894091917248979 0 -0.14790500829723899 0.15094124466718881 0 -0.16085896581463741 0.15440139989604629 0 -0.15023729736757499 0.16412125854852169 0 -0.14790500829723899 0.15094124466718881 0 -0.15023729736757499 0.16412125854852169 0 -0.1556371416193813 0.17460273937162391 0 -0.14720966402230429 0.18311127529990459 0 -0.16251235986611229 0.18102217298292261 0 -0.1556371416193813 0.17460273937162391 0 -0.14720966402230429 0.18311127529990459 0 -0.15023729736757499 0.16412125854852169 0 -0.14720966402230429 0.18311127529990459 0 -0.1238947937100426 0.1743545000757869 0 -0.13367468098829269 0.18975271547439049 0 -0.1238947937100426 0.1743545000757869 0 -0.1228369648098183 0.19157836423330571 0 -0.13367468098829269 0.18975271547439049 0 -0.14720966402230429 0.18311127529990459 0 -0.1238947937100426 0.1743545000757869 0 -0.15023729736757499 0.16412125854852169 0 -0.13267835803843411 0.15894091917248979 0 -0.1238947937100426 0.1743545000757869 0 -0.15023729736757499 0.16412125854852169 0 -0.1238947937100426 0.1743545000757869 0 -0.13267835803843411 0.15894091917248979 0 -0.13617659497319889 0.1471998709921386 0 -0.1239111636881627 0.14551335037359051 0 -0.13617659497319889 0.1471998709921386 0 -0.1329971917538012 0.13686961064399489 0 -0.1239111636881627 0.14551335037359051 0 -0.13617659497319889 0.1471998709921386 0 -0.14289061628769359 0.1406150618267441 0 -0.1329971917538012 0.13686961064399489 0 -0.13267835803843411 0.15894091917248979 0 -0.13617659497319889 0.1471998709921386 0 -0.14790500829723899 0.15094124466718881 0 -0.14790500829723899 0.15094124466718881 0 -0.15350355114741129 0.14136128755626151 0 -0.14289061628769359 0.1406150618267441 0 -0.13617659497319889 0.1471998709921386 0 -0.14790500829723899 0.15094124466718881 0 -0.14289061628769359 0.1406150618267441 0 -0.1703759862901113 0.12881718256580399 0 -0.149408476883923 0.13353794199584251 0 -0.14113727737491069 0.1272398325320501 0 -0.15616260811245461 0.1205030870514258 0 -0.1703759862901113 0.12881718256580399 0 -0.14113727737491069 0.1272398325320501 0 -0.1703759862901113 0.12881718256580399 0 -0.14113727737491069 0.1272398325320501 0 -0.15350355114741129 0.14136128755626151 0 -0.149408476883923 0.13353794199584251 0 -0.14289061628769359 0.1406150618267441 0 -0.1585161137422974 0.13525114865876711 0 -0.15350355114741129 0.14136128755626151 0 -0.149408476883923 0.13353794199584251 0 -0.149408476883923 0.13353794199584251 0 -0.14289061628769359 0.1406150618267441 0 -0.14160839057508209 0.13456561174965789 0 -0.149408476883923 0.13353794199584251 0 -0.14160839057508209 0.13456561174965789 0 -0.14113727737491069 0.1272398325320501 0 -0.14113727737491069 0.1272398325320501 0 -0.1329971917538012 0.13686961064399489 0 -0.11189856845971009 0.12566248249829609 0 -0.14113727737491069 0.1272398325320501 0 -0.13543177976928 0.1255897942953659 0 -0.11189856845971009 0.12566248249829609 0 -0.14113727737491069 0.1272398325320501 0 -0.11189856845971009 0.12566248249829609 0 -0.14289061628769359 0.1406150618267441 0 -0.14160839057508209 0.13456561174965789 0 -0.1329971917538012 0.13686961064399489 0 -0.14160839057508209 0.13456561174965789 0 -0.14113727737491069 0.1272398325320501 0 -0.1329971917538012 0.13686961064399489 0 -0.1329971917538012 0.13686961064399489 0 -0.11189856845971009 0.12566248249829609 0 -0.1239111636881627 0.14551335037359051 0 -0.11189856845971009 0.12566248249829609 0 -0.10901941698893521 0.14557465660866231 0 -0.1239111636881627 0.14551335037359051 0 -0.11189856845971009 0.12566248249829609 0 -0.098673753723558993 0.13757889365355219 0 -0.091730220224361211 0.12746149685899841 0 -0.11189856845971009 0.12566248249829609 0 -0.098673753723558993 0.13757889365355219 0 -0.10901941698893521 0.14557465660866231 0 -0.096097387031697901 0.15093505162158119 0 -0.10901941698893521 0.14557465660866231 0 -0.10848383811186151 0.1622888609988351 0 -0.098673753723558993 0.13757889365355219 0 -0.096097387031697901 0.15093505162158119 0 -0.10901941698893521 0.14557465660866231 0 -0.13267835803843411 0.15894091917248979 0 -0.1239111636881627 0.14551335037359051 0 -0.10848383811186151 0.1622888609988351 0 -0.10901941698893521 0.14557465660866231 0 -0.1239111636881627 0.14551335037359051 0 -0.10848383811186151 0.1622888609988351 0 -0.13267835803843411 0.15894091917248979 0 -0.1238947937100426 0.1743545000757869 0 -0.10848383811186151 0.1622888609988351 0 -0.1238947937100426 0.1743545000757869 0 -0.09755229005251026 0.18458774160305211 0 -0.10848383811186151 0.1622888609988351 0 -0.1238947937100426 0.1743545000757869 0 -0.09755229005251026 0.18458774160305211 0 -0.1088333282931141 0.19325588289515211 0 -0.1238947937100426 0.1743545000757869 0 -0.09755229005251026 0.18458774160305211 0 -0.1238947937100426 0.1743545000757869 0 -0.1228369648098183 0.19157836423330571 0 -0.1088333282931141 0.19325588289515211 0 -0.09755229005251026 0.18458774160305211 0 -0.10848383811186151 0.1622888609988351 0 -0.09336294068587879 0.17242006759583231 0 -0.09755229005251026 0.18458774160305211 0 -0.091726491308167582 0.17982175358740191 0 -0.09336294068587879 0.17242006759583231 0 -0.09755229005251026 0.18458774160305211 0 -0.09066339447450257 0.18500241193678529 0 -0.096287584503285631 0.19088292254024941 0 -0.096097387031697901 0.15093505162158119 0 -0.10848383811186151 0.1622888609988351 0 -0.092332973589932962 0.16176486543358271 0 -0.10848383811186151 0.1622888609988351 0 -0.092332973589932962 0.16176486543358271 0 -0.09336294068587879 0.17242006759583231 0 -0.092332973589932962 0.16176486543358271 0 -0.081141238878174551 0.16856603670450129 0 -0.09336294068587879 0.17242006759583231 0 -0.092332973589932962 0.16176486543358271 0 -0.081141238878174551 0.16856603670450129 0 -0.083801711912624144 0.15465705385340059 0 -0.081141238878174551 0.16856603670450129 0 -0.07353835510986996 0.15899132224259979 0 -0.083801711912624144 0.15465705385340059 0 -0.09755229005251026 0.18458774160305211 0 -0.09066339447450257 0.18500241193678529 0 -0.091726491308167582 0.17982175358740191 0 -0.09066339447450257 0.18500241193678529 0 -0.091726491308167582 0.17982175358740191 0 -0.085327340019778722 0.17727679321393769 0 -0.091726491308167582 0.17982175358740191 0 -0.09336294068587879 0.17242006759583231 0 -0.085327340019778722 0.17727679321393769 0 -0.081141238878174551 0.16856603670450129 0 -0.09336294068587879 0.17242006759583231 0 -0.085327340019778722 0.17727679321393769 0 -0.081141238878174551 0.16856603670450129 0 -0.085327340019778722 0.17727679321393769 0 -0.076638764097247236 0.1774129894493891 0 -0.085327340019778722 0.17727679321393769 0 -0.078703692664408353 0.18691245043337801 0 -0.076638764097247236 0.1774129894493891 0 -0.09066339447450257 0.18500241193678529 0 -0.085327340019778722 0.17727679321393769 0 -0.078703692664408353 0.18691245043337801 0 -0.066264893885961948 0.18437249628270319 0 -0.07175665503791262 0.16993717061242519 0 -0.062879087156076527 0.16404893305326551 0 -0.066264893885961948 0.18437249628270319 0 -0.062879087156076527 0.16404893305326551 0 -0.078703692664408353 0.18691245043337801 0 -0.076638764097247236 0.1774129894493891 0 -0.066264893885961948 0.18437249628270319 0 -0.081141238878174551 0.16856603670450129 0 -0.076638764097247236 0.1774129894493891 0 -0.07175665503791262 0.16993717061242519 0 -0.076638764097247236 0.1774129894493891 0 -0.066264893885961948 0.18437249628270319 0 -0.07175665503791262 0.16993717061242519 0 -0.081141238878174551 0.16856603670450129 0 -0.07353835510986996 0.15899132224259979 0 -0.07175665503791262 0.16993717061242519 0 -0.07353835510986996 0.15899132224259979 0 -0.07175665503791262 0.16993717061242519 0 -0.062879087156076527 0.16404893305326551 0 -0.07353835510986996 0.15899132224259979 0 -0.062879087156076527 0.16404893305326551 0 -0.067973377089238202 0.1514437544257308 0 -0.062879087156076527 0.16404893305326551 0 -0.067973377089238202 0.1514437544257308 0 -0.059493280426191113 0.1437253698238278 0 -0.07353835510986996 0.15899132224259979 0 -0.067973377089238202 0.1514437544257308 0 -0.076415410006448192 0.14713220288541151 0 -0.07353835510986996 0.15899132224259979 0 -0.076415410006448192 0.14713220288541151 0 -0.083801711912624144 0.15465705385340059 0 -0.067973377089238202 0.1514437544257308 0 -0.076415410006448192 0.14713220288541151 0 -0.069688790992790198 0.1434011360221471 0 -0.076415410006448192 0.14713220288541151 0 -0.069688790992790198 0.1434011360221471 0 -0.075795317247010441 0.13799859027901371 0 -0.069688790992790198 0.1434011360221471 0 -0.06876657019506309 0.1367057626967518 0 -0.059493280426191113 0.1437253698238278 0 -0.067973377089238202 0.1514437544257308 0 -0.069688790992790198 0.1434011360221471 0 -0.059493280426191113 0.1437253698238278 0 -0.06876657019506309 0.1367057626967518 0 -0.065250091528402929 0.1287463732894033 0 -0.059493280426191113 0.1437253698238278 0 -0.06876657019506309 0.1367057626967518 0 -0.065250091528402929 0.1287463732894033 0 -0.074104704471125687 0.12947736917812719 0 -0.065250091528402929 0.1287463732894033 0 -0.074104704471125687 0.12947736917812719 0 -0.070920758885679891 0.122612280453199 0 -0.074104704471125687 0.12947736917812719 0 -0.075795317247010441 0.13799859027901371 0 -0.081726162392826041 0.1306998339025463 0 -0.06876657019506309 0.1367057626967518 0 -0.074104704471125687 0.12947736917812719 0 -0.075795317247010441 0.13799859027901371 0 -0.069688790992790198 0.1434011360221471 0 -0.06876657019506309 0.1367057626967518 0 -0.075795317247010441 0.13799859027901371 0 -0.075795317247010441 0.13799859027901371 0 -0.081726162392826041 0.1306998339025463 0 -0.086218303668994481 0.14065542888769611 0 -0.081726162392826041 0.1306998339025463 0 -0.091730220224361211 0.12746149685899841 0 -0.080623491526222016 0.1199931131298478 0 -0.074104704471125687 0.12947736917812719 0 -0.081726162392826041 0.1306998339025463 0 -0.080623491526222016 0.1199931131298478 0 -0.098673753723558993 0.13757889365355219 0 -0.091730220224361211 0.12746149685899841 0 -0.086218303668994481 0.14065542888769611 0 -0.081726162392826041 0.1306998339025463 0 -0.091730220224361211 0.12746149685899841 0 -0.086218303668994481 0.14065542888769611 0 -0.098673753723558993 0.13757889365355219 0 -0.096097387031697901 0.15093505162158119 0 -0.086218303668994481 0.14065542888769611 0 -0.096097387031697901 0.15093505162158119 0 -0.092332973589932962 0.16176486543358271 0 -0.083801711912624144 0.15465705385340059 0 -0.096097387031697901 0.15093505162158119 0 -0.086218303668994481 0.14065542888769611 0 -0.083801711912624144 0.15465705385340059 0 -0.076415410006448192 0.14713220288541151 0 -0.086218303668994481 0.14065542888769611 0 -0.083801711912624144 0.15465705385340059 0 -0.076415410006448192 0.14713220288541151 0 -0.075795317247010441 0.13799859027901371 0 -0.086218303668994481 0.14065542888769611 0 -0.098434194655151852 0.25359205744849089 0 -0.10321315291967641 0.2383374531399286 0 -0.090909141276767719 0.24568707827447131 0 -0.10321315291967641 0.2383374531399286 0 -0.1228336577714793 0.24442535321989489 0 -0.10321315291967641 0.2383374531399286 0 -0.1228336577714793 0.24442535321989489 0 -0.12405448318332241 0.23615031783259799 0 -0.10321315291967641 0.2383374531399286 0 -0.12405448318332241 0.23615031783259799 0 -0.1201215298800582 0.22876800764800431 0 -0.1130949171957656 0.25907730933210138 0 -0.10321315291967641 0.2383374531399286 0 -0.1228336577714793 0.24442535321989489 0 -0.10321315291967641 0.2383374531399286 0 -0.1201215298800582 0.22876800764800431 0 -0.1076125114805062 0.2238753613480671 0 -0.12405448318332241 0.23615031783259799 0 -0.1201215298800582 0.22876800764800431 0 -0.1248188876052452 0.22724521090494579 0 -0.12808143729227359 0.21365777151523749 0 -0.1201215298800582 0.22876800764800431 0 -0.1167998821472946 0.21574788458080241 0 -0.1201215298800582 0.22876800764800431 0 -0.1076125114805062 0.2238753613480671 0 -0.1167998821472946 0.21574788458080241 0 -0.10321315291967641 0.2383374531399286 0 -0.095662588999315151 0.2242431803433993 0 -0.083592648067873296 0.232249553059963 0 -0.1076125114805062 0.2238753613480671 0 -0.095662588999315151 0.2242431803433993 0 -0.1051743507671718 0.20900963788930779 0 -0.10321315291967641 0.2383374531399286 0 -0.1076125114805062 0.2238753613480671 0 -0.095662588999315151 0.2242431803433993 0 -0.095662588999315151 0.2242431803433993 0 -0.1051743507671718 0.20900963788930779 0 -0.08621353126473344 0.21473665821857851 0 -0.1051743507671718 0.20900963788930779 0 -0.094950855915543975 0.19880001647090501 0 -0.08621353126473344 0.21473665821857851 0 -0.1051743507671718 0.20900963788930779 0 -0.08621353126473344 0.21473665821857851 0 -0.1076125114805062 0.2238753613480671 0 -0.1051743507671718 0.20900963788930779 0 -0.1167998821472946 0.21574788458080241 0 -0.1051743507671718 0.20900963788930779 0 -0.12413517026960991 0.20328261756003591 0 -0.1051743507671718 0.20900963788930779 0 -0.1167998821472946 0.21574788458080241 0 -0.12413517026960991 0.20328261756003591 0 -0.12808143729227359 0.21365777151523749 0 -0.1167998821472946 0.21574788458080241 0 -0.12413517026960991 0.20328261756003591 0 -0.1051743507671718 0.20900963788930779 0 -0.12413517026960991 0.20328261756003591 0 -0.1088333282931141 0.19325588289515211 0 -0.12413517026960991 0.20328261756003591 0 -0.1228369648098183 0.19157836423330571 0 -0.1088333282931141 0.19325588289515211 0 -0.1051743507671718 0.20900963788930779 0 -0.1088333282931141 0.19325588289515211 0 -0.094950855915543975 0.19880001647090501 0 -0.09755229005251026 0.18458774160305211 0 -0.1088333282931141 0.19325588289515211 0 -0.096287584503285631 0.19088292254024941 0 -0.09066339447450257 0.18500241193678529 0 -0.094950855915543975 0.19880001647090501 0 -0.096287584503285631 0.19088292254024941 0 -0.1088333282931141 0.19325588289515211 0 -0.094950855915543975 0.19880001647090501 0 -0.096287584503285631 0.19088292254024941 0 -0.09066339447450257 0.18500241193678529 0 -0.081242199341161087 0.19831760678225219 0 -0.08621353126473344 0.21473665821857851 0 -0.09066339447450257 0.18500241193678529 0 -0.094950855915543975 0.19880001647090501 0 -0.08621353126473344 0.21473665821857851 0 -0.09066339447450257 0.18500241193678529 0 -0.08621353126473344 0.21473665821857851 0 -0.09066339447450257 0.18500241193678529 0 -0.078703692664408353 0.18691245043337801 0 -0.081242199341161087 0.19831760678225219 0 -0.078703692664408353 0.18691245043337801 0 -0.066264893885961948 0.18437249628270319 0 -0.071219636088363056 0.1962151721444241 0 -0.078703692664408353 0.18691245043337801 0 -0.081242199341161087 0.19831760678225219 0 -0.071219636088363056 0.1962151721444241 0 -0.066264893885961948 0.18437249628270319 0 -0.071219636088363056 0.1962151721444241 0 -0.058315133835868907 0.1898060950754723 0 -0.071219636088363056 0.1962151721444241 0 -0.062821092003032028 0.20410820832987109 0 -0.058315133835868907 0.1898060950754723 0 -0.071219636088363056 0.1962151721444241 0 -0.07355342858175809 0.2076328862598841 0 -0.062821092003032028 0.20410820832987109 0 -0.081242199341161087 0.19831760678225219 0 -0.071219636088363056 0.1962151721444241 0 -0.07355342858175809 0.2076328862598841 0 -0.07355342858175809 0.2076328862598841 0 -0.062821092003032028 0.20410820832987109 0 -0.0577518811680994 0.22333335672557669 0 -0.07355342858175809 0.2076328862598841 0 -0.08621353126473344 0.21473665821857851 0 -0.0577518811680994 0.22333335672557669 0 -0.081242199341161087 0.19831760678225219 0 -0.07355342858175809 0.2076328862598841 0 -0.08621353126473344 0.21473665821857851 0 -0.095662588999315151 0.2242431803433993 0 -0.08621353126473344 0.21473665821857851 0 -0.083592648067873296 0.232249553059963 0 -0.08621353126473344 0.21473665821857851 0 -0.083592648067873296 0.232249553059963 0 -0.08621353126473344 0.21473665821857851 0 -0.083592648067873296 0.232249553059963 0 -0.060706944196038892 0.2251485187347104 0 -0.067578588882820742 0.24363817085521811 0 -0.0577518811680994 0.22333335672557669 0 -0.08621353126473344 0.21473665821857851 0 -0.0577518811680994 0.22333335672557669 0 -0.08621353126473344 0.21473665821857851 0 -0.060706944196038892 0.2251485187347104 0 -0.0577518811680994 0.22333335672557669 0 -0.083592648067873296 0.232249553059963 0 -0.067578588882820742 0.24363817085521811 0 -0.060706944196038892 0.2251485187347104 0 -0.083592648067873296 0.232249553059963 0 -0.060706944196038892 0.2251485187347104 0 -0.079996925635204746 0.25627638070248449 0 -0.083592648067873296 0.232249553059963 0 -0.067578588882820742 0.24363817085521811 0 -0.10321315291967641 0.2383374531399286 0 -0.083592648067873296 0.232249553059963 0 -0.090909141276767719 0.24568707827447131 0 -0.079996925635204746 0.25627638070248449 0 -0.083592648067873296 0.232249553059963 0 -0.10321315291967641 0.2383374531399286 0 -0.083592648067873296 0.232249553059963 0 -0.079996925635204746 0.25627638070248449 0 -0.083592648067873296 0.232249553059963 0 -0.090909141276767719 0.24568707827447131 0 -0.045437231683510118 0.25176175338703799 0 -0.03067695542781158 0.25696212032607801 0 -0.02095094312725191 0.23881936749086971 0 -0.045437231683510118 0.25176175338703799 0 -0.02095094312725191 0.23881936749086971 0 -0.045437231683510118 0.25176175338703799 0 -0.02095094312725191 0.23881936749086971 0 -0.029760347238771849 0.23534514472321111 0 -0.045437231683510118 0.25176175338703799 0 -0.035812252025579812 0.23160293829453071 0 -0.029760347238771849 0.23534514472321111 0 -0.045437231683510118 0.25176175338703799 0 -0.035812252025579812 0.23160293829453071 0 -0.045437231683510118 0.25176175338703799 0 -0.042906570843878167 0.23400195750542141 0 -0.035812252025579812 0.23160293829453071 0 -0.045437231683510118 0.25176175338703799 0 -0.053334997349648333 0.23802014371972899 0 -0.042906570843878167 0.23400195750542141 0 -0.067578588882820742 0.24363817085521811 0 -0.053334997349648333 0.23802014371972899 0 -0.0577518811680994 0.22333335672557669 0 -0.045437231683510118 0.25176175338703799 0 -0.056712690044116429 0.24828582856676401 0 -0.053334997349648333 0.23802014371972899 0 -0.067578588882820742 0.24363817085521811 0 -0.056712690044116429 0.24828582856676401 0 -0.053334997349648333 0.23802014371972899 0 -0.053334997349648333 0.23802014371972899 0 -0.047699478671301851 0.23125396911402199 0 -0.042906570843878167 0.23400195750542141 0 -0.047699478671301851 0.23125396911402199 0 -0.0577518811680994 0.22333335672557669 0 -0.036804465323581503 0.22966041850536081 0 -0.053334997349648333 0.23802014371972899 0 -0.047699478671301851 0.23125396911402199 0 -0.0577518811680994 0.22333335672557669 0 -0.0577518811680994 0.22333335672557669 0 -0.036804465323581503 0.22966041850536081 0 -0.067578588882820742 0.24363817085521811 0 -0.060706944196038892 0.2251485187347104 0 -0.0577518811680994 0.22333335672557669 0 -0.036804465323581503 0.22966041850536081 0 -0.035812252025579812 0.23160293829453071 0 -0.026187272367648909 0.2114441232020236 0 -0.0577518811680994 0.22333335672557669 0 -0.036804465323581503 0.22966041850536081 0 -0.041516048806167438 0.21552114793936331 0 -0.036804465323581503 0.22966041850536081 0 -0.041516048806167438 0.21552114793936331 0 -0.026187272367648909 0.2114441232020236 0 -0.047699478671301851 0.23125396911402199 0 -0.042906570843878167 0.23400195750542141 0 -0.036804465323581503 0.22966041850536081 0 -0.035812252025579812 0.23160293829453071 0 -0.028878035791205129 0.2265164812131138 0 -0.029760347238771849 0.23534514472321111 0 -0.042906570843878167 0.23400195750542141 0 -0.036804465323581503 0.22966041850536081 0 -0.035812252025579812 0.23160293829453071 0 -0.041516048806167438 0.21552114793936331 0 -0.045320576365339947 0.19764669332449211 0 -0.026187272367648909 0.2114441232020236 0 -0.062821092003032028 0.20410820832987109 0 -0.0577518811680994 0.22333335672557669 0 -0.045320576365339947 0.19764669332449211 0 -0.0577518811680994 0.22333335672557669 0 -0.045320576365339947 0.19764669332449211 0 -0.0577518811680994 0.22333335672557669 0 -0.041516048806167438 0.21552114793936331 0 -0.045320576365339947 0.19764669332449211 0 -0.062821092003032028 0.20410820832987109 0 -0.058315133835868907 0.1898060950754723 0 -0.045320576365339947 0.19764669332449211 0 -0.058315133835868907 0.1898060950754723 0 -0.045320576365339947 0.19764669332449211 0 -0.047375559133274368 0.18100334445826491 0 -0.045320576365339947 0.19764669332449211 0 -0.030239853251322061 0.19308403863985979 0 -0.032889271562581368 0.17196002992340709 0 -0.045320576365339947 0.19764669332449211 0 -0.030239853251322061 0.19308403863985979 0 -0.026187272367648909 0.2114441232020236 0 -0.030239853251322061 0.19308403863985979 0 -0.01656229270971803 0.19128530810951669 0 -0.026187272367648909 0.2114441232020236 0 -0.01656229270971803 0.19128530810951669 0 -0.01367446187186812 0.2032429511627627 0 -0.026187272367648909 0.2114441232020236 0 -0.01656229270971803 0.19128530810951669 0 -0.026187272367648909 0.2114441232020236 0 -0.0075829514464992621 0.1849322941617467 0 0.0063827717358030632 0.20264123217486221 0 -0.01237736087050894 0.18798491754449881 0 -0.01367446187186812 0.2032429511627627 0 -0.001995617986719397 0.21148658785678021 0 -0.01237736087050894 0.18798491754449881 0 0.0063827717358030632 0.20264123217486221 0 -0.01237736087050894 0.18798491754449881 0 -0.0075829514464992621 0.1849322941617467 0 0.0063827717358030632 0.20264123217486221 0 -0.01237736087050894 0.18798491754449881 0 -0.001995617986719397 0.21148658785678021 0 0.0063827717358030632 0.20264123217486221 0 -0.01656229270971803 0.19128530810951669 0 -0.01237736087050894 0.18798491754449881 0 -0.01367446187186812 0.2032429511627627 0 -0.01237736087050894 0.18798491754449881 0 -0.001995617986719397 0.21148658785678021 0 -0.01367446187186812 0.2032429511627627 0 -0.001995617986719397 0.21148658785678021 0 -0.01213479354333157 0.2138078566692789 0 -0.001995617986719397 0.21148658785678021 0 -0.01213479354333157 0.2138078566692789 0 -0.005705330694576103 0.2188486019354606 0 -0.001995617986719397 0.21148658785678021 0 -0.005705330694576103 0.2188486019354606 0 0.0042264113753839021 0.22557170674079849 0 -0.01213479354333157 0.2138078566692789 0 -0.026187272367648909 0.2114441232020236 0 -0.013111284795845351 0.2240170191893672 0 -0.01367446187186812 0.2032429511627627 0 -0.01213479354333157 0.2138078566692789 0 -0.026187272367648909 0.2114441232020236 0 -0.035812252025579812 0.23160293829453071 0 -0.026187272367648909 0.2114441232020236 0 -0.035812252025579812 0.23160293829453071 0 -0.026187272367648909 0.2114441232020236 0 -0.028878035791205129 0.2265164812131138 0 -0.026187272367648909 0.2114441232020236 0 -0.028878035791205129 0.2265164812131138 0 -0.023752271532819981 0.2276737186326899 0 -0.026187272367648909 0.2114441232020236 0 -0.023752271532819981 0.2276737186326899 0 -0.013111284795845351 0.2240170191893672 0 -0.023752271532819981 0.2276737186326899 0 -0.02095094312725191 0.23881936749086971 0 -0.029760347238771849 0.23534514472321111 0 -0.028878035791205129 0.2265164812131138 0 -0.023752271532819981 0.2276737186326899 0 -0.029760347238771849 0.23534514472321111 0 -0.023752271532819981 0.2276737186326899 0 -0.013111284795845351 0.2240170191893672 0 -0.02095094312725191 0.23881936749086971 0 -0.02095094312725191 0.23881936749086971 0 0.0042264113753839021 0.22557170674079849 0 -0.013111284795845351 0.2240170191893672 0 -0.02095094312725191 0.23881936749086971 0 0.0042264113753839021 0.22557170674079849 0 -0.013111284795845351 0.2240170191893672 0 -0.005705330694576103 0.2188486019354606 0 0.0042264113753839021 0.22557170674079849 0 -0.01213479354333157 0.2138078566692789 0 -0.013111284795845351 0.2240170191893672 0 -0.005705330694576103 0.2188486019354606 0 -0.018566296301133871 0.25665269269268071 0 -0.0026056055883075658 0.24895329681263881 0 -0.02095094312725191 0.23881936749086971 0 -0.0026056055883075658 0.24895329681263881 0 -0.02095094312725191 0.23881936749086971 0 0.0042264113753839021 0.22557170674079849 0 -0.03802602409436593 0.14632960388839139 0 -0.056248899860905373 0.15371036883767311 0 -0.02934117145641681 0.16462863112123249 0 -0.03802602409436593 0.14632960388839139 0 -0.054503373559930297 0.1254358516281516 0 -0.03802602409436593 0.14632960388839139 0 -0.036907119312978527 0.1285031003037912 0 -0.054503373559930297 0.1254358516281516 0 -0.03802602409436593 0.14632960388839139 0 -0.036907119312978527 0.1285031003037912 0 -0.027639061783294609 0.1370808625216357 0 -0.056711552995528387 0.1270278386785611 0 -0.059493280426191113 0.1437253698238278 0 -0.03802602409436593 0.14632960388839139 0 -0.056711552995528387 0.1270278386785611 0 -0.059493280426191113 0.1437253698238278 0 -0.03802602409436593 0.14632960388839139 0 -0.054503373559930297 0.1254358516281516 0 -0.056711552995528387 0.1270278386785611 0 -0.065250091528402929 0.1287463732894033 0 -0.056711552995528387 0.1270278386785611 0 -0.059493280426191113 0.1437253698238278 0 -0.065250091528402929 0.1287463732894033 0 -0.056107473696304561 0.1234018065943904 0 -0.061128465846185073 0.1231052270537922 0 -0.065250091528402929 0.1287463732894033 0 -0.056711552995528387 0.1270278386785611 0 -0.056107473696304561 0.1234018065943904 0 -0.054503373559930297 0.1254358516281516 0 -0.056711552995528387 0.1270278386785611 0 -0.054503373559930297 0.1254358516281516 0 -0.056711552995528387 0.1270278386785611 0 -0.056107473696304561 0.1234018065943904 0 -0.056711552995528387 0.1270278386785611 0 -0.056107473696304561 0.1234018065943904 0 -0.03802602409436593 0.14632960388839139 0 -0.059493280426191113 0.1437253698238278 0 -0.056248899860905373 0.15371036883767311 0 -0.062879087156076527 0.16404893305326551 0 -0.059493280426191113 0.1437253698238278 0 -0.062879087156076527 0.16404893305326551 0 -0.059493280426191113 0.1437253698238278 0 -0.056248899860905373 0.15371036883767311 0 -0.062879087156076527 0.16404893305326551 0 -0.056248899860905373 0.15371036883767311 0 -0.05601267161504634 0.16514361220868309 0 -0.062879087156076527 0.16404893305326551 0 -0.05601267161504634 0.16514361220868309 0 -0.056889045539242213 0.1754906559130788 0 -0.05601267161504634 0.16514361220868309 0 -0.048033653903961263 0.16732449103071501 0 -0.056889045539242213 0.1754906559130788 0 -0.056248899860905373 0.15371036883767311 0 -0.05601267161504634 0.16514361220868309 0 -0.048033653903961263 0.16732449103071501 0 -0.066264893885961948 0.18437249628270319 0 -0.062879087156076527 0.16404893305326551 0 -0.056889045539242213 0.1754906559130788 0 -0.066264893885961948 0.18437249628270319 0 -0.058315133835868907 0.1898060950754723 0 -0.056889045539242213 0.1754906559130788 0 -0.048033653903961263 0.16732449103071501 0 -0.056889045539242213 0.1754906559130788 0 -0.047375559133274368 0.18100334445826491 0 -0.058315133835868907 0.1898060950754723 0 -0.056889045539242213 0.1754906559130788 0 -0.047375559133274368 0.18100334445826491 0 -0.045320576365339947 0.19764669332449211 0 -0.047375559133274368 0.18100334445826491 0 -0.032889271562581368 0.17196002992340709 0 -0.045320576365339947 0.19764669332449211 0 -0.032889271562581368 0.17196002992340709 0 -0.048033653903961263 0.16732449103071501 0 -0.047375559133274368 0.18100334445826491 0 -0.032889271562581368 0.17196002992340709 0 -0.056248899860905373 0.15371036883767311 0 -0.032889271562581368 0.17196002992340709 0 -0.056248899860905373 0.15371036883767311 0 -0.032889271562581368 0.17196002992340709 0 -0.02934117145641681 0.16462863112123249 0 -0.056248899860905373 0.15371036883767311 0 -0.048033653903961263 0.16732449103071501 0 -0.032889271562581368 0.17196002992340709 0 -0.03802602409436593 0.14632960388839139 0 -0.021548674628802399 0.16722335614863171 0 -0.03802602409436593 0.14632960388839139 0 -0.02934117145641681 0.16462863112123249 0 -0.021548674628802399 0.16722335614863171 0 -0.03802602409436593 0.14632960388839139 0 -0.021548674628802399 0.16722335614863171 0 -0.02332565116567481 0.16320072553740561 0 -0.032889271562581368 0.17196002992340709 0 -0.02934117145641681 0.16462863112123249 0 -0.021548674628802399 0.16722335614863171 0 -0.032889271562581368 0.17196002992340709 0 -0.02934117145641681 0.16462863112123249 0 -0.021548674628802399 0.16722335614863171 0 -0.02332565116567481 0.16320072553740561 0 -0.02332565116567481 0.16320072553740561 0 -0.01297643594022368 0.16056462110032041 0 -0.017809827156933151 0.15530315557062349 0 -0.021548674628802399 0.16722335614863171 0 -0.02332565116567481 0.16320072553740561 0 -0.01297643594022368 0.16056462110032041 0 -0.01656229270971803 0.19128530810951669 0 -0.01237736087050894 0.18798491754449881 0 -0.032889271562581368 0.17196002992340709 0 -0.030239853251322061 0.19308403863985979 0 -0.01656229270971803 0.19128530810951669 0 -0.032889271562581368 0.17196002992340709 0 -0.01237736087050894 0.18798491754449881 0 -0.021548674628802399 0.16722335614863171 0 -0.01237736087050894 0.18798491754449881 0 -0.032889271562581368 0.17196002992340709 0 -0.021548674628802399 0.16722335614863171 0 -0.01237736087050894 0.18798491754449881 0 -0.032889271562581368 0.17196002992340709 0 -0.021548674628802399 0.16722335614863171 0 -0.0075829514464992621 0.1849322941617467 0 -0.0044038107806405082 0.16985632141771759 0 -0.01237736087050894 0.18798491754449881 0 -0.021548674628802399 0.16722335614863171 0 -0.0075829514464992621 0.1849322941617467 0 -0.021548674628802399 0.16722335614863171 0 -0.0075829514464992621 0.1849322941617467 0 -0.0075829514464992621 0.1849322941617467 0 -0.0044038107806405082 0.16985632141771759 0 0.0096382588945957519 0.1876603216572042 0 -0.021548674628802399 0.16722335614863171 0 -0.01297643594022368 0.16056462110032041 0 -0.0044038107806405082 0.16985632141771759 0 -0.01297643594022368 0.16056462110032041 0 -0.0044038107806405082 0.16985632141771759 0 -0.002616345114230932 0.15504128183753721 0 -0.002616345114230932 0.15504128183753721 0 -0.0097137871811661513 0.1483388793135971 0 0.0061287859223852067 0.1350776176849659 0 -0.01297643594022368 0.16056462110032041 0 -0.002616345114230932 0.15504128183753721 0 -0.0097137871811661513 0.1483388793135971 0 -0.01297643594022368 0.16056462110032041 0 -0.0097137871811661513 0.1483388793135971 0 -0.017809827156933151 0.15530315557062349 0 -0.0097137871811661513 0.1483388793135971 0 -0.017809827156933151 0.15530315557062349 0 -0.02331079562616761 0.1483477571246819 0 -0.03802602409436593 0.14632960388839139 0 -0.02332565116567481 0.16320072553740561 0 -0.02331079562616761 0.1483477571246819 0 -0.02332565116567481 0.16320072553740561 0 -0.017809827156933151 0.15530315557062349 0 -0.02331079562616761 0.1483477571246819 0 -0.0097137871811661513 0.1483388793135971 0 -0.02331079562616761 0.1483477571246819 0 -0.01762693565229401 0.13884695264602909 0 -0.02331079562616761 0.1483477571246819 0 -0.027639061783294609 0.1370808625216357 0 -0.01762693565229401 0.13884695264602909 0 -0.03802602409436593 0.14632960388839139 0 -0.02331079562616761 0.1483477571246819 0 -0.027639061783294609 0.1370808625216357 0 -0.036907119312978527 0.1285031003037912 0 -0.027639061783294609 0.1370808625216357 0 -0.018933038337601089 0.12599277341977461 0 -0.027639061783294609 0.1370808625216357 0 -0.01762693565229401 0.13884695264602909 0 -0.018933038337601089 0.12599277341977461 0 -0.0097137871811661513 0.1483388793135971 0 -0.0082992991132894468 0.13465860365834539 0 0.0061287859223852067 0.1350776176849659 0 -0.018933038337601089 0.12599277341977461 0 -0.0082992991132894468 0.13465860365834539 0 -0.0035236072963641522 0.1223087619485858 0 -0.0097137871811661513 0.1483388793135971 0 -0.01762693565229401 0.13884695264602909 0 -0.0082992991132894468 0.13465860365834539 0 -0.01762693565229401 0.13884695264602909 0 -0.018933038337601089 0.12599277341977461 0 -0.0082992991132894468 0.13465860365834539 0 -0.0082992991132894468 0.13465860365834539 0 -0.0035236072963641522 0.1223087619485858 0 0.0061287859223852067 0.1350776176849659 0 -0.018933038337601089 0.12599277341977461 0 -0.0035236072963641522 0.1223087619485858 0 -0.0095174190183631227 0.11578078572049159 0 -0.018933038337601089 0.12599277341977461 0 -0.0095174190183631227 0.11578078572049159 0 -0.01753527720781628 0.1125586582830234 0 -0.0095174190183631227 0.11578078572049159 0 -0.0078217045402907866 0.1073091720909376 0 -0.01753527720781628 0.1125586582830234 0 -0.0095174190183631227 0.11578078572049159 0 -0.0078217045402907866 0.1073091720909376 0 0.00022653229025670389 0.11073456286013671 0 -0.0035236072963641522 0.1223087619485858 0 -0.0095174190183631227 0.11578078572049159 0 0.00022653229025670389 0.11073456286013671 0 -0.0078749990535523784 0.098562482563056206 0 0.0007935816666427137 0.105797794714191 0 -0.0078749990535523784 0.098562482563056206 0 -0.0078217045402907866 0.1073091720909376 0 0.0007935816666427137 0.105797794714191 0 -0.0078749990535523784 0.098562482563056206 0 0.0029320278621630118 0.087180345335934856 0 0.0007935816666427137 0.105797794714191 0 -0.0078217045402907866 0.1073091720909376 0 0.0007935816666427137 0.105797794714191 0 0.00022653229025670389 0.11073456286013671 0 -0.0078749990535523784 0.098562482563056206 0 -0.02140061000690606 0.095241999690398288 0 -0.0077982023571719246 0.090282475327728429 0 -0.0078749990535523784 0.098562482563056206 0 -0.016752381106248229 0.1034590037963368 0 -0.02140061000690606 0.095241999690398288 0 -0.0078217045402907866 0.1073091720909376 0 -0.016752381106248229 0.1034590037963368 0 -0.01753527720781628 0.1125586582830234 0 -0.0078749990535523784 0.098562482563056206 0 -0.0078217045402907866 0.1073091720909376 0 -0.016752381106248229 0.1034590037963368 0 -0.02140061000690606 0.095241999690398288 0 -0.037951991783418883 0.1103389256592742 0 -0.016752381106248229 0.1034590037963368 0 -0.01753527720781628 0.1125586582830234 0 -0.037951991783418883 0.1103389256592742 0 -0.016752381106248229 0.1034590037963368 0 -0.02140061000690606 0.095241999690398288 0 -0.037951991783418883 0.1103389256592742 0 -0.018933038337601089 0.12599277341977461 0 -0.01753527720781628 0.1125586582830234 0 -0.037951991783418883 0.1103389256592742 0 -0.013164902030022241 0.069935539414423015 0 -0.0048492282303920931 0.080145073721523519 0 -0.02200413048082497 0.07032291851014752 0 -0.0048492282303920931 0.080145073721523519 0 -0.025998107513481319 0.074880437012516066 0 -0.0088205722318333984 0.067659222779514236 0 -0.0091362934134955852 0.055837541371496921 0 0.0020429074551330038 0.073858585764393483 0 -0.0088205722318333984 0.067659222779514236 0 -0.013164902030022241 0.069935539414423015 0 -0.016985677177038298 0.061614942646505952 0 -0.0088205722318333984 0.067659222779514236 0 -0.0048492282303920931 0.080145073721523519 0 0.0020429074551330038 0.073858585764393483 0 -0.0048492282303920931 0.080145073721523519 0 0.0020429074551330038 0.073858585764393483 0 -0.0088205722318333984 0.067659222779514236 0 -0.013164902030022241 0.069935539414423015 0 -0.0048492282303920931 0.080145073721523519 0 -0.02140061000690606 0.095241999690398288 0 -0.0048492282303920931 0.080145073721523519 0 -0.0077982023571719246 0.090282475327728429 0 -0.02140061000690606 0.095241999690398288 0 -0.0048492282303920931 0.080145073721523519 0 -0.0048492282303920931 0.080145073721523519 0 -0.0077982023571719246 0.090282475327728429 0 0.0029320278621630118 0.087180345335934856 0 -0.0048492282303920931 0.080145073721523519 0 0.0035013487700014741 0.082223801091856674 0 -0.0078749990535523784 0.098562482563056206 0 -0.0077982023571719246 0.090282475327728429 0 0.0029320278621630118 0.087180345335934856 0 -0.02140061000690606 0.095241999690398288 0 -0.025998107513481319 0.074880437012516066 0 -0.036842768269834882 0.08802890768868625 0 -0.02140061000690606 0.095241999690398288 0 -0.0048492282303920931 0.080145073721523519 0 -0.025998107513481319 0.074880437012516066 0 -0.0048492282303920931 0.080145073721523519 0 -0.02200413048082497 0.07032291851014752 0 -0.025998107513481319 0.074880437012516066 0 -0.02200413048082497 0.07032291851014752 0 -0.025998107513481319 0.074880437012516066 0 -0.034841854300234877 0.068600280794859872 0 -0.02200413048082497 0.07032291851014752 0 -0.016985677177038298 0.061614942646505952 0 -0.03001806134922947 0.058699203422127033 0 -0.013164902030022241 0.069935539414423015 0 -0.02200413048082497 0.07032291851014752 0 -0.016985677177038298 0.061614942646505952 0 -0.025998107513481319 0.074880437012516066 0 -0.034841854300234877 0.068600280794859872 0 -0.047146986796569597 0.069615800303504449 0 -0.025998107513481319 0.074880437012516066 0 -0.047146986796569597 0.069615800303504449 0 -0.02200413048082497 0.07032291851014752 0 -0.03817706802538659 0.064358044842456608 0 -0.034841854300234877 0.068600280794859872 0 -0.025998107513481319 0.074880437012516066 0 -0.036842768269834882 0.08802890768868625 0 -0.047146986796569597 0.069615800303504449 0 -0.02200413048082497 0.07032291851014752 0 -0.03817706802538659 0.064358044842456608 0 -0.04473364324790978 0.055129521517232417 0 -0.02200413048082497 0.07032291851014752 0 -0.04473364324790978 0.055129521517232417 0 -0.041102691973234899 0.066036362634620621 0 -0.034841854300234877 0.068600280794859872 0 -0.047146986796569597 0.069615800303504449 0 -0.04308653148000377 0.064333169372715701 0 -0.044946944214942219 0.066188843614966561 0 -0.041102691973234899 0.066036362634620621 0 -0.04308653148000377 0.064333169372715701 0 -0.046401310731219919 0.06513982282698641 0 -0.044946944214942219 0.066188843614966561 0 -0.04308653148000377 0.064333169372715701 0 -0.046401310731219919 0.06513982282698641 0 -0.043293556670112143 0.061726016225163292 0 -0.046401310731219919 0.06513982282698641 0 -0.044946944214942219 0.066188843614966561 0 -0.046401310731219919 0.06513982282698641 0 -0.044946944214942219 0.066188843614966561 0 -0.047146986796569597 0.069615800303504449 0 -0.046401310731219919 0.06513982282698641 0 -0.047146986796569597 0.069615800303504449 0 -0.044946944214942219 0.066188843614966561 0 -0.041102691973234899 0.066036362634620621 0 -0.047146986796569597 0.069615800303504449 0 -0.04308653148000377 0.064333169372715701 0 -0.041102691973234899 0.066036362634620621 0 -0.03817706802538659 0.064358044842456608 0 -0.04308653148000377 0.064333169372715701 0 -0.03817706802538659 0.064358044842456608 0 -0.043293556670112143 0.061726016225163292 0 -0.041102691973234899 0.066036362634620621 0 -0.03817706802538659 0.064358044842456608 0 -0.034841854300234877 0.068600280794859872 0 -0.036842768269834882 0.08802890768868625 0 -0.047146986796569597 0.069615800303504449 0 -0.051627230246437519 0.096508803448947342 0 -0.047146986796569597 0.069615800303504449 0 -0.051627230246437519 0.096508803448947342 0 -0.065345940743060354 0.08107369462484873 0 -0.047146986796569597 0.069615800303504449 0 -0.051627230246437519 0.096508803448947342 0 -0.051627230246437519 0.096508803448947342 0 -0.064974804915673534 0.092724921429007234 0 -0.065345940743060354 0.08107369462484873 0 -0.046401310731219919 0.06513982282698641 0 -0.047146986796569597 0.069615800303504449 0 -0.067530464115447456 0.064541696777085614 0 -0.047146986796569597 0.069615800303504449 0 -0.065345940743060354 0.08107369462484873 0 -0.067530464115447456 0.064541696777085614 0 -0.047146986796569597 0.069615800303504449 0 -0.067530464115447456 0.064541696777085614 0 -0.036907119312978527 0.1285031003037912 0 -0.018933038337601089 0.12599277341977461 0 -0.037951991783418883 0.1103389256592742 0 -0.036907119312978527 0.1285031003037912 0 -0.054503373559930297 0.1254358516281516 0 -0.037951991783418883 0.1103389256592742 0 -0.054503373559930297 0.1254358516281516 0 -0.037951991783418883 0.1103389256592742 0 -0.02140061000690606 0.095241999690398288 0 -0.036842768269834882 0.08802890768868625 0 -0.037951991783418883 0.1103389256592742 0 -0.036842768269834882 0.08802890768868625 0 -0.037951991783418883 0.1103389256592742 0 -0.051627230246437519 0.096508803448947342 0 -0.051627230246437519 0.096508803448947342 0 -0.063397710311600922 0.1124598023047038 0 -0.068748806460680642 0.10191113560718371 0 -0.051627230246437519 0.096508803448947342 0 -0.068748806460680642 0.10191113560718371 0 -0.064974804915673534 0.092724921429007234 0 -0.037951991783418883 0.1103389256592742 0 -0.051627230246437519 0.096508803448947342 0 -0.056107473696304561 0.1234018065943904 0 -0.051627230246437519 0.096508803448947342 0 -0.056107473696304561 0.1234018065943904 0 -0.051627230246437519 0.096508803448947342 0 -0.056107473696304561 0.1234018065943904 0 -0.057611695453897473 0.12149441021287059 0 -0.054503373559930297 0.1254358516281516 0 -0.037951991783418883 0.1103389256592742 0 -0.056107473696304561 0.1234018065943904 0 -0.051627230246437519 0.096508803448947342 0 -0.057611695453897473 0.12149441021287059 0 -0.063397710311600922 0.1124598023047038 0 -0.056107473696304561 0.1234018065943904 0 -0.057611695453897473 0.12149441021287059 0 -0.061128465846185073 0.1231052270537922 0 -0.057611695453897473 0.12149441021287059 0 -0.061934448559457671 0.1194662138637432 0 -0.063397710311600922 0.1124598023047038 0 -0.054503373559930297 0.1254358516281516 0 -0.056107473696304561 0.1234018065943904 0 -0.056107473696304561 0.1234018065943904 0 -0.057611695453897473 0.12149441021287059 0 -0.057611695453897473 0.12149441021287059 0 -0.061934448559457671 0.1194662138637432 0 -0.061128465846185073 0.1231052270537922 0 -0.065250091528402929 0.1287463732894033 0 -0.065599922626147236 0.1208054158836061 0 -0.070920758885679891 0.122612280453199 0 -0.061934448559457671 0.1194662138637432 0 -0.061128465846185073 0.1231052270537922 0 -0.065599922626147236 0.1208054158836061 0 -0.061934448559457671 0.1194662138637432 0 -0.065599922626147236 0.1208054158836061 0 -0.063397710311600922 0.1124598023047038 0 -0.065250091528402929 0.1287463732894033 0 -0.061128465846185073 0.1231052270537922 0 -0.065599922626147236 0.1208054158836061 0 -0.065599922626147236 0.1208054158836061 0 -0.071502594885826526 0.1156850969989098 0 -0.070920758885679891 0.122612280453199 0 -0.063397710311600922 0.1124598023047038 0 -0.069943188602970316 0.11007905438929159 0 -0.071502594885826526 0.1156850969989098 0 -0.065599922626147236 0.1208054158836061 0 -0.063397710311600922 0.1124598023047038 0 -0.071502594885826526 0.1156850969989098 0 -0.071502594885826526 0.1156850969989098 0 -0.07637116149923219 0.10993829749659741 0 -0.080623491526222016 0.1199931131298478 0 -0.069943188602970316 0.11007905438929159 0 -0.071502594885826526 0.1156850969989098 0 -0.07637116149923219 0.10993829749659741 0 -0.071502594885826526 0.1156850969989098 0 -0.070920758885679891 0.122612280453199 0 -0.080623491526222016 0.1199931131298478 0 -0.074104704471125687 0.12947736917812719 0 -0.070920758885679891 0.122612280453199 0 -0.080623491526222016 0.1199931131298478 0 -0.07637116149923219 0.10993829749659741 0 -0.080623491526222016 0.1199931131298478 0 -0.0880827940188776 0.10758976841005929 0 -0.080623491526222016 0.1199931131298478 0 -0.0880827940188776 0.10758976841005929 0 -0.094699414980648211 0.1157912437702677 0 -0.091730220224361211 0.12746149685899841 0 -0.080623491526222016 0.1199931131298478 0 -0.094699414980648211 0.1157912437702677 0 -0.092747569059551435 0.096128793763944384 0 -0.0880827940188776 0.10758976841005929 0 -0.080222186264765516 0.099743690410069821 0 -0.07637116149923219 0.10993829749659741 0 -0.0880827940188776 0.10758976841005929 0 -0.080222186264765516 0.099743690410069821 0 -0.092747569059551435 0.096128793763944384 0 -0.080222186264765516 0.099743690410069821 0 -0.083956218944454028 0.089005719588711535 0 -0.080222186264765516 0.099743690410069821 0 -0.068748806460680642 0.10191113560718371 0 -0.074177242212515648 0.091406052035049257 0 -0.069943188602970316 0.11007905438929159 0 -0.07637116149923219 0.10993829749659741 0 -0.068748806460680642 0.10191113560718371 0 -0.07637116149923219 0.10993829749659741 0 -0.080222186264765516 0.099743690410069821 0 -0.068748806460680642 0.10191113560718371 0 -0.063397710311600922 0.1124598023047038 0 -0.069943188602970316 0.11007905438929159 0 -0.068748806460680642 0.10191113560718371 0 -0.068748806460680642 0.10191113560718371 0 -0.064974804915673534 0.092724921429007234 0 -0.074177242212515648 0.091406052035049257 0 -0.064974804915673534 0.092724921429007234 0 -0.065345940743060354 0.08107369462484873 0 -0.074177242212515648 0.091406052035049257 0 -0.065345940743060354 0.08107369462484873 0 -0.073196915654733324 0.073908435539388445 0 -0.080074460761927757 0.079557384142269746 0 -0.065345940743060354 0.08107369462484873 0 -0.074177242212515648 0.091406052035049257 0 -0.080074460761927757 0.079557384142269746 0 -0.065345940743060354 0.08107369462484873 0 -0.067530464115447456 0.064541696777085614 0 -0.073196915654733324 0.073908435539388445 0 -0.073196915654733324 0.073908435539388445 0 -0.079654675390713428 0.069670995806333194 0 -0.080074460761927757 0.079557384142269746 0 -0.067530464115447456 0.064541696777085614 0 -0.073196915654733324 0.073908435539388445 0 -0.079654675390713428 0.069670995806333194 0 -0.067530464115447456 0.064541696777085614 0 -0.079654675390713428 0.069670995806333194 0 -0.087913941434324516 0.059467593250663461 0 -0.079654675390713428 0.069670995806333194 0 -0.090330687224732892 0.071553204746449939 0 -0.080074460761927757 0.079557384142269746 0 -0.090330687224732892 0.071553204746449939 0 -0.080074460761927757 0.079557384142269746 0 -0.0929239961909267 0.082949279451770053 0 -0.090330687224732892 0.071553204746449939 0 -0.099351750538710856 0.06471207251916819 0 -0.087913941434324516 0.059467593250663461 0 -0.079654675390713428 0.069670995806333194 0 -0.090330687224732892 0.071553204746449939 0 -0.087913941434324516 0.059467593250663461 0 -0.074177242212515648 0.091406052035049257 0 -0.083956218944454028 0.089005719588711535 0 -0.080074460761927757 0.079557384142269746 0 -0.080222186264765516 0.099743690410069821 0 -0.074177242212515648 0.091406052035049257 0 -0.083956218944454028 0.089005719588711535 0 -0.083956218944454028 0.089005719588711535 0 -0.080074460761927757 0.079557384142269746 0 -0.0929239961909267 0.082949279451770053 0 -0.092747569059551435 0.096128793763944384 0 -0.083956218944454028 0.089005719588711535 0 -0.0929239961909267 0.082949279451770053 0 -0.092747569059551435 0.096128793763944384 0 -0.0929239961909267 0.082949279451770053 0 -0.1072500894647293 0.088009010123693401 0 -0.0929239961909267 0.082949279451770053 0 -0.1072500894647293 0.088009010123693401 0 -0.1032267360671623 0.073987046210178181 0 -0.090330687224732892 0.071553204746449939 0 -0.099351750538710856 0.06471207251916819 0 -0.1032267360671623 0.073987046210178181 0 -0.090330687224732892 0.071553204746449939 0 -0.0929239961909267 0.082949279451770053 0 -0.1032267360671623 0.073987046210178181 0 -0.099351750538710856 0.06471207251916819 0 -0.1032267360671623 0.073987046210178181 0 -0.1080538565059541 0.066323839835897042 0 -0.1072500894647293 0.088009010123693401 0 -0.1032267360671623 0.073987046210178181 0 -0.1213395206647418 0.0722027508900005 0 -0.1080538565059541 0.066323839835897042 0 -0.1213395206647418 0.0722027508900005 0 -0.1082974187532016 0.054393489724241309 0 -0.1032267360671623 0.073987046210178181 0 -0.1080538565059541 0.066323839835897042 0 -0.1213395206647418 0.0722027508900005 0 -0.1283856502170109 0.09889627259268309 0 -0.1072500894647293 0.088009010123693401 0 -0.1213395206647418 0.0722027508900005 0 -0.1283856502170109 0.09889627259268309 0 -0.1213395206647418 0.0722027508900005 0 -0.1283856502170109 0.09889627259268309 0 -0.1072500894647293 0.088009010123693401 0 -0.1038329407828463 0.1039434718896288 0 -0.1283856502170109 0.09889627259268309 0 -0.11988723480721181 0.11352300531899349 0 -0.1038329407828463 0.1039434718896288 0 -0.13543177976928 0.1255897942953659 0 -0.11189856845971009 0.12566248249829609 0 -0.11988723480721181 0.11352300531899349 0 -0.11189856845971009 0.12566248249829609 0 -0.11988723480721181 0.11352300531899349 0 -0.1038329407828463 0.1039434718896288 0 -0.11189856845971009 0.12566248249829609 0 -0.094699414980648211 0.1157912437702677 0 -0.1038329407828463 0.1039434718896288 0 -0.11189856845971009 0.12566248249829609 0 -0.091730220224361211 0.12746149685899841 0 -0.094699414980648211 0.1157912437702677 0 -0.092747569059551435 0.096128793763944384 0 -0.0880827940188776 0.10758976841005929 0 -0.1038329407828463 0.1039434718896288 0 -0.092747569059551435 0.096128793763944384 0 -0.1072500894647293 0.088009010123693401 0 -0.1038329407828463 0.1039434718896288 0 -0.0880827940188776 0.10758976841005929 0 -0.094699414980648211 0.1157912437702677 0 -0.1038329407828463 0.1039434718896288 0 -0.1029386265691041 0.024359992607635501 0 -0.092783654682345146 0.018367939351768128 0 -0.086068634800046756 0.027499411589856769 0 -0.1029386265691041 0.024359992607635501 0 -0.1050349827443032 0.010532193930649761 0 -0.092783654682345146 0.018367939351768128 0 -0.094001915570355143 0.0068379182405286006 0 -0.1050349827443032 0.010532193930649761 0 -0.092783654682345146 0.018367939351768128 0 -0.093809747996545942 -0.0030093353284433712 0 -0.094001915570355143 0.0068379182405286006 0 -0.1027673763153877 0.00091163931933735138 0 -0.094001915570355143 0.0068379182405286006 0 -0.1027673763153877 0.00091163931933735138 0 -0.1050349827443032 0.010532193930649761 0 -0.1027673763153877 0.00091163931933735138 0 -0.1050349827443032 0.010532193930649761 0 -0.1123354336913058 0.0013520760706568159 0 -0.1050349827443032 0.010532193930649761 0 -0.1123354336913058 0.0013520760706568159 0 -0.1222144850561783 0.0104564985208432 0 -0.1029386265691041 0.024359992607635501 0 -0.1050349827443032 0.010532193930649761 0 -0.1222144850561783 0.0104564985208432 0 -0.12794466884393851 -0.002708162334285761 0 -0.1123354336913058 0.0013520760706568159 0 -0.1222144850561783 0.0104564985208432 0 -0.1029386265691041 0.024359992607635501 0 -0.1222144850561783 0.0104564985208432 0 -0.1029386265691041 0.024359992607635501 0 -0.123387765805449 0.026807379020421379 0 -0.11262245222303929 0.035983155319705432 0 -0.1029386265691041 0.024359992607635501 0 -0.1222144850561783 0.0104564985208432 0 -0.123387765805449 0.026807379020421379 0 -0.12621616728043911 0.040252847469472788 0 -0.123387765805449 0.026807379020421379 0 -0.11262245222303929 0.035983155319705432 0 -0.12621616728043911 0.040252847469472788 0 -0.11429339111247271 0.045509229187317812 0 -0.11262245222303929 0.035983155319705432 0 -0.12621616728043911 0.040252847469472788 0 -0.11429339111247271 0.045509229187317812 0 -0.12448500522056789 0.053122360731716153 0 -0.11429339111247271 0.045509229187317812 0 -0.11262245222303929 0.035983155319705432 0 -0.1067303271072647 0.045084832286679227 0 -0.1213395206647418 0.0722027508900005 0 -0.11429339111247271 0.045509229187317812 0 -0.1082974187532016 0.054393489724241309 0 -0.1213395206647418 0.0722027508900005 0 -0.11429339111247271 0.045509229187317812 0 -0.1213395206647418 0.0722027508900005 0 -0.11429339111247271 0.045509229187317812 0 -0.12448500522056789 0.053122360731716153 0 -0.11429339111247271 0.045509229187317812 0 -0.1082974187532016 0.054393489724241309 0 -0.1067303271072647 0.045084832286679227 0 -0.1082974187532016 0.054393489724241309 0 -0.1019708283413646 0.05156968144185331 0 -0.087913941434324516 0.059467593250663461 0 -0.099351750538710856 0.06471207251916819 0 -0.1082974187532016 0.054393489724241309 0 -0.087913941434324516 0.059467593250663461 0 -0.1082974187532016 0.054393489724241309 0 -0.087913941434324516 0.059467593250663461 0 -0.099351750538710856 0.06471207251916819 0 -0.1080538565059541 0.066323839835897042 0 -0.1082974187532016 0.054393489724241309 0 -0.1082974187532016 0.054393489724241309 0 -0.1019708283413646 0.05156968144185331 0 -0.1067303271072647 0.045084832286679227 0 -0.1029386265691041 0.024359992607635501 0 -0.096263480404908203 0.037987644634967392 0 -0.083662768082029798 0.038263486694427827 0 -0.1029386265691041 0.024359992607635501 0 -0.11262245222303929 0.035983155319705432 0 -0.1036474331529286 0.038150836325214037 0 -0.11262245222303929 0.035983155319705432 0 -0.1036474331529286 0.038150836325214037 0 -0.1067303271072647 0.045084832286679227 0 -0.1019708283413646 0.05156968144185331 0 -0.1067303271072647 0.045084832286679227 0 -0.10006972224115721 0.043648892635395953 0 -0.1036474331529286 0.038150836325214037 0 -0.1067303271072647 0.045084832286679227 0 -0.10006972224115721 0.043648892635395953 0 -0.1036474331529286 0.038150836325214037 0 -0.10006972224115721 0.043648892635395953 0 -0.096263480404908203 0.037987644634967392 0 -0.1019708283413646 0.05156968144185331 0 -0.10006972224115721 0.043648892635395953 0 -0.092474232419318125 0.045387922064367953 0 -0.10006972224115721 0.043648892635395953 0 -0.096263480404908203 0.037987644634967392 0 -0.092474232419318125 0.045387922064367953 0 -0.1029386265691041 0.024359992607635501 0 -0.1036474331529286 0.038150836325214037 0 -0.096263480404908203 0.037987644634967392 0 -0.1029386265691041 0.024359992607635501 0 -0.083662768082029798 0.038263486694427827 0 -0.083662768082029798 0.038263486694427827 0 -0.067431786542833855 0.039957093246744367 0 -0.086068634800046756 0.027499411589856769 0 -0.096263480404908203 0.037987644634967392 0 -0.092474232419318125 0.045387922064367953 0 -0.083662768082029798 0.038263486694427827 0 -0.092474232419318125 0.045387922064367953 0 -0.084229364155417999 0.045600841412731491 0 -0.083662768082029798 0.038263486694427827 0 -0.067530464115447456 0.064541696777085614 0 -0.087913941434324516 0.059467593250663461 0 -0.083178868968160249 0.051868331111537463 0 -0.1019708283413646 0.05156968144185331 0 -0.087913941434324516 0.059467593250663461 0 -0.083178868968160249 0.051868331111537463 0 -0.1019708283413646 0.05156968144185331 0 -0.092474232419318125 0.045387922064367953 0 -0.083178868968160249 0.051868331111537463 0 -0.1019708283413646 0.05156968144185331 0 -0.083178868968160249 0.051868331111537463 0 -0.092474232419318125 0.045387922064367953 0 -0.084229364155417999 0.045600841412731491 0 -0.083178868968160249 0.051868331111537463 0 -0.067530464115447456 0.064541696777085614 0 -0.083178868968160249 0.051868331111537463 0 -0.064386909594955966 0.052166980781220708 0 -0.067530464115447456 0.064541696777085614 0 -0.087913941434324516 0.059467593250663461 0 -0.084229364155417999 0.045600841412731491 0 -0.083178868968160249 0.051868331111537463 0 -0.064386909594955966 0.052166980781220708 0 -0.083178868968160249 0.051868331111537463 0 -0.064386909594955966 0.052166980781220708 0 -0.083662768082029798 0.038263486694427827 0 -0.064386909594955966 0.052166980781220708 0 -0.067431786542833855 0.039957093246744367 0 -0.086068634800046756 0.027499411589856769 0 -0.083662768082029798 0.038263486694427827 0 -0.064386909594955966 0.052166980781220708 0 -0.067431786542833855 0.039957093246744367 0 -0.067431786542833855 0.039957093246744367 0 -0.072754380638830191 0.026790484392110559 0 -0.086068634800046756 0.027499411589856769 0 -0.084229364155417999 0.045600841412731491 0 -0.083662768082029798 0.038263486694427827 0 -0.064386909594955966 0.052166980781220708 0 -0.067431786542833855 0.039957093246744367 0 -0.072754380638830191 0.026790484392110559 0 -0.06119297493096968 0.029577658698819918 0 -0.067223235450260904 0.020545375194041711 0 -0.072754380638830191 0.026790484392110559 0 -0.06119297493096968 0.029577658698819918 0 -0.067223235450260904 0.020545375194041711 0 -0.059634028750688857 0.019945122267620009 0 -0.06119297493096968 0.029577658698819918 0 -0.067223235450260904 0.020545375194041711 0 -0.071176636362949949 0.013354148061317 0 -0.062426320909589363 0.0138175749209812 0 -0.067223235450260904 0.020545375194041711 0 -0.062426320909589363 0.0138175749209812 0 -0.059634028750688857 0.019945122267620009 0 -0.073901481467321326 0.019972629680535928 0 -0.072754380638830191 0.026790484392110559 0 -0.081555611544121012 0.021036699249558241 0 -0.067223235450260904 0.020545375194041711 0 -0.073901481467321326 0.019972629680535928 0 -0.071176636362949949 0.013354148061317 0 -0.067223235450260904 0.020545375194041711 0 -0.073901481467321326 0.019972629680535928 0 -0.072754380638830191 0.026790484392110559 0 -0.072754380638830191 0.026790484392110559 0 -0.081555611544121012 0.021036699249558241 0 -0.086068634800046756 0.027499411589856769 0 -0.1029386265691041 0.024359992607635501 0 -0.083662768082029798 0.038263486694427827 0 -0.086068634800046756 0.027499411589856769 0 -0.073901481467321326 0.019972629680535928 0 -0.081555611544121012 0.021036699249558241 0 -0.082269906132061615 0.01255303123351981 0 -0.081555611544121012 0.021036699249558241 0 -0.092783654682345146 0.018367939351768128 0 -0.082269906132061615 0.01255303123351981 0 -0.081555611544121012 0.021036699249558241 0 -0.092783654682345146 0.018367939351768128 0 -0.086068634800046756 0.027499411589856769 0 -0.094001915570355143 0.0068379182405286006 0 -0.082269906132061615 0.01255303123351981 0 -0.083103434105877269 0.00052397087483265566 0 -0.093809747996545942 -0.0030093353284433712 0 -0.094001915570355143 0.0068379182405286006 0 -0.083103434105877269 0.00052397087483265566 0 -0.094001915570355143 0.0068379182405286006 0 -0.092783654682345146 0.018367939351768128 0 -0.082269906132061615 0.01255303123351981 0 -0.082269906132061615 0.01255303123351981 0 -0.083103434105877269 0.00052397087483265566 0 -0.074655996784706871 0.0056854755633451394 0 -0.074632322639879081 -0.00077634831607193431 0 -0.083103434105877269 0.00052397087483265566 0 -0.074655996784706871 0.0056854755633451394 0 -0.074632322639879081 -0.00077634831607193431 0 -0.074655996784706871 0.0056854755633451394 0 -0.069146791006042943 0.0016798902546152059 0 -0.073901481467321326 0.019972629680535928 0 -0.082269906132061615 0.01255303123351981 0 -0.071176636362949949 0.013354148061317 0 -0.082269906132061615 0.01255303123351981 0 -0.074655996784706871 0.0056854755633451394 0 -0.071176636362949949 0.013354148061317 0 -0.074655996784706871 0.0056854755633451394 0 -0.071176636362949949 0.013354148061317 0 -0.065753170864898819 0.0071514141074004497 0 -0.071176636362949949 0.013354148061317 0 -0.065753170864898819 0.0071514141074004497 0 -0.062426320909589363 0.0138175749209812 0 -0.074655996784706871 0.0056854755633451394 0 -0.069146791006042943 0.0016798902546152059 0 -0.065753170864898819 0.0071514141074004497 0 -0.069146791006042943 0.0016798902546152059 0 -0.065753170864898819 0.0071514141074004497 0 -0.061854179150853207 0.0001064690093241692 0 -0.065753170864898819 0.0071514141074004497 0 -0.061854179150853207 0.0001064690093241692 0 -0.056270420176362287 0.0078127712479582646 0 -0.061854179150853207 0.0001064690093241692 0 -0.055050355264087809 0.0010777032587787399 0 -0.056270420176362287 0.0078127712479582646 0 -0.055050355264087809 0.0010777032587787399 0 -0.047442606602610432 0.0044030920321683816 0 -0.056270420176362287 0.0078127712479582646 0 -0.051381789537699042 -0.0047793937464329118 0 -0.055050355264087809 0.0010777032587787399 0 -0.047442606602610432 0.0044030920321683816 0 -0.047442606602610432 0.0044030920321683816 0 -0.048323473610563487 0.013481082904852551 0 -0.056270420176362287 0.0078127712479582646 0 -0.048323473610563487 0.013481082904852551 0 -0.055268701095523842 0.01511575380914483 0 -0.056270420176362287 0.0078127712479582646 0 -0.055268701095523842 0.01511575380914483 0 -0.056270420176362287 0.0078127712479582646 0 -0.062426320909589363 0.0138175749209812 0 -0.065753170864898819 0.0071514141074004497 0 -0.056270420176362287 0.0078127712479582646 0 -0.062426320909589363 0.0138175749209812 0 -0.055268701095523842 0.01511575380914483 0 -0.062426320909589363 0.0138175749209812 0 -0.059634028750688857 0.019945122267620009 0 -0.055268701095523842 0.01511575380914483 0 -0.059634028750688857 0.019945122267620009 0 -0.051225796516712267 0.022560488027502181 0 -0.059634028750688857 0.019945122267620009 0 -0.06119297493096968 0.029577658698819918 0 -0.051225796516712267 0.022560488027502181 0 -0.051225796516712267 0.022560488027502181 0 -0.045330759838121459 0.027083409307357972 0 -0.050414273685423228 0.033564743974672517 0 -0.06119297493096968 0.029577658698819918 0 -0.051225796516712267 0.022560488027502181 0 -0.050414273685423228 0.033564743974672517 0 -0.048323473610563487 0.013481082904852551 0 -0.055268701095523842 0.01511575380914483 0 -0.051225796516712267 0.022560488027502181 0 -0.051225796516712267 0.022560488027502181 0 -0.040080682764338231 0.020569192603518069 0 -0.045330759838121459 0.027083409307357972 0 -0.048323473610563487 0.013481082904852551 0 -0.051225796516712267 0.022560488027502181 0 -0.040080682764338231 0.020569192603518069 0 -0.040080682764338231 0.020569192603518069 0 -0.045330759838121459 0.027083409307357972 0 -0.039602286386012112 0.031639212623739088 0 -0.045330759838121459 0.027083409307357972 0 -0.050414273685423228 0.033564743974672517 0 -0.039602286386012112 0.031639212623739088 0 -0.040080682764338231 0.020569192603518069 0 -0.039602286386012112 0.031639212623739088 0 -0.02949134306216818 0.030635776758327699 0 -0.040080682764338231 0.020569192603518069 0 -0.02847093548730532 0.020628879678521009 0 -0.02949134306216818 0.030635776758327699 0 -0.040080682764338231 0.020569192603518069 0 -0.03180586451787798 0.011405647480993431 0 -0.02847093548730532 0.020628879678521009 0 -0.03180586451787798 0.011405647480993431 0 -0.037994106960812207 0.0030857035800418938 0 -0.040954234817113661 0.010630098639731189 0 -0.040080682764338231 0.020569192603518069 0 -0.03180586451787798 0.011405647480993431 0 -0.040954234817113661 0.010630098639731189 0 -0.024880619595713981 -0.00035602396182286117 0 -0.03180586451787798 0.011405647480993431 0 -0.037994106960812207 0.0030857035800418938 0 -0.047442606602610432 0.0044030920321683816 0 -0.037994106960812207 0.0030857035800418938 0 -0.040954234817113661 0.010630098639731189 0 -0.04325606691645726 -0.0040175228461035491 0 -0.047442606602610432 0.0044030920321683816 0 -0.037994106960812207 0.0030857035800418938 0 -0.047442606602610432 0.0044030920321683816 0 -0.048323473610563487 0.013481082904852551 0 -0.040954234817113661 0.010630098639731189 0 -0.048323473610563487 0.013481082904852551 0 -0.040080682764338231 0.020569192603518069 0 -0.040954234817113661 0.010630098639731189 0 -0.046401310731219919 0.06513982282698641 0 -0.064386909594955966 0.052166980781220708 0 -0.046401310731219919 0.06513982282698641 0 -0.067530464115447456 0.064541696777085614 0 -0.064386909594955966 0.052166980781220708 0 -0.046401310731219919 0.06513982282698641 0 -0.064386909594955966 0.052166980781220708 0 -0.048794938285621023 0.052414774903632028 0 -0.064386909594955966 0.052166980781220708 0 -0.067431786542833855 0.039957093246744367 0 -0.048794938285621023 0.052414774903632028 0 -0.064386909594955966 0.052166980781220708 0 -0.048794938285621023 0.052414774903632028 0 -0.067431786542833855 0.039957093246744367 0 -0.048794938285621023 0.052414774903632028 0 -0.053087627193278489 0.041591062982259973 0 -0.067431786542833855 0.039957093246744367 0 -0.048794938285621023 0.052414774903632028 0 -0.048794938285621023 0.052414774903632028 0 -0.053087627193278489 0.041591062982259973 0 -0.045313754316222359 0.040401003153602823 0 -0.067431786542833855 0.039957093246744367 0 -0.053087627193278489 0.041591062982259973 0 -0.057904901863158803 0.036324397248116501 0 -0.06119297493096968 0.029577658698819918 0 -0.057904901863158803 0.036324397248116501 0 -0.050414273685423228 0.033564743974672517 0 -0.067431786542833855 0.039957093246744367 0 -0.06119297493096968 0.029577658698819918 0 -0.057904901863158803 0.036324397248116501 0 -0.053087627193278489 0.041591062982259973 0 -0.050414273685423228 0.033564743974672517 0 -0.045313754316222359 0.040401003153602823 0 -0.053087627193278489 0.041591062982259973 0 -0.057904901863158803 0.036324397248116501 0 -0.050414273685423228 0.033564743974672517 0 -0.050414273685423228 0.033564743974672517 0 -0.039602286386012112 0.031639212623739088 0 -0.045313754316222359 0.040401003153602823 0 -0.039602286386012112 0.031639212623739088 0 -0.035176700930646961 0.042188191193741162 0 -0.045313754316222359 0.040401003153602823 0 -0.039602286386012112 0.031639212623739088 0 -0.035176700930646961 0.042188191193741162 0 -0.02949134306216818 0.030635776758327699 0 -0.048794938285621023 0.052414774903632028 0 -0.035176700930646961 0.042188191193741162 0 -0.045313754316222359 0.040401003153602823 0 -0.048794938285621023 0.052414774903632028 0 -0.035176700930646961 0.042188191193741162 0 -0.021890309131453459 0.052842354510968033 0 -0.048794938285621023 0.052414774903632028 0 -0.021890309131453459 0.052842354510968033 0 -0.044476546708921719 0.053586279925781043 0 -0.03001806134922947 0.058699203422127033 0 -0.021890309131453459 0.052842354510968033 0 -0.048794938285621023 0.052414774903632028 0 -0.044476546708921719 0.053586279925781043 0 -0.021890309131453459 0.052842354510968033 0 -0.02200413048082497 0.07032291851014752 0 -0.04473364324790978 0.055129521517232417 0 -0.03001806134922947 0.058699203422127033 0 -0.048794938285621023 0.052414774903632028 0 -0.04473364324790978 0.055129521517232417 0 -0.048794938285621023 0.052414774903632028 0 -0.044476546708921719 0.053586279925781043 0 -0.04473364324790978 0.055129521517232417 0 -0.044476546708921719 0.053586279925781043 0 -0.04473364324790978 0.055129521517232417 0 -0.046401310731219919 0.06513982282698641 0 -0.04473364324790978 0.055129521517232417 0 -0.043293556670112143 0.061726016225163292 0 -0.046401310731219919 0.06513982282698641 0 -0.04473364324790978 0.055129521517232417 0 -0.044476546708921719 0.053586279925781043 0 -0.04473364324790978 0.055129521517232417 0 -0.03001806134922947 0.058699203422127033 0 -0.03817706802538659 0.064358044842456608 0 -0.04473364324790978 0.055129521517232417 0 -0.043293556670112143 0.061726016225163292 0 -0.046401310731219919 0.06513982282698641 0 -0.048794938285621023 0.052414774903632028 0 -0.04473364324790978 0.055129521517232417 0 -0.016985677177038298 0.061614942646505952 0 -0.021890309131453459 0.052842354510968033 0 -0.0091362934134955852 0.055837541371496921 0 -0.016985677177038298 0.061614942646505952 0 -0.03001806134922947 0.058699203422127033 0 -0.021890309131453459 0.052842354510968033 0 -0.021890309131453459 0.052842354510968033 0 -0.024339531498285289 0.039067176404352408 0 -0.01437412971158742 0.040466364537667533 0 -0.035176700930646961 0.042188191193741162 0 -0.021890309131453459 0.052842354510968033 0 -0.024339531498285289 0.039067176404352408 0 -0.035176700930646961 0.042188191193741162 0 -0.024339531498285289 0.039067176404352408 0 -0.02949134306216818 0.030635776758327699 0 -0.024339531498285289 0.039067176404352408 0 -0.02949134306216818 0.030635776758327699 0 -0.02073699703527521 0.02817770670157491 0 -0.024339531498285289 0.039067176404352408 0 -0.01437412971158742 0.040466364537667533 0 -0.02073699703527521 0.02817770670157491 0 -0.01437412971158742 0.040466364537667533 0 -0.011066006939408891 0.028134905151373301 0 4.78159324789223e-05 0.04396597574463753 0 -0.01437412971158742 0.040466364537667533 0 -0.02073699703527521 0.02817770670157491 0 -0.011066006939408891 0.028134905151373301 0 -0.01437412971158742 0.040466364537667533 0 -0.0091362934134955852 0.055837541371496921 0 4.78159324789223e-05 0.04396597574463753 0 -0.0091362934134955852 0.055837541371496921 0 4.78159324789223e-05 0.04396597574463753 0 0.0020429074551330038 0.073858585764393483 0 -0.021890309131453459 0.052842354510968033 0 -0.01437412971158742 0.040466364537667533 0 -0.0091362934134955852 0.055837541371496921 0 -0.0088205722318333984 0.067659222779514236 0 -0.016985677177038298 0.061614942646505952 0 -0.0091362934134955852 0.055837541371496921 0 -0.024880619595713981 -0.00035602396182286117 0 -0.0078605566542857899 -0.00046063017767232288 0 -0.018319448292487071 0.013991113048104881 0 -0.024880619595713981 -0.00035602396182286117 0 -0.03180586451787798 0.011405647480993431 0 -0.018319448292487071 0.013991113048104881 0 -0.03180586451787798 0.011405647480993431 0 -0.018319448292487071 0.013991113048104881 0 -0.02847093548730532 0.020628879678521009 0 -0.02847093548730532 0.020628879678521009 0 -0.02949134306216818 0.030635776758327699 0 -0.02073699703527521 0.02817770670157491 0 -0.018319448292487071 0.013991113048104881 0 -0.02847093548730532 0.020628879678521009 0 -0.02073699703527521 0.02817770670157491 0 -0.018319448292487071 0.013991113048104881 0 -0.02073699703527521 0.02817770670157491 0 -0.011066006939408891 0.028134905151373301 0 -0.00194727559017367 0.01407336572488165 0 4.78159324789223e-05 0.04396597574463753 0 -0.018319448292487071 0.013991113048104881 0 -0.011066006939408891 0.028134905151373301 0 -0.00194727559017367 0.01407336572488165 0 -0.011066006939408891 0.028134905151373301 0 -0.00194727559017367 0.01407336572488165 0 4.78159324789223e-05 0.04396597574463753 0 -0.0078605566542857899 -0.00046063017767232288 0 -0.018319448292487071 0.013991113048104881 0 -0.00194727559017367 0.01407336572488165 0 -0.0078605566542857899 -0.00046063017767232288 0 -0.00194727559017367 0.01407336572488165 0 0.0067200560687082156 0.00010385857572603739 0 -0.00194727559017367 0.01407336572488165 0 0.0067200560687082156 0.00010385857572603739 0 0.014345706830976071 0.01192114142788931 0 0.0067200560687082156 0.00010385857572603739 0 0.014345706830976071 0.01192114142788931 0 0.02320130703148204 -0.0053633350158952308 0 -0.00194727559017367 0.01407336572488165 0 0.014345706830976071 0.01192114142788931 0 0.0062782792357720567 0.023421584809252639 0 -0.00194727559017367 0.01407336572488165 0 0.0062782792357720567 0.023421584809252639 0 4.78159324789223e-05 0.04396597574463753 0 0.015675933468858809 0.023155775110423289 0 0.0093391111926480804 0.031399867988638412 0 0.015506696948698981 0.033309822123093767 0 0.0062782792357720567 0.023421584809252639 0 0.015675933468858809 0.023155775110423289 0 0.0093391111926480804 0.031399867988638412 0 0.014345706830976071 0.01192114142788931 0 0.0062782792357720567 0.023421584809252639 0 0.015675933468858809 0.023155775110423289 0 0.014345706830976071 0.01192114142788931 0 0.015675933468858809 0.023155775110423289 0 0.030297747657250091 0.022215359128054099 0 0.015675933468858809 0.023155775110423289 0 0.022452515305929791 0.028733117214641789 0 0.030297747657250091 0.022215359128054099 0 0.015675933468858809 0.023155775110423289 0 0.022452515305929791 0.028733117214641789 0 0.015506696948698981 0.033309822123093767 0 0.022452515305929791 0.028733117214641789 0 0.030297747657250091 0.022215359128054099 0 0.02832968314891128 0.03625151249699602 0 0.014345706830976071 0.01192114142788931 0 0.02320130703148204 -0.0053633350158952308 0 0.014345706830976071 0.01192114142788931 0 0.028433722078197061 0.0096348292981649729 0 0.02320130703148204 -0.0053633350158952308 0 0.014345706830976071 0.01192114142788931 0 0.030297747657250091 0.022215359128054099 0 0.028433722078197061 0.0096348292981649729 0 0.0070422194294889086 0.051396754614801983 0 4.78159324789223e-05 0.04396597574463753 0 0.0020429074551330038 0.073858585764393483 0 0.0070422194294889086 0.051396754614801983 0 0.027052960865488421 0.051046295533162332 0 0.0047453276663297541 0.071393641240965644 0 4.78159324789223e-05 0.04396597574463753 0 0.0020429074551330038 0.073858585764393483 0 0.0070422194294889086 0.051396754614801983 0 0.0047453276663297541 0.071393641240965644 0 0.0062782792357720567 0.023421584809252639 0 4.78159324789223e-05 0.04396597574463753 0 0.0093391111926480804 0.031399867988638412 0 0.0070422194294889086 0.051396754614801983 0 0.0093391111926480804 0.031399867988638412 0 0.016365123713302569 0.044166962903136188 0 0.0070422194294889086 0.051396754614801983 0 0.0093391111926480804 0.031399867988638412 0 0.0070422194294889086 0.051396754614801983 0 4.78159324789223e-05 0.04396597574463753 0 0.0093391111926480804 0.031399867988638412 0 0.0093391111926480804 0.031399867988638412 0 0.015506696948698981 0.033309822123093767 0 0.016365123713302569 0.044166962903136188 0 0.015506696948698981 0.033309822123093767 0 0.02832968314891128 0.03625151249699602 0 0.027052960865488421 0.051046295533162332 0 0.015506696948698981 0.033309822123093767 0 0.016365123713302569 0.044166962903136188 0 0.027052960865488421 0.051046295533162332 0 0.015506696948698981 0.033309822123093767 0 0.027052960865488421 0.051046295533162332 0 0.022452515305929791 0.028733117214641789 0 0.015506696948698981 0.033309822123093767 0 0.02832968314891128 0.03625151249699602 0 0.027052960865488421 0.051046295533162332 0 0.0047453276663297541 0.071393641240965644 0 0.0070422194294889086 0.051396754614801983 0 0.016365123713302569 0.044166962903136188 0 0.027052960865488421 0.051046295533162332 0 0.027052960865488421 0.051046295533162332 0 0.038885837239366193 0.069223040728186663 0 0.027052960865488421 0.051046295533162332 0 0.04068394302040923 0.055111267499590763 0 0.038885837239366193 0.069223040728186663 0 0.04068394302040923 0.055111267499590763 0 0.042429844006031642 0.037020658910227711 0 0.052790715350934193 0.04946187548615167 0 0.027052960865488421 0.051046295533162332 0 0.04068394302040923 0.055111267499590763 0 0.042429844006031642 0.037020658910227711 0 0.04068394302040923 0.055111267499590763 0 0.038885837239366193 0.069223040728186663 0 0.02832968314891128 0.03625151249699602 0 0.027052960865488421 0.051046295533162332 0 0.042429844006031642 0.037020658910227711 0 0.027052960865488421 0.051046295533162332 0 0.042429844006031642 0.037020658910227711 0 0.030297747657250091 0.022215359128054099 0 0.02832968314891128 0.03625151249699602 0 0.042429844006031642 0.037020658910227711 0 0.042429844006031642 0.037020658910227711 0 0.060034620955209762 0.041026813789817942 0 0.052790715350934193 0.04946187548615167 0 0.042429844006031642 0.037020658910227711 0 0.060619370763474081 0.032141634266143249 0 0.060034620955209762 0.041026813789817942 0 0.060034620955209762 0.041026813789817942 0 0.052790715350934193 0.04946187548615167 0 0.066107244100984563 0.050327170450578378 0 0.052790715350934193 0.04946187548615167 0 0.066107244100984563 0.050327170450578378 0 0.054697924672035762 0.06382346678054357 0 0.04068394302040923 0.055111267499590763 0 0.052790715350934193 0.04946187548615167 0 0.054697924672035762 0.06382346678054357 0 0.028433722078197061 0.0096348292981649729 0 0.045890126793079133 0.0097661516526130754 0 0.02320130703148204 -0.0053633350158952308 0 0.045890126793079133 0.0097661516526130754 0 0.02320130703148204 -0.0053633350158952308 0 0.04623017629991278 -0.0023706412909148891 0 0.045890126793079133 0.0097661516526130754 0 0.02320130703148204 -0.0053633350158952308 0 0.030297747657250091 0.022215359128054099 0 0.028433722078197061 0.0096348292981649729 0 0.045890126793079133 0.0097661516526130754 0 0.030297747657250091 0.022215359128054099 0 0.042429844006031642 0.037020658910227711 0 0.044106111400733901 0.022999297994546929 0 0.030297747657250091 0.022215359128054099 0 0.045890126793079133 0.0097661516526130754 0 0.044106111400733901 0.022999297994546929 0 0.045890126793079133 0.0097661516526130754 0 0.068578946554675252 0.02489563832112272 0 0.045890126793079133 0.0097661516526130754 0 0.044106111400733901 0.022999297994546929 0 0.057806727146574748 0.022995022287292829 0 0.045890126793079133 0.0097661516526130754 0 0.057806727146574748 0.022995022287292829 0 0.068578946554675252 0.02489563832112272 0 0.042429844006031642 0.037020658910227711 0 0.060619370763474081 0.032141634266143249 0 0.057806727146574748 0.022995022287292829 0 0.042429844006031642 0.037020658910227711 0 0.057806727146574748 0.022995022287292829 0 0.042429844006031642 0.037020658910227711 0 0.044106111400733901 0.022999297994546929 0 0.057806727146574748 0.022995022287292829 0 0.060619370763474081 0.032141634266143249 0 0.057806727146574748 0.022995022287292829 0 0.068578946554675252 0.02489563832112272 0 0.045890126793079133 0.0097661516526130754 0 0.061289353183331993 0.010835112920428779 0 0.068578946554675252 0.02489563832112272 0 0.045890126793079133 0.0097661516526130754 0 0.061289353183331993 0.010835112920428779 0 0.053802205276232327 0.003682353028027469 0 0.045890126793079133 0.0097661516526130754 0 0.053802205276232327 0.003682353028027469 0 0.04623017629991278 -0.0023706412909148891 0 0.061289353183331993 0.010835112920428779 0 0.053802205276232327 0.003682353028027469 0 0.061757503530185887 0.0030345535022356859 0 0.053802205276232327 0.003682353028027469 0 0.061757503530185887 0.0030345535022356859 0 0.055452110893871268 -0.0028082665874396419 0 0.061757503530185887 0.0030345535022356859 0 0.067036063715506675 0.0067822644191834931 0 0.06795049627233557 -0.0023941361538292539 0 0.067036063715506675 0.0067822644191834931 0 0.075119936680586558 0.0056312202844776733 0 0.06795049627233557 -0.0023941361538292539 0 0.061289353183331993 0.010835112920428779 0 0.061757503530185887 0.0030345535022356859 0 0.067036063715506675 0.0067822644191834931 0 0.061289353183331993 0.010835112920428779 0 0.067036063715506675 0.0067822644191834931 0 0.070671273230312803 0.01684971659939025 0 0.067036063715506675 0.0067822644191834931 0 0.075119936680586558 0.0056312202844776733 0 0.070671273230312803 0.01684971659939025 0 0.075119936680586558 0.0056312202844776733 0 0.081052437518811429 0.011243034890422939 0 0.070671273230312803 0.01684971659939025 0 0.075119936680586558 0.0056312202844776733 0 0.079607049088793305 -0.0022136162043640468 0 0.06795049627233557 -0.0023941361538292539 0 0.075119936680586558 0.0056312202844776733 0 0.087389042276107873 0.0058380201399859666 0 0.079607049088793305 -0.0022136162043640468 0 0.075119936680586558 0.0056312202844776733 0 0.081052437518811429 0.011243034890422939 0 0.087389042276107873 0.0058380201399859666 0 0.081052437518811429 0.011243034890422939 0 0.089384479710379383 0.01496054013249919 0 0.070671273230312803 0.01684971659939025 0 0.081052437518811429 0.011243034890422939 0 0.089384479710379383 0.01496054013249919 0 0.087389042276107873 0.0058380201399859666 0 0.089384479710379383 0.01496054013249919 0 0.087389042276107873 0.0058380201399859666 0 0.1007352537157663 0.0081054707936590031 0 0.070671273230312803 0.01684971659939025 0 0.099178304557174829 0.024641774693412121 0 0.083143571403794192 0.026556140377868749 0 0.070671273230312803 0.01684971659939025 0 0.099178304557174829 0.024641774693412121 0 0.089384479710379383 0.01496054013249919 0 0.070671273230312803 0.01684971659939025 0 0.099178304557174829 0.024641774693412121 0 0.083143571403794192 0.026556140377868749 0 0.068578946554675252 0.02489563832112272 0 0.091267766316271343 0.04002512498963233 0 0.083143571403794192 0.026556140377868749 0 0.091267766316271343 0.04002512498963233 0 0.099178304557174829 0.024641774693412121 0 0.083143571403794192 0.026556140377868749 0 0.070671273230312803 0.01684971659939025 0 0.068578946554675252 0.02489563832112272 0 0.061289353183331993 0.010835112920428779 0 0.070671273230312803 0.01684971659939025 0 0.068578946554675252 0.02489563832112272 0 0.068578946554675252 0.02489563832112272 0 0.071187501642121925 0.039329975336045792 0 0.091267766316271343 0.04002512498963233 0 0.060619370763474081 0.032141634266143249 0 0.068578946554675252 0.02489563832112272 0 0.071187501642121925 0.039329975336045792 0 0.060619370763474081 0.032141634266143249 0 0.060034620955209762 0.041026813789817942 0 0.071187501642121925 0.039329975336045792 0 0.060034620955209762 0.041026813789817942 0 0.071187501642121925 0.039329975336045792 0 0.066107244100984563 0.050327170450578378 0 0.071187501642121925 0.039329975336045792 0 0.066107244100984563 0.050327170450578378 0 0.077619002674011284 0.050310455702480432 0 0.066107244100984563 0.050327170450578378 0 0.073253213115719445 0.06256204586919363 0 0.054697924672035762 0.06382346678054357 0 0.066107244100984563 0.050327170450578378 0 0.077619002674011284 0.050310455702480432 0 0.073253213115719445 0.06256204586919363 0 0.085938603768822425 0.059495239952590803 0 0.091267766316271343 0.04002512498963233 0 0.1002871688600918 0.063976433572300068 0 0.077619002674011284 0.050310455702480432 0 0.085938603768822425 0.059495239952590803 0 0.091267766316271343 0.04002512498963233 0 0.077619002674011284 0.050310455702480432 0 0.085938603768822425 0.059495239952590803 0 0.073253213115719445 0.06256204586919363 0 0.068578946554675252 0.02489563832112272 0 0.091267766316271343 0.04002512498963233 0 0.071187501642121925 0.039329975336045792 0 0.077619002674011284 0.050310455702480432 0 0.091267766316271343 0.04002512498963233 0 0.091267766316271343 0.04002512498963233 0 0.1109001863998397 0.037799716801889247 0 0.099178304557174829 0.024641774693412121 0 0.091267766316271343 0.04002512498963233 0 0.11395658607786729 0.05515461165814188 0 0.1109001863998397 0.037799716801889247 0 0.091267766316271343 0.04002512498963233 0 0.11395658607786729 0.05515461165814188 0 0.091267766316271343 0.04002512498963233 0 0.11395658607786729 0.05515461165814188 0 0.1002871688600918 0.063976433572300068 0 0.11395658607786729 0.05515461165814188 0 0.1292747177634703 0.043396020512386058 0 0.1287406024342054 0.055097879708328808 0 0.1109001863998397 0.037799716801889247 0 0.099178304557174829 0.024641774693412121 0 0.12768533588403691 0.032433832787434003 0 0.11395658607786729 0.05515461165814188 0 0.1109001863998397 0.037799716801889247 0 0.1292747177634703 0.043396020512386058 0 0.1109001863998397 0.037799716801889247 0 0.12768533588403691 0.032433832787434003 0 0.1292747177634703 0.043396020512386058 0 0.116582036394333 0.01496864832639778 0 0.099178304557174829 0.024641774693412121 0 0.12768533588403691 0.032433832787434003 0 0.099178304557174829 0.024641774693412121 0 0.12768533588403691 0.032433832787434003 0 0.116582036394333 0.01496864832639778 0 0.12927156724533451 0.018095418705272891 0 0.12768533588403691 0.032433832787434003 0 0.12497209006325551 0.0045335831921891464 0 0.116582036394333 0.01496864832639778 0 0.12927156724533451 0.018095418705272891 0 0.11278102560414061 0.0018115570737424059 0 0.116582036394333 0.01496864832639778 0 0.1007352537157663 0.0081054707936590031 0 0.12497209006325551 0.0045335831921891464 0 0.11278102560414061 0.0018115570737424059 0 0.116582036394333 0.01496864832639778 0 0.11278102560414061 0.0018115570737424059 0 0.1007352537157663 0.0081054707936590031 0 0.1035045777476903 -0.0060376178322144964 0 0.1007352537157663 0.0081054707936590031 0 0.1035045777476903 -0.0060376178322144964 0 0.09468229154267907 -0.001137269383548628 0 0.087389042276107873 0.0058380201399859666 0 0.1007352537157663 0.0081054707936590031 0 0.09468229154267907 -0.001137269383548628 0 0.116582036394333 0.01496864832639778 0 0.1007352537157663 0.0081054707936590031 0 0.099178304557174829 0.024641774693412121 0 0.089384479710379383 0.01496054013249919 0 0.1007352537157663 0.0081054707936590031 0 0.099178304557174829 0.024641774693412121 0 0.098734499580457782 0.095359594439687487 0 0.10074483460637999 0.1179447633533638 0 0.1149332751215142 0.100568527587294 0 0.10074483460637999 0.1179447633533638 0 0.1149332751215142 0.100568527587294 0 0.098734499580457782 0.095359594439687487 0 0.10074483460637999 0.1179447633533638 0 0.082556200173465433 0.10300178146928241 0 0.10074483460637999 0.1179447633533638 0 0.1149332751215142 0.100568527587294 0 0.12141129518055099 0.13003920851435891 0 0.1149332751215142 0.100568527587294 0 0.1091534866821465 0.081261709519078976 0 0.1271333380040621 0.088167172483248069 0 0.1219325569799334 0.076800083693214879 0 0.1091534866821465 0.081261709519078976 0 0.1271333380040621 0.088167172483248069 0 0.11395658607786729 0.05515461165814188 0 0.1151459747404818 0.069799013897504494 0 0.12979596907018781 0.070425716351517467 0 0.1219325569799334 0.076800083693214879 0 0.1151459747404818 0.069799013897504494 0 0.12979596907018781 0.070425716351517467 0 0.1219325569799334 0.076800083693214879 0 0.1151459747404818 0.069799013897504494 0 0.1091534866821465 0.081261709519078976 0 0.11395658607786729 0.05515461165814188 0 0.1151459747404818 0.069799013897504494 0 0.1002871688600918 0.063976433572300068 0 0.1002871688600918 0.063976433572300068 0 0.1091534866821465 0.081261709519078976 0 0.086260595574961851 0.078122901416852006 0 0.1151459747404818 0.069799013897504494 0 0.1002871688600918 0.063976433572300068 0 0.1091534866821465 0.081261709519078976 0 0.098734499580457782 0.095359594439687487 0 0.1091534866821465 0.081261709519078976 0 0.086260595574961851 0.078122901416852006 0 0.098734499580457782 0.095359594439687487 0 0.1149332751215142 0.100568527587294 0 0.1091534866821465 0.081261709519078976 0 0.086260595574961851 0.078122901416852006 0 0.072254974534814678 0.089276382380824651 0 0.082556200173465433 0.10300178146928241 0 0.098734499580457782 0.095359594439687487 0 0.086260595574961851 0.078122901416852006 0 0.082556200173465433 0.10300178146928241 0 0.085938603768822425 0.059495239952590803 0 0.1002871688600918 0.063976433572300068 0 0.086260595574961851 0.078122901416852006 0 0.085938603768822425 0.059495239952590803 0 0.086260595574961851 0.078122901416852006 0 0.073253213115719445 0.06256204586919363 0 0.066933565608953485 0.074371762685396053 0 0.073253213115719445 0.06256204586919363 0 0.054697924672035762 0.06382346678054357 0 0.086260595574961851 0.078122901416852006 0 0.066933565608953485 0.074371762685396053 0 0.073253213115719445 0.06256204586919363 0 0.066933565608953485 0.074371762685396053 0 0.072254974534814678 0.089276382380824651 0 0.049024805197378458 0.084797735442323774 0 0.086260595574961851 0.078122901416852006 0 0.066933565608953485 0.074371762685396053 0 0.072254974534814678 0.089276382380824651 0 0.082556200173465433 0.10300178146928241 0 0.067117147511190772 0.1197386390433379 0 0.059163773155390689 0.1003724301564609 0 0.072254974534814678 0.089276382380824651 0 0.082556200173465433 0.10300178146928241 0 0.059163773155390689 0.1003724301564609 0 0.10074483460637999 0.1179447633533638 0 0.083869890648835765 0.1198706839722407 0 0.086556394091245922 0.1353209991194336 0 0.10074483460637999 0.1179447633533638 0 0.082556200173465433 0.10300178146928241 0 0.083869890648835765 0.1198706839722407 0 0.082556200173465433 0.10300178146928241 0 0.083869890648835765 0.1198706839722407 0 0.067117147511190772 0.1197386390433379 0 0.067117147511190772 0.1197386390433379 0 0.049117835003357958 0.1160199916210624 0 0.059163773155390689 0.1003724301564609 0 0.067117147511190772 0.1197386390433379 0 0.049117835003357958 0.1160199916210624 0 0.052104316523673179 0.13860580521741961 0 0.059163773155390689 0.1003724301564609 0 0.035363258355302497 0.096868708138759668 0 0.049024805197378458 0.084797735442323774 0 0.049117835003357958 0.1160199916210624 0 0.059163773155390689 0.1003724301564609 0 0.035363258355302497 0.096868708138759668 0 0.035363258355302497 0.096868708138759668 0 0.031840679471233972 0.1245143755493321 0 0.049117835003357958 0.1160199916210624 0 0.035363258355302497 0.096868708138759668 0 0.031840679471233972 0.1245143755493321 0 0.066933565608953485 0.074371762685396053 0 0.054697924672035762 0.06382346678054357 0 0.049024805197378458 0.084797735442323774 0 0.054697924672035762 0.06382346678054357 0 0.049024805197378458 0.084797735442323774 0 0.038885837239366193 0.069223040728186663 0 0.072254974534814678 0.089276382380824651 0 0.059163773155390689 0.1003724301564609 0 0.049024805197378458 0.084797735442323774 0 0.059163773155390689 0.1003724301564609 0 0.049024805197378458 0.084797735442323774 0 0.035363258355302497 0.096868708138759668 0 0.038885837239366193 0.069223040728186663 0 0.035363258355302497 0.096868708138759668 0 0.038885837239366193 0.069223040728186663 0 0.029829747421552821 0.088777786869309136 0 0.035363258355302497 0.096868708138759668 0 0.049024805197378458 0.084797735442323774 0 0.038885837239366193 0.069223040728186663 0 0.04068394302040923 0.055111267499590763 0 0.054697924672035762 0.06382346678054357 0 0.038885837239366193 0.069223040728186663 0 0.049024805197378458 0.084797735442323774 0 0.038885837239366193 0.069223040728186663 0 0.027052960865488421 0.051046295533162332 0 0.022312341959598189 0.067512650437581451 0 0.0047453276663297541 0.071393641240965644 0 0.027052960865488421 0.051046295533162332 0 0.038885837239366193 0.069223040728186663 0 0.022312341959598189 0.067512650437581451 0 0.038885837239366193 0.069223040728186663 0 0.022312341959598189 0.067512650437581451 0 0.01842048689069891 0.078450926957568543 0 0.022312341959598189 0.067512650437581451 0 0.01842048689069891 0.078450926957568543 0 0.011673890284272881 0.075642906109091329 0 0.038885837239366193 0.069223040728186663 0 0.01842048689069891 0.078450926957568543 0 0.029829747421552821 0.088777786869309136 0 0.029829747421552821 0.088777786869309136 0 0.0035013487700014741 0.082223801091856674 0 0.015940929252030271 0.095387085200753841 0 0.01842048689069891 0.078450926957568543 0 0.029829747421552821 0.088777786869309136 0 0.0035013487700014741 0.082223801091856674 0 0.029829747421552821 0.088777786869309136 0 0.0035013487700014741 0.082223801091856674 0 0.0029320278621630118 0.087180345335934856 0 0.0035013487700014741 0.082223801091856674 0 0.015940929252030271 0.095387085200753841 0 -0.0048492282303920931 0.080145073721523519 0 0.0029320278621630118 0.087180345335934856 0 0.0035013487700014741 0.082223801091856674 0 -0.0048492282303920931 0.080145073721523519 0 0.0035013487700014741 0.082223801091856674 0 0.0020429074551330038 0.073858585764393483 0 0.0029320278621630118 0.087180345335934856 0 0.0035013487700014741 0.082223801091856674 0 0.01842048689069891 0.078450926957568543 0 0.0035013487700014741 0.082223801091856674 0 0.011673890284272881 0.075642906109091329 0 0.0070422194294889086 0.051396754614801983 0 0.0020429074551330038 0.073858585764393483 0 0.0047453276663297541 0.071393641240965644 0 0.022312341959598189 0.067512650437581451 0 0.011673890284272881 0.075642906109091329 0 0.0047453276663297541 0.071393641240965644 0 0.0035013487700014741 0.082223801091856674 0 0.0020429074551330038 0.073858585764393483 0 0.0047453276663297541 0.071393641240965644 0 0.0035013487700014741 0.082223801091856674 0 0.0020429074551330038 0.073858585764393483 0 0.0035013487700014741 0.082223801091856674 0 0.011673890284272881 0.075642906109091329 0 0.0047453276663297541 0.071393641240965644 0 0.0035013487700014741 0.082223801091856674 0 0.0047453276663297541 0.071393641240965644 0 0.0020429074551330038 0.073858585764393483 0 0.0047453276663297541 0.071393641240965644 0 0.031840679471233972 0.1245143755493321 0 0.017989349589041349 0.11488209481220731 0 0.025029663982651329 0.1042872174506006 0 0.031840679471233972 0.1245143755493321 0 0.017989349589041349 0.11488209481220731 0 0.017692914234737549 0.1199029810443146 0 0.031840679471233972 0.1245143755493321 0 0.017989349589041349 0.11488209481220731 0 0.017989349589041349 0.11488209481220731 0 0.025029663982651329 0.1042872174506006 0 0.015940929252030271 0.095387085200753841 0 0.035363258355302497 0.096868708138759668 0 0.031840679471233972 0.1245143755493321 0 0.025029663982651329 0.1042872174506006 0 0.029829747421552821 0.088777786869309136 0 0.025029663982651329 0.1042872174506006 0 0.015940929252030271 0.095387085200753841 0 0.035363258355302497 0.096868708138759668 0 0.029829747421552821 0.088777786869309136 0 0.025029663982651329 0.1042872174506006 0 0.0029320278621630118 0.087180345335934856 0 0.00269720988657482 0.1042478680673154 0 0.0007935816666427137 0.105797794714191 0 0.0029320278621630118 0.087180345335934856 0 0.0007935816666427137 0.105797794714191 0 0.0029320278621630118 0.087180345335934856 0 0.015940929252030271 0.095387085200753841 0 0.0041380197068510548 0.1052498140750789 0 0.0029320278621630118 0.087180345335934856 0 0.0041380197068510548 0.1052498140750789 0 0.017989349589041349 0.11488209481220731 0 0.015940929252030271 0.095387085200753841 0 0.0041380197068510548 0.1052498140750789 0 0.0029320278621630118 0.087180345335934856 0 0.0041380197068510548 0.1052498140750789 0 0.00269720988657482 0.1042478680673154 0 0.004374049436280566 0.1087862656988467 0 0.0041380197068510548 0.1052498140750789 0 0.0041380197068510548 0.1052498140750789 0 0.00269720988657482 0.1042478680673154 0 0.0007935816666427137 0.105797794714191 0 0.0041380197068510548 0.1052498140750789 0 0.00269720988657482 0.1042478680673154 0 0.0007935816666427137 0.105797794714191 0 0.00022653229025670389 0.11073456286013671 0 0.004374049436280566 0.1087862656988467 0 0.0007935816666427137 0.105797794714191 0 0.00022653229025670389 0.11073456286013671 0 0.004374049436280566 0.1087862656988467 0 0.0041380197068510548 0.1052498140750789 0 0.0007935816666427137 0.105797794714191 0 0.004374049436280566 0.1087862656988467 0 0.0007935816666427137 0.105797794714191 0 0.004374049436280566 0.1087862656988467 0 0.0061287859223852067 0.1350776176849659 0 -0.0035236072963641522 0.1223087619485858 0 0.004374049436280566 0.1087862656988467 0 0.00022653229025670389 0.11073456286013671 0 -0.0035236072963641522 0.1223087619485858 0 0.004374049436280566 0.1087862656988467 0 0.0061287859223852067 0.1350776176849659 0 0.017692914234737549 0.1199029810443146 0 0.004374049436280566 0.1087862656988467 0 0.0061287859223852067 0.1350776176849659 0 0.017989349589041349 0.11488209481220731 0 0.017692914234737549 0.1199029810443146 0 0.004374049436280566 0.1087862656988467 0 0.017692914234737549 0.1199029810443146 0 0.004374049436280566 0.1087862656988467 0 0.017989349589041349 0.11488209481220731 0 0.004374049436280566 0.1087862656988467 0 0.0041380197068510548 0.1052498140750789 0 0.017989349589041349 0.11488209481220731 0 0.0041380197068510548 0.1052498140750789 0 0.017692914234737549 0.1199029810443146 0 0.0061287859223852067 0.1350776176849659 0 0.019681647019630238 0.13771344532507171 0 0.019681647019630238 0.13771344532507171 0 0.03101177903319477 0.13101969638978231 0 0.02879838928760942 0.1483906733843002 0 0.017692914234737549 0.1199029810443146 0 0.019681647019630238 0.13771344532507171 0 0.03101177903319477 0.13101969638978231 0 0.03101177903319477 0.13101969638978231 0 0.02879838928760942 0.1483906733843002 0 0.017692914234737549 0.1199029810443146 0 0.03101177903319477 0.13101969638978231 0 0.031840679471233972 0.1245143755493321 0 0.017692914234737549 0.1199029810443146 0 0.03101177903319477 0.13101969638978231 0 0.02879838928760942 0.1483906733843002 0 0.017815468836027751 0.1496624712888481 0 0.026584999542023421 0.16576165037881799 0 0.019681647019630238 0.13771344532507171 0 0.02879838928760942 0.1483906733843002 0 0.017815468836027751 0.1496624712888481 0 -0.002616345114230932 0.15504128183753721 0 0.0061287859223852067 0.1350776176849659 0 0.0078835224084904745 0.16136896967108491 0 0.0061287859223852067 0.1350776176849659 0 0.017815468836027751 0.1496624712888481 0 0.0078835224084904745 0.16136896967108491 0 0.0061287859223852067 0.1350776176849659 0 0.0078835224084904745 0.16136896967108491 0 0.0061287859223852067 0.1350776176849659 0 0.019681647019630238 0.13771344532507171 0 0.017815468836027751 0.1496624712888481 0 -0.0044038107806405082 0.16985632141771759 0 -0.002616345114230932 0.15504128183753721 0 0.0078835224084904745 0.16136896967108491 0 -0.0044038107806405082 0.16985632141771759 0 0.0078835224084904745 0.16136896967108491 0 0.0096382588945957519 0.1876603216572042 0 0.0078835224084904745 0.16136896967108491 0 0.0096382588945957519 0.1876603216572042 0 0.0078835224084904745 0.16136896967108491 0 0.019966733134741229 0.17610680167277409 0 0.0096382588945957519 0.1876603216572042 0 0.019966733134741229 0.17610680167277409 0 0.026584999542023421 0.16576165037881799 0 0.037487327326592032 0.1775165968982606 0 0.019966733134741229 0.17610680167277409 0 0.037487327326592032 0.1775165968982606 0 0.023973189061808679 0.18858396945722911 0 0.019966733134741229 0.17610680167277409 0 0.0096382588945957519 0.1876603216572042 0 0.023973189061808679 0.18858396945722911 0 0.0078835224084904745 0.16136896967108491 0 0.019966733134741229 0.17610680167277409 0 0.026584999542023421 0.16576165037881799 0 0.02879838928760942 0.1483906733843002 0 0.026584999542023421 0.16576165037881799 0 0.017815468836027751 0.1496624712888481 0 0.0078835224084904745 0.16136896967108491 0 0.026584999542023421 0.16576165037881799 0 0.038660052602186031 0.1611157657262576 0 0.037487327326592032 0.1775165968982606 0 0.050369726184422439 0.167326369636455 0 0.02879838928760942 0.1483906733843002 0 0.026584999542023421 0.16576165037881799 0 0.038660052602186031 0.1611157657262576 0 0.026584999542023421 0.16576165037881799 0 0.038660052602186031 0.1611157657262576 0 0.037487327326592032 0.1775165968982606 0 0.038660052602186031 0.1611157657262576 0 0.050369726184422439 0.167326369636455 0 0.048572165470441478 0.14567663752803511 0 0.037487327326592032 0.1775165968982606 0 0.053519253641463357 0.17764643307067629 0 0.038474877393331927 0.1967603747701378 0 0.053519253641463357 0.17764643307067629 0 0.038474877393331927 0.1967603747701378 0 0.037487327326592032 0.1775165968982606 0 0.053519253641463357 0.17764643307067629 0 0.050369726184422439 0.167326369636455 0 0.053519253641463357 0.17764643307067629 0 0.050369726184422439 0.167326369636455 0 0.062752553808442954 0.17566150180965709 0 0.053519253641463357 0.17764643307067629 0 0.059836189728645253 0.19055847296930881 0 0.062752553808442954 0.17566150180965709 0 0.061227004257408818 0.16634128278584351 0 0.048572165470441478 0.14567663752803511 0 0.066132551907688991 0.16033357866628689 0 0.050369726184422439 0.167326369636455 0 0.061227004257408818 0.16634128278584351 0 0.048572165470441478 0.14567663752803511 0 0.050369726184422439 0.167326369636455 0 0.061227004257408818 0.16634128278584351 0 0.062752553808442954 0.17566150180965709 0 0.048572165470441478 0.14567663752803511 0 0.052104316523673179 0.13860580521741961 0 0.072367953576113836 0.15269723488550491 0 0.048572165470441478 0.14567663752803511 0 0.072367953576113836 0.15269723488550491 0 0.066132551907688991 0.16033357866628689 0 0.048572165470441478 0.14567663752803511 0 0.066132551907688991 0.16033357866628689 0 0.052104316523673179 0.13860580521741961 0 0.072367953576113836 0.15269723488550491 0 0.031840679471233972 0.1245143755493321 0 0.052104316523673179 0.13860580521741961 0 0.031840679471233972 0.1245143755493321 0 0.03101177903319477 0.13101969638978231 0 0.052104316523673179 0.13860580521741961 0 0.03101177903319477 0.13101969638978231 0 0.048572165470441478 0.14567663752803511 0 0.03101177903319477 0.13101969638978231 0 0.048572165470441478 0.14567663752803511 0 0.052104316523673179 0.13860580521741961 0 0.049117835003357958 0.1160199916210624 0 0.031840679471233972 0.1245143755493321 0 0.052104316523673179 0.13860580521741961 0 0.031840679471233972 0.1245143755493321 0 0.03101177903319477 0.13101969638978231 0 0.03101177903319477 0.13101969638978231 0 0.02879838928760942 0.1483906733843002 0 0.048572165470441478 0.14567663752803511 0 0.02879838928760942 0.1483906733843002 0 0.038660052602186031 0.1611157657262576 0 0.048572165470441478 0.14567663752803511 0 0.023943399368744671 0.2400909659566085 0 0.033235232253471178 0.23721147407568649 0 0.025946871203154 0.25652283541899262 0 0.023943399368744671 0.2400909659566085 0 0.016746840900060182 0.2431358424122595 0 0.025946871203154 0.25652283541899262 0 0.023943399368744671 0.2400909659566085 0 0.024205409536835469 0.23026648032777039 0 0.033235232253471178 0.23721147407568649 0 0.023943399368744671 0.2400909659566085 0 0.018233885211615061 0.23637847974396561 0 0.016746840900060182 0.2431358424122595 0 0.023943399368744671 0.2400909659566085 0 0.018233885211615061 0.23637847974396561 0 0.024205409536835469 0.23026648032777039 0 0.018233885211615061 0.23637847974396561 0 0.016746840900060182 0.2431358424122595 0 0.0145326299103883 0.23850958991908491 0 0.016746840900060182 0.2431358424122595 0 0.0095164699969590514 0.24170627934191891 0 0.01094534689583296 0.25165583173153228 0 -0.0026056055883075658 0.24895329681263881 0 0.0083861248970700068 0.23498825816906141 0 0.0042264113753839021 0.22557170674079849 0 -0.0026056055883075658 0.24895329681263881 0 0.0095164699969590514 0.24170627934191891 0 0.01094534689583296 0.25165583173153228 0 -0.0026056055883075658 0.24895329681263881 0 0.0083861248970700068 0.23498825816906141 0 -0.0026056055883075658 0.24895329681263881 0 0.0083861248970700068 0.23498825816906141 0 0.0095164699969590514 0.24170627934191891 0 0.0083861248970700068 0.23498825816906141 0 0.0095164699969590514 0.24170627934191891 0 0.012489683444158611 0.2356728175394589 0 0.016746840900060182 0.2431358424122595 0 0.0095164699969590514 0.24170627934191891 0 0.0145326299103883 0.23850958991908491 0 0.0095164699969590514 0.24170627934191891 0 0.0145326299103883 0.23850958991908491 0 0.012489683444158611 0.2356728175394589 0 0.018233885211615061 0.23637847974396561 0 0.0145326299103883 0.23850958991908491 0 0.012489683444158611 0.2356728175394589 0 0.0083861248970700068 0.23498825816906141 0 0.012489683444158611 0.2356728175394589 0 0.01748534810950314 0.23059518230861131 0 0.0083861248970700068 0.23498825816906141 0 0.0082060344569770162 0.2251746904843191 0 0.01384173667889055 0.22380470748943099 0 0.0083861248970700068 0.23498825816906141 0 0.01384173667889055 0.22380470748943099 0 0.023430501145200539 0.2158743164695992 0 0.0083861248970700068 0.23498825816906141 0 0.0042264113753839021 0.22557170674079849 0 0.0082060344569770162 0.2251746904843191 0 0.0083861248970700068 0.23498825816906141 0 0.0042264113753839021 0.22557170674079849 0 -0.001995617986719397 0.21148658785678021 0 0.0042264113753839021 0.22557170674079849 0 0.0082060344569770162 0.2251746904843191 0 0.01026167581153003 0.2219633733866602 0 0.01207432705084514 0.2176577664052623 0 0.0059741714213267776 0.21794943539077721 0 0.01026167581153003 0.2219633733866602 0 0.0082060344569770162 0.2251746904843191 0 0.0059741714213267776 0.21794943539077721 0 0.01026167581153003 0.2219633733866602 0 0.0082060344569770162 0.2251746904843191 0 0.01384173667889055 0.22380470748943099 0 0.01384173667889055 0.22380470748943099 0 0.01565416449831274 0.21717783595444329 0 0.01207432705084514 0.2176577664052623 0 0.01026167581153003 0.2219633733866602 0 0.01384173667889055 0.22380470748943099 0 0.01207432705084514 0.2176577664052623 0 0.0083861248970700068 0.23498825816906141 0 0.01748534810950314 0.23059518230861131 0 0.023430501145200539 0.2158743164695992 0 0.01748534810950314 0.23059518230861131 0 0.024205409536835469 0.23026648032777039 0 0.023430501145200539 0.2158743164695992 0 0.0083861248970700068 0.23498825816906141 0 0.023430501145200539 0.2158743164695992 0 0.01384173667889055 0.22380470748943099 0 0.023430501145200539 0.2158743164695992 0 0.01565416449831274 0.21717783595444329 0 0.018233885211615061 0.23637847974396561 0 0.012489683444158611 0.2356728175394589 0 0.01748534810950314 0.23059518230861131 0 0.018233885211615061 0.23637847974396561 0 0.01748534810950314 0.23059518230861131 0 0.024205409536835469 0.23026648032777039 0 0.024205409536835469 0.23026648032777039 0 0.032892283712545413 0.223848415845182 0 0.033235232253471178 0.23721147407568649 0 0.024205409536835469 0.23026648032777039 0 0.023430501145200539 0.2158743164695992 0 0.032892283712545413 0.223848415845182 0 0.023430501145200539 0.2158743164695992 0 0.038474877393331927 0.1967603747701378 0 0.023430501145200539 0.2158743164695992 0 0.023733502425670169 0.20043244585380829 0 0.038474877393331927 0.1967603747701378 0 0.017180798842676322 0.20609588884094729 0 0.023430501145200539 0.2158743164695992 0 0.023733502425670169 0.20043244585380829 0 0.017180798842676322 0.20609588884094729 0 0.023430501145200539 0.2158743164695992 0 0.013270093118314759 0.2113745534534808 0 0.023430501145200539 0.2158743164695992 0 0.01565416449831274 0.21717783595444329 0 0.013270093118314759 0.2113745534534808 0 0.01565416449831274 0.21717783595444329 0 0.01207432705084514 0.2176577664052623 0 0.013270093118314759 0.2113745534534808 0 0.01207432705084514 0.2176577664052623 0 0.013270093118314759 0.2113745534534808 0 0.0060582116715977826 0.21078561085429631 0 0.01207432705084514 0.2176577664052623 0 0.0059741714213267776 0.21794943539077721 0 0.0060582116715977826 0.21078561085429631 0 -0.001995617986719397 0.21148658785678021 0 0.0042264113753839021 0.22557170674079849 0 -0.001995617986719397 0.21148658785678021 0 0.0059741714213267776 0.21794943539077721 0 0.0060582116715977826 0.21078561085429631 0 -0.001995617986719397 0.21148658785678021 0 0.0082060344569770162 0.2251746904843191 0 0.0059741714213267776 0.21794943539077721 0 -0.001995617986719397 0.21148658785678021 0 0.0060582116715977826 0.21078561085429631 0 0.0063827717358030632 0.20264123217486221 0 0.010361175604988121 0.20574935193377161 0 0.0063827717358030632 0.20264123217486221 0 0.013270093118314759 0.2113745534534808 0 0.010361175604988121 0.20574935193377161 0 0.0063827717358030632 0.20264123217486221 0 0.013270093118314759 0.2113745534534808 0 0.0060582116715977826 0.21078561085429631 0 0.0063827717358030632 0.20264123217486221 0 0.013270093118314759 0.2113745534534808 0 0.0063827717358030632 0.20264123217486221 0 0.017180798842676322 0.20609588884094729 0 0.013270093118314759 0.2113745534534808 0 0.010361175604988121 0.20574935193377161 0 0.017180798842676322 0.20609588884094729 0 0.010361175604988121 0.20574935193377161 0 0.015208163269590919 0.1984775900704572 0 0.015208163269590919 0.1984775900704572 0 0.0063827717358030632 0.20264123217486221 0 0.0096382588945957519 0.1876603216572042 0 -0.0075829514464992621 0.1849322941617467 0 0.0063827717358030632 0.20264123217486221 0 0.0096382588945957519 0.1876603216572042 0 0.010361175604988121 0.20574935193377161 0 0.015208163269590919 0.1984775900704572 0 0.0063827717358030632 0.20264123217486221 0 0.015208163269590919 0.1984775900704572 0 0.0096382588945957519 0.1876603216572042 0 0.023973189061808679 0.18858396945722911 0 0.015208163269590919 0.1984775900704572 0 0.023733502425670169 0.20043244585380829 0 0.023973189061808679 0.18858396945722911 0 0.017180798842676322 0.20609588884094729 0 0.015208163269590919 0.1984775900704572 0 0.023733502425670169 0.20043244585380829 0 0.023733502425670169 0.20043244585380829 0 0.023973189061808679 0.18858396945722911 0 0.038474877393331927 0.1967603747701378 0 0.037487327326592032 0.1775165968982606 0 0.023973189061808679 0.18858396945722911 0 0.038474877393331927 0.1967603747701378 0 0.038474877393331927 0.1967603747701378 0 0.051848123906530687 0.2029335570645584 0 0.059836189728645253 0.19055847296930881 0 0.051848123906530687 0.2029335570645584 0 0.059836189728645253 0.19055847296930881 0 0.070154382756860173 0.20056643722313719 0 0.053519253641463357 0.17764643307067629 0 0.038474877393331927 0.1967603747701378 0 0.059836189728645253 0.19055847296930881 0 0.051848123906530687 0.2029335570645584 0 0.058094288872291247 0.21627287208308299 0 0.070154382756860173 0.20056643722313719 0 0.051848123906530687 0.2029335570645584 0 0.058094288872291247 0.21627287208308299 0 0.040457364493832117 0.21312399557350051 0 0.023430501145200539 0.2158743164695992 0 0.040457364493832117 0.21312399557350051 0 0.032892283712545413 0.223848415845182 0 0.023430501145200539 0.2158743164695992 0 0.038474877393331927 0.1967603747701378 0 0.040457364493832117 0.21312399557350051 0 0.038474877393331927 0.1967603747701378 0 0.051848123906530687 0.2029335570645584 0 0.040457364493832117 0.21312399557350051 0 0.032892283712545413 0.223848415845182 0 0.045651845260538733 0.22745538073943219 0 0.033235232253471178 0.23721147407568649 0 0.040457364493832117 0.21312399557350051 0 0.032892283712545413 0.223848415845182 0 0.045651845260538733 0.22745538073943219 0 0.058094288872291247 0.21627287208308299 0 0.040457364493832117 0.21312399557350051 0 0.045651845260538733 0.22745538073943219 0 0.058094288872291247 0.21627287208308299 0 0.045651845260538733 0.22745538073943219 0 0.067596297674863706 0.23364669691327439 0 0.046771584439008862 0.24508476616613351 0 0.067596297674863706 0.23364669691327439 0 0.061418524333565851 0.26130772548583059 0 0.046771584439008862 0.24508476616613351 0 0.067596297674863706 0.23364669691327439 0 0.045651845260538733 0.22745538073943219 0 0.046771584439008862 0.24508476616613351 0 0.067596297674863706 0.23364669691327439 0 0.045651845260538733 0.22745538073943219 0 0.046771584439008862 0.24508476616613351 0 0.033235232253471178 0.23721147407568649 0 0.046771584439008862 0.24508476616613351 0 0.033235232253471178 0.23721147407568649 0 0.025946871203154 0.25652283541899262 0 0.092993361860390117 0.24179254247101431 0 0.067596297674863706 0.23364669691327439 0 0.083768416296335579 0.26124594033034959 0 0.067596297674863706 0.23364669691327439 0 0.088421010910718578 0.2222086276604153 0 0.074658149019829798 0.21430608614050931 0 0.067596297674863706 0.23364669691327439 0 0.088421010910718578 0.2222086276604153 0 0.058094288872291247 0.21627287208308299 0 0.067596297674863706 0.23364669691327439 0 0.074658149019829798 0.21430608614050931 0 0.092993361860390117 0.24179254247101431 0 0.067596297674863706 0.23364669691327439 0 0.088421010910718578 0.2222086276604153 0 0.088421010910718578 0.2222086276604153 0 0.074658149019829798 0.21430608614050931 0 0.089024764884415353 0.19883579682263661 0 0.088421010910718578 0.2222086276604153 0 0.089024764884415353 0.19883579682263661 0 0.1002987826713785 0.20728606003710159 0 0.074658149019829798 0.21430608614050931 0 0.070154382756860173 0.20056643722313719 0 0.089024764884415353 0.19883579682263661 0 0.058094288872291247 0.21627287208308299 0 0.074658149019829798 0.21430608614050931 0 0.070154382756860173 0.20056643722313719 0 0.059836189728645253 0.19055847296930881 0 0.070154382756860173 0.20056643722313719 0 0.071191972316838673 0.18240371792659071 0 0.070154382756860173 0.20056643722313719 0 0.079818610975472923 0.18972880837414841 0 0.071191972316838673 0.18240371792659071 0 0.070154382756860173 0.20056643722313719 0 0.089024764884415353 0.19883579682263661 0 0.079818610975472923 0.18972880837414841 0 0.089024764884415353 0.19883579682263661 0 0.079818610975472923 0.18972880837414841 0 0.08771457935749577 0.17834722017163501 0 0.089024764884415353 0.19883579682263661 0 0.1092966068073026 0.196360861676983 0 0.1002987826713785 0.20728606003710159 0 0.089024764884415353 0.19883579682263661 0 0.1092966068073026 0.196360861676983 0 0.08771457935749577 0.17834722017163501 0 0.1092966068073026 0.196360861676983 0 0.1110338789392785 0.17958570344603231 0 0.1303668416208609 0.1930299377262959 0 0.1092966068073026 0.196360861676983 0 0.13087863425710941 0.21437450318233109 0 0.1303668416208609 0.1930299377262959 0 0.1092966068073026 0.196360861676983 0 0.13087863425710941 0.21437450318233109 0 0.1092966068073026 0.196360861676983 0 0.1125012722994063 0.21445683721024189 0 0.13087863425710941 0.21437450318233109 0 0.088421010910718578 0.2222086276604153 0 0.1125012722994063 0.21445683721024189 0 0.1002987826713785 0.20728606003710159 0 0.1092966068073026 0.196360861676983 0 0.1125012722994063 0.21445683721024189 0 0.1002987826713785 0.20728606003710159 0 0.092993361860390117 0.24179254247101431 0 0.088421010910718578 0.2222086276604153 0 0.1123330678616118 0.23283361382323059 0 0.088421010910718578 0.2222086276604153 0 0.1125012722994063 0.21445683721024189 0 0.1123330678616118 0.23283361382323059 0 0.1125012722994063 0.21445683721024189 0 0.1123330678616118 0.23283361382323059 0 0.13087863425710941 0.21437450318233109 0 0.1123330678616118 0.23283361382323059 0 0.13305648654768229 0.2393751701912748 0 0.112848016558421 0.25902783362780168 0 0.092993361860390117 0.24179254247101431 0 0.1123330678616118 0.23283361382323059 0 0.112848016558421 0.25902783362780168 0 0.087937984885119044 0.1509299796415276 0 0.086556394091245922 0.1353209991194336 0 0.072367953576113836 0.15269723488550491 0 0.086556394091245922 0.1353209991194336 0 0.072367953576113836 0.15269723488550491 0 0.087937984885119044 0.1509299796415276 0 0.086556394091245922 0.1353209991194336 0 0.1059994753982218 0.1468281271649389 0 0.10074483460637999 0.1179447633533638 0 0.086556394091245922 0.1353209991194336 0 0.083869890648835765 0.1198706839722407 0 0.086556394091245922 0.1353209991194336 0 0.071213420686855114 0.13589315490255621 0 0.067117147511190772 0.1197386390433379 0 0.052104316523673179 0.13860580521741961 0 0.071213420686855114 0.13589315490255621 0 0.083869890648835765 0.1198706839722407 0 0.067117147511190772 0.1197386390433379 0 0.071213420686855114 0.13589315490255621 0 0.086556394091245922 0.1353209991194336 0 0.071213420686855114 0.13589315490255621 0 0.072367953576113836 0.15269723488550491 0 0.052104316523673179 0.13860580521741961 0 0.071213420686855114 0.13589315490255621 0 0.072367953576113836 0.15269723488550491 0 0.066132551907688991 0.16033357866628689 0 0.08771457935749577 0.17834722017163501 0 0.066132551907688991 0.16033357866628689 0 0.08771457935749577 0.17834722017163501 0 0.079479000274748191 0.16437987572229851 0 0.072367953576113836 0.15269723488550491 0 0.066132551907688991 0.16033357866628689 0 0.061227004257408818 0.16634128278584351 0 0.066132551907688991 0.16033357866628689 0 0.061227004257408818 0.16634128278584351 0 0.066132551907688991 0.16033357866628689 0 0.062752553808442954 0.17566150180965709 0 0.072367953576113836 0.15269723488550491 0 0.066132551907688991 0.16033357866628689 0 0.079479000274748191 0.16437987572229851 0 0.066132551907688991 0.16033357866628689 0 0.071191972316838673 0.18240371792659071 0 0.08771457935749577 0.17834722017163501 0 0.066132551907688991 0.16033357866628689 0 0.062752553808442954 0.17566150180965709 0 0.071191972316838673 0.18240371792659071 0 0.059836189728645253 0.19055847296930881 0 0.062752553808442954 0.17566150180965709 0 0.071191972316838673 0.18240371792659071 0 0.079818610975472923 0.18972880837414841 0 0.071191972316838673 0.18240371792659071 0 0.08771457935749577 0.17834722017163501 0 0.087937984885119044 0.1509299796415276 0 0.072367953576113836 0.15269723488550491 0 0.091700916257696163 0.16614146916576869 0 0.072367953576113836 0.15269723488550491 0 0.091700916257696163 0.16614146916576869 0 0.072367953576113836 0.15269723488550491 0 0.079479000274748191 0.16437987572229851 0 0.091700916257696163 0.16614146916576869 0 0.08771457935749577 0.17834722017163501 0 0.079479000274748191 0.16437987572229851 0 0.091700916257696163 0.16614146916576869 0 0.087937984885119044 0.1509299796415276 0 0.091700916257696163 0.16614146916576869 0 0.098350431397109944 0.15673299264900051 0 0.091700916257696163 0.16614146916576869 0 0.1077633490474028 0.16303239462376681 0 0.1110338789392785 0.17958570344603231 0 0.091700916257696163 0.16614146916576869 0 0.098350431397109944 0.15673299264900051 0 0.1077633490474028 0.16303239462376681 0 0.1092966068073026 0.196360861676983 0 0.08771457935749577 0.17834722017163501 0 0.1110338789392785 0.17958570344603231 0 0.091700916257696163 0.16614146916576869 0 0.1110338789392785 0.17958570344603231 0 0.08771457935749577 0.17834722017163501 0 0.091700916257696163 0.16614146916576869 0 0.1110338789392785 0.17958570344603231 0 0.1092966068073026 0.196360861676983 0 0.08771457935749577 0.17834722017163501 0 0.1110338789392785 0.17958570344603231 0 0.1211601110354374 0.1691808506348145 0 0.1303668416208609 0.1930299377262959 0 0.1110338789392785 0.17958570344603231 0 0.1303668416208609 0.1930299377262959 0 0.1077633490474028 0.16303239462376681 0 0.1211601110354374 0.1691808506348145 0 0.11794964110360449 0.153156977269711 0 0.1077633490474028 0.16303239462376681 0 0.1110338789392785 0.17958570344603231 0 0.1211601110354374 0.1691808506348145 0 0.1211601110354374 0.1691808506348145 0 0.11794964110360449 0.153156977269711 0 0.13185579871384451 0.15157154659873509 0 0.11794964110360449 0.153156977269711 0 0.12141129518055099 0.13003920851435891 0 0.13185579871384451 0.15157154659873509 0 0.11794964110360449 0.153156977269711 0 0.1059994753982218 0.1468281271649389 0 0.12141129518055099 0.13003920851435891 0 0.1077633490474028 0.16303239462376681 0 0.11794964110360449 0.153156977269711 0 0.1059994753982218 0.1468281271649389 0 0.098350431397109944 0.15673299264900051 0 0.1077633490474028 0.16303239462376681 0 0.1059994753982218 0.1468281271649389 0 0.087937984885119044 0.1509299796415276 0 0.098350431397109944 0.15673299264900051 0 0.1059994753982218 0.1468281271649389 0 0.10074483460637999 0.1179447633533638 0 0.1036779998190997 0.1325332745380238 0 0.12141129518055099 0.13003920851435891 0 0.086556394091245922 0.1353209991194336 0 0.1059994753982218 0.1468281271649389 0 0.1036779998190997 0.1325332745380238 0 0.10074483460637999 0.1179447633533638 0 0.086556394091245922 0.1353209991194336 0 0.1036779998190997 0.1325332745380238 0 0.1059994753982218 0.1468281271649389 0 0.1036779998190997 0.1325332745380238 0 0.12141129518055099 0.13003920851435891 0 0.12141129518055099 0.13003920851435891 0 0.14471339593583199 0.13534457858400331 0 0.13185579871384451 0.15157154659873509 0 0.14471339593583199 0.13534457858400331 0 0.1549374545894944 0.15083175104174781 0 0.14398549810638411 0.16110189457449459 0 0.14471339593583199 0.13534457858400331 0 0.1549374545894944 0.15083175104174781 0 0.1629992657221141 0.13580989092211729 0 0.14471339593583199 0.13534457858400331 0 0.13185579871384451 0.15157154659873509 0 0.14398549810638411 0.16110189457449459 0 0.13185579871384451 0.15157154659873509 0 0.13498534572251991 0.17183796400667681 0 0.14398549810638411 0.16110189457449459 0 0.1211601110354374 0.1691808506348145 0 0.13185579871384451 0.15157154659873509 0 0.13498534572251991 0.17183796400667681 0 0.1211601110354374 0.1691808506348145 0 0.13498534572251991 0.17183796400667681 0 0.1303668416208609 0.1930299377262959 0 0.13498534572251991 0.17183796400667681 0 0.14476270295454691 0.1789565105530897 0 0.1303668416208609 0.1930299377262959 0 0.14476270295454691 0.1789565105530897 0 0.1303668416208609 0.1930299377262959 0 0.14661764689485249 0.19028372173339961 0 0.14476270295454691 0.1789565105530897 0 0.15619454576793559 0.17805739650617 0 0.1566387616154582 0.16639599055522389 0 0.15619454576793559 0.17805739650617 0 0.14661764689485249 0.19028372173339961 0 0.15986220133138229 0.18945677360309929 0 0.14476270295454691 0.1789565105530897 0 0.15619454576793559 0.17805739650617 0 0.14661764689485249 0.19028372173339961 0 0.14476270295454691 0.1789565105530897 0 0.14398549810638411 0.16110189457449459 0 0.1566387616154582 0.16639599055522389 0 0.13498534572251991 0.17183796400667681 0 0.14476270295454691 0.1789565105530897 0 0.14398549810638411 0.16110189457449459 0 0.1549374545894944 0.15083175104174781 0 0.14398549810638411 0.16110189457449459 0 0.1566387616154582 0.16639599055522389 0 0.1566387616154582 0.16639599055522389 0 0.167054970719238 0.1673462290624238 0 0.16561848593407741 0.15634818618439639 0 0.1549374545894944 0.15083175104174781 0 0.1566387616154582 0.16639599055522389 0 0.16561848593407741 0.15634818618439639 0 0.1566387616154582 0.16639599055522389 0 0.167054970719238 0.1673462290624238 0 0.16206405687381301 0.17195591504991831 0 0.167054970719238 0.1673462290624238 0 0.1683679493926202 0.17602404407585551 0 0.17250140734744479 0.1687509041015616 0 0.167054970719238 0.1673462290624238 0 0.16206405687381301 0.17195591504991831 0 0.1683679493926202 0.17602404407585551 0 0.167054970719238 0.1673462290624238 0 0.17328160825544531 0.16223662146150011 0 0.17250140734744479 0.1687509041015616 0 0.167054970719238 0.1673462290624238 0 0.16561848593407741 0.15634818618439639 0 0.17328160825544531 0.16223662146150011 0 0.1683679493926202 0.17602404407585551 0 0.17757300091329711 0.18709986984895821 0 0.15986220133138229 0.18945677360309929 0 0.15619454576793559 0.17805739650617 0 0.1683679493926202 0.17602404407585551 0 0.15986220133138229 0.18945677360309929 0 0.15619454576793559 0.17805739650617 0 0.1566387616154582 0.16639599055522389 0 0.16206405687381301 0.17195591504991831 0 0.15619454576793559 0.17805739650617 0 0.16206405687381301 0.17195591504991831 0 0.1683679493926202 0.17602404407585551 0 0.1683679493926202 0.17602404407585551 0 0.17757300091329711 0.18709986984895821 0 0.18130110102247571 0.16939672180646709 0 0.17757300091329711 0.18709986984895821 0 0.18130110102247571 0.16939672180646709 0 0.1933643889982091 0.17609830015544961 0 0.17757300091329711 0.18709986984895821 0 0.19029864825297629 0.19730697803585609 0 0.1933643889982091 0.17609830015544961 0 0.18130110102247571 0.16939672180646709 0 0.17816684441927211 0.15551100334015869 0 0.1933643889982091 0.17609830015544961 0 0.17816684441927211 0.15551100334015869 0 0.1933643889982091 0.17609830015544961 0 0.16561848593407741 0.15634818618439639 0 0.17328160825544531 0.16223662146150011 0 0.17816684441927211 0.15551100334015869 0 0.17328160825544531 0.16223662146150011 0 0.18130110102247571 0.16939672180646709 0 0.17816684441927211 0.15551100334015869 0 0.1683679493926202 0.17602404407585551 0 0.17250140734744479 0.1687509041015616 0 0.18130110102247571 0.16939672180646709 0 0.17328160825544531 0.16223662146150011 0 0.17250140734744479 0.1687509041015616 0 0.18130110102247571 0.16939672180646709 0 0.17816684441927211 0.15551100334015869 0 0.17964817570406791 0.13634462549232171 0 0.19722738995059499 0.1376374958770912 0 0.17816684441927211 0.15551100334015869 0 0.17964817570406791 0.13634462549232171 0 0.1629992657221141 0.13580989092211729 0 0.17964817570406791 0.13634462549232171 0 0.19722738995059499 0.1376374958770912 0 0.18524039599972891 0.11901872056247639 0 0.14471339593583199 0.13534457858400331 0 0.1629992657221141 0.13580989092211729 0 0.1676597366576156 0.1189750387536577 0 0.17964817570406791 0.13634462549232171 0 0.1629992657221141 0.13580989092211729 0 0.1676597366576156 0.1189750387536577 0 0.17816684441927211 0.15551100334015869 0 0.1629992657221141 0.13580989092211729 0 0.16561848593407741 0.15634818618439639 0 0.17816684441927211 0.15551100334015869 0 0.1629992657221141 0.13580989092211729 0 0.1549374545894944 0.15083175104174781 0 0.16561848593407741 0.15634818618439639 0 0.1629992657221141 0.13580989092211729 0 0.13305648654768229 0.2393751701912748 0 0.15246066170691619 0.2323881446876791 0 0.15276295273936141 0.25135955429551371 0 0.13305648654768229 0.2393751701912748 0 0.15276295273936141 0.25135955429551371 0 0.1390278087719011 0.25771973242997082 0 0.1123330678616118 0.23283361382323059 0 0.13305648654768229 0.2393751701912748 0 0.13087863425710941 0.21437450318233109 0 0.13305648654768229 0.2393751701912748 0 0.15246066170691619 0.2323881446876791 0 0.13087863425710941 0.21437450318233109 0 0.15246066170691619 0.2323881446876791 0 0.13087863425710941 0.21437450318233109 0 0.15246066170691619 0.2323881446876791 0 0.14969980430244331 0.20647417200655949 0 0.13087863425710941 0.21437450318233109 0 0.14969980430244331 0.20647417200655949 0 0.13087863425710941 0.21437450318233109 0 0.1303668416208609 0.1930299377262959 0 0.14969980430244331 0.20647417200655949 0 0.1303668416208609 0.1930299377262959 0 0.14969980430244331 0.20647417200655949 0 0.14661764689485249 0.19028372173339961 0 0.15986220133138229 0.18945677360309929 0 0.14969980430244331 0.20647417200655949 0 0.1303668416208609 0.1930299377262959 0 0.14661764689485249 0.19028372173339961 0 0.17757300091329711 0.18709986984895821 0 0.15986220133138229 0.18945677360309929 0 0.1726861107908432 0.21173403218071521 0 0.14969980430244331 0.20647417200655949 0 0.15986220133138229 0.18945677360309929 0 0.1726861107908432 0.21173403218071521 0 0.17757300091329711 0.18709986984895821 0 0.1726861107908432 0.21173403218071521 0 0.19029864825297629 0.19730697803585609 0 0.1726861107908432 0.21173403218071521 0 0.19704553014307921 0.21429559857908559 0 0.19029864825297629 0.19730697803585609 0 0.15246066170691619 0.2323881446876791 0 0.14969980430244331 0.20647417200655949 0 0.1726861107908432 0.21173403218071521 0 0.15246066170691619 0.2323881446876791 0 0.1726861107908432 0.21173403218071521 0 0.170560974883426 0.23251355370088561 0 0.1726861107908432 0.21173403218071521 0 0.18554410964990231 0.23234869238605521 0 0.19704553014307921 0.21429559857908559 0 0.1726861107908432 0.21173403218071521 0 0.170560974883426 0.23251355370088561 0 0.18554410964990231 0.23234869238605521 0 0.170560974883426 0.23251355370088561 0 0.18554410964990231 0.23234869238605521 0 0.17404268915672511 0.25040178619302461 0 0.18554410964990231 0.23234869238605521 0 0.18979826926286991 0.24914387649513439 0 0.17404268915672511 0.25040178619302461 0 0.18554410964990231 0.23234869238605521 0 0.17404268915672511 0.25040178619302461 0 0.15246066170691619 0.2323881446876791 0 0.170560974883426 0.23251355370088561 0 0.17404268915672511 0.25040178619302461 0 0.15246066170691619 0.2323881446876791 0 0.15276295273936141 0.25135955429551371 0 0.17404268915672511 0.25040178619302461 0 0.15246066170691619 0.2323881446876791 0 0.17404268915672511 0.25040178619302461 0 0.20402072125963189 0.24544228464806081 0 0.2124558855340474 0.22250182654272591 0 0.22100716546316321 0.24231306833135219 0 0.20402072125963189 0.24544228464806081 0 0.22100716546316321 0.24231306833135219 0 0.21732544452201211 0.25625544438720987 0 0.18554410964990231 0.23234869238605521 0 0.20402072125963189 0.24544228464806081 0 0.1993844392299764 0.2284759498431411 0 0.18554410964990231 0.23234869238605521 0 0.20402072125963189 0.24544228464806081 0 0.18979826926286991 0.24914387649513439 0 0.18554410964990231 0.23234869238605521 0 0.19704553014307921 0.21429559857908559 0 0.18554410964990231 0.23234869238605521 0 0.1993844392299764 0.2284759498431411 0 0.19704553014307921 0.21429559857908559 0 0.20402072125963189 0.24544228464806081 0 0.2124558855340474 0.22250182654272591 0 0.20402072125963189 0.24544228464806081 0 0.1993844392299764 0.2284759498431411 0 0.2124558855340474 0.22250182654272591 0 0.1993844392299764 0.2284759498431411 0 0.2124558855340474 0.22250182654272591 0 0.20772384479284389 0.21281550218770021 0 0.21778094232674519 0.20801968508260871 0 0.20772384479284389 0.21281550218770021 0 0.20854695063625631 0.19624250477211599 0 0.20772384479284389 0.21281550218770021 0 0.19704553014307921 0.21429559857908559 0 0.20854695063625631 0.19624250477211599 0 0.2124558855340474 0.22250182654272591 0 0.21778094232674519 0.20801968508260871 0 0.2124558855340474 0.22250182654272591 0 0.21778094232674519 0.20801968508260871 0 0.20772384479284389 0.21281550218770021 0 0.19704553014307921 0.21429559857908559 0 0.20854695063625631 0.19624250477211599 0 0.1993844392299764 0.2284759498431411 0 0.20772384479284389 0.21281550218770021 0 0.19704553014307921 0.21429559857908559 0 0.19704553014307921 0.21429559857908559 0 0.19029864825297629 0.19730697803585609 0 0.20854695063625631 0.19624250477211599 0 0.19029864825297629 0.19730697803585609 0 0.20854695063625631 0.19624250477211599 0 0.1933643889982091 0.17609830015544961 0 0.20854695063625631 0.19624250477211599 0 0.22089104980846291 0.19956136843739089 0 0.2188074915729438 0.18013714559929361 0 0.20854695063625631 0.19624250477211599 0 0.2188074915729438 0.18013714559929361 0 0.21778094232674519 0.20801968508260871 0 0.20854695063625631 0.19624250477211599 0 0.21778094232674519 0.20801968508260871 0 0.20854695063625631 0.19624250477211599 0 0.22089104980846291 0.19956136843739089 0 0.22089104980846291 0.19956136843739089 0 0.2293262140828784 0.17662091033205601 0 0.22089104980846291 0.19956136843739089 0 0.23437131496047539 0.19145310622656531 0 0.2293262140828784 0.17662091033205601 0 0.22089104980846291 0.19956136843739089 0 0.23437131496047539 0.19145310622656531 0 0.23454774240819409 0.20493815911600499 0 0.24382989837042801 0.19705337448612881 0 0.24420701379670881 0.18017269424908131 0 0.25519195231445568 0.18957530113497159 0 0.23437131496047539 0.19145310622656531 0 0.24382989837042801 0.19705337448612881 0 0.24420701379670881 0.18017269424908131 0 0.23437131496047539 0.19145310622656531 0 0.24382989837042801 0.19705337448612881 0 0.23454774240819409 0.20493815911600499 0 0.23454774240819409 0.20493815911600499 0 0.2428806973196492 0.20821005743970139 0 0.2391947199181188 0.2178480815829365 0 0.24382989837042801 0.19705337448612881 0 0.23454774240819409 0.20493815911600499 0 0.2428806973196492 0.20821005743970139 0 0.24382989837042801 0.19705337448612881 0 0.2428806973196492 0.20821005743970139 0 0.25366741894655059 0.21144992167050181 0 0.2391947199181188 0.2178480815829365 0 0.24565594326316759 0.22581587786517651 0 0.25366741894655059 0.21144992167050181 0 0.2428806973196492 0.20821005743970139 0 0.2391947199181188 0.2178480815829365 0 0.25366741894655059 0.21144992167050181 0 0.2124558855340474 0.22250182654272591 0 0.21778094232674519 0.20801968508260871 0 0.2282107178442736 0.21712812462959169 0 0.21778094232674519 0.20801968508260871 0 0.22089104980846291 0.19956136843739089 0 0.2282107178442736 0.21712812462959169 0 0.23454774240819409 0.20493815911600499 0 0.2391947199181188 0.2178480815829365 0 0.2282107178442736 0.21712812462959169 0 0.22089104980846291 0.19956136843739089 0 0.23454774240819409 0.20493815911600499 0 0.2282107178442736 0.21712812462959169 0 0.21778094232674519 0.20801968508260871 0 0.22089104980846291 0.19956136843739089 0 0.2124558855340474 0.22250182654272591 0 0.2282107178442736 0.21712812462959169 0 0.22647191178809331 0.2307264322008013 0 0.2124558855340474 0.22250182654272591 0 0.22647191178809331 0.2307264322008013 0 0.22100716546316321 0.24231306833135219 0 0.2282107178442736 0.21712812462959169 0 0.22647191178809331 0.2307264322008013 0 0.23664834127302059 0.22827385538552589 0 0.2391947199181188 0.2178480815829365 0 0.2282107178442736 0.21712812462959169 0 0.23664834127302059 0.22827385538552589 0 0.2391947199181188 0.2178480815829365 0 0.24565594326316759 0.22581587786517651 0 0.23664834127302059 0.22827385538552589 0 0.24565594326316759 0.22581587786517651 0 0.24370578642604121 0.23771377600570481 0 0.25219170164853438 0.2346690458950618 0 0.24565594326316759 0.22581587786517651 0 0.23664834127302059 0.22827385538552589 0 0.24370578642604121 0.23771377600570481 0 0.23664834127302059 0.22827385538552589 0 0.24370578642604121 0.23771377600570481 0 0.23531748857091911 0.24569614115830879 0 0.24370578642604121 0.23771377600570481 0 0.25033710606835441 0.24431151828744141 0 0.25219170164853438 0.2346690458950618 0 0.2432918864305601 0.24652199083231721 0 0.24445832253036559 0.2549088082697154 0 0.25033710606835441 0.24431151828744141 0 0.24370578642604121 0.23771377600570481 0 0.2432918864305601 0.24652199083231721 0 0.25033710606835441 0.24431151828744141 0 0.24370578642604121 0.23771377600570481 0 0.2432918864305601 0.24652199083231721 0 0.23531748857091911 0.24569614115830879 0 0.2432918864305601 0.24652199083231721 0 0.23531748857091911 0.24569614115830879 0 0.24445832253036559 0.2549088082697154 0 0.23531748857091911 0.24569614115830879 0 0.22100716546316321 0.24231306833135219 0 0.23020341775841399 0.25395228280595811 0 0.22647191178809331 0.2307264322008013 0 0.23664834127302059 0.22827385538552589 0 0.23531748857091911 0.24569614115830879 0 0.22647191178809331 0.2307264322008013 0 0.23531748857091911 0.24569614115830879 0 0.22100716546316321 0.24231306833135219 0 0.21287030294419071 0.14282299033041879 0 0.195728446695004 0.15513896596998111 0 0.2152172732838791 0.1582592678158378 0 0.21287030294419071 0.14282299033041879 0 0.2152172732838791 0.1582592678158378 0 0.22438627733182931 0.15054213089556689 0 0.21287030294419071 0.14282299033041879 0 0.22702465691960569 0.13672222032037229 0 0.21628793548191769 0.11976398841402359 0 0.19722738995059499 0.1376374958770912 0 0.21628793548191769 0.11976398841402359 0 0.21287030294419071 0.14282299033041879 0 0.19722738995059499 0.1376374958770912 0 0.21628793548191769 0.11976398841402359 0 0.21287030294419071 0.14282299033041879 0 0.19722738995059499 0.1376374958770912 0 0.195728446695004 0.15513896596998111 0 0.17816684441927211 0.15551100334015869 0 0.19722738995059499 0.1376374958770912 0 0.17816684441927211 0.15551100334015869 0 0.19722738995059499 0.1376374958770912 0 0.195728446695004 0.15513896596998111 0 0.17816684441927211 0.15551100334015869 0 0.195728446695004 0.15513896596998111 0 0.1933643889982091 0.17609830015544961 0 0.195728446695004 0.15513896596998111 0 0.1933643889982091 0.17609830015544961 0 0.20770832069920619 0.17090235195001671 0 0.20854695063625631 0.19624250477211599 0 0.1933643889982091 0.17609830015544961 0 0.20854695063625631 0.19624250477211599 0 0.1933643889982091 0.17609830015544961 0 0.20770832069920619 0.17090235195001671 0 0.20854695063625631 0.19624250477211599 0 0.20770832069920619 0.17090235195001671 0 0.2188074915729438 0.18013714559929361 0 0.20770832069920619 0.17090235195001671 0 0.22002341495861691 0.16942907989633779 0 0.2188074915729438 0.18013714559929361 0 0.195728446695004 0.15513896596998111 0 0.20770832069920619 0.17090235195001671 0 0.2152172732838791 0.1582592678158378 0 0.20770832069920619 0.17090235195001671 0 0.2152172732838791 0.1582592678158378 0 0.22002341495861691 0.16942907989633779 0 0.2293262140828784 0.17662091033205601 0 0.23776137835729369 0.1536804522267208 0 0.2152172732838791 0.1582592678158378 0 0.22534291160289949 0.16170636823330389 0 0.22438627733182931 0.15054213089556689 0 0.22534291160289949 0.16170636823330389 0 0.2293262140828784 0.17662091033205601 0 0.23776137835729369 0.1536804522267208 0 0.2152172732838791 0.1582592678158378 0 0.22534291160289949 0.16170636823330389 0 0.22002341495861691 0.16942907989633779 0 0.22534291160289949 0.16170636823330389 0 0.22002341495861691 0.16942907989633779 0 0.2293262140828784 0.17662091033205601 0 0.22089104980846291 0.19956136843739089 0 0.2188074915729438 0.18013714559929361 0 0.2293262140828784 0.17662091033205601 0 0.22002341495861691 0.16942907989633779 0 0.2188074915729438 0.18013714559929361 0 0.2293262140828784 0.17662091033205601 0 0.23437131496047539 0.19145310622656531 0 0.2293262140828784 0.17662091033205601 0 0.24420701379670881 0.18017269424908131 0 0.2293262140828784 0.17662091033205601 0 0.24420701379670881 0.18017269424908131 0 0.23903790090830779 0.1688404405002796 0 0.24420701379670881 0.18017269424908131 0 0.2448569973963507 0.16488770519326021 0 0.25945119012847401 0.17316462773615879 0 0.2293262140828784 0.17662091033205601 0 0.23903790090830779 0.1688404405002796 0 0.23776137835729369 0.1536804522267208 0 0.2448569973963507 0.16488770519326021 0 0.23776137835729369 0.1536804522267208 0 0.25732524618445352 0.15123328297560429 0 0.23903790090830779 0.1688404405002796 0 0.2448569973963507 0.16488770519326021 0 0.23776137835729369 0.1536804522267208 0 0.2448569973963507 0.16488770519326021 0 0.23776137835729369 0.1536804522267208 0 0.24420701379670881 0.18017269424908131 0 0.23903790090830779 0.1688404405002796 0 0.2448569973963507 0.16488770519326021 0 0.23776137835729369 0.1536804522267208 0 0.24525689464969749 0.13329548142001371 0 0.23776137835729369 0.1536804522267208 0 0.22702465691960569 0.13672222032037229 0 0.24525689464969749 0.13329548142001371 0 0.23776137835729369 0.1536804522267208 0 0.24525689464969749 0.13329548142001371 0 0.25732524618445352 0.15123328297560429 0 0.23776137835729369 0.1536804522267208 0 0.22438627733182931 0.15054213089556689 0 0.22702465691960569 0.13672222032037229 0 0.23776137835729369 0.1536804522267208 0 0.22702465691960569 0.13672222032037229 0 0.22534291160289949 0.16170636823330389 0 0.23776137835729369 0.1536804522267208 0 0.22438627733182931 0.15054213089556689 0 0.21287030294419071 0.14282299033041879 0 0.22438627733182931 0.15054213089556689 0 0.22702465691960569 0.13672222032037229 0 0.22702465691960569 0.13672222032037229 0 0.2355395767940669 0.1207238333845444 0 0.21628793548191769 0.11976398841402359 0 0.22702465691960569 0.13672222032037229 0 0.21628793548191769 0.11976398841402359 0 0.22702465691960569 0.13672222032037229 0 0.24525689464969749 0.13329548142001371 0 0.2355395767940669 0.1207238333845444 0 0.24525689464969749 0.13329548142001371 0 0.2527524109421011 0.1129105106133064 0 0.24525689464969749 0.13329548142001371 0 0.2355395767940669 0.1207238333845444 0 0.2527524109421011 0.1129105106133064 0 0.2355395767940669 0.1207238333845444 0 0.2363759859770124 0.1009269661550061 0 0.2527524109421011 0.1129105106133064 0 0.2363759859770124 0.1009269661550061 0 0.25090492674597259 0.097980981076254831 0 0.2527524109421011 0.1129105106133064 0 0.2363759859770124 0.1009269661550061 0 0.22038573902028991 0.099209806507870146 0 0.21628793548191769 0.11976398841402359 0 0.2363759859770124 0.1009269661550061 0 0.22038573902028991 0.099209806507870146 0 0.23276137935384339 0.089471234507965583 0 0.2363759859770124 0.1009269661550061 0 0.21628793548191769 0.11976398841402359 0 0.2355395767940669 0.1207238333845444 0 0.2363759859770124 0.1009269661550061 0 0.21628793548191769 0.11976398841402359 0 0.21628793548191769 0.11976398841402359 0 0.20726381473963351 0.1055107423754917 0 0.19988115605601989 0.1172489255671314 0 0.19722738995059499 0.1376374958770912 0 0.21628793548191769 0.11976398841402359 0 0.19988115605601989 0.1172489255671314 0 0.21628793548191769 0.11976398841402359 0 0.20726381473963351 0.1055107423754917 0 0.22038573902028991 0.099209806507870146 0 0.21628793548191769 0.11976398841402359 0 0.20726381473963351 0.1055107423754917 0 0.22038573902028991 0.099209806507870146 0 0.21119597549552929 0.095360012704558711 0 0.20726381473963351 0.1055107423754917 0 0.21119597549552929 0.095360012704558711 0 0.20726381473963351 0.1055107423754917 0 0.19823969399734881 0.091257496336960051 0 0.20726381473963351 0.1055107423754917 0 0.19219808977974101 0.10642290371309419 0 0.19823969399734881 0.091257496336960051 0 0.20726381473963351 0.1055107423754917 0 0.19823969399734881 0.091257496336960051 0 0.19219808977974101 0.10642290371309419 0 0.19988115605601989 0.1172489255671314 0 0.18524039599972891 0.11901872056247639 0 0.19722738995059499 0.1376374958770912 0 0.19988115605601989 0.1172489255671314 0 0.18524039599972891 0.11901872056247639 0 0.20726381473963351 0.1055107423754917 0 0.19219808977974101 0.10642290371309419 0 0.19988115605601989 0.1172489255671314 0 0.2066437270605736 0.081504641690739357 0 0.21568643282295361 0.072340831458466759 0 0.18584171845640179 0.071675378498397668 0 0.21568643282295361 0.072340831458466759 0 0.18584171845640179 0.071675378498397668 0 0.19972294057001819 0.065051568010613806 0 0.21568643282295361 0.072340831458466759 0 0.18584171845640179 0.071675378498397668 0 0.19972294057001819 0.065051568010613806 0 0.1896383726356527 0.061991394001463578 0 0.18584171845640179 0.071675378498397668 0 0.19823969399734881 0.091257496336960051 0 0.18584171845640179 0.071675378498397668 0 0.19823969399734881 0.091257496336960051 0 0.2066437270605736 0.081504641690739357 0 0.18584171845640179 0.071675378498397668 0 0.19823969399734881 0.091257496336960051 0 0.18151162710571561 0.085928846702270967 0 0.18584171845640179 0.071675378498397668 0 0.19823969399734881 0.091257496336960051 0 0.2066437270605736 0.081504641690739357 0 0.21889465422484511 0.085462005597912977 0 0.19823969399734881 0.091257496336960051 0 0.21889465422484511 0.085462005597912977 0 0.21119597549552929 0.095360012704558711 0 0.19823969399734881 0.091257496336960051 0 0.21889465422484511 0.085462005597912977 0 0.22038573902028991 0.099209806507870146 0 0.21119597549552929 0.095360012704558711 0 0.21889465422484511 0.085462005597912977 0 0.2066437270605736 0.081504641690739357 0 0.21568643282295361 0.072340831458466759 0 0.21889465422484511 0.085462005597912977 0 0.19972294057001819 0.065051568010613806 0 0.21568643282295361 0.072340831458466759 0 0.20937817562355349 0.06262621953075867 0 0.21568643282295361 0.072340831458466759 0 0.20937817562355349 0.06262621953075867 0 0.2197232601578325 0.064056685915457295 0 0.21568643282295361 0.072340831458466759 0 0.2395496144523408 0.079666514858863752 0 0.24553114718950539 0.073006284418535669 0 0.21568643282295361 0.072340831458466759 0 0.23071846361161591 0.067754836972908863 0 0.24553114718950539 0.073006284418535669 0 0.2197232601578325 0.064056685915457295 0 0.23071846361161591 0.067754836972908863 0 0.22590868136456019 0.059602045879981157 0 0.21568643282295361 0.072340831458466759 0 0.2197232601578325 0.064056685915457295 0 0.23071846361161591 0.067754836972908863 0 0.21568643282295361 0.072340831458466759 0 0.24553114718950539 0.073006284418535669 0 0.21889465422484511 0.085462005597912977 0 0.23276137935384339 0.089471234507965583 0 0.2395496144523408 0.079666514858863752 0 0.21568643282295361 0.072340831458466759 0 0.21889465422484511 0.085462005597912977 0 0.2395496144523408 0.079666514858863752 0 0.21889465422484511 0.085462005597912977 0 0.2395496144523408 0.079666514858863752 0 0.22038573902028991 0.099209806507870146 0 0.21889465422484511 0.085462005597912977 0 0.23276137935384339 0.089471234507965583 0 0.2363759859770124 0.1009269661550061 0 0.23276137935384339 0.089471234507965583 0 0.24425971994930409 0.083061467606559247 0 0.2363759859770124 0.1009269661550061 0 0.24425971994930409 0.083061467606559247 0 0.25646403647210669 0.082089943895988643 0 0.2363759859770124 0.1009269661550061 0 0.25646403647210669 0.082089943895988643 0 0.2363759859770124 0.1009269661550061 0 0.25646403647210669 0.082089943895988643 0 0.25090492674597259 0.097980981076254831 0 0.23276137935384339 0.089471234507965583 0 0.2395496144523408 0.079666514858863752 0 0.24425971994930409 0.083061467606559247 0 0.2395496144523408 0.079666514858863752 0 0.24425971994930409 0.083061467606559247 0 0.24553114718950539 0.073006284418535669 0 0.23071846361161591 0.067754836972908863 0 0.2406585804229264 0.06633629022597895 0 0.23800367704304229 0.059700222678326503 0 0.23071846361161591 0.067754836972908863 0 0.2406585804229264 0.06633629022597895 0 0.24553114718950539 0.073006284418535669 0 0.24425971994930409 0.083061467606559247 0 0.24553114718950539 0.073006284418535669 0 0.25487615625101567 0.07320786180299578 0 0.24553114718950539 0.073006284418535669 0 0.24838103384754201 0.064883816834144792 0 0.25487615625101567 0.07320786180299578 0 0.2406585804229264 0.06633629022597895 0 0.24553114718950539 0.073006284418535669 0 0.24838103384754201 0.064883816834144792 0 0.2406585804229264 0.06633629022597895 0 0.24838103384754201 0.064883816834144792 0 0.23800367704304229 0.059700222678326503 0 0.24838103384754201 0.064883816834144792 0 0.23800367704304229 0.059700222678326503 0 0.2490609562196687 0.053627545471776603 0 0.23952249438881551 0.050464886863935562 0 0.2331343022652258 0.044627727287091128 0 0.23190921822991631 0.052690819255530798 0 0.23800367704304229 0.059700222678326503 0 0.23952249438881551 0.050464886863935562 0 0.23190921822991631 0.052690819255530798 0 0.23952249438881551 0.050464886863935562 0 0.2490609562196687 0.053627545471776603 0 0.24510646900229111 0.042743339310185043 0 0.23800367704304229 0.059700222678326503 0 0.23952249438881551 0.050464886863935562 0 0.2490609562196687 0.053627545471776603 0 0.24510646900229111 0.042743339310185043 0 0.23475179501407209 0.035875899819888271 0 0.25372746045280348 0.0293196290751148 0 0.23952249438881551 0.050464886863935562 0 0.24510646900229111 0.042743339310185043 0 0.2331343022652258 0.044627727287091128 0 0.24510646900229111 0.042743339310185043 0 0.23475179501407209 0.035875899819888271 0 0.2331343022652258 0.044627727287091128 0 0.2331343022652258 0.044627727287091128 0 0.22463951850760849 0.039539964859206918 0 0.2219214804072116 0.049007980853557828 0 0.23475179501407209 0.035875899819888271 0 0.2331343022652258 0.044627727287091128 0 0.22463951850760849 0.039539964859206918 0 0.23475179501407209 0.035875899819888271 0 0.22527401947674411 0.033676045161578308 0 0.22713521018643401 0.02688010419225401 0 0.23475179501407209 0.035875899819888271 0 0.22527401947674411 0.033676045161578308 0 0.22463951850760849 0.039539964859206918 0 0.22527401947674411 0.033676045161578308 0 0.22463951850760849 0.039539964859206918 0 0.21601604858383339 0.033154117827553203 0 0.22463951850760849 0.039539964859206918 0 0.2219214804072116 0.049007980853557828 0 0.21249604175991779 0.041909779676309288 0 0.2219214804072116 0.049007980853557828 0 0.22590868136456019 0.059602045879981157 0 0.2169245473664794 0.057959495735171063 0 0.2197232601578325 0.064056685915457295 0 0.22590868136456019 0.059602045879981157 0 0.2169245473664794 0.057959495735171063 0 0.23071846361161591 0.067754836972908863 0 0.23800367704304229 0.059700222678326503 0 0.22590868136456019 0.059602045879981157 0 0.23800367704304229 0.059700222678326503 0 0.22590868136456019 0.059602045879981157 0 0.23190921822991631 0.052690819255530798 0 0.2219214804072116 0.049007980853557828 0 0.22590868136456019 0.059602045879981157 0 0.23190921822991631 0.052690819255530798 0 0.2331343022652258 0.044627727287091128 0 0.2219214804072116 0.049007980853557828 0 0.23190921822991631 0.052690819255530798 0 0.24504537028208631 0.012710625166811229 0 0.22920319979375789 0.013780610614135351 0 0.23161248302967111 0.001740318802090361 0 0.24397708060534851 0.00076903392350891183 0 0.24504537028208631 0.012710625166811229 0 0.23161248302967111 0.001740318802090361 0 0.24397708060534851 0.00076903392350891183 0 0.24504537028208631 0.012710625166811229 0 0.2592490732137257 0.0017951579894068591 0 0.24504537028208631 0.012710625166811229 0 0.23733844004822649 0.021100179017436538 0 0.25372746045280348 0.0293196290751148 0 0.24504537028208631 0.012710625166811229 0 0.23733844004822649 0.021100179017436538 0 0.22920319979375789 0.013780610614135351 0 0.23733844004822649 0.021100179017436538 0 0.22713521018643401 0.02688010419225401 0 0.25372746045280348 0.0293196290751148 0 0.22713521018643401 0.02688010419225401 0 0.25372746045280348 0.0293196290751148 0 0.23475179501407209 0.035875899819888271 0 0.22713521018643401 0.02688010419225401 0 0.25372746045280348 0.0293196290751148 0 0.22527401947674411 0.033676045161578308 0 0.22713521018643401 0.02688010419225401 0 0.21601604858383339 0.033154117827553203 0 0.22713521018643401 0.02688010419225401 0 0.22108053340980729 0.0249024600354735 0 0.22591850016292481 0.020347934250247911 0 0.22108053340980729 0.0249024600354735 0 0.22591850016292481 0.020347934250247911 0 0.2227088296869324 0.016085998619498769 0 0.22108053340980729 0.0249024600354735 0 0.2227088296869324 0.016085998619498769 0 0.21518714186955129 0.013535354408949551 0 0.22591850016292481 0.020347934250247911 0 0.2227088296869324 0.016085998619498769 0 0.22920319979375789 0.013780610614135351 0 0.23733844004822649 0.021100179017436538 0 0.22713521018643401 0.02688010419225401 0 0.22591850016292481 0.020347934250247911 0 0.23733844004822649 0.021100179017436538 0 0.22591850016292481 0.020347934250247911 0 0.22920319979375789 0.013780610614135351 0 0.2227088296869324 0.016085998619498769 0 0.22920319979375789 0.013780610614135351 0 0.22215477319862079 0.0078636337886875234 0 0.2227088296869324 0.016085998619498769 0 0.22215477319862079 0.0078636337886875234 0 0.21518714186955129 0.013535354408949551 0 0.22215477319862079 0.0078636337886875234 0 0.23161248302967111 0.001740318802090361 0 0.21656024508351429 -0.0014627478743725779 0 0.22920319979375789 0.013780610614135351 0 0.22215477319862079 0.0078636337886875234 0 0.23161248302967111 0.001740318802090361 0 0.20272455865576069 0.01059814930704531 0 0.21656024508351429 -0.0014627478743725779 0 0.20167340524385621 -0.0052805064801682402 0 0.21518714186955129 0.013535354408949551 0 0.20272455865576069 0.01059814930704531 0 0.21656024508351429 -0.0014627478743725779 0 0.22215477319862079 0.0078636337886875234 0 0.21518714186955129 0.013535354408949551 0 0.21656024508351429 -0.0014627478743725779 0 0.22108053340980729 0.0249024600354735 0 0.20272455865576069 0.01059814930704531 0 0.22713521018643401 0.02688010419225401 0 0.2005429599200643 0.024440579309393209 0 0.22713521018643401 0.02688010419225401 0 0.2005429599200643 0.024440579309393209 0 0.21601604858383339 0.033154117827553203 0 0.22108053340980729 0.0249024600354735 0 0.21518714186955129 0.013535354408949551 0 0.20272455865576069 0.01059814930704531 0 0.22108053340980729 0.0249024600354735 0 0.2005429599200643 0.024440579309393209 0 0.20272455865576069 0.01059814930704531 0 0.22713521018643401 0.02688010419225401 0 0.22108053340980729 0.0249024600354735 0 0.2005429599200643 0.024440579309393209 0 0.2005429599200643 0.024440579309393209 0 0.21601604858383339 0.033154117827553203 0 0.20378123177366869 0.035212178076319961 0 0.2005429599200643 0.024440579309393209 0 0.19136441614879809 0.033408010827566767 0 0.17395070965369469 0.02200105442653242 0 0.2005429599200643 0.024440579309393209 0 0.20378123177366869 0.035212178076319961 0 0.19136441614879809 0.033408010827566767 0 0.20272455865576069 0.01059814930704531 0 0.18436858390171409 -0.0037061614213828738 0 0.20272455865576069 0.01059814930704531 0 0.18436858390171409 -0.0037061614213828738 0 0.20167340524385621 -0.0052805064801682402 0 0.20272455865576069 0.01059814930704531 0 0.18724850204133181 0.01169453453732819 0 0.18436858390171409 -0.0037061614213828738 0 0.2005429599200643 0.024440579309393209 0 0.20272455865576069 0.01059814930704531 0 0.18724850204133181 0.01169453453732819 0 0.20937817562355349 0.06262621953075867 0 0.2078213248248364 0.051332457772106599 0 0.1980700033115291 0.056624016563982298 0 0.20937817562355349 0.06262621953075867 0 0.2197232601578325 0.064056685915457295 0 0.2169245473664794 0.057959495735171063 0 0.20937817562355349 0.06262621953075867 0 0.2078213248248364 0.051332457772106599 0 0.2169245473664794 0.057959495735171063 0 0.2219214804072116 0.049007980853557828 0 0.2078213248248364 0.051332457772106599 0 0.2169245473664794 0.057959495735171063 0 0.2219214804072116 0.049007980853557828 0 0.2078213248248364 0.051332457772106599 0 0.21249604175991779 0.041909779676309288 0 0.22463951850760849 0.039539964859206918 0 0.21249604175991779 0.041909779676309288 0 0.21601604858383339 0.033154117827553203 0 0.21249604175991779 0.041909779676309288 0 0.21601604858383339 0.033154117827553203 0 0.20378123177366869 0.035212178076319961 0 0.21249604175991779 0.041909779676309288 0 0.20378123177366869 0.035212178076319961 0 0.19776259313679689 0.043847078599275127 0 0.2078213248248364 0.051332457772106599 0 0.21249604175991779 0.041909779676309288 0 0.19776259313679689 0.043847078599275127 0 0.19776259313679689 0.043847078599275127 0 0.19136441614879809 0.033408010827566767 0 0.18078458625976571 0.041539163726313118 0 0.19776259313679689 0.043847078599275127 0 0.1872134482565217 0.053640886336966211 0 0.18078458625976571 0.041539163726313118 0 0.20378123177366869 0.035212178076319961 0 0.19776259313679689 0.043847078599275127 0 0.19136441614879809 0.033408010827566767 0 0.19776259313679689 0.043847078599275127 0 0.1980700033115291 0.056624016563982298 0 0.1872134482565217 0.053640886336966211 0 0.2078213248248364 0.051332457772106599 0 0.19776259313679689 0.043847078599275127 0 0.1980700033115291 0.056624016563982298 0 0.19972294057001819 0.065051568010613806 0 0.20937817562355349 0.06262621953075867 0 0.1980700033115291 0.056624016563982298 0 0.19972294057001819 0.065051568010613806 0 0.1980700033115291 0.056624016563982298 0 0.1896383726356527 0.061991394001463578 0 0.1980700033115291 0.056624016563982298 0 0.1896383726356527 0.061991394001463578 0 0.1872134482565217 0.053640886336966211 0 0.17675104137022371 0.053716587076001528 0 0.1872134482565217 0.053640886336966211 0 0.18026606342091109 0.06286884927339996 0 0.1896383726356527 0.061991394001463578 0 0.1872134482565217 0.053640886336966211 0 0.18026606342091109 0.06286884927339996 0 0.17675104137022371 0.053716587076001528 0 0.18026606342091109 0.06286884927339996 0 0.16744089006802651 0.062565665771268542 0 0.17675104137022371 0.053716587076001528 0 0.18078458625976571 0.041539163726313118 0 0.16805021884589341 0.047968370272059788 0 0.17675104137022371 0.053716587076001528 0 0.1872134482565217 0.053640886336966211 0 0.18078458625976571 0.041539163726313118 0 0.18078458625976571 0.041539163726313118 0 0.16859497173359961 0.036060072621793053 0 0.17395070965369469 0.02200105442653242 0 0.19136441614879809 0.033408010827566767 0 0.18078458625976571 0.041539163726313118 0 0.17395070965369469 0.02200105442653242 0 0.18078458625976571 0.041539163726313118 0 0.16859497173359961 0.036060072621793053 0 0.16805021884589341 0.047968370272059788 0 0.16859497173359961 0.036060072621793053 0 0.16805021884589341 0.047968370272059788 0 0.1561923672108986 0.040225890881455811 0 0.16859497173359961 0.036060072621793053 0 0.1585423034080877 0.030514933784532631 0 0.1561923672108986 0.040225890881455811 0 0.15748572359616911 0.054889646498847089 0 0.16805021884589341 0.047968370272059788 0 0.1561923672108986 0.040225890881455811 0 0.15748572359616911 0.054889646498847089 0 0.16805021884589341 0.047968370272059788 0 0.16744089006802651 0.062565665771268542 0 0.17675104137022371 0.053716587076001528 0 0.16805021884589341 0.047968370272059788 0 0.16744089006802651 0.062565665771268542 0 0.17474613889701679 0.0066209854137925604 0 0.18724850204133181 0.01169453453732819 0 0.18436858390171409 -0.0037061614213828738 0 0.17474613889701679 0.0066209854137925604 0 0.18724850204133181 0.01169453453732819 0 0.17395070965369469 0.02200105442653242 0 0.2005429599200643 0.024440579309393209 0 0.18724850204133181 0.01169453453732819 0 0.17395070965369469 0.02200105442653242 0 0.2005429599200643 0.024440579309393209 0 0.17395070965369469 0.02200105442653242 0 0.17395070965369469 0.02200105442653242 0 0.16157493590422931 0.0071784542262573166 0 0.14735845938732489 0.019561529543671619 0 0.17395070965369469 0.02200105442653242 0 0.1585423034080877 0.030514933784532631 0 0.14735845938732489 0.019561529543671619 0 0.17395070965369469 0.02200105442653242 0 0.14735845938732489 0.019561529543671619 0 0.16859497173359961 0.036060072621793053 0 0.17395070965369469 0.02200105442653242 0 0.1585423034080877 0.030514933784532631 0 0.17474613889701679 0.0066209854137925604 0 0.17395070965369469 0.02200105442653242 0 0.16157493590422931 0.0071784542262573166 0 0.17474613889701679 0.0066209854137925604 0 0.16157493590422931 0.0071784542262573166 0 0.16658796298411421 -0.0040629546997722581 0 0.14936446098576259 0.0064559420933095364 0 0.13948744810705679 0.01167495694034958 0 0.14381200007779371 -0.0019232760749363191 0 0.16157493590422931 0.0071784542262573166 0 0.14936446098576259 0.0064559420933095364 0 0.15458946145240851 -0.0042119541687945248 0 0.14936446098576259 0.0064559420933095364 0 0.15458946145240851 -0.0042119541687945248 0 0.14381200007779371 -0.0019232760749363191 0 0.16157493590422931 0.0071784542262573166 0 0.14936446098576259 0.0064559420933095364 0 0.14735845938732489 0.019561529543671619 0 0.14936446098576259 0.0064559420933095364 0 0.14735845938732489 0.019561529543671619 0 0.13948744810705679 0.01167495694034958 0 0.14735845938732489 0.019561529543671619 0 0.13948744810705679 0.01167495694034958 0 0.14547861878624191 0.035132173528778683 0 0.13948744810705679 0.01167495694034958 0 0.14547861878624191 0.035132173528778683 0 0.1585423034080877 0.030514933784532631 0 0.14735845938732489 0.019561529543671619 0 0.14547861878624191 0.035132173528778683 0 0.13609508058347411 0.025057517430325971 0 0.13948744810705679 0.01167495694034958 0 0.14547861878624191 0.035132173528778683 0 0.13609508058347411 0.025057517430325971 0 0.14547861878624191 0.035132173528778683 0 0.12768533588403691 0.032433832787434003 0 0.13609508058347411 0.025057517430325971 0 0.12927156724533451 0.018095418705272891 0 0.12768533588403691 0.032433832787434003 0 0.13609508058347411 0.025057517430325971 0 0.12927156724533451 0.018095418705272891 0 0.13948744810705679 0.01167495694034958 0 0.12497209006325551 0.0045335831921891464 0 0.13948744810705679 0.01167495694034958 0 0.13349627742787201 -0.01178225964807952 0 0.12497209006325551 0.0045335831921891464 0 0.12927156724533451 0.018095418705272891 0 0.13948744810705679 0.01167495694034958 0 0.15748572359616911 0.054889646498847089 0 0.1469854359149281 0.06019347364162482 0 0.1578188437632948 0.071050547424957644 0 0.14259357918962789 0.047229662822093399 0 0.1469854359149281 0.06019347364162482 0 0.1379378947682644 0.052239112610812669 0 0.1469854359149281 0.06019347364162482 0 0.1379378947682644 0.052239112610812669 0 0.13699867498588589 0.059204230891745403 0 0.15748572359616911 0.054889646498847089 0 0.14259357918962789 0.047229662822093399 0 0.1561923672108986 0.040225890881455811 0 0.15748572359616911 0.054889646498847089 0 0.14259357918962789 0.047229662822093399 0 0.1469854359149281 0.06019347364162482 0 0.1561923672108986 0.040225890881455811 0 0.14547861878624191 0.035132173528778683 0 0.12768533588403691 0.032433832787434003 0 0.14259357918962789 0.047229662822093399 0 0.1561923672108986 0.040225890881455811 0 0.12768533588403691 0.032433832787434003 0 0.1561923672108986 0.040225890881455811 0 0.12768533588403691 0.032433832787434003 0 0.1585423034080877 0.030514933784532631 0 0.1561923672108986 0.040225890881455811 0 0.14547861878624191 0.035132173528778683 0 0.14259357918962789 0.047229662822093399 0 0.12768533588403691 0.032433832787434003 0 0.1292747177634703 0.043396020512386058 0 0.11395658607786729 0.05515461165814188 0 0.1287406024342054 0.055097879708328808 0 0.13663884612325281 0.070578293211004964 0 0.1292747177634703 0.043396020512386058 0 0.1379378947682644 0.052239112610812669 0 0.1287406024342054 0.055097879708328808 0 0.14259357918962789 0.047229662822093399 0 0.1292747177634703 0.043396020512386058 0 0.1379378947682644 0.052239112610812669 0 0.1379378947682644 0.052239112610812669 0 0.13699867498588589 0.059204230891745403 0 0.1287406024342054 0.055097879708328808 0 0.13699867498588589 0.059204230891745403 0 0.1287406024342054 0.055097879708328808 0 0.13663884612325281 0.070578293211004964 0 0.11395658607786729 0.05515461165814188 0 0.13663884612325281 0.070578293211004964 0 0.11395658607786729 0.05515461165814188 0 0.12979596907018781 0.070425716351517467 0 0.13663884612325281 0.070578293211004964 0 0.1219325569799334 0.076800083693214879 0 0.12979596907018781 0.070425716351517467 0 0.13059448489163239 0.079799230740800212 0 0.12979596907018781 0.070425716351517467 0 0.13663884612325281 0.070578293211004964 0 0.14351607551234641 0.083803950435220445 0 0.12979596907018781 0.070425716351517467 0 0.14351607551234641 0.083803950435220445 0 0.13059448489163239 0.079799230740800212 0 0.12979596907018781 0.070425716351517467 0 0.13663884612325281 0.070578293211004964 0 0.1469854359149281 0.06019347364162482 0 0.13699867498588589 0.059204230891745403 0 0.13663884612325281 0.070578293211004964 0 0.13663884612325281 0.070578293211004964 0 0.1578188437632948 0.071050547424957644 0 0.1469854359149281 0.06019347364162482 0 0.13663884612325281 0.070578293211004964 0 0.1578188437632948 0.071050547424957644 0 0.13663884612325281 0.070578293211004964 0 0.14351607551234641 0.083803950435220445 0 0.1578188437632948 0.071050547424957644 0 0.14351607551234641 0.083803950435220445 0 0.13059448489163239 0.079799230740800212 0 0.1271333380040621 0.088167172483248069 0 0.14351607551234641 0.083803950435220445 0 0.1271333380040621 0.088167172483248069 0 0.14249108221459841 0.106899771109861 0 0.1219325569799334 0.076800083693214879 0 0.13059448489163239 0.079799230740800212 0 0.1271333380040621 0.088167172483248069 0 0.1149332751215142 0.100568527587294 0 0.1271333380040621 0.088167172483248069 0 0.14249108221459841 0.106899771109861 0 0.1149332751215142 0.100568527587294 0 0.12141129518055099 0.13003920851435891 0 0.14249108221459841 0.106899771109861 0 0.12141129518055099 0.13003920851435891 0 0.14471339593583199 0.13534457858400331 0 0.14249108221459841 0.106899771109861 0 0.14471339593583199 0.13534457858400331 0 0.14249108221459841 0.106899771109861 0 0.1676597366576156 0.1189750387536577 0 0.14351607551234641 0.083803950435220445 0 0.14249108221459841 0.106899771109861 0 0.17036538810597401 0.099078633723411552 0 0.14249108221459841 0.106899771109861 0 0.17036538810597401 0.099078633723411552 0 0.14249108221459841 0.106899771109861 0 0.17036538810597401 0.099078633723411552 0 0.1676597366576156 0.1189750387536577 0 0.17964817570406791 0.13634462549232171 0 0.1676597366576156 0.1189750387536577 0 0.18524039599972891 0.11901872056247639 0 0.17036538810597401 0.099078633723411552 0 0.1676597366576156 0.1189750387536577 0 0.18524039599972891 0.11901872056247639 0 0.19219808977974101 0.10642290371309419 0 0.19823969399734881 0.091257496336960051 0 0.17036538810597401 0.099078633723411552 0 0.19823969399734881 0.091257496336960051 0 0.17036538810597401 0.099078633723411552 0 0.19219808977974101 0.10642290371309419 0 0.17036538810597401 0.099078633723411552 0 0.18524039599972891 0.11901872056247639 0 0.19823969399734881 0.091257496336960051 0 0.17036538810597401 0.099078633723411552 0 0.18151162710571561 0.085928846702270967 0 0.17036538810597401 0.099078633723411552 0 0.18151162710571561 0.085928846702270967 0 0.17159970786313791 0.081703878250314541 0 0.18151162710571561 0.085928846702270967 0 0.18584171845640179 0.071675378498397668 0 0.17159970786313791 0.081703878250314541 0 0.18584171845640179 0.071675378498397668 0 0.18026606342091109 0.06286884927339996 0 0.16744089006802651 0.062565665771268542 0 0.1896383726356527 0.061991394001463578 0 0.18584171845640179 0.071675378498397668 0 0.18026606342091109 0.06286884927339996 0 0.18584171845640179 0.071675378498397668 0 0.18026606342091109 0.06286884927339996 0 0.18584171845640179 0.071675378498397668 0 0.1578188437632948 0.071050547424957644 0 0.17159970786313791 0.081703878250314541 0 0.15748572359616911 0.054889646498847089 0 0.1578188437632948 0.071050547424957644 0 0.16744089006802651 0.062565665771268542 0 0.18584171845640179 0.071675378498397668 0 0.1578188437632948 0.071050547424957644 0 0.18584171845640179 0.071675378498397668 0 0.1578188437632948 0.071050547424957644 0 0.16744089006802651 0.062565665771268542 0 0.14351607551234641 0.083803950435220445 0 0.1578188437632948 0.071050547424957644 0 0.17159970786313791 0.081703878250314541 0 0.14351607551234641 0.083803950435220445 0 0.17036538810597401 0.099078633723411552 0 0.17159970786313791 0.081703878250314541 0 0.098731448735246086 0.46075755354678799 0 0.088933064133239953 0.48417147621526119 0 0.1048616853919466 0.47521406301849989 0 0.098731448735246086 0.46075755354678799 0 0.088933064133239953 0.48417147621526119 0 0.1048616853919466 0.47521406301849989 0 0.1124605482431746 0.48786895242117778 0 0.088933064133239953 0.48417147621526119 0 0.10005414809993469 0.49103237156245649 0 0.1124605482431746 0.48786895242117778 0 0.088933064133239953 0.48417147621526119 0 0.10005414809993469 0.49103237156245649 0 0.1154916408857066 0.5 0 0.091406377294079078 0.5 0 0.1124605482431746 0.48786895242117778 0 0.088933064133239953 0.48417147621526119 0 0.10005414809993469 0.49103237156245649 0 0.091406377294079078 0.5 0 0.091604219850272631 0.49158210807808128 0 0.10005414809993469 0.49103237156245649 0 0.1124605482431746 0.48786895242117778 0 0.1154916408857066 0.5 0 0.1124605482431746 0.48786895242117778 0 0.1154916408857066 0.5 0 0.13598803235310941 0.49156642862709438 0 0.1124605482431746 0.48786895242117778 0 0.13598803235310941 0.49156642862709438 0 0.1124605482431746 0.48786895242117778 0 0.1145595044859606 0.47591181573921032 0 0.12546140466860231 0.47497018224559101 0 0.1124605482431746 0.48786895242117778 0 0.12546140466860231 0.47497018224559101 0 0.13141037284086901 0.48157786654320972 0 0.1048616853919466 0.47521406301849989 0 0.1124605482431746 0.48786895242117778 0 0.1145595044859606 0.47591181573921032 0 0.1048616853919466 0.47521406301849989 0 0.1145595044859606 0.47591181573921032 0 0.115454379640119 0.46559406527157249 0 0.1145595044859606 0.47591181573921032 0 0.115454379640119 0.46559406527157249 0 0.12546140466860231 0.47497018224559101 0 0.115454379640119 0.46559406527157249 0 0.1221638583408632 0.44949644160630903 0 0.13579788334447351 0.4616492523343031 0 0.115454379640119 0.46559406527157249 0 0.1221638583408632 0.44949644160630903 0 0.098731448735246086 0.46075755354678799 0 0.1221638583408632 0.44949644160630903 0 0.1085298333372527 0.43734363087831513 0 0.1281182232964162 0.43334209902361592 0 0.1221638583408632 0.44949644160630903 0 0.098731448735246086 0.46075755354678799 0 0.1085298333372527 0.43734363087831513 0 0.1221638583408632 0.44949644160630903 0 0.1085298333372527 0.43734363087831513 0 0.098731448735246086 0.46075755354678799 0 0.1085298333372527 0.43734363087831513 0 0.098731448735246086 0.46075755354678799 0 0.090524353502188348 0.44387650843612519 0 0.1085298333372527 0.43734363087831513 0 0.1048616853919466 0.47521406301849989 0 0.115454379640119 0.46559406527157249 0 0.098731448735246086 0.46075755354678799 0 0.098731448735246086 0.46075755354678799 0 0.090524353502188348 0.44387650843612519 0 0.077512864165930395 0.46359522717117052 0 0.090524353502188348 0.44387650843612519 0 0.072419996549793933 0.44006985274245303 0 0.077512864165930395 0.46359522717117052 0 0.072419996549793933 0.44006985274245303 0 0.077512864165930395 0.46359522717117052 0 0.060303021398497851 0.45635713599325739 0 0.077512864165930395 0.46359522717117052 0 0.059620239745578327 0.47956480130709178 0 0.060303021398497851 0.45635713599325739 0 0.077512864165930395 0.46359522717117052 0 0.088933064133239953 0.48417147621526119 0 0.059620239745578327 0.47956480130709178 0 0.088933064133239953 0.48417147621526119 0 0.059620239745578327 0.47956480130709178 0 0.098731448735246086 0.46075755354678799 0 0.077512864165930395 0.46359522717117052 0 0.088933064133239953 0.48417147621526119 0 0.088933064133239953 0.48417147621526119 0 0.086023289873836825 0.49112458453460761 0 0.059620239745578327 0.47956480130709178 0 0.091406377294079078 0.5 0 0.086023289873836825 0.49112458453460761 0 0.067321113702451585 0.49999999999996148 0 0.091406377294079078 0.5 0 0.091604219850272631 0.49158210807808128 0 0.086023289873836825 0.49112458453460761 0 0.10005414809993469 0.49103237156245649 0 0.088933064133239953 0.48417147621526119 0 0.091604219850272631 0.49158210807808128 0 0.088933064133239953 0.48417147621526119 0 0.086023289873836825 0.49112458453460761 0 0.088933064133239953 0.48417147621526119 0 0.091604219850272631 0.49158210807808128 0 0.086023289873836825 0.49112458453460761 0 0.086023289873836825 0.49112458453460761 0 0.067321113702451585 0.49999999999996148 0 0.059620239745578327 0.47956480130709178 0 0.067321113702451585 0.49999999999996148 0 0.04203813130035941 0.48646328886344431 0 0.067321113702451585 0.49999999999996148 0 0.059620239745578327 0.47956480130709178 0 0.04203813130035941 0.48646328886344431 0 0.067321113702451585 0.49999999999996148 0 0.039649723368078822 0.5 0 0.04203813130035941 0.48646328886344431 0 0.059620239745578327 0.47956480130709178 0 0.04203813130035941 0.48646328886344431 0 0.042199440962340663 0.46314186265036361 0 0.04203813130035941 0.48646328886344431 0 0.016755148898251301 0.47292657772695701 0 0.042199440962340663 0.46314186265036361 0 0.039649723368078822 0.5 0 0.04203813130035941 0.48646328886344431 0 0.024387621151555631 0.4888304343487524 0 0.039649723368078822 0.5 0 0.024387621151555631 0.4888304343487524 0 0.011978333033706099 0.5 0 0.024387621151555631 0.4888304343487524 0 0.01085883589353649 0.48393665629850152 0 0.011978333033706099 0.5 0 0.04203813130035941 0.48646328886344431 0 0.024387621151555631 0.4888304343487524 0 0.016755148898251301 0.47292657772695701 0 0.04203813130035941 0.48646328886344431 0 0.016755148898251301 0.47292657772695701 0 0.024387621151555631 0.4888304343487524 0 0.016755148898251301 0.47292657772695701 0 0.01085883589353649 0.48393665629850152 0 0.016755148898251301 0.47292657772695701 0 0.01085883589353649 0.48393665629850152 0 0.0043144432838517072 0.47310203204207069 0 -0.0015143242079153931 0.48653361892752911 0 0.01085883589353649 0.48393665629850152 0 0.0043144432838517072 0.47310203204207069 0 -0.0015143242079153931 0.48653361892752911 0 0.01085883589353649 0.48393665629850152 0 0.011978333033706099 0.5 0 -0.0085278335038570172 0.45938986659047037 0 0.022440761205716499 0.44963303363354978 0 0.0042112582666323298 0.43552065910684351 0 -0.0085278335038570172 0.45938986659047037 0 0.016755148898251301 0.47292657772695701 0 -0.0085278335038570172 0.45938986659047037 0 0.016755148898251301 0.47292657772695701 0 0.022440761205716499 0.44963303363354978 0 -0.0085278335038570172 0.45938986659047037 0 0.016755148898251301 0.47292657772695701 0 0.0043144432838517072 0.47310203204207069 0 0.016755148898251301 0.47292657772695701 0 0.022440761205716499 0.44963303363354978 0 0.042199440962340663 0.46314186265036361 0 0.022440761205716499 0.44963303363354978 0 0.030619912420313141 0.42974270137440751 0 0.0042112582666323298 0.43552065910684351 0 0.022440761205716499 0.44963303363354978 0 0.049186990568527288 0.43838736600854877 0 0.030619912420313141 0.42974270137440751 0 0.022440761205716499 0.44963303363354978 0 0.042199440962340663 0.46314186265036361 0 0.049186990568527288 0.43838736600854877 0 0.059620239745578327 0.47956480130709178 0 0.042199440962340663 0.46314186265036361 0 0.060303021398497851 0.45635713599325739 0 0.042199440962340663 0.46314186265036361 0 0.060303021398497851 0.45635713599325739 0 0.049186990568527288 0.43838736600854877 0 0.072419996549793933 0.44006985274245303 0 0.060303021398497851 0.45635713599325739 0 0.049186990568527288 0.43838736600854877 0 0.049186990568527288 0.43838736600854877 0 0.04974508763318948 0.41556550091792588 0 0.06758552576518026 0.42139275931652997 0 0.04974508763318948 0.41556550091792588 0 0.066955264666744646 0.40028576542648447 0 0.06758552576518026 0.42139275931652997 0 0.04974508763318948 0.41556550091792588 0 0.030619912420313141 0.42974270137440751 0 0.02751546442750015 0.40960694720516921 0 0.049186990568527288 0.43838736600854877 0 0.04974508763318948 0.41556550091792588 0 0.030619912420313141 0.42974270137440751 0 0.030619912420313141 0.42974270137440751 0 0.02751546442750015 0.40960694720516921 0 0.0042112582666323298 0.43552065910684351 0 -0.00015915912015578059 0.40515224490459789 0 0.02751546442750015 0.40960694720516921 0 0.0042112582666323298 0.43552065910684351 0 0.0035961909011746991 0.38454086690399292 0 0.018938748855813679 0.3900725367483186 0 0.018324682132475789 0.37135813651886318 0 -0.00015915912015578059 0.40515224490459789 0 0.02751546442750015 0.40960694720516921 0 0.018938748855813679 0.3900725367483186 0 -0.00015915912015578059 0.40515224490459789 0 0.0035961909011746991 0.38454086690399292 0 0.018938748855813679 0.3900725367483186 0 0.02751546442750015 0.40960694720516921 0 0.018938748855813679 0.3900725367483186 0 0.045416565938073507 0.37970448820897013 0 0.018938748855813679 0.3900725367483186 0 0.045416565938073507 0.37970448820897013 0 0.018324682132475789 0.37135813651886318 0 0.04974508763318948 0.41556550091792588 0 0.045416565938073507 0.37970448820897013 0 0.066955264666744646 0.40028576542648447 0 0.045416565938073507 0.37970448820897013 0 0.018324682132475789 0.37135813651886318 0 0.04974508763318948 0.41556550091792588 0 0.02751546442750015 0.40960694720516921 0 0.045416565938073507 0.37970448820897013 0 0.045416565938073507 0.37970448820897013 0 0.0704815404319106 0.38148610243286379 0 0.066955264666744646 0.40028576542648447 0 0.0704815404319106 0.38148610243286379 0 0.08480982928106065 0.39241453869179699 0 0.088886958088824811 0.37411585673860659 0 0.08480982928106065 0.39241453869179699 0 0.10334918592018411 0.39771614517130721 0 0.088886958088824811 0.37411585673860659 0 0.08480982928106065 0.39241453869179699 0 0.087742549001998779 0.41881469815239969 0 0.10334918592018411 0.39771614517130721 0 0.08480982928106065 0.39241453869179699 0 0.066955264666744646 0.40028576542648447 0 0.087742549001998779 0.41881469815239969 0 0.0704815404319106 0.38148610243286379 0 0.08480982928106065 0.39241453869179699 0 0.066955264666744646 0.40028576542648447 0 0.066955264666744646 0.40028576542648447 0 0.087742549001998779 0.41881469815239969 0 0.066955264666744646 0.40028576542648447 0 0.06758552576518026 0.42139275931652997 0 0.087742549001998779 0.41881469815239969 0 0.072419996549793933 0.44006985274245303 0 0.06758552576518026 0.42139275931652997 0 0.087742549001998779 0.41881469815239969 0 0.072419996549793933 0.44006985274245303 0 0.049186990568527288 0.43838736600854877 0 0.06758552576518026 0.42139275931652997 0 0.090524353502188348 0.44387650843612519 0 0.072419996549793933 0.44006985274245303 0 0.087742549001998779 0.41881469815239969 0 0.087742549001998779 0.41881469815239969 0 0.1172806665744727 0.41643290517981418 0 0.10334918592018411 0.39771614517130721 0 0.087742549001998779 0.41881469815239969 0 0.1085298333372527 0.43734363087831513 0 0.1172806665744727 0.41643290517981418 0 0.090524353502188348 0.44387650843612519 0 0.087742549001998779 0.41881469815239969 0 0.1085298333372527 0.43734363087831513 0 0.087742549001998779 0.41881469815239969 0 0.1085298333372527 0.43734363087831513 0 0.1085298333372527 0.43734363087831513 0 0.1172806665744727 0.41643290517981418 0 0.1281182232964162 0.43334209902361592 0 0.1085298333372527 0.43734363087831513 0 0.1172806665744727 0.41643290517981418 0 0.1172806665744727 0.41643290517981418 0 0.12603149981169259 0.39552217948131352 0 0.1172806665744727 0.41643290517981418 0 0.10334918592018411 0.39771614517130721 0 0.12603149981169259 0.39552217948131352 0 0.11445130505528391 0.37838962635402829 0 0.10334918592018411 0.39771614517130721 0 0.12603149981169259 0.39552217948131352 0 0.11445130505528391 0.37838962635402829 0 0.10334918592018411 0.39771614517130721 0 0.088886958088824811 0.37411585673860659 0 0.099943090884668295 0.3480910572835958 0 0.1033759720708407 0.3643053834019227 0 0.083929533695391745 0.35660337242028117 0 0.099943090884668295 0.3480910572835958 0 0.1033759720708407 0.3643053834019227 0 0.1200608100739773 0.35848588950134452 0 0.11445130505528391 0.37838962635402829 0 0.1033759720708407 0.3643053834019227 0 0.088886958088824811 0.37411585673860659 0 0.11445130505528391 0.37838962635402829 0 0.1200608100739773 0.35848588950134452 0 0.13478233304891271 0.37461145378281258 0 0.11445130505528391 0.37838962635402829 0 0.1033759720708407 0.3643053834019227 0 0.1200608100739773 0.35848588950134452 0 0.099943090884668295 0.3480910572835958 0 0.1200608100739773 0.35848588950134452 0 0.1209993840093774 0.33876876373920523 0 0.10399594204621029 0.32783557853821638 0 0.1079826185732996 0.30660210867172522 0 0.1259941940107622 0.31774478333183409 0 0.1209993840093774 0.33876876373920523 0 0.10399594204621029 0.32783557853821638 0 0.1259941940107622 0.31774478333183409 0 0.10399594204621029 0.32783557853821638 0 0.087611472085348627 0.31718056243021903 0 0.1079826185732996 0.30660210867172522 0 0.099943090884668295 0.3480910572835958 0 0.10399594204621029 0.32783557853821638 0 0.07924635150035915 0.33849435861404348 0 0.099943090884668295 0.3480910572835958 0 0.1209993840093774 0.33876876373920523 0 0.10399594204621029 0.32783557853821638 0 0.10399594204621029 0.32783557853821638 0 0.07924635150035915 0.33849435861404348 0 0.087611472085348627 0.31718056243021903 0 0.07924635150035915 0.33849435861404348 0 0.087611472085348627 0.31718056243021903 0 0.06576578281598279 0.31326873961317758 0 0.07924635150035915 0.33849435861404348 0 0.06576578281598279 0.31326873961317758 0 0.056489600926096173 0.33349352312583641 0 0.07924635150035915 0.33849435861404348 0 0.066339084184849378 0.36090986309846101 0 0.056489600926096173 0.33349352312583641 0 0.07924635150035915 0.33849435861404348 0 0.083929533695391745 0.35660337242028117 0 0.066339084184849378 0.36090986309846101 0 0.099943090884668295 0.3480910572835958 0 0.07924635150035915 0.33849435861404348 0 0.083929533695391745 0.35660337242028117 0 0.1033759720708407 0.3643053834019227 0 0.083929533695391745 0.35660337242028117 0 0.088886958088824811 0.37411585673860659 0 0.083929533695391745 0.35660337242028117 0 0.088886958088824811 0.37411585673860659 0 0.066339084184849378 0.36090986309846101 0 0.0704815404319106 0.38148610243286379 0 0.088886958088824811 0.37411585673860659 0 0.066339084184849378 0.36090986309846101 0 0.045416565938073507 0.37970448820897013 0 0.0704815404319106 0.38148610243286379 0 0.066339084184849378 0.36090986309846101 0 0.045416565938073507 0.37970448820897013 0 0.066339084184849378 0.36090986309846101 0 0.043737704263538603 0.34993835933068712 0 0.066339084184849378 0.36090986309846101 0 0.043737704263538603 0.34993835933068712 0 0.056489600926096173 0.33349352312583641 0 0.045416565938073507 0.37970448820897013 0 0.043737704263538603 0.34993835933068712 0 0.018324682132475789 0.37135813651886318 0 0.043737704263538603 0.34993835933068712 0 0.018324682132475789 0.37135813651886318 0 0.01526557131014524 0.34388807842494001 0 -0.008767201673121932 0.36301178482875629 0 0.0035961909011746991 0.38454086690399292 0 0.018324682132475789 0.37135813651886318 0 -0.008767201673121932 0.36301178482875629 0 0.018324682132475789 0.37135813651886318 0 -0.008767201673121932 0.36301178482875629 0 0.018324682132475789 0.37135813651886318 0 0.01526557131014524 0.34388807842494001 0 -0.0067385281896786284 0.30985562035238162 0 0.0017414686764784179 0.32714726761812218 0 0.017502252359425909 0.31468453226340859 0 -0.011358049858765529 0.34271416703683821 0 0.01526557131014524 0.34388807842494001 0 0.0017414686764784179 0.32714726761812218 0 0.01526557131014524 0.34388807842494001 0 0.0017414686764784179 0.32714726761812218 0 0.017502252359425909 0.31468453226340859 0 0.01526557131014524 0.34388807842494001 0 0.017502252359425909 0.31468453226340859 0 0.033860174052505972 0.33339398776435902 0 0.043737704263538603 0.34993835933068712 0 0.01526557131014524 0.34388807842494001 0 0.033860174052505972 0.33339398776435902 0 0.017502252359425909 0.31468453226340859 0 0.037524690385732883 0.31636502335383287 0 0.033860174052505972 0.33339398776435902 0 0.037524690385732883 0.31636502335383287 0 0.033860174052505972 0.33339398776435902 0 0.056489600926096173 0.33349352312583641 0 0.043737704263538603 0.34993835933068712 0 0.033860174052505972 0.33339398776435902 0 0.056489600926096173 0.33349352312583641 0 0.06576578281598279 0.31326873961317758 0 0.037524690385732883 0.31636502335383287 0 0.056489600926096173 0.33349352312583641 0 0.06576578281598279 0.31326873961317758 0 0.037524690385732883 0.31636502335383287 0 0.046922311036567903 0.29804725226847678 0 0.06576578281598279 0.31326873961317758 0 0.046922311036567903 0.29804725226847678 0 0.066101667862605351 0.29375783814199752 0 0.046922311036567903 0.29804725226847678 0 0.055562167721486262 0.28226846668378702 0 0.066101667862605351 0.29375783814199752 0 0.046922311036567903 0.29804725226847678 0 0.055562167721486262 0.28226846668378702 0 0.032645517543216832 0.2816001176645751 0 0.046922311036567903 0.29804725226847678 0 0.032645517543216832 0.2816001176645751 0 0.025202396726532222 0.29846564220055599 0 0.037524690385732883 0.31636502335383287 0 0.046922311036567903 0.29804725226847678 0 0.025202396726532222 0.29846564220055599 0 0.017502252359425909 0.31468453226340859 0 0.037524690385732883 0.31636502335383287 0 0.025202396726532222 0.29846564220055599 0 0.017502252359425909 0.31468453226340859 0 0.025202396726532222 0.29846564220055599 0 0.0067024598137256546 0.29774090349646121 0 0.032645517543216832 0.2816001176645751 0 0.025202396726532222 0.29846564220055599 0 0.01407717225868887 0.28115123895430522 0 -0.0094230267692259947 0.28411503643911262 0 0.0067024598137256546 0.29774090349646121 0 0.01407717225868887 0.28115123895430522 0 0.025202396726532222 0.29846564220055599 0 0.0067024598137256546 0.29774090349646121 0 0.01407717225868887 0.28115123895430522 0 -0.0067385281896786284 0.30985562035238162 0 0.017502252359425909 0.31468453226340859 0 0.0067024598137256546 0.29774090349646121 0 0.01094534689583296 0.25165583173153228 0 0.0051221579672991388 0.26796090467185169 0 0.025946871203154 0.25652283541899262 0 -0.0026056055883075658 0.24895329681263881 0 0.01094534689583296 0.25165583173153228 0 0.0051221579672991388 0.26796090467185169 0 0.0051221579672991388 0.26796090467185169 0 0.025946871203154 0.25652283541899262 0 0.0051221579672991388 0.26796090467185169 0 0.01407717225868887 0.28115123895430522 0 0.025946871203154 0.25652283541899262 0 -0.0094230267692259947 0.28411503643911262 0 0.0051221579672991388 0.26796090467185169 0 0.01407717225868887 0.28115123895430522 0 0.032645517543216832 0.2816001176645751 0 0.01407717225868887 0.28115123895430522 0 0.025946871203154 0.25652283541899262 0 0.016746840900060182 0.2431358424122595 0 0.01094534689583296 0.25165583173153228 0 0.025946871203154 0.25652283541899262 0 0.046771584439008862 0.24508476616613351 0 0.025946871203154 0.25652283541899262 0 0.046771584439008862 0.24508476616613351 0 0.025946871203154 0.25652283541899262 0 0.044468933048086363 0.26535678228386372 0 0.032645517543216832 0.2816001176645751 0 0.025946871203154 0.25652283541899262 0 0.044468933048086363 0.26535678228386372 0 0.055562167721486262 0.28226846668378702 0 0.032645517543216832 0.2816001176645751 0 0.044468933048086363 0.26535678228386372 0 0.055562167721486262 0.28226846668378702 0 0.044468933048086363 0.26535678228386372 0 0.061418524333565851 0.26130772548583059 0 0.046771584439008862 0.24508476616613351 0 0.044468933048086363 0.26535678228386372 0 0.061418524333565851 0.26130772548583059 0 0.067596297674863706 0.23364669691327439 0 0.061418524333565851 0.26130772548583059 0 0.083768416296335579 0.26124594033034959 0 0.083768416296335579 0.26124594033034959 0 0.093672696089705451 0.27710772592249011 0 0.074749505162729712 0.27899258868966481 0 0.061418524333565851 0.26130772548583059 0 0.083768416296335579 0.26124594033034959 0 0.074749505162729712 0.27899258868966481 0 0.055562167721486262 0.28226846668378702 0 0.061418524333565851 0.26130772548583059 0 0.074749505162729712 0.27899258868966481 0 0.074749505162729712 0.27899258868966481 0 0.066101667862605351 0.29375783814199752 0 0.087508572576260116 0.29621214345488139 0 0.055562167721486262 0.28226846668378702 0 0.074749505162729712 0.27899258868966481 0 0.066101667862605351 0.29375783814199752 0 0.06576578281598279 0.31326873961317758 0 0.066101667862605351 0.29375783814199752 0 0.087508572576260116 0.29621214345488139 0 0.087611472085348627 0.31718056243021903 0 0.06576578281598279 0.31326873961317758 0 0.087508572576260116 0.29621214345488139 0 0.093672696089705451 0.27710772592249011 0 0.074749505162729712 0.27899258868966481 0 0.087508572576260116 0.29621214345488139 0 0.087508572576260116 0.29621214345488139 0 0.1079826185732996 0.30660210867172522 0 0.1117530365091115 0.28504395650663239 0 0.093672696089705451 0.27710772592249011 0 0.087508572576260116 0.29621214345488139 0 0.1117530365091115 0.28504395650663239 0 0.087611472085348627 0.31718056243021903 0 0.087508572576260116 0.29621214345488139 0 0.1079826185732996 0.30660210867172522 0 0.1079826185732996 0.30660210867172522 0 0.1308212248675007 0.29632315628437261 0 0.1259941940107622 0.31774478333183409 0 0.1079826185732996 0.30660210867172522 0 0.1117530365091115 0.28504395650663239 0 0.1308212248675007 0.29632315628437261 0 0.1117530365091115 0.28504395650663239 0 0.112848016558421 0.25902783362780168 0 0.13572250499446459 0.27520570383352688 0 0.092993361860390117 0.24179254247101431 0 0.083768416296335579 0.26124594033034959 0 0.112848016558421 0.25902783362780168 0 0.093672696089705451 0.27710772592249011 0 0.1117530365091115 0.28504395650663239 0 0.112848016558421 0.25902783362780168 0 0.083768416296335579 0.26124594033034959 0 0.093672696089705451 0.27710772592249011 0 0.112848016558421 0.25902783362780168 0 0.15004699386833531 0.26498008233206272 0 0.13572250499446459 0.27520570383352688 0 0.15713357217172449 0.27694301866985999 0 0.15004699386833531 0.26498008233206272 0 0.1390278087719011 0.25771973242997082 0 0.13572250499446459 0.27520570383352688 0 0.13572250499446459 0.27520570383352688 0 0.14798843058692579 0.29082500400037742 0 0.15713357217172449 0.27694301866985999 0 0.15004699386833531 0.26498008233206272 0 0.15276295273936141 0.25135955429551371 0 0.16558813066422501 0.26367240243144241 0 0.15004699386833531 0.26498008233206272 0 0.15276295273936141 0.25135955429551371 0 0.1390278087719011 0.25771973242997082 0 0.13305648654768229 0.2393751701912748 0 0.112848016558421 0.25902783362780168 0 0.1390278087719011 0.25771973242997082 0 0.112848016558421 0.25902783362780168 0 0.1390278087719011 0.25771973242997082 0 0.13572250499446459 0.27520570383352688 0 0.13572250499446459 0.27520570383352688 0 0.1308212248675007 0.29632315628437261 0 0.14798843058692579 0.29082500400037742 0 0.1117530365091115 0.28504395650663239 0 0.13572250499446459 0.27520570383352688 0 0.1308212248675007 0.29632315628437261 0 0.1308212248675007 0.29632315628437261 0 0.1496961979673771 0.31215552550138831 0 0.1259941940107622 0.31774478333183409 0 0.1496961979673771 0.31215552550138831 0 0.14798843058692579 0.29082500400037742 0 0.16656865293356199 0.29349761571273891 0 0.1308212248675007 0.29632315628437261 0 0.1496961979673771 0.31215552550138831 0 0.14798843058692579 0.29082500400037742 0 0.16656865293356199 0.29349761571273891 0 0.17008587947959991 0.27577691975538748 0 0.15713357217172449 0.27694301866985999 0 0.14798843058692579 0.29082500400037742 0 0.16656865293356199 0.29349761571273891 0 0.15713357217172449 0.27694301866985999 0 0.1496961979673771 0.31215552550138831 0 0.16656865293356199 0.29349761571273891 0 0.17520763013880061 0.32380300036612347 0 0.18539659356200849 0.29609287155975961 0 0.17520763013880061 0.32380300036612347 0 0.16656865293356199 0.29349761571273891 0 0.18539659356200849 0.29609287155975961 0 0.17520763013880061 0.32380300036612347 0 0.16656865293356199 0.29349761571273891 0 0.1812658677642616 0.27958342564749289 0 0.17008587947959991 0.27577691975538748 0 0.18539659356200849 0.29609287155975961 0 0.1812658677642616 0.27958342564749289 0 0.1955855569852204 0.26838274275339707 0 0.16656865293356199 0.29349761571273891 0 0.18539659356200849 0.29609287155975961 0 0.1812658677642616 0.27958342564749289 0 0.1812658677642616 0.27958342564749289 0 0.1784829916698483 0.26728815843226528 0 0.1955855569852204 0.26838274275339707 0 0.1812658677642616 0.27958342564749289 0 0.1784829916698483 0.26728815843226528 0 0.17008587947959991 0.27577691975538748 0 0.17008587947959991 0.27577691975538748 0 0.15713357217172449 0.27694301866985999 0 0.16558813066422501 0.26367240243144241 0 0.1784829916698483 0.26728815843226528 0 0.17008587947959991 0.27577691975538748 0 0.16558813066422501 0.26367240243144241 0 0.15004699386833531 0.26498008233206272 0 0.15713357217172449 0.27694301866985999 0 0.16558813066422501 0.26367240243144241 0 0.15713357217172449 0.27694301866985999 0 0.16558813066422501 0.26367240243144241 0 0.15276295273936141 0.25135955429551371 0 0.16558813066422501 0.26367240243144241 0 0.17404268915672511 0.25040178619302461 0 0.16558813066422501 0.26367240243144241 0 0.17404268915672511 0.25040178619302461 0 0.17404268915672511 0.25040178619302461 0 0.1955855569852204 0.26838274275339707 0 0.1784829916698483 0.26728815843226528 0 0.16558813066422501 0.26367240243144241 0 0.17404268915672511 0.25040178619302461 0 0.1784829916698483 0.26728815843226528 0 0.17404268915672511 0.25040178619302461 0 0.1955855569852204 0.26838274275339707 0 0.18979826926286991 0.24914387649513439 0 0.17404268915672511 0.25040178619302461 0 0.1955855569852204 0.26838274275339707 0 0.20402072125963189 0.24544228464806081 0 0.1955855569852204 0.26838274275339707 0 0.20593710855916331 0.25924574061759159 0 0.20402072125963189 0.24544228464806081 0 0.18979826926286991 0.24914387649513439 0 0.1955855569852204 0.26838274275339707 0 0.20402072125963189 0.24544228464806081 0 0.1955855569852204 0.26838274275339707 0 0.1955855569852204 0.26838274275339707 0 0.20442060044334751 0.26801137068648062 0 0.20593710855916331 0.25924574061759159 0 0.18539659356200849 0.29609287155975961 0 0.1955855569852204 0.26838274275339707 0 0.19780057540760321 0.27023152864162298 0 0.1955855569852204 0.26838274275339707 0 0.19780057540760321 0.27023152864162298 0 0.20442060044334751 0.26801137068648062 0 0.1955855569852204 0.26838274275339707 0 0.19780057540760321 0.27023152864162298 0 0.19780057540760321 0.27023152864162298 0 0.20451542399702141 0.27291185282870872 0 0.20442060044334751 0.26801137068648062 0 0.19780057540760321 0.27023152864162298 0 0.20451542399702141 0.27291185282870872 0 0.20432413386200959 0.28143586390314812 0 0.20451542399702141 0.27291185282870872 0 0.2115163862751254 0.27196864808358318 0 0.20432413386200959 0.28143586390314812 0 0.20442060044334751 0.26801137068648062 0 0.2115163862751254 0.27196864808358318 0 0.21173913500918309 0.26413569389890162 0 0.20451542399702141 0.27291185282870872 0 0.20442060044334751 0.26801137068648062 0 0.2115163862751254 0.27196864808358318 0 0.2115163862751254 0.27196864808358318 0 0.21173913500918309 0.26413569389890162 0 0.21893201014849051 0.26486296487996119 0 0.21864022363273311 0.27221075524592447 0 0.2115163862751254 0.27196864808358318 0 0.21893201014849051 0.26486296487996119 0 0.2115163862751254 0.27196864808358318 0 0.21760435835962741 0.28053547440563131 0 0.20432413386200959 0.28143586390314812 0 0.21864022363273311 0.27221075524592447 0 0.2115163862751254 0.27196864808358318 0 0.21760435835962741 0.28053547440563131 0 0.20402072125963189 0.24544228464806081 0 0.20593710855916331 0.25924574061759159 0 0.21732544452201211 0.25625544438720987 0 0.20442060044334751 0.26801137068648062 0 0.20593710855916331 0.25924574061759159 0 0.21173913500918309 0.26413569389890162 0 0.20593710855916331 0.25924574061759159 0 0.21173913500918309 0.26413569389890162 0 0.21732544452201211 0.25625544438720987 0 0.21173913500918309 0.26413569389890162 0 0.21732544452201211 0.25625544438720987 0 0.21893201014849051 0.26486296487996119 0 0.22100716546316321 0.24231306833135219 0 0.21732544452201211 0.25625544438720987 0 0.23020341775841399 0.25395228280595811 0 0.22738918527966459 0.26345878176993348 0 0.23822371080382529 0.26954681149017151 0 0.2357229001843596 0.26108145291922907 0 0.23020341775841399 0.25395228280595811 0 0.22738918527966459 0.26345878176993348 0 0.2357229001843596 0.26108145291922907 0 0.21732544452201211 0.25625544438720987 0 0.23020341775841399 0.25395228280595811 0 0.22738918527966459 0.26345878176993348 0 0.21732544452201211 0.25625544438720987 0 0.22738918527966459 0.26345878176993348 0 0.21893201014849051 0.26486296487996119 0 0.21760435835962741 0.28053547440563131 0 0.2263699844037837 0.27290012999933039 0 0.22690195842692451 0.28915021565927368 0 0.22738918527966459 0.26345878176993348 0 0.21893201014849051 0.26486296487996119 0 0.2263699844037837 0.27290012999933039 0 0.21864022363273311 0.27221075524592447 0 0.21893201014849051 0.26486296487996119 0 0.2263699844037837 0.27290012999933039 0 0.2263699844037837 0.27290012999933039 0 0.23973458469507941 0.28034364266290562 0 0.22690195842692451 0.28915021565927368 0 0.21864022363273311 0.27221075524592447 0 0.21760435835962741 0.28053547440563131 0 0.2263699844037837 0.27290012999933039 0 0.22738918527966459 0.26345878176993348 0 0.2263699844037837 0.27290012999933039 0 0.23822371080382529 0.26954681149017151 0 0.23822371080382529 0.26954681149017151 0 0.23973458469507941 0.28034364266290562 0 0.24795174679602469 0.27353118177312358 0 0.2263699844037837 0.27290012999933039 0 0.23822371080382529 0.26954681149017151 0 0.23973458469507941 0.28034364266290562 0 0.23973458469507941 0.28034364266290562 0 0.24795174679602469 0.27353118177312358 0 0.25501703805890008 0.28225930281985478 0 0.23822371080382529 0.26954681149017151 0 0.24795174679602469 0.27353118177312358 0 0.2476054331824718 0.26498821268157913 0 0.2476054331824718 0.26498821268157913 0 0.24445832253036559 0.2549088082697154 0 0.2357229001843596 0.26108145291922907 0 0.2476054331824718 0.26498821268157913 0 0.24445832253036559 0.2549088082697154 0 0.25094309503396839 0.25878134349415549 0 0.24445832253036559 0.2549088082697154 0 0.25483074441246178 0.25133398368052728 0 0.25033710606835441 0.24431151828744141 0 0.23020341775841399 0.25395228280595811 0 0.24445832253036559 0.2549088082697154 0 0.2357229001843596 0.26108145291922907 0 0.23531748857091911 0.24569614115830879 0 0.23020341775841399 0.25395228280595811 0 0.24445832253036559 0.2549088082697154 0 0.23822371080382529 0.26954681149017151 0 0.2476054331824718 0.26498821268157913 0 0.2357229001843596 0.26108145291922907 0 0.24384714108046629 0.30842271566885621 0 0.24171361470842759 0.29422316205106069 0 0.22527577366848969 0.31104940328365388 0 0.24384714108046629 0.30842271566885621 0 0.24171361470842759 0.29422316205106069 0 0.25502997555209289 0.29580644501725317 0 0.23973458469507941 0.28034364266290562 0 0.24171361470842759 0.29422316205106069 0 0.25501703805890008 0.28225930281985478 0 0.23973458469507941 0.28034364266290562 0 0.24171361470842759 0.29422316205106069 0 0.22690195842692451 0.28915021565927368 0 0.24171361470842759 0.29422316205106069 0 0.22690195842692451 0.28915021565927368 0 0.22527577366848969 0.31104940328365388 0 0.22690195842692451 0.28915021565927368 0 0.22527577366848969 0.31104940328365388 0 0.209960682097557 0.29584222917936193 0 0.22527577366848969 0.31104940328365388 0 0.209960682097557 0.29584222917936193 0 0.2013052109432264 0.31772577640824279 0 0.21760435835962741 0.28053547440563131 0 0.22690195842692451 0.28915021565927368 0 0.209960682097557 0.29584222917936193 0 0.21760435835962741 0.28053547440563131 0 0.209960682097557 0.29584222917936193 0 0.20432413386200959 0.28143586390314812 0 0.18539659356200849 0.29609287155975961 0 0.209960682097557 0.29584222917936193 0 0.20432413386200959 0.28143586390314812 0 0.18539659356200849 0.29609287155975961 0 0.1955855569852204 0.26838274275339707 0 0.18539659356200849 0.29609287155975961 0 0.19780057540760321 0.27023152864162298 0 0.20432413386200959 0.28143586390314812 0 0.18539659356200849 0.29609287155975961 0 0.209960682097557 0.29584222917936193 0 0.2013052109432264 0.31772577640824279 0 0.2013052109432264 0.31772577640824279 0 0.19844454306868639 0.34415628761553779 0 0.17520763013880061 0.32380300036612347 0 0.2013052109432264 0.31772577640824279 0 0.22413627097955391 0.33643223304448622 0 0.19844454306868639 0.34415628761553779 0 0.22527577366848969 0.31104940328365388 0 0.2013052109432264 0.31772577640824279 0 0.22413627097955391 0.33643223304448622 0 0.22527577366848969 0.31104940328365388 0 0.22413627097955391 0.33643223304448622 0 0.2472860627765491 0.32357026084747492 0 0.22413627097955391 0.33643223304448622 0 0.2472860627765491 0.32357026084747492 0 0.25184518342483059 0.34378895946634142 0 0.24384714108046629 0.30842271566885621 0 0.22527577366848969 0.31104940328365388 0 0.2472860627765491 0.32357026084747492 0 0.2429583931954305 0.37069002009758723 0 0.23616731273964389 0.35630971138457113 0 0.26312502976955421 0.36038202802699942 0 0.22413627097955391 0.33643223304448622 0 0.23616731273964389 0.35630971138457113 0 0.25184518342483059 0.34378895946634142 0 0.22413627097955391 0.33643223304448622 0 0.23616731273964389 0.35630971138457113 0 0.2157557028504497 0.35837482551335781 0 0.23616731273964389 0.35630971138457113 0 0.2157557028504497 0.35837482551335781 0 0.22314290443422211 0.38026105912524311 0 0.2429583931954305 0.37069002009758723 0 0.23616731273964389 0.35630971138457113 0 0.22314290443422211 0.38026105912524311 0 0.2157557028504497 0.35837482551335781 0 0.19688748303014211 0.37471483639695058 0 0.22314290443422211 0.38026105912524311 0 0.22413627097955391 0.33643223304448622 0 0.2157557028504497 0.35837482551335781 0 0.19844454306868639 0.34415628761553779 0 0.2157557028504497 0.35837482551335781 0 0.19844454306868639 0.34415628761553779 0 0.19688748303014211 0.37471483639695058 0 0.19844454306868639 0.34415628761553779 0 0.19688748303014211 0.37471483639695058 0 0.18123807691585681 0.35267117344395138 0 0.19688748303014211 0.37471483639695058 0 0.17063206162606209 0.36916861366865872 0 0.18123807691585681 0.35267117344395138 0 0.19688748303014211 0.37471483639695058 0 0.17063206162606209 0.36916861366865872 0 0.19347689567975129 0.38103208848569492 0 0.19688748303014211 0.37471483639695058 0 0.17063206162606209 0.36916861366865872 0 0.17063206162606209 0.36916861366865872 0 0.1453464358500198 0.3638272515850014 0 0.155566026596833 0.377969292792111 0 0.17063206162606209 0.36916861366865872 0 0.16501866671559259 0.35151312917248728 0 0.15600030654555841 0.36157024558602679 0 0.17063206162606209 0.36916861366865872 0 0.1453464358500198 0.3638272515850014 0 0.17063206162606209 0.36916861366865872 0 0.1453464358500198 0.3638272515850014 0 0.15600030654555841 0.36157024558602679 0 0.17063206162606209 0.36916861366865872 0 0.15600030654555841 0.36157024558602679 0 0.16501866671559259 0.35151312917248728 0 0.15607251807828881 0.33388146262819252 0 0.15018102139080211 0.3495392324554869 0 0.16501866671559259 0.35151312917248728 0 0.15600030654555841 0.36157024558602679 0 0.15018102139080211 0.3495392324554869 0 0.17063206162606209 0.36916861366865872 0 0.16501866671559259 0.35151312917248728 0 0.18123807691585681 0.35267117344395138 0 0.19844454306868639 0.34415628761553779 0 0.18123807691585681 0.35267117344395138 0 0.17520763013880061 0.32380300036612347 0 0.16501866671559259 0.35151312917248728 0 0.18123807691585681 0.35267117344395138 0 0.17520763013880061 0.32380300036612347 0 0.18539659356200849 0.29609287155975961 0 0.2013052109432264 0.31772577640824279 0 0.17520763013880061 0.32380300036612347 0 0.1496961979673771 0.31215552550138831 0 0.17520763013880061 0.32380300036612347 0 0.15607251807828881 0.33388146262819252 0 0.16501866671559259 0.35151312917248728 0 0.17520763013880061 0.32380300036612347 0 0.16501866671559259 0.35151312917248728 0 0.17520763013880061 0.32380300036612347 0 0.15607251807828881 0.33388146262819252 0 0.15607251807828881 0.33388146262819252 0 0.1402590741788716 0.33239642564547628 0 0.15018102139080211 0.3495392324554869 0 0.1402590741788716 0.33239642564547628 0 0.1355319235171705 0.34878637665056839 0 0.15018102139080211 0.3495392324554869 0 0.1496961979673771 0.31215552550138831 0 0.15607251807828881 0.33388146262819252 0 0.1402590741788716 0.33239642564547628 0 0.1496961979673771 0.31215552550138831 0 0.1259941940107622 0.31774478333183409 0 0.1402590741788716 0.33239642564547628 0 0.1209993840093774 0.33876876373920523 0 0.1259941940107622 0.31774478333183409 0 0.1402590741788716 0.33239642564547628 0 0.1209993840093774 0.33876876373920523 0 0.1402590741788716 0.33239642564547628 0 0.1355319235171705 0.34878637665056839 0 0.1200608100739773 0.35848588950134452 0 0.1209993840093774 0.33876876373920523 0 0.1355319235171705 0.34878637665056839 0 0.1200608100739773 0.35848588950134452 0 0.1355319235171705 0.34878637665056839 0 0.1453464358500198 0.3638272515850014 0 0.1200608100739773 0.35848588950134452 0 0.1453464358500198 0.3638272515850014 0 0.1200608100739773 0.35848588950134452 0 0.13478233304891271 0.37461145378281258 0 0.1453464358500198 0.3638272515850014 0 0.13478233304891271 0.37461145378281258 0 0.1453464358500198 0.3638272515850014 0 0.14477675113470831 0.3759010681802315 0 0.1453464358500198 0.3638272515850014 0 0.155566026596833 0.377969292792111 0 0.14477675113470831 0.3759010681802315 0 0.1453464358500198 0.3638272515850014 0 0.15600030654555841 0.36157024558602679 0 0.15018102139080211 0.3495392324554869 0 0.1355319235171705 0.34878637665056839 0 0.1453464358500198 0.3638272515850014 0 0.15018102139080211 0.3495392324554869 0 0.14378417620653661 0.40077733470958282 0 0.1551710587387968 0.41162287532599029 0 0.15767779494385459 0.39458513727216338 0 0.14378417620653661 0.40077733470958282 0 0.1434122090430679 0.38719627456100092 0 0.15767779494385459 0.39458513727216338 0 0.155566026596833 0.377969292792111 0 0.1434122090430679 0.38719627456100092 0 0.15767779494385459 0.39458513727216338 0 0.13478233304891271 0.37461145378281258 0 0.14477675113470831 0.3759010681802315 0 0.1434122090430679 0.38719627456100092 0 0.155566026596833 0.377969292792111 0 0.14477675113470831 0.3759010681802315 0 0.1434122090430679 0.38719627456100092 0 0.11445130505528391 0.37838962635402829 0 0.13478233304891271 0.37461145378281258 0 0.12603149981169259 0.39552217948131352 0 0.13478233304891271 0.37461145378281258 0 0.1434122090430679 0.38719627456100092 0 0.12603149981169259 0.39552217948131352 0 0.13478233304891271 0.37461145378281258 0 0.12603149981169259 0.39552217948131352 0 0.14378417620653661 0.40077733470958282 0 0.1434122090430679 0.38719627456100092 0 0.12603149981169259 0.39552217948131352 0 0.14378417620653661 0.40077733470958282 0 0.12603149981169259 0.39552217948131352 0 0.13662831849527099 0.41496020690744628 0 0.1172806665744727 0.41643290517981418 0 0.12603149981169259 0.39552217948131352 0 0.13662831849527099 0.41496020690744628 0 0.1172806665744727 0.41643290517981418 0 0.13662831849527099 0.41496020690744628 0 0.1281182232964162 0.43334209902361592 0 0.13662831849527099 0.41496020690744628 0 0.1281182232964162 0.43334209902361592 0 0.14811772369231899 0.43410879161263483 0 0.13662831849527099 0.41496020690744628 0 0.14811772369231899 0.43410879161263483 0 0.1551710587387968 0.41162287532599029 0 0.14378417620653661 0.40077733470958282 0 0.13662831849527099 0.41496020690744628 0 0.1551710587387968 0.41162287532599029 0 0.1551710587387968 0.41162287532599029 0 0.16726089299479369 0.42321770356913341 0 0.17746104653016539 0.40221655297796699 0 0.14811772369231899 0.43410879161263483 0 0.1551710587387968 0.41162287532599029 0 0.16726089299479369 0.42321770356913341 0 0.14811772369231899 0.43410879161263483 0 0.16726089299479369 0.42321770356913341 0 0.1640653489828264 0.44124429264736198 0 0.16726089299479369 0.42321770356913341 0 0.17878673124147809 0.43597176529554837 0 0.1640653489828264 0.44124429264736198 0 0.16726089299479369 0.42321770356913341 0 0.17878673124147809 0.43597176529554837 0 0.19381621151011519 0.41968330511676039 0 0.16726089299479369 0.42321770356913341 0 0.17746104653016539 0.40221655297796699 0 0.19381621151011519 0.41968330511676039 0 0.1551710587387968 0.41162287532599029 0 0.17746104653016539 0.40221655297796699 0 0.15767779494385459 0.39458513727216338 0 0.17746104653016539 0.40221655297796699 0 0.15767779494385459 0.39458513727216338 0 0.1704160090158448 0.38609499218839138 0 0.17063206162606209 0.36916861366865872 0 0.155566026596833 0.377969292792111 0 0.1704160090158448 0.38609499218839138 0 0.155566026596833 0.377969292792111 0 0.15767779494385459 0.39458513727216338 0 0.1704160090158448 0.38609499218839138 0 0.17063206162606209 0.36916861366865872 0 0.1704160090158448 0.38609499218839138 0 0.19347689567975129 0.38103208848569492 0 0.17063206162606209 0.36916861366865872 0 0.19347689567975129 0.38103208848569492 0 0.17746104653016539 0.40221655297796699 0 0.1704160090158448 0.38609499218839138 0 0.19347689567975129 0.38103208848569492 0 0.19688748303014211 0.37471483639695058 0 0.19347689567975129 0.38103208848569492 0 0.21632172973344069 0.39289556330273051 0 0.19347689567975129 0.38103208848569492 0 0.19858318434926611 0.40093459763361189 0 0.21632172973344069 0.39289556330273051 0 0.17746104653016539 0.40221655297796699 0 0.19347689567975129 0.38103208848569492 0 0.19858318434926611 0.40093459763361189 0 0.19858318434926611 0.40093459763361189 0 0.21632172973344069 0.39289556330273051 0 0.2138074417487569 0.41238682576020869 0 0.19688748303014211 0.37471483639695058 0 0.22314290443422211 0.38026105912524311 0 0.19347689567975129 0.38103208848569492 0 0.21632172973344069 0.39289556330273051 0 0.19688748303014211 0.37471483639695058 0 0.21632172973344069 0.39289556330273051 0 0.22314290443422211 0.38026105912524311 0 0.21632172973344069 0.39289556330273051 0 0.22314290443422211 0.38026105912524311 0 0.23476818688298121 0.39014655829849298 0 0.21632172973344069 0.39289556330273051 0 0.23916656378713649 0.40475903811975378 0 0.23476818688298121 0.39014655829849298 0 0.21632172973344069 0.39289556330273051 0 0.23916656378713649 0.40475903811975378 0 0.21632172973344069 0.39289556330273051 0 0.23916656378713649 0.40475903811975378 0 0.2138074417487569 0.41238682576020869 0 0.23916656378713649 0.40475903811975378 0 0.23476818688298121 0.39014655829849298 0 0.2493983258383019 0.38580728185353569 0 0.23916656378713649 0.40475903811975378 0 0.25114807036015657 0.39331942424817662 0 0.2564460418808997 0.40016640571873618 0 0.23916656378713649 0.40475903811975378 0 0.2493983258383019 0.38580728185353569 0 0.25114807036015657 0.39331942424817662 0 0.23916656378713649 0.40475903811975378 0 0.25391694587654512 0.41241900999998071 0 0.2564460418808997 0.40016640571873618 0 0.23916656378713649 0.40475903811975378 0 0.2493983258383019 0.38580728185353569 0 0.22314290443422211 0.38026105912524311 0 0.23476818688298121 0.39014655829849298 0 0.2493983258383019 0.38580728185353569 0 0.22314290443422211 0.38026105912524311 0 0.2493983258383019 0.38580728185353569 0 0.2429583931954305 0.37069002009758723 0 0.22314290443422211 0.38026105912524311 0 0.2493983258383019 0.38580728185353569 0 0.24509904314710529 0.42490707984107301 0 0.22766447350595481 0.4260637567469957 0 0.23654065088067719 0.43849220043088721 0 0.24509904314710529 0.42490707984107301 0 0.23654065088067719 0.43849220043088721 0 0.25112011551340951 0.43762845203734652 0 0.23916656378713649 0.40475903811975378 0 0.24509904314710529 0.42490707984107301 0 0.22766447350595481 0.4260637567469957 0 0.23916656378713649 0.40475903811975378 0 0.24509904314710529 0.42490707984107301 0 0.25391694587654512 0.41241900999998071 0 0.23916656378713649 0.40475903811975378 0 0.25391694587654512 0.41241900999998071 0 0.23916656378713649 0.40475903811975378 0 0.22766447350595481 0.4260637567469957 0 0.23916656378713649 0.40475903811975378 0 0.22766447350595481 0.4260637567469957 0 0.2138074417487569 0.41238682576020869 0 0.22766447350595481 0.4260637567469957 0 0.2161623832247733 0.44736847537423768 0 0.22766447350595481 0.4260637567469957 0 0.2161623832247733 0.44736847537423768 0 0.23654065088067719 0.43849220043088721 0 0.22766447350595481 0.4260637567469957 0 0.20897283121626359 0.42929617073859733 0 0.2138074417487569 0.41238682576020869 0 0.22766447350595481 0.4260637567469957 0 0.20897283121626359 0.42929617073859733 0 0.2161623832247733 0.44736847537423768 0 0.20897283121626359 0.42929617073859733 0 0.2138074417487569 0.41238682576020869 0 0.19381621151011519 0.41968330511676039 0 0.19858318434926611 0.40093459763361189 0 0.2138074417487569 0.41238682576020869 0 0.19381621151011519 0.41968330511676039 0 0.17746104653016539 0.40221655297796699 0 0.19858318434926611 0.40093459763361189 0 0.19381621151011519 0.41968330511676039 0 0.17878673124147809 0.43597176529554837 0 0.19381621151011519 0.41968330511676039 0 0.19341364609171771 0.44097849069478418 0 0.20897283121626359 0.42929617073859733 0 0.19381621151011519 0.41968330511676039 0 0.19341364609171771 0.44097849069478418 0 0.19341364609171771 0.44097849069478418 0 0.19455577782923891 0.45704669870506082 0 0.2161623832247733 0.44736847537423768 0 0.19341364609171771 0.44097849069478418 0 0.19455577782923891 0.45704669870506082 0 0.17537755662793769 0.45473503444970242 0 0.19455577782923891 0.45704669870506082 0 0.20466029294359181 0.46867319400147978 0 0.18316501025817411 0.47347829900510019 0 0.20466029294359181 0.46867319400147978 0 0.22542351870468641 0.45787809466320439 0 0.22027943230701411 0.47459032658937123 0 0.19455577782923891 0.45704669870506082 0 0.20466029294359181 0.46867319400147978 0 0.2161623832247733 0.44736847537423768 0 0.20466029294359181 0.46867319400147978 0 0.2161623832247733 0.44736847537423768 0 0.22542351870468641 0.45787809466320439 0 0.20466029294359181 0.46867319400147978 0 0.2161623832247733 0.44736847537423768 0 0.20897283121626359 0.42929617073859733 0 0.19341364609171771 0.44097849069478418 0 0.2161623832247733 0.44736847537423768 0 0.2161623832247733 0.44736847537423768 0 0.22542351870468641 0.45787809466320439 0 0.23654065088067719 0.43849220043088721 0 0.22542351870468641 0.45787809466320439 0 0.23654065088067719 0.43849220043088721 0 0.2385539516073015 0.45149374772085971 0 0.22542351870468641 0.45787809466320439 0 0.23508279398225651 0.46856866799050528 0 0.2385539516073015 0.45149374772085971 0 0.22542351870468641 0.45787809466320439 0 0.23508279398225651 0.46856866799050528 0 0.22027943230701411 0.47459032658937123 0 0.23508279398225651 0.46856866799050528 0 0.2457842156422255 0.45965373450847707 0 0.2385539516073015 0.45149374772085971 0 0.23508279398225651 0.46856866799050528 0 0.2457842156422255 0.45965373450847707 0 0.24931202994806331 0.46984700064989932 0 0.2457842156422255 0.45965373450847707 0 0.24982990964186941 0.44903490227389509 0 0.2385539516073015 0.45149374772085971 0 0.24982990964186941 0.44903490227389509 0 0.23654065088067719 0.43849220043088721 0 0.25112011551340951 0.43762845203734652 0 0.24982990964186941 0.44903490227389509 0 0.23654065088067719 0.43849220043088721 0 0.2385539516073015 0.45149374772085971 0 0.24674937280290141 0.5 0 0.2409519778159773 0.49467719108119201 0 0.21724840223174541 0.5 0 0.2409519778159773 0.49467719108119201 0 0.2420673106971433 0.48206252910431419 0 0.23227625273221139 0.48811635827534339 0 0.2420673106971433 0.48206252910431419 0 0.2290306321765293 0.48339816106090161 0 0.23227625273221139 0.48811635827534339 0 0.2409519778159773 0.49467719108119201 0 0.2490708322414838 0.48724336808070379 0 0.25573586388865649 0.48982272674195521 0 0.2409519778159773 0.49467719108119201 0 0.2490708322414838 0.48724336808070379 0 0.2420673106971433 0.48206252910431419 0 0.2490708322414838 0.48724336808070379 0 0.2420673106971433 0.48206252910431419 0 0.25511973798261001 0.48042567510157669 0 0.24931202994806331 0.46984700064989932 0 0.2420673106971433 0.48206252910431419 0 0.25511973798261001 0.48042567510157669 0 0.23508279398225651 0.46856866799050528 0 0.24931202994806331 0.46984700064989932 0 0.2420673106971433 0.48206252910431419 0 0.23508279398225651 0.46856866799050528 0 0.2420673106971433 0.48206252910431419 0 0.2290306321765293 0.48339816106090161 0 0.23508279398225651 0.46856866799050528 0 0.2290306321765293 0.48339816106090161 0 0.22027943230701411 0.47459032658937123 0 0.2290306321765293 0.48339816106090161 0 0.22027943230701411 0.47459032658937123 0 0.21941123680090691 0.48309664450575979 0 0.2409519778159773 0.49467719108119201 0 0.21705509023919561 0.49232755185496557 0 0.2290306321765293 0.48339816106090161 0 0.21941123680090691 0.48309664450575979 0 0.21705509023919561 0.49232755185496557 0 0.2409519778159773 0.49467719108119201 0 0.21724840223174541 0.5 0 0.21705509023919561 0.49232755185496557 0 0.2290306321765293 0.48339816106090161 0 0.23227625273221139 0.48811635827534339 0 0.21705509023919561 0.49232755185496557 0 0.2409519778159773 0.49467719108119201 0 0.23227625273221139 0.48811635827534339 0 0.21705509023919561 0.49232755185496557 0 0.21724840223174541 0.5 0 0.21705509023919561 0.49232755185496557 0 0.19315820266241529 0.48997791262872448 0 0.21705509023919561 0.49232755185496557 0 0.19315820266241529 0.48997791262872448 0 0.21705509023919561 0.49232755185496557 0 0.2112797924808886 0.48207053851780068 0 0.19315820266241529 0.48997791262872448 0 0.21941123680090691 0.48309664450575979 0 0.21705509023919561 0.49232755185496557 0 0.2112797924808886 0.48207053851780068 0 0.20466029294359181 0.46867319400147978 0 0.22027943230701411 0.47459032658937123 0 0.2112797924808886 0.48207053851780068 0 0.22027943230701411 0.47459032658937123 0 0.21941123680090691 0.48309664450575979 0 0.2112797924808886 0.48207053851780068 0 0.20466029294359181 0.46867319400147978 0 0.19315820266241529 0.48997791262872448 0 0.18316501025817411 0.47347829900510019 0 0.20466029294359181 0.46867319400147978 0 0.2112797924808886 0.48207053851780068 0 0.19315820266241529 0.48997791262872448 0 0.20466029294359181 0.46867319400147978 0 0.19315820266241529 0.48997791262872448 0 0.21724840223174541 0.5 0 0.19315820266241529 0.48997791262872448 0 0.1877474316605893 0.49999999999999589 0 0.19315820266241529 0.48997791262872448 0 0.1877474316605893 0.49999999999999589 0 0.19315820266241529 0.48997791262872448 0 0.17014963767487809 0.48771561689419241 0 0.19315820266241529 0.48997791262872448 0 0.1877474316605893 0.49999999999999589 0 0.17014963767487809 0.48771561689419241 0 0.1877474316605893 0.49999999999999589 0 0.17014963767487809 0.48771561689419241 0 0.16366216806896169 0.5 0 0.17014963767487809 0.48771561689419241 0 0.1595155164630441 0.49526390483301103 0 0.16366216806896169 0.5 0 0.16055849779411269 0.48465766266326882 0 0.1595155164630441 0.49526390483301103 0 0.15519226557225321 0.4865820872431188 0 0.17014963767487809 0.48771561689419241 0 0.16055849779411269 0.48465766266326882 0 0.1595155164630441 0.49526390483301103 0 0.16561220080189901 0.47275626252147751 0 0.152072449632566 0.45788119261706361 0 0.15213854572413041 0.47798081030555178 0 0.16055849779411269 0.48465766266326882 0 0.16561220080189901 0.47275626252147751 0 0.15213854572413041 0.47798081030555178 0 0.17014963767487809 0.48771561689419241 0 0.16055849779411269 0.48465766266326882 0 0.16561220080189901 0.47275626252147751 0 0.19315820266241529 0.48997791262872448 0 0.17014963767487809 0.48771561689419241 0 0.18316501025817411 0.47347829900510019 0 0.17014963767487809 0.48771561689419241 0 0.16561220080189901 0.47275626252147751 0 0.18316501025817411 0.47347829900510019 0 0.19455577782923891 0.45704669870506082 0 0.18316501025817411 0.47347829900510019 0 0.17537755662793769 0.45473503444970242 0 0.16561220080189901 0.47275626252147751 0 0.18316501025817411 0.47347829900510019 0 0.17537755662793769 0.45473503444970242 0 0.17878673124147809 0.43597176529554837 0 0.19341364609171771 0.44097849069478418 0 0.17537755662793769 0.45473503444970242 0 0.17878673124147809 0.43597176529554837 0 0.17537755662793769 0.45473503444970242 0 0.1640653489828264 0.44124429264736198 0 0.17537755662793769 0.45473503444970242 0 0.1640653489828264 0.44124429264736198 0 0.152072449632566 0.45788119261706361 0 0.16561220080189901 0.47275626252147751 0 0.17537755662793769 0.45473503444970242 0 0.152072449632566 0.45788119261706361 0 0.152072449632566 0.45788119261706361 0 0.13579788334447351 0.4616492523343031 0 0.13980937514978059 0.47275959983803262 0 0.152072449632566 0.45788119261706361 0 0.13663439256434359 0.44749885136616052 0 0.13579788334447351 0.4616492523343031 0 0.14811772369231899 0.43410879161263483 0 0.152072449632566 0.45788119261706361 0 0.13663439256434359 0.44749885136616052 0 0.14811772369231899 0.43410879161263483 0 0.1640653489828264 0.44124429264736198 0 0.152072449632566 0.45788119261706361 0 0.1281182232964162 0.43334209902361592 0 0.14811772369231899 0.43410879161263483 0 0.13663439256434359 0.44749885136616052 0 0.1221638583408632 0.44949644160630903 0 0.1281182232964162 0.43334209902361592 0 0.13663439256434359 0.44749885136616052 0 0.1221638583408632 0.44949644160630903 0 0.13663439256434359 0.44749885136616052 0 0.13579788334447351 0.4616492523343031 0 0.115454379640119 0.46559406527157249 0 0.13579788334447351 0.4616492523343031 0 0.12546140466860231 0.47497018224559101 0 0.1221638583408632 0.44949644160630903 0 0.13579788334447351 0.4616492523343031 0 0.12546140466860231 0.47497018224559101 0 0.13980937514978059 0.47275959983803262 0 0.13141037284086901 0.48157786654320972 0 0.13579788334447351 0.4616492523343031 0 0.12546140466860231 0.47497018224559101 0 0.13980937514978059 0.47275959983803262 0 0.13980937514978059 0.47275959983803262 0 0.13141037284086901 0.48157786654320972 0 0.14197559468804261 0.48249829498247698 0 0.1124605482431746 0.48786895242117778 0 0.13141037284086901 0.48157786654320972 0 0.13598803235310941 0.49156642862709438 0 0.1154916408857066 0.5 0 0.1395769044773342 0.5 0 0.13598803235310941 0.49156642862709438 0 0.13141037284086901 0.48157786654320972 0 0.13598803235310941 0.49156642862709438 0 0.14197559468804261 0.48249829498247698 0 0.1595155164630441 0.49526390483301103 0 0.13598803235310941 0.49156642862709438 0 0.14855650230772571 0.48842597117064351 0 0.1595155164630441 0.49526390483301103 0 0.16366216806896169 0.5 0 0.1395769044773342 0.5 0 0.1595155164630441 0.49526390483301103 0 0.13598803235310941 0.49156642862709438 0 0.13598803235310941 0.49156642862709438 0 0.14855650230772571 0.48842597117064351 0 0.14197559468804261 0.48249829498247698 0 0.1595155164630441 0.49526390483301103 0 0.1395769044773342 0.5 0 0.13598803235310941 0.49156642862709438 0 0.1595155164630441 0.49526390483301103 0 0.14855650230772571 0.48842597117064351 0 0.15519226557225321 0.4865820872431188 0 0.152072449632566 0.45788119261706361 0 0.13980937514978059 0.47275959983803262 0 0.15213854572413041 0.47798081030555178 0 0.14855650230772571 0.48842597117064351 0 0.15519226557225321 0.4865820872431188 0 0.15213854572413041 0.47798081030555178 0 0.16055849779411269 0.48465766266326882 0 0.15519226557225321 0.4865820872431188 0 0.15213854572413041 0.47798081030555178 0 0.13980937514978059 0.47275959983803262 0 0.15213854572413041 0.47798081030555178 0 0.14197559468804261 0.48249829498247698 0 0.14855650230772571 0.48842597117064351 0 0.15213854572413041 0.47798081030555178 0 0.14197559468804261 0.48249829498247698 0 0.35237918780805128 0.48256915602069822 0 0.36840434104990488 0.47200193133536261 0 0.3398860423740569 0.46799544368854612 0 0.36840434104990488 0.47200193133536261 0 0.3398860423740569 0.46799544368854612 0 0.35237918780805128 0.48256915602069822 0 0.36475325508752549 0.5 0 0.33525228451636951 0.5 0 0.35237918780805128 0.48256915602069822 0 0.36475325508752549 0.5 0 0.36840434104990488 0.47200193133536261 0 0.36475325508752549 0.5 0 0.36840434104990488 0.47200193133536261 0 0.38092589942564797 0.48637339949993669 0 0.3694852693029117 0.46228335801629139 0 0.36854322034996051 0.44772295669939999 0 0.38115436387701829 0.45406741574037618 0 0.3694852693029117 0.46228335801629139 0 0.36854322034996051 0.44772295669939999 0 0.35688343284928842 0.45590140126778522 0 0.36854322034996051 0.44772295669939999 0 0.3713718276929816 0.43046730308967779 0 0.38181175801669409 0.43599445812934889 0 0.36854322034996051 0.44772295669939999 0 0.36236644267095602 0.43811221176157339 0 0.3713718276929816 0.43046730308967779 0 0.36854322034996051 0.44772295669939999 0 0.36236644267095602 0.43811221176157339 0 0.34958197107648659 0.44575383749702541 0 0.36854322034996051 0.44772295669939999 0 0.34958197107648659 0.44575383749702541 0 0.36854322034996051 0.44772295669939999 0 0.34958197107648659 0.44575383749702541 0 0.35688343284928842 0.45590140126778522 0 0.36236644267095602 0.43811221176157339 0 0.34958197107648659 0.44575383749702541 0 0.34578885657639702 0.43901451641134182 0 0.36236644267095602 0.43811221176157339 0 0.34958197107648659 0.44575383749702541 0 0.34958197107648659 0.44575383749702541 0 0.35688343284928842 0.45590140126778522 0 0.34498659253351083 0.45624010302292489 0 0.3694852693029117 0.46228335801629139 0 0.35688343284928842 0.45590140126778522 0 0.3398860423740569 0.46799544368854612 0 0.36840434104990488 0.47200193133536261 0 0.3694852693029117 0.46228335801629139 0 0.3398860423740569 0.46799544368854612 0 0.35688343284928842 0.45590140126778522 0 0.34498659253351083 0.45624010302292489 0 0.3398860423740569 0.46799544368854612 0 0.3694852693029117 0.46228335801629139 0 0.3398860423740569 0.46799544368854612 0 0.3398860423740569 0.46799544368854612 0 0.31760787659193629 0.46486562177966051 0 0.3398860423740569 0.46799544368854612 0 0.33359492383421152 0.45530972963834321 0 0.31760787659193629 0.46486562177966051 0 0.34498659253351083 0.45624010302292489 0 0.3398860423740569 0.46799544368854612 0 0.33359492383421152 0.45530972963834321 0 0.34958197107648659 0.44575383749702541 0 0.33359492383421152 0.45530972963834321 0 0.34958197107648659 0.44575383749702541 0 0.32558854750457711 0.44326212872801057 0 0.34958197107648659 0.44575383749702541 0 0.33359492383421152 0.45530972963834321 0 0.32558854750457711 0.44326212872801057 0 0.34958197107648659 0.44575383749702541 0 0.34498659253351083 0.45624010302292489 0 0.33359492383421152 0.45530972963834321 0 0.34958197107648659 0.44575383749702541 0 0.32558854750457711 0.44326212872801057 0 0.33482122300706518 0.43701286495206632 0 0.34958197107648659 0.44575383749702541 0 0.34578885657639702 0.43901451641134182 0 0.33482122300706518 0.43701286495206632 0 0.32558854750457711 0.44326212872801057 0 0.32555338181490551 0.43326535583136588 0 0.33482122300706518 0.43701286495206632 0 0.32558854750457711 0.44326212872801057 0 0.30159512393266752 0.44077041995899668 0 0.32558854750457711 0.44326212872801057 0 0.31262278920618242 0.45138964499873718 0 0.30159512393266752 0.44077041995899668 0 0.32558854750457711 0.44326212872801057 0 0.30159512393266752 0.44077041995899668 0 0.31494604169843538 0.42897621200502678 0 0.33359492383421152 0.45530972963834321 0 0.32558854750457711 0.44326212872801057 0 0.32235353428422681 0.45370678128618791 0 0.32558854750457711 0.44326212872801057 0 0.31262278920618242 0.45138964499873718 0 0.32235353428422681 0.45370678128618791 0 0.33359492383421152 0.45530972963834321 0 0.32235353428422681 0.45370678128618791 0 0.31760787659193629 0.46486562177966051 0 0.33359492383421152 0.45530972963834321 0 0.31760787659193629 0.46486562177966051 0 0.3398860423740569 0.46799544368854612 0 0.31760787659193629 0.46486562177966051 0 0.32127510102438639 0.47158700003851878 0 0.31262278920618242 0.45138964499873718 0 0.32235353428422681 0.45370678128618791 0 0.31760787659193629 0.46486562177966051 0 0.31760787659193629 0.46486562177966051 0 0.32127510102438639 0.47158700003851878 0 0.30369526094977861 0.47318156983844167 0 0.31552931981393278 0.47960711743359041 0 0.32127510102438639 0.47158700003851878 0 0.30266415967471588 0.47517855638849171 0 0.31552931981393278 0.47960711743359041 0 0.31587187885559193 0.48784995299173378 0 0.30787826615177177 0.48214324808748638 0 0.31552931981393278 0.47960711743359041 0 0.32127510102438639 0.47158700003851878 0 0.32995719336319779 0.48127682966172097 0 0.31552931981393278 0.47960711743359041 0 0.32995719336319779 0.48127682966172097 0 0.31587187885559193 0.48784995299173378 0 0.3398860423740569 0.46799544368854612 0 0.32127510102438639 0.47158700003851878 0 0.32995719336319779 0.48127682966172097 0 0.3398860423740569 0.46799544368854612 0 0.32127510102438639 0.47158700003851878 0 0.35237918780805128 0.48256915602069822 0 0.3398860423740569 0.46799544368854612 0 0.32995719336319779 0.48127682966172097 0 0.35237918780805128 0.48256915602069822 0 0.32995719336319779 0.48127682966172097 0 0.33525228451636951 0.5 0 0.32995719336319779 0.48127682966172097 0 0.33525228451636951 0.5 0 0.31587187885559193 0.48784995299173378 0 0.33525228451636951 0.5 0 0.31587187885559193 0.48784995299173378 0 0.30575131394521349 0.5 0 0.31587187885559193 0.48784995299173378 0 0.30474853765413867 0.48857654870146072 0 0.30787826615177177 0.48214324808748638 0 0.31587187885559193 0.48784995299173378 0 0.30575131394521349 0.5 0 0.30474853765413867 0.48857654870146072 0 0.30474853765413867 0.48857654870146072 0 0.30787826615177177 0.48214324808748638 0 0.29973357435759429 0.48381991580307121 0 0.30474853765413867 0.48857654870146072 0 0.29973357435759429 0.48381991580307121 0 0.29519355465535768 0.49060974830069198 0 0.30575131394521349 0.5 0 0.30474853765413867 0.48857654870146072 0 0.29519355465535768 0.49060974830069198 0 0.32127510102438639 0.47158700003851878 0 0.30369526094977861 0.47318156983844167 0 0.30266415967471588 0.47517855638849171 0 0.32127510102438639 0.47158700003851878 0 0.30266415967471588 0.47517855638849171 0 0.31760787659193629 0.46486562177966051 0 0.30369526094977861 0.47318156983844167 0 0.31552931981393278 0.47960711743359041 0 0.30787826615177177 0.48214324808748638 0 0.30266415967471588 0.47517855638849171 0 0.30787826615177177 0.48214324808748638 0 0.29973357435759429 0.48381991580307121 0 0.30266415967471588 0.47517855638849171 0 0.29973357435759429 0.48381991580307121 0 0.30266415967471588 0.47517855638849171 0 0.28978264530762121 0.48149751789722339 0 0.30369526094977861 0.47318156983844167 0 0.30266415967471588 0.47517855638849171 0 0.28978264530762121 0.48149751789722339 0 0.30369526094977861 0.47318156983844167 0 0.29309296209630931 0.47133070725024989 0 0.30229857001481958 0.4677597562329936 0 0.30369526094977861 0.47318156983844167 0 0.29309296209630931 0.47133070725024989 0 0.28978264530762121 0.48149751789722339 0 0.30369526094977861 0.47318156983844167 0 0.28978264530762121 0.48149751789722339 0 0.28978264530762121 0.48149751789722339 0 0.28251222310980179 0.47374385459692853 0 0.27502599182054582 0.48233566366478248 0 0.29309296209630931 0.47133070725024989 0 0.28978264530762121 0.48149751789722339 0 0.28251222310980179 0.47374385459692853 0 0.29309296209630931 0.47133070725024989 0 0.28251222310980179 0.47374385459692853 0 0.28204372400367311 0.46224964174277128 0 0.30575131394521349 0.5 0 0.29519355465535768 0.49060974830069198 0 0.28874575296954091 0.5 0 0.28978264530762121 0.48149751789722339 0 0.29519355465535768 0.49060974830069198 0 0.28239950369803818 0.49038803786875251 0 0.29973357435759429 0.48381991580307121 0 0.28978264530762121 0.48149751789722339 0 0.29519355465535768 0.49060974830069198 0 0.28978264530762121 0.48149751789722339 0 0.28239950369803818 0.49038803786875251 0 0.27502599182054582 0.48233566366478248 0 0.29519355465535768 0.49060974830069198 0 0.28239950369803818 0.49038803786875251 0 0.28874575296954091 0.5 0 0.28874575296954091 0.5 0 0.27625034337405741 0.5 0 0.26484886539275898 0.49702683030741851 0 0.28239950369803818 0.49038803786875251 0 0.27502599182054582 0.48233566366478248 0 0.26484886539275898 0.49702683030741851 0 0.28874575296954091 0.5 0 0.26484886539275898 0.49702683030741851 0 0.28239950369803818 0.49038803786875251 0 0.28874575296954091 0.5 0 0.26484886539275898 0.49702683030741851 0 0.27502599182054582 0.48233566366478248 0 0.26484886539275898 0.49702683030741851 0 0.26387102884735641 0.48576986855132981 0 0.28251222310980179 0.47374385459692853 0 0.27261579232085958 0.47130574242961509 0 0.28204372400367311 0.46224964174277128 0 0.28251222310980179 0.47374385459692853 0 0.27502599182054582 0.48233566366478248 0 0.27261579232085958 0.47130574242961509 0 0.27261579232085958 0.47130574242961509 0 0.26597980130942689 0.47750223905210648 0 0.26120465289778799 0.46984676728454999 0 0.27502599182054582 0.48233566366478248 0 0.27261579232085958 0.47130574242961509 0 0.26597980130942689 0.47750223905210648 0 0.27502599182054582 0.48233566366478248 0 0.26597980130942689 0.47750223905210648 0 0.26387102884735641 0.48576986855132981 0 0.26597980130942689 0.47750223905210648 0 0.25511973798261001 0.48042567510157669 0 0.26387102884735641 0.48576986855132981 0 0.26597980130942689 0.47750223905210648 0 0.26120465289778799 0.46984676728454999 0 0.25511973798261001 0.48042567510157669 0 0.24931202994806331 0.46984700064989932 0 0.26120465289778799 0.46984676728454999 0 0.25511973798261001 0.48042567510157669 0 0.2490708322414838 0.48724336808070379 0 0.25511973798261001 0.48042567510157669 0 0.25573586388865649 0.48982272674195521 0 0.24674937280290141 0.5 0 0.27625034337405741 0.5 0 0.26484886539275898 0.49702683030741851 0 0.2409519778159773 0.49467719108119201 0 0.26484886539275898 0.49702683030741851 0 0.24674937280290141 0.5 0 0.2409519778159773 0.49467719108119201 0 0.26484886539275898 0.49702683030741851 0 0.2409519778159773 0.49467719108119201 0 0.25573586388865649 0.48982272674195521 0 0.26484886539275898 0.49702683030741851 0 0.25573586388865649 0.48982272674195521 0 0.26484886539275898 0.49702683030741851 0 0.26387102884735641 0.48576986855132981 0 0.25511973798261001 0.48042567510157669 0 0.25573586388865649 0.48982272674195521 0 0.26387102884735641 0.48576986855132981 0 0.26102966536670852 0.44729216169936709 0 0.25112011551340951 0.43762845203734652 0 0.26211485037834242 0.43129311697913159 0 0.24982990964186941 0.44903490227389509 0 0.26102966536670852 0.44729216169936709 0 0.25112011551340951 0.43762845203734652 0 0.24982990964186941 0.44903490227389509 0 0.26102966536670852 0.44729216169936709 0 0.25614239303163649 0.45932435390722592 0 0.2457842156422255 0.45965373450847707 0 0.24982990964186941 0.44903490227389509 0 0.25614239303163649 0.45932435390722592 0 0.24931202994806331 0.46984700064989932 0 0.26120465289778799 0.46984676728454999 0 0.25614239303163649 0.45932435390722592 0 0.2457842156422255 0.45965373450847707 0 0.24931202994806331 0.46984700064989932 0 0.25614239303163649 0.45932435390722592 0 0.26120465289778799 0.46984676728454999 0 0.25614239303163649 0.45932435390722592 0 0.26786226911132238 0.45943053161673791 0 0.26102966536670852 0.44729216169936709 0 0.25614239303163649 0.45932435390722592 0 0.26786226911132238 0.45943053161673791 0 0.27261579232085958 0.47130574242961509 0 0.26120465289778799 0.46984676728454999 0 0.26786226911132238 0.45943053161673791 0 0.27261579232085958 0.47130574242961509 0 0.26786226911132238 0.45943053161673791 0 0.28204372400367311 0.46224964174277128 0 0.26786226911132238 0.45943053161673791 0 0.27464340864225228 0.44732003161764577 0 0.28204372400367311 0.46224964174277128 0 0.26102966536670852 0.44729216169936709 0 0.27464340864225228 0.44732003161764577 0 0.26211485037834242 0.43129311697913159 0 0.26102966536670852 0.44729216169936709 0 0.26786226911132238 0.45943053161673791 0 0.27464340864225228 0.44732003161764577 0 0.28714107136022599 0.44864082527862947 0 0.29479818042125439 0.46166112606362258 0 0.30159512393266752 0.44077041995899668 0 0.27464340864225228 0.44732003161764577 0 0.28714107136022599 0.44864082527862947 0 0.28262491980128279 0.43120290701011132 0 0.28714107136022599 0.44864082527862947 0 0.30159512393266752 0.44077041995899668 0 0.28262491980128279 0.43120290701011132 0 0.27464340864225228 0.44732003161764577 0 0.28714107136022599 0.44864082527862947 0 0.28204372400367311 0.46224964174277128 0 0.28714107136022599 0.44864082527862947 0 0.28204372400367311 0.46224964174277128 0 0.29479818042125439 0.46166112606362258 0 0.29309296209630931 0.47133070725024989 0 0.29479818042125439 0.46166112606362258 0 0.30229857001481958 0.4677597562329936 0 0.29309296209630931 0.47133070725024989 0 0.28204372400367311 0.46224964174277128 0 0.29479818042125439 0.46166112606362258 0 0.31760787659193629 0.46486562177966051 0 0.29479818042125439 0.46166112606362258 0 0.31262278920618242 0.45138964499873718 0 0.31760787659193629 0.46486562177966051 0 0.29479818042125439 0.46166112606362258 0 0.31760787659193629 0.46486562177966051 0 0.29479818042125439 0.46166112606362258 0 0.30229857001481958 0.4677597562329936 0 0.31760787659193629 0.46486562177966051 0 0.30369526094977861 0.47318156983844167 0 0.30229857001481958 0.4677597562329936 0 0.31262278920618242 0.45138964499873718 0 0.29479818042125439 0.46166112606362258 0 0.30159512393266752 0.44077041995899668 0 0.30159512393266752 0.44077041995899668 0 0.29633638546194008 0.4168266513126494 0 0.31494604169843538 0.42897621200502678 0 0.29633638546194008 0.4168266513126494 0 0.31010730848275858 0.40483639928157922 0 0.31494604169843538 0.42897621200502678 0 0.29633638546194008 0.4168266513126494 0 0.27929596584698468 0.40912980761102868 0 0.2888484027392324 0.39324963029683357 0 0.29633638546194008 0.4168266513126494 0 0.28262491980128279 0.43120290701011132 0 0.27929596584698468 0.40912980761102868 0 0.30159512393266752 0.44077041995899668 0 0.29633638546194008 0.4168266513126494 0 0.28262491980128279 0.43120290701011132 0 0.27464340864225228 0.44732003161764577 0 0.28262491980128279 0.43120290701011132 0 0.26211485037834242 0.43129311697913159 0 0.28262491980128279 0.43120290701011132 0 0.26866732796596021 0.42007898188019532 0 0.26211485037834242 0.43129311697913159 0 0.28262491980128279 0.43120290701011132 0 0.27929596584698468 0.40912980761102868 0 0.26866732796596021 0.42007898188019532 0 0.27929596584698468 0.40912980761102868 0 0.26866732796596021 0.42007898188019532 0 0.26545995749866752 0.40752230523633809 0 0.26866732796596021 0.42007898188019532 0 0.25391694587654512 0.41241900999998071 0 0.26211485037834242 0.43129311697913159 0 0.26866732796596021 0.42007898188019532 0 0.25391694587654512 0.41241900999998071 0 0.26866732796596021 0.42007898188019532 0 0.26545995749866752 0.40752230523633809 0 0.25391694587654512 0.41241900999998071 0 0.26545995749866752 0.40752230523633809 0 0.25391694587654512 0.41241900999998071 0 0.2564460418808997 0.40016640571873618 0 0.24509904314710529 0.42490707984107301 0 0.25112011551340951 0.43762845203734652 0 0.26211485037834242 0.43129311697913159 0 0.24509904314710529 0.42490707984107301 0 0.25391694587654512 0.41241900999998071 0 0.26211485037834242 0.43129311697913159 0 0.2493983258383019 0.38580728185353569 0 0.26033266318055459 0.38984620402649262 0 0.26741724589927229 0.37849095446831399 0 0.26033266318055459 0.38984620402649262 0 0.26897350592294761 0.39581732097174932 0 0.26741724589927229 0.37849095446831399 0 0.2493983258383019 0.38580728185353569 0 0.26033266318055459 0.38984620402649262 0 0.25114807036015657 0.39331942424817662 0 0.26033266318055459 0.38984620402649262 0 0.25114807036015657 0.39331942424817662 0 0.2564460418808997 0.40016640571873618 0 0.26545995749866752 0.40752230523633809 0 0.2564460418808997 0.40016640571873618 0 0.26897350592294761 0.39581732097174932 0 0.26033266318055459 0.38984620402649262 0 0.2564460418808997 0.40016640571873618 0 0.26897350592294761 0.39581732097174932 0 0.27929596584698468 0.40912980761102868 0 0.26897350592294761 0.39581732097174932 0 0.2888484027392324 0.39324963029683357 0 0.27929596584698468 0.40912980761102868 0 0.26545995749866752 0.40752230523633809 0 0.26897350592294761 0.39581732097174932 0 0.26897350592294761 0.39581732097174932 0 0.26741724589927229 0.37849095446831399 0 0.2888484027392324 0.39324963029683357 0 0.26741724589927229 0.37849095446831399 0 0.2888484027392324 0.39324963029683357 0 0.29185600882110613 0.36359972223718778 0 0.29633638546194008 0.4168266513126494 0 0.2888484027392324 0.39324963029683357 0 0.31010730848275858 0.40483639928157922 0 0.2888484027392324 0.39324963029683357 0 0.31010730848275858 0.40483639928157922 0 0.31363830557709849 0.38603598249629151 0 0.2888484027392324 0.39324963029683357 0 0.31363830557709849 0.38603598249629151 0 0.29185600882110613 0.36359972223718778 0 0.31363830557709849 0.38603598249629151 0 0.3371948537570989 0.37360791024434892 0 0.31801259252377329 0.36561672865928652 0 0.31363830557709849 0.38603598249629151 0 0.33502001545427518 0.3913074540039202 0 0.3371948537570989 0.37360791024434892 0 0.33502001545427518 0.3913074540039202 0 0.35299973274757163 0.37739831633641241 0 0.3371948537570989 0.37360791024434892 0 0.33502001545427518 0.3913074540039202 0 0.32822645515192372 0.40807003723369928 0 0.34669518778216951 0.40598335482370662 0 0.31010730848275858 0.40483639928157922 0 0.31363830557709849 0.38603598249629151 0 0.32822645515192372 0.40807003723369928 0 0.31363830557709849 0.38603598249629151 0 0.33502001545427518 0.3913074540039202 0 0.32822645515192372 0.40807003723369928 0 0.31010730848275858 0.40483639928157922 0 0.31494604169843538 0.42897621200502678 0 0.32822645515192372 0.40807003723369928 0 0.31494604169843538 0.42897621200502678 0 0.33068778485109812 0.42543778817577232 0 0.32822645515192372 0.40807003723369928 0 0.31494604169843538 0.42897621200502678 0 0.32555338181490551 0.43326535583136588 0 0.33068778485109812 0.42543778817577232 0 0.32558854750457711 0.44326212872801057 0 0.31494604169843538 0.42897621200502678 0 0.32555338181490551 0.43326535583136588 0 0.32555338181490551 0.43326535583136588 0 0.33482122300706518 0.43701286495206632 0 0.33068778485109812 0.42543778817577232 0 0.33482122300706518 0.43701286495206632 0 0.33068778485109812 0.42543778817577232 0 0.33979136288955403 0.42789924640307342 0 0.33979136288955403 0.42789924640307342 0 0.33881031234615377 0.41637839690813822 0 0.34887426805708599 0.42257897485089901 0 0.33068778485109812 0.42543778817577232 0 0.33979136288955403 0.42789924640307342 0 0.33881031234615377 0.41637839690813822 0 0.34578885657639702 0.43901451641134182 0 0.33482122300706518 0.43701286495206632 0 0.33979136288955403 0.42789924640307342 0 0.33068778485109812 0.42543778817577232 0 0.32822645515192372 0.40807003723369928 0 0.33881031234615377 0.41637839690813822 0 0.32822645515192372 0.40807003723369928 0 0.33881031234615377 0.41637839690813822 0 0.34669518778216951 0.40598335482370662 0 0.33881031234615377 0.41637839690813822 0 0.34887426805708599 0.42257897485089901 0 0.34669518778216951 0.40598335482370662 0 0.34887426805708599 0.42257897485089901 0 0.36543463872039578 0.42025498821496238 0 0.34669518778216951 0.40598335482370662 0 0.34578885657639702 0.43901451641134182 0 0.33979136288955403 0.42789924640307342 0 0.34887426805708599 0.42257897485089901 0 0.34578885657639702 0.43901451641134182 0 0.34887426805708599 0.42257897485089901 0 0.36543463872039578 0.42025498821496238 0 0.36236644267095602 0.43811221176157339 0 0.34578885657639702 0.43901451641134182 0 0.36543463872039578 0.42025498821496238 0 0.34578885657639702 0.43901451641134182 0 0.36543463872039578 0.42025498821496238 0 0.3713718276929816 0.43046730308967779 0 0.36543463872039578 0.42025498821496238 0 0.38344608944054259 0.41874495907396531 0 0.36236644267095602 0.43811221176157339 0 0.3713718276929816 0.43046730308967779 0 0.36543463872039578 0.42025498821496238 0 0.36543463872039578 0.42025498821496238 0 0.36718604533145338 0.40310501472764187 0 0.38508042086439331 0.40149546001858177 0 0.36543463872039578 0.42025498821496238 0 0.36718604533145338 0.40310501472764187 0 0.34669518778216951 0.40598335482370662 0 0.36718604533145338 0.40310501472764187 0 0.37221941422516369 0.38899224278270339 0 0.38508042086439331 0.40149546001858177 0 0.36718604533145338 0.40310501472764187 0 0.37221941422516369 0.38899224278270339 0 0.35805477257589141 0.39284525618158311 0 0.35299973274757163 0.37739831633641241 0 0.35805477257589141 0.39284525618158311 0 0.36779984685312661 0.37473894051485962 0 0.37221941422516369 0.38899224278270339 0 0.35805477257589141 0.39284525618158311 0 0.36779984685312661 0.37473894051485962 0 0.37221941422516369 0.38899224278270339 0 0.36779984685312661 0.37473894051485962 0 0.37607855043756638 0.38042158153032463 0 0.36779984685312661 0.37473894051485962 0 0.37836938959517319 0.3704419966924607 0 0.37607855043756638 0.38042158153032463 0 0.33502001545427518 0.3913074540039202 0 0.35299973274757163 0.37739831633641241 0 0.35805477257589141 0.39284525618158311 0 0.33502001545427518 0.3913074540039202 0 0.34669518778216951 0.40598335482370662 0 0.35805477257589141 0.39284525618158311 0 0.36718604533145338 0.40310501472764187 0 0.34669518778216951 0.40598335482370662 0 0.35805477257589141 0.39284525618158311 0 0.35508918662495292 0.3544050132690677 0 0.35197529038942282 0.33683811374526629 0 0.33513449618837532 0.35025620903250321 0 0.35299973274757163 0.37739831633641241 0 0.35508918662495292 0.3544050132690677 0 0.3371948537570989 0.37360791024434892 0 0.35299973274757163 0.37739831633641241 0 0.35508918662495292 0.3544050132690677 0 0.36779984685312661 0.37473894051485962 0 0.35508918662495292 0.3544050132690677 0 0.3371948537570989 0.37360791024434892 0 0.35508918662495292 0.3544050132690677 0 0.36779984685312661 0.37473894051485962 0 0.37241360004904622 0.36143213383377509 0 0.36779984685312661 0.37473894051485962 0 0.37241360004904622 0.36143213383377509 0 0.37836938959517319 0.3704419966924607 0 0.35508918662495292 0.3544050132690677 0 0.37298351949280723 0.33520211629378682 0 0.35508918662495292 0.3544050132690677 0 0.37241360004904622 0.36143213383377509 0 0.3771425128442546 0.349080970373077 0 0.35508918662495292 0.3544050132690677 0 0.37298351949280723 0.33520211629378682 0 0.3771425128442546 0.349080970373077 0 0.35508918662495292 0.3544050132690677 0 0.37298351949280723 0.33520211629378682 0 0.36676645207016201 0.33489229543793031 0 0.36676645207016201 0.33489229543793031 0 0.37214086289173293 0.32798967761859199 0 0.36317357569133568 0.32706684995046958 0 0.37298351949280723 0.33520211629378682 0 0.36676645207016201 0.33489229543793031 0 0.37214086289173293 0.32798967761859199 0 0.37298351949280723 0.33520211629378682 0 0.36676645207016201 0.33489229543793031 0 0.36676645207016201 0.33489229543793031 0 0.36317357569133568 0.32706684995046958 0 0.35197529038942282 0.33683811374526629 0 0.37197361706309467 0.3213463981502771 0 0.36427578867537991 0.31493875699122298 0 0.37641149964355303 0.31291697699893861 0 0.37197361706309467 0.3213463981502771 0 0.37214086289173293 0.32798967761859199 0 0.36317357569133568 0.32706684995046958 0 0.37197361706309467 0.3213463981502771 0 0.36317357569133568 0.32706684995046958 0 0.36427578867537991 0.31493875699122298 0 0.36317357569133568 0.32706684995046958 0 0.36427578867537991 0.31493875699122298 0 0.35390656844653362 0.32473127689989978 0 0.35390656844653362 0.32473127689989978 0 0.34915969763025101 0.31430859376410603 0 0.33782788090297378 0.32934681688736872 0 0.36427578867537991 0.31493875699122298 0 0.35390656844653362 0.32473127689989978 0 0.34915969763025101 0.31430859376410603 0 0.35508918662495292 0.3544050132690677 0 0.36676645207016201 0.33489229543793031 0 0.35197529038942282 0.33683811374526629 0 0.35390656844653362 0.32473127689989978 0 0.35197529038942282 0.33683811374526629 0 0.33782788090297378 0.32934681688736872 0 0.36317357569133568 0.32706684995046958 0 0.35390656844653362 0.32473127689989978 0 0.35197529038942282 0.33683811374526629 0 0.35197529038942282 0.33683811374526629 0 0.33782788090297378 0.32934681688736872 0 0.33513449618837532 0.35025620903250321 0 0.33782788090297378 0.32934681688736872 0 0.31612580431165938 0.32863354199789557 0 0.33513449618837532 0.35025620903250321 0 0.33782788090297378 0.32934681688736872 0 0.33376995993177477 0.31251109396329679 0 0.31612580431165938 0.32863354199789557 0 0.34915969763025101 0.31430859376410603 0 0.33782788090297378 0.32934681688736872 0 0.33376995993177477 0.31251109396329679 0 0.33376995993177477 0.31251109396329679 0 0.31612580431165938 0.32863354199789557 0 0.31750861536119768 0.30727449649866068 0 0.31612580431165938 0.32863354199789557 0 0.33513449618837532 0.35025620903250321 0 0.31002454842539667 0.35004296654545541 0 0.33513449618837532 0.35025620903250321 0 0.31801259252377329 0.36561672865928652 0 0.31002454842539667 0.35004296654545541 0 0.33513449618837532 0.35025620903250321 0 0.3371948537570989 0.37360791024434892 0 0.31801259252377329 0.36561672865928652 0 0.35508918662495292 0.3544050132690677 0 0.33513449618837532 0.35025620903250321 0 0.3371948537570989 0.37360791024434892 0 0.31363830557709849 0.38603598249629151 0 0.31801259252377329 0.36561672865928652 0 0.29185600882110613 0.36359972223718778 0 0.31801259252377329 0.36561672865928652 0 0.31002454842539667 0.35004296654545541 0 0.29185600882110613 0.36359972223718778 0 0.31002454842539667 0.35004296654545541 0 0.29185600882110613 0.36359972223718778 0 0.29708730657820531 0.33735290507098548 0 0.29185600882110613 0.36359972223718778 0 0.27685173370080618 0.33495677420046271 0 0.29708730657820531 0.33735290507098548 0 0.26741724589927229 0.37849095446831399 0 0.29185600882110613 0.36359972223718778 0 0.26312502976955421 0.36038202802699942 0 0.29185600882110613 0.36359972223718778 0 0.26312502976955421 0.36038202802699942 0 0.27685173370080618 0.33495677420046271 0 0.26312502976955421 0.36038202802699942 0 0.27685173370080618 0.33495677420046271 0 0.23616731273964389 0.35630971138457113 0 0.25184518342483059 0.34378895946634142 0 0.26312502976955421 0.36038202802699942 0 0.25184518342483059 0.34378895946634142 0 0.26312502976955421 0.36038202802699942 0 0.27685173370080618 0.33495677420046271 0 0.2429583931954305 0.37069002009758723 0 0.2493983258383019 0.38580728185353569 0 0.26312502976955421 0.36038202802699942 0 0.2493983258383019 0.38580728185353569 0 0.26312502976955421 0.36038202802699942 0 0.2493983258383019 0.38580728185353569 0 0.26741724589927229 0.37849095446831399 0 0.26312502976955421 0.36038202802699942 0 0.24384714108046629 0.30842271566885621 0 0.2472860627765491 0.32357026084747492 0 0.26306869392768201 0.31064106353348242 0 0.2472860627765491 0.32357026084747492 0 0.27685173370080618 0.33495677420046271 0 0.26306869392768201 0.31064106353348242 0 0.2472860627765491 0.32357026084747492 0 0.25184518342483059 0.34378895946634142 0 0.27685173370080618 0.33495677420046271 0 0.27685173370080618 0.33495677420046271 0 0.29057843763205821 0.30953152037392612 0 0.26306869392768201 0.31064106353348242 0 0.27685173370080618 0.33495677420046271 0 0.29057843763205821 0.30953152037392612 0 0.27685173370080618 0.33495677420046271 0 0.29708730657820531 0.33735290507098548 0 0.29057843763205821 0.30953152037392612 0 0.31612580431165938 0.32863354199789557 0 0.31002454842539667 0.35004296654545541 0 0.29708730657820531 0.33735290507098548 0 0.31612580431165938 0.32863354199789557 0 0.29057843763205821 0.30953152037392612 0 0.31750861536119768 0.30727449649866068 0 0.31612580431165938 0.32863354199789557 0 0.29708730657820531 0.33735290507098548 0 0.29057843763205821 0.30953152037392612 0 0.30841809373110229 0.29041014868786119 0 0.29057843763205821 0.30953152037392612 0 0.31750861536119768 0.30727449649866068 0 0.30841809373110229 0.29041014868786119 0 0.28913506119044557 0.28837746344188042 0 0.29710558010056448 0.27374024365221827 0 0.30841809373110229 0.29041014868786119 0 0.28913506119044557 0.28837746344188042 0 0.29057843763205821 0.30953152037392612 0 0.28913506119044557 0.28837746344188042 0 0.29057843763205821 0.30953152037392612 0 0.26997463598580562 0.29110571599244839 0 0.29057843763205821 0.30953152037392612 0 0.26997463598580562 0.29110571599244839 0 0.26306869392768201 0.31064106353348242 0 0.28913506119044557 0.28837746344188042 0 0.26997463598580562 0.29110571599244839 0 0.27771223627489922 0.27450185458176501 0 0.26997463598580562 0.29110571599244839 0 0.25501703805890008 0.28225930281985478 0 0.25502997555209289 0.29580644501725317 0 0.26997463598580562 0.29110571599244839 0 0.25501703805890008 0.28225930281985478 0 0.26575766037211829 0.2773682068123734 0 0.24171361470842759 0.29422316205106069 0 0.25501703805890008 0.28225930281985478 0 0.25502997555209289 0.29580644501725317 0 0.24384714108046629 0.30842271566885621 0 0.25502997555209289 0.29580644501725317 0 0.26306869392768201 0.31064106353348242 0 0.26997463598580562 0.29110571599244839 0 0.25502997555209289 0.29580644501725317 0 0.26306869392768201 0.31064106353348242 0 0.26530204180092959 0.25824751384918349 0 0.25774582371856131 0.25720337652780612 0 0.25721102393060058 0.26731680845573891 0 0.26530204180092959 0.25824751384918349 0 0.25721102393060058 0.26731680845573891 0 0.26643074785867099 0.26732308551238332 0 0.26530204180092959 0.25824751384918349 0 0.26125664841386997 0.25128184439603901 0 0.26635719388438878 0.24970722347080451 0 0.26125664841386997 0.25128184439603901 0 0.25774582371856131 0.25720337652780612 0 0.25483074441246178 0.25133398368052728 0 0.26530204180092959 0.25824751384918349 0 0.26125664841386997 0.25128184439603901 0 0.25774582371856131 0.25720337652780612 0 0.24445832253036559 0.2549088082697154 0 0.25483074441246178 0.25133398368052728 0 0.25094309503396839 0.25878134349415549 0 0.25774582371856131 0.25720337652780612 0 0.25483074441246178 0.25133398368052728 0 0.25094309503396839 0.25878134349415549 0 0.2476054331824718 0.26498821268157913 0 0.25094309503396839 0.25878134349415549 0 0.25721102393060058 0.26731680845573891 0 0.25774582371856131 0.25720337652780612 0 0.25094309503396839 0.25878134349415549 0 0.25721102393060058 0.26731680845573891 0 0.24795174679602469 0.27353118177312358 0 0.2476054331824718 0.26498821268157913 0 0.25721102393060058 0.26731680845573891 0 0.24795174679602469 0.27353118177312358 0 0.25501703805890008 0.28225930281985478 0 0.25721102393060058 0.26731680845573891 0 0.25501703805890008 0.28225930281985478 0 0.25721102393060058 0.26731680845573891 0 0.26575766037211829 0.2773682068123734 0 0.25721102393060058 0.26731680845573891 0 0.26643074785867099 0.26732308551238332 0 0.26575766037211829 0.2773682068123734 0 0.26643074785867099 0.26732308551238332 0 0.27771223627489922 0.27450185458176501 0 0.2739044837491042 0.2628202598905735 0 0.26643074785867099 0.26732308551238332 0 0.26575766037211829 0.2773682068123734 0 0.27771223627489922 0.27450185458176501 0 0.26997463598580562 0.29110571599244839 0 0.26575766037211829 0.2773682068123734 0 0.27771223627489922 0.27450185458176501 0 0.27771223627489922 0.27450185458176501 0 0.2739044837491042 0.2628202598905735 0 0.28562266236262468 0.25968955354036838 0 0.2739044837491042 0.2628202598905735 0 0.27445473044839669 0.25433929196916749 0 0.28562266236262468 0.25968955354036838 0 0.26530204180092959 0.25824751384918349 0 0.26643074785867099 0.26732308551238332 0 0.2739044837491042 0.2628202598905735 0 0.26530204180092959 0.25824751384918349 0 0.2739044837491042 0.2628202598905735 0 0.27445473044839669 0.25433929196916749 0 0.27445473044839669 0.25433929196916749 0 0.27491197862318911 0.2471457982826446 0 0.26635719388438878 0.24970722347080451 0 0.26530204180092959 0.25824751384918349 0 0.27445473044839669 0.25433929196916749 0 0.26635719388438878 0.24970722347080451 0 0.27445473044839669 0.25433929196916749 0 0.28272453419979049 0.25174505643774792 0 0.28562266236262468 0.25968955354036838 0 0.27445473044839669 0.25433929196916749 0 0.28272453419979049 0.25174505643774792 0 0.27491197862318911 0.2471457982826446 0 0.28562266236262468 0.25968955354036838 0 0.30671132716190053 0.25933573255542602 0 0.29590876536495159 0.2458055819588113 0 0.28562266236262468 0.25968955354036838 0 0.29710558010056448 0.27374024365221827 0 0.30671132716190053 0.25933573255542602 0 0.28272453419979049 0.25174505643774792 0 0.28562266236262468 0.25968955354036838 0 0.29590876536495159 0.2458055819588113 0 0.27771223627489922 0.27450185458176501 0 0.28562266236262468 0.25968955354036838 0 0.29710558010056448 0.27374024365221827 0 0.28913506119044557 0.28837746344188042 0 0.27771223627489922 0.27450185458176501 0 0.29710558010056448 0.27374024365221827 0 0.30841809373110229 0.29041014868786119 0 0.29710558010056448 0.27374024365221827 0 0.31783687216517592 0.27260157459142442 0 0.29710558010056448 0.27374024365221827 0 0.30671132716190053 0.25933573255542602 0 0.31783687216517592 0.27260157459142442 0 0.30671132716190053 0.25933573255542602 0 0.29590876536495159 0.2458055819588113 0 0.32472856934957328 0.24960624822409011 0 0.30671132716190053 0.25933573255542602 0 0.31783687216517592 0.27260157459142442 0 0.32472856934957328 0.24960624822409011 0 0.33448768125085532 0.26632799312407368 0 0.31783687216517592 0.27260157459142442 0 0.32472856934957328 0.24960624822409011 0 0.31783687216517592 0.27260157459142442 0 0.32472856934957328 0.24960624822409011 0 0.33448768125085532 0.26632799312407368 0 0.35343714747451482 0.25339224636834662 0 0.32472856934957328 0.24960624822409011 0 0.35343714747451482 0.25339224636834662 0 0.32472856934957328 0.24960624822409011 0 0.33448768125085532 0.26632799312407368 0 0.31783687216517592 0.27260157459142442 0 0.33228670475259192 0.28907421509215792 0 0.33448768125085532 0.26632799312407368 0 0.33228670475259192 0.28907421509215792 0 0.34844480575553177 0.27433257034789621 0 0.30841809373110229 0.29041014868786119 0 0.31750861536119768 0.30727449649866068 0 0.33228670475259192 0.28907421509215792 0 0.30841809373110229 0.29041014868786119 0 0.31783687216517592 0.27260157459142442 0 0.33228670475259192 0.28907421509215792 0 0.33376995993177477 0.31251109396329679 0 0.31750861536119768 0.30727449649866068 0 0.33228670475259192 0.28907421509215792 0 0.33376995993177477 0.31251109396329679 0 0.33228670475259192 0.28907421509215792 0 0.34529421264620458 0.30129236272746168 0 0.34915969763025101 0.31430859376410603 0 0.33376995993177477 0.31251109396329679 0 0.34529421264620458 0.30129236272746168 0 0.33228670475259192 0.28907421509215792 0 0.35441721402480608 0.28896236779833212 0 0.34844480575553177 0.27433257034789621 0 0.33228670475259192 0.28907421509215792 0 0.35441721402480608 0.28896236779833212 0 0.34529421264620458 0.30129236272746168 0 0.34915969763025101 0.31430859376410603 0 0.34529421264620458 0.30129236272746168 0 0.35886748026282522 0.30229632366552089 0 0.35441721402480608 0.28896236779833212 0 0.34529421264620458 0.30129236272746168 0 0.35886748026282522 0.30229632366552089 0 0.36427578867537991 0.31493875699122298 0 0.34915969763025101 0.31430859376410603 0 0.35886748026282522 0.30229632366552089 0 0.36427578867537991 0.31493875699122298 0 0.35886748026282522 0.30229632366552089 0 0.37330702077223438 0.30303904826571199 0 0.35886748026282522 0.30229632366552089 0 0.37330702077223438 0.30303904826571199 0 0.36898941367772692 0.29148207297057388 0 0.36427578867537991 0.31493875699122298 0 0.37330702077223438 0.30303904826571199 0 0.37641149964355303 0.31291697699893861 0 0.35441721402480608 0.28896236779833212 0 0.36898941367772692 0.29148207297057388 0 0.3726206670539568 0.27529666198638192 0 0.35441721402480608 0.28896236779833212 0 0.35886748026282522 0.30229632366552089 0 0.36898941367772692 0.29148207297057388 0 0.35343714747451482 0.25339224636834662 0 0.38214572559945648 0.25717824451260263 0 0.3726206670539568 0.27529666198638192 0 0.35343714747451482 0.25339224636834662 0 0.38214572559945648 0.25717824451260263 0 0.33448768125085532 0.26632799312407368 0 0.35343714747451482 0.25339224636834662 0 0.34844480575553177 0.27433257034789621 0 0.35441721402480608 0.28896236779833212 0 0.3726206670539568 0.27529666198638192 0 0.34844480575553177 0.27433257034789621 0 0.3726206670539568 0.27529666198638192 0 0.35343714747451482 0.25339224636834662 0 0.34844480575553177 0.27433257034789621 0 0.39618708598102881 0.27591598956791302 0 0.40487723684707189 0.27024472526459709 0 0.38214572559945648 0.25717824451260263 0 0.39618708598102881 0.27591598956791302 0 0.40487723684707189 0.27024472526459709 0 0.41011334355109241 0.28753573590057269 0 0.39618708598102881 0.27591598956791302 0 0.38676043225163292 0.27901208997086768 0 0.39588031874136859 0.28613082475803941 0 0.38214572559945648 0.25717824451260263 0 0.41085430372439791 0.26096424265685858 0 0.40220614802616023 0.2483237479691611 0 0.40487723684707189 0.27024472526459709 0 0.38214572559945648 0.25717824451260263 0 0.41085430372439791 0.26096424265685858 0 0.38214572559945648 0.25717824451260263 0 0.41085430372439791 0.26096424265685858 0 0.3726206670539568 0.27529666198638192 0 0.38214572559945648 0.25717824451260263 0 0.38676043225163292 0.27901208997086768 0 0.39618708598102881 0.27591598956791302 0 0.38214572559945648 0.25717824451260263 0 0.38676043225163292 0.27901208997086768 0 0.3726206670539568 0.27529666198638192 0 0.38676043225163292 0.27901208997086768 0 0.38575177165568558 0.2905373369685656 0 0.37330702077223438 0.30303904826571199 0 0.36898941367772692 0.29148207297057388 0 0.38575177165568558 0.2905373369685656 0 0.36898941367772692 0.29148207297057388 0 0.3726206670539568 0.27529666198638192 0 0.38575177165568558 0.2905373369685656 0 0.38676043225163292 0.27901208997086768 0 0.38575177165568558 0.2905373369685656 0 0.39588031874136859 0.28613082475803941 0 0.37330702077223438 0.30303904826571199 0 0.3857794608984752 0.30598903261453081 0 0.37641149964355303 0.31291697699893861 0 0.37330702077223438 0.30303904826571199 0 0.38575177165568558 0.2905373369685656 0 0.3857794608984752 0.30598903261453081 0 0.38575177165568558 0.2905373369685656 0 0.3857794608984752 0.30598903261453081 0 0.38575177165568558 0.2905373369685656 0 0.3857794608984752 0.30598903261453081 0 0.39396801734759651 0.30208480799261378 0 0.39546151416595271 0.31108036673726891 0 0.39396801734759651 0.30208480799261378 0 0.40520470548380388 0.30533504840031961 0 0.3857794608984752 0.30598903261453081 0 0.39546151416595271 0.31108036673726891 0 0.39396801734759651 0.30208480799261378 0 0.39396801734759651 0.30208480799261378 0 0.40520470548380388 0.30533504840031961 0 0.39867854645046741 0.29510916522736119 0 0.39546151416595271 0.31108036673726891 0 0.40520470548380388 0.30533504840031961 0 0.40776608346910059 0.31597371139158709 0 0.40520470548380388 0.30533504840031961 0 0.39867854645046741 0.29510916522736119 0 0.41011334355109241 0.28753573590057269 0 0.38575177165568558 0.2905373369685656 0 0.39396801734759651 0.30208480799261378 0 0.39867854645046741 0.29510916522736119 0 0.38575177165568558 0.2905373369685656 0 0.39588031874136859 0.28613082475803941 0 0.39867854645046741 0.29510916522736119 0 0.39588031874136859 0.28613082475803941 0 0.39867854645046741 0.29510916522736119 0 0.41011334355109241 0.28753573590057269 0 0.39618708598102881 0.27591598956791302 0 0.39588031874136859 0.28613082475803941 0 0.41011334355109241 0.28753573590057269 0 0.41011334355109241 0.28753573590057269 0 0.42013367421994441 0.30638569321367742 0 0.42537006817859802 0.29192678509844577 0 0.41011334355109241 0.28753573590057269 0 0.42537006817859802 0.29192678509844577 0 0.42807725364527183 0.27867946429412987 0 0.40520470548380388 0.30533504840031961 0 0.41011334355109241 0.28753573590057269 0 0.42013367421994441 0.30638569321367742 0 0.40520470548380388 0.30533504840031961 0 0.42013367421994441 0.30638569321367742 0 0.40776608346910059 0.31597371139158709 0 0.42013367421994441 0.30638569321367742 0 0.4370541574406881 0.29873137323873378 0 0.43807970232221061 0.31513763283615681 0 0.42013367421994441 0.30638569321367742 0 0.4370541574406881 0.29873137323873378 0 0.42537006817859802 0.29192678509844577 0 0.4370541574406881 0.29873137323873378 0 0.42537006817859802 0.29192678509844577 0 0.43716414233282791 0.28369909613072319 0 0.42537006817859802 0.29192678509844577 0 0.43716414233282791 0.28369909613072319 0 0.42807725364527183 0.27867946429412987 0 0.42807725364527183 0.27867946429412987 0 0.41498471356475503 0.27417839847027609 0 0.43956288184933923 0.26475024080111631 0 0.43716414233282791 0.28369909613072319 0 0.42807725364527183 0.27867946429412987 0 0.43767157800028877 0.27570487527769733 0 0.42807725364527183 0.27867946429412987 0 0.43956288184933923 0.26475024080111631 0 0.43767157800028877 0.27570487527769733 0 0.41011334355109241 0.28753573590057269 0 0.42807725364527183 0.27867946429412987 0 0.41498471356475503 0.27417839847027609 0 0.40487723684707189 0.27024472526459709 0 0.41011334355109241 0.28753573590057269 0 0.41498471356475503 0.27417839847027609 0 0.41498471356475503 0.27417839847027609 0 0.41085430372439791 0.26096424265685858 0 0.43956288184933923 0.26475024080111631 0 0.40487723684707189 0.27024472526459709 0 0.41498471356475503 0.27417839847027609 0 0.41085430372439791 0.26096424265685858 0 0.41085430372439791 0.26096424265685858 0 0.41601140868938158 0.2509022152590541 0 0.40220614802616023 0.2483237479691611 0 0.41085430372439791 0.26096424265685858 0 0.41601140868938158 0.2509022152590541 0 0.43956288184933923 0.26475024080111631 0 0.41085430372439791 0.26096424265685858 0 0.43956288184933923 0.26475024080111631 0 0.43956288184933923 0.26475024080111631 0 0.4281923492170836 0.2450642385278147 0 0.41601140868938158 0.2509022152590541 0 0.43956288184933923 0.26475024080111631 0 0.4281923492170836 0.2450642385278147 0 0.43956288184933923 0.26475024080111631 0 0.44588203417371652 0.27569069988482148 0 0.4633055895088094 0.26788135536719487 0 0.44588203417371652 0.27569069988482148 0 0.4633055895088094 0.26788135536719487 0 0.45017987347475091 0.28330636430296618 0 0.43956288184933923 0.26475024080111631 0 0.4633055895088094 0.26788135536719487 0 0.43716414233282791 0.28369909613072319 0 0.43767157800028877 0.27570487527769733 0 0.44588203417371652 0.27569069988482148 0 0.43716414233282791 0.28369909613072319 0 0.44588203417371652 0.27569069988482148 0 0.45017987347475091 0.28330636430296618 0 0.43956288184933923 0.26475024080111631 0 0.44588203417371652 0.27569069988482148 0 0.43956288184933923 0.26475024080111631 0 0.43767157800028877 0.27570487527769733 0 0.44588203417371652 0.27569069988482148 0 0.4633055895088094 0.26788135536719487 0 0.46622080713894409 0.28365910829049301 0 0.45017987347475091 0.28330636430296618 0 0.4633055895088094 0.26788135536719487 0 0.45017987347475091 0.28330636430296618 0 0.43956288184933923 0.26475024080111631 0 0.4633055895088094 0.26788135536719487 0 0.46229010975999352 0.24892346532678791 0 0.4633055895088094 0.26788135536719487 0 0.48088301881285778 0.27019941216667148 0 0.48116618200302957 0.24689203957624081 0 0.4633055895088094 0.26788135536719487 0 0.46229010975999352 0.24892346532678791 0 0.48116618200302957 0.24689203957624081 0 0.48088301881285778 0.27019941216667148 0 0.490280504995592 0.26224978573566882 0 0.48116618200302957 0.24689203957624081 0 0.4633055895088094 0.26788135536719487 0 0.48116618200302957 0.24689203957624081 0 0.48088301881285778 0.27019941216667148 0 0.48437260323590958 0.28544550323096601 0 0.46622080713894409 0.28365910829049301 0 0.4633055895088094 0.26788135536719487 0 0.48088301881285778 0.27019941216667148 0 0.46622080713894409 0.28365910829049301 0 0.4633055895088094 0.26788135536719487 0 0.48088301881285778 0.27019941216667148 0 0.48088301881285778 0.27019941216667148 0 0.49846044811690571 0.27251746896615131 0 0.490280504995592 0.26224978573566882 0 0.48088301881285778 0.27019941216667148 0 0.49846044811690571 0.27251746896615131 0 0.48088301881285778 0.27019941216667148 0 0.49846044811690571 0.27251746896615131 0 0.48437260323590958 0.28544550323096601 0 0.49846044811690571 0.27251746896615131 0 0.5 0.25684581679738833 0 0.5 0.28608186992090101 0 0.49846044811690571 0.27251746896615131 0 0.5 0.25684581679738833 0 0.490280504995592 0.26224978573566882 0 0.5 0.25684581679738833 0 0.490280504995592 0.26224978573566882 0 0.48116618200302957 0.24689203957624081 0 0.48451439793702511 0.29882999866182358 0 0.5 0.28608186992090101 0 0.5 0.31531792304441392 0 0.48451439793702511 0.29882999866182358 0 0.47025894034651677 0.31113352769335112 0 0.5 0.31531792304441392 0 0.48451439793702511 0.29882999866182358 0 0.5 0.28608186992090101 0 0.48437260323590958 0.28544550323096601 0 0.49846044811690571 0.27251746896615131 0 0.5 0.28608186992090101 0 0.48437260323590958 0.28544550323096601 0 0.48437260323590958 0.28544550323096601 0 0.47051056080085252 0.29566458175559313 0 0.46622080713894409 0.28365910829049301 0 0.48451439793702511 0.29882999866182358 0 0.48437260323590958 0.28544550323096601 0 0.47051056080085252 0.29566458175559313 0 0.48451439793702511 0.29882999866182358 0 0.47051056080085252 0.29566458175559313 0 0.47025894034651677 0.31113352769335112 0 0.47025894034651677 0.31113352769335112 0 0.45341049962866831 0.30283982892345879 0 0.45468933493058122 0.3203800836804353 0 0.47051056080085252 0.29566458175559313 0 0.47025894034651677 0.31113352769335112 0 0.45341049962866831 0.30283982892345879 0 0.46622080713894409 0.28365910829049301 0 0.46008043526080389 0.29136747081812769 0 0.45017987347475091 0.28330636430296618 0 0.47051056080085252 0.29566458175559313 0 0.45341049962866831 0.30283982892345879 0 0.46008043526080389 0.29136747081812769 0 0.45341049962866831 0.30283982892345879 0 0.46008043526080389 0.29136747081812769 0 0.45017987347475091 0.28330636430296618 0 0.47051056080085252 0.29566458175559313 0 0.46622080713894409 0.28365910829049301 0 0.46008043526080389 0.29136747081812769 0 0.4370541574406881 0.29873137323873378 0 0.45341049962866831 0.30283982892345879 0 0.45017987347475091 0.28330636430296618 0 0.4370541574406881 0.29873137323873378 0 0.45017987347475091 0.28330636430296618 0 0.4370541574406881 0.29873137323873378 0 0.43716414233282791 0.28369909613072319 0 0.45017987347475091 0.28330636430296618 0 0.4370541574406881 0.29873137323873378 0 0.45341049962866831 0.30283982892345879 0 0.43807970232221061 0.31513763283615681 0 0.43807970232221061 0.31513763283615681 0 0.44307788436410761 0.33869519343753163 0 0.45468933493058122 0.3203800836804353 0 0.45341049962866831 0.30283982892345879 0 0.43807970232221061 0.31513763283615681 0 0.45468933493058122 0.3203800836804353 0 0.44307788436410761 0.33869519343753163 0 0.45468933493058122 0.3203800836804353 0 0.4732327094433374 0.3308508051503582 0 0.44307788436410761 0.33869519343753163 0 0.4732327094433374 0.3308508051503582 0 0.47127453306582068 0.35745160055520642 0 0.47025894034651677 0.31113352769335112 0 0.45468933493058122 0.3203800836804353 0 0.4732327094433374 0.3308508051503582 0 0.47025894034651677 0.31113352769335112 0 0.4732327094433374 0.3308508051503582 0 0.5 0.31531792304441392 0 0.4732327094433374 0.3308508051503582 0 0.5 0.31531792304441392 0 0.5 0.3445539761679266 0 0.5 0.37379002929143917 0 0.5 0.3445539761679266 0 0.47127453306582068 0.35745160055520642 0 0.4732327094433374 0.3308508051503582 0 0.5 0.3445539761679266 0 0.47127453306582068 0.35745160055520642 0 0.5 0.37379002929143917 0 0.47127453306582068 0.35745160055520642 0 0.47834543722530548 0.38010382181053559 0 0.47127453306582068 0.35745160055520642 0 0.4578534462227723 0.37546050764655142 0 0.47834543722530548 0.38010382181053559 0 0.47127453306582068 0.35745160055520642 0 0.44678413475247297 0.36161994756700372 0 0.4578534462227723 0.37546050764655142 0 0.44307788436410761 0.33869519343753163 0 0.47127453306582068 0.35745160055520642 0 0.44678413475247297 0.36161994756700372 0 0.44307788436410761 0.33869519343753163 0 0.44678413475247297 0.36161994756700372 0 0.42650454823695633 0.357129637019237 0 0.44678413475247297 0.36161994756700372 0 0.43521026187270823 0.37936279917649229 0 0.4578534462227723 0.37546050764655142 0 0.44678413475247297 0.36161994756700372 0 0.42650454823695633 0.357129637019237 0 0.43521026187270823 0.37936279917649229 0 0.42650454823695633 0.357129637019237 0 0.41163897919555509 0.37613500248033283 0 0.43521026187270823 0.37936279917649229 0 0.41363902616027881 0.35310711034185099 0 0.40285462888696372 0.35986011986943378 0 0.41163897919555509 0.37613500248033283 0 0.41363902616027881 0.35310711034185099 0 0.42650454823695633 0.357129637019237 0 0.41163897919555509 0.37613500248033283 0 0.41363902616027881 0.35310711034185099 0 0.41445542110788491 0.33726882382306178 0 0.40365386639903428 0.3449653104626299 0 0.41363902616027881 0.35310711034185099 0 0.42650454823695633 0.357129637019237 0 0.41445542110788491 0.33726882382306178 0 0.41363902616027881 0.35310711034185099 0 0.40285462888696372 0.35986011986943378 0 0.40365386639903428 0.3449653104626299 0 0.44307788436410761 0.33869519343753163 0 0.42650454823695633 0.357129637019237 0 0.41445542110788491 0.33726882382306178 0 0.44307788436410761 0.33869519343753163 0 0.42075321954882161 0.32332449554443121 0 0.41445542110788491 0.33726882382306178 0 0.44307788436410761 0.33869519343753163 0 0.41445542110788491 0.33726882382306178 0 0.42013367421994441 0.30638569321367742 0 0.43807970232221061 0.31513763283615681 0 0.42075321954882161 0.32332449554443121 0 0.43807970232221061 0.31513763283615681 0 0.44307788436410761 0.33869519343753163 0 0.42075321954882161 0.32332449554443121 0 0.42013367421994441 0.30638569321367742 0 0.42075321954882161 0.32332449554443121 0 0.40776608346910059 0.31597371139158709 0 0.42075321954882161 0.32332449554443121 0 0.40776608346910059 0.31597371139158709 0 0.40100655180968148 0.32648591856457271 0 0.42075321954882161 0.32332449554443121 0 0.41445542110788491 0.33726882382306178 0 0.40100655180968148 0.32648591856457271 0 0.41445542110788491 0.33726882382306178 0 0.40100655180968148 0.32648591856457271 0 0.38583295785166222 0.33584245420859199 0 0.41445542110788491 0.33726882382306178 0 0.38583295785166222 0.33584245420859199 0 0.39071087252878012 0.34206903692652713 0 0.38583295785166222 0.33584245420859199 0 0.40365386639903428 0.3449653104626299 0 0.41445542110788491 0.33726882382306178 0 0.38583295785166222 0.33584245420859199 0 0.40365386639903428 0.3449653104626299 0 0.39546151416595271 0.31108036673726891 0 0.40776608346910059 0.31597371139158709 0 0.40100655180968148 0.32648591856457271 0 0.40100655180968148 0.32648591856457271 0 0.38580715014126499 0.32144072826049602 0 0.38583295785166222 0.33584245420859199 0 0.39546151416595271 0.31108036673726891 0 0.40100655180968148 0.32648591856457271 0 0.38580715014126499 0.32144072826049602 0 0.39546151416595271 0.31108036673726891 0 0.38580715014126499 0.32144072826049602 0 0.3857794608984752 0.30598903261453081 0 0.38580715014126499 0.32144072826049602 0 0.3857794608984752 0.30598903261453081 0 0.39546151416595271 0.31108036673726891 0 0.38580715014126499 0.32144072826049602 0 0.37197361706309467 0.3213463981502771 0 0.37214086289173293 0.32798967761859199 0 0.38580715014126499 0.32144072826049602 0 0.3857794608984752 0.30598903261453081 0 0.38580715014126499 0.32144072826049602 0 0.37641149964355303 0.31291697699893861 0 0.37197361706309467 0.3213463981502771 0 0.38580715014126499 0.32144072826049602 0 0.37641149964355303 0.31291697699893861 0 0.38580715014126499 0.32144072826049602 0 0.38583295785166222 0.33584245420859199 0 0.37298351949280723 0.33520211629378682 0 0.38583295785166222 0.33584245420859199 0 0.37298351949280723 0.33520211629378682 0 0.38580715014126499 0.32144072826049602 0 0.38583295785166222 0.33584245420859199 0 0.37298351949280723 0.33520211629378682 0 0.37214086289173293 0.32798967761859199 0 0.38580715014126499 0.32144072826049602 0 0.37298351949280723 0.33520211629378682 0 0.38580715014126499 0.32144072826049602 0 0.37298351949280723 0.33520211629378682 0 0.38583295785166222 0.33584245420859199 0 0.3771425128442546 0.349080970373077 0 0.39071087252878012 0.34206903692652713 0 0.38583295785166222 0.33584245420859199 0 0.38587925446423171 0.36167780016993351 0 0.38583295785166222 0.33584245420859199 0 0.38587925446423171 0.36167780016993351 0 0.39071087252878012 0.34206903692652713 0 0.38789564669658561 0.37178224847255431 0 0.38587925446423171 0.36167780016993351 0 0.38583295785166222 0.33584245420859199 0 0.3771425128442546 0.349080970373077 0 0.38587925446423171 0.36167780016993351 0 0.39071087252878012 0.34206903692652713 0 0.38789564669658561 0.37178224847255431 0 0.37241360004904622 0.36143213383377509 0 0.3771425128442546 0.349080970373077 0 0.38587925446423171 0.36167780016993351 0 0.37836938959517319 0.3704419966924607 0 0.38587925446423171 0.36167780016993351 0 0.38640093015575111 0.38755818668372649 0 0.38789564669658561 0.37178224847255431 0 0.38587925446423171 0.36167780016993351 0 0.38640093015575111 0.38755818668372649 0 0.37241360004904622 0.36143213383377509 0 0.37836938959517319 0.3704419966924607 0 0.38587925446423171 0.36167780016993351 0 0.38587925446423171 0.36167780016993351 0 0.38640093015575111 0.38755818668372649 0 0.39603991446313769 0.36355316231865131 0 0.40285462888696372 0.35986011986943378 0 0.39554808623818732 0.35524346836440629 0 0.38789564669658561 0.37178224847255431 0 0.39603991446313769 0.36355316231865131 0 0.39554808623818732 0.35524346836440629 0 0.39956854492259702 0.37033308068209281 0 0.40285462888696372 0.35986011986943378 0 0.41163897919555509 0.37613500248033283 0 0.38789564669658561 0.37178224847255431 0 0.39956854492259702 0.37033308068209281 0 0.39551127582011031 0.3801064591339216 0 0.38789564669658561 0.37178224847255431 0 0.39603991446313769 0.36355316231865131 0 0.39956854492259702 0.37033308068209281 0 0.39603991446313769 0.36355316231865131 0 0.39956854492259702 0.37033308068209281 0 0.40285462888696372 0.35986011986943378 0 0.40285462888696372 0.35986011986943378 0 0.40365386639903428 0.3449653104626299 0 0.39554808623818732 0.35524346836440629 0 0.39071087252878012 0.34206903692652713 0 0.38789564669658561 0.37178224847255431 0 0.39554808623818732 0.35524346836440629 0 0.39071087252878012 0.34206903692652713 0 0.40365386639903428 0.3449653104626299 0 0.39554808623818732 0.35524346836440629 0 0.39902052393869758 0.40527421395413132 0 0.39835970002997478 0.38881523124945788 0 0.38508042086439331 0.40149546001858177 0 0.39902052393869758 0.40527421395413132 0 0.39835970002997478 0.38881523124945788 0 0.41613585481277637 0.39645933726278942 0 0.39835970002997478 0.38881523124945788 0 0.38508042086439331 0.40149546001858177 0 0.39551127582011031 0.3801064591339216 0 0.39835970002997478 0.38881523124945788 0 0.41163897919555509 0.37613500248033283 0 0.39551127582011031 0.3801064591339216 0 0.39835970002997478 0.38881523124945788 0 0.38508042086439331 0.40149546001858177 0 0.39956854492259702 0.37033308068209281 0 0.39551127582011031 0.3801064591339216 0 0.41163897919555509 0.37613500248033283 0 0.39835970002997478 0.38881523124945788 0 0.41163897919555509 0.37613500248033283 0 0.37836938959517319 0.3704419966924607 0 0.38640093015575111 0.38755818668372649 0 0.37607855043756638 0.38042158153032463 0 0.38789564669658561 0.37178224847255431 0 0.39551127582011031 0.3801064591339216 0 0.38640093015575111 0.38755818668372649 0 0.38789564669658561 0.37178224847255431 0 0.38640093015575111 0.38755818668372649 0 0.39551127582011031 0.3801064591339216 0 0.38640093015575111 0.38755818668372649 0 0.38508042086439331 0.40149546001858177 0 0.37221941422516369 0.38899224278270339 0 0.38640093015575111 0.38755818668372649 0 0.37607855043756638 0.38042158153032463 0 0.37221941422516369 0.38899224278270339 0 0.38640093015575111 0.38755818668372649 0 0.38508042086439331 0.40149546001858177 0 0.38640093015575111 0.38755818668372649 0 0.38508042086439331 0.40149546001858177 0 0.39902052393869758 0.40527421395413132 0 0.38508042086439331 0.40149546001858177 0 0.38344608944054259 0.41874495907396531 0 0.36543463872039578 0.42025498821496238 0 0.38508042086439331 0.40149546001858177 0 0.38344608944054259 0.41874495907396531 0 0.38508042086439331 0.40149546001858177 0 0.38344608944054259 0.41874495907396531 0 0.36543463872039578 0.42025498821496238 0 0.38508042086439331 0.40149546001858177 0 0.38344608944054259 0.41874495907396531 0 0.38181175801669409 0.43599445812934889 0 0.3713718276929816 0.43046730308967779 0 0.38344608944054259 0.41874495907396531 0 0.38181175801669409 0.43599445812934889 0 0.38344608944054259 0.41874495907396531 0 0.38181175801669409 0.43599445812934889 0 0.39798921244547969 0.42389296841224211 0 0.38181175801669409 0.43599445812934889 0 0.39798921244547969 0.42389296841224211 0 0.40103701108156331 0.4390163063492728 0 0.39798921244547969 0.42389296841224211 0 0.41089898903430289 0.42758604668068712 0 0.40103701108156331 0.4390163063492728 0 0.39902052393869758 0.40527421395413132 0 0.38344608944054259 0.41874495907396531 0 0.39798921244547969 0.42389296841224211 0 0.39902052393869758 0.40527421395413132 0 0.39798921244547969 0.42389296841224211 0 0.41012765914510679 0.41335955581578671 0 0.41012765914510679 0.41335955581578671 0 0.42659500064744038 0.41788421511457008 0 0.41613585481277637 0.39645933726278942 0 0.41012765914510679 0.41335955581578671 0 0.41089898903430289 0.42758604668068712 0 0.42659500064744038 0.41788421511457008 0 0.39798921244547969 0.42389296841224211 0 0.41012765914510679 0.41335955581578671 0 0.41089898903430289 0.42758604668068712 0 0.41089898903430289 0.42758604668068712 0 0.42659500064744038 0.41788421511457008 0 0.41810415468897277 0.44324344104553048 0 0.41089898903430289 0.42758604668068712 0 0.41810415468897277 0.44324344104553048 0 0.40103701108156331 0.4390163063492728 0 0.42659500064744038 0.41788421511457008 0 0.44174474370207051 0.4288024000675571 0 0.41810415468897277 0.44324344104553048 0 0.44174474370207051 0.4288024000675571 0 0.41810415468897277 0.44324344104553048 0 0.42659500064744038 0.41788421511457008 0 0.43485523771497703 0.39859442771568698 0 0.4464619627885637 0.41062831791502569 0 0.43485523771497703 0.39859442771568698 0 0.41613585481277637 0.39645933726278942 0 0.43521026187270823 0.37936279917649229 0 0.42659500064744038 0.41788421511457008 0 0.43485523771497703 0.39859442771568698 0 0.41613585481277637 0.39645933726278942 0 0.39902052393869758 0.40527421395413132 0 0.41012765914510679 0.41335955581578671 0 0.41613585481277637 0.39645933726278942 0 0.41613585481277637 0.39645933726278942 0 0.41163897919555509 0.37613500248033283 0 0.43521026187270823 0.37936279917649229 0 0.39835970002997478 0.38881523124945788 0 0.41613585481277637 0.39645933726278942 0 0.41163897919555509 0.37613500248033283 0 0.43521026187270823 0.37936279917649229 0 0.45255240982862621 0.39398712978095601 0 0.4578534462227723 0.37546050764655142 0 0.43485523771497703 0.39859442771568698 0 0.43521026187270823 0.37936279917649229 0 0.45255240982862621 0.39398712978095601 0 0.43485523771497703 0.39859442771568698 0 0.45255240982862621 0.39398712978095601 0 0.4464619627885637 0.41062831791502569 0 0.45255240982862621 0.39398712978095601 0 0.4701163249949325 0.3952816072407116 0 0.46538533271516808 0.41436135908958388 0 0.45255240982862621 0.39398712978095601 0 0.4578534462227723 0.37546050764655142 0 0.4701163249949325 0.3952816072407116 0 0.4578534462227723 0.37546050764655142 0 0.47834543722530548 0.38010382181053559 0 0.4701163249949325 0.3952816072407116 0 0.47834543722530548 0.38010382181053559 0 0.4701163249949325 0.3952816072407116 0 0.48902592172826581 0.39992031811161061 0 0.4701163249949325 0.3952816072407116 0 0.48902592172826581 0.39992031811161061 0 0.46538533271516808 0.41436135908958388 0 0.5 0.37379002929143917 0 0.5 0.40302608241495191 0 0.48902592172826581 0.39992031811161061 0 0.5 0.37379002929143917 0 0.47834543722530548 0.38010382181053559 0 0.48902592172826581 0.39992031811161061 0 0.5 0.43226213553846449 0 0.48879845719806719 0.41763782542649391 0 0.47341248497113297 0.43852995529641092 0 0.5 0.40302608241495191 0 0.48902592172826581 0.39992031811161061 0 0.48879845719806719 0.41763782542649391 0 0.5 0.40302608241495191 0 0.5 0.43226213553846449 0 0.48879845719806719 0.41763782542649391 0 0.48902592172826581 0.39992031811161061 0 0.46538533271516808 0.41436135908958388 0 0.48902592172826581 0.39992031811161061 0 0.48879845719806719 0.41763782542649391 0 0.46538533271516808 0.41436135908958388 0 0.48879845719806719 0.41763782542649391 0 0.46538533271516808 0.41436135908958388 0 0.47341248497113297 0.43852995529641092 0 0.46538533271516808 0.41436135908958388 0 0.44174474370207051 0.4288024000675571 0 0.47341248497113297 0.43852995529641092 0 0.46538533271516808 0.41436135908958388 0 0.44174474370207051 0.4288024000675571 0 0.45255240982862621 0.39398712978095601 0 0.46538533271516808 0.41436135908958388 0 0.4464619627885637 0.41062831791502569 0 0.42659500064744038 0.41788421511457008 0 0.4464619627885637 0.41062831791502569 0 0.44174474370207051 0.4288024000675571 0 0.46538533271516808 0.41436135908958388 0 0.4464619627885637 0.41062831791502569 0 0.44174474370207051 0.4288024000675571 0 0.44174474370207051 0.4288024000675571 0 0.44736996457675138 0.45186605896041931 0 0.47341248497113297 0.43852995529641092 0 0.45265480389364537 0.47258635172075109 0 0.42898220584046831 0.46351240668838178 0 0.44736996457675138 0.45186605896041931 0 0.45265480389364537 0.47258635172075109 0 0.42898220584046831 0.46351240668838178 0 0.44736996457675138 0.45186605896041931 0 0.4699529310776705 0.46122817027853591 0 0.45265480389364537 0.47258635172075109 0 0.44736996457675138 0.45186605896041931 0 0.47341248497113297 0.43852995529641092 0 0.4699529310776705 0.46122817027853591 0 0.47341248497113297 0.43852995529641092 0 0.4699529310776705 0.46122817027853591 0 0.5 0.461498188661977 0 0.4699529310776705 0.46122817027853591 0 0.5 0.461498188661977 0 0.47632740194682249 0.4816602967531205 0 0.5 0.43226213553846449 0 0.47341248497113297 0.43852995529641092 0 0.5 0.461498188661977 0 0.5 0.5 0 0.47632740194682249 0.4816602967531205 0 0.45517015964660262 0.5 0 0.49999999999999972 0.49073424178548958 0 0.47632740194682249 0.4816602967531205 0 0.5 0.5 0 0.49999999999999972 0.49073424178548958 0 0.47632740194682249 0.4816602967531205 0 0.5 0.461498188661977 0 0.49999999999999972 0.49073424178548958 0 0.47632740194682249 0.4816602967531205 0 0.47632740194682249 0.4816602967531205 0 0.45517015964660262 0.5 0 0.45265480389364537 0.47258635172075109 0 0.4699529310776705 0.46122817027853591 0 0.47632740194682249 0.4816602967531205 0 0.45265480389364537 0.47258635172075109 0 0.47632740194682249 0.4816602967531205 0 0.45265480389364537 0.47258635172075109 0 0.45517015964660262 0.5 0 0.45265480389364537 0.47258635172075109 0 0.42563056550190242 0.48076969807903619 0 0.42563056550190242 0.48076969807903619 0 0.39425422565868162 0.49999999999999978 0 0.40481387115983147 0.47711704476726408 0 0.45517015964660262 0.5 0 0.42563056550190242 0.48076969807903619 0 0.39425422565868162 0.49999999999999978 0 0.41790812681218492 0.4714023852978203 0 0.42563056550190242 0.48076969807903619 0 0.40481387115983147 0.47711704476726408 0 0.41790812681218492 0.4714023852978203 0 0.40601619880861922 0.46620593115032383 0 0.40481387115983147 0.47711704476726408 0 0.41790812681218492 0.4714023852978203 0 0.42563056550190242 0.48076969807903619 0 0.42898220584046831 0.46351240668838178 0 0.45265480389364537 0.47258635172075109 0 0.42563056550190242 0.48076969807903619 0 0.42898220584046831 0.46351240668838178 0 0.44174474370207051 0.4288024000675571 0 0.44736996457675138 0.45186605896041931 0 0.41810415468897277 0.44324344104553048 0 0.44736996457675138 0.45186605896041931 0 0.42898220584046831 0.46351240668838178 0 0.41810415468897277 0.44324344104553048 0 0.41810415468897277 0.44324344104553048 0 0.40738889449321408 0.45496868203179941 0 0.40103701108156331 0.4390163063492728 0 0.41810415468897277 0.44324344104553048 0 0.41567991612869187 0.45986656924277108 0 0.40738889449321408 0.45496868203179941 0 0.42898220584046831 0.46351240668838178 0 0.41810415468897277 0.44324344104553048 0 0.41567991612869187 0.45986656924277108 0 0.41790812681218492 0.4714023852978203 0 0.42898220584046831 0.46351240668838178 0 0.41567991612869187 0.45986656924277108 0 0.41567991612869187 0.45986656924277108 0 0.40738889449321408 0.45496868203179941 0 0.40601619880861922 0.46620593115032383 0 0.41790812681218492 0.4714023852978203 0 0.41567991612869187 0.45986656924277108 0 0.40601619880861922 0.46620593115032383 0 0.40601619880861922 0.46620593115032383 0 0.39908449623176673 0.45657127234403788 0 0.39692263972575259 0.47600841898218088 0 0.39908449623176673 0.45657127234403788 0 0.39692263972575259 0.47600841898218088 0 0.40738889449321408 0.45496868203179941 0 0.40601619880861922 0.46620593115032383 0 0.39908449623176673 0.45657127234403788 0 0.40738889449321408 0.45496868203179941 0 0.39908449623176673 0.45657127234403788 0 0.40738889449321408 0.45496868203179941 0 0.39908449623176673 0.45657127234403788 0 0.40103701108156331 0.4390163063492728 0 0.39908449623176673 0.45657127234403788 0 0.40103701108156331 0.4390163063492728 0 0.39908449623176673 0.45657127234403788 0 0.40103701108156331 0.4390163063492728 0 0.38750446962343432 0.4496920759017754 0 0.36854322034996051 0.44772295669939999 0 0.38181175801669409 0.43599445812934889 0 0.38750446962343432 0.4496920759017754 0 0.36854322034996051 0.44772295669939999 0 0.38750446962343432 0.4496920759017754 0 0.38181175801669409 0.43599445812934889 0 0.40103701108156331 0.4390163063492728 0 0.38750446962343432 0.4496920759017754 0 0.36854322034996051 0.44772295669939999 0 0.38750446962343432 0.4496920759017754 0 0.38115436387701829 0.45406741574037618 0 0.3694852693029117 0.46228335801629139 0 0.39908449623176673 0.45657127234403788 0 0.39908449623176673 0.45657127234403788 0 0.38750446962343432 0.4496920759017754 0 0.38115436387701829 0.45406741574037618 0 0.3694852693029117 0.46228335801629139 0 0.39908449623176673 0.45657127234403788 0 0.38115436387701829 0.45406741574037618 0 0.3694852693029117 0.46228335801629139 0 0.39908449623176673 0.45657127234403788 0 0.39692263972575259 0.47600841898218088 0 0.36840434104990488 0.47200193133536261 0 0.38092589942564797 0.48637339949993669 0 0.39692263972575259 0.47600841898218088 0 0.36840434104990488 0.47200193133536261 0 0.3694852693029117 0.46228335801629139 0 0.39692263972575259 0.47600841898218088 0 0.36840434104990488 0.47200193133536261 0 0.39692263972575259 0.47600841898218088 0 0.36475325508752549 0.5 0 0.38092589942564797 0.48637339949993669 0 0.39425422565868162 0.49999999999999978 0 0.39425422565868162 0.49999999999999978 0 0.39692263972575259 0.47600841898218088 0 0.39425422565868162 0.49999999999999978 0 0.40481387115983147 0.47711704476726408 0 0.39692263972575259 0.47600841898218088 0 0.38092589942564797 0.48637339949993669 0 0.39425422565868162 0.49999999999999978 0 0.39692263972575259 0.47600841898218088 0 0.40481387115983147 0.47711704476726408 0 0.39692263972575259 0.47600841898218088 0 0.40601619880861922 0.46620593115032383 0 0.40481387115983147 0.47711704476726408 0 0.39692263972575259 0.47600841898218088 0 0.33463156896541391 0.09290114232479392 0 0.3416304009971336 0.077560914197807529 0 0.351985600573888 0.096337610417817049 0 0.33463156896541391 0.09290114232479392 0 0.3416304009971336 0.077560914197807529 0 0.32600865470297058 0.080186890368977956 0 0.3416304009971336 0.077560914197807529 0 0.34130595826985072 0.063758014003548122 0 0.32841860091023067 0.06610484180084919 0 0.3416304009971336 0.077560914197807529 0 0.32841860091023067 0.06610484180084919 0 0.32600865470297058 0.080186890368977956 0 0.32841860091023067 0.06610484180084919 0 0.31866294281158408 0.052583008213600631 0 0.31201348309264748 0.073904918128083363 0 0.32841860091023067 0.06610484180084919 0 0.32600865470297058 0.080186890368977956 0 0.31201348309264748 0.073904918128083363 0 0.32600865470297058 0.080186890368977956 0 0.31805362322103092 0.092293730336669016 0 0.31201348309264748 0.073904918128083363 0 0.33463156896541391 0.09290114232479392 0 0.32600865470297058 0.080186890368977956 0 0.31805362322103092 0.092293730336669016 0 0.33463156896541391 0.09290114232479392 0 0.31805362322103092 0.092293730336669016 0 0.32874339913688599 0.10632634052266091 0 0.31805362322103092 0.092293730336669016 0 0.31347166512416191 0.1068075599724968 0 0.32874339913688599 0.10632634052266091 0 0.31347166512416191 0.1068075599724968 0 0.30202837069255678 0.1184144632157345 0 0.32233939219712282 0.1252536490163268 0 0.31347166512416191 0.1068075599724968 0 0.32874339913688599 0.10632634052266091 0 0.32233939219712282 0.1252536490163268 0 0.34314971641399639 0.11940488142219589 0 0.32874339913688599 0.10632634052266091 0 0.32233939219712282 0.1252536490163268 0 0.34314971641399639 0.11940488142219589 0 0.32874339913688599 0.10632634052266091 0 0.34263241819896872 0.1049516775470932 0 0.33463156896541391 0.09290114232479392 0 0.34263241819896872 0.1049516775470932 0 0.351985600573888 0.096337610417817049 0 0.33463156896541391 0.09290114232479392 0 0.32874339913688599 0.10632634052266091 0 0.34263241819896872 0.1049516775470932 0 0.34263241819896872 0.1049516775470932 0 0.351985600573888 0.096337610417817049 0 0.35718117198144778 0.1102890319325226 0 0.351985600573888 0.096337610417817049 0 0.35718117198144778 0.1102890319325226 0 0.36507193476595812 0.098822152456019552 0 0.34314971641399639 0.11940488142219589 0 0.35718117198144778 0.1102890319325226 0 0.36512831101939303 0.12733801785880641 0 0.34314971641399639 0.11940488142219589 0 0.34263241819896872 0.1049516775470932 0 0.35718117198144778 0.1102890319325226 0 0.35718117198144778 0.1102890319325226 0 0.37140437679355942 0.11066459462832989 0 0.36512831101939303 0.12733801785880641 0 0.37140437679355942 0.11066459462832989 0 0.36512831101939303 0.12733801785880641 0 0.3824347748262375 0.1218121080201281 0 0.351985600573888 0.096337610417817049 0 0.36507193476595812 0.098822152456019552 0 0.36289125014550261 0.087288335761524546 0 0.35718117198144778 0.1102890319325226 0 0.37140437679355942 0.11066459462832989 0 0.36507193476595812 0.098822152456019552 0 0.37140437679355942 0.11066459462832989 0 0.36507193476595812 0.098822152456019552 0 0.37558135761635181 0.098927269493736772 0 0.36507193476595812 0.098822152456019552 0 0.3727935908830754 0.088620323026824294 0 0.37558135761635181 0.098927269493736772 0 0.3727935908830754 0.088620323026824294 0 0.36765193749087799 0.074354266857477411 0 0.3727935908830754 0.088620323026824294 0 0.36765193749087799 0.074354266857477411 0 0.37435547445834971 0.073810669538177553 0 0.3727935908830754 0.088620323026824294 0 0.36289125014550261 0.087288335761524546 0 0.36765193749087799 0.074354266857477411 0 0.36289125014550261 0.087288335761524546 0 0.35724794233628399 0.078212910552973844 0 0.36765193749087799 0.074354266857477411 0 0.36507193476595812 0.098822152456019552 0 0.3727935908830754 0.088620323026824294 0 0.36289125014550261 0.087288335761524546 0 0.351985600573888 0.096337610417817049 0 0.35724794233628399 0.078212910552973844 0 0.3416304009971336 0.077560914197807529 0 0.351985600573888 0.096337610417817049 0 0.35724794233628399 0.078212910552973844 0 0.351985600573888 0.096337610417817049 0 0.36289125014550261 0.087288335761524546 0 0.35724794233628399 0.078212910552973844 0 0.35724794233628399 0.078212910552973844 0 0.35167387455648508 0.066738913526584565 0 0.36251028409868019 0.06008821068813068 0 0.3416304009971336 0.077560914197807529 0 0.34130595826985072 0.063758014003548122 0 0.35167387455648508 0.066738913526584565 0 0.3416304009971336 0.077560914197807529 0 0.35724794233628399 0.078212910552973844 0 0.35167387455648508 0.066738913526584565 0 0.37435547445834971 0.073810669538177553 0 0.36430480548138172 0.061382034521124861 0 0.36414395259446042 0.054461485457880467 0 0.35724794233628399 0.078212910552973844 0 0.36765193749087799 0.074354266857477411 0 0.36251028409868019 0.06008821068813068 0 0.36765193749087799 0.074354266857477411 0 0.36251028409868019 0.06008821068813068 0 0.37435547445834971 0.073810669538177553 0 0.37297835566059462 0.059643584032000332 0 0.36414395259446042 0.054461485457880467 0 0.36765193749087799 0.074354266857477411 0 0.36430480548138172 0.061382034521124861 0 0.36251028409868019 0.06008821068813068 0 0.37435547445834971 0.073810669538177553 0 0.36414395259446042 0.054461485457880467 0 0.35724794233628399 0.078212910552973844 0 0.36251028409868019 0.06008821068813068 0 0.36765193749087799 0.074354266857477411 0 0.37435547445834971 0.073810669538177553 0 0.36430480548138172 0.061382034521124861 0 0.37297835566059462 0.059643584032000332 0 0.36414395259446042 0.054461485457880467 0 0.37598130368658822 0.050435933298893051 0 0.36251028409868019 0.06008821068813068 0 0.36327679279346231 0.052818357739976222 0 0.35783004013801328 0.042497641477024457 0 0.36430480548138172 0.061382034521124861 0 0.36366999875967942 0.056093890077926908 0 0.36430480548138172 0.061382034521124861 0 0.36366999875967942 0.056093890077926908 0 0.36251028409868019 0.06008821068813068 0 0.36430480548138172 0.061382034521124861 0 0.36366999875967942 0.056093890077926908 0 0.36414395259446042 0.054461485457880467 0 0.36366999875967942 0.056093890077926908 0 0.36414395259446042 0.054461485457880467 0 0.36366999875967942 0.056093890077926908 0 0.36251028409868019 0.06008821068813068 0 0.36327679279346231 0.052818357739976222 0 0.36366999875967942 0.056093890077926908 0 0.36251028409868019 0.06008821068813068 0 0.36327679279346231 0.052818357739976222 0 0.35783004013801328 0.042497641477024457 0 0.36414395259446042 0.054461485457880467 0 0.36838959595296961 0.039838525741348857 0 0.36327679279346231 0.052818357739976222 0 0.36414395259446042 0.054461485457880467 0 0.36838959595296961 0.039838525741348857 0 0.36366999875967942 0.056093890077926908 0 0.36327679279346231 0.052818357739976222 0 0.36414395259446042 0.054461485457880467 0 0.36366999875967942 0.056093890077926908 0 0.36327679279346231 0.052818357739976222 0 0.36327679279346231 0.052818357739976222 0 0.36414395259446042 0.054461485457880467 0 0.36414395259446042 0.054461485457880467 0 0.36838959595296961 0.039838525741348857 0 0.37598130368658822 0.050435933298893051 0 0.36838959595296961 0.039838525741348857 0 0.37353067451150118 0.022131483883895551 0 0.38269200821478189 0.032240620396001958 0 0.36838959595296961 0.039838525741348857 0 0.36164436767065422 0.039219730713836227 0 0.36596989591924911 0.030605272793842401 0 0.36327679279346231 0.052818357739976222 0 0.36164436767065422 0.039219730713836227 0 0.36327679279346231 0.052818357739976222 0 0.36838959595296961 0.039838525741348857 0 0.36164436767065422 0.039219730713836227 0 0.36327679279346231 0.052818357739976222 0 0.36164436767065422 0.039219730713836227 0 0.35783004013801328 0.042497641477024457 0 0.36838959595296961 0.039838525741348857 0 0.36164436767065422 0.039219730713836227 0 0.36164436767065422 0.039219730713836227 0 0.3547614671043503 0.038588305880299573 0 0.34880904964339221 0.022072699836085181 0 0.3547614671043503 0.038588305880299573 0 0.34880904964339221 0.022072699836085181 0 0.32994754830929129 0.03631192190619164 0 0.36164436767065422 0.039219730713836227 0 0.35783004013801328 0.042497641477024457 0 0.3547614671043503 0.038588305880299573 0 0.36164436767065422 0.039219730713836227 0 0.3547614671043503 0.038588305880299573 0 0.36251028409868019 0.06008821068813068 0 0.35783004013801328 0.042497641477024457 0 0.3547614671043503 0.038588305880299573 0 0.36251028409868019 0.06008821068813068 0 0.3547614671043503 0.038588305880299573 0 0.3502529696533499 0.052359555571510279 0 0.36251028409868019 0.06008821068813068 0 0.3547614671043503 0.038588305880299573 0 0.3547614671043503 0.038588305880299573 0 0.3502529696533499 0.052359555571510279 0 0.33618020850990349 0.050623718803669122 0 0.34130595826985072 0.063758014003548122 0 0.35167387455648508 0.066738913526584565 0 0.3502529696533499 0.052359555571510279 0 0.35167387455648508 0.066738913526584565 0 0.36251028409868019 0.06008821068813068 0 0.3502529696533499 0.052359555571510279 0 0.36073639883228298 0.010118916210872009 0 0.37598748480921401 -0.0085898363924484626 0 0.37114691521963322 0.01144195811656998 0 0.36073639883228298 0.010118916210872009 0 0.37598748480921401 -0.0085898363924484626 0 0.37114691521963322 0.01144195811656998 0 0.36477378524072662 0.01315615552935724 0 0.36073639883228298 0.010118916210872009 0 0.36137734848033087 0.01393092201916645 0 0.36178697791921399 0.0218196817334699 0 0.35821223192910012 0.01062893460296665 0 0.37114691521963322 0.01144195811656998 0 0.36477378524072662 0.01315615552935724 0 0.36178697791921399 0.0218196817334699 0 0.36073639883228298 0.010118916210872009 0 0.36137734848033087 0.01393092201916645 0 0.35821223192910012 0.01062893460296665 0 0.36477378524072662 0.01315615552935724 0 0.36073639883228298 0.010118916210872009 0 0.36137734848033087 0.01393092201916645 0 0.36838959595296961 0.039838525741348857 0 0.37353067451150118 0.022131483883895551 0 0.36596989591924911 0.030605272793842401 0 0.36838959595296961 0.039838525741348857 0 0.37353067451150118 0.022131483883895551 0 0.36164436767065422 0.039219730713836227 0 0.36178697791921399 0.0218196817334699 0 0.36596989591924911 0.030605272793842401 0 0.36164436767065422 0.039219730713836227 0 0.35821223192910012 0.01062893460296665 0 0.36164436767065422 0.039219730713836227 0 0.36178697791921399 0.0218196817334699 0 0.35821223192910012 0.01062893460296665 0 0.36477378524072662 0.01315615552935724 0 0.36137734848033087 0.01393092201916645 0 0.36178697791921399 0.0218196817334699 0 0.37114691521963322 0.01144195811656998 0 0.36178697791921399 0.0218196817334699 0 0.37353067451150118 0.022131483883895551 0 0.36178697791921399 0.0218196817334699 0 0.37353067451150118 0.022131483883895551 0 0.36596989591924911 0.030605272793842401 0 0.36164436767065422 0.039219730713836227 0 0.34880904964339221 0.022072699836085181 0 0.35821223192910012 0.01062893460296665 0 0.3547614671043503 0.038588305880299573 0 0.34880904964339221 0.022072699836085181 0 0.36073639883228298 0.010118916210872009 0 0.35821223192910012 0.01062893460296665 0 0.35478009618754641 -0.017961861507902788 0 0.34880904964339221 0.022072699836085181 0 0.3428566321824339 0.0055570937918707763 0 0.34880904964339221 0.022072699836085181 0 0.35821223192910012 0.01062893460296665 0 0.3428566321824339 0.0055570937918707763 0 0.34880904964339221 0.022072699836085181 0 0.3428566321824339 0.0055570937918707763 0 0.3276157426795453 0.018128909760567628 0 0.3428566321824339 0.0055570937918707763 0 0.3276157426795453 0.018128909760567628 0 0.325883089216841 0.00030087900974781837 0 0.34880904964339221 0.022072699836085181 0 0.3276157426795453 0.018128909760567628 0 0.32994754830929129 0.03631192190619164 0 0.3276157426795453 0.018128909760567628 0 0.32994754830929129 0.03631192190619164 0 0.30513362951423229 0.034035537932083623 0 0.3276157426795453 0.018128909760567628 0 0.30513362951423229 0.034035537932083623 0 0.31066440690112468 0.011913348701714319 0 0.325883089216841 0.00030087900974781837 0 0.31066440690112468 0.011913348701714319 0 0.30781928645641449 -0.0066575603602469554 0 0.3276157426795453 0.018128909760567628 0 0.325883089216841 0.00030087900974781837 0 0.31066440690112468 0.011913348701714319 0 0.34130595826985072 0.063758014003548122 0 0.32841860091023067 0.06610484180084919 0 0.33618020850990349 0.050623718803669122 0 0.34130595826985072 0.063758014003548122 0 0.3502529696533499 0.052359555571510279 0 0.33618020850990349 0.050623718803669122 0 0.33618020850990349 0.050623718803669122 0 0.32994754830929129 0.03631192190619164 0 0.31866294281158408 0.052583008213600631 0 0.3547614671043503 0.038588305880299573 0 0.32994754830929129 0.03631192190619164 0 0.3547614671043503 0.038588305880299573 0 0.33618020850990349 0.050623718803669122 0 0.32994754830929129 0.03631192190619164 0 0.32994754830929129 0.03631192190619164 0 0.31866294281158408 0.052583008213600631 0 0.30513362951423229 0.034035537932083623 0 0.32994754830929129 0.03631192190619164 0 0.30513362951423229 0.034035537932083623 0 0.32841860091023067 0.06610484180084919 0 0.33618020850990349 0.050623718803669122 0 0.31866294281158408 0.052583008213600631 0 0.31866294281158408 0.052583008213600631 0 0.30309976332105393 0.057447557221863628 0 0.30513362951423229 0.034035537932083623 0 0.31866294281158408 0.052583008213600631 0 0.30309976332105393 0.057447557221863628 0 0.31201348309264748 0.073904918128083363 0 0.30309976332105393 0.057447557221863628 0 0.30513362951423229 0.034035537932083623 0 0.28666949063532571 0.052824491931176457 0 0.28666949063532571 0.052824491931176457 0 0.28031971071917289 0.031759153957978493 0 0.30513362951423229 0.034035537932083623 0 0.28666949063532571 0.052824491931176457 0 0.28031971071917289 0.031759153957978493 0 0.30513362951423229 0.034035537932083623 0 0.28031971071917289 0.031759153957978493 0 0.30309976332105393 0.057447557221863628 0 0.28666949063532571 0.052824491931176457 0 0.29301927055147953 0.073889829904374121 0 0.31066440690112468 0.011913348701714319 0 0.2952835909861769 0.0053480230237554251 0 0.30781928645641449 -0.0066575603602469554 0 0.31066440690112468 0.011913348701714319 0 0.29350317658144359 0.0208308431522615 0 0.2952835909861769 0.0053480230237554251 0 0.30513362951423229 0.034035537932083623 0 0.31066440690112468 0.011913348701714319 0 0.29350317658144359 0.0208308431522615 0 0.29350317658144359 0.0208308431522615 0 0.27274633760651879 0.0066345565196794382 0 0.28031971071917289 0.031759153957978493 0 0.30513362951423229 0.034035537932083623 0 0.29350317658144359 0.0208308431522615 0 0.28031971071917289 0.031759153957978493 0 0.2952835909861769 0.0053480230237554251 0 0.27274633760651879 0.0066345565196794382 0 0.28918600301924502 -0.0059440216791364318 0 0.29350317658144359 0.0208308431522615 0 0.2952835909861769 0.0053480230237554251 0 0.27274633760651879 0.0066345565196794382 0 0.27274633760651879 0.0066345565196794382 0 0.28031971071917289 0.031759153957978493 0 0.25372746045280348 0.0293196290751148 0 0.28031971071917289 0.031759153957978493 0 0.27274633760651879 0.0066345565196794382 0 0.25372746045280348 0.0293196290751148 0 0.28031971071917289 0.031759153957978493 0 0.27274633760651879 0.0066345565196794382 0 0.25372746045280348 0.0293196290751148 0 0.2592490732137257 0.0017951579894068591 0 0.24504537028208631 0.012710625166811229 0 0.25372746045280348 0.0293196290751148 0 0.2592490732137257 0.0017951579894068591 0 0.28666949063532571 0.052824491931176457 0 0.26392630853769072 0.061533039248085258 0 0.27872933360083652 0.067065756610859673 0 0.28666949063532571 0.052824491931176457 0 0.26313506592782537 0.045301199832386098 0 0.26392630853769072 0.061533039248085258 0 0.25372746045280348 0.0293196290751148 0 0.28031971071917289 0.031759153957978493 0 0.26313506592782537 0.045301199832386098 0 0.28666949063532571 0.052824491931176457 0 0.28031971071917289 0.031759153957978493 0 0.26313506592782537 0.045301199832386098 0 0.24510646900229111 0.042743339310185043 0 0.25372746045280348 0.0293196290751148 0 0.26313506592782537 0.045301199832386098 0 0.2490609562196687 0.053627545471776603 0 0.26313506592782537 0.045301199832386098 0 0.26392630853769072 0.061533039248085258 0 0.2490609562196687 0.053627545471776603 0 0.24510646900229111 0.042743339310185043 0 0.26313506592782537 0.045301199832386098 0 0.24838103384754201 0.064883816834144792 0 0.2490609562196687 0.053627545471776603 0 0.26392630853769072 0.061533039248085258 0 0.24838103384754201 0.064883816834144792 0 0.26392630853769072 0.061533039248085258 0 0.25487615625101567 0.07320786180299578 0 0.25487615625101567 0.07320786180299578 0 0.26547973341567499 0.076536260411863954 0 0.25646403647210669 0.082089943895988643 0 0.26392630853769072 0.061533039248085258 0 0.25487615625101567 0.07320786180299578 0 0.26547973341567499 0.076536260411863954 0 0.26024792723450468 0.092525539806599166 0 0.25646403647210669 0.082089943895988643 0 0.25090492674597259 0.097980981076254831 0 0.26547973341567499 0.076536260411863954 0 0.26024792723450468 0.092525539806599166 0 0.25646403647210669 0.082089943895988643 0 0.24425971994930409 0.083061467606559247 0 0.25487615625101567 0.07320786180299578 0 0.25646403647210669 0.082089943895988643 0 0.26024792723450468 0.092525539806599166 0 0.27635954509939942 0.081785119298993639 0 0.27596927839335289 0.097886143762527897 0 0.26547973341567499 0.076536260411863954 0 0.26024792723450468 0.092525539806599166 0 0.27635954509939942 0.081785119298993639 0 0.26392630853769072 0.061533039248085258 0 0.26547973341567499 0.076536260411863954 0 0.27872933360083652 0.067065756610859673 0 0.26547973341567499 0.076536260411863954 0 0.27635954509939942 0.081785119298993639 0 0.27872933360083652 0.067065756610859673 0 0.27635954509939942 0.081785119298993639 0 0.27872933360083652 0.067065756610859673 0 0.29301927055147953 0.073889829904374121 0 0.28666949063532571 0.052824491931176457 0 0.29301927055147953 0.073889829904374121 0 0.28666949063532571 0.052824491931176457 0 0.27872933360083652 0.067065756610859673 0 0.29301927055147953 0.073889829904374121 0 0.27635954509939942 0.081785119298993639 0 0.29301927055147953 0.073889829904374121 0 0.29936905046763329 0.094955167877571758 0 0.27635954509939942 0.081785119298993639 0 0.29936905046763329 0.094955167877571758 0 0.27596927839335289 0.097886143762527897 0 0.29301927055147953 0.073889829904374121 0 0.29936905046763329 0.094955167877571758 0 0.29301927055147953 0.073889829904374121 0 0.31201348309264748 0.073904918128083363 0 0.29936905046763329 0.094955167877571758 0 0.31805362322103092 0.092293730336669016 0 0.31201348309264748 0.073904918128083363 0 0.29936905046763329 0.094955167877571758 0 0.30309976332105393 0.057447557221863628 0 0.29301927055147953 0.073889829904374121 0 0.31201348309264748 0.073904918128083363 0 0.31805362322103092 0.092293730336669016 0 0.31347166512416191 0.1068075599724968 0 0.29936905046763329 0.094955167877571758 0 0.31347166512416191 0.1068075599724968 0 0.30202837069255678 0.1184144632157345 0 0.29936905046763329 0.094955167877571758 0 0.29936905046763329 0.094955167877571758 0 0.27920787848159129 0.1144457798226072 0 0.27596927839335289 0.097886143762527897 0 0.30202837069255678 0.1184144632157345 0 0.29936905046763329 0.094955167877571758 0 0.27920787848159129 0.1144457798226072 0 0.30202837069255678 0.1184144632157345 0 0.27920787848159129 0.1144457798226072 0 0.29023495755665779 0.12868851336308981 0 0.27920787848159129 0.1144457798226072 0 0.26616844954373731 0.10880565392884781 0 0.26266475266713651 0.12626029563919849 0 0.26024792723450468 0.092525539806599166 0 0.27596927839335289 0.097886143762527897 0 0.26616844954373731 0.10880565392884781 0 0.27920787848159129 0.1144457798226072 0 0.27596927839335289 0.097886143762527897 0 0.26616844954373731 0.10880565392884781 0 0.26024792723450468 0.092525539806599166 0 0.2527524109421011 0.1129105106133064 0 0.26024792723450468 0.092525539806599166 0 0.26616844954373731 0.10880565392884781 0 0.2527524109421011 0.1129105106133064 0 0.26024792723450468 0.092525539806599166 0 0.25090492674597259 0.097980981076254831 0 0.2527524109421011 0.1129105106133064 0 0.26616844954373731 0.10880565392884781 0 0.2527524109421011 0.1129105106133064 0 0.26266475266713651 0.12626029563919849 0 0.24525689464969749 0.13329548142001371 0 0.2527524109421011 0.1129105106133064 0 0.26266475266713651 0.12626029563919849 0 0.26266475266713651 0.12626029563919849 0 0.27678409506133977 0.13995760699679219 0 0.25732524618445352 0.15123328297560429 0 0.24525689464969749 0.13329548142001371 0 0.26266475266713651 0.12626029563919849 0 0.25732524618445352 0.15123328297560429 0 0.27920787848159129 0.1144457798226072 0 0.26266475266713651 0.12626029563919849 0 0.27678409506133977 0.13995760699679219 0 0.27920787848159129 0.1144457798226072 0 0.27678409506133977 0.13995760699679219 0 0.27678409506133977 0.13995760699679219 0 0.27436031164108821 0.16546943417097729 0 0.29184258371457322 0.15729894391696689 0 0.27678409506133977 0.13995760699679219 0 0.25732524618445352 0.15123328297560429 0 0.27436031164108821 0.16546943417097729 0 0.27678409506133977 0.13995760699679219 0 0.27436031164108821 0.16546943417097729 0 0.25732524618445352 0.15123328297560429 0 0.25945119012847401 0.17316462773615879 0 0.27436031164108821 0.16546943417097729 0 0.2448569973963507 0.16488770519326021 0 0.25732524618445352 0.15123328297560429 0 0.25945119012847401 0.17316462773615879 0 0.25945119012847401 0.17316462773615879 0 0.25519195231445568 0.18957530113497159 0 0.27193652822083658 0.1909812613451623 0 0.24420701379670881 0.18017269424908131 0 0.25945119012847401 0.17316462773615879 0 0.25519195231445568 0.18957530113497159 0 0.27436031164108821 0.16546943417097729 0 0.29471981912753081 0.17631059048401809 0 0.27193652822083658 0.1909812613451623 0 0.25945119012847401 0.17316462773615879 0 0.27436031164108821 0.16546943417097729 0 0.27193652822083658 0.1909812613451623 0 0.27436031164108821 0.16546943417097729 0 0.27193652822083658 0.1909812613451623 0 0.27436031164108821 0.16546943417097729 0 0.29184258371457322 0.15729894391696689 0 0.29471981912753081 0.17631059048401809 0 0.29471981912753081 0.17631059048401809 0 0.31245705794954692 0.1621021407944466 0 0.32342986767621962 0.18244077346558529 0 0.29471981912753081 0.17631059048401809 0 0.30737795278317781 0.19369706184431129 0 0.32342986767621962 0.18244077346558529 0 0.29184258371457322 0.15729894391696689 0 0.29471981912753081 0.17631059048401809 0 0.31245705794954692 0.1621021407944466 0 0.29184258371457322 0.15729894391696689 0 0.31245705794954692 0.1621021407944466 0 0.30229176045607598 0.14109754578279349 0 0.31245705794954692 0.1621021407944466 0 0.30229176045607598 0.14109754578279349 0 0.3214805473301155 0.14630454846237961 0 0.30202837069255678 0.1184144632157345 0 0.30229176045607598 0.14109754578279349 0 0.32233939219712282 0.1252536490163268 0 0.30202837069255678 0.1184144632157345 0 0.30229176045607598 0.14109754578279349 0 0.29023495755665779 0.12868851336308981 0 0.27678409506133977 0.13995760699679219 0 0.30229176045607598 0.14109754578279349 0 0.29023495755665779 0.12868851336308981 0 0.27920787848159129 0.1144457798226072 0 0.27678409506133977 0.13995760699679219 0 0.29023495755665779 0.12868851336308981 0 0.27678409506133977 0.13995760699679219 0 0.29184258371457322 0.15729894391696689 0 0.30229176045607598 0.14109754578279349 0 0.27491197862318911 0.2471457982826446 0 0.26708896138033 0.24200491569353191 0 0.29590876536495159 0.2458055819588113 0 0.26708896138033 0.24200491569353191 0 0.26635719388438878 0.24970722347080451 0 0.26407683674264432 0.2454153958278609 0 0.27491197862318911 0.2471457982826446 0 0.26708896138033 0.24200491569353191 0 0.26635719388438878 0.24970722347080451 0 0.26708896138033 0.24200491569353191 0 0.26635719388438878 0.24970722347080451 0 0.26125664841386997 0.25128184439603901 0 0.26635719388438878 0.24970722347080451 0 0.26407683674264432 0.2454153958278609 0 0.26708896138033 0.24200491569353191 0 0.26281254846090679 0.24366374117729159 0 0.2615604087878014 0.24154382430742469 0 0.26407683674264432 0.2454153958278609 0 0.26281254846090679 0.24366374117729159 0 0.2592272499242344 0.24578357302005191 0 0.26708896138033 0.24200491569353191 0 0.26407683674264432 0.2454153958278609 0 0.26281254846090679 0.24366374117729159 0 0.2592272499242344 0.24578357302005191 0 0.25665146243984521 0.24031712309998701 0 0.2615604087878014 0.24154382430742469 0 0.26281254846090679 0.24366374117729159 0 0.2592272499242344 0.24578357302005191 0 0.2615604087878014 0.24154382430742469 0 0.26125664841386997 0.25128184439603901 0 0.25483074441246178 0.25133398368052728 0 0.2592272499242344 0.24578357302005191 0 0.26125664841386997 0.25128184439603901 0 0.26407683674264432 0.2454153958278609 0 0.2592272499242344 0.24578357302005191 0 0.25483074441246178 0.25133398368052728 0 0.2592272499242344 0.24578357302005191 0 0.25033710606835441 0.24431151828744141 0 0.2592272499242344 0.24578357302005191 0 0.25033710606835441 0.24431151828744141 0 0.25665146243984521 0.24031712309998701 0 0.25033710606835441 0.24431151828744141 0 0.25219170164853438 0.2346690458950618 0 0.25665146243984521 0.24031712309998701 0 0.25219170164853438 0.2346690458950618 0 0.25665146243984521 0.24031712309998701 0 0.26105525188354117 0.23477908672704911 0 0.25665146243984521 0.24031712309998701 0 0.26105525188354117 0.23477908672704911 0 0.2615604087878014 0.24154382430742469 0 0.26708896138033 0.24200491569353191 0 0.26105525188354117 0.23477908672704911 0 0.2615604087878014 0.24154382430742469 0 0.26105525188354117 0.23477908672704911 0 0.25574465981025701 0.22507689338501191 0 0.26951274480058512 0.21649308851934729 0 0.25219170164853438 0.2346690458950618 0 0.26105525188354117 0.23477908672704911 0 0.25574465981025701 0.22507689338501191 0 0.24565594326316759 0.22581587786517651 0 0.25219170164853438 0.2346690458950618 0 0.25574465981025701 0.22507689338501191 0 0.24565594326316759 0.22581587786517651 0 0.25574465981025701 0.22507689338501191 0 0.25366741894655059 0.21144992167050181 0 0.26708896138033 0.24200491569353191 0 0.26951274480058512 0.21649308851934729 0 0.26708896138033 0.24200491569353191 0 0.26951274480058512 0.21649308851934729 0 0.28590717934319659 0.22955625269857971 0 0.26708896138033 0.24200491569353191 0 0.26105525188354117 0.23477908672704911 0 0.26951274480058512 0.21649308851934729 0 0.26951274480058512 0.21649308851934729 0 0.27193652822083658 0.1909812613451623 0 0.26951274480058512 0.21649308851934729 0 0.27193652822083658 0.1909812613451623 0 0.29107764024272448 0.20721450619996851 0 0.25574465981025701 0.22507689338501191 0 0.26951274480058512 0.21649308851934729 0 0.25366741894655059 0.21144992167050181 0 0.26951274480058512 0.21649308851934729 0 0.25366741894655059 0.21144992167050181 0 0.27193652822083658 0.1909812613451623 0 0.24382989837042801 0.19705337448612881 0 0.25366741894655059 0.21144992167050181 0 0.25519195231445568 0.18957530113497159 0 0.25366741894655059 0.21144992167050181 0 0.25519195231445568 0.18957530113497159 0 0.27193652822083658 0.1909812613451623 0 0.29471981912753081 0.17631059048401809 0 0.27193652822083658 0.1909812613451623 0 0.29107764024272448 0.20721450619996851 0 0.29471981912753081 0.17631059048401809 0 0.30737795278317781 0.19369706184431129 0 0.29107764024272448 0.20721450619996851 0 0.30737795278317781 0.19369706184431129 0 0.29107764024272448 0.20721450619996851 0 0.32071054760130752 0.20884859457128979 0 0.29107764024272448 0.20721450619996851 0 0.30928432750564061 0.22634650109880911 0 0.32071054760130752 0.20884859457128979 0 0.26951274480058512 0.21649308851934729 0 0.29107764024272448 0.20721450619996851 0 0.28590717934319659 0.22955625269857971 0 0.29107764024272448 0.20721450619996851 0 0.28590717934319659 0.22955625269857971 0 0.30928432750564061 0.22634650109880911 0 0.28590717934319659 0.22955625269857971 0 0.30928432750564061 0.22634650109880911 0 0.28590717934319659 0.22955625269857971 0 0.30928432750564061 0.22634650109880911 0 0.29590876536495159 0.2458055819588113 0 0.30928432750564061 0.22634650109880911 0 0.29590876536495159 0.2458055819588113 0 0.32472856934957328 0.24960624822409011 0 0.29590876536495159 0.2458055819588113 0 0.32472856934957328 0.24960624822409011 0 0.26708896138033 0.24200491569353191 0 0.28590717934319659 0.22955625269857971 0 0.29590876536495159 0.2458055819588113 0 0.26708896138033 0.24200491569353191 0 0.29590876536495159 0.2458055819588113 0 0.28272453419979049 0.25174505643774792 0 0.27491197862318911 0.2471457982826446 0 0.29590876536495159 0.2458055819588113 0 0.32472856934957328 0.24960624822409011 0 0.33266147566808429 0.22313674949903919 0 0.34533202755854059 0.23669701555576109 0 0.32472856934957328 0.24960624822409011 0 0.33266147566808429 0.22313674949903919 0 0.35343714747451482 0.25339224636834662 0 0.32472856934957328 0.24960624822409011 0 0.34533202755854059 0.23669701555576109 0 0.30928432750564061 0.22634650109880911 0 0.33266147566808429 0.22313674949903919 0 0.32071054760130752 0.20884859457128979 0 0.30928432750564061 0.22634650109880911 0 0.32472856934957328 0.24960624822409011 0 0.33266147566808429 0.22313674949903919 0 0.30928432750564061 0.22634650109880911 0 0.33266147566808429 0.22313674949903919 0 0.33266147566808429 0.22313674949903919 0 0.35387885789696921 0.22022354015122261 0 0.33266147566808429 0.22313674949903919 0 0.33855001842988058 0.20348861943579491 0 0.35387885789696921 0.22022354015122261 0 0.33266147566808429 0.22313674949903919 0 0.33855001842988058 0.20348861943579491 0 0.33266147566808429 0.22313674949903919 0 0.33855001842988058 0.20348861943579491 0 0.32071054760130752 0.20884859457128979 0 0.33855001842988058 0.20348861943579491 0 0.32071054760130752 0.20884859457128979 0 0.32342986767621962 0.18244077346558529 0 0.30737795278317781 0.19369706184431129 0 0.32071054760130752 0.20884859457128979 0 0.32342986767621962 0.18244077346558529 0 0.33855001842988058 0.20348861943579491 0 0.32342986767621962 0.18244077346558529 0 0.34443856119167549 0.18384048937254999 0 0.33855001842988058 0.20348861943579491 0 0.34443856119167549 0.18384048937254999 0 0.35633364776154169 0.20258709417349621 0 0.34443856119167549 0.18384048937254999 0 0.36126051648038199 0.1770745969108255 0 0.33855001842988058 0.20348861943579491 0 0.35633364776154169 0.20258709417349621 0 0.34443856119167549 0.18384048937254999 0 0.35633364776154169 0.20258709417349621 0 0.37001438260974862 0.19118938764904431 0 0.36126051648038199 0.1770745969108255 0 0.35633364776154169 0.20258709417349621 0 0.35387885789696921 0.22022354015122261 0 0.37509624012585402 0.21731033080340681 0 0.35633364776154169 0.20258709417349621 0 0.37001438260974862 0.19118938764904431 0 0.37509624012585402 0.21731033080340681 0 0.33855001842988058 0.20348861943579491 0 0.35633364776154169 0.20258709417349621 0 0.35387885789696921 0.22022354015122261 0 0.33266147566808429 0.22313674949903919 0 0.35387885789696921 0.22022354015122261 0 0.34533202755854059 0.23669701555576109 0 0.35387885789696921 0.22022354015122261 0 0.36698900128256068 0.2369854232780913 0 0.34533202755854059 0.23669701555576109 0 0.35387885789696921 0.22022354015122261 0 0.36698900128256068 0.2369854232780913 0 0.37509624012585402 0.21731033080340681 0 0.35387885789696921 0.22022354015122261 0 0.37509624012585402 0.21731033080340681 0 0.35343714747451482 0.25339224636834662 0 0.38214572559945648 0.25717824451260263 0 0.36698900128256068 0.2369854232780913 0 0.35343714747451482 0.25339224636834662 0 0.36698900128256068 0.2369854232780913 0 0.34533202755854059 0.23669701555576109 0 0.34286934532295821 0.14164699652705101 0 0.33216895127259699 0.1617358163006363 0 0.35032710395347028 0.1641923593093052 0 0.34286934532295821 0.14164699652705101 0 0.3214805473301155 0.14630454846237961 0 0.33216895127259699 0.1617358163006363 0 0.34286934532295821 0.14164699652705101 0 0.32233939219712282 0.1252536490163268 0 0.3214805473301155 0.14630454846237961 0 0.34314971641399639 0.11940488142219589 0 0.34286934532295821 0.14164699652705101 0 0.32233939219712282 0.1252536490163268 0 0.30229176045607598 0.14109754578279349 0 0.32233939219712282 0.1252536490163268 0 0.3214805473301155 0.14630454846237961 0 0.31245705794954692 0.1621021407944466 0 0.3214805473301155 0.14630454846237961 0 0.33216895127259699 0.1617358163006363 0 0.31245705794954692 0.1621021407944466 0 0.32342986767621962 0.18244077346558529 0 0.33216895127259699 0.1617358163006363 0 0.32342986767621962 0.18244077346558529 0 0.33216895127259699 0.1617358163006363 0 0.34443856119167549 0.18384048937254999 0 0.33216895127259699 0.1617358163006363 0 0.35032710395347028 0.1641923593093052 0 0.34443856119167549 0.18384048937254999 0 0.35032710395347028 0.1641923593093052 0 0.36126051648038199 0.1770745969108255 0 0.36433393099354572 0.15314891760777671 0 0.35032710395347028 0.1641923593093052 0 0.34443856119167549 0.18384048937254999 0 0.36126051648038199 0.1770745969108255 0 0.35032710395347028 0.1641923593093052 0 0.34443856119167549 0.18384048937254999 0 0.37001438260974862 0.19118938764904431 0 0.36126051648038199 0.1770745969108255 0 0.38211547237231058 0.16748933335278091 0 0.36126051648038199 0.1770745969108255 0 0.36433393099354572 0.15314891760777671 0 0.38211547237231058 0.16748933335278091 0 0.34286934532295821 0.14164699652705101 0 0.35032710395347028 0.1641923593093052 0 0.36433393099354572 0.15314891760777671 0 0.34286934532295821 0.14164699652705101 0 0.36433393099354572 0.15314891760777671 0 0.36512831101939303 0.12733801785880641 0 0.34314971641399639 0.11940488142219589 0 0.34286934532295821 0.14164699652705101 0 0.36512831101939303 0.12733801785880641 0 0.36433393099354572 0.15314891760777671 0 0.36512831101939303 0.12733801785880641 0 0.38554625038635693 0.14042388460775099 0 0.36512831101939303 0.12733801785880641 0 0.38554625038635693 0.14042388460775099 0 0.3824347748262375 0.1218121080201281 0 0.38554625038635693 0.14042388460775099 0 0.402172221556236 0.1279043847394819 0 0.3824347748262375 0.1218121080201281 0 0.38554625038635693 0.14042388460775099 0 0.402172221556236 0.1279043847394819 0 0.40681331960734618 0.15411518846414371 0 0.38554625038635693 0.14042388460775099 0 0.38211547237231058 0.16748933335278091 0 0.40681331960734618 0.15411518846414371 0 0.36433393099354572 0.15314891760777671 0 0.38554625038635693 0.14042388460775099 0 0.38211547237231058 0.16748933335278091 0 0.38211547237231058 0.16748933335278091 0 0.40262593443870509 0.17911530782338581 0 0.38666554859438379 0.19718387425050179 0 0.37001438260974862 0.19118938764904431 0 0.38211547237231058 0.16748933335278091 0 0.38666554859438379 0.19718387425050179 0 0.38211547237231058 0.16748933335278091 0 0.40681331960734618 0.15411518846414371 0 0.38211547237231058 0.16748933335278091 0 0.40262593443870509 0.17911530782338581 0 0.40681331960734618 0.15411518846414371 0 0.40262593443870509 0.17911530782338581 0 0.4240972661394169 0.16815253428924609 0 0.40681331960734618 0.15411518846414371 0 0.40262593443870509 0.17911530782338581 0 0.41801603505575519 0.18509724154819279 0 0.40088206990110148 0.19778147367527471 0 0.40262593443870509 0.17911530782338581 0 0.41801603505575519 0.18509724154819279 0 0.4240972661394169 0.16815253428924609 0 0.41801603505575519 0.18509724154819279 0 0.43221646384281243 0.18606639712978579 0 0.4240972661394169 0.16815253428924609 0 0.43221646384281243 0.18606639712978579 0 0.4240972661394169 0.16815253428924609 0 0.44605670067371778 0.16446944856247439 0 0.4240972661394169 0.16815253428924609 0 0.43151116684238172 0.14074104357550651 0 0.44605670067371778 0.16446944856247439 0 0.43151116684238172 0.14074104357550651 0 0.42058930131912992 0.12292399737053181 0 0.43151116684238172 0.14074104357550651 0 0.43858264003960729 0.12494058717707909 0 0.42058930131912992 0.12292399737053181 0 0.43151116684238172 0.14074104357550651 0 0.41527150233127352 0.13642115353741599 0 0.42058930131912992 0.12292399737053181 0 0.402172221556236 0.1279043847394819 0 0.41527150233127352 0.13642115353741599 0 0.42058930131912992 0.12292399737053181 0 0.402172221556236 0.1279043847394819 0 0.41527150233127352 0.13642115353741599 0 0.40681331960734618 0.15411518846414371 0 0.43151116684238172 0.14074104357550651 0 0.41527150233127352 0.13642115353741599 0 0.40681331960734618 0.15411518846414371 0 0.43151116684238172 0.14074104357550651 0 0.40681331960734618 0.15411518846414371 0 0.4240972661394169 0.16815253428924609 0 0.43151116684238172 0.14074104357550651 0 0.40681331960734618 0.15411518846414371 0 0.38214572559945648 0.25717824451260263 0 0.39079005683772139 0.23620921682402859 0 0.40220614802616023 0.2483237479691611 0 0.39079005683772139 0.23620921682402859 0 0.40220614802616023 0.2483237479691611 0 0.40796636942323738 0.23674106726938371 0 0.38214572559945648 0.25717824451260263 0 0.36698900128256068 0.2369854232780913 0 0.39079005683772139 0.23620921682402859 0 0.36698900128256068 0.2369854232780913 0 0.39079005683772139 0.23620921682402859 0 0.37509624012585402 0.21731033080340681 0 0.39079005683772139 0.23620921682402859 0 0.39606104420998539 0.21852412893469891 0 0.37509624012585402 0.21731033080340681 0 0.39079005683772139 0.23620921682402859 0 0.39606104420998539 0.21852412893469891 0 0.40796636942323738 0.23674106726938371 0 0.39606104420998539 0.21852412893469891 0 0.41453720955909251 0.22142285610154469 0 0.40796636942323738 0.23674106726938371 0 0.39606104420998539 0.21852412893469891 0 0.40088206990110148 0.19778147367527471 0 0.41453720955909251 0.22142285610154469 0 0.39606104420998539 0.21852412893469891 0 0.38666554859438379 0.19718387425050179 0 0.40088206990110148 0.19778147367527471 0 0.39606104420998539 0.21852412893469891 0 0.37509624012585402 0.21731033080340681 0 0.38666554859438379 0.19718387425050179 0 0.37001438260974862 0.19118938764904431 0 0.37509624012585402 0.21731033080340681 0 0.38666554859438379 0.19718387425050179 0 0.40262593443870509 0.17911530782338581 0 0.38666554859438379 0.19718387425050179 0 0.40088206990110148 0.19778147367527471 0 0.41801603505575519 0.18509724154819279 0 0.40088206990110148 0.19778147367527471 0 0.42194294673006638 0.20169669824745229 0 0.43221646384281243 0.18606639712978579 0 0.42194294673006638 0.20169669824745229 0 0.43814733195446698 0.20316353646950339 0 0.41801603505575519 0.18509724154819279 0 0.43221646384281243 0.18606639712978579 0 0.42194294673006638 0.20169669824745229 0 0.42194294673006638 0.20169669824745229 0 0.43205288243367829 0.2157866489504586 0 0.43814733195446698 0.20316353646950339 0 0.42194294673006638 0.20169669824745229 0 0.43205288243367829 0.2157866489504586 0 0.41453720955909251 0.22142285610154469 0 0.40088206990110148 0.19778147367527471 0 0.42194294673006638 0.20169669824745229 0 0.41453720955909251 0.22142285610154469 0 0.40088206990110148 0.19778147367527471 0 0.41453720955909251 0.22142285610154469 0 0.41453720955909251 0.22142285610154469 0 0.4281923492170836 0.2450642385278147 0 0.41453720955909251 0.22142285610154469 0 0.43017562450127589 0.22537858926534671 0 0.42982923503418441 0.23683705864736451 0 0.43205288243367829 0.2157866489504586 0 0.41453720955909251 0.22142285610154469 0 0.43017562450127589 0.22537858926534671 0 0.43205288243367829 0.2157866489504586 0 0.43017562450127589 0.22537858926534671 0 0.44083633378111842 0.2236795971837881 0 0.43017562450127589 0.22537858926534671 0 0.42982923503418441 0.23683705864736451 0 0.44083633378111842 0.2236795971837881 0 0.41453720955909251 0.22142285610154469 0 0.42982923503418441 0.23683705864736451 0 0.4281923492170836 0.2450642385278147 0 0.42982923503418441 0.23683705864736451 0 0.4281923492170836 0.2450642385278147 0 0.44959669071027342 0.23480574926743489 0 0.41601140868938158 0.2509022152590541 0 0.4281923492170836 0.2450642385278147 0 0.41453720955909251 0.22142285610154469 0 0.4281923492170836 0.2450642385278147 0 0.40796636942323738 0.23674106726938371 0 0.41601140868938158 0.2509022152590541 0 0.4281923492170836 0.2450642385278147 0 0.40796636942323738 0.23674106726938371 0 0.41601140868938158 0.2509022152590541 0 0.40220614802616023 0.2483237479691611 0 0.40796636942323738 0.23674106726938371 0 0.46229010975999352 0.24892346532678791 0 0.44959669071027342 0.23480574926743489 0 0.47100103220346351 0.2245472600070553 0 0.4281923492170836 0.2450642385278147 0 0.44959669071027342 0.23480574926743489 0 0.43956288184933923 0.26475024080111631 0 0.46229010975999352 0.24892346532678791 0 0.44959669071027342 0.23480574926743489 0 0.43956288184933923 0.26475024080111631 0 0.4281923492170836 0.2450642385278147 0 0.44959669071027342 0.23480574926743489 0 0.42982923503418441 0.23683705864736451 0 0.44954347390826882 0.22731355248949681 0 0.44083633378111842 0.2236795971837881 0 0.42982923503418441 0.23683705864736451 0 0.44959669071027342 0.23480574926743489 0 0.44954347390826882 0.22731355248949681 0 0.42982923503418441 0.23683705864736451 0 0.44954347390826882 0.22731355248949681 0 0.44954347390826882 0.22731355248949681 0 0.45613860936639378 0.21865787463680561 0 0.44677953392715042 0.21632384854657269 0 0.44954347390826882 0.22731355248949681 0 0.44083633378111842 0.2236795971837881 0 0.44677953392715042 0.21632384854657269 0 0.44954347390826882 0.22731355248949681 0 0.45613860936639378 0.21865787463680561 0 0.46925771278235318 0.2177900463316291 0 0.44954347390826882 0.22731355248949681 0 0.46925771278235318 0.2177900463316291 0 0.47100103220346351 0.2245472600070553 0 0.44954347390826882 0.22731355248949681 0 0.46925771278235318 0.2177900463316291 0 0.44959669071027342 0.23480574926743489 0 0.44954347390826882 0.22731355248949681 0 0.47100103220346351 0.2245472600070553 0 0.44959669071027342 0.23480574926743489 0 0.47100103220346351 0.2245472600070553 0 0.46686116345661671 0.21240119288417331 0 0.45897371684780303 0.2132040511795239 0 0.46925771278235318 0.2177900463316291 0 0.45613860936639378 0.21865787463680561 0 0.45897371684780303 0.2132040511795239 0 0.46925771278235318 0.2177900463316291 0 0.46686116345661671 0.21240119288417331 0 0.46406545585992098 0.20668441548912969 0 0.4751477683363895 0.21192625853641051 0 0.46686116345661671 0.21240119288417331 0 0.46406545585992098 0.20668441548912969 0 0.45897371684780303 0.2132040511795239 0 0.46406545585992098 0.20668441548912969 0 0.45190189959491439 0.20575271609974419 0 0.45606336955545662 0.19853209726210971 0 0.46406545585992098 0.20668441548912969 0 0.45897371684780303 0.2132040511795239 0 0.45190189959491439 0.20575271609974419 0 0.45613860936639378 0.21865787463680561 0 0.45897371684780303 0.2132040511795239 0 0.44677953392715042 0.21632384854657269 0 0.45897371684780303 0.2132040511795239 0 0.44677953392715042 0.21632384854657269 0 0.45190189959491439 0.20575271609974419 0 0.43205288243367829 0.2157866489504586 0 0.44083633378111842 0.2236795971837881 0 0.44677953392715042 0.21632384854657269 0 0.43205288243367829 0.2157866489504586 0 0.44677953392715042 0.21632384854657269 0 0.43814733195446698 0.20316353646950339 0 0.44677953392715042 0.21632384854657269 0 0.43814733195446698 0.20316353646950339 0 0.45190189959491439 0.20575271609974419 0 0.43221646384281243 0.18606639712978579 0 0.43814733195446698 0.20316353646950339 0 0.44768388826193711 0.1934934039101224 0 0.45190189959491439 0.20575271609974419 0 0.44768388826193711 0.1934934039101224 0 0.45606336955545662 0.19853209726210971 0 0.43814733195446698 0.20316353646950339 0 0.45190189959491439 0.20575271609974419 0 0.44768388826193711 0.1934934039101224 0 0.46406545585992098 0.20668441548912969 0 0.46060223450505378 0.18819785354944249 0 0.45606336955545662 0.19853209726210971 0 0.46060223450505378 0.18819785354944249 0 0.4751477683363895 0.21192625853641051 0 0.44768388826193711 0.1934934039101224 0 0.46060223450505378 0.18819785354944249 0 0.45606336955545662 0.19853209726210971 0 0.46406545585992098 0.20668441548912969 0 0.46060223450505378 0.18819785354944249 0 0.4751477683363895 0.21192625853641051 0 0.48897195165643781 0.2082665401737617 0 0.47707802175754599 0.1874045583288074 0 0.49035065065022881 0.20371820686085701 0 0.47740359174074831 0.1812345082416687 0 0.46060223450505378 0.18819785354944249 0 0.47656891783460831 0.19922671565214009 0 0.47707802175754599 0.1874045583288074 0 0.47656891783460831 0.19922671565214009 0 0.48897195165643781 0.2082665401737617 0 0.47707802175754599 0.1874045583288074 0 0.46060223450505378 0.18819785354944249 0 0.47656891783460831 0.19922671565214009 0 0.4751477683363895 0.21192625853641051 0 0.49035065065022881 0.20371820686085701 0 0.47707802175754599 0.1874045583288074 0 0.47740359174074831 0.1812345082416687 0 0.49035065065022881 0.20371820686085701 0 0.48897195165643781 0.2082665401737617 0 0.47707802175754599 0.1874045583288074 0 0.49122963416302662 0.18869074153207749 0 0.49035065065022881 0.20371820686085701 0 0.47740359174074831 0.1812345082416687 0 0.49122963416302662 0.18869074153207749 0 0.49999999999999872 0.20293913763086049 0 0.5 0.17811775765533441 0 0.49122963416302662 0.18869074153207749 0 0.49999999999999872 0.20293913763086049 0 0.49035065065022881 0.20371820686085701 0 0.49999999999999872 0.20293913763086049 0 0.48897195165643781 0.2082665401737617 0 0.49534433133827271 0.209035832980765 0 0.49999999999999872 0.20293913763086049 0 0.48897195165643781 0.2082665401737617 0 0.49999999999999872 0.20293913763086049 0 0.49035065065022881 0.20371820686085701 0 0.48897195165643781 0.2082665401737617 0 0.48897195165643781 0.2082665401737617 0 0.49534433133827271 0.209035832980765 0 0.49240537369665333 0.21428877074667529 0 0.49999999999999872 0.20293913763086049 0 0.49534433133827271 0.209035832980765 0 0.49999999999999573 0.2106488833717628 0 0.49999999999999573 0.2106488833717628 0 0.49240537369665333 0.21428877074667529 0 0.49902677449724708 0.22590272378528431 0 0.49999999999999573 0.2106488833717628 0 0.49240537369665333 0.21428877074667529 0 0.49534433133827271 0.209035832980765 0 0.49999999999999573 0.2106488833717628 0 0.49240537369665333 0.21428877074667529 0 0.48897195165643781 0.2082665401737617 0 0.49240537369665333 0.21428877074667529 0 0.48897195165643781 0.2082665401737617 0 0.46925771278235318 0.2177900463316291 0 0.48897195165643781 0.2082665401737617 0 0.49240537369665333 0.21428877074667529 0 0.46925771278235318 0.2177900463316291 0 0.48897195165643781 0.2082665401737617 0 0.46925771278235318 0.2177900463316291 0 0.4751477683363895 0.21192625853641051 0 0.47656891783460831 0.19922671565214009 0 0.48897195165643781 0.2082665401737617 0 0.4751477683363895 0.21192625853641051 0 0.46686116345661671 0.21240119288417331 0 0.46925771278235318 0.2177900463316291 0 0.4751477683363895 0.21192625853641051 0 0.49240537369665333 0.21428877074667529 0 0.47100103220346351 0.2245472600070553 0 0.48496554333510389 0.22622488975146041 0 0.49240537369665333 0.21428877074667529 0 0.46925771278235318 0.2177900463316291 0 0.47100103220346351 0.2245472600070553 0 0.49240537369665333 0.21428877074667529 0 0.47100103220346351 0.2245472600070553 0 0.47100103220346351 0.2245472600070553 0 0.48496554333510389 0.22622488975146041 0 0.48116618200302957 0.24689203957624081 0 0.49240537369665333 0.21428877074667529 0 0.48496554333510389 0.22622488975146041 0 0.49902677449724708 0.22590272378528431 0 0.48496554333510389 0.22622488975146041 0 0.49902677449724708 0.22590272378528431 0 0.48116618200302957 0.24689203957624081 0 0.49902677449724708 0.22590272378528431 0 0.50000000000000111 0.2276097636738755 0 0.48116618200302957 0.24689203957624081 0 0.49240537369665333 0.21428877074667529 0 0.49902677449724708 0.22590272378528431 0 0.49902677449724708 0.22590272378528431 0 0.50000000000000111 0.2276097636738755 0 0.5 0.25684581679738833 0 0.50000000000000111 0.2276097636738755 0 0.48116618200302957 0.24689203957624081 0 0.49902677449724708 0.22590272378528431 0 0.48116618200302957 0.24689203957624081 0 0.46229010975999352 0.24892346532678791 0 0.47100103220346351 0.2245472600070553 0 0.48116618200302957 0.24689203957624081 0 0.46569484422534729 0.1438054516352901 0 0.45150947392178742 0.13626711100329239 0 0.46445653283126792 0.15875080962248059 0 0.45150947392178742 0.13626711100329239 0 0.46445653283126792 0.15875080962248059 0 0.45150947392178742 0.13626711100329239 0 0.45141210970922191 0.15143974103132701 0 0.46445653283126792 0.15875080962248059 0 0.46569484422534729 0.1438054516352901 0 0.46445653283126792 0.15875080962248059 0 0.47496673634231068 0.1522517213135865 0 0.46405457363538721 0.13326317075532329 0 0.45434077789492211 0.1283785682932567 0 0.47717038894746222 0.116016093011007 0 0.46569484422534729 0.1438054516352901 0 0.46405457363538721 0.13326317075532329 0 0.47348690439598312 0.13849444548176751 0 0.46405457363538721 0.13326317075532329 0 0.45434077789492211 0.1283785682932567 0 0.45150947392178742 0.13626711100329239 0 0.46569484422534729 0.1438054516352901 0 0.46405457363538721 0.13326317075532329 0 0.45150947392178742 0.13626711100329239 0 0.43151116684238172 0.14074104357550651 0 0.45434077789492211 0.1283785682932567 0 0.43151116684238172 0.14074104357550651 0 0.45434077789492211 0.1283785682932567 0 0.45150947392178742 0.13626711100329239 0 0.43151116684238172 0.14074104357550651 0 0.45434077789492211 0.1283785682932567 0 0.43858264003960729 0.12494058717707909 0 0.43151116684238172 0.14074104357550651 0 0.45141210970922191 0.15143974103132701 0 0.44605670067371778 0.16446944856247439 0 0.43151116684238172 0.14074104357550651 0 0.45150947392178742 0.13626711100329239 0 0.45141210970922191 0.15143974103132701 0 0.43151116684238172 0.14074104357550651 0 0.44605670067371778 0.16446944856247439 0 0.45141210970922191 0.15143974103132701 0 0.44605670067371778 0.16446944856247439 0 0.45646001107511219 0.16435802757736259 0 0.44768388826193711 0.1934934039101224 0 0.46060223450505378 0.18819785354944249 0 0.44605670067371778 0.16446944856247439 0 0.43221646384281243 0.18606639712978579 0 0.44768388826193711 0.1934934039101224 0 0.44605670067371778 0.16446944856247439 0 0.46060223450505378 0.18819785354944249 0 0.46518409185865839 0.16654257648385051 0 0.47707802175754599 0.1874045583288074 0 0.46060223450505378 0.18819785354944249 0 0.45646001107511219 0.16435802757736259 0 0.46518409185865839 0.16654257648385051 0 0.46060223450505378 0.18819785354944249 0 0.44605670067371778 0.16446944856247439 0 0.46060223450505378 0.18819785354944249 0 0.44605670067371778 0.16446944856247439 0 0.45646001107511219 0.16435802757736259 0 0.45141210970922191 0.15143974103132701 0 0.45646001107511219 0.16435802757736259 0 0.46445653283126792 0.15875080962248059 0 0.45646001107511219 0.16435802757736259 0 0.46518409185865839 0.16654257648385051 0 0.46445653283126792 0.15875080962248059 0 0.46445653283126792 0.15875080962248059 0 0.47579489543992642 0.16511201447627119 0 0.47496673634231068 0.1522517213135865 0 0.46518409185865839 0.16654257648385051 0 0.46445653283126792 0.15875080962248059 0 0.47740359174074831 0.1812345082416687 0 0.46445653283126792 0.15875080962248059 0 0.47579489543992642 0.16511201447627119 0 0.47740359174074831 0.1812345082416687 0 0.46445653283126792 0.15875080962248059 0 0.47740359174074831 0.1812345082416687 0 0.47579489543992642 0.16511201447627119 0 0.48112233575226382 0.17137958407680479 0 0.48658519705423797 0.16275455154595711 0 0.47579489543992642 0.16511201447627119 0 0.48658519705423797 0.16275455154595711 0 0.47496673634231068 0.1522517213135865 0 0.47579489543992642 0.16511201447627119 0 0.48112233575226382 0.17137958407680479 0 0.47740359174074831 0.1812345082416687 0 0.46518409185865839 0.16654257648385051 0 0.47707802175754599 0.1874045583288074 0 0.47740359174074831 0.1812345082416687 0 0.46518409185865839 0.16654257648385051 0 0.47707802175754599 0.1874045583288074 0 0.48112233575226382 0.17137958407680479 0 0.47740359174074831 0.1812345082416687 0 0.4874856170347408 0.17682281325289301 0 0.49122963416302662 0.18869074153207749 0 0.47740359174074831 0.1812345082416687 0 0.4874856170347408 0.17682281325289301 0 0.4874856170347408 0.17682281325289301 0 0.5 0.17811775765533441 0 0.48658519705423797 0.16275455154595711 0 0.49122963416302662 0.18869074153207749 0 0.4874856170347408 0.17682281325289301 0 0.5 0.17811775765533441 0 0.5 0.17811775765533441 0 0.48658519705423797 0.16275455154595711 0 0.5 0.1532963776798085 0 0.48112233575226382 0.17137958407680479 0 0.4874856170347408 0.17682281325289301 0 0.48658519705423797 0.16275455154595711 0 0.48658519705423797 0.16275455154595711 0 0.5 0.1532963776798085 0 0.48849152357626602 0.14164442197732049 0 0.5 0.1532963776798085 0 0.48849152357626602 0.14164442197732049 0 0.5 0.1284749977042825 0 0.48658519705423797 0.16275455154595711 0 0.48849152357626602 0.14164442197732049 0 0.47496673634231068 0.1522517213135865 0 0.48849152357626602 0.14164442197732049 0 0.47496673634231068 0.1522517213135865 0 0.47348690439598312 0.13849444548176751 0 0.46569484422534729 0.1438054516352901 0 0.47496673634231068 0.1522517213135865 0 0.47348690439598312 0.13849444548176751 0 0.48849152357626602 0.14164442197732049 0 0.47348690439598312 0.13849444548176751 0 0.47717038894746222 0.116016093011007 0 0.46405457363538721 0.13326317075532329 0 0.47348690439598312 0.13849444548176751 0 0.47717038894746222 0.116016093011007 0 0.48849152357626602 0.14164442197732049 0 0.5 0.1284749977042825 0 0.47717038894746222 0.116016093011007 0 0.5 0.1284749977042825 0 0.500000000000002 0.1036536177287565 0 0.47717038894746222 0.116016093011007 0 0.500000000000002 0.1036536177287565 0 0.47717038894746222 0.116016093011007 0 0.500000000000002 0.1036536177287565 0 0.47717038894746222 0.116016093011007 0 0.47998726119886931 0.088393182735662934 0 0.47717038894746222 0.116016093011007 0 0.47998726119886931 0.088393182735662934 0 0.46064328997151027 0.094713825582067729 0 0.5 0.077782921800391924 0 0.48173277133515041 0.06874188656583706 0 0.49999999999999578 0.051912225872027498 0 0.5 0.077782921800391924 0 0.47998726119886931 0.088393182735662934 0 0.48173277133515041 0.06874188656583706 0 0.500000000000002 0.1036536177287565 0 0.5 0.077782921800391924 0 0.47998726119886931 0.088393182735662934 0 0.48173277133515041 0.06874188656583706 0 0.46051487418812181 0.071102672103932688 0 0.47367791919059038 0.049497485845892322 0 0.47998726119886931 0.088393182735662934 0 0.48173277133515041 0.06874188656583706 0 0.46051487418812181 0.071102672103932688 0 0.46051487418812181 0.071102672103932688 0 0.44398295622867068 0.08277193224366064 0 0.46064328997151027 0.094713825582067729 0 0.47998726119886931 0.088393182735662934 0 0.46051487418812181 0.071102672103932688 0 0.46064328997151027 0.094713825582067729 0 0.44398295622867068 0.08277193224366064 0 0.46064328997151027 0.094713825582067729 0 0.44187796484287972 0.097615293758051808 0 0.46051487418812181 0.071102672103932688 0 0.44398295622867068 0.08277193224366064 0 0.43661232892175972 0.066164257387968009 0 0.45434077789492211 0.1283785682932567 0 0.47717038894746222 0.116016093011007 0 0.45589739024521758 0.1105003882942603 0 0.45434077789492211 0.1283785682932567 0 0.47717038894746222 0.116016093011007 0 0.47717038894746222 0.116016093011007 0 0.45589739024521758 0.1105003882942603 0 0.46064328997151027 0.094713825582067729 0 0.45589739024521758 0.1105003882942603 0 0.44187796484287972 0.097615293758051808 0 0.43933967800841572 0.1111423228156744 0 0.45589739024521758 0.1105003882942603 0 0.46064328997151027 0.094713825582067729 0 0.44187796484287972 0.097615293758051808 0 0.45434077789492211 0.1283785682932567 0 0.45589739024521758 0.1105003882942603 0 0.44726663309266351 0.1188695191683628 0 0.45589739024521758 0.1105003882942603 0 0.43933967800841572 0.1111423228156744 0 0.44726663309266351 0.1188695191683628 0 0.45434077789492211 0.1283785682932567 0 0.44726663309266351 0.1188695191683628 0 0.43858264003960729 0.12494058717707909 0 0.43933967800841572 0.1111423228156744 0 0.44726663309266351 0.1188695191683628 0 0.43858264003960729 0.12494058717707909 0 0.43933967800841572 0.1111423228156744 0 0.43858264003960729 0.12494058717707909 0 0.42058930131912992 0.12292399737053181 0 0.43933967800841572 0.1111423228156744 0 0.42058930131912992 0.12292399737053181 0 0.4254774692238556 0.1017475985673543 0 0.42058930131912992 0.12292399737053181 0 0.40966743579587772 0.1051069511655572 0 0.4254774692238556 0.1017475985673543 0 0.42058930131912992 0.12292399737053181 0 0.40966743579587772 0.1051069511655572 0 0.402172221556236 0.1279043847394819 0 0.42058930131912992 0.12292399737053181 0 0.40966743579587772 0.1051069511655572 0 0.40966743579587772 0.1051069511655572 0 0.4254774692238556 0.1017475985673543 0 0.41264983563792312 0.093428432331115946 0 0.40966743579587772 0.1051069511655572 0 0.41264983563792312 0.093428432331115946 0 0.39992312071890418 0.099105343908897359 0 0.44187796484287972 0.097615293758051808 0 0.43933967800841572 0.1111423228156744 0 0.4254774692238556 0.1017475985673543 0 0.44187796484287972 0.097615293758051808 0 0.4254774692238556 0.1017475985673543 0 0.42592700537960798 0.084815695045293515 0 0.44398295622867068 0.08277193224366064 0 0.44187796484287972 0.097615293758051808 0 0.42592700537960798 0.084815695045293515 0 0.42592700537960798 0.084815695045293515 0 0.43661232892175972 0.066164257387968009 0 0.41928830031972603 0.067907209073463426 0 0.44398295622867068 0.08277193224366064 0 0.42592700537960798 0.084815695045293515 0 0.43661232892175972 0.066164257387968009 0 0.42592700537960798 0.084815695045293515 0 0.41928830031972603 0.067907209073463426 0 0.41251328750235478 0.080586145551410693 0 0.41928830031972603 0.067907209073463426 0 0.41251328750235478 0.080586145551410693 0 0.40395403788060302 0.070559197766034018 0 0.41928830031972603 0.067907209073463426 0 0.40395403788060302 0.070559197766034018 0 0.40834312116342752 0.056640067588393871 0 0.4254774692238556 0.1017475985673543 0 0.42592700537960798 0.084815695045293515 0 0.41264983563792312 0.093428432331115946 0 0.42592700537960798 0.084815695045293515 0 0.41251328750235478 0.080586145551410693 0 0.41264983563792312 0.093428432331115946 0 0.41251328750235478 0.080586145551410693 0 0.41264983563792312 0.093428432331115946 0 0.40044209397899938 0.086176281396192114 0 0.41264983563792312 0.093428432331115946 0 0.40044209397899938 0.086176281396192114 0 0.39992312071890418 0.099105343908897359 0 0.40044209397899938 0.086176281396192114 0 0.39184637638881159 0.076584255572831217 0 0.38456699632223912 0.093159853618474578 0 0.40044209397899938 0.086176281396192114 0 0.38456699632223912 0.093159853618474578 0 0.39992312071890418 0.099105343908897359 0 0.41251328750235478 0.080586145551410693 0 0.40044209397899938 0.086176281396192114 0 0.40395403788060302 0.070559197766034018 0 0.40395403788060302 0.070559197766034018 0 0.39504618159550969 0.061215462021646523 0 0.40834312116342752 0.056640067588393871 0 0.40044209397899938 0.086176281396192114 0 0.40395403788060302 0.070559197766034018 0 0.39184637638881159 0.076584255572831217 0 0.40395403788060302 0.070559197766034018 0 0.39184637638881159 0.076584255572831217 0 0.39504618159550969 0.061215462021646523 0 0.39184637638881159 0.076584255572831217 0 0.38458709153501852 0.068042582432365842 0 0.39504618159550969 0.061215462021646523 0 0.39184637638881159 0.076584255572831217 0 0.38458709153501852 0.068042582432365842 0 0.38279433145414538 0.075695429615143167 0 0.37435547445834971 0.073810669538177553 0 0.38279433145414538 0.075695429615143167 0 0.37861571856630788 0.066879786913866646 0 0.38458709153501852 0.068042582432365842 0 0.38279433145414538 0.075695429615143167 0 0.37861571856630788 0.066879786913866646 0 0.38458709153501852 0.068042582432365842 0 0.37861571856630788 0.066879786913866646 0 0.38298601015286338 0.057872627485030033 0 0.37435547445834971 0.073810669538177553 0 0.37297835566059462 0.059643584032000332 0 0.37861571856630788 0.066879786913866646 0 0.39184637638881159 0.076584255572831217 0 0.38279433145414538 0.075695429615143167 0 0.38456699632223912 0.093159853618474578 0 0.37435547445834971 0.073810669538177553 0 0.38456699632223912 0.093159853618474578 0 0.37435547445834971 0.073810669538177553 0 0.38279433145414538 0.075695429615143167 0 0.38456699632223912 0.093159853618474578 0 0.3727935908830754 0.088620323026824294 0 0.37435547445834971 0.073810669538177553 0 0.38456699632223912 0.093159853618474578 0 0.3727935908830754 0.088620323026824294 0 0.38456699632223912 0.093159853618474578 0 0.37558135761635181 0.098927269493736772 0 0.38456699632223912 0.093159853618474578 0 0.38175320474890317 0.1074145726918882 0 0.39477851818612841 0.1125090376987716 0 0.38456699632223912 0.093159853618474578 0 0.39477851818612841 0.1125090376987716 0 0.38456699632223912 0.093159853618474578 0 0.37558135761635181 0.098927269493736772 0 0.38175320474890317 0.1074145726918882 0 0.37140437679355942 0.11066459462832989 0 0.37558135761635181 0.098927269493736772 0 0.38175320474890317 0.1074145726918882 0 0.37140437679355942 0.11066459462832989 0 0.38175320474890317 0.1074145726918882 0 0.3824347748262375 0.1218121080201281 0 0.38175320474890317 0.1074145726918882 0 0.3824347748262375 0.1218121080201281 0 0.39477851818612841 0.1125090376987716 0 0.402172221556236 0.1279043847394819 0 0.3824347748262375 0.1218121080201281 0 0.39477851818612841 0.1125090376987716 0 0.402172221556236 0.1279043847394819 0 0.40966743579587772 0.1051069511655572 0 0.39477851818612841 0.1125090376987716 0 0.40966743579587772 0.1051069511655572 0 0.39477851818612841 0.1125090376987716 0 0.39992312071890418 0.099105343908897359 0 0.38456699632223912 0.093159853618474578 0 0.39477851818612841 0.1125090376987716 0 0.39992312071890418 0.099105343908897359 0 0.39308068649001598 0.025120384208643549 0 0.39006617000486082 0.01001534773427367 0 0.40940779194324067 0.024376980532311739 0 0.39308068649001598 0.025120384208643549 0 0.39471167676237467 0.042253265767485657 0 0.40940779194324067 0.024376980532311739 0 0.39006617000486082 0.01001534773427367 0 0.40940779194324067 0.024376980532311739 0 0.4084350802165197 0.00091553982184491497 0 0.39006617000486082 0.01001534773427367 0 0.4084350802165197 0.00091553982184491497 0 0.39475890918382112 -0.0097235968367020888 0 0.37114691521963322 0.01144195811656998 0 0.37353067451150118 0.022131483883895551 0 0.39006617000486082 0.01001534773427367 0 0.37114691521963322 0.01144195811656998 0 0.39006617000486082 0.01001534773427367 0 0.37598748480921401 -0.0085898363924484626 0 0.37353067451150118 0.022131483883895551 0 0.39308068649001598 0.025120384208643549 0 0.38269200821478189 0.032240620396001958 0 0.37353067451150118 0.022131483883895551 0 0.39308068649001598 0.025120384208643549 0 0.39006617000486082 0.01001534773427367 0 0.36838959595296961 0.039838525741348857 0 0.39471167676237467 0.042253265767485657 0 0.36838959595296961 0.039838525741348857 0 0.37598130368658822 0.050435933298893051 0 0.39471167676237467 0.042253265767485657 0 0.36838959595296961 0.039838525741348857 0 0.38269200821478189 0.032240620396001958 0 0.39471167676237467 0.042253265767485657 0 0.39308068649001598 0.025120384208643549 0 0.38269200821478189 0.032240620396001958 0 0.39471167676237467 0.042253265767485657 0 0.37598130368658822 0.050435933298893051 0 0.38298601015286338 0.057872627485030033 0 0.39471167676237467 0.042253265767485657 0 0.37297835566059462 0.059643584032000332 0 0.37861571856630788 0.066879786913866646 0 0.38298601015286338 0.057872627485030033 0 0.37297835566059462 0.059643584032000332 0 0.37598130368658822 0.050435933298893051 0 0.38298601015286338 0.057872627485030033 0 0.38458709153501852 0.068042582432365842 0 0.38298601015286338 0.057872627485030033 0 0.39504618159550969 0.061215462021646523 0 0.38298601015286338 0.057872627485030033 0 0.39504618159550969 0.061215462021646523 0 0.39471167676237467 0.042253265767485657 0 0.39504618159550969 0.061215462021646523 0 0.39471167676237467 0.042253265767485657 0 0.40834312116342752 0.056640067588393871 0 0.39471167676237467 0.042253265767485657 0 0.42103375757177991 0.044668005793621207 0 0.39471167676237467 0.042253265767485657 0 0.42103375757177991 0.044668005793621207 0 0.40940779194324067 0.024376980532311739 0 0.41928830031972603 0.067907209073463426 0 0.42103375757177991 0.044668005793621207 0 0.40834312116342752 0.056640067588393871 0 0.39471167676237467 0.042253265767485657 0 0.42103375757177991 0.044668005793621207 0 0.40834312116342752 0.056640067588393871 0 0.43661232892175972 0.066164257387968009 0 0.42103375757177991 0.044668005793621207 0 0.44735583838118509 0.047082745819756758 0 0.43661232892175972 0.066164257387968009 0 0.41928830031972603 0.067907209073463426 0 0.42103375757177991 0.044668005793621207 0 0.42103375757177991 0.044668005793621207 0 0.43380977410013571 0.02192708218954386 0 0.44735583838118509 0.047082745819756758 0 0.42103375757177991 0.044668005793621207 0 0.44735583838118509 0.047082745819756758 0 0.42103375757177991 0.044668005793621207 0 0.43380977410013571 0.02192708218954386 0 0.40940779194324067 0.024376980532311739 0 0.43380977410013571 0.02192708218954386 0 0.40940779194324067 0.024376980532311739 0 0.4209415306681884 0.011482488601509459 0 0.40940779194324067 0.024376980532311739 0 0.4084350802165197 0.00091553982184491497 0 0.4084350802165197 0.00091553982184491497 0 0.4209415306681884 0.011482488601509459 0 0.43211347641285769 -0.001289648137662684 0 0.40940779194324067 0.024376980532311739 0 0.4084350802165197 0.00091553982184491497 0 0.4209415306681884 0.011482488601509459 0 0.43380977410013571 0.02192708218954386 0 0.4209415306681884 0.011482488601509459 0 0.43211347641285769 -0.001289648137662684 0 0.43380977410013571 0.02192708218954386 0 0.45266200201564288 -0.0022608496494835712 0 0.43211347641285769 -0.001289648137662684 0 0.43380977410013571 0.02192708218954386 0 0.45267436135227651 0.028784320841542789 0 0.45266200201564288 -0.0022608496494835712 0 0.45267436135227651 0.028784320841542789 0 0.46496757147857198 0.01422423746032267 0 0.47950924428356939 0.029475450573546679 0 0.45267436135227651 0.028784320841542789 0 0.46496757147857198 0.01422423746032267 0 0.45266200201564288 -0.0022608496494835712 0 0.46051487418812181 0.071102672103932688 0 0.43661232892175972 0.066164257387968009 0 0.44735583838118509 0.047082745819756758 0 0.43380977410013571 0.02192708218954386 0 0.45267436135227651 0.028784320841542789 0 0.44735583838118509 0.047082745819756758 0 0.45267436135227651 0.028784320841542789 0 0.44735583838118509 0.047082745819756758 0 0.47367791919059038 0.049497485845892322 0 0.45267436135227651 0.028784320841542789 0 0.47367791919059038 0.049497485845892322 0 0.47950924428356939 0.029475450573546679 0 0.44735583838118509 0.047082745819756758 0 0.47367791919059038 0.049497485845892322 0 0.46051487418812181 0.071102672103932688 0 0.44735583838118509 0.047082745819756758 0 0.47367791919059038 0.049497485845892322 0 0.47367791919059038 0.049497485845892322 0 0.49999999999999578 0.051912225872027498 0 0.47950924428356939 0.029475450573546679 0 0.49999999999999578 0.051912225872027498 0 0.47950924428356939 0.029475450573546679 0 0.5 0.023857573373981981 0 0.47367791919059038 0.049497485845892322 0 0.49999999999999578 0.051912225872027498 0 0.48173277133515041 0.06874188656583706 0 0.47367791919059038 0.049497485845892322 0 0.49999999999999578 0.051912225872027498 0 0.46496757147857198 0.01422423746032267 0 0.48486445824408331 0.0095409830035278372 0 0.47804489540914558 -0.019290770787677731 0 0.46496757147857198 0.01422423746032267 0 0.47950924428356939 0.029475450573546679 0 0.48486445824408331 0.0095409830035278372 0 0.47950924428356939 0.029475450573546679 0 0.5 0.023857573373981981 0 0.48486445824408331 0.0095409830035278372 0 0.5 0.023857573373981981 0 0.48486445824408331 0.0095409830035278372 0 0.5 -0.0041970791240638627 0 0.48486445824408331 0.0095409830035278372 0 0.5 -0.0041970791240638627 0 0.47804489540914558 -0.019290770787677731 0 0.47804489540914558 -0.019290770787677731 0 0.5 -0.032251731622109758 0 0.48542816877059058 -0.035781761513438037 0 0.5 -0.0041970791240638627 0 0.47804489540914558 -0.019290770787677731 0 0.5 -0.032251731622109758 0 0.5 -0.032251731622109758 0 0.5 -0.060306384120155647 0 0.49018794901713553 -0.047210445582032412 0 0.5 -0.032251731622109758 0 0.48542816877059058 -0.035781761513438037 0 0.49018794901713553 -0.047210445582032412 0 0.5 -0.060306384120155647 0 0.49018794901713553 -0.047210445582032412 0 0.49416300777769268 -0.06591632302406697 0 0.49018794901713553 -0.047210445582032412 0 0.47347983065608112 -0.044374098061932273 0 0.49416300777769268 -0.06591632302406697 0 0.4786494568836796 -0.05825427823669397 0 0.47347983065608112 -0.044374098061932273 0 0.49416300777769268 -0.06591632302406697 0 0.4786494568836796 -0.05825427823669397 0 0.47347983065608112 -0.044374098061932273 0 0.45708085503704982 -0.057219944393875538 0 0.47347983065608112 -0.044374098061932273 0 0.49416300777769268 -0.06591632302406697 0 0.48542816877059058 -0.035781761513438037 0 0.49018794901713553 -0.047210445582032412 0 0.47347983065608112 -0.044374098061932273 0 0.47804489540914558 -0.019290770787677731 0 0.48542816877059058 -0.035781761513438037 0 0.47347983065608112 -0.044374098061932273 0 0.47347983065608112 -0.044374098061932273 0 0.45279665353446941 -0.022831873099797478 0 0.47347983065608112 -0.044374098061932273 0 0.45691296044201218 -0.041001808234410117 0 0.45279665353446941 -0.022831873099797478 0 0.4786494568836796 -0.05825427823669397 0 0.45708085503704982 -0.057219944393875538 0 0.47347983065608112 -0.044374098061932273 0 0.45691296044201218 -0.041001808234410117 0 0.45708085503704982 -0.057219944393875538 0 0.4786494568836796 -0.05825427823669397 0 0.45708085503704982 -0.057219944393875538 0 0.46599695362343613 -0.071692537742209697 0 0.45708085503704982 -0.057219944393875538 0 0.44429450254044889 -0.039581317382035207 0 0.43551225319041997 -0.056185610551057107 0 0.45708085503704982 -0.057219944393875538 0 0.43551225319041997 -0.056185610551057107 0 0.45708085503704982 -0.057219944393875538 0 0.44333931019522038 -0.066669623599085195 0 0.43551225319041997 -0.056185610551057107 0 0.45691296044201218 -0.041001808234410117 0 0.44429450254044889 -0.039581317382035207 0 0.45279665353446941 -0.022831873099797478 0 0.45691296044201218 -0.041001808234410117 0 0.45708085503704982 -0.057219944393875538 0 0.44429450254044889 -0.039581317382035207 0 0.46496757147857198 0.01422423746032267 0 0.47804489540914558 -0.019290770787677731 0 0.45266200201564288 -0.0022608496494835712 0 0.44429450254044889 -0.039581317382035207 0 0.45279665353446941 -0.022831873099797478 0 0.42651786999510199 -0.021468859153920359 0 0.45279665353446941 -0.022831873099797478 0 0.43211347641285769 -0.001289648137662684 0 0.45279665353446941 -0.022831873099797478 0 0.45266200201564288 -0.0022608496494835712 0 0.43211347641285769 -0.001289648137662684 0 0.47804489540914558 -0.019290770787677731 0 0.45279665353446941 -0.022831873099797478 0 0.45266200201564288 -0.0022608496494835712 0 0.47804489540914558 -0.019290770787677731 0 0.47347983065608112 -0.044374098061932273 0 0.45279665353446941 -0.022831873099797478 0 0.47029572880651332 -0.12010731716521 0 0.5 -0.1164156891162474 0 0.48229349996368209 -0.13618114589043759 0 0.47029572880651332 -0.12010731716521 0 0.5 -0.1164156891162474 0 0.48361612345639671 -0.1028222463038939 0 0.5 -0.1164156891162474 0 0.48361612345639671 -0.1028222463038939 0 0.5 -0.088361036618201549 0 0.48361612345639671 -0.1028222463038939 0 0.4819850675120454 -0.087860655214388184 0 0.46842481298678251 -0.099183676454591252 0 0.47029572880651332 -0.12010731716521 0 0.48361612345639671 -0.1028222463038939 0 0.46842481298678251 -0.099183676454591252 0 0.4819850675120454 -0.087860655214388184 0 0.46854424713756632 -0.084192136890352764 0 0.46842481298678251 -0.099183676454591252 0 0.4819850675120454 -0.087860655214388184 0 0.48035046755194588 -0.073880155733056202 0 0.46854424713756632 -0.084192136890352764 0 0.4819850675120454 -0.087860655214388184 0 0.5 -0.088361036618201549 0 0.49234731337704052 -0.078369857625227565 0 0.48361612345639671 -0.1028222463038939 0 0.4819850675120454 -0.087860655214388184 0 0.5 -0.088361036618201549 0 0.4819850675120454 -0.087860655214388184 0 0.49234731337704052 -0.078369857625227565 0 0.48035046755194588 -0.073880155733056202 0 0.5 -0.060306384120155647 0 0.49234731337704052 -0.078369857625227565 0 0.49416300777769268 -0.06591632302406697 0 0.4786494568836796 -0.05825427823669397 0 0.49416300777769268 -0.06591632302406697 0 0.48035046755194588 -0.073880155733056202 0 0.49234731337704052 -0.078369857625227565 0 0.49416300777769268 -0.06591632302406697 0 0.48035046755194588 -0.073880155733056202 0 0.5 -0.060306384120155647 0 0.5 -0.088361036618201549 0 0.49234731337704052 -0.078369857625227565 0 0.4786494568836796 -0.05825427823669397 0 0.48035046755194588 -0.073880155733056202 0 0.46599695362343613 -0.071692537742209697 0 0.48035046755194588 -0.073880155733056202 0 0.46599695362343613 -0.071692537742209697 0 0.46854424713756632 -0.084192136890352764 0 0.45708085503704982 -0.057219944393875538 0 0.46599695362343613 -0.071692537742209697 0 0.45245829955714822 -0.073173603768702439 0 0.46599695362343613 -0.071692537742209697 0 0.45245829955714822 -0.073173603768702439 0 0.45911800548380272 -0.080993465422328936 0 0.45708085503704982 -0.057219944393875538 0 0.44333931019522038 -0.066669623599085195 0 0.45245829955714822 -0.073173603768702439 0 0.44333931019522038 -0.066669623599085195 0 0.44319132043437559 -0.076914329648998914 0 0.42789307016038242 -0.072263253258265506 0 0.44333931019522038 -0.066669623599085195 0 0.44319132043437559 -0.076914329648998914 0 0.45245829955714822 -0.073173603768702439 0 0.44319132043437559 -0.076914329648998914 0 0.44184248897697348 -0.089375229808293793 0 0.42789307016038242 -0.072263253258265506 0 0.44319132043437559 -0.076914329648998914 0 0.45245829955714822 -0.073173603768702439 0 0.4503687815264884 -0.084320324682392894 0 0.44319132043437559 -0.076914329648998914 0 0.4503687815264884 -0.084320324682392894 0 0.44184248897697348 -0.089375229808293793 0 0.4503687815264884 -0.084320324682392894 0 0.44184248897697348 -0.089375229808293793 0 0.45155623096785008 -0.092942871219248907 0 0.4503687815264884 -0.084320324682392894 0 0.45155623096785008 -0.092942871219248907 0 0.45822174557437412 -0.091588724027986845 0 0.45245829955714822 -0.073173603768702439 0 0.4503687815264884 -0.084320324682392894 0 0.45911800548380272 -0.080993465422328936 0 0.4503687815264884 -0.084320324682392894 0 0.45822174557437412 -0.091588724027986845 0 0.45911800548380272 -0.080993465422328936 0 0.45822174557437412 -0.091588724027986845 0 0.45911800548380272 -0.080993465422328936 0 0.46854424713756632 -0.084192136890352764 0 0.46599695362343613 -0.071692537742209697 0 0.45911800548380272 -0.080993465422328936 0 0.46854424713756632 -0.084192136890352764 0 0.45822174557437412 -0.091588724027986845 0 0.46854424713756632 -0.084192136890352764 0 0.46842481298678251 -0.099183676454591252 0 0.47029572880651332 -0.12010731716521 0 0.46842481298678251 -0.099183676454591252 0 0.45579190779356482 -0.1064872063583221 0 0.45822174557437412 -0.091588724027986845 0 0.46842481298678251 -0.099183676454591252 0 0.45579190779356482 -0.1064872063583221 0 0.45155623096785008 -0.092942871219248907 0 0.45822174557437412 -0.091588724027986845 0 0.45579190779356482 -0.1064872063583221 0 0.45579190779356482 -0.1064872063583221 0 0.44981896286643469 -0.1177136465756988 0 0.43629193371378322 -0.094427137821876256 0 0.44981896286643469 -0.1177136465756988 0 0.43629193371378322 -0.094427137821876256 0 0.44184248897697348 -0.089375229808293793 0 0.45579190779356482 -0.1064872063583221 0 0.43629193371378322 -0.094427137821876256 0 0.44981896286643469 -0.1177136465756988 0 0.43569510184134258 -0.1103459846475582 0 0.43629193371378322 -0.094427137821876256 0 0.44184248897697348 -0.089375229808293793 0 0.45579190779356482 -0.1064872063583221 0 0.44184248897697348 -0.089375229808293793 0 0.45155623096785008 -0.092942871219248907 0 0.45579190779356482 -0.1064872063583221 0 0.44981896286643469 -0.1177136465756988 0 0.43646568753982928 -0.12425530847447031 0 0.43569510184134258 -0.1103459846475582 0 0.47029572880651332 -0.12010731716521 0 0.45579190779356482 -0.1064872063583221 0 0.44981896286643469 -0.1177136465756988 0 0.4085314377512127 -0.110857654811143 0 0.42403659899646717 -0.1153760749698127 0 0.41009958438689392 -0.12717279801833431 0 0.43646568753982928 -0.12425530847447031 0 0.42403659899646717 -0.1153760749698127 0 0.42357325577169891 -0.13284155697646891 0 0.43646568753982928 -0.12425530847447031 0 0.43569510184134258 -0.1103459846475582 0 0.42403659899646717 -0.1153760749698127 0 0.43569510184134258 -0.1103459846475582 0 0.42403659899646717 -0.1153760749698127 0 0.42936023012427688 -0.10280683928260639 0 0.43569510184134258 -0.1103459846475582 0 0.42936023012427688 -0.10280683928260639 0 0.43629193371378322 -0.094427137821876256 0 0.42403659899646717 -0.1153760749698127 0 0.42936023012427688 -0.10280683928260639 0 0.41996121718847479 -0.1009153599582456 0 0.42936023012427688 -0.10280683928260639 0 0.43629193371378322 -0.094427137821876256 0 0.42761290899601467 -0.094187485618818678 0 0.42936023012427688 -0.10280683928260639 0 0.42761290899601467 -0.094187485618818678 0 0.41996121718847479 -0.1009153599582456 0 0.41996121718847479 -0.1009153599582456 0 0.41857751132002691 -0.084836718072217529 0 0.40439062760812389 -0.096635134721827942 0 0.4085314377512127 -0.110857654811143 0 0.42403659899646717 -0.1153760749698127 0 0.41996121718847479 -0.1009153599582456 0 0.4085314377512127 -0.110857654811143 0 0.41996121718847479 -0.1009153599582456 0 0.40439062760812389 -0.096635134721827942 0 0.41857751132002691 -0.084836718072217529 0 0.40523131920780869 -0.076357969781827767 0 0.40439062760812389 -0.096635134721827942 0 0.44184248897697348 -0.089375229808293793 0 0.43044358263343607 -0.087017964915894364 0 0.42789307016038242 -0.072263253258265506 0 0.42761290899601467 -0.094187485618818678 0 0.41857751132002691 -0.084836718072217529 0 0.43044358263343607 -0.087017964915894364 0 0.42761290899601467 -0.094187485618818678 0 0.41996121718847479 -0.1009153599582456 0 0.41857751132002691 -0.084836718072217529 0 0.44184248897697348 -0.089375229808293793 0 0.42789307016038242 -0.072263253258265506 0 0.44184248897697348 -0.089375229808293793 0 0.43629193371378322 -0.094427137821876256 0 0.43044358263343607 -0.087017964915894364 0 0.43629193371378322 -0.094427137821876256 0 0.42761290899601467 -0.094187485618818678 0 0.43044358263343607 -0.087017964915894364 0 0.41857751132002691 -0.084836718072217529 0 0.43044358263343607 -0.087017964915894364 0 0.42789307016038242 -0.072263253258265506 0 0.44333931019522038 -0.066669623599085195 0 0.42789307016038242 -0.072263253258265506 0 0.43551225319041997 -0.056185610551057107 0 0.41857751132002691 -0.084836718072217529 0 0.41278350506704992 -0.067067642009341372 0 0.40523131920780869 -0.076357969781827767 0 0.41278350506704992 -0.067067642009341372 0 0.40523131920780869 -0.076357969781827767 0 0.40607201080749522 -0.056080804841827703 0 0.42789307016038242 -0.072263253258265506 0 0.41394365134379019 -0.055151276708237933 0 0.41857751132002691 -0.084836718072217529 0 0.42789307016038242 -0.072263253258265506 0 0.41278350506704992 -0.067067642009341372 0 0.42789307016038242 -0.072263253258265506 0 0.41278350506704992 -0.067067642009341372 0 0.41394365134379019 -0.055151276708237933 0 0.39972306865802998 -0.06597358760739129 0 0.40523131920780869 -0.076357969781827767 0 0.40607201080749522 -0.056080804841827703 0 0.40523131920780869 -0.076357969781827767 0 0.40607201080749522 -0.056080804841827703 0 0.40523131920780869 -0.076357969781827767 0 0.39312496077783299 -0.069187285422390499 0 0.3866608432514681 -0.077520689991987163 0 0.39972306865802998 -0.06597358760739129 0 0.40523131920780869 -0.076357969781827767 0 0.39312496077783299 -0.069187285422390499 0 0.39972306865802998 -0.06597358760739129 0 0.39312496077783299 -0.069187285422390499 0 0.3906002361503586 -0.058560751152912108 0 0.39312496077783299 -0.069187285422390499 0 0.38340933662149962 -0.067523428577834152 0 0.3906002361503586 -0.058560751152912108 0 0.38340933662149962 -0.067523428577834152 0 0.37570313736119543 -0.075644342360900813 0 0.37512846149322182 -0.061040697463995909 0 0.38340933662149962 -0.067523428577834152 0 0.37570313736119543 -0.075644342360900813 0 0.3866608432514681 -0.077520689991987163 0 0.39312496077783299 -0.069187285422390499 0 0.38340933662149962 -0.067523428577834152 0 0.3866608432514681 -0.077520689991987163 0 0.37570313736119543 -0.075644342360900813 0 0.3866608432514681 -0.077520689991987163 0 0.37566053394977278 -0.089709090195245644 0 0.3866608432514681 -0.077520689991987163 0 0.37566053394977278 -0.089709090195245644 0 0.39040412944060682 -0.0916018455533847 0 0.40523131920780869 -0.076357969781827767 0 0.39040412944060682 -0.0916018455533847 0 0.40439062760812389 -0.096635134721827942 0 0.40523131920780869 -0.076357969781827767 0 0.3866608432514681 -0.077520689991987163 0 0.39040412944060682 -0.0916018455533847 0 0.40523131920780869 -0.076357969781827767 0 0.40439062760812389 -0.096635134721827942 0 0.4085314377512127 -0.110857654811143 0 0.40439062760812389 -0.096635134721827942 0 0.3930256082318892 -0.10626676041142211 0 0.39040412944060682 -0.0916018455533847 0 0.40439062760812389 -0.096635134721827942 0 0.3930256082318892 -0.10626676041142211 0 0.39040412944060682 -0.0916018455533847 0 0.3930256082318892 -0.10626676041142211 0 0.37621682752539481 -0.10491019466641099 0 0.37566053394977278 -0.089709090195245644 0 0.39040412944060682 -0.0916018455533847 0 0.37621682752539481 -0.10491019466641099 0 0.3930256082318892 -0.10626676041142211 0 0.38083013693261908 -0.123454079406251 0 0.39723402615958042 -0.1208073479532978 0 0.3930256082318892 -0.10626676041142211 0 0.37621682752539481 -0.10491019466641099 0 0.38083013693261908 -0.123454079406251 0 0.4085314377512127 -0.110857654811143 0 0.39723402615958042 -0.1208073479532978 0 0.41009958438689392 -0.12717279801833431 0 0.4085314377512127 -0.110857654811143 0 0.3930256082318892 -0.10626676041142211 0 0.39723402615958042 -0.1208073479532978 0 0.40746236848979878 -0.022545900888621979 0 0.42651786999510199 -0.021468859153920359 0 0.41660208887638023 -0.034279405896392737 0 0.4084350802165197 0.00091553982184491497 0 0.40746236848979878 -0.022545900888621979 0 0.42651786999510199 -0.021468859153920359 0 0.4084350802165197 0.00091553982184491497 0 0.40746236848979878 -0.022545900888621979 0 0.45279665353446941 -0.022831873099797478 0 0.43211347641285769 -0.001289648137662684 0 0.42651786999510199 -0.021468859153920359 0 0.4084350802165197 0.00091553982184491497 0 0.43211347641285769 -0.001289648137662684 0 0.42651786999510199 -0.021468859153920359 0 0.42748429278453359 -0.03853039015918918 0 0.43551225319041997 -0.056185610551057107 0 0.41955637656961742 -0.045741144319006943 0 0.42651786999510199 -0.021468859153920359 0 0.42748429278453359 -0.03853039015918918 0 0.41660208887638023 -0.034279405896392737 0 0.44429450254044889 -0.039581317382035207 0 0.42748429278453359 -0.03853039015918918 0 0.43551225319041997 -0.056185610551057107 0 0.44429450254044889 -0.039581317382035207 0 0.42651786999510199 -0.021468859153920359 0 0.42748429278453359 -0.03853039015918918 0 0.43551225319041997 -0.056185610551057107 0 0.41394365134379019 -0.055151276708237933 0 0.41955637656961742 -0.045741144319006943 0 0.42789307016038242 -0.072263253258265506 0 0.43551225319041997 -0.056185610551057107 0 0.41394365134379019 -0.055151276708237933 0 0.43551225319041997 -0.056185610551057107 0 0.41394365134379019 -0.055151276708237933 0 0.40971346471147979 -0.055650801231358307 0 0.40648965676307691 -0.046007341599088737 0 0.40607201080749522 -0.056080804841827703 0 0.41394365134379019 -0.055151276708237933 0 0.40648965676307691 -0.046007341599088737 0 0.41394365134379019 -0.055151276708237933 0 0.41955637656961742 -0.045741144319006943 0 0.40648965676307691 -0.046007341599088737 0 0.41394365134379019 -0.055151276708237933 0 0.40971346471147979 -0.055650801231358307 0 0.40648965676307691 -0.046007341599088737 0 0.40648965676307691 -0.046007341599088737 0 0.40607201080749522 -0.056080804841827703 0 0.41278350506704992 -0.067067642009341372 0 0.41394365134379019 -0.055151276708237933 0 0.40971346471147979 -0.055650801231358307 0 0.41278350506704992 -0.067067642009341372 0 0.40971346471147979 -0.055650801231358307 0 0.40607201080749522 -0.056080804841827703 0 0.41394365134379019 -0.055151276708237933 0 0.40971346471147979 -0.055650801231358307 0 0.40971346471147979 -0.055650801231358307 0 0.40607201080749522 -0.056080804841827703 0 0.40746236848979878 -0.022545900888621979 0 0.40648965676307691 -0.046007341599088737 0 0.40746236848979878 -0.022545900888621979 0 0.41660208887638023 -0.034279405896392737 0 0.40648965676307691 -0.046007341599088737 0 0.41660208887638023 -0.034279405896392737 0 0.41955637656961742 -0.045741144319006943 0 0.40648965676307691 -0.046007341599088737 0 0.42748429278453359 -0.03853039015918918 0 0.41660208887638023 -0.034279405896392737 0 0.41955637656961742 -0.045741144319006943 0 0.40648965676307691 -0.046007341599088737 0 0.39123857078614499 -0.027298588995769011 0 0.40746236848979878 -0.022545900888621979 0 0.40648965676307691 -0.046007341599088737 0 0.39123857078614499 -0.027298588995769011 0 0.40648965676307691 -0.046007341599088737 0 0.39378043508274918 -0.044557404490398217 0 0.39123857078614499 -0.027298588995769011 0 0.40648965676307691 -0.046007341599088737 0 0.39378043508274918 -0.044557404490398217 0 0.40053621309641879 -0.049904963532018447 0 0.39972306865802998 -0.06597358760739129 0 0.40607201080749522 -0.056080804841827703 0 0.3906002361503586 -0.058560751152912108 0 0.40607201080749522 -0.056080804841827703 0 0.39574866831771338 -0.054278726561168347 0 0.40607201080749522 -0.056080804841827703 0 0.40053621309641879 -0.049904963532018447 0 0.39574866831771338 -0.054278726561168347 0 0.40648965676307691 -0.046007341599088737 0 0.40607201080749522 -0.056080804841827703 0 0.40053621309641879 -0.049904963532018447 0 0.39574866831771338 -0.054278726561168347 0 0.3906002361503586 -0.058560751152912108 0 0.3901469031079155 -0.050481671763877189 0 0.39378043508274918 -0.044557404490398217 0 0.39574866831771338 -0.054278726561168347 0 0.3901469031079155 -0.050481671763877189 0 0.39378043508274918 -0.044557404490398217 0 0.40053621309641879 -0.049904963532018447 0 0.39574866831771338 -0.054278726561168347 0 0.40607201080749522 -0.056080804841827703 0 0.39574866831771338 -0.054278726561168347 0 0.3906002361503586 -0.058560751152912108 0 0.40607201080749522 -0.056080804841827703 0 0.3906002361503586 -0.058560751152912108 0 0.3906002361503586 -0.058560751152912108 0 0.37512846149322182 -0.061040697463995909 0 0.3906002361503586 -0.058560751152912108 0 0.3843965776152829 -0.05382719670346868 0 0.37771682036902582 -0.057872332679418818 0 0.38340933662149962 -0.067523428577834152 0 0.3906002361503586 -0.058560751152912108 0 0.37512846149322182 -0.061040697463995909 0 0.3906002361503586 -0.058560751152912108 0 0.3843965776152829 -0.05382719670346868 0 0.3901469031079155 -0.050481671763877189 0 0.39378043508274918 -0.044557404490398217 0 0.3901469031079155 -0.050481671763877189 0 0.38398296785422281 -0.046940536051995572 0 0.3843965776152829 -0.05382719670346868 0 0.3901469031079155 -0.050481671763877189 0 0.38398296785422281 -0.046940536051995572 0 0.38398296785422281 -0.046940536051995572 0 0.37948982929160763 -0.053382753885805087 0 0.37455305884360679 -0.050057248125451412 0 0.37948982929160763 -0.053382753885805087 0 0.37455305884360679 -0.050057248125451412 0 0.37438835498578937 -0.055980553087507053 0 0.3843965776152829 -0.05382719670346868 0 0.38398296785422281 -0.046940536051995572 0 0.37948982929160763 -0.053382753885805087 0 0.3906002361503586 -0.058560751152912108 0 0.37771682036902582 -0.057872332679418818 0 0.37512846149322182 -0.061040697463995909 0 0.3843965776152829 -0.05382719670346868 0 0.37948982929160763 -0.053382753885805087 0 0.37771682036902582 -0.057872332679418818 0 0.37948982929160763 -0.053382753885805087 0 0.37771682036902582 -0.057872332679418818 0 0.37438835498578937 -0.055980553087507053 0 0.37771682036902582 -0.057872332679418818 0 0.37512846149322182 -0.061040697463995909 0 0.37438835498578937 -0.055980553087507053 0 0.37771682036902582 -0.057872332679418818 0 0.37512846149322182 -0.061040697463995909 0 0.39378043508274918 -0.044557404490398217 0 0.38337427959007742 -0.038245411376754718 0 0.39123857078614499 -0.027298588995769011 0 0.38337427959007742 -0.038245411376754718 0 0.39123857078614499 -0.027298588995769011 0 0.37456672018055431 -0.03112731568379026 0 0.39378043508274918 -0.044557404490398217 0 0.38398296785422281 -0.046940536051995572 0 0.38337427959007742 -0.038245411376754718 0 0.38398296785422281 -0.046940536051995572 0 0.37358543110384429 -0.041497545266376439 0 0.37455305884360679 -0.050057248125451412 0 0.38398296785422281 -0.046940536051995572 0 0.38337427959007742 -0.038245411376754718 0 0.37358543110384429 -0.041497545266376439 0 0.38337427959007742 -0.038245411376754718 0 0.37456672018055431 -0.03112731568379026 0 0.37358543110384429 -0.041497545266376439 0 0.39123857078614499 -0.027298588995769011 0 0.37598748480921401 -0.0085898363924484626 0 0.39123857078614499 -0.027298588995769011 0 0.37598748480921401 -0.0085898363924484626 0 0.37456672018055431 -0.03112731568379026 0 0.40746236848979878 -0.022545900888621979 0 0.39123857078614499 -0.027298588995769011 0 0.39475890918382112 -0.0097235968367020888 0 0.4084350802165197 0.00091553982184491497 0 0.40746236848979878 -0.022545900888621979 0 0.39475890918382112 -0.0097235968367020888 0 0.39006617000486082 0.01001534773427367 0 0.39475890918382112 -0.0097235968367020888 0 0.37598748480921401 -0.0085898363924484626 0 0.39123857078614499 -0.027298588995769011 0 0.39475890918382112 -0.0097235968367020888 0 0.37598748480921401 -0.0085898363924484626 0 0.36073639883228298 0.010118916210872009 0 0.37598748480921401 -0.0085898363924484626 0 0.35478009618754641 -0.017961861507902788 0 0.37456672018055431 -0.03112731568379026 0 0.35478009618754641 -0.017961861507902788 0 0.36326250422900619 -0.038516729667013118 0 0.37598748480921401 -0.0085898363924484626 0 0.37456672018055431 -0.03112731568379026 0 0.35478009618754641 -0.017961861507902788 0 0.35478009618754641 -0.017961861507902788 0 0.33852940524291081 -0.011509137617495779 0 0.33864684001281142 -0.031257204727744757 0 0.35821223192910012 0.01062893460296665 0 0.35478009618754641 -0.017961861507902788 0 0.35821223192910012 0.01062893460296665 0 0.3428566321824339 0.0055570937918707763 0 0.35478009618754641 -0.017961861507902788 0 0.3428566321824339 0.0055570937918707763 0 0.35478009618754641 -0.017961861507902788 0 0.33852940524291081 -0.011509137617495779 0 0.325883089216841 0.00030087900974781837 0 0.33852940524291081 -0.011509137617495779 0 0.32514575506231191 -0.017070165782396261 0 0.3428566321824339 0.0055570937918707763 0 0.325883089216841 0.00030087900974781837 0 0.33852940524291081 -0.011509137617495779 0 0.33852940524291081 -0.011509137617495779 0 0.32514575506231191 -0.017070165782396261 0 0.33864684001281142 -0.031257204727744757 0 0.32514575506231191 -0.017070165782396261 0 0.32260775908014311 -0.032134217359134798 0 0.33864684001281142 -0.031257204727744757 0 0.32514575506231191 -0.017070165782396261 0 0.32260775908014311 -0.032134217359134798 0 0.31200993992300963 -0.02243836744084177 0 0.325883089216841 0.00030087900974781837 0 0.32514575506231191 -0.017070165782396261 0 0.30781928645641449 -0.0066575603602469554 0 0.32514575506231191 -0.017070165782396261 0 0.30781928645641449 -0.0066575603602469554 0 0.31200993992300963 -0.02243836744084177 0 0.32058169288092908 -0.064908920309156737 0 0.30810122446232602 -0.039908870372795308 0 0.32715394586750579 -0.047480112098639088 0 0.32727279023588612 -0.061611290597459817 0 0.32058169288092908 -0.064908920309156737 0 0.32715394586750579 -0.047480112098639088 0 0.32058169288092908 -0.064908920309156737 0 0.30810122446232602 -0.039908870372795308 0 0.32715394586750579 -0.047480112098639088 0 0.32260775908014311 -0.032134217359134798 0 0.30810122446232602 -0.039908870372795308 0 0.32260775908014311 -0.032134217359134798 0 0.31200993992300963 -0.02243836744084177 0 0.30810122446232602 -0.039908870372795308 0 0.32715394586750579 -0.047480112098639088 0 0.30810122446232602 -0.039908870372795308 0 0.32715394586750579 -0.047480112098639088 0 0.32260775908014311 -0.032134217359134798 0 0.33864684001281142 -0.031257204727744757 0 0.32715394586750579 -0.047480112098639088 0 0.33864684001281142 -0.031257204727744757 0 0.33917335343928851 -0.0449920820640273 0 0.33864684001281142 -0.031257204727744757 0 0.33917335343928851 -0.0449920820640273 0 0.3513479604459927 -0.046552657618772218 0 0.32715394586750579 -0.047480112098639088 0 0.33449163283192551 -0.059731541384776897 0 0.34620666727268568 -0.055051353824483042 0 0.32715394586750579 -0.047480112098639088 0 0.33917335343928851 -0.0449920820640273 0 0.34620666727268568 -0.055051353824483042 0 0.32715394586750579 -0.047480112098639088 0 0.34620666727268568 -0.055051353824483042 0 0.32715394586750579 -0.047480112098639088 0 0.32727279023588612 -0.061611290597459817 0 0.33449163283192551 -0.059731541384776897 0 0.33449163283192551 -0.059731541384776897 0 0.34620666727268568 -0.055051353824483042 0 0.34556254518854729 -0.065779771468010159 0 0.34620666727268568 -0.055051353824483042 0 0.36525938867786539 -0.062622595550326912 0 0.34620666727268568 -0.055051353824483042 0 0.35864615853603848 -0.053677692045545233 0 0.36525938867786539 -0.062622595550326912 0 0.34620666727268568 -0.055051353824483042 0 0.36525938867786539 -0.062622595550326912 0 0.34556254518854729 -0.065779771468010159 0 0.33917335343928851 -0.0449920820640273 0 0.34620666727268568 -0.055051353824483042 0 0.3513479604459927 -0.046552657618772218 0 0.34620666727268568 -0.055051353824483042 0 0.35864615853603848 -0.053677692045545233 0 0.3513479604459927 -0.046552657618772218 0 0.35864615853603848 -0.053677692045545233 0 0.3513479604459927 -0.046552657618772218 0 0.35996251559246401 -0.046539605062205142 0 0.35478009618754641 -0.017961861507902788 0 0.3513479604459927 -0.046552657618772218 0 0.35478009618754641 -0.017961861507902788 0 0.33864684001281142 -0.031257204727744757 0 0.3513479604459927 -0.046552657618772218 0 0.35478009618754641 -0.017961861507902788 0 0.3513479604459927 -0.046552657618772218 0 0.36326250422900619 -0.038516729667013118 0 0.3513479604459927 -0.046552657618772218 0 0.36326250422900619 -0.038516729667013118 0 0.35996251559246401 -0.046539605062205142 0 0.36326250422900619 -0.038516729667013118 0 0.35996251559246401 -0.046539605062205142 0 0.36659343915881881 -0.047411340917489997 0 0.36326250422900619 -0.038516729667013118 0 0.37358543110384429 -0.041497545266376439 0 0.36659343915881881 -0.047411340917489997 0 0.37358543110384429 -0.041497545266376439 0 0.36659343915881881 -0.047411340917489997 0 0.37455305884360679 -0.050057248125451412 0 0.37456672018055431 -0.03112731568379026 0 0.36326250422900619 -0.038516729667013118 0 0.37358543110384429 -0.041497545266376439 0 0.35864615853603848 -0.053677692045545233 0 0.36552272825880933 -0.055707863362626828 0 0.36525938867786539 -0.062622595550326912 0 0.36552272825880933 -0.055707863362626828 0 0.37009339960989479 -0.057867978968779633 0 0.36525938867786539 -0.062622595550326912 0 0.35864615853603848 -0.053677692045545233 0 0.36552272825880933 -0.055707863362626828 0 0.36659343915881881 -0.047411340917489997 0 0.35864615853603848 -0.053677692045545233 0 0.35996251559246401 -0.046539605062205142 0 0.36659343915881881 -0.047411340917489997 0 0.36552272825880933 -0.055707863362626828 0 0.36659343915881881 -0.047411340917489997 0 0.37016806463378821 -0.053988185379441479 0 0.36659343915881881 -0.047411340917489997 0 0.37016806463378821 -0.053988185379441479 0 0.37455305884360679 -0.050057248125451412 0 0.37016806463378821 -0.053988185379441479 0 0.37455305884360679 -0.050057248125451412 0 0.37438835498578937 -0.055980553087507053 0 0.37512846149322182 -0.061040697463995909 0 0.36525938867786539 -0.062622595550326912 0 0.37512846149322182 -0.061040697463995909 0 0.37009339960989479 -0.057867978968779633 0 0.36525938867786539 -0.062622595550326912 0 0.37512846149322182 -0.061040697463995909 0 0.37438835498578937 -0.055980553087507053 0 0.37009339960989479 -0.057867978968779633 0 0.37016806463378821 -0.053988185379441479 0 0.37438835498578937 -0.055980553087507053 0 0.37009339960989479 -0.057867978968779633 0 0.36552272825880933 -0.055707863362626828 0 0.37016806463378821 -0.053988185379441479 0 0.37009339960989479 -0.057867978968779633 0 0.37570313736119543 -0.075644342360900813 0 0.37512846149322182 -0.061040697463995909 0 0.37164596366831931 -0.065303562082163494 0 0.37512846149322182 -0.061040697463995909 0 0.37164596366831931 -0.065303562082163494 0 0.37164596366831931 -0.065303562082163494 0 0.35765651149001498 -0.08242780557544116 0 0.37570313736119543 -0.075644342360900813 0 0.37164596366831931 -0.065303562082163494 0 0.35765651149001498 -0.08242780557544116 0 0.37164596366831931 -0.065303562082163494 0 0.35765651149001498 -0.08242780557544116 0 0.35746841276791491 -0.070361955652925523 0 0.37512846149322182 -0.061040697463995909 0 0.37164596366831931 -0.065303562082163494 0 0.36525938867786539 -0.062622595550326912 0 0.37164596366831931 -0.065303562082163494 0 0.36525938867786539 -0.062622595550326912 0 0.37164596366831931 -0.065303562082163494 0 0.36525938867786539 -0.062622595550326912 0 0.35746841276791491 -0.070361955652925523 0 0.37566053394977278 -0.089709090195245644 0 0.35765651149001498 -0.08242780557544116 0 0.36190613433388491 -0.098756937380804793 0 0.37570313736119543 -0.075644342360900813 0 0.37566053394977278 -0.089709090195245644 0 0.35765651149001498 -0.08242780557544116 0 0.35765651149001498 -0.08242780557544116 0 0.34018456148680848 -0.1038149136868867 0 0.34313145450150939 -0.085862428112786091 0 0.35765651149001498 -0.08242780557544116 0 0.34018456148680848 -0.1038149136868867 0 0.35765651149001498 -0.08242780557544116 0 0.34857100332780289 -0.076344099867542092 0 0.34313145450150939 -0.085862428112786091 0 0.34857100332780289 -0.076344099867542092 0 0.34556254518854729 -0.065779771468010159 0 0.33903609269102758 -0.077288538528547515 0 0.36525938867786539 -0.062622595550326912 0 0.34556254518854729 -0.065779771468010159 0 0.36525938867786539 -0.062622595550326912 0 0.34556254518854729 -0.065779771468010159 0 0.35746841276791491 -0.070361955652925523 0 0.34857100332780289 -0.076344099867542092 0 0.34556254518854729 -0.065779771468010159 0 0.35746841276791491 -0.070361955652925523 0 0.35765651149001498 -0.08242780557544116 0 0.34857100332780289 -0.076344099867542092 0 0.35746841276791491 -0.070361955652925523 0 0.37621682752539481 -0.10491019466641099 0 0.38083013693261908 -0.123454079406251 0 0.35981223721743327 -0.1129226827800394 0 0.38083013693261908 -0.123454079406251 0 0.35981223721743327 -0.1129226827800394 0 0.36387019081085431 -0.13351501557918971 0 0.37621682752539481 -0.10491019466641099 0 0.35981223721743327 -0.1129226827800394 0 0.36190613433388491 -0.098756937380804793 0 0.37566053394977278 -0.089709090195245644 0 0.37621682752539481 -0.10491019466641099 0 0.36190613433388491 -0.098756937380804793 0 0.35765651149001498 -0.08242780557544116 0 0.36190613433388491 -0.098756937380804793 0 0.34018456148680848 -0.1038149136868867 0 0.35981223721743327 -0.1129226827800394 0 0.36190613433388491 -0.098756937380804793 0 0.34018456148680848 -0.1038149136868867 0 0.35981223721743327 -0.1129226827800394 0 0.34864541948755662 -0.12381602966498589 0 0.34018456148680848 -0.1038149136868867 0 0.35981223721743327 -0.1129226827800394 0 0.34864541948755662 -0.12381602966498589 0 0.36387019081085431 -0.13351501557918971 0 0.34864541948755662 -0.12381602966498589 0 0.34018456148680848 -0.1038149136868867 0 0.33507887105419493 -0.12733510376549989 0 0.34018456148680848 -0.1038149136868867 0 0.32271261148360197 -0.12520202179833231 0 0.33507887105419493 -0.12733510376549989 0 0.34018456148680848 -0.1038149136868867 0 0.32271261148360197 -0.12520202179833231 0 0.34018456148680848 -0.1038149136868867 0 0.32243306050858223 -0.1094673051798859 0 0.32271261148360197 -0.12520202179833231 0 0.34018456148680848 -0.1038149136868867 0 0.32204467667475939 -0.096537907484363361 0 0.33306216129953231 -0.089908970245518055 0 0.34018456148680848 -0.1038149136868867 0 0.32204467667475939 -0.096537907484363361 0 0.32243306050858223 -0.1094673051798859 0 0.32204467667475939 -0.096537907484363361 0 0.30728069887274673 -0.088451478314213933 0 0.31079090986695901 -0.1048291147777837 0 0.32204467667475939 -0.096537907484363361 0 0.32243306050858223 -0.1094673051798859 0 0.31079090986695901 -0.1048291147777837 0 0.32243306050858223 -0.1094673051798859 0 0.31285644190352868 -0.11802368689918979 0 0.32271261148360197 -0.12520202179833231 0 0.32243306050858223 -0.1094673051798859 0 0.31285644190352868 -0.11802368689918979 0 0.31079090986695901 -0.1048291147777837 0 0.34556254518854729 -0.065779771468010159 0 0.32586570169922918 -0.068936947385693476 0 0.33449163283192551 -0.059731541384776897 0 0.34556254518854729 -0.065779771468010159 0 0.32586570169922918 -0.068936947385693476 0 0.34556254518854729 -0.065779771468010159 0 0.33903609269102758 -0.077288538528547515 0 0.32586570169922918 -0.068936947385693476 0 0.32727279023588612 -0.061611290597459817 0 0.33449163283192551 -0.059731541384776897 0 0.32586570169922918 -0.068936947385693476 0 0.33903609269102758 -0.077288538528547515 0 0.34313145450150939 -0.085862428112786091 0 0.33306216129953231 -0.089908970245518055 0 0.34857100332780289 -0.076344099867542092 0 0.33903609269102758 -0.077288538528547515 0 0.34313145450150939 -0.085862428112786091 0 0.33903609269102758 -0.077288538528547515 0 0.33306216129953231 -0.089908970245518055 0 0.32586570169922918 -0.068936947385693476 0 0.34018456148680848 -0.1038149136868867 0 0.34313145450150939 -0.085862428112786091 0 0.33306216129953231 -0.089908970245518055 0 0.33306216129953231 -0.089908970245518055 0 0.31851666801392808 -0.082755662701891927 0 0.32058169288092908 -0.064908920309156737 0 0.32204467667475939 -0.096537907484363361 0 0.33306216129953231 -0.089908970245518055 0 0.31851666801392808 -0.082755662701891927 0 0.32204467667475939 -0.096537907484363361 0 0.31851666801392808 -0.082755662701891927 0 0.30728069887274673 -0.088451478314213933 0 0.31851666801392808 -0.082755662701891927 0 0.32058169288092908 -0.064908920309156737 0 0.30768220832094723 -0.072398522296300352 0 0.33306216129953231 -0.089908970245518055 0 0.32058169288092908 -0.064908920309156737 0 0.33306216129953231 -0.089908970245518055 0 0.32586570169922918 -0.068936947385693476 0 0.32058169288092908 -0.064908920309156737 0 0.32727279023588612 -0.061611290597459817 0 0.32586570169922918 -0.068936947385693476 0 0.32058169288092908 -0.064908920309156737 0 0.30768220832094723 -0.072398522296300352 0 0.2851151506863534 -0.072941393886813297 0 0.30065522064337802 -0.059241308152784708 0 0.32058169288092908 -0.064908920309156737 0 0.30768220832094723 -0.072398522296300352 0 0.30065522064337802 -0.059241308152784708 0 0.31851666801392808 -0.082755662701891927 0 0.30768220832094723 -0.072398522296300352 0 0.30728069887274673 -0.088451478314213933 0 0.30768220832094723 -0.072398522296300352 0 0.30728069887274673 -0.088451478314213933 0 0.28954304614624832 -0.09006197063998822 0 0.30768220832094723 -0.072398522296300352 0 0.28954304614624832 -0.09006197063998822 0 0.2851151506863534 -0.072941393886813297 0 0.28954304614624832 -0.09006197063998822 0 0.2851151506863534 -0.072941393886813297 0 0.2737595064001519 -0.098159995999437422 0 0.31285644190352868 -0.11802368689918979 0 0.29831263576156508 -0.1175630556000723 0 0.30312791298519309 -0.12982937227971381 0 0.31285644190352868 -0.11802368689918979 0 0.29831263576156508 -0.1175630556000723 0 0.31079090986695901 -0.1048291147777837 0 0.30728069887274673 -0.088451478314213933 0 0.31079090986695901 -0.1048291147777837 0 0.29374874525637179 -0.1036802551877623 0 0.29831263576156508 -0.1175630556000723 0 0.31079090986695901 -0.1048291147777837 0 0.29374874525637179 -0.1036802551877623 0 0.29374874525637179 -0.1036802551877623 0 0.2823481823627077 -0.1182979433102105 0 0.2737595064001519 -0.098159995999437422 0 0.30728069887274673 -0.088451478314213933 0 0.28954304614624832 -0.09006197063998822 0 0.29374874525637179 -0.1036802551877623 0 0.28954304614624832 -0.09006197063998822 0 0.29374874525637179 -0.1036802551877623 0 0.2737595064001519 -0.098159995999437422 0 0.29831263576156508 -0.1175630556000723 0 0.2823481823627077 -0.1182979433102105 0 0.29036178868452939 -0.1319241357976452 0 0.29831263576156508 -0.1175630556000723 0 0.29374874525637179 -0.1036802551877623 0 0.2823481823627077 -0.1182979433102105 0 0.2737595064001519 -0.098159995999437422 0 0.26240386211395028 -0.1233785981120616 0 0.2823481823627077 -0.1182979433102105 0 0.2737595064001519 -0.098159995999437422 0 0.26240386211395028 -0.1233785981120616 0 0.25957330455821948 -0.085320768534336511 0 0.24994483656663891 -0.1061256540670502 0 0.24245284515590679 -0.093863833233518226 0 0.2737595064001519 -0.098159995999437422 0 0.26240386211395028 -0.1233785981120616 0 0.24994483656663891 -0.1061256540670502 0 0.2737595064001519 -0.098159995999437422 0 0.25957330455821948 -0.085320768534336511 0 0.24994483656663891 -0.1061256540670502 0 0.26240386211395028 -0.1233785981120616 0 0.24994483656663891 -0.1061256540670502 0 0.24393906892098721 -0.1259442153439837 0 0.2851151506863534 -0.072941393886813297 0 0.25957330455821948 -0.085320768534336511 0 0.26819766443795701 -0.059938507515403062 0 0.2851151506863534 -0.072941393886813297 0 0.2737595064001519 -0.098159995999437422 0 0.2851151506863534 -0.072941393886813297 0 0.2737595064001519 -0.098159995999437422 0 0.25957330455821948 -0.085320768534336511 0 0.25957330455821948 -0.085320768534336511 0 0.25002621826855981 -0.068739235795218789 0 0.24245284515590679 -0.093863833233518226 0 0.25957330455821948 -0.085320768534336511 0 0.25002621826855981 -0.068739235795218789 0 0.26819766443795701 -0.059938507515403062 0 0.25002621826855981 -0.068739235795218789 0 0.25759959138121291 -0.043614638356919297 0 0.25002621826855981 -0.068739235795218789 0 0.26819766443795701 -0.059938507515403062 0 0.25759959138121291 -0.043614638356919297 0 0.2851151506863534 -0.072941393886813297 0 0.26819766443795701 -0.059938507515403062 0 0.28506567698571328 -0.049989187832047623 0 0.26819766443795701 -0.059938507515403062 0 0.27180604474768322 -0.039025820687082803 0 0.25759959138121291 -0.043614638356919297 0 0.26819766443795701 -0.059938507515403062 0 0.27180604474768322 -0.039025820687082803 0 0.28506567698571328 -0.049989187832047623 0 0.27180604474768322 -0.039025820687082803 0 0.28622264951810561 -0.031214680393475299 0 0.28506567698571328 -0.049989187832047623 0 0.25759959138121291 -0.043614638356919297 0 0.26399020841485221 -0.0224138236123936 0 0.25759959138121291 -0.043614638356919297 0 0.26399020841485221 -0.0224138236123936 0 0.24956736139890351 -0.030837517079297161 0 0.27180604474768322 -0.039025820687082803 0 0.25759959138121291 -0.043614638356919297 0 0.26399020841485221 -0.0224138236123936 0 0.25080229761055728 -0.017245066800580459 0 0.26517296449386579 -0.018490040918619919 0 0.24956736139890351 -0.030837517079297161 0 0.26517296449386579 -0.018490040918619919 0 0.26399020841485221 -0.0224138236123936 0 0.26517296449386579 -0.018490040918619919 0 0.26399020841485221 -0.0224138236123936 0 0.24956736139890351 -0.030837517079297161 0 0.2592490732137257 0.0017951579894068591 0 0.26517296449386579 -0.018490040918619919 0 0.25677534033299271 -0.01025090955497422 0 0.2592490732137257 0.0017951579894068591 0 0.25045753469988208 -0.0069632004254019291 0 0.25677534033299271 -0.01025090955497422 0 0.24397708060534851 0.00076903392350891183 0 0.2592490732137257 0.0017951579894068591 0 0.25045753469988208 -0.0069632004254019291 0 0.25080229761055728 -0.017245066800580459 0 0.26517296449386579 -0.018490040918619919 0 0.25677534033299271 -0.01025090955497422 0 0.25080229761055728 -0.017245066800580459 0 0.25045753469988208 -0.0069632004254019291 0 0.25677534033299271 -0.01025090955497422 0 0.27274633760651879 0.0066345565196794382 0 0.26517296449386579 -0.018490040918619919 0 0.28004840048999402 -0.01588228846309267 0 0.27274633760651879 0.0066345565196794382 0 0.26517296449386579 -0.018490040918619919 0 0.27274633760651879 0.0066345565196794382 0 0.28004840048999402 -0.01588228846309267 0 0.28918600301924502 -0.0059440216791364318 0 0.27274633760651879 0.0066345565196794382 0 0.2592490732137257 0.0017951579894068591 0 0.26517296449386579 -0.018490040918619919 0 0.26399020841485221 -0.0224138236123936 0 0.28622264951810561 -0.031214680393475299 0 0.26517296449386579 -0.018490040918619919 0 0.26399020841485221 -0.0224138236123936 0 0.28004840048999402 -0.01588228846309267 0 0.26399020841485221 -0.0224138236123936 0 0.28004840048999402 -0.01588228846309267 0 0.28622264951810561 -0.031214680393475299 0 0.27180604474768322 -0.039025820687082803 0 0.26399020841485221 -0.0224138236123936 0 0.28622264951810561 -0.031214680393475299 0 0.28004840048999402 -0.01588228846309267 0 0.29637567455385222 -0.016421023329635541 0 0.28622264951810561 -0.031214680393475299 0 0.28004840048999402 -0.01588228846309267 0 0.29637567455385222 -0.016421023329635541 0 0.28918600301924502 -0.0059440216791364318 0 0.29637567455385222 -0.016421023329635541 0 0.28918600301924502 -0.0059440216791364318 0 0.30781928645641449 -0.0066575603602469554 0 0.2952835909861769 0.0053480230237554251 0 0.28918600301924502 -0.0059440216791364318 0 0.30781928645641449 -0.0066575603602469554 0 0.29637567455385222 -0.016421023329635541 0 0.30781928645641449 -0.0066575603602469554 0 0.31200993992300963 -0.02243836744084177 0 0.29637567455385222 -0.016421023329635541 0 0.31200993992300963 -0.02243836744084177 0 0.30810122446232602 -0.039908870372795308 0 0.29637567455385222 -0.016421023329635541 0 0.28622264951810561 -0.031214680393475299 0 0.30810122446232602 -0.039908870372795308 0 0.29637567455385222 -0.016421023329635541 0 0.30810122446232602 -0.039908870372795308 0 0.28622264951810561 -0.031214680393475299 0 0.30810122446232602 -0.039908870372795308 0 0.32058169288092908 -0.064908920309156737 0 0.30810122446232602 -0.039908870372795308 0 0.30065522064337802 -0.059241308152784708 0 0.30810122446232602 -0.039908870372795308 0 0.30065522064337802 -0.059241308152784708 0 0.28506567698571328 -0.049989187832047623 0 0.2851151506863534 -0.072941393886813297 0 0.30065522064337802 -0.059241308152784708 0 0.28506567698571328 -0.049989187832047623 0 0.28622264951810561 -0.031214680393475299 0 0.30810122446232602 -0.039908870372795308 0 0.28506567698571328 -0.049989187832047623 0 0.29851028722249229 -0.20917098549780361 0 0.29282145459340558 -0.22417780122214781 0 0.27461149564146647 -0.2166202503021997 0 0.29851028722249229 -0.20917098549780361 0 0.27461149564146647 -0.2166202503021997 0 0.27577074333842139 -0.1982189816437516 0 0.29977654316022923 -0.19319302922005571 0 0.27577074333842139 -0.1982189816437516 0 0.28640400582559072 -0.18506526670647749 0 0.29977654316022923 -0.19319302922005571 0 0.29851028722249229 -0.20917098549780361 0 0.27577074333842139 -0.1982189816437516 0 0.29977654316022923 -0.19319302922005571 0 0.31359180440996148 -0.1831885983994091 0 0.31378344461284458 -0.2001709938187152 0 0.29977654316022923 -0.19319302922005571 0 0.29851028722249229 -0.20917098549780361 0 0.31378344461284458 -0.2001709938187152 0 0.29851028722249229 -0.20917098549780361 0 0.31397508481572789 -0.21715338923802119 0 0.31378344461284458 -0.2001709938187152 0 0.29851028722249229 -0.20917098549780361 0 0.30483762376102053 -0.22202322092240309 0 0.29282145459340558 -0.22417780122214781 0 0.29851028722249229 -0.20917098549780361 0 0.30483762376102053 -0.22202322092240309 0 0.31397508481572789 -0.21715338923802119 0 0.30483762376102053 -0.22202322092240309 0 0.31397508481572789 -0.21715338923802119 0 0.31682958347532952 -0.22575519173792849 0 0.30483762376102053 -0.22202322092240309 0 0.3020517086981469 -0.2338587369161147 0 0.31682958347532952 -0.22575519173792849 0 0.3020517086981469 -0.2338587369161147 0 0.30824050241637851 -0.24100260588389361 0 0.31682958347532952 -0.22575519173792849 0 0.30483762376102053 -0.22202322092240309 0 0.3020517086981469 -0.2338587369161147 0 0.29282145459340558 -0.22417780122214781 0 0.30824050241637851 -0.24100260588389361 0 0.30289524504637388 -0.25049155496679232 0 0.30942400473984011 -0.24791929280762351 0 0.30824050241637851 -0.24100260588389361 0 0.30289524504637388 -0.25049155496679232 0 0.30538363692865977 -0.24270375165789609 0 0.30824050241637851 -0.24100260588389361 0 0.30289524504637388 -0.25049155496679232 0 0.30942400473984011 -0.24791929280762351 0 0.31201165352040278 -0.2454240676837913 0 0.3147876720107684 -0.24864408783740111 0 0.30942400473984011 -0.24791929280762351 0 0.31201165352040278 -0.2454240676837913 0 0.30824050241637851 -0.24100260588389361 0 0.31201165352040278 -0.2454240676837913 0 0.30824050241637851 -0.24100260588389361 0 0.31559443491462458 -0.24413028420624711 0 0.3020517086981469 -0.2338587369161147 0 0.30538363692865977 -0.24270375165789609 0 0.30824050241637851 -0.24100260588389361 0 0.30538363692865977 -0.24270375165789609 0 0.30824050241637851 -0.24100260588389361 0 0.3020517086981469 -0.2338587369161147 0 0.30538363692865977 -0.24270375165789609 0 0.27968086461721231 -0.23917315918859991 0 0.30538363692865977 -0.24270375165789609 0 0.27968086461721231 -0.23917315918859991 0 0.30289524504637388 -0.25049155496679232 0 0.27968086461721231 -0.23917315918859991 0 0.30289524504637388 -0.25049155496679232 0 0.2834190991258092 -0.25674022588224432 0 0.27968086461721231 -0.23917315918859991 0 0.30289524504637388 -0.25049155496679232 0 0.3020517086981469 -0.2338587369161147 0 0.29282145459340558 -0.22417780122214781 0 0.27968086461721231 -0.23917315918859991 0 0.29282145459340558 -0.22417780122214781 0 0.27968086461721231 -0.23917315918859991 0 0.27461149564146647 -0.2166202503021997 0 0.27968086461721231 -0.23917315918859991 0 0.25646648418805063 -0.22785476341040739 0 0.27461149564146647 -0.2166202503021997 0 0.27968086461721231 -0.23917315918859991 0 0.25646648418805063 -0.22785476341040739 0 0.27968086461721231 -0.23917315918859991 0 0.25646648418805063 -0.22785476341040739 0 0.26171421693634811 -0.25738026262620378 0 0.25646648418805063 -0.22785476341040739 0 0.26171421693634811 -0.25738026262620378 0 0.24172280262944201 -0.23911909159452521 0 0.25646648418805063 -0.22785476341040739 0 0.27461149564146647 -0.2166202503021997 0 0.24867434555772169 -0.2037098839959397 0 0.27461149564146647 -0.2166202503021997 0 0.27577074333842139 -0.1982189816437516 0 0.24867434555772169 -0.2037098839959397 0 0.27577074333842139 -0.1982189816437516 0 0.25921620724121969 -0.18694193501354439 0 0.28640400582559072 -0.18506526670647749 0 0.27577074333842139 -0.1982189816437516 0 0.25921620724121969 -0.18694193501354439 0 0.24867434555772169 -0.2037098839959397 0 0.25921620724121969 -0.18694193501354439 0 0.26718749469795328 -0.16891192075951519 0 0.23969257354154719 -0.1738158023373102 0 0.26718749469795328 -0.16891192075951519 0 0.25104821782774878 -0.14859720022468589 0 0.23969257354154719 -0.1738158023373102 0 0.26718749469795328 -0.16891192075951519 0 0.2830414090678563 -0.15094674368400299 0 0.28484476135647868 -0.16753527692966899 0 0.25921620724121969 -0.18694193501354439 0 0.28640400582559072 -0.18506526670647749 0 0.26718749469795328 -0.16891192075951519 0 0.28640400582559072 -0.18506526670647749 0 0.28484476135647868 -0.16753527692966899 0 0.25921620724121969 -0.18694193501354439 0 0.26718749469795328 -0.16891192075951519 0 0.28640400582559072 -0.18506526670647749 0 0.25104821782774878 -0.14859720022468589 0 0.27431551028230677 -0.13475826563673929 0 0.2830414090678563 -0.15094674368400299 0 0.26718749469795328 -0.16891192075951519 0 0.25104821782774878 -0.14859720022468589 0 0.2830414090678563 -0.15094674368400299 0 0.26240386211395028 -0.1233785981120616 0 0.25104821782774878 -0.14859720022468589 0 0.24393906892098721 -0.1259442153439837 0 0.26240386211395028 -0.1233785981120616 0 0.25104821782774878 -0.14859720022468589 0 0.27431551028230677 -0.13475826563673929 0 0.26240386211395028 -0.1233785981120616 0 0.25104821782774878 -0.14859720022468589 0 0.2823481823627077 -0.1182979433102105 0 0.26240386211395028 -0.1233785981120616 0 0.27431551028230677 -0.13475826563673929 0 0.27431551028230677 -0.13475826563673929 0 0.29036178868452939 -0.1319241357976452 0 0.2830414090678563 -0.15094674368400299 0 0.2823481823627077 -0.1182979433102105 0 0.27431551028230677 -0.13475826563673929 0 0.29036178868452939 -0.1319241357976452 0 0.29036178868452939 -0.1319241357976452 0 0.2830414090678563 -0.15094674368400299 0 0.29811548668863708 -0.14197727406507391 0 0.2830414090678563 -0.15094674368400299 0 0.29811548668863708 -0.14197727406507391 0 0.29830294139863589 -0.1568525665541694 0 0.29811548668863708 -0.14197727406507391 0 0.29830294139863589 -0.1568525665541694 0 0.31310156273900619 -0.13974532406592949 0 0.29830294139863589 -0.1568525665541694 0 0.31334668357448381 -0.16146696123266929 0 0.31310156273900619 -0.13974532406592949 0 0.31285644190352868 -0.11802368689918979 0 0.30312791298519309 -0.12982937227971381 0 0.31310156273900619 -0.13974532406592949 0 0.29036178868452939 -0.1319241357976452 0 0.29811548668863708 -0.14197727406507391 0 0.30312791298519309 -0.12982937227971381 0 0.29811548668863708 -0.14197727406507391 0 0.30312791298519309 -0.12982937227971381 0 0.31310156273900619 -0.13974532406592949 0 0.29831263576156508 -0.1175630556000723 0 0.29036178868452939 -0.1319241357976452 0 0.30312791298519309 -0.12982937227971381 0 0.28640400582559072 -0.18506526670647749 0 0.28484476135647868 -0.16753527692966899 0 0.29907359797848593 -0.17093559389675919 0 0.2830414090678563 -0.15094674368400299 0 0.28484476135647868 -0.16753527692966899 0 0.29830294139863589 -0.1568525665541694 0 0.28484476135647868 -0.16753527692966899 0 0.29907359797848593 -0.17093559389675919 0 0.29830294139863589 -0.1568525665541694 0 0.29907359797848593 -0.17093559389675919 0 0.31359180440996148 -0.1831885983994091 0 0.31334668357448381 -0.16146696123266929 0 0.29907359797848593 -0.17093559389675919 0 0.29830294139863589 -0.1568525665541694 0 0.31334668357448381 -0.16146696123266929 0 0.28640400582559072 -0.18506526670647749 0 0.31359180440996148 -0.1831885983994091 0 0.28640400582559072 -0.18506526670647749 0 0.29907359797848593 -0.17093559389675919 0 0.31359180440996148 -0.1831885983994091 0 0.29977654316022923 -0.19319302922005571 0 0.28640400582559072 -0.18506526670647749 0 0.31359180440996148 -0.1831885983994091 0 0.31359180440996148 -0.1831885983994091 0 0.31334668357448381 -0.16146696123266929 0 0.31359180440996148 -0.1831885983994091 0 0.33043277964828321 -0.18202613118487021 0 0.32714697994219288 -0.1962272712742224 0 0.31359180440996148 -0.1831885983994091 0 0.33043277964828321 -0.18202613118487021 0 0.31359180440996148 -0.1831885983994091 0 0.32560992085217288 -0.1704147526337714 0 0.33043277964828321 -0.18202613118487021 0 0.31334668357448381 -0.16146696123266929 0 0.32560992085217288 -0.1704147526337714 0 0.33505908374227872 -0.1542291355988008 0 0.31359180440996148 -0.1831885983994091 0 0.31334668357448381 -0.16146696123266929 0 0.32560992085217288 -0.1704147526337714 0 0.32560992085217288 -0.1704147526337714 0 0.33826029771102922 -0.17248792872056759 0 0.33505908374227872 -0.1542291355988008 0 0.33826029771102922 -0.17248792872056759 0 0.33505908374227872 -0.1542291355988008 0 0.35424647183839209 -0.17556845619879541 0 0.33826029771102922 -0.17248792872056759 0 0.33043277964828321 -0.18202613118487021 0 0.34727375488660472 -0.18086366397032991 0 0.33043277964828321 -0.18202613118487021 0 0.34727375488660472 -0.18086366397032991 0 0.34054381442823339 -0.19291479994228569 0 0.33043277964828321 -0.18202613118487021 0 0.34727375488660472 -0.18086366397032991 0 0.32560992085217288 -0.1704147526337714 0 0.33826029771102922 -0.17248792872056759 0 0.33043277964828321 -0.18202613118487021 0 0.31285644190352868 -0.11802368689918979 0 0.31310156273900619 -0.13974532406592949 0 0.31285644190352868 -0.11802368689918979 0 0.31310156273900619 -0.13974532406592949 0 0.31587169564616502 -0.13288981499880609 0 0.32271261148360197 -0.12520202179833231 0 0.32604267408064969 -0.1311131883671447 0 0.31587169564616502 -0.13288981499880609 0 0.32271261148360197 -0.12520202179833231 0 0.32604267408064969 -0.1311131883671447 0 0.33507887105419493 -0.12733510376549989 0 0.31285644190352868 -0.11802368689918979 0 0.32271261148360197 -0.12520202179833231 0 0.31587169564616502 -0.13288981499880609 0 0.32604267408064969 -0.1311131883671447 0 0.31587169564616502 -0.13288981499880609 0 0.33050751813863671 -0.13902581290594071 0 0.31334668357448381 -0.16146696123266929 0 0.31310156273900619 -0.13974532406592949 0 0.33505908374227872 -0.1542291355988008 0 0.31587169564616502 -0.13288981499880609 0 0.33505908374227872 -0.1542291355988008 0 0.31587169564616502 -0.13288981499880609 0 0.33505908374227872 -0.1542291355988008 0 0.33050751813863671 -0.13902581290594071 0 0.31310156273900619 -0.13974532406592949 0 0.31587169564616502 -0.13288981499880609 0 0.33505908374227872 -0.1542291355988008 0 0.31334668357448381 -0.16146696123266929 0 0.31310156273900619 -0.13974532406592949 0 0.33505908374227872 -0.1542291355988008 0 0.33050751813863671 -0.13902581290594071 0 0.3441819985914823 -0.13870213399701439 0 0.33050751813863671 -0.13902581290594071 0 0.33507887105419493 -0.12733510376549989 0 0.3441819985914823 -0.13870213399701439 0 0.34864541948755662 -0.12381602966498589 0 0.33507887105419493 -0.12733510376549989 0 0.3441819985914823 -0.13870213399701439 0 0.32604267408064969 -0.1311131883671447 0 0.33050751813863671 -0.13902581290594071 0 0.33507887105419493 -0.12733510376549989 0 0.34864541948755662 -0.12381602966498589 0 0.3441819985914823 -0.13870213399701439 0 0.36387019081085431 -0.13351501557918971 0 0.3441819985914823 -0.13870213399701439 0 0.35304145072220738 -0.1489360498920699 0 0.36387019081085431 -0.13351501557918971 0 0.33505908374227872 -0.1542291355988008 0 0.35304145072220738 -0.1489360498920699 0 0.35565549677508229 -0.16278223933067781 0 0.33505908374227872 -0.1542291355988008 0 0.3441819985914823 -0.13870213399701439 0 0.35304145072220738 -0.1489360498920699 0 0.35304145072220738 -0.1489360498920699 0 0.3664404836913393 -0.155451724954667 0 0.35565549677508229 -0.16278223933067781 0 0.36387019081085431 -0.13351501557918971 0 0.38102211241345879 -0.14808921954086271 0 0.3664404836913393 -0.155451724954667 0 0.36387019081085431 -0.13351501557918971 0 0.38102211241345879 -0.14808921954086271 0 0.35304145072220738 -0.1489360498920699 0 0.3664404836913393 -0.155451724954667 0 0.36387019081085431 -0.13351501557918971 0 0.33826029771102922 -0.17248792872056759 0 0.35424647183839209 -0.17556845619879541 0 0.34727375488660472 -0.18086366397032991 0 0.35424647183839209 -0.17556845619879541 0 0.34727375488660472 -0.18086366397032991 0 0.35595146315862902 -0.19033805238942569 0 0.34727375488660472 -0.18086366397032991 0 0.35595146315862902 -0.19033805238942569 0 0.34838266846200822 -0.1904213447097598 0 0.33505908374227872 -0.1542291355988008 0 0.35424647183839209 -0.17556845619879541 0 0.33505908374227872 -0.1542291355988008 0 0.35424647183839209 -0.17556845619879541 0 0.35565549677508229 -0.16278223933067781 0 0.35424647183839209 -0.17556845619879541 0 0.35565549677508229 -0.16278223933067781 0 0.36670441013935667 -0.16966627542465909 0 0.3664404836913393 -0.155451724954667 0 0.35565549677508229 -0.16278223933067781 0 0.36670441013935667 -0.16966627542465909 0 0.3664404836913393 -0.155451724954667 0 0.36670441013935667 -0.16966627542465909 0 0.37989845420467988 -0.16450704621277851 0 0.36670441013935667 -0.16966627542465909 0 0.37989845420467988 -0.16450704621277851 0 0.37657552332670852 -0.175998148655827 0 0.37035930082265223 -0.18092589627150171 0 0.37343385993450562 -0.1969077767987901 0 0.38093382763989592 -0.18415834968052841 0 0.35424647183839209 -0.17556845619879541 0 0.37343385993450562 -0.1969077767987901 0 0.35424647183839209 -0.17556845619879541 0 0.36670441013935667 -0.16966627542465909 0 0.37035930082265223 -0.18092589627150171 0 0.35424647183839209 -0.17556845619879541 0 0.37035930082265223 -0.18092589627150171 0 0.37343385993450562 -0.1969077767987901 0 0.36670441013935667 -0.16966627542465909 0 0.37035930082265223 -0.18092589627150171 0 0.37657552332670852 -0.175998148655827 0 0.37343385993450562 -0.1969077767987901 0 0.36105416123982631 -0.19994342650100849 0 0.35595146315862902 -0.19033805238942569 0 0.35424647183839209 -0.17556845619879541 0 0.37343385993450562 -0.1969077767987901 0 0.35595146315862902 -0.19033805238942569 0 0.37343385993450562 -0.1969077767987901 0 0.37249177433775182 -0.20274361883208211 0 0.36105416123982631 -0.19994342650100849 0 0.37249177433775182 -0.20274361883208211 0 0.36868971880993961 -0.21568309685256579 0 0.35107468369729378 -0.21549661451601909 0 0.37249177433775182 -0.20274361883208211 0 0.36105416123982631 -0.19994342650100849 0 0.35107468369729378 -0.21549661451601909 0 0.37249177433775182 -0.20274361883208211 0 0.35107468369729378 -0.21549661451601909 0 0.37249177433775182 -0.20274361883208211 0 0.36868971880993961 -0.21568309685256579 0 0.37643109177108153 -0.2095412631371279 0 0.36105416123982631 -0.19994342650100849 0 0.35107468369729378 -0.21549661451601909 0 0.35146798425426201 -0.19839645674022041 0 0.35107468369729378 -0.21549661451601909 0 0.35146798425426201 -0.19839645674022041 0 0.33831558016545349 -0.20774415068905369 0 0.35595146315862902 -0.19033805238942569 0 0.35146798425426201 -0.19839645674022041 0 0.34838266846200822 -0.1904213447097598 0 0.36105416123982631 -0.19994342650100849 0 0.35595146315862902 -0.19033805238942569 0 0.35146798425426201 -0.19839645674022041 0 0.34727375488660472 -0.18086366397032991 0 0.34838266846200822 -0.1904213447097598 0 0.34054381442823339 -0.19291479994228569 0 0.35146798425426201 -0.19839645674022041 0 0.34838266846200822 -0.1904213447097598 0 0.34054381442823339 -0.19291479994228569 0 0.33043277964828321 -0.18202613118487021 0 0.34054381442823339 -0.19291479994228569 0 0.32714697994219288 -0.1962272712742224 0 0.34054381442823339 -0.19291479994228569 0 0.33831558016545349 -0.20774415068905369 0 0.32714697994219288 -0.1962272712742224 0 0.35146798425426201 -0.19839645674022041 0 0.34054381442823339 -0.19291479994228569 0 0.33831558016545349 -0.20774415068905369 0 0.35107468369729378 -0.21549661451601909 0 0.33831558016545349 -0.20774415068905369 0 0.32965759305683601 -0.22824961019995599 0 0.33831558016545349 -0.20774415068905369 0 0.32541866453427998 -0.21050777759196301 0 0.32965759305683601 -0.22824961019995599 0 0.33831558016545349 -0.20774415068905369 0 0.32541866453427998 -0.21050777759196301 0 0.32714697994219288 -0.1962272712742224 0 0.31397508481572789 -0.21715338923802119 0 0.31378344461284458 -0.2001709938187152 0 0.32541866453427998 -0.21050777759196301 0 0.31397508481572789 -0.21715338923802119 0 0.31378344461284458 -0.2001709938187152 0 0.32541866453427998 -0.21050777759196301 0 0.31682958347532952 -0.22575519173792849 0 0.32541866453427998 -0.21050777759196301 0 0.31397508481572789 -0.21715338923802119 0 0.31682958347532952 -0.22575519173792849 0 0.31359180440996148 -0.1831885983994091 0 0.31378344461284458 -0.2001709938187152 0 0.32714697994219288 -0.1962272712742224 0 0.31359180440996148 -0.1831885983994091 0 0.31378344461284458 -0.2001709938187152 0 0.32541866453427998 -0.21050777759196301 0 0.31378344461284458 -0.2001709938187152 0 0.32714697994219288 -0.1962272712742224 0 0.30824050241637851 -0.24100260588389361 0 0.32172800105484228 -0.2398313844626265 0 0.32965759305683601 -0.22824961019995599 0 0.30824050241637851 -0.24100260588389361 0 0.32965759305683601 -0.22824961019995599 0 0.32172800105484228 -0.2398313844626265 0 0.32965759305683601 -0.22824961019995599 0 0.33221271094653271 -0.23998158169291089 0 0.32267276988329452 -0.2467724474561564 0 0.33232483153245829 -0.24870480560670541 0 0.32467888858373561 -0.2537804604895571 0 0.32172800105484228 -0.2398313844626265 0 0.32267276988329452 -0.2467724474561564 0 0.33221271094653271 -0.23998158169291089 0 0.32172800105484228 -0.2398313844626265 0 0.32267276988329452 -0.2467724474561564 0 0.31559443491462458 -0.24413028420624711 0 0.32267276988329452 -0.2467724474561564 0 0.3147876720107684 -0.24864408783740111 0 0.3175488369447057 -0.25226417471789492 0 0.32267276988329452 -0.2467724474561564 0 0.3147876720107684 -0.24864408783740111 0 0.31559443491462458 -0.24413028420624711 0 0.31201165352040278 -0.2454240676837913 0 0.3147876720107684 -0.24864408783740111 0 0.31559443491462458 -0.24413028420624711 0 0.30824050241637851 -0.24100260588389361 0 0.32172800105484228 -0.2398313844626265 0 0.31559443491462458 -0.24413028420624711 0 0.30824050241637851 -0.24100260588389361 0 0.31682958347532952 -0.22575519173792849 0 0.32541866453427998 -0.21050777759196301 0 0.31682958347532952 -0.22575519173792849 0 0.32965759305683601 -0.22824961019995599 0 0.30824050241637851 -0.24100260588389361 0 0.31682958347532952 -0.22575519173792849 0 0.32965759305683601 -0.22824961019995599 0 0.35107468369729378 -0.21549661451601909 0 0.32965759305683601 -0.22824961019995599 0 0.32965759305683601 -0.22824961019995599 0 0.34314878673660087 -0.2326515984635345 0 0.33221271094653271 -0.23998158169291089 0 0.35107468369729378 -0.21549661451601909 0 0.32965759305683601 -0.22824961019995599 0 0.34314878673660087 -0.2326515984635345 0 0.34314878673660087 -0.2326515984635345 0 0.33221271094653271 -0.23998158169291089 0 0.34367348492505478 -0.24622148262240881 0 0.32267276988329452 -0.2467724474561564 0 0.33221271094653271 -0.23998158169291089 0 0.33232483153245829 -0.24870480560670541 0 0.33221271094653271 -0.23998158169291089 0 0.33232483153245829 -0.24870480560670541 0 0.34367348492505478 -0.24622148262240881 0 0.34314878673660087 -0.2326515984635345 0 0.34367348492505478 -0.24622148262240881 0 0.35912546105728749 -0.23330870328637779 0 0.34367348492505478 -0.24622148262240881 0 0.35912546105728749 -0.23330870328637779 0 0.35824633897630531 -0.25042917759838351 0 0.35107468369729378 -0.21549661451601909 0 0.34314878673660087 -0.2326515984635345 0 0.35912546105728749 -0.23330870328637779 0 0.36868971880993961 -0.21568309685256579 0 0.35107468369729378 -0.21549661451601909 0 0.35912546105728749 -0.23330870328637779 0 0.36868971880993961 -0.21568309685256579 0 0.35912546105728749 -0.23330870328637779 0 0.37367375136440822 -0.22752620526655951 0 0.36868971880993961 -0.21568309685256579 0 0.37367375136440822 -0.22752620526655951 0 0.38167093193415719 -0.21504420642239511 0 0.35912546105728749 -0.23330870328637779 0 0.37367375136440822 -0.22752620526655951 0 0.37531286046986467 -0.24987446479765299 0 0.35912546105728749 -0.23330870328637779 0 0.37531286046986467 -0.24987446479765299 0 0.35824633897630531 -0.25042917759838351 0 0.37367375136440822 -0.22752620526655951 0 0.37531286046986467 -0.24987446479765299 0 0.38727811107918031 -0.22887923213026401 0 0.37531286046986467 -0.24987446479765299 0 0.39715693684297432 -0.2385311994184042 0 0.38727811107918031 -0.22887923213026401 0 0.37531286046986467 -0.24987446479765299 0 0.39715693684297432 -0.2385311994184042 0 0.40055259905867779 -0.2555561427822598 0 0.39715693684297432 -0.2385311994184042 0 0.41273322572349902 -0.24247237689741061 0 0.40055259905867779 -0.2555561427822598 0 0.39715693684297432 -0.2385311994184042 0 0.41273322572349902 -0.24247237689741061 0 0.40777809784952462 -0.23123139934345149 0 0.39941474727470638 -0.227195264400539 0 0.39594688809473982 -0.21591471606109419 0 0.40738817039533298 -0.221265079051888 0 0.39715693684297432 -0.2385311994184042 0 0.39941474727470638 -0.227195264400539 0 0.40777809784952462 -0.23123139934345149 0 0.39941474727470638 -0.227195264400539 0 0.40777809784952462 -0.23123139934345149 0 0.40738817039533298 -0.221265079051888 0 0.39715693684297432 -0.2385311994184042 0 0.39941474727470638 -0.227195264400539 0 0.38727811107918031 -0.22887923213026401 0 0.39941474727470638 -0.227195264400539 0 0.38727811107918031 -0.22887923213026401 0 0.39594688809473982 -0.21591471606109419 0 0.38727811107918031 -0.22887923213026401 0 0.38167093193415719 -0.21504420642239511 0 0.39594688809473982 -0.21591471606109419 0 0.37367375136440822 -0.22752620526655951 0 0.38727811107918031 -0.22887923213026401 0 0.38167093193415719 -0.21504420642239511 0 0.36868971880993961 -0.21568309685256579 0 0.38167093193415719 -0.21504420642239511 0 0.37643109177108153 -0.2095412631371279 0 0.38167093193415719 -0.21504420642239511 0 0.37643109177108153 -0.2095412631371279 0 0.38287194200247737 -0.2046941304414687 0 0.37249177433775182 -0.20274361883208211 0 0.37643109177108153 -0.2095412631371279 0 0.38287194200247737 -0.2046941304414687 0 0.38167093193415719 -0.21504420642239511 0 0.38287194200247737 -0.2046941304414687 0 0.39084831199090231 -0.2061158773679182 0 0.38167093193415719 -0.21504420642239511 0 0.39594688809473982 -0.21591471606109419 0 0.39084831199090231 -0.2061158773679182 0 0.37249177433775182 -0.20274361883208211 0 0.39390886497820982 -0.1899906231481451 0 0.37343385993450562 -0.1969077767987901 0 0.39390886497820982 -0.1899906231481451 0 0.38093382763989592 -0.18415834968052841 0 0.38287194200247737 -0.2046941304414687 0 0.39390886497820982 -0.1899906231481451 0 0.39084831199090231 -0.2061158773679182 0 0.37249177433775182 -0.20274361883208211 0 0.38287194200247737 -0.2046941304414687 0 0.39390886497820982 -0.1899906231481451 0 0.37343385993450562 -0.1969077767987901 0 0.37249177433775182 -0.20274361883208211 0 0.39390886497820982 -0.1899906231481451 0 0.39390886497820982 -0.1899906231481451 0 0.39084831199090231 -0.2061158773679182 0 0.4014159412067827 -0.20464129984521551 0 0.39390886497820982 -0.1899906231481451 0 0.40919889728032449 -0.19657139376385621 0 0.41532595561866797 -0.1772376274642086 0 0.39390886497820982 -0.1899906231481451 0 0.4014159412067827 -0.20464129984521551 0 0.40919889728032449 -0.19657139376385621 0 0.39594688809473982 -0.21591471606109419 0 0.39084831199090231 -0.2061158773679182 0 0.4014159412067827 -0.20464129984521551 0 0.39594688809473982 -0.21591471606109419 0 0.4014159412067827 -0.20464129984521551 0 0.40609593720220222 -0.2122667403294444 0 0.39594688809473982 -0.21591471606109419 0 0.40609593720220222 -0.2122667403294444 0 0.40738817039533298 -0.221265079051888 0 0.40609593720220222 -0.2122667403294444 0 0.41380928006804563 -0.2160489254675711 0 0.41364980490690789 -0.20688484286283609 0 0.40609593720220222 -0.2122667403294444 0 0.41380928006804563 -0.2160489254675711 0 0.40738817039533298 -0.221265079051888 0 0.4014159412067827 -0.20464129984521551 0 0.40609593720220222 -0.2122667403294444 0 0.41364980490690789 -0.20688484286283609 0 0.41364980490690789 -0.20688484286283609 0 0.42155314714873782 -0.2136502927255706 0 0.42503603965730169 -0.20603003345428281 0 0.41364980490690789 -0.20688484286283609 0 0.4186727215154214 -0.20054300704706271 0 0.42503603965730169 -0.20603003345428281 0 0.41380928006804563 -0.2160489254675711 0 0.41364980490690789 -0.20688484286283609 0 0.42155314714873782 -0.2136502927255706 0 0.41380928006804563 -0.2160489254675711 0 0.42155314714873782 -0.2136502927255706 0 0.41914634478755058 -0.2263836849538288 0 0.40919889728032449 -0.19657139376385621 0 0.41912624702945239 -0.19291935859482459 0 0.41532595561866797 -0.1772376274642086 0 0.4014159412067827 -0.20464129984521551 0 0.41364980490690789 -0.20688484286283609 0 0.40919889728032449 -0.19657139376385621 0 0.41364980490690789 -0.20688484286283609 0 0.40919889728032449 -0.19657139376385621 0 0.4186727215154214 -0.20054300704706271 0 0.40919889728032449 -0.19657139376385621 0 0.4186727215154214 -0.20054300704706271 0 0.41912624702945239 -0.19291935859482459 0 0.4186727215154214 -0.20054300704706271 0 0.41912624702945239 -0.19291935859482459 0 0.42645159378485242 -0.1986460704126275 0 0.41912624702945239 -0.19291935859482459 0 0.42645159378485242 -0.1986460704126275 0 0.43661840620155229 -0.195330091085992 0 0.41912624702945239 -0.19291935859482459 0 0.43661840620155229 -0.195330091085992 0 0.41532595561866797 -0.1772376274642086 0 0.4186727215154214 -0.20054300704706271 0 0.42645159378485242 -0.1986460704126275 0 0.42503603965730169 -0.20603003345428281 0 0.42645159378485242 -0.1986460704126275 0 0.42916644013395933 -0.20249913848238379 0 0.42503603965730169 -0.20603003345428281 0 0.42645159378485242 -0.1986460704126275 0 0.43661840620155229 -0.195330091085992 0 0.43386846736381679 -0.19947876753716581 0 0.42916644013395933 -0.20249913848238379 0 0.43386846736381679 -0.19947876753716581 0 0.43140616900191059 -0.20664049251128749 0 0.42645159378485242 -0.1986460704126275 0 0.42916644013395933 -0.20249913848238379 0 0.43386846736381679 -0.19947876753716581 0 0.43661840620155229 -0.195330091085992 0 0.43057124228129828 -0.18143303994293389 0 0.43947239398530208 -0.18838836274480419 0 0.42155314714873782 -0.2136502927255706 0 0.42503603965730169 -0.20603003345428281 0 0.42984124560393783 -0.21570707036853401 0 0.42155314714873782 -0.2136502927255706 0 0.42984124560393783 -0.21570707036853401 0 0.41914634478755058 -0.2263836849538288 0 0.42503603965730169 -0.20603003345428281 0 0.43140616900191059 -0.20664049251128749 0 0.42984124560393783 -0.21570707036853401 0 0.42916644013395933 -0.20249913848238379 0 0.42503603965730169 -0.20603003345428281 0 0.43140616900191059 -0.20664049251128749 0 0.43386846736381679 -0.19947876753716581 0 0.43740876173415782 -0.21057522825023189 0 0.43140616900191059 -0.20664049251128749 0 0.43740876173415782 -0.21057522825023189 0 0.43140616900191059 -0.20664049251128749 0 0.42984124560393783 -0.21570707036853401 0 0.43740876173415782 -0.21057522825023189 0 0.42984124560393783 -0.21570707036853401 0 0.43980861725734999 -0.22014240615317271 0 0.42984124560393783 -0.21570707036853401 0 0.43147985480373813 -0.22806846182878621 0 0.43980861725734999 -0.22014240615317271 0 0.42984124560393783 -0.21570707036853401 0 0.43147985480373813 -0.22806846182878621 0 0.41914634478755058 -0.2263836849538288 0 0.43147985480373813 -0.22806846182878621 0 0.42736012153613578 -0.24200648542438441 0 0.41914634478755058 -0.2263836849538288 0 0.42736012153613578 -0.24200648542438441 0 0.41273322572349902 -0.24247237689741061 0 0.42579233764749091 -0.26123782076686652 0 0.42736012153613578 -0.24200648542438441 0 0.44124294483371601 -0.23610266224401111 0 0.4383833448491935 -0.25188456894210481 0 0.43147985480373813 -0.22806846182878621 0 0.42736012153613578 -0.24200648542438441 0 0.44124294483371601 -0.23610266224401111 0 0.42736012153613578 -0.24200648542438441 0 0.41273322572349902 -0.24247237689741061 0 0.41914634478755058 -0.2263836849538288 0 0.41273322572349902 -0.24247237689741061 0 0.40777809784952462 -0.23123139934345149 0 0.41914634478755058 -0.2263836849538288 0 0.41380928006804563 -0.2160489254675711 0 0.40738817039533298 -0.221265079051888 0 0.41914634478755058 -0.2263836849538288 0 0.40777809784952462 -0.23123139934345149 0 0.40738817039533298 -0.221265079051888 0 0.41914634478755058 -0.2263836849538288 0 0.39723402615958042 -0.1208073479532978 0 0.39557660390153798 -0.1377305915467498 0 0.41009958438689392 -0.12717279801833431 0 0.39557660390153798 -0.1377305915467498 0 0.41164558374086629 -0.14542356185253361 0 0.41009958438689392 -0.12717279801833431 0 0.38083013693261908 -0.123454079406251 0 0.39723402615958042 -0.1208073479532978 0 0.39557660390153798 -0.1377305915467498 0 0.38083013693261908 -0.123454079406251 0 0.39557660390153798 -0.1377305915467498 0 0.38102211241345879 -0.14808921954086271 0 0.38083013693261908 -0.123454079406251 0 0.36387019081085431 -0.13351501557918971 0 0.38102211241345879 -0.14808921954086271 0 0.3664404836913393 -0.155451724954667 0 0.38102211241345879 -0.14808921954086271 0 0.37989845420467988 -0.16450704621277851 0 0.38102211241345879 -0.14808921954086271 0 0.39817403401606333 -0.16266342350253571 0 0.39557660390153798 -0.1377305915467498 0 0.38102211241345879 -0.14808921954086271 0 0.39817403401606333 -0.16266342350253571 0 0.39557660390153798 -0.1377305915467498 0 0.39817403401606333 -0.16266342350253571 0 0.41164558374086629 -0.14542356185253361 0 0.39817403401606333 -0.16266342350253571 0 0.39047416164115301 -0.17517348519811951 0 0.41532595561866797 -0.1772376274642086 0 0.38102211241345879 -0.14808921954086271 0 0.39817403401606333 -0.16266342350253571 0 0.37989845420467988 -0.16450704621277851 0 0.39817403401606333 -0.16266342350253571 0 0.37989845420467988 -0.16450704621277851 0 0.39047416164115301 -0.17517348519811951 0 0.39047416164115301 -0.17517348519811951 0 0.37657552332670852 -0.175998148655827 0 0.38093382763989592 -0.18415834968052841 0 0.37989845420467988 -0.16450704621277851 0 0.39047416164115301 -0.17517348519811951 0 0.37657552332670852 -0.175998148655827 0 0.37035930082265223 -0.18092589627150171 0 0.37657552332670852 -0.175998148655827 0 0.38093382763989592 -0.18415834968052841 0 0.39390886497820982 -0.1899906231481451 0 0.39047416164115301 -0.17517348519811951 0 0.38093382763989592 -0.18415834968052841 0 0.39390886497820982 -0.1899906231481451 0 0.39047416164115301 -0.17517348519811951 0 0.41532595561866797 -0.1772376274642086 0 0.39390886497820982 -0.1899906231481451 0 0.41532595561866797 -0.1772376274642086 0 0.43661840620155229 -0.195330091085992 0 0.41532595561866797 -0.1772376274642086 0 0.43661840620155229 -0.195330091085992 0 0.41532595561866797 -0.1772376274642086 0 0.43057124228129828 -0.18143303994293389 0 0.43057124228129828 -0.18143303994293389 0 0.44000334141156489 -0.17986638724158779 0 0.43947239398530208 -0.18838836274480419 0 0.43057124228129828 -0.18143303994293389 0 0.42938642096764712 -0.16886519925162219 0 0.44000334141156489 -0.17986638724158779 0 0.41532595561866797 -0.1772376274642086 0 0.43057124228129828 -0.18143303994293389 0 0.42938642096764712 -0.16886519925162219 0 0.41532595561866797 -0.1772376274642086 0 0.42938642096764712 -0.16886519925162219 0 0.42938642096764712 -0.16886519925162219 0 0.41574447015531041 -0.16088175113154249 0 0.42976550184448947 -0.15028538233719291 0 0.42938642096764712 -0.16886519925162219 0 0.42976550184448947 -0.15028538233719291 0 0.44344688631662649 -0.16049277103903639 0 0.42938642096764712 -0.16886519925162219 0 0.44344688631662649 -0.16049277103903639 0 0.41532595561866797 -0.1772376274642086 0 0.42938642096764712 -0.16886519925162219 0 0.41574447015531041 -0.16088175113154249 0 0.39817403401606333 -0.16266342350253571 0 0.41532595561866797 -0.1772376274642086 0 0.39817403401606333 -0.16266342350253571 0 0.41574447015531041 -0.16088175113154249 0 0.41164558374086629 -0.14542356185253361 0 0.39817403401606333 -0.16266342350253571 0 0.41532595561866797 -0.1772376274642086 0 0.41574447015531041 -0.16088175113154249 0 0.41574447015531041 -0.16088175113154249 0 0.41164558374086629 -0.14542356185253361 0 0.42976550184448947 -0.15028538233719291 0 0.41164558374086629 -0.14542356185253361 0 0.42976550184448947 -0.15028538233719291 0 0.42357325577169891 -0.13284155697646891 0 0.42976550184448947 -0.15028538233719291 0 0.42357325577169891 -0.13284155697646891 0 0.43696231696260451 -0.13749311621280841 0 0.43646568753982928 -0.12425530847447031 0 0.42357325577169891 -0.13284155697646891 0 0.43696231696260451 -0.13749311621280841 0 0.42403659899646717 -0.1153760749698127 0 0.42357325577169891 -0.13284155697646891 0 0.41009958438689392 -0.12717279801833431 0 0.41164558374086629 -0.14542356185253361 0 0.42357325577169891 -0.13284155697646891 0 0.41009958438689392 -0.12717279801833431 0 0.44981896286643469 -0.1177136465756988 0 0.46334599201908638 -0.14100015532952151 0 0.44981896286643469 -0.1177136465756988 0 0.44678623049763339 -0.13351945244013411 0 0.46334599201908638 -0.14100015532952151 0 0.47029572880651332 -0.12010731716521 0 0.44981896286643469 -0.1177136465756988 0 0.46334599201908638 -0.14100015532952151 0 0.44981896286643469 -0.1177136465756988 0 0.43646568753982928 -0.12425530847447031 0 0.44678623049763339 -0.13351945244013411 0 0.44678623049763339 -0.13351945244013411 0 0.44733819310021228 -0.14713503560817121 0 0.46334599201908638 -0.14100015532952151 0 0.43646568753982928 -0.12425530847447031 0 0.43696231696260451 -0.13749311621280841 0 0.44678623049763339 -0.13351945244013411 0 0.43696231696260451 -0.13749311621280841 0 0.44678623049763339 -0.13351945244013411 0 0.44733819310021228 -0.14713503560817121 0 0.42976550184448947 -0.15028538233719291 0 0.44733819310021228 -0.14713503560817121 0 0.44344688631662649 -0.16049277103903639 0 0.42976550184448947 -0.15028538233719291 0 0.43696231696260451 -0.13749311621280841 0 0.44733819310021228 -0.14713503560817121 0 0.44733819310021228 -0.14713503560817121 0 0.46334599201908638 -0.14100015532952151 0 0.45722053477044239 -0.16380327660189251 0 0.45722053477044239 -0.16380327660189251 0 0.46947356241172722 -0.18240764200045509 0 0.47687302117173802 -0.16428666408334419 0 0.46334599201908638 -0.14100015532952151 0 0.45722053477044239 -0.16380327660189251 0 0.47687302117173802 -0.16428666408334419 0 0.44733819310021228 -0.14713503560817121 0 0.45722053477044239 -0.16380327660189251 0 0.44344688631662649 -0.16049277103903639 0 0.45722053477044239 -0.16380327660189251 0 0.44485513119688719 -0.17100498864697389 0 0.45297945635193348 -0.18044914163133699 0 0.42938642096764712 -0.16886519925162219 0 0.44344688631662649 -0.16049277103903639 0 0.44485513119688719 -0.17100498864697389 0 0.45722053477044239 -0.16380327660189251 0 0.44344688631662649 -0.16049277103903639 0 0.44485513119688719 -0.17100498864697389 0 0.44485513119688719 -0.17100498864697389 0 0.44000334141156489 -0.17986638724158779 0 0.45297945635193348 -0.18044914163133699 0 0.42938642096764712 -0.16886519925162219 0 0.44485513119688719 -0.17100498864697389 0 0.44000334141156489 -0.17986638724158779 0 0.44000334141156489 -0.17986638724158779 0 0.43947239398530208 -0.18838836274480419 0 0.44736642578164298 -0.1894569487700484 0 0.45297945635193348 -0.18044914163133699 0 0.44736642578164298 -0.1894569487700484 0 0.45759196281183151 -0.19195158273836821 0 0.44000334141156489 -0.17986638724158779 0 0.45297945635193348 -0.18044914163133699 0 0.44736642578164298 -0.1894569487700484 0 0.45722053477044239 -0.16380327660189251 0 0.45297945635193348 -0.18044914163133699 0 0.46947356241172722 -0.18240764200045509 0 0.45297945635193348 -0.18044914163133699 0 0.46947356241172722 -0.18240764200045509 0 0.45759196281183151 -0.19195158273836821 0 0.46947356241172722 -0.18240764200045509 0 0.48223453627631468 -0.17795390748283099 0 0.47687302117173802 -0.16428666408334419 0 0.46947356241172722 -0.18240764200045509 0 0.48223453627631468 -0.17795390748283099 0 0.48259156152179372 -0.1925963297351857 0 0.48223453627631468 -0.17795390748283099 0 0.5 -0.17252499411233921 0 0.48259156152179372 -0.1925963297351857 0 0.5 -0.17252499411233921 0 0.47687302117173802 -0.16428666408334419 0 0.5 -0.14447034161429331 0 0.48223453627631468 -0.17795390748283099 0 0.5 -0.17252499411233921 0 0.47687302117173802 -0.16428666408334419 0 0.46334599201908638 -0.14100015532952151 0 0.47687302117173802 -0.16428666408334419 0 0.48229349996368209 -0.13618114589043759 0 0.46334599201908638 -0.14100015532952151 0 0.47687302117173802 -0.16428666408334419 0 0.47687302117173802 -0.16428666408334419 0 0.5 -0.14447034161429331 0 0.48229349996368209 -0.13618114589043759 0 0.5 -0.1164156891162474 0 0.5 -0.14447034161429331 0 0.48229349996368209 -0.13618114589043759 0 0.47029572880651332 -0.12010731716521 0 0.46334599201908638 -0.14100015532952151 0 0.48229349996368209 -0.13618114589043759 0 0.46346229224816282 -0.22806580013153471 0 0.45791085678443683 -0.21342255470777521 0 0.47920330736732158 -0.23151501832955809 0 0.45791085678443683 -0.21342255470777521 0 0.47920330736732158 -0.23151501832955809 0 0.46346229224816282 -0.22806580013153471 0 0.45399306294212649 -0.2376114642946256 0 0.44945379579405648 -0.2273203103205404 0 0.46346229224816282 -0.22806580013153471 0 0.44945379579405648 -0.2273203103205404 0 0.44866537980598981 -0.21377228383435021 0 0.46346229224816282 -0.22806580013153471 0 0.44866537980598981 -0.21377228383435021 0 0.46346229224816282 -0.22806580013153471 0 0.46507092528668398 -0.24484935188560461 0 0.45399306294212649 -0.2376114642946256 0 0.46507092528668398 -0.24484935188560461 0 0.45399306294212649 -0.2376114642946256 0 0.45054199278213858 -0.24990532700142201 0 0.45399306294212649 -0.2376114642946256 0 0.45054199278213858 -0.24990532700142201 0 0.44124294483371601 -0.23610266224401111 0 0.45054199278213858 -0.24990532700142201 0 0.44124294483371601 -0.23610266224401111 0 0.4383833448491935 -0.25188456894210481 0 0.44124294483371601 -0.23610266224401111 0 0.44945379579405648 -0.2273203103205404 0 0.43980861725734999 -0.22014240615317271 0 0.43147985480373813 -0.22806846182878621 0 0.44124294483371601 -0.23610266224401111 0 0.43980861725734999 -0.22014240615317271 0 0.45399306294212649 -0.2376114642946256 0 0.44124294483371601 -0.23610266224401111 0 0.44945379579405648 -0.2273203103205404 0 0.44945379579405648 -0.2273203103205404 0 0.43980861725734999 -0.22014240615317271 0 0.44866537980598981 -0.21377228383435021 0 0.4529006527030765 -0.199190458453608 0 0.44677770763957347 -0.19711658072023161 0 0.45791085678443683 -0.21342255470777521 0 0.43740876173415782 -0.21057522825023189 0 0.43980861725734999 -0.22014240615317271 0 0.44866537980598981 -0.21377228383435021 0 0.43661840620155229 -0.195330091085992 0 0.44866537980598981 -0.21377228383435021 0 0.45791085678443683 -0.21342255470777521 0 0.43661840620155229 -0.195330091085992 0 0.45791085678443683 -0.21342255470777521 0 0.43386846736381679 -0.19947876753716581 0 0.43740876173415782 -0.21057522825023189 0 0.44866537980598981 -0.21377228383435021 0 0.43386846736381679 -0.19947876753716581 0 0.44866537980598981 -0.21377228383435021 0 0.43661840620155229 -0.195330091085992 0 0.43386846736381679 -0.19947876753716581 0 0.44866537980598981 -0.21377228383435021 0 0.43661840620155229 -0.195330091085992 0 0.44677770763957347 -0.19711658072023161 0 0.45791085678443683 -0.21342255470777521 0 0.43947239398530208 -0.18838836274480419 0 0.44677770763957347 -0.19711658072023161 0 0.44736642578164298 -0.1894569487700484 0 0.43661840620155229 -0.195330091085992 0 0.43947239398530208 -0.18838836274480419 0 0.44677770763957347 -0.19711658072023161 0 0.4529006527030765 -0.199190458453608 0 0.44736642578164298 -0.1894569487700484 0 0.45759196281183151 -0.19195158273836821 0 0.4529006527030765 -0.199190458453608 0 0.44677770763957347 -0.19711658072023161 0 0.44736642578164298 -0.1894569487700484 0 0.46947356241172722 -0.18240764200045509 0 0.45759196281183151 -0.19195158273836821 0 0.4656547940352892 -0.19857267421491959 0 0.45759196281183151 -0.19195158273836821 0 0.4656547940352892 -0.19857267421491959 0 0.45877782210954299 -0.20443056097512741 0 0.4529006527030765 -0.199190458453608 0 0.45759196281183151 -0.19195158273836821 0 0.45877782210954299 -0.20443056097512741 0 0.4656547940352892 -0.19857267421491959 0 0.45877782210954299 -0.20443056097512741 0 0.48090887649021702 -0.21192424663891121 0 0.45791085678443683 -0.21342255470777521 0 0.45877782210954299 -0.20443056097512741 0 0.48090887649021702 -0.21192424663891121 0 0.46346229224816282 -0.22806580013153471 0 0.44866537980598981 -0.21377228383435021 0 0.45791085678443683 -0.21342255470777521 0 0.4529006527030765 -0.199190458453608 0 0.45791085678443683 -0.21342255470777521 0 0.45877782210954299 -0.20443056097512741 0 0.4656547940352892 -0.19857267421491959 0 0.48090887649021702 -0.21192424663891121 0 0.48090887649021702 -0.21192424663891121 0 0.48259156152179372 -0.1925963297351857 0 0.4656547940352892 -0.19857267421491959 0 0.48090887649021702 -0.21192424663891121 0 0.48259156152179372 -0.1925963297351857 0 0.46947356241172722 -0.18240764200045509 0 0.4656547940352892 -0.19857267421491959 0 0.48259156152179372 -0.1925963297351857 0 0.48090887649021702 -0.21192424663891121 0 0.48259156152179372 -0.1925963297351857 0 0.5 -0.20057964661038519 0 0.5 -0.17252499411233921 0 0.48259156152179372 -0.1925963297351857 0 0.5 -0.20057964661038519 0 0.48090887649021702 -0.21192424663891121 0 0.5 -0.20057964661038519 0 0.49999999999999878 -0.228634299108431 0 0.48090887649021702 -0.21192424663891121 0 0.49999999999999878 -0.228634299108431 0 0.48090887649021702 -0.21192424663891121 0 0.49999999999999878 -0.228634299108431 0 0.48902825314382681 -0.22870759154089909 0 0.49999999999999878 -0.228634299108431 0 0.48902825314382681 -0.22870759154089909 0 0.50000000000000422 -0.23499914128452851 0 0.48902825314382681 -0.22870759154089909 0 0.48502908186159371 -0.2364652523430667 0 0.50000000000000422 -0.23499914128452851 0 0.48902825314382681 -0.22870759154089909 0 0.47920330736732158 -0.23151501832955809 0 0.48502908186159371 -0.2364652523430667 0 0.45791085678443683 -0.21342255470777521 0 0.48090887649021702 -0.21192424663891121 0 0.47920330736732158 -0.23151501832955809 0 0.48090887649021702 -0.21192424663891121 0 0.47920330736732158 -0.23151501832955809 0 0.48090887649021702 -0.21192424663891121 0 0.48902825314382681 -0.22870759154089909 0 0.47920330736732158 -0.23151501832955809 0 0.46346229224816282 -0.22806580013153471 0 0.47920330736732158 -0.23151501832955809 0 0.47825920469033539 -0.2423593164287195 0 0.47920330736732158 -0.23151501832955809 0 0.48502908186159371 -0.2364652523430667 0 0.46346229224816282 -0.22806580013153471 0 0.46507092528668398 -0.24484935188560461 0 0.47825920469033539 -0.2423593164287195 0 0.46507092528668398 -0.24484935188560461 0 0.47825920469033539 -0.2423593164287195 0 0.47763048707800582 -0.2495809898488548 0 0.46346229224816282 -0.22806580013153471 0 0.47825920469033539 -0.2423593164287195 0 0.47920330736732158 -0.23151501832955809 0 0.47825920469033539 -0.2423593164287195 0 0.48502908186159371 -0.2364652523430667 0 0.47825920469033539 -0.2423593164287195 0 0.48246964979815549 -0.2464265207189533 0 0.48502908186159371 -0.2364652523430667 0 0.47920330736732158 -0.23151501832955809 0 0.47825920469033539 -0.2423593164287195 0 0.47825920469033539 -0.2423593164287195 0 0.48246964979815549 -0.2464265207189533 0 0.47825920469033539 -0.2423593164287195 0 0.47763048707800582 -0.2495809898488548 0 0.47763048707800582 -0.2495809898488548 0 0.48246964979815549 -0.2464265207189533 0 0.47825920469033539 -0.2423593164287195 0 0.47763048707800582 -0.2495809898488548 0 0.48246964979815549 -0.2464265207189533 0 0.48246964979815549 -0.2464265207189533 0 0.50000000000000422 -0.23499914128452851 0 0.49090491179766732 -0.25457481215017108 0 0.48246964979815549 -0.2464265207189533 0 0.50000000000000422 -0.23499914128452851 0 0.48246964979815549 -0.2464265207189533 0 0.48502908186159371 -0.2364652523430667 0 0.50000000000000422 -0.23499914128452851 0 0.47763048707800582 -0.2495809898488548 0 0.49090491179766732 -0.25457481215017108 0 0.48637536087592131 -0.26805000157272979 0 0.50000000000000422 -0.23499914128452851 0 0.5 -0.26399207472948372 0 0.49090491179766732 -0.25457481215017108 0 0.5 -0.26399207472948372 0 0.49090491179766732 -0.25457481215017108 0 0.48637536087592131 -0.26805000157272979 0 0.48246964979815549 -0.2464265207189533 0 0.49090491179766732 -0.25457481215017108 0 0.48637536087592131 -0.26805000157272979 0 0.47525188551332392 -0.27690245080354842 0 0.5 -0.29298500817443868 0 0.5 -0.26399207472948372 0 0.48637536087592131 -0.26805000157272979 0 0.5 -0.29298500817443868 0 0.47763048707800582 -0.2495809898488548 0 0.47525188551332392 -0.27690245080354842 0 0.47763048707800582 -0.2495809898488548 0 0.47525188551332392 -0.27690245080354842 0 0.46433128165715498 -0.25825024430016452 0 0.47763048707800582 -0.2495809898488548 0 0.48637536087592131 -0.26805000157272979 0 0.47525188551332392 -0.27690245080354842 0 0.47763048707800582 -0.2495809898488548 0 0.48246964979815549 -0.2464265207189533 0 0.49090491179766732 -0.25457481215017108 0 0.47763048707800582 -0.2495809898488548 0 0.46433128165715498 -0.25825024430016452 0 0.46507092528668398 -0.24484935188560461 0 0.47763048707800582 -0.2495809898488548 0 0.46433128165715498 -0.25825024430016452 0 0.45054199278213858 -0.24990532700142201 0 0.46433128165715498 -0.25825024430016452 0 0.45103207623630392 -0.26691949875147392 0 0.46507092528668398 -0.24484935188560461 0 0.45054199278213858 -0.24990532700142201 0 0.46433128165715498 -0.25825024430016452 0 0.46433128165715498 -0.25825024430016452 0 0.45103207623630392 -0.26691949875147392 0 0.46433128165715498 -0.25825024430016452 0 0.45339798857049818 -0.26745208556790973 0 0.45103207623630392 -0.26691949875147392 0 0.47525188551332392 -0.27690245080354842 0 0.46433128165715498 -0.25825024430016452 0 0.46168963224324838 -0.27869831202780682 0 0.46433128165715498 -0.25825024430016452 0 0.46168963224324838 -0.27869831202780682 0 0.45339798857049818 -0.26745208556790973 0 0.46168963224324838 -0.27869831202780682 0 0.45339798857049818 -0.26745208556790973 0 0.44878612139655399 -0.28241805588387342 0 0.45103207623630392 -0.26691949875147392 0 0.44878612139655399 -0.28241805588387342 0 0.42766998268640732 -0.2821483734917527 0 0.45103207623630392 -0.26691949875147392 0 0.42766998268640732 -0.2821483734917527 0 0.45339798857049818 -0.26745208556790973 0 0.45103207623630392 -0.26691949875147392 0 0.45339798857049818 -0.26745208556790973 0 0.45103207623630392 -0.26691949875147392 0 0.44878612139655399 -0.28241805588387342 0 0.45103207623630392 -0.26691949875147392 0 0.42579233764749091 -0.26123782076686652 0 0.45054199278213858 -0.24990532700142201 0 0.45103207623630392 -0.26691949875147392 0 0.4383833448491935 -0.25188456894210481 0 0.45103207623630392 -0.26691949875147392 0 0.4383833448491935 -0.25188456894210481 0 0.42579233764749091 -0.26123782076686652 0 0.43864603100659971 -0.30488498370455719 0 0.45429552107753179 -0.29848217529690391 0 0.45043334638895699 -0.32311167589859641 0 0.43864603100659971 -0.30488498370455719 0 0.44878612139655399 -0.28241805588387342 0 0.45429552107753179 -0.29848217529690391 0 0.43864603100659971 -0.30488498370455719 0 0.44878612139655399 -0.28241805588387342 0 0.42766998268640732 -0.2821483734917527 0 0.46168963224324838 -0.27869831202780682 0 0.44878612139655399 -0.28241805588387342 0 0.45429552107753179 -0.29848217529690391 0 0.46168963224324838 -0.27869831202780682 0 0.45429552107753179 -0.29848217529690391 0 0.47454441604431691 -0.29563139627305901 0 0.45429552107753179 -0.29848217529690391 0 0.47454441604431691 -0.29563139627305901 0 0.46947875013014878 -0.31694662237443849 0 0.47454441604431691 -0.29563139627305901 0 0.48655070730164812 -0.30977380896121792 0 0.46947875013014878 -0.31694662237443849 0 0.47525188551332392 -0.27690245080354842 0 0.47454441604431691 -0.29563139627305901 0 0.5 -0.29298500817443868 0 0.47525188551332392 -0.27690245080354842 0 0.46168963224324838 -0.27869831202780682 0 0.47454441604431691 -0.29563139627305901 0 0.5 -0.29298500817443868 0 0.48655070730164812 -0.30977380896121792 0 0.5 -0.32197794161939369 0 0.47454441604431691 -0.29563139627305901 0 0.5 -0.29298500817443868 0 0.48655070730164812 -0.30977380896121792 0 0.48655070730164812 -0.30977380896121792 0 0.5 -0.32197794161939369 0 0.48267135142473189 -0.33292325463204248 0 0.5 -0.32197794161939369 0 0.48267135142473189 -0.33292325463204248 0 0.5 -0.35097087506434882 0 0.48267135142473189 -0.33292325463204248 0 0.47845042169819058 -0.35003817539357618 0 0.46346333526263522 -0.34151507736681641 0 0.48267135142473189 -0.33292325463204248 0 0.46947875013014878 -0.31694662237443849 0 0.46346333526263522 -0.34151507736681641 0 0.48655070730164812 -0.30977380896121792 0 0.48267135142473189 -0.33292325463204248 0 0.46947875013014878 -0.31694662237443849 0 0.5 -0.35097087506434882 0 0.47989172066504981 -0.36721893838852748 0 0.49999999999999623 -0.37996380850930378 0 0.5 -0.35097087506434882 0 0.47845042169819058 -0.35003817539357618 0 0.47989172066504981 -0.36721893838852748 0 0.48267135142473189 -0.33292325463204248 0 0.5 -0.35097087506434882 0 0.47845042169819058 -0.35003817539357618 0 0.47845042169819058 -0.35003817539357618 0 0.47989172066504981 -0.36721893838852748 0 0.45696496785498081 -0.36080499905346552 0 0.45696496785498081 -0.36080499905346552 0 0.45046660044732628 -0.38009492074011481 0 0.47989172066504981 -0.36721893838852748 0 0.45696496785498081 -0.36080499905346552 0 0.46551523231402669 -0.37442494489753242 0 0.45696496785498081 -0.36080499905346552 0 0.46551523231402669 -0.37442494489753242 0 0.45046660044732628 -0.38009492074011481 0 0.45696496785498081 -0.36080499905346552 0 0.46346333526263522 -0.34151507736681641 0 0.44503462300311369 -0.34372410383907942 0 0.45696496785498081 -0.36080499905346552 0 0.46346333526263522 -0.34151507736681641 0 0.47845042169819058 -0.35003817539357618 0 0.45696496785498081 -0.36080499905346552 0 0.46346333526263522 -0.34151507736681641 0 0.45696496785498081 -0.36080499905346552 0 0.43867486081849433 -0.36130934404729481 0 0.44503462300311369 -0.34372410383907942 0 0.43867486081849433 -0.36130934404729481 0 0.43173518279844469 -0.3729882115151803 0 0.45046660044732628 -0.38009492074011481 0 0.45696496785498081 -0.36080499905346552 0 0.43867486081849433 -0.36130934404729481 0 0.45046660044732628 -0.38009492074011481 0 0.45429552107753179 -0.29848217529690391 0 0.46947875013014878 -0.31694662237443849 0 0.45043334638895699 -0.32311167589859641 0 0.46947875013014878 -0.31694662237443849 0 0.46346333526263522 -0.34151507736681641 0 0.45043334638895699 -0.32311167589859641 0 0.46346333526263522 -0.34151507736681641 0 0.44503462300311369 -0.34372410383907942 0 0.45043334638895699 -0.32311167589859641 0 0.44503462300311369 -0.34372410383907942 0 0.45043334638895699 -0.32311167589859641 0 0.43310033380570268 -0.32698071435000869 0 0.43864603100659971 -0.30488498370455719 0 0.45043334638895699 -0.32311167589859641 0 0.43310033380570268 -0.32698071435000869 0 0.43310033380570268 -0.32698071435000869 0 0.41789705919946318 -0.33086643826843909 0 0.4183054650163075 -0.3134215896886472 0 0.43864603100659971 -0.30488498370455719 0 0.43310033380570268 -0.32698071435000869 0 0.4183054650163075 -0.3134215896886472 0 0.44503462300311369 -0.34372410383907942 0 0.43310033380570268 -0.32698071435000869 0 0.42828547821977492 -0.34587549470073298 0 0.43310033380570268 -0.32698071435000869 0 0.41789705919946318 -0.33086643826843909 0 0.42828547821977492 -0.34587549470073298 0 0.41789705919946318 -0.33086643826843909 0 0.41332717651963652 -0.34764120812526977 0 0.40489101440610192 -0.33704687198149319 0 0.41789705919946318 -0.33086643826843909 0 0.39834129906819221 -0.32434733485480299 0 0.40489101440610192 -0.33704687198149319 0 0.41789705919946318 -0.33086643826843909 0 0.42828547821977492 -0.34587549470073298 0 0.41332717651963652 -0.34764120812526977 0 0.41789705919946318 -0.33086643826843909 0 0.4183054650163075 -0.3134215896886472 0 0.39834129906819221 -0.32434733485480299 0 0.4183054650163075 -0.3134215896886472 0 0.39834129906819221 -0.32434733485480299 0 0.43867486081849433 -0.36130934404729481 0 0.43173518279844469 -0.3729882115151803 0 0.42232371983249373 -0.36099190521492541 0 0.43173518279844469 -0.3729882115151803 0 0.42232371983249373 -0.36099190521492541 0 0.41790081284247721 -0.37481342716703497 0 0.43867486081849433 -0.36130934404729481 0 0.42232371983249373 -0.36099190521492541 0 0.42828547821977492 -0.34587549470073298 0 0.43867486081849433 -0.36130934404729481 0 0.44503462300311369 -0.34372410383907942 0 0.42828547821977492 -0.34587549470073298 0 0.42232371983249373 -0.36099190521492541 0 0.41332717651963652 -0.34764120812526977 0 0.40597436352804778 -0.36214945792892128 0 0.42232371983249373 -0.36099190521492541 0 0.42828547821977492 -0.34587549470073298 0 0.41332717651963652 -0.34764120812526977 0 0.42232371983249373 -0.36099190521492541 0 0.41790081284247721 -0.37481342716703497 0 0.40597436352804778 -0.36214945792892128 0 0.41790081284247721 -0.37481342716703497 0 0.40450334126740922 -0.37448723813033052 0 0.40597436352804778 -0.36214945792892128 0 0.39647503679702178 -0.36904805118264111 0 0.40597436352804778 -0.36214945792892128 0 0.38954395803848663 -0.35764428883903637 0 0.39647503679702178 -0.36904805118264111 0 0.38552434399859797 -0.37047350847735822 0 0.39409008608124491 -0.38201818132998799 0 0.39647503679702178 -0.36904805118264111 0 0.40450334126740922 -0.37448723813033052 0 0.40597436352804778 -0.36214945792892128 0 0.41332717651963652 -0.34764120812526977 0 0.40597436352804778 -0.36214945792892128 0 0.39734715576104912 -0.34745843824937261 0 0.40597436352804778 -0.36214945792892128 0 0.39734715576104912 -0.34745843824937261 0 0.38954395803848663 -0.35764428883903637 0 0.41332717651963652 -0.34764120812526977 0 0.39734715576104912 -0.34745843824937261 0 0.40489101440610192 -0.33704687198149319 0 0.39734715576104912 -0.34745843824937261 0 0.385170819795005 -0.35044692747421052 0 0.38954395803848663 -0.35764428883903637 0 0.385170819795005 -0.35044692747421052 0 0.37555041745191192 -0.36021720696395498 0 0.3782417479285734 -0.33646777584448001 0 0.37555041745191192 -0.36021720696395498 0 0.3782417479285734 -0.33646777584448001 0 0.39734715576104912 -0.34745843824937261 0 0.385170819795005 -0.35044692747421052 0 0.3782417479285734 -0.33646777584448001 0 0.38954395803848663 -0.35764428883903637 0 0.37555041745191192 -0.36021720696395498 0 0.385170819795005 -0.35044692747421052 0 0.38954395803848663 -0.35764428883903637 0 0.37555041745191192 -0.36021720696395498 0 0.37555041745191192 -0.36021720696395498 0 0.38552434399859797 -0.37047350847735822 0 0.37272962845428481 -0.38510903447554901 0 0.38954395803848663 -0.35764428883903637 0 0.37555041745191192 -0.36021720696395498 0 0.38552434399859797 -0.37047350847735822 0 0.39647503679702178 -0.36904805118264111 0 0.38954395803848663 -0.35764428883903637 0 0.38552434399859797 -0.37047350847735822 0 0.39734715576104912 -0.34745843824937261 0 0.40489101440610192 -0.33704687198149319 0 0.39050436579935283 -0.33725237994194379 0 0.39834129906819221 -0.32434733485480299 0 0.40489101440610192 -0.33704687198149319 0 0.39050436579935283 -0.33725237994194379 0 0.39834129906819221 -0.32434733485480299 0 0.3782417479285734 -0.33646777584448001 0 0.39050436579935283 -0.33725237994194379 0 0.39734715576104912 -0.34745843824937261 0 0.3782417479285734 -0.33646777584448001 0 0.39050436579935283 -0.33725237994194379 0 0.39834129906819221 -0.32434733485480299 0 0.3782417479285734 -0.33646777584448001 0 0.39734715576104912 -0.34745843824937261 0 0.3782417479285734 -0.33646777584448001 0 0.3782417479285734 -0.33646777584448001 0 0.38094579558661268 -0.31260612297230789 0 0.39834129906819221 -0.32434733485480299 0 0.3782417479285734 -0.33646777584448001 0 0.38094579558661268 -0.31260612297230789 0 0.37623316835783699 -0.308743491446899 0 0.39580253272581362 -0.29343223163908982 0 0.38303886807504289 -0.29526880696839503 0 0.37623316835783699 -0.308743491446899 0 0.39580253272581362 -0.29343223163908982 0 0.37623316835783699 -0.308743491446899 0 0.38131906864075388 -0.30931220467985537 0 0.39580253272581362 -0.29343223163908982 0 0.38094579558661268 -0.31260612297230789 0 0.38131906864075388 -0.30931220467985537 0 0.40430788913651039 -0.29737724823203088 0 0.38094579558661268 -0.31260612297230789 0 0.37623316835783699 -0.308743491446899 0 0.38131906864075388 -0.30931220467985537 0 0.38094579558661268 -0.31260612297230789 0 0.38131906864075388 -0.30931220467985537 0 0.37623316835783699 -0.308743491446899 0 0.37615535161186081 -0.29925419429213179 0 0.38303886807504289 -0.29526880696839503 0 0.39834129906819221 -0.32434733485480299 0 0.38094579558661268 -0.31260612297230789 0 0.40430788913651039 -0.29737724823203088 0 0.38094579558661268 -0.31260612297230789 0 0.40430788913651039 -0.29737724823203088 0 0.38131906864075388 -0.30931220467985537 0 0.40430788913651039 -0.29737724823203088 0 0.39580253272581362 -0.29343223163908982 0 0.39580253272581362 -0.29343223163908982 0 0.41537189709379008 -0.27812097183128071 0 0.40430788913651039 -0.29737724823203088 0 0.39580253272581362 -0.29343223163908982 0 0.41537189709379008 -0.27812097183128071 0 0.39580253272581362 -0.29343223163908982 0 0.39967668719542759 -0.27863848705421168 0 0.41537189709379008 -0.27812097183128071 0 0.39580253272581362 -0.29343223163908982 0 0.38736669944971269 -0.28394952646088628 0 0.39967668719542759 -0.27863848705421168 0 0.39580253272581362 -0.29343223163908982 0 0.38736669944971269 -0.28394952646088628 0 0.38303886807504289 -0.29526880696839503 0 0.37615535161186081 -0.29925419429213179 0 0.38303886807504289 -0.29526880696839503 0 0.37768028602440051 -0.29043159680507991 0 0.38736669944971269 -0.28394952646088628 0 0.38303886807504289 -0.29526880696839503 0 0.37768028602440051 -0.29043159680507991 0 0.38736669944971269 -0.28394952646088628 0 0.37768028602440051 -0.29043159680507991 0 0.37545665948974949 -0.27586083033512948 0 0.38736669944971269 -0.28394952646088628 0 0.37545665948974949 -0.27586083033512948 0 0.39159378601419498 -0.2692213732594434 0 0.37531286046986467 -0.24987446479765299 0 0.40055259905867779 -0.2555561427822598 0 0.37531286046986467 -0.24987446479765299 0 0.40055259905867779 -0.2555561427822598 0 0.39159378601419498 -0.2692213732594434 0 0.37531286046986467 -0.24987446479765299 0 0.37545665948974949 -0.27586083033512948 0 0.39159378601419498 -0.2692213732594434 0 0.40055259905867779 -0.2555561427822598 0 0.39159378601419498 -0.2692213732594434 0 0.40659746140191633 -0.26855495913881239 0 0.38736669944971269 -0.28394952646088628 0 0.39159378601419498 -0.2692213732594434 0 0.39967668719542759 -0.27863848705421168 0 0.39159378601419498 -0.2692213732594434 0 0.39967668719542759 -0.27863848705421168 0 0.40659746140191633 -0.26855495913881239 0 0.39967668719542759 -0.27863848705421168 0 0.41537189709379008 -0.27812097183128071 0 0.40659746140191633 -0.26855495913881239 0 0.41537189709379008 -0.27812097183128071 0 0.40659746140191633 -0.26855495913881239 0 0.42579233764749091 -0.26123782076686652 0 0.40055259905867779 -0.2555561427822598 0 0.42579233764749091 -0.26123782076686652 0 0.40055259905867779 -0.2555561427822598 0 0.40659746140191633 -0.26855495913881239 0 0.42579233764749091 -0.26123782076686652 0 0.41273322572349902 -0.24247237689741061 0 0.40055259905867779 -0.2555561427822598 0 0.42579233764749091 -0.26123782076686652 0 0.42736012153613578 -0.24200648542438441 0 0.4383833448491935 -0.25188456894210481 0 0.42579233764749091 -0.26123782076686652 0 0.45103207623630392 -0.26691949875147392 0 0.42579233764749091 -0.26123782076686652 0 0.42766998268640732 -0.2821483734917527 0 0.41537189709379008 -0.27812097183128071 0 0.42579233764749091 -0.26123782076686652 0 0.42766998268640732 -0.2821483734917527 0 0.43864603100659971 -0.30488498370455719 0 0.4183054650163075 -0.3134215896886472 0 0.42766998268640732 -0.2821483734917527 0 0.4183054650163075 -0.3134215896886472 0 0.40430788913651039 -0.29737724823203088 0 0.42766998268640732 -0.2821483734917527 0 0.4183054650163075 -0.3134215896886472 0 0.39834129906819221 -0.32434733485480299 0 0.40430788913651039 -0.29737724823203088 0 0.40430788913651039 -0.29737724823203088 0 0.42766998268640732 -0.2821483734917527 0 0.40430788913651039 -0.29737724823203088 0 0.41537189709379008 -0.27812097183128071 0 0.42766998268640732 -0.2821483734917527 0 0.5 -0.5 0 0.46946994189670949 -0.47974363822268268 0 0.43099485396073822 -0.5 0 0.44108123307873898 -0.48040707992843379 0 0.46946994189670949 -0.47974363822268268 0 0.43099485396073822 -0.5 0 0.44108123307873898 -0.48040707992843379 0 0.45116761219673979 -0.46081415985686758 0 0.44108123307873898 -0.48040707992843379 0 0.46946994189670949 -0.47974363822268268 0 0.45116761219673979 -0.46081415985686758 0 0.5 -0.5 0 0.46946994189670949 -0.47974363822268268 0 0.5 -0.45272310867594578 0 0.46946994189670949 -0.47974363822268268 0 0.47130711774708511 -0.45324746024694962 0 0.5 -0.45272310867594578 0 0.47130711774708511 -0.45324746024694962 0 0.45726535642798483 -0.44241783221992348 0 0.47863267821399141 -0.43053856225932868 0 0.47130711774708511 -0.45324746024694962 0 0.5 -0.45272310867594578 0 0.47863267821399141 -0.43053856225932868 0 0.47130711774708511 -0.45324746024694962 0 0.45726535642798483 -0.44241783221992348 0 0.45116761219673979 -0.46081415985686758 0 0.46946994189670949 -0.47974363822268268 0 0.47130711774708511 -0.45324746024694962 0 0.45116761219673979 -0.46081415985686758 0 0.44108123307873898 -0.48040707992843379 0 0.45116761219673979 -0.46081415985686758 0 0.43472392571826168 -0.46474167674158218 0 0.45116761219673979 -0.46081415985686758 0 0.44218184856627007 -0.44792920286065152 0 0.43472392571826168 -0.46474167674158218 0 0.45726535642798483 -0.44241783221992348 0 0.45116761219673979 -0.46081415985686758 0 0.44218184856627007 -0.44792920286065152 0 0.45726535642798483 -0.44241783221992348 0 0.44218184856627007 -0.44792920286065152 0 0.43549445238738332 -0.42453863182007351 0 0.45726535642798483 -0.44241783221992348 0 0.46139193402962242 -0.41592326925758299 0 0.43549445238738332 -0.42453863182007351 0 0.46139193402962242 -0.41592326925758299 0 0.44396823303967081 -0.39938484242676348 0 0.43549445238738332 -0.42453863182007351 0 0.44396823303967081 -0.39938484242676348 0 0.43549445238738332 -0.42453863182007351 0 0.45726535642798483 -0.44241783221992348 0 0.46139193402962242 -0.41592326925758299 0 0.47863267821399141 -0.43053856225932868 0 0.45726535642798483 -0.44241783221992348 0 0.47863267821399141 -0.43053856225932868 0 0.5 -0.45272310867594578 0 0.47863267821399141 -0.43053856225932868 0 0.49999999999999822 -0.41865929229873478 0 0.47863267821399141 -0.43053856225932868 0 0.49999999999999822 -0.41865929229873478 0 0.49999999999999822 -0.41865929229873478 0 0.48100676758887018 -0.40898542135137639 0 0.5 -0.39931155040401928 0 0.47863267821399141 -0.43053856225932868 0 0.49999999999999822 -0.41865929229873478 0 0.48100676758887018 -0.40898542135137639 0 0.46139193402962242 -0.41592326925758299 0 0.47863267821399141 -0.43053856225932868 0 0.48100676758887018 -0.40898542135137639 0 0.46139193402962242 -0.41592326925758299 0 0.48100676758887018 -0.40898542135137639 0 0.47198411651983302 -0.38967432546803221 0 0.48100676758887018 -0.40898542135137639 0 0.5 -0.39931155040401928 0 0.47198411651983302 -0.38967432546803221 0 0.49999999999999623 -0.37996380850930378 0 0.47198411651983302 -0.38967432546803221 0 0.5 -0.39931155040401928 0 0.49999999999999623 -0.37996380850930378 0 0.47198411651983302 -0.38967432546803221 0 0.47989172066504981 -0.36721893838852748 0 0.46551523231402669 -0.37442494489753242 0 0.47198411651983302 -0.38967432546803221 0 0.47989172066504981 -0.36721893838852748 0 0.49999999999999623 -0.37996380850930378 0 0.47198411651983302 -0.38967432546803221 0 0.46551523231402669 -0.37442494489753242 0 0.47198411651983302 -0.38967432546803221 0 0.45046660044732628 -0.38009492074011481 0 0.47198411651983302 -0.38967432546803221 0 0.44396823303967081 -0.39938484242676348 0 0.45046660044732628 -0.38009492074011481 0 0.46139193402962242 -0.41592326925758299 0 0.47198411651983302 -0.38967432546803221 0 0.44396823303967081 -0.39938484242676348 0 0.47198411651983302 -0.38967432546803221 0 0.44396823303967081 -0.39938484242676348 0 0.44396823303967081 -0.39938484242676348 0 0.43471010249848929 -0.40259378044543698 0 0.44396823303967081 -0.39938484242676348 0 0.45046660044732628 -0.38009492074011481 0 0.44396823303967081 -0.39938484242676348 0 0.45046660044732628 -0.38009492074011481 0 0.43322103151525659 -0.38538288479629451 0 0.43173518279844469 -0.3729882115151803 0 0.45046660044732628 -0.38009492074011481 0 0.43322103151525659 -0.38538288479629451 0 0.41790081284247721 -0.37481342716703497 0 0.43322103151525659 -0.38538288479629451 0 0.41826863628524291 -0.39313149949957682 0 0.43173518279844469 -0.3729882115151803 0 0.41790081284247721 -0.37481342716703497 0 0.43322103151525659 -0.38538288479629451 0 0.44396823303967081 -0.39938484242676348 0 0.43322103151525659 -0.38538288479629451 0 0.4302515151033709 -0.39540893875082311 0 0.44396823303967081 -0.39938484242676348 0 0.43471010249848929 -0.40259378044543698 0 0.43023062423538039 -0.41374032809816891 0 0.44396823303967081 -0.39938484242676348 0 0.4302515151033709 -0.39540893875082311 0 0.43471010249848929 -0.40259378044543698 0 0.4302515151033709 -0.39540893875082311 0 0.43471010249848929 -0.40259378044543698 0 0.42575464060776053 -0.40259145205065477 0 0.4302515151033709 -0.39540893875082311 0 0.42575464060776053 -0.40259145205065477 0 0.41826863628524291 -0.39313149949957682 0 0.43322103151525659 -0.38538288479629451 0 0.4302515151033709 -0.39540893875082311 0 0.41826863628524291 -0.39313149949957682 0 0.41826863628524291 -0.39313149949957682 0 0.40288006789357411 -0.39911743788083343 0 0.41628421417247902 -0.40934099793106232 0 0.42575464060776053 -0.40259145205065477 0 0.41826863628524291 -0.39313149949957682 0 0.41628421417247902 -0.40934099793106232 0 0.41826863628524291 -0.39313149949957682 0 0.4080764070882541 -0.38440707304306693 0 0.40288006789357411 -0.39911743788083343 0 0.41790081284247721 -0.37481342716703497 0 0.41826863628524291 -0.39313149949957682 0 0.4080764070882541 -0.38440707304306693 0 0.41790081284247721 -0.37481342716703497 0 0.40450334126740922 -0.37448723813033052 0 0.4080764070882541 -0.38440707304306693 0 0.40450334126740922 -0.37448723813033052 0 0.4080764070882541 -0.38440707304306693 0 0.39409008608124491 -0.38201818132998799 0 0.4080764070882541 -0.38440707304306693 0 0.39409008608124491 -0.38201818132998799 0 0.40288006789357411 -0.39911743788083343 0 0.39647503679702178 -0.36904805118264111 0 0.40450334126740922 -0.37448723813033052 0 0.39409008608124491 -0.38201818132998799 0 0.38552434399859797 -0.37047350847735822 0 0.39409008608124491 -0.38201818132998799 0 0.37272962845428481 -0.38510903447554901 0 0.39409008608124491 -0.38201818132998799 0 0.38563917576358459 -0.39798095198727079 0 0.37272962845428481 -0.38510903447554901 0 0.38563917576358459 -0.39798095198727079 0 0.3699088394566572 -0.41000086198714292 0 0.37272962845428481 -0.38510903447554901 0 0.38563917576358459 -0.39798095198727079 0 0.40288006789357411 -0.39911743788083343 0 0.38858725693216212 -0.41365924426284062 0 0.39409008608124491 -0.38201818132998799 0 0.38563917576358459 -0.39798095198727079 0 0.40288006789357411 -0.39911743788083343 0 0.40413708174346868 -0.41620623344497332 0 0.38858725693216212 -0.41365924426284062 0 0.39643003017021661 -0.43138229417986451 0 0.40288006789357411 -0.39911743788083343 0 0.40413708174346868 -0.41620623344497332 0 0.38858725693216212 -0.41365924426284062 0 0.38858725693216212 -0.41365924426284062 0 0.38025077806538948 -0.4279530226802738 0 0.3699088394566572 -0.41000086198714292 0 0.38563917576358459 -0.39798095198727079 0 0.38858725693216212 -0.41365924426284062 0 0.3699088394566572 -0.41000086198714292 0 0.38858725693216212 -0.41365924426284062 0 0.38025077806538948 -0.4279530226802738 0 0.39643003017021661 -0.43138229417986451 0 0.38025077806538948 -0.4279530226802738 0 0.39643003017021661 -0.43138229417986451 0 0.38257496510000361 -0.44938266250838471 0 0.39643003017021661 -0.43138229417986451 0 0.4165038395489119 -0.42753119297026537 0 0.40578385876807871 -0.45116194898885142 0 0.40413708174346868 -0.41620623344497332 0 0.39643003017021661 -0.43138229417986451 0 0.4165038395489119 -0.42753119297026537 0 0.40288006789357411 -0.39911743788083343 0 0.40413708174346868 -0.41620623344497332 0 0.41628421417247902 -0.40934099793106232 0 0.40413708174346868 -0.41620623344497332 0 0.4165038395489119 -0.42753119297026537 0 0.41628421417247902 -0.40934099793106232 0 0.4165038395489119 -0.42753119297026537 0 0.41628421417247902 -0.40934099793106232 0 0.43023062423538039 -0.41374032809816891 0 0.44396823303967081 -0.39938484242676348 0 0.43023062423538039 -0.41374032809816891 0 0.43549445238738332 -0.42453863182007351 0 0.42575464060776053 -0.40259145205065477 0 0.41628421417247902 -0.40934099793106232 0 0.43023062423538039 -0.41374032809816891 0 0.43471010249848929 -0.40259378044543698 0 0.42575464060776053 -0.40259145205065477 0 0.43023062423538039 -0.41374032809816891 0 0.4165038395489119 -0.42753119297026537 0 0.43549445238738332 -0.42453863182007351 0 0.42702067173509478 -0.44969242121338321 0 0.43549445238738332 -0.42453863182007351 0 0.42702067173509478 -0.44969242121338321 0 0.4165038395489119 -0.42753119297026537 0 0.43023062423538039 -0.41374032809816891 0 0.43549445238738332 -0.42453863182007351 0 0.44218184856627007 -0.44792920286065152 0 0.43549445238738332 -0.42453863182007351 0 0.42702067173509478 -0.44969242121338321 0 0.42702067173509478 -0.44969242121338321 0 0.41854689108280629 -0.47484621060669291 0 0.44218184856627007 -0.44792920286065152 0 0.42702067173509478 -0.44969242121338321 0 0.43472392571826168 -0.46474167674158218 0 0.42702067173509478 -0.44969242121338321 0 0.43472392571826168 -0.46474167674158218 0 0.41854689108280629 -0.47484621060669291 0 0.42702067173509478 -0.44969242121338321 0 0.40578385876807871 -0.45116194898885142 0 0.41854689108280629 -0.47484621060669291 0 0.4165038395489119 -0.42753119297026537 0 0.42702067173509478 -0.44969242121338321 0 0.40578385876807871 -0.45116194898885142 0 0.39643003017021661 -0.43138229417986451 0 0.40578385876807871 -0.45116194898885142 0 0.38257496510000361 -0.44938266250838471 0 0.38025077806538948 -0.4279530226802738 0 0.38257496510000361 -0.44938266250838471 0 0.36375279866790811 -0.43534005046313651 0 0.38257496510000361 -0.44938266250838471 0 0.39362675497143917 -0.47413691245451828 0 0.36470375458899063 -0.47274790987875742 0 0.40578385876807871 -0.45116194898885142 0 0.39362675497143917 -0.47413691245451828 0 0.41854689108280629 -0.47484621060669291 0 0.40578385876807871 -0.45116194898885142 0 0.38257496510000361 -0.44938266250838471 0 0.39362675497143917 -0.47413691245451828 0 0.39362675497143917 -0.47413691245451828 0 0.38093311223710158 -0.5 0 0.36470375458899063 -0.47274790987875742 0 0.39362675497143917 -0.47413691245451828 0 0.38093311223710158 -0.5 0 0.4100731104305172 -0.50000000000000222 0 0.4100731104305172 -0.50000000000000222 0 0.41854689108280629 -0.47484621060669291 0 0.43099485396073822 -0.5 0 0.4100731104305172 -0.50000000000000222 0 0.41854689108280629 -0.47484621060669291 0 0.39362675497143917 -0.47413691245451828 0 0.4100731104305172 -0.50000000000000222 0 0.41854689108280629 -0.47484621060669291 0 0.44108123307873898 -0.48040707992843379 0 0.43472392571826168 -0.46474167674158218 0 0.41854689108280629 -0.47484621060669291 0 0.44108123307873898 -0.48040707992843379 0 0.41854689108280629 -0.47484621060669291 0 0.43099485396073822 -0.5 0 0.44108123307873898 -0.48040707992843379 0 0.43099485396073822 -0.5 0 0.32265311585027051 -0.5 0 0.31802578941731752 -0.47002029016630098 0 0.30805942879379578 -0.48705355360077629 0 0.32265311585027051 -0.5 0 0.31802578941731752 -0.47002029016630098 0 0.34123612231346218 -0.47918828874125491 0 0.32265311585027051 -0.5 0 0.34123612231346218 -0.47918828874125491 0 0.35179311404368607 -0.5 0 0.38093311223710158 -0.5 0 0.35179311404368607 -0.5 0 0.36470375458899063 -0.47274790987875742 0 0.34123612231346218 -0.47918828874125491 0 0.35179311404368607 -0.5 0 0.36470375458899063 -0.47274790987875742 0 0.34123612231346218 -0.47918828874125491 0 0.36470375458899063 -0.47274790987875742 0 0.34192578260407508 -0.45156733781982211 0 0.36470375458899063 -0.47274790987875742 0 0.36270136080347049 -0.45267629558364492 0 0.34192578260407508 -0.45156733781982211 0 0.38257496510000361 -0.44938266250838471 0 0.36470375458899063 -0.47274790987875742 0 0.36270136080347049 -0.45267629558364492 0 0.38257496510000361 -0.44938266250838471 0 0.36270136080347049 -0.45267629558364492 0 0.36375279866790811 -0.43534005046313651 0 0.36270136080347049 -0.45267629558364492 0 0.34192578260407508 -0.45156733781982211 0 0.36375279866790811 -0.43534005046313651 0 0.31802578941731752 -0.47002029016630098 0 0.34123612231346218 -0.47918828874125491 0 0.34192578260407508 -0.45156733781982211 0 0.31802578941731752 -0.47002029016630098 0 0.34192578260407508 -0.45156733781982211 0 0.31193004808088159 -0.44390924573674911 0 0.34192578260407508 -0.45156733781982211 0 0.32297699175637329 -0.42927996576477739 0 0.31193004808088159 -0.44390924573674911 0 0.34192578260407508 -0.45156733781982211 0 0.32297699175637329 -0.42927996576477739 0 0.34475298516792557 -0.41928742299709282 0 0.32297699175637329 -0.42927996576477739 0 0.31604890792913931 -0.41230785771802558 0 0.34475298516792557 -0.41928742299709282 0 0.31604890792913931 -0.41230785771802558 0 0.34475298516792557 -0.41928742299709282 0 0.33909502073574921 -0.40006910435061771 0 0.34192578260407508 -0.45156733781982211 0 0.36375279866790811 -0.43534005046313651 0 0.34475298516792557 -0.41928742299709282 0 0.38025077806538948 -0.4279530226802738 0 0.36375279866790811 -0.43534005046313651 0 0.3699088394566572 -0.41000086198714292 0 0.36375279866790811 -0.43534005046313651 0 0.3699088394566572 -0.41000086198714292 0 0.34475298516792557 -0.41928742299709282 0 0.3699088394566572 -0.41000086198714292 0 0.34475298516792557 -0.41928742299709282 0 0.355334561446213 -0.39940634791475149 0 0.34475298516792557 -0.41928742299709282 0 0.355334561446213 -0.39940634791475149 0 0.33909502073574921 -0.40006910435061771 0 0.355334561446213 -0.39940634791475149 0 0.35018633341644823 -0.38256531576335501 0 0.33909502073574921 -0.40006910435061771 0 0.3699088394566572 -0.41000086198714292 0 0.355334561446213 -0.39940634791475149 0 0.37272962845428481 -0.38510903447554901 0 0.3699088394566572 -0.41000086198714292 0 0.37272962845428481 -0.38510903447554901 0 0.37272962845428481 -0.38510903447554901 0 0.35018633341644823 -0.38256531576335501 0 0.36020787325972198 -0.36312398923595202 0 0.355334561446213 -0.39940634791475149 0 0.37272962845428481 -0.38510903447554901 0 0.35018633341644823 -0.38256531576335501 0 0.35018633341644823 -0.38256531576335501 0 0.32617447541743738 -0.38519783948064867 0 0.33551852810642863 -0.36768194365085621 0 0.35018633341644823 -0.38256531576335501 0 0.33909502073574921 -0.40006910435061771 0 0.32617447541743738 -0.38519783948064867 0 0.31604890792913931 -0.41230785771802558 0 0.33909502073574921 -0.40006910435061771 0 0.32617447541743738 -0.38519783948064867 0 0.31604890792913931 -0.41230785771802558 0 0.32617447541743738 -0.38519783948064867 0 0.3074279785970222 -0.39002723917202697 0 0.32617447541743738 -0.38519783948064867 0 0.33551852810642863 -0.36768194365085621 0 0.31082918295313522 -0.3722398980657603 0 0.32617447541743738 -0.38519783948064867 0 0.3074279785970222 -0.39002723917202697 0 0.31082918295313522 -0.3722398980657603 0 0.3074279785970222 -0.39002723917202697 0 0.28971279920416632 -0.38379621493226929 0 0.31082918295313522 -0.3722398980657603 0 0.28971279920416632 -0.38379621493226929 0 0.29755842198186622 -0.37468984249249881 0 0.31082918295313522 -0.3722398980657603 0 0.28971279920416632 -0.38379621493226929 0 0.31082918295313522 -0.3722398980657603 0 0.31604890792913931 -0.41230785771802558 0 0.3074279785970222 -0.39002723917202697 0 0.29523206036356098 -0.40049242940402291 0 0.3074279785970222 -0.39002723917202697 0 0.29523206036356098 -0.40049242940402291 0 0.28971279920416632 -0.38379621493226929 0 0.29523206036356098 -0.40049242940402291 0 0.27991584435091299 -0.39225126907960722 0 0.27949337492996501 -0.40895411137368087 0 0.29523206036356098 -0.40049242940402291 0 0.28971279920416632 -0.38379621493226929 0 0.27991584435091299 -0.39225126907960722 0 0.28971279920416632 -0.38379621493226929 0 0.28102208363028658 -0.37774265235553639 0 0.27991584435091299 -0.39225126907960722 0 0.28971279920416632 -0.38379621493226929 0 0.29755842198186622 -0.37468984249249881 0 0.2959256332917109 -0.37499127521064868 0 0.28971279920416632 -0.38379621493226929 0 0.28102208363028658 -0.37774265235553639 0 0.2959256332917109 -0.37499127521064868 0 0.28102208363028658 -0.37774265235553639 0 0.2959256332917109 -0.37499127521064868 0 0.28102208363028658 -0.37774265235553639 0 0.25308564744576267 -0.38290005940110028 0 0.28102208363028658 -0.37774265235553639 0 0.27154061719145839 -0.38392326559735268 0 0.25308564744576267 -0.38290005940110028 0 0.28102208363028658 -0.37774265235553639 0 0.27154061719145839 -0.38392326559735268 0 0.28102208363028658 -0.37774265235553639 0 0.27154061719145839 -0.38392326559735268 0 0.27991584435091299 -0.39225126907960722 0 0.27154061719145839 -0.38392326559735268 0 0.26601233881623598 -0.39398444742736149 0 0.27991584435091299 -0.39225126907960722 0 0.27154061719145839 -0.38392326559735268 0 0.25308564744576267 -0.38290005940110028 0 0.26601233881623598 -0.39398444742736149 0 0.25540763311385722 -0.40033834997336071 0 0.27133537286068121 -0.4026050184124691 0 0.2668903913377455 -0.41268165738231932 0 0.25540763311385722 -0.40033834997336071 0 0.27133537286068121 -0.4026050184124691 0 0.26601233881623598 -0.39398444742736149 0 0.25308564744576267 -0.38290005940110028 0 0.25540763311385722 -0.40033834997336071 0 0.26601233881623598 -0.39398444742736149 0 0.27133537286068121 -0.4026050184124691 0 0.27991584435091299 -0.39225126907960722 0 0.27949337492996501 -0.40895411137368087 0 0.27133537286068121 -0.4026050184124691 0 0.26601233881623598 -0.39398444742736149 0 0.27991584435091299 -0.39225126907960722 0 0.27949337492996501 -0.40895411137368087 0 0.2701723053546769 -0.4251893566985972 0 0.29311060664190808 -0.41874860720831142 0 0.27949337492996501 -0.40895411137368087 0 0.2668903913377455 -0.41268165738231932 0 0.2701723053546769 -0.4251893566985972 0 0.27133537286068121 -0.4026050184124691 0 0.27949337492996501 -0.40895411137368087 0 0.2668903913377455 -0.41268165738231932 0 0.25540763311385722 -0.40033834997336071 0 0.2668903913377455 -0.41268165738231932 0 0.25658566081208389 -0.41789106618104838 0 0.25540763311385722 -0.40033834997336071 0 0.25658566081208389 -0.41789106618104838 0 0.24358552477742609 -0.41039978551074952 0 0.2668903913377455 -0.41268165738231932 0 0.25658566081208389 -0.41789106618104838 0 0.2701723053546769 -0.4251893566985972 0 0.2701723053546769 -0.4251893566985972 0 0.26175929129889458 -0.43952028970600659 0 0.24723400406744539 -0.43163010618888198 0 0.2701723053546769 -0.4251893566985972 0 0.24723400406744539 -0.43163010618888198 0 0.25658566081208389 -0.41789106618104838 0 0.2701723053546769 -0.4251893566985972 0 0.24723400406744539 -0.43163010618888198 0 0.25658566081208389 -0.41789106618104838 0 0.24723400406744539 -0.43163010618888198 0 0.2701723053546769 -0.4251893566985972 0 0.27614531883197369 -0.43888508677143701 0 0.26175929129889458 -0.43952028970600659 0 0.2701723053546769 -0.4251893566985972 0 0.29311060664190808 -0.41874860720831142 0 0.27614531883197369 -0.43888508677143701 0 0.29311060664190808 -0.41874860720831142 0 0.29094887783846368 -0.44292062029092871 0 0.27614531883197369 -0.43888508677143701 0 0.2701723053546769 -0.4251893566985972 0 0.29311060664190808 -0.41874860720831142 0 0.29523206036356098 -0.40049242940402291 0 0.27949337492996501 -0.40895411137368087 0 0.29311060664190808 -0.41874860720831142 0 0.32297699175637329 -0.42927996576477739 0 0.31604890792913931 -0.41230785771802558 0 0.29311060664190808 -0.41874860720831142 0 0.31604890792913931 -0.41230785771802558 0 0.29311060664190808 -0.41874860720831142 0 0.31604890792913931 -0.41230785771802558 0 0.29523206036356098 -0.40049242940402291 0 0.29311060664190808 -0.41874860720831142 0 0.29311060664190808 -0.41874860720831142 0 0.31193004808088159 -0.44390924573674911 0 0.29094887783846368 -0.44292062029092871 0 0.32297699175637329 -0.42927996576477739 0 0.29311060664190808 -0.41874860720831142 0 0.31193004808088159 -0.44390924573674911 0 0.31193004808088159 -0.44390924573674911 0 0.29989319614301818 -0.45692279124334062 0 0.29094887783846368 -0.44292062029092871 0 0.31802578941731752 -0.47002029016630098 0 0.29989319614301818 -0.45692279124334062 0 0.29788044504340672 -0.47201329814424059 0 0.31802578941731752 -0.47002029016630098 0 0.31193004808088159 -0.44390924573674911 0 0.29989319614301818 -0.45692279124334062 0 0.29989319614301818 -0.45692279124334062 0 0.28260247713290082 -0.46015334445387018 0 0.29094887783846368 -0.44292062029092871 0 0.29989319614301818 -0.45692279124334062 0 0.28260247713290082 -0.46015334445387018 0 0.29788044504340672 -0.47201329814424059 0 0.28260247713290082 -0.46015334445387018 0 0.29094887783846368 -0.44292062029092871 0 0.27614531883197369 -0.43888508677143701 0 0.28260247713290082 -0.46015334445387018 0 0.27614531883197369 -0.43888508677143701 0 0.26575548640993091 -0.45352614212392622 0 0.27614531883197369 -0.43888508677143701 0 0.26175929129889458 -0.43952028970600659 0 0.26575548640993091 -0.45352614212392622 0 0.26175929129889458 -0.43952028970600659 0 0.25134090353478428 -0.44885081937071208 0 0.24723400406744539 -0.43163010618888198 0 0.26175929129889458 -0.43952028970600659 0 0.25134090353478428 -0.44885081937071208 0 0.26575548640993091 -0.45352614212392622 0 0.26575548640993091 -0.45352614212392622 0 0.26389973928161531 -0.47149079180755982 0 0.24930921450839641 -0.46710015992857101 0 0.25134090353478428 -0.44885081937071208 0 0.26575548640993091 -0.45352614212392622 0 0.24930921450839641 -0.46710015992857101 0 0.28260247713290082 -0.46015334445387018 0 0.26575548640993091 -0.45352614212392622 0 0.26389973928161531 -0.47149079180755982 0 0.28260247713290082 -0.46015334445387018 0 0.27655377351762539 -0.48009451981944218 0 0.26389973928161531 -0.47149079180755982 0 0.27655377351762539 -0.48009451981944218 0 0.25522710199184429 -0.48817574149464371 0 0.26389973928161531 -0.47149079180755982 0 0.25522710199184429 -0.48817574149464371 0 0.24930921450839641 -0.46710015992857101 0 0.27655377351762539 -0.48009451981944218 0 0.26389973928161531 -0.47149079180755982 0 0.25522710199184429 -0.48817574149464371 0 0.27655377351762539 -0.48009451981944218 0 0.26437311946343928 -0.5 0 0.25522710199184429 -0.48817574149464371 0 0.26437311946343928 -0.5 0 0.25522710199184429 -0.48817574149464371 0 0.23523312127002391 -0.49999999999999961 0 0.27655377351762539 -0.48009451981944218 0 0.26437311946343928 -0.5 0 0.29351311765685489 -0.5 0 0.27655377351762539 -0.48009451981944218 0 0.29351311765685489 -0.5 0 0.29788044504340672 -0.47201329814424059 0 0.28260247713290082 -0.46015334445387018 0 0.27655377351762539 -0.48009451981944218 0 0.29788044504340672 -0.47201329814424059 0 0.27655377351762539 -0.48009451981944218 0 0.29788044504340672 -0.47201329814424059 0 0.31802578941731752 -0.47002029016630098 0 0.29788044504340672 -0.47201329814424059 0 0.30805942879379578 -0.48705355360077629 0 0.29351311765685489 -0.5 0 0.29788044504340672 -0.47201329814424059 0 0.30805942879379578 -0.48705355360077629 0 0.32265311585027051 -0.5 0 0.29351311765685489 -0.5 0 0.30805942879379578 -0.48705355360077629 0 0.32937120455532798 -0.29356757227250257 0 0.34041984873491332 -0.28996303026128911 0 0.33354875531520328 -0.2812494184283757 0 0.32937120455532798 -0.29356757227250257 0 0.32156217263547748 -0.28348608452119728 0 0.33354875531520328 -0.2812494184283757 0 0.34041984873491332 -0.28996303026128911 0 0.33354875531520328 -0.2812494184283757 0 0.34629278056565138 -0.27841974742081899 0 0.34041984873491332 -0.28996303026128911 0 0.33858562350784971 -0.30049504549570588 0 0.34899064409903868 -0.29862490235308592 0 0.32937120455532798 -0.29356757227250257 0 0.34041984873491332 -0.28996303026128911 0 0.33858562350784971 -0.30049504549570588 0 0.32937120455532798 -0.29356757227250257 0 0.33858562350784971 -0.30049504549570588 0 0.33429617221114921 -0.31118744730430881 0 0.33858562350784971 -0.30049504549570588 0 0.33429617221114921 -0.31118744730430881 0 0.33858562350784971 -0.30049504549570588 0 0.33429617221114921 -0.31118744730430881 0 0.34901654471061161 -0.30920364754580409 0 0.33429617221114921 -0.31118744730430881 0 0.31499245952604837 -0.30008270716249469 0 0.33429617221114921 -0.31118744730430881 0 0.31499245952604837 -0.30008270716249469 0 0.31221287158476668 -0.31572509813431959 0 0.32937120455532798 -0.29356757227250257 0 0.33429617221114921 -0.31118744730430881 0 0.31499245952604837 -0.30008270716249469 0 0.32937120455532798 -0.29356757227250257 0 0.31499245952604837 -0.30008270716249469 0 0.32156217263547748 -0.28348608452119728 0 0.31499245952604837 -0.30008270716249469 0 0.32156217263547748 -0.28348608452119728 0 0.30877013162655897 -0.28856868190066992 0 0.32156217263547748 -0.28348608452119728 0 0.31827924158274079 -0.26886432033666879 0 0.30877013162655897 -0.28856868190066992 0 0.31827924158274079 -0.26886432033666879 0 0.32775662081121021 -0.27352008856778448 0 0.32721965822474391 -0.26235115795146768 0 0.32156217263547748 -0.28348608452119728 0 0.31827924158274079 -0.26886432033666879 0 0.32775662081121021 -0.27352008856778448 0 0.32156217263547748 -0.28348608452119728 0 0.32775662081121021 -0.27352008856778448 0 0.33354875531520328 -0.2812494184283757 0 0.30942400473984011 -0.24791929280762351 0 0.3147876720107684 -0.24864408783740111 0 0.31394678997725278 -0.25587984262193197 0 0.3175488369447057 -0.25226417471789492 0 0.31394678997725278 -0.25587984262193197 0 0.32467888858373561 -0.2537804604895571 0 0.3147876720107684 -0.24864408783740111 0 0.3175488369447057 -0.25226417471789492 0 0.31394678997725278 -0.25587984262193197 0 0.3175488369447057 -0.25226417471789492 0 0.31394678997725278 -0.25587984262193197 0 0.31827924158274079 -0.26886432033666879 0 0.31394678997725278 -0.25587984262193197 0 0.32721965822474391 -0.26235115795146768 0 0.31394678997725278 -0.25587984262193197 0 0.32721965822474391 -0.26235115795146768 0 0.31394678997725278 -0.25587984262193197 0 0.32721965822474391 -0.26235115795146768 0 0.32467888858373561 -0.2537804604895571 0 0.32267276988329452 -0.2467724474561564 0 0.3175488369447057 -0.25226417471789492 0 0.32467888858373561 -0.2537804604895571 0 0.34367348492505478 -0.24622148262240881 0 0.33697261501345538 -0.25788496782473391 0 0.34951652513538572 -0.26351092456393671 0 0.33232483153245829 -0.24870480560670541 0 0.32467888858373561 -0.2537804604895571 0 0.33697261501345538 -0.25788496782473391 0 0.32721965822474391 -0.26235115795146768 0 0.32467888858373561 -0.2537804604895571 0 0.33697261501345538 -0.25788496782473391 0 0.32721965822474391 -0.26235115795146768 0 0.33697261501345538 -0.25788496782473391 0 0.33725271645006838 -0.27010654911905108 0 0.33697261501345538 -0.25788496782473391 0 0.33725271645006838 -0.27010654911905108 0 0.34951652513538572 -0.26351092456393671 0 0.33232483153245829 -0.24870480560670541 0 0.34367348492505478 -0.24622148262240881 0 0.33697261501345538 -0.25788496782473391 0 0.32775662081121021 -0.27352008856778448 0 0.33354875531520328 -0.2812494184283757 0 0.33725271645006838 -0.27010654911905108 0 0.32775662081121021 -0.27352008856778448 0 0.32721965822474391 -0.26235115795146768 0 0.33725271645006838 -0.27010654911905108 0 0.33354875531520328 -0.2812494184283757 0 0.33725271645006838 -0.27010654911905108 0 0.34629278056565138 -0.27841974742081899 0 0.34629278056565138 -0.27841974742081899 0 0.35866721197891888 -0.27961099665276162 0 0.34951652513538572 -0.26351092456393671 0 0.35866721197891888 -0.27961099665276162 0 0.34951652513538572 -0.26351092456393671 0 0.36362775543106152 -0.26359006963865522 0 0.33725271645006838 -0.27010654911905108 0 0.34629278056565138 -0.27841974742081899 0 0.34951652513538572 -0.26351092456393671 0 0.34367348492505478 -0.24622148262240881 0 0.34951652513538572 -0.26351092456393671 0 0.35824633897630531 -0.25042917759838351 0 0.34951652513538572 -0.26351092456393671 0 0.35824633897630531 -0.25042917759838351 0 0.36362775543106152 -0.26359006963865522 0 0.37531286046986467 -0.24987446479765299 0 0.35824633897630531 -0.25042917759838351 0 0.36362775543106152 -0.26359006963865522 0 0.37531286046986467 -0.24987446479765299 0 0.37545665948974949 -0.27586083033512948 0 0.36362775543106152 -0.26359006963865522 0 0.37545665948974949 -0.27586083033512948 0 0.35866721197891888 -0.27961099665276162 0 0.36807010847064242 -0.28770010135952812 0 0.37545665948974949 -0.27586083033512948 0 0.35866721197891888 -0.27961099665276162 0 0.36362775543106152 -0.26359006963865522 0 0.37768028602440051 -0.29043159680507991 0 0.37545665948974949 -0.27586083033512948 0 0.36807010847064242 -0.28770010135952812 0 0.37768028602440051 -0.29043159680507991 0 0.36807010847064242 -0.28770010135952812 0 0.36920861138200428 -0.29746398913192079 0 0.37615535161186081 -0.29925419429213179 0 0.37768028602440051 -0.29043159680507991 0 0.36920861138200428 -0.29746398913192079 0 0.36807010847064242 -0.28770010135952812 0 0.35933777347813861 -0.2951330938727485 0 0.36920861138200428 -0.29746398913192079 0 0.35866721197891888 -0.27961099665276162 0 0.36807010847064242 -0.28770010135952812 0 0.35933777347813861 -0.2951330938727485 0 0.34629278056565138 -0.27841974742081899 0 0.35866721197891888 -0.27961099665276162 0 0.3505998515180333 -0.28862581529109799 0 0.35866721197891888 -0.27961099665276162 0 0.35933777347813861 -0.2951330938727485 0 0.3505998515180333 -0.28862581529109799 0 0.35933777347813861 -0.2951330938727485 0 0.3505998515180333 -0.28862581529109799 0 0.34899064409903868 -0.29862490235308592 0 0.34041984873491332 -0.28996303026128911 0 0.3505998515180333 -0.28862581529109799 0 0.34899064409903868 -0.29862490235308592 0 0.34041984873491332 -0.28996303026128911 0 0.34629278056565138 -0.27841974742081899 0 0.3505998515180333 -0.28862581529109799 0 0.33858562350784971 -0.30049504549570588 0 0.34901654471061161 -0.30920364754580409 0 0.34899064409903868 -0.29862490235308592 0 0.35933777347813861 -0.2951330938727485 0 0.34899064409903868 -0.29862490235308592 0 0.35728595272465619 -0.30492435676375601 0 0.34901654471061161 -0.30920364754580409 0 0.34899064409903868 -0.29862490235308592 0 0.35728595272465619 -0.30492435676375601 0 0.34901654471061161 -0.30920364754580409 0 0.35735131375917301 -0.31167178562650572 0 0.35728595272465619 -0.30492435676375601 0 0.35728595272465619 -0.30492435676375601 0 0.36643895361156348 -0.30850438694175508 0 0.36399210249426911 -0.30236625930259908 0 0.35735131375917301 -0.31167178562650572 0 0.35728595272465619 -0.30492435676375601 0 0.36643895361156348 -0.30850438694175508 0 0.36643895361156348 -0.30850438694175508 0 0.36399210249426911 -0.30236625930259908 0 0.37029698084284601 -0.30336802444625133 0 0.35933777347813861 -0.2951330938727485 0 0.36399210249426911 -0.30236625930259908 0 0.36920861138200428 -0.29746398913192079 0 0.35933777347813861 -0.2951330938727485 0 0.35728595272465619 -0.30492435676375601 0 0.36399210249426911 -0.30236625930259908 0 0.37623316835783699 -0.308743491446899 0 0.37615535161186081 -0.29925419429213179 0 0.37029698084284601 -0.30336802444625133 0 0.36399210249426911 -0.30236625930259908 0 0.36920861138200428 -0.29746398913192079 0 0.37029698084284601 -0.30336802444625133 0 0.37615535161186081 -0.29925419429213179 0 0.36920861138200428 -0.29746398913192079 0 0.37029698084284601 -0.30336802444625133 0 0.37623316835783699 -0.308743491446899 0 0.36643895361156348 -0.30850438694175508 0 0.37029698084284601 -0.30336802444625133 0 0.38094579558661268 -0.31260612297230789 0 0.37623316835783699 -0.308743491446899 0 0.36023302979724792 -0.3261080000646685 0 0.37623316835783699 -0.308743491446899 0 0.36023302979724792 -0.3261080000646685 0 0.35666380398986042 -0.32405475125470801 0 0.38094579558661268 -0.31260612297230789 0 0.36023302979724792 -0.3261080000646685 0 0.37623316835783699 -0.308743491446899 0 0.35666380398986042 -0.32405475125470801 0 0.3782417479285734 -0.33646777584448001 0 0.38094579558661268 -0.31260612297230789 0 0.36023302979724792 -0.3261080000646685 0 0.37623316835783699 -0.308743491446899 0 0.36643895361156348 -0.30850438694175508 0 0.35666380398986042 -0.32405475125470801 0 0.35735131375917301 -0.31167178562650572 0 0.36643895361156348 -0.30850438694175508 0 0.35666380398986042 -0.32405475125470801 0 0.3782417479285734 -0.33646777584448001 0 0.35521795617608221 -0.34794735182402842 0 0.3782417479285734 -0.33646777584448001 0 0.36023302979724792 -0.3261080000646685 0 0.35521795617608221 -0.34794735182402842 0 0.3782417479285734 -0.33646777584448001 0 0.36023302979724792 -0.3261080000646685 0 0.36023302979724792 -0.3261080000646685 0 0.35163659631293509 -0.32798808712611632 0 0.33861976612739458 -0.34019687803503817 0 0.36023302979724792 -0.3261080000646685 0 0.33861976612739458 -0.34019687803503817 0 0.36023302979724792 -0.3261080000646685 0 0.35521795617608221 -0.34794735182402842 0 0.33861976612739458 -0.34019687803503817 0 0.33429617221114921 -0.31118744730430881 0 0.35666380398986042 -0.32405475125470801 0 0.33429617221114921 -0.31118744730430881 0 0.35666380398986042 -0.32405475125470801 0 0.35163659631293509 -0.32798808712611632 0 0.33429617221114921 -0.31118744730430881 0 0.34901654471061161 -0.30920364754580409 0 0.35666380398986042 -0.32405475125470801 0 0.34901654471061161 -0.30920364754580409 0 0.35735131375917301 -0.31167178562650572 0 0.35666380398986042 -0.32405475125470801 0 0.36023302979724792 -0.3261080000646685 0 0.35666380398986042 -0.32405475125470801 0 0.35163659631293509 -0.32798808712611632 0 0.36023302979724792 -0.3261080000646685 0 0.35666380398986042 -0.32405475125470801 0 0.35666380398986042 -0.32405475125470801 0 0.35163659631293509 -0.32798808712611632 0 0.37555041745191192 -0.36021720696395498 0 0.37272962845428481 -0.38510903447554901 0 0.37555041745191192 -0.36021720696395498 0 0.37272962845428481 -0.38510903447554901 0 0.36020787325972198 -0.36312398923595202 0 0.37555041745191192 -0.36021720696395498 0 0.36020787325972198 -0.36312398923595202 0 0.3782417479285734 -0.33646777584448001 0 0.37112269218306859 -0.34768823986667591 0 0.35521795617608221 -0.34794735182402842 0 0.36020787325972198 -0.36312398923595202 0 0.37112269218306859 -0.34768823986667591 0 0.35521795617608221 -0.34794735182402842 0 0.37555041745191192 -0.36021720696395498 0 0.3782417479285734 -0.33646777584448001 0 0.37112269218306859 -0.34768823986667591 0 0.37555041745191192 -0.36021720696395498 0 0.36020787325972198 -0.36312398923595202 0 0.37112269218306859 -0.34768823986667591 0 0.35521795617608221 -0.34794735182402842 0 0.33319244651603291 -0.36000120402731173 0 0.35521795617608221 -0.34794735182402842 0 0.34690135254354199 -0.35966623125557751 0 0.33319244651603291 -0.36000120402731173 0 0.36020787325972198 -0.36312398923595202 0 0.35521795617608221 -0.34794735182402842 0 0.34690135254354199 -0.35966623125557751 0 0.35018633341644823 -0.38256531576335501 0 0.36020787325972198 -0.36312398923595202 0 0.33551852810642863 -0.36768194365085621 0 0.36020787325972198 -0.36312398923595202 0 0.34690135254354199 -0.35966623125557751 0 0.33551852810642863 -0.36768194365085621 0 0.36020787325972198 -0.36312398923595202 0 0.33551852810642863 -0.36768194365085621 0 0.34690135254354199 -0.35966623125557751 0 0.33551852810642863 -0.36768194365085621 0 0.33319244651603291 -0.36000120402731173 0 0.33319244651603291 -0.36000120402731173 0 0.31700650245753981 -0.35428575600540552 0 0.33861976612739458 -0.34019687803503817 0 0.35521795617608221 -0.34794735182402842 0 0.33319244651603291 -0.36000120402731173 0 0.33861976612739458 -0.34019687803503817 0 0.31700650245753981 -0.35428575600540552 0 0.33861976612739458 -0.34019687803503817 0 0.33319244651603291 -0.36000120402731173 0 0.31700650245753981 -0.35428575600540552 0 0.31082918295313522 -0.3722398980657603 0 0.33319244651603291 -0.36000120402731173 0 0.31082918295313522 -0.3722398980657603 0 0.33551852810642863 -0.36768194365085621 0 0.31082918295313522 -0.3722398980657603 0 0.31700650245753981 -0.35428575600540552 0 0.31082918295313522 -0.3722398980657603 0 0.33551852810642863 -0.36768194365085621 0 0.33319244651603291 -0.36000120402731173 0 0.31082918295313522 -0.3722398980657603 0 0.33429617221114921 -0.31118744730430881 0 0.33773245662390489 -0.32723455857193612 0 0.32565133733434293 -0.33273660165485658 0 0.33429617221114921 -0.31118744730430881 0 0.32565133733434293 -0.33273660165485658 0 0.33429617221114921 -0.31118744730430881 0 0.35163659631293509 -0.32798808712611632 0 0.33773245662390489 -0.32723455857193612 0 0.35163659631293509 -0.32798808712611632 0 0.33773245662390489 -0.32723455857193612 0 0.33861976612739458 -0.34019687803503817 0 0.33773245662390489 -0.32723455857193612 0 0.33861976612739458 -0.34019687803503817 0 0.32565133733434293 -0.33273660165485658 0 0.31700650245753981 -0.35428575600540552 0 0.33861976612739458 -0.34019687803503817 0 0.32565133733434293 -0.33273660165485658 0 0.31700650245753981 -0.35428575600540552 0 0.32565133733434293 -0.33273660165485658 0 0.31700650245753981 -0.35428575600540552 0 0.32565133733434293 -0.33273660165485658 0 0.30326292092262808 -0.33307717548401128 0 0.33429617221114921 -0.31118744730430881 0 0.32565133733434293 -0.33273660165485658 0 0.31221287158476668 -0.31572509813431959 0 0.32565133733434293 -0.33273660165485658 0 0.31221287158476668 -0.31572509813431959 0 0.30326292092262808 -0.33307717548401128 0 0.31221287158476668 -0.31572509813431959 0 0.30326292092262808 -0.33307717548401128 0 0.29561248410495011 -0.314543505935172 0 0.30326292092262808 -0.33307717548401128 0 0.29250755042199039 -0.33722441417245669 0 0.28959715963274468 -0.32694875488549369 0 0.29250755042199039 -0.33722441417245669 0 0.28206129021142451 -0.33678658675399059 0 0.29409358265851099 -0.34837315141010838 0 0.30326292092262808 -0.33307717548401128 0 0.29250755042199039 -0.33722441417245669 0 0.29409358265851099 -0.34837315141010838 0 0.28206129021142451 -0.33678658675399059 0 0.28959715963274468 -0.32694875488549369 0 0.27911965096449692 -0.32663957177979502 0 0.29250755042199039 -0.33722441417245669 0 0.28206129021142451 -0.33678658675399059 0 0.28959715963274468 -0.32694875488549369 0 0.28162770293759393 -0.31526865195757747 0 0.28959715963274468 -0.32694875488549369 0 0.27911965096449692 -0.32663957177979502 0 0.30326292092262808 -0.33307717548401128 0 0.29561248410495011 -0.314543505935172 0 0.28959715963274468 -0.32694875488549369 0 0.28162770293759393 -0.31526865195757747 0 0.29561248410495011 -0.314543505935172 0 0.28916141036947712 -0.30775901730778421 0 0.28162770293759393 -0.31526865195757747 0 0.29561248410495011 -0.314543505935172 0 0.28959715963274468 -0.32694875488549369 0 0.31700650245753981 -0.35428575600540552 0 0.31082918295313522 -0.3722398980657603 0 0.29901429304391319 -0.36601420418047098 0 0.31700650245753981 -0.35428575600540552 0 0.29901429304391319 -0.36601420418047098 0 0.29755842198186622 -0.37468984249249881 0 0.31082918295313522 -0.3722398980657603 0 0.29901429304391319 -0.36601420418047098 0 0.29755842198186622 -0.37468984249249881 0 0.29901429304391319 -0.36601420418047098 0 0.2959256332917109 -0.37499127521064868 0 0.29755842198186622 -0.37468984249249881 0 0.31082918295313522 -0.3722398980657603 0 0.31700650245753981 -0.35428575600540552 0 0.30326292092262808 -0.33307717548401128 0 0.29409358265851099 -0.34837315141010838 0 0.31700650245753981 -0.35428575600540552 0 0.29901429304391319 -0.36601420418047098 0 0.29409358265851099 -0.34837315141010838 0 0.29901429304391319 -0.36601420418047098 0 0.29409358265851099 -0.34837315141010838 0 0.2794576020296064 -0.35853764571196017 0 0.28206129021142451 -0.33678658675399059 0 0.29409358265851099 -0.34837315141010838 0 0.27383657503237518 -0.34610996619317091 0 0.29409358265851099 -0.34837315141010838 0 0.2794576020296064 -0.35853764571196017 0 0.27383657503237518 -0.34610996619317091 0 0.28102208363028658 -0.37774265235553639 0 0.29901429304391319 -0.36601420418047098 0 0.28102208363028658 -0.37774265235553639 0 0.29901429304391319 -0.36601420418047098 0 0.2794576020296064 -0.35853764571196017 0 0.28102208363028658 -0.37774265235553639 0 0.29901429304391319 -0.36601420418047098 0 0.2959256332917109 -0.37499127521064868 0 0.29755842198186622 -0.37468984249249881 0 0.2959256332917109 -0.37499127521064868 0 0.28102208363028658 -0.37774265235553639 0 0.2794576020296064 -0.35853764571196017 0 0.26222761477459888 -0.35882443552353022 0 0.2794576020296064 -0.35853764571196017 0 0.27383657503237518 -0.34610996619317091 0 0.26222761477459888 -0.35882443552353022 0 0.27383657503237518 -0.34610996619317091 0 0.26222761477459888 -0.35882443552353022 0 0.25702120292550462 -0.3423883390166238 0 0.26222761477459888 -0.35882443552353022 0 0.25702120292550462 -0.3423883390166238 0 0.24321093863438761 -0.35547977247107759 0 0.28102208363028658 -0.37774265235553639 0 0.25308564744576267 -0.38290005940110028 0 0.26222761477459888 -0.35882443552353022 0 0.25308564744576267 -0.38290005940110028 0 0.26222761477459888 -0.35882443552353022 0 0.24321093863438761 -0.35547977247107759 0 0.27015569815696949 -0.32212878514038462 0 0.27911965096449692 -0.32663957177979502 0 0.27063530361028892 -0.33352252450814052 0 0.27015569815696949 -0.32212878514038462 0 0.26591514460186921 -0.31671532719686052 0 0.26179254157286708 -0.32236541147893399 0 0.27015569815696949 -0.32212878514038462 0 0.26591514460186921 -0.31671532719686052 0 0.27319725409894269 -0.31338319332279863 0 0.28162770293759393 -0.31526865195757747 0 0.27015569815696949 -0.32212878514038462 0 0.27319725409894269 -0.31338319332279863 0 0.28162770293759393 -0.31526865195757747 0 0.27319725409894269 -0.31338319332279863 0 0.27753748929551919 -0.30994002779009611 0 0.28162770293759393 -0.31526865195757747 0 0.27015569815696949 -0.32212878514038462 0 0.27911965096449692 -0.32663957177979502 0 0.27383657503237518 -0.34610996619317091 0 0.27063530361028892 -0.33352252450814052 0 0.25702120292550462 -0.3423883390166238 0 0.28206129021142451 -0.33678658675399059 0 0.27911965096449692 -0.32663957177979502 0 0.27063530361028892 -0.33352252450814052 0 0.28206129021142451 -0.33678658675399059 0 0.27383657503237518 -0.34610996619317091 0 0.27063530361028892 -0.33352252450814052 0 0.27015569815696949 -0.32212878514038462 0 0.27063530361028892 -0.33352252450814052 0 0.25993173606879411 -0.32931543648993122 0 0.27063530361028892 -0.33352252450814052 0 0.25993173606879411 -0.32931543648993122 0 0.25702120292550462 -0.3423883390166238 0 0.25993173606879411 -0.32931543648993122 0 0.25702120292550462 -0.3423883390166238 0 0.2497284165054432 -0.3313123362121293 0 0.25993173606879411 -0.32931543648993122 0 0.25100228919179191 -0.3216466835579771 0 0.2497284165054432 -0.3313123362121293 0 0.25100228919179191 -0.3216466835579771 0 0.27342793998877479 -0.3040525624842077 0 0.25993173606879411 -0.32931543648993122 0 0.25100228919179191 -0.3216466835579771 0 0.26179254157286708 -0.32236541147893399 0 0.26591514460186921 -0.31671532719686052 0 0.25100228919179191 -0.3216466835579771 0 0.27342793998877479 -0.3040525624842077 0 0.25100228919179191 -0.3216466835579771 0 0.25681293132885469 -0.31322974972069573 0 0.27342793998877479 -0.3040525624842077 0 0.27015569815696949 -0.32212878514038462 0 0.25993173606879411 -0.32931543648993122 0 0.26179254157286708 -0.32236541147893399 0 0.26591514460186921 -0.31671532719686052 0 0.25100228919179191 -0.3216466835579771 0 0.26179254157286708 -0.32236541147893399 0 0.25100228919179191 -0.3216466835579771 0 0.25681293132885469 -0.31322974972069573 0 0.24385945988845451 -0.3133687848967831 0 0.25681293132885469 -0.31322974972069573 0 0.2523325281405242 -0.30016937343739369 0 0.24385945988845451 -0.3133687848967831 0 0.25681293132885469 -0.31322974972069573 0 0.2523325281405242 -0.30016937343739369 0 0.26011711575778018 -0.30228176581067051 0 0.26011711575778018 -0.30228176581067051 0 0.26226674435160169 -0.29478781569609241 0 0.26905625921014009 -0.30094012438850037 0 0.2523325281405242 -0.30016937343739369 0 0.26011711575778018 -0.30228176581067051 0 0.26226674435160169 -0.29478781569609241 0 0.25681293132885469 -0.31322974972069573 0 0.26011711575778018 -0.30228176581067051 0 0.26905625921014009 -0.30094012438850037 0 0.25681293132885469 -0.31322974972069573 0 0.26905625921014009 -0.30094012438850037 0 0.2523325281405242 -0.30016937343739369 0 0.26226674435160169 -0.29478781569609241 0 0.25817131849612163 -0.28271298682077362 0 0.26226674435160169 -0.29478781569609241 0 0.25817131849612163 -0.28271298682077362 0 0.26902137982127527 -0.28859723301488821 0 0.25817131849612163 -0.28271298682077362 0 0.26902137982127527 -0.28859723301488821 0 0.27389500375555642 -0.27249729697611169 0 0.26902137982127527 -0.28859723301488821 0 0.28136376402809421 -0.28871443422575183 0 0.27389500375555642 -0.27249729697611169 0 0.26226674435160169 -0.29478781569609241 0 0.26902137982127527 -0.28859723301488821 0 0.26905625921014009 -0.30094012438850037 0 0.26902137982127527 -0.28859723301488821 0 0.26905625921014009 -0.30094012438850037 0 0.28136376402809421 -0.28871443422575183 0 0.26905625921014009 -0.30094012438850037 0 0.28136376402809421 -0.28871443422575183 0 0.25681293132885469 -0.31322974972069573 0 0.27342793998877479 -0.3040525624842077 0 0.26905625921014009 -0.30094012438850037 0 0.26591514460186921 -0.31671532719686052 0 0.27319725409894269 -0.31338319332279863 0 0.27342793998877479 -0.3040525624842077 0 0.27342793998877479 -0.3040525624842077 0 0.26905625921014009 -0.30094012438850037 0 0.28136376402809421 -0.28871443422575183 0 0.28162770293759393 -0.31526865195757747 0 0.27753748929551919 -0.30994002779009611 0 0.28189706015676552 -0.30705570339580063 0 0.27319725409894269 -0.31338319332279863 0 0.27342793998877479 -0.3040525624842077 0 0.27753748929551919 -0.30994002779009611 0 0.27342793998877479 -0.3040525624842077 0 0.27753748929551919 -0.30994002779009611 0 0.28189706015676552 -0.30705570339580063 0 0.28162770293759393 -0.31526865195757747 0 0.28189706015676552 -0.30705570339580063 0 0.28916141036947712 -0.30775901730778421 0 0.27342793998877479 -0.3040525624842077 0 0.28189706015676552 -0.30705570339580063 0 0.2891656030791494 -0.2991136239856842 0 0.29561248410495011 -0.314543505935172 0 0.28916141036947712 -0.30775901730778421 0 0.29946185540948389 -0.30272315126507532 0 0.2891656030791494 -0.2991136239856842 0 0.29568874684094743 -0.2889779670206809 0 0.29946185540948389 -0.30272315126507532 0 0.28916141036947712 -0.30775901730778421 0 0.2891656030791494 -0.2991136239856842 0 0.29946185540948389 -0.30272315126507532 0 0.28189706015676552 -0.30705570339580063 0 0.28916141036947712 -0.30775901730778421 0 0.2891656030791494 -0.2991136239856842 0 0.27342793998877479 -0.3040525624842077 0 0.2891656030791494 -0.2991136239856842 0 0.29585359078575779 -0.2864584414104383 0 0.28136376402809421 -0.28871443422575183 0 0.29585359078575779 -0.2864584414104383 0 0.29762318853433922 -0.2722651708391185 0 0.27342793998877479 -0.3040525624842077 0 0.29585359078575779 -0.2864584414104383 0 0.27342793998877479 -0.3040525624842077 0 0.28136376402809421 -0.28871443422575183 0 0.29585359078575779 -0.2864584414104383 0 0.2891656030791494 -0.2991136239856842 0 0.29585359078575779 -0.2864584414104383 0 0.29568874684094743 -0.2889779670206809 0 0.31499245952604837 -0.30008270716249469 0 0.29568874684094743 -0.2889779670206809 0 0.31499245952604837 -0.30008270716249469 0 0.29568874684094743 -0.2889779670206809 0 0.30877013162655897 -0.28856868190066992 0 0.31827924158274079 -0.26886432033666879 0 0.29585359078575779 -0.2864584414104383 0 0.30877013162655897 -0.28856868190066992 0 0.29585359078575779 -0.2864584414104383 0 0.29568874684094743 -0.2889779670206809 0 0.30877013162655897 -0.28856868190066992 0 0.31499245952604837 -0.30008270716249469 0 0.31221287158476668 -0.31572509813431959 0 0.29946185540948389 -0.30272315126507532 0 0.31499245952604837 -0.30008270716249469 0 0.29568874684094743 -0.2889779670206809 0 0.29946185540948389 -0.30272315126507532 0 0.31221287158476668 -0.31572509813431959 0 0.29561248410495011 -0.314543505935172 0 0.29946185540948389 -0.30272315126507532 0 0.30289524504637388 -0.25049155496679232 0 0.29762318853433922 -0.2722651708391185 0 0.29212950453723341 -0.26960299459627168 0 0.31394678997725278 -0.25587984262193197 0 0.29762318853433922 -0.2722651708391185 0 0.31394678997725278 -0.25587984262193197 0 0.30289524504637388 -0.25049155496679232 0 0.29762318853433922 -0.2722651708391185 0 0.30289524504637388 -0.25049155496679232 0 0.29212950453723341 -0.26960299459627168 0 0.30942400473984011 -0.24791929280762351 0 0.31394678997725278 -0.25587984262193197 0 0.30289524504637388 -0.25049155496679232 0 0.31394678997725278 -0.25587984262193197 0 0.30289524504637388 -0.25049155496679232 0 0.31827924158274079 -0.26886432033666879 0 0.29585359078575779 -0.2864584414104383 0 0.29762318853433922 -0.2722651708391185 0 0.31827924158274079 -0.26886432033666879 0 0.29585359078575779 -0.2864584414104383 0 0.31827924158274079 -0.26886432033666879 0 0.31394678997725278 -0.25587984262193197 0 0.29762318853433922 -0.2722651708391185 0 0.28136376402809421 -0.28871443422575183 0 0.29212950453723341 -0.26960299459627168 0 0.28136376402809421 -0.28871443422575183 0 0.29212950453723341 -0.26960299459627168 0 0.27389500375555642 -0.27249729697611169 0 0.28136376402809421 -0.28871443422575183 0 0.29762318853433922 -0.2722651708391185 0 0.29212950453723341 -0.26960299459627168 0 0.28136376402809421 -0.28871443422575183 0 0.29762318853433922 -0.2722651708391185 0 0.29212950453723341 -0.26960299459627168 0 0.2834190991258092 -0.25674022588224432 0 0.27389500375555642 -0.27249729697611169 0 0.30289524504637388 -0.25049155496679232 0 0.29212950453723341 -0.26960299459627168 0 0.2834190991258092 -0.25674022588224432 0 0.2834190991258092 -0.25674022588224432 0 0.27389500375555642 -0.27249729697611169 0 0.26171421693634811 -0.25738026262620378 0 0.27968086461721231 -0.23917315918859991 0 0.2834190991258092 -0.25674022588224432 0 0.26171421693634811 -0.25738026262620378 0 0.25817131849612163 -0.28271298682077362 0 0.27389500375555642 -0.27249729697611169 0 0.26171421693634811 -0.25738026262620378 0 0.25817131849612163 -0.28271298682077362 0 0.26171421693634811 -0.25738026262620378 0 0.2381350454956182 -0.27675285790082932 0 0.26171421693634811 -0.25738026262620378 0 0.23617547327348351 -0.25594095147207307 0 0.2381350454956182 -0.27675285790082932 0 0.26171421693634811 -0.25738026262620378 0 0.23617547327348351 -0.25594095147207307 0 0.24172280262944201 -0.23911909159452521 0 0.2381350454956182 -0.27675285790082932 0 0.21820320670320331 -0.25994355100239708 0 0.21676342433312459 -0.27872832962805438 0 0.23617547327348351 -0.25594095147207307 0 0.2381350454956182 -0.27675285790082932 0 0.21820320670320331 -0.25994355100239708 0 0.23617547327348351 -0.25594095147207307 0 0.21820320670320331 -0.25994355100239708 0 0.2210057349904386 -0.23788311283172689 0 0.21820320670320331 -0.25994355100239708 0 0.21676342433312459 -0.27872832962805438 0 0.19204114114371271 -0.26754119123636239 0 0.21676342433312459 -0.27872832962805438 0 0.19204114114371271 -0.26754119123636239 0 0.2023048731906919 -0.29285785068472808 0 0.19204114114371271 -0.26754119123636239 0 0.17509037416051099 -0.25355722264805808 0 0.1984659880394421 -0.24764077805753781 0 0.21820320670320331 -0.25994355100239708 0 0.19204114114371271 -0.26754119123636239 0 0.1984659880394421 -0.24764077805753781 0 0.2023048731906919 -0.29285785068472808 0 0.2096039515251103 -0.31172852635506432 0 0.23388763501061591 -0.29722075658791891 0 0.21676342433312459 -0.27872832962805438 0 0.2023048731906919 -0.29285785068472808 0 0.23388763501061591 -0.29722075658791891 0 0.2023048731906919 -0.29285785068472808 0 0.2096039515251103 -0.31172852635506432 0 0.18647710675957699 -0.30452272423227872 0 0.19204114114371271 -0.26754119123636239 0 0.2023048731906919 -0.29285785068472808 0 0.18021168253197539 -0.28543397759148331 0 0.2023048731906919 -0.29285785068472808 0 0.18021168253197539 -0.28543397759148331 0 0.18647710675957699 -0.30452272423227872 0 0.2096039515251103 -0.31172852635506432 0 0.23388763501061591 -0.29722075658791891 0 0.2096039515251103 -0.31172852635506432 0 0.23388763501061591 -0.29722075658791891 0 0.22928511772155069 -0.32234590184858808 0 0.2381350454956182 -0.27675285790082932 0 0.21676342433312459 -0.27872832962805438 0 0.23388763501061591 -0.29722075658791891 0 0.25817131849612163 -0.28271298682077362 0 0.23388763501061591 -0.29722075658791891 0 0.2523325281405242 -0.30016937343739369 0 0.25817131849612163 -0.28271298682077362 0 0.23388763501061591 -0.29722075658791891 0 0.25817131849612163 -0.28271298682077362 0 0.2381350454956182 -0.27675285790082932 0 0.23388763501061591 -0.29722075658791891 0 0.23388763501061591 -0.29722075658791891 0 0.24385945988845451 -0.3133687848967831 0 0.22928511772155069 -0.32234590184858808 0 0.2523325281405242 -0.30016937343739369 0 0.23388763501061591 -0.29722075658791891 0 0.24385945988845451 -0.3133687848967831 0 0.25100228919179191 -0.3216466835579771 0 0.24385945988845451 -0.3133687848967831 0 0.2429451759421952 -0.32525693685669332 0 0.24385945988845451 -0.3133687848967831 0 0.2429451759421952 -0.32525693685669332 0 0.22928511772155069 -0.32234590184858808 0 0.25100228919179191 -0.3216466835579771 0 0.2429451759421952 -0.32525693685669332 0 0.2497284165054432 -0.3313123362121293 0 0.25702120292550462 -0.3423883390166238 0 0.2497284165054432 -0.3313123362121293 0 0.24085059640373579 -0.33761097776798898 0 0.2429451759421952 -0.32525693685669332 0 0.2497284165054432 -0.3313123362121293 0 0.24085059640373579 -0.33761097776798898 0 0.2429451759421952 -0.32525693685669332 0 0.24085059640373579 -0.33761097776798898 0 0.22928511772155069 -0.32234590184858808 0 0.24085059640373579 -0.33761097776798898 0 0.22928511772155069 -0.32234590184858808 0 0.2234832616151427 -0.34515366062779318 0 0.22928511772155069 -0.32234590184858808 0 0.2234832616151427 -0.34515366062779318 0 0.21495475217848339 -0.32962746807280968 0 0.25308564744576267 -0.38290005940110028 0 0.24321093863438761 -0.35547977247107759 0 0.22507445465726361 -0.3677740482547574 0 0.25702120292550462 -0.3423883390166238 0 0.24085059640373579 -0.33761097776798898 0 0.24321093863438761 -0.35547977247107759 0 0.24085059640373579 -0.33761097776798898 0 0.24321093863438761 -0.35547977247107759 0 0.2234832616151427 -0.34515366062779318 0 0.24321093863438761 -0.35547977247107759 0 0.2234832616151427 -0.34515366062779318 0 0.22507445465726361 -0.3677740482547574 0 0.22507445465726361 -0.3677740482547574 0 0.20237102257727271 -0.36113517763746428 0 0.20834781790869389 -0.37771272794701272 0 0.2234832616151427 -0.34515366062779318 0 0.20237102257727271 -0.36113517763746428 0 0.20202431217406441 -0.34209010834554221 0 0.2234832616151427 -0.34515366062779318 0 0.22507445465726361 -0.3677740482547574 0 0.20237102257727271 -0.36113517763746428 0 0.20237102257727271 -0.36113517763746428 0 0.20202431217406441 -0.34209010834554221 0 0.1839922564598182 -0.34829793926743419 0 0.20237102257727271 -0.36113517763746428 0 0.18109152196247469 -0.36571660373762083 0 0.1839922564598182 -0.34829793926743419 0 0.20237102257727271 -0.36113517763746428 0 0.20834781790869389 -0.37771272794701272 0 0.19193162597097979 -0.37838207390395151 0 0.20237102257727271 -0.36113517763746428 0 0.18109152196247469 -0.36571660373762083 0 0.19193162597097979 -0.37838207390395151 0 0.2096039515251103 -0.31172852635506432 0 0.22928511772155069 -0.32234590184858808 0 0.21495475217848339 -0.32962746807280968 0 0.2096039515251103 -0.31172852635506432 0 0.21495475217848339 -0.32962746807280968 0 0.1853202680396048 -0.32623629612220961 0 0.2234832616151427 -0.34515366062779318 0 0.21495475217848339 -0.32962746807280968 0 0.20202431217406441 -0.34209010834554221 0 0.20202431217406441 -0.34209010834554221 0 0.1853202680396048 -0.32623629612220961 0 0.1839922564598182 -0.34829793926743419 0 0.21495475217848339 -0.32962746807280968 0 0.20202431217406441 -0.34209010834554221 0 0.1853202680396048 -0.32623629612220961 0 0.2096039515251103 -0.31172852635506432 0 0.1853202680396048 -0.32623629612220961 0 0.18647710675957699 -0.30452272423227872 0 0.2096039515251103 -0.31172852635506432 0 0.1853202680396048 -0.32623629612220961 0 0.1853202680396048 -0.32623629612220961 0 0.16153460894358279 -0.32421354526659057 0 0.17175674089110049 -0.31196731881940082 0 0.1853202680396048 -0.32623629612220961 0 0.18647710675957699 -0.30452272423227872 0 0.17175674089110049 -0.31196731881940082 0 0.1853202680396048 -0.32623629612220961 0 0.16103658455409939 -0.34074406588935491 0 0.1853202680396048 -0.32623629612220961 0 0.16103658455409939 -0.34074406588935491 0 0.1839922564598182 -0.34829793926743419 0 0.16103658455409939 -0.34074406588935491 0 0.16153460894358279 -0.32421354526659057 0 0.1462544939662814 -0.33768554492969211 0 0.1853202680396048 -0.32623629612220961 0 0.16103658455409939 -0.34074406588935491 0 0.16153460894358279 -0.32421354526659057 0 0.16153460894358279 -0.32421354526659057 0 0.14815673439006721 -0.32271069154218729 0 0.1598166793326842 -0.31023870666465769 0 0.16153460894358279 -0.32421354526659057 0 0.17175674089110049 -0.31196731881940082 0 0.1598166793326842 -0.31023870666465769 0 0.18109152196247469 -0.36571660373762083 0 0.164196396971447 -0.37045614015311229 0 0.17546078574430801 -0.38135050424346489 0 0.18109152196247469 -0.36571660373762083 0 0.1839922564598182 -0.34829793926743419 0 0.16860971913238529 -0.35666678513893768 0 0.16103658455409939 -0.34074406588935491 0 0.16860971913238529 -0.35666678513893768 0 0.1552848557276395 -0.35972060421759061 0 0.16103658455409939 -0.34074406588935491 0 0.1839922564598182 -0.34829793926743419 0 0.16860971913238529 -0.35666678513893768 0 0.18109152196247469 -0.36571660373762083 0 0.16860971913238529 -0.35666678513893768 0 0.164196396971447 -0.37045614015311229 0 0.16860971913238529 -0.35666678513893768 0 0.164196396971447 -0.37045614015311229 0 0.1552848557276395 -0.35972060421759061 0 0.164196396971447 -0.37045614015311229 0 0.1552848557276395 -0.35972060421759061 0 0.14582867691167231 -0.37548419425004781 0 0.1552848557276395 -0.35972060421759061 0 0.13675290106859381 -0.3552518356565002 0 0.14582867691167231 -0.37548419425004781 0 0.16103658455409939 -0.34074406588935491 0 0.13675290106859381 -0.3552518356565002 0 0.1462544939662814 -0.33768554492969211 0 0.16103658455409939 -0.34074406588935491 0 0.1552848557276395 -0.35972060421759061 0 0.13675290106859381 -0.3552518356565002 0 0.16103658455409939 -0.34074406588935491 0 0.13675290106859381 -0.3552518356565002 0 0.13675290106859381 -0.3552518356565002 0 0.13025486328074379 -0.33383548688203268 0 0.1200697072631093 -0.35053784775465641 0 0.13675290106859381 -0.3552518356565002 0 0.12751598258885849 -0.37275489806000728 0 0.1124692175830892 -0.36975960542364711 0 0.13675290106859381 -0.3552518356565002 0 0.12751598258885849 -0.37275489806000728 0 0.14582867691167231 -0.37548419425004781 0 0.14815673439006721 -0.32271069154218729 0 0.1370240593699818 -0.31581174943848239 0 0.1483497233306916 -0.30923442543078927 0 0.16153460894358279 -0.32421354526659057 0 0.14815673439006721 -0.32271069154218729 0 0.1462544939662814 -0.33768554492969211 0 0.14815673439006721 -0.32271069154218729 0 0.1462544939662814 -0.33768554492969211 0 0.13025486328074379 -0.33383548688203268 0 0.13675290106859381 -0.3552518356565002 0 0.1462544939662814 -0.33768554492969211 0 0.13025486328074379 -0.33383548688203268 0 0.13025486328074379 -0.33383548688203268 0 0.1370240593699818 -0.31581174943848239 0 0.1239283851024847 -0.31562421082186892 0 0.14815673439006721 -0.32271069154218729 0 0.13025486328074379 -0.33383548688203268 0 0.1370240593699818 -0.31581174943848239 0 0.1370240593699818 -0.31581174943848239 0 0.13344425167931109 -0.3024641675786115 0 0.1239283851024847 -0.31562421082186892 0 0.13344425167931109 -0.3024641675786115 0 0.1179165457094245 -0.29941235917357728 0 0.1239283851024847 -0.31562421082186892 0 0.13344425167931109 -0.3024641675786115 0 0.1287513209415935 -0.29114423132653389 0 0.1179165457094245 -0.29941235917357728 0 0.1370240593699818 -0.31581174943848239 0 0.13344425167931109 -0.3024641675786115 0 0.1483497233306916 -0.30923442543078927 0 0.1483497233306916 -0.30923442543078927 0 0.15083897488497289 -0.29509076757563379 0 0.1420484110256722 -0.28796526442846071 0 0.14815673439006721 -0.32271069154218729 0 0.1483497233306916 -0.30923442543078927 0 0.15083897488497289 -0.29509076757563379 0 0.14815673439006721 -0.32271069154218729 0 0.15083897488497289 -0.29509076757563379 0 0.1598166793326842 -0.31023870666465769 0 0.1483497233306916 -0.30923442543078927 0 0.1420484110256722 -0.28796526442846071 0 0.13344425167931109 -0.3024641675786115 0 0.1483497233306916 -0.30923442543078927 0 0.1420484110256722 -0.28796526442846071 0 0.14815673439006721 -0.32271069154218729 0 0.15083897488497289 -0.29509076757563379 0 0.15083897488497289 -0.29509076757563379 0 0.15352121537987851 -0.26747084360908019 0 0.15083897488497289 -0.29509076757563379 0 0.1420484110256722 -0.28796526442846071 0 0.15352121537987851 -0.26747084360908019 0 0.1420484110256722 -0.28796526442846071 0 0.1287513209415935 -0.29114423132653389 0 0.1285665355501662 -0.27963149572183532 0 0.13344425167931109 -0.3024641675786115 0 0.1420484110256722 -0.28796526442846071 0 0.1287513209415935 -0.29114423132653389 0 0.13574709872065269 -0.26669610342613209 0 0.1285665355501662 -0.27963149572183532 0 0.1170682930768161 -0.26606450844549201 0 0.1420484110256722 -0.28796526442846071 0 0.13574709872065269 -0.26669610342613209 0 0.1285665355501662 -0.27963149572183532 0 0.1420484110256722 -0.28796526442846071 0 0.13574709872065269 -0.26669610342613209 0 0.13574709872065269 -0.26669610342613209 0 0.12944578641563309 -0.24542694242380381 0 0.13574709872065269 -0.26669610342613209 0 0.12944578641563309 -0.24542694242380381 0 0.13904891830873781 -0.24801723404172771 0 0.13574709872065269 -0.26669610342613209 0 0.1201509403983588 -0.25476415833570842 0 0.12944578641563309 -0.24542694242380381 0 0.13574709872065269 -0.26669610342613209 0 0.14646117842628659 -0.25326064310199847 0 0.13904891830873781 -0.24801723404172771 0 0.13574709872065269 -0.26669610342613209 0 0.14646117842628659 -0.25326064310199847 0 0.15352121537987851 -0.26747084360908019 0 0.15352121537987851 -0.26747084360908019 0 0.15620345587478421 -0.23985091964252669 0 0.14646117842628659 -0.25326064310199847 0 0.15352121537987851 -0.26747084360908019 0 0.15620345587478421 -0.23985091964252669 0 0.1420484110256722 -0.28796526442846071 0 0.13574709872065269 -0.26669610342613209 0 0.15352121537987851 -0.26747084360908019 0 0.15352121537987851 -0.26747084360908019 0 0.1718237790584915 -0.27038609488044701 0 0.16537820707203429 -0.2826105842126132 0 0.15352121537987851 -0.26747084360908019 0 0.17509037416051099 -0.25355722264805808 0 0.15620345587478421 -0.23985091964252669 0 0.15352121537987851 -0.26747084360908019 0 0.1718237790584915 -0.27038609488044701 0 0.17509037416051099 -0.25355722264805808 0 0.19204114114371271 -0.26754119123636239 0 0.1718237790584915 -0.27038609488044701 0 0.17509037416051099 -0.25355722264805808 0 0.19204114114371271 -0.26754119123636239 0 0.1718237790584915 -0.27038609488044701 0 0.18021168253197539 -0.28543397759148331 0 0.1718237790584915 -0.27038609488044701 0 0.18021168253197539 -0.28543397759148331 0 0.16537820707203429 -0.2826105842126132 0 0.18021168253197539 -0.28543397759148331 0 0.18647710675957699 -0.30452272423227872 0 0.16679633755369769 -0.29721121011947582 0 0.18647710675957699 -0.30452272423227872 0 0.16679633755369769 -0.29721121011947582 0 0.17175674089110049 -0.31196731881940082 0 0.15083897488497289 -0.29509076757563379 0 0.16679633755369769 -0.29721121011947582 0 0.1598166793326842 -0.31023870666465769 0 0.16679633755369769 -0.29721121011947582 0 0.17175674089110049 -0.31196731881940082 0 0.1598166793326842 -0.31023870666465769 0 0.15083897488497289 -0.29509076757563379 0 0.16679633755369769 -0.29721121011947582 0 0.16537820707203429 -0.2826105842126132 0 0.15083897488497289 -0.29509076757563379 0 0.15352121537987851 -0.26747084360908019 0 0.16537820707203429 -0.2826105842126132 0 0.18021168253197539 -0.28543397759148331 0 0.16679633755369769 -0.29721121011947582 0 0.16537820707203429 -0.2826105842126132 0 0.1890149509728547 -0.48567359102891411 0 0.2006971442705052 -0.50000000000000311 0 0.20662766443903879 -0.49128714236550791 0 0.1890149509728547 -0.48567359102891411 0 0.2006971442705052 -0.50000000000000311 0 0.17733275767520421 -0.5 0 0.1890149509728547 -0.48567359102891411 0 0.20360556166492941 -0.46800802981742101 0 0.18704310471501809 -0.46581793685797879 0 0.1890149509728547 -0.48567359102891411 0 0.20662766443903879 -0.49128714236550791 0 0.20360556166492941 -0.46800802981742101 0 0.20662766443903879 -0.49128714236550791 0 0.2204360351287892 -0.48914499600441269 0 0.2233721449311494 -0.46668689305424083 0 0.20662766443903879 -0.49128714236550791 0 0.2233721449311494 -0.46668689305424083 0 0.20360556166492941 -0.46800802981742101 0 0.20662766443903879 -0.49128714236550791 0 0.2233721449311494 -0.46668689305424083 0 0.20662766443903879 -0.49128714236550791 0 0.20360556166492941 -0.46800802981742101 0 0.20775877075476579 -0.50000000000000411 0 0.22610947390448741 -0.50000000000000111 0 0.2204360351287892 -0.48914499600441269 0 0.20662766443903879 -0.49128714236550791 0 0.20775877075476579 -0.50000000000000411 0 0.2006971442705052 -0.50000000000000311 0 0.20662766443903879 -0.49128714236550791 0 0.2006971442705052 -0.50000000000000311 0 0.20662766443903879 -0.49128714236550791 0 0.20775877075476579 -0.50000000000000411 0 0.20662766443903879 -0.49128714236550791 0 0.20775877075476579 -0.50000000000000411 0 0.2204360351287892 -0.48914499600441269 0 0.2204360351287892 -0.48914499600441269 0 0.2339004304660631 -0.4962569631698453 0 0.22863628769860569 -0.48147192811204331 0 0.2339004304660631 -0.4962569631698453 0 0.22863628769860569 -0.48147192811204331 0 0.22610947390448741 -0.50000000000000111 0 0.2339004304660631 -0.4962569631698453 0 0.23523312127002391 -0.49999999999999961 0 0.22610947390448741 -0.50000000000000111 0 0.2204360351287892 -0.48914499600441269 0 0.2339004304660631 -0.4962569631698453 0 0.22610947390448741 -0.50000000000000111 0 0.2339004304660631 -0.4962569631698453 0 0.25522710199184429 -0.48817574149464371 0 0.2339004304660631 -0.4962569631698453 0 0.25522710199184429 -0.48817574149464371 0 0.2339004304660631 -0.4962569631698453 0 0.24075714678967061 -0.48203478742193678 0 0.25522710199184429 -0.48817574149464371 0 0.2339004304660631 -0.4962569631698453 0 0.23523312127002391 -0.49999999999999961 0 0.2339004304660631 -0.4962569631698453 0 0.23523312127002391 -0.49999999999999961 0 0.2339004304660631 -0.4962569631698453 0 0.24075714678967061 -0.48203478742193678 0 0.22863628769860569 -0.48147192811204331 0 0.25522710199184429 -0.48817574149464371 0 0.24075714678967061 -0.48203478742193678 0 0.24930921450839641 -0.46710015992857101 0 0.24075714678967061 -0.48203478742193678 0 0.23547557368542379 -0.46929045362767069 0 0.22863628769860569 -0.48147192811204331 0 0.24075714678967061 -0.48203478742193678 0 0.23547557368542379 -0.46929045362767069 0 0.24930921450839641 -0.46710015992857101 0 0.23547557368542379 -0.46929045362767069 0 0.22863628769860569 -0.48147192811204331 0 0.2233721449311494 -0.46668689305424083 0 0.2204360351287892 -0.48914499600441269 0 0.22863628769860569 -0.48147192811204331 0 0.2233721449311494 -0.46668689305424083 0 0.22863628769860569 -0.48147192811204331 0 0.2233721449311494 -0.46668689305424083 0 0.2233721449311494 -0.46668689305424083 0 0.214193482313394 -0.44090741582839871 0 0.23547557368542379 -0.46929045362767069 0 0.2233721449311494 -0.46668689305424083 0 0.2353030744992976 -0.44915849962156151 0 0.2233721449311494 -0.46668689305424083 0 0.2353030744992976 -0.44915849962156151 0 0.22589561123356511 -0.44825539237821072 0 0.2233721449311494 -0.46668689305424083 0 0.2353030744992976 -0.44915849962156151 0 0.25134090353478428 -0.44885081937071208 0 0.24930921450839641 -0.46710015992857101 0 0.2353030744992976 -0.44915849962156151 0 0.23547557368542379 -0.46929045362767069 0 0.24930921450839641 -0.46710015992857101 0 0.2353030744992976 -0.44915849962156151 0 0.2353030744992976 -0.44915849962156151 0 0.23071374319042001 -0.43626876100864159 0 0.24723400406744539 -0.43163010618888198 0 0.2353030744992976 -0.44915849962156151 0 0.24723400406744539 -0.43163010618888198 0 0.25134090353478428 -0.44885081937071208 0 0.2353030744992976 -0.44915849962156151 0 0.24723400406744539 -0.43163010618888198 0 0.2233721449311494 -0.46668689305424083 0 0.22589561123356511 -0.44825539237821072 0 0.214193482313394 -0.44090741582839871 0 0.2353030744992976 -0.44915849962156151 0 0.22589561123356511 -0.44825539237821072 0 0.23071374319042001 -0.43626876100864159 0 0.22589561123356511 -0.44825539237821072 0 0.214193482313394 -0.44090741582839871 0 0.23071374319042001 -0.43626876100864159 0 0.214193482313394 -0.44090741582839871 0 0.23071374319042001 -0.43626876100864159 0 0.214193482313394 -0.44090741582839871 0 0.20058345889081891 -0.44472891726933428 0 0.214193482313394 -0.44090741582839871 0 0.19969554470779999 -0.43788935695502917 0 0.20058345889081891 -0.44472891726933428 0 0.214193482313394 -0.44090741582839871 0 0.21043866195007291 -0.45508281399234868 0 0.20058345889081891 -0.44472891726933428 0 0.2233721449311494 -0.46668689305424083 0 0.214193482313394 -0.44090741582839871 0 0.21043866195007291 -0.45508281399234868 0 0.20360556166492941 -0.46800802981742101 0 0.21043866195007291 -0.45508281399234868 0 0.20058345889081891 -0.44472891726933428 0 0.2233721449311494 -0.46668689305424083 0 0.20360556166492941 -0.46800802981742101 0 0.21043866195007291 -0.45508281399234868 0 0.20360556166492941 -0.46800802981742101 0 0.1937934162817696 -0.45698915397950751 0 0.18704310471501809 -0.46581793685797879 0 0.20360556166492941 -0.46800802981742101 0 0.1937934162817696 -0.45698915397950751 0 0.20058345889081891 -0.44472891726933428 0 0.1937934162817696 -0.45698915397950751 0 0.1839415398563114 -0.44940173197329603 0 0.18704310471501809 -0.46581793685797879 0 0.20360556166492941 -0.46800802981742101 0 0.20058345889081891 -0.44472891726933428 0 0.1937934162817696 -0.45698915397950751 0 0.20058345889081891 -0.44472891726933428 0 0.1839415398563114 -0.44940173197329603 0 0.19969554470779999 -0.43788935695502917 0 0.20058345889081891 -0.44472891726933428 0 0.1839415398563114 -0.44940173197329603 0 0.20058345889081891 -0.44472891726933428 0 0.1839415398563114 -0.44940173197329603 0 0.19969554470779999 -0.43788935695502917 0 0.18203385130386371 -0.42916436581642359 0 0.1839415398563114 -0.44940173197329603 0 0.19969554470779999 -0.43788935695502917 0 0.20058345889081891 -0.44472891726933428 0 0.19969554470779999 -0.43788935695502917 0 0.20641878621993981 -0.4190711626370725 0 0.18203385130386371 -0.42916436581642359 0 0.20641878621993981 -0.4190711626370725 0 0.18203385130386371 -0.42916436581642359 0 0.18956567557614409 -0.40933586212936413 0 0.20641878621993981 -0.4190711626370725 0 0.18203385130386371 -0.42916436581642359 0 0.18956567557614409 -0.40933586212936413 0 0.20641878621993981 -0.4190711626370725 0 0.19721277507671481 -0.39321487349222711 0 0.21798795251270189 -0.41173511607858798 0 0.2134335259370406 -0.42361274164068208 0 0.22169876536803559 -0.42746505199574908 0 0.20641878621993981 -0.4190711626370725 0 0.21798795251270189 -0.41173511607858798 0 0.19721277507671481 -0.39321487349222711 0 0.20641878621993981 -0.4190711626370725 0 0.21798795251270189 -0.41173511607858798 0 0.2134335259370406 -0.42361274164068208 0 0.214193482313394 -0.44090741582839871 0 0.20641878621993981 -0.4190711626370725 0 0.2134335259370406 -0.42361274164068208 0 0.214193482313394 -0.44090741582839871 0 0.20641878621993981 -0.4190711626370725 0 0.214193482313394 -0.44090741582839871 0 0.2134335259370406 -0.42361274164068208 0 0.22169876536803559 -0.42746505199574908 0 0.214193482313394 -0.44090741582839871 0 0.19969554470779999 -0.43788935695502917 0 0.20641878621993981 -0.4190711626370725 0 0.214193482313394 -0.44090741582839871 0 0.22169876536803559 -0.42746505199574908 0 0.23071374319042001 -0.43626876100864159 0 0.22169876536803559 -0.42746505199574908 0 0.23071374319042001 -0.43626876100864159 0 0.231833148457121 -0.42111861881150398 0 0.23071374319042001 -0.43626876100864159 0 0.24723400406744539 -0.43163010618888198 0 0.23071374319042001 -0.43626876100864159 0 0.24723400406744539 -0.43163010618888198 0 0.231833148457121 -0.42111861881150398 0 0.25658566081208389 -0.41789106618104838 0 0.24723400406744539 -0.43163010618888198 0 0.24358552477742609 -0.41039978551074952 0 0.24723400406744539 -0.43163010618888198 0 0.24358552477742609 -0.41039978551074952 0 0.231833148457121 -0.42111861881150398 0 0.24358552477742609 -0.41039978551074952 0 0.22977890082669791 -0.40921289208641443 0 0.231833148457121 -0.42111861881150398 0 0.21798795251270189 -0.41173511607858798 0 0.22169876536803559 -0.42746505199574908 0 0.231833148457121 -0.42111861881150398 0 0.21798795251270189 -0.41173511607858798 0 0.22977890082669791 -0.40921289208641443 0 0.231833148457121 -0.42111861881150398 0 0.21798795251270189 -0.41173511607858798 0 0.22977890082669791 -0.40921289208641443 0 0.22514921126123871 -0.38805746644666361 0 0.24358552477742609 -0.41039978551074952 0 0.22977890082669791 -0.40921289208641443 0 0.22514921126123871 -0.38805746644666361 0 0.25540763311385722 -0.40033834997336071 0 0.24358552477742609 -0.41039978551074952 0 0.22514921126123871 -0.38805746644666361 0 0.25308564744576267 -0.38290005940110028 0 0.25540763311385722 -0.40033834997336071 0 0.22514921126123871 -0.38805746644666361 0 0.25308564744576267 -0.38290005940110028 0 0.22514921126123871 -0.38805746644666361 0 0.25308564744576267 -0.38290005940110028 0 0.22507445465726361 -0.3677740482547574 0 0.22514921126123871 -0.38805746644666361 0 0.22507445465726361 -0.3677740482547574 0 0.22514921126123871 -0.38805746644666361 0 0.20834781790869389 -0.37771272794701272 0 0.22514921126123871 -0.38805746644666361 0 0.20834781790869389 -0.37771272794701272 0 0.19721277507671481 -0.39321487349222711 0 0.22514921126123871 -0.38805746644666361 0 0.19721277507671481 -0.39321487349222711 0 0.21798795251270189 -0.41173511607858798 0 0.22514921126123871 -0.38805746644666361 0 0.19721277507671481 -0.39321487349222711 0 0.20641878621993981 -0.4190711626370725 0 0.19721277507671481 -0.39321487349222711 0 0.18956567557614409 -0.40933586212936413 0 0.19721277507671481 -0.39321487349222711 0 0.1814694478859977 -0.39612128381735612 0 0.19721277507671481 -0.39321487349222711 0 0.1814694478859977 -0.39612128381735612 0 0.19721277507671481 -0.39321487349222711 0 0.19193162597097979 -0.37838207390395151 0 0.1814694478859977 -0.39612128381735612 0 0.19721277507671481 -0.39321487349222711 0 0.19193162597097979 -0.37838207390395151 0 0.20834781790869389 -0.37771272794701272 0 0.19721277507671481 -0.39321487349222711 0 0.19193162597097979 -0.37838207390395151 0 0.18109152196247469 -0.36571660373762083 0 0.19193162597097979 -0.37838207390395151 0 0.17546078574430801 -0.38135050424346489 0 0.19193162597097979 -0.37838207390395151 0 0.17546078574430801 -0.38135050424346489 0 0.1814694478859977 -0.39612128381735612 0 0.1814694478859977 -0.39612128381735612 0 0.1657261206952807 -0.39902769414248518 0 0.17546078574430801 -0.38135050424346489 0 0.1814694478859977 -0.39612128381735612 0 0.1657261206952807 -0.39902769414248518 0 0.1814694478859977 -0.39612128381735612 0 0.1657261206952807 -0.39902769414248518 0 0.17610857977614461 -0.41117486553223531 0 0.18956567557614409 -0.40933586212936413 0 0.1814694478859977 -0.39612128381735612 0 0.17610857977614461 -0.41117486553223531 0 0.1657261206952807 -0.39902769414248518 0 0.15999827051186599 -0.38349187099713311 0 0.1493802639997556 -0.39002019818709432 0 0.164196396971447 -0.37045614015311229 0 0.15999827051186599 -0.38349187099713311 0 0.14582867691167231 -0.37548419425004781 0 0.17546078574430801 -0.38135050424346489 0 0.1657261206952807 -0.39902769414248518 0 0.15999827051186599 -0.38349187099713311 0 0.164196396971447 -0.37045614015311229 0 0.17546078574430801 -0.38135050424346489 0 0.15999827051186599 -0.38349187099713311 0 0.1493802639997556 -0.39002019818709432 0 0.14582867691167231 -0.37548419425004781 0 0.12935657299154121 -0.38814703697060321 0 0.15999827051186599 -0.38349187099713311 0 0.1493802639997556 -0.39002019818709432 0 0.14582867691167231 -0.37548419425004781 0 0.12751598258885849 -0.37275489806000728 0 0.14582867691167231 -0.37548419425004781 0 0.12935657299154121 -0.38814703697060321 0 0.12935657299154121 -0.38814703697060321 0 0.14599167888841791 -0.40395019457520259 0 0.12935657299154121 -0.38814703697060321 0 0.14599167888841791 -0.40395019457520259 0 0.13003302182081761 -0.40806774761930892 0 0.1493802639997556 -0.39002019818709432 0 0.12935657299154121 -0.38814703697060321 0 0.14599167888841791 -0.40395019457520259 0 0.1657261206952807 -0.39902769414248518 0 0.1493802639997556 -0.39002019818709432 0 0.14599167888841791 -0.40395019457520259 0 0.14599167888841791 -0.40395019457520259 0 0.1437623558739968 -0.41857824074021438 0 0.16262678478529449 -0.41975335217980209 0 0.14599167888841791 -0.40395019457520259 0 0.16262678478529449 -0.41975335217980209 0 0.1437623558739968 -0.41857824074021438 0 0.13003302182081761 -0.40806774761930892 0 0.13177345360018561 -0.42915100639474552 0 0.14599167888841791 -0.40395019457520259 0 0.1437623558739968 -0.41857824074021438 0 0.13003302182081761 -0.40806774761930892 0 0.13003302182081761 -0.40806774761930892 0 0.13177345360018561 -0.42915100639474552 0 0.1174068315428666 -0.42034502386167738 0 0.13177345360018561 -0.42915100639474552 0 0.14838684027526841 -0.43196890293201268 0 0.12863294341545289 -0.44570643914324709 0 0.13177345360018561 -0.42915100639474552 0 0.1254919560232248 -0.43653501583723658 0 0.12863294341545289 -0.44570643914324709 0 0.14838684027526841 -0.43196890293201268 0 0.16262678478529449 -0.41975335217980209 0 0.15764891638778811 -0.43925756899577612 0 0.1437623558739968 -0.41857824074021438 0 0.14838684027526841 -0.43196890293201268 0 0.16262678478529449 -0.41975335217980209 0 0.1437623558739968 -0.41857824074021438 0 0.13177345360018561 -0.42915100639474552 0 0.14838684027526841 -0.43196890293201268 0 0.18203385130386371 -0.42916436581642359 0 0.15764891638778811 -0.43925756899577612 0 0.16262678478529449 -0.41975335217980209 0 0.18203385130386371 -0.42916436581642359 0 0.15764891638778811 -0.43925756899577612 0 0.1657261206952807 -0.39902769414248518 0 0.14599167888841791 -0.40395019457520259 0 0.16262678478529449 -0.41975335217980209 0 0.1657261206952807 -0.39902769414248518 0 0.16262678478529449 -0.41975335217980209 0 0.17610857977614461 -0.41117486553223531 0 0.18956567557614409 -0.40933586212936413 0 0.17610857977614461 -0.41117486553223531 0 0.18203385130386371 -0.42916436581642359 0 0.16262678478529449 -0.41975335217980209 0 0.17610857977614461 -0.41117486553223531 0 0.18203385130386371 -0.42916436581642359 0 0.18203385130386371 -0.42916436581642359 0 0.1839415398563114 -0.44940173197329603 0 0.167299620821804 -0.45407454667725777 0 0.1839415398563114 -0.44940173197329603 0 0.167299620821804 -0.45407454667725777 0 0.1839415398563114 -0.44940173197329603 0 0.18704310471501809 -0.46581793685797879 0 0.167299620821804 -0.45407454667725777 0 0.18704310471501809 -0.46581793685797879 0 0.167299620821804 -0.45407454667725777 0 0.17187415396981859 -0.4720284043410794 0 0.167299620821804 -0.45407454667725777 0 0.15010970901507911 -0.45471614632968099 0 0.15291923789505171 -0.46771583182405652 0 0.167299620821804 -0.45407454667725777 0 0.15291923789505171 -0.46771583182405652 0 0.17187415396981859 -0.4720284043410794 0 0.18203385130386371 -0.42916436581642359 0 0.167299620821804 -0.45407454667725777 0 0.15764891638778811 -0.43925756899577612 0 0.167299620821804 -0.45407454667725777 0 0.15764891638778811 -0.43925756899577612 0 0.15010970901507911 -0.45471614632968099 0 0.15764891638778811 -0.43925756899577612 0 0.13326398147171259 -0.44935077217512848 0 0.14838684027526841 -0.43196890293201268 0 0.15764891638778811 -0.43925756899577612 0 0.13326398147171259 -0.44935077217512848 0 0.15764891638778811 -0.43925756899577612 0 0.13326398147171259 -0.44935077217512848 0 0.15010970901507911 -0.45471614632968099 0 0.14838684027526841 -0.43196890293201268 0 0.12863294341545289 -0.44570643914324709 0 0.14838684027526841 -0.43196890293201268 0 0.13326398147171259 -0.44935077217512848 0 0.12863294341545289 -0.44570643914324709 0 0.13326398147171259 -0.44935077217512848 0 0.1342971884598364 -0.46650997067456518 0 0.1088790465556372 -0.45944397535448128 0 0.13326398147171259 -0.44935077217512848 0 0.1342971884598364 -0.46650997067456518 0 0.15010970901507911 -0.45471614632968099 0 0.1342971884598364 -0.46650997067456518 0 0.15010970901507911 -0.45471614632968099 0 0.15291923789505171 -0.46771583182405652 0 0.15291923789505171 -0.46771583182405652 0 0.14613297335921929 -0.48768677261065457 0 0.1630938554443645 -0.4868601153171897 0 0.15291923789505171 -0.46771583182405652 0 0.13007941789217581 -0.48385791591202681 0 0.14613297335921929 -0.48768677261065457 0 0.15291923789505171 -0.46771583182405652 0 0.13007941789217581 -0.48385791591202681 0 0.1342971884598364 -0.46650997067456518 0 0.13007941789217581 -0.48385791591202681 0 0.111855475902624 -0.47841169651686982 0 0.1342971884598364 -0.46650997067456518 0 0.15291923789505171 -0.46771583182405652 0 0.13007941789217581 -0.48385791591202681 0 0.13007941789217581 -0.48385791591202681 0 0.13060398448460159 -0.5 0 0.14613297335921929 -0.48768677261065457 0 0.13060398448460159 -0.5 0 0.15396837107990291 -0.5 0 0.14613297335921929 -0.48768677261065457 0 0.15396837107990291 -0.5 0 0.14613297335921929 -0.48768677261065457 0 0.1630938554443645 -0.4868601153171897 0 0.15396837107990291 -0.5 0 0.1630938554443645 -0.4868601153171897 0 0.17733275767520421 -0.5 0 0.15291923789505171 -0.46771583182405652 0 0.1630938554443645 -0.4868601153171897 0 0.17187415396981859 -0.4720284043410794 0 0.1890149509728547 -0.48567359102891411 0 0.1630938554443645 -0.4868601153171897 0 0.17187415396981859 -0.4720284043410794 0 0.1890149509728547 -0.48567359102891411 0 0.18704310471501809 -0.46581793685797879 0 0.17187415396981859 -0.4720284043410794 0 0.1890149509728547 -0.48567359102891411 0 0.1630938554443645 -0.4868601153171897 0 0.17733275767520421 -0.5 0 0.067627582565066041 -0.48813165578323298 0 0.080623405198305576 -0.49999999999999739 0 0.052391988833910268 -0.5 0 0.067627582565066041 -0.48813165578323298 0 0.086310027521358745 -0.47513924391013201 0 0.067627582565066041 -0.48813165578323298 0 0.065273610280148706 -0.47722180231078343 0 0.075204643097509918 -0.47338219570307422 0 0.067627582565066041 -0.48813165578323298 0 0.075204643097509918 -0.47338219570307422 0 0.086310027521358745 -0.47513924391013201 0 0.065273610280148706 -0.47722180231078343 0 0.075204643097509918 -0.47338219570307422 0 0.064952564462852636 -0.46183914970457451 0 0.075204643097509918 -0.47338219570307422 0 0.086310027521358745 -0.47513924391013201 0 0.087915352951952103 -0.46812108766418842 0 0.075204643097509918 -0.47338219570307422 0 0.087915352951952103 -0.46812108766418842 0 0.086310027521358745 -0.47513924391013201 0 0.087915352951952103 -0.46812108766418842 0 0.086310027521358745 -0.47513924391013201 0 0.080623405198305576 -0.49999999999999739 0 0.1072395978893005 -0.49999999999999828 0 0.067627582565066041 -0.48813165578323298 0 0.086310027521358745 -0.47513924391013201 0 0.080623405198305576 -0.49999999999999739 0 0.086310027521358745 -0.47513924391013201 0 0.080623405198305576 -0.49999999999999739 0 0.086310027521358745 -0.47513924391013201 0 0.1072395978893005 -0.49999999999999828 0 0.111855475902624 -0.47841169651686982 0 0.13007941789217581 -0.48385791591202681 0 0.1072395978893005 -0.49999999999999828 0 0.111855475902624 -0.47841169651686982 0 0.13007941789217581 -0.48385791591202681 0 0.13060398448460159 -0.5 0 0.1072395978893005 -0.49999999999999828 0 0.13007941789217581 -0.48385791591202681 0 0.1072395978893005 -0.49999999999999828 0 0.086310027521358745 -0.47513924391013201 0 0.111855475902624 -0.47841169651686982 0 0.1088790465556372 -0.45944397535448128 0 0.1088790465556372 -0.45944397535448128 0 0.1057511992397152 -0.44685649192661098 0 0.087915352951952103 -0.46812108766418842 0 0.086310027521358745 -0.47513924391013201 0 0.1088790465556372 -0.45944397535448128 0 0.087915352951952103 -0.46812108766418842 0 0.086310027521358745 -0.47513924391013201 0 0.1088790465556372 -0.45944397535448128 0 0.1088790465556372 -0.45944397535448128 0 0.087915352951952103 -0.46812108766418842 0 0.1342971884598364 -0.46650997067456518 0 0.111855475902624 -0.47841169651686982 0 0.1088790465556372 -0.45944397535448128 0 0.13326398147171259 -0.44935077217512848 0 0.1088790465556372 -0.45944397535448128 0 0.12863294341545289 -0.44570643914324709 0 0.1088790465556372 -0.45944397535448128 0 0.1197495137669671 -0.44434559610951452 0 0.12863294341545289 -0.44570643914324709 0 0.1088790465556372 -0.45944397535448128 0 0.1197495137669671 -0.44434559610951452 0 0.1057511992397152 -0.44685649192661098 0 0.1048145176555168 -0.42953619597632831 0 0.13326398147171259 -0.44935077217512848 0 0.12863294341545289 -0.44570643914324709 0 0.1088790465556372 -0.45944397535448128 0 0.1254919560232248 -0.43653501583723658 0 0.12863294341545289 -0.44570643914324709 0 0.1197495137669671 -0.44434559610951452 0 0.1088790465556372 -0.45944397535448128 0 0.1197495137669671 -0.44434559610951452 0 0.1057511992397152 -0.44685649192661098 0 0.094455505435067699 -0.43952887132970181 0 0.1057511992397152 -0.44685649192661098 0 0.087915352951952103 -0.46812108766418842 0 0.094455505435067699 -0.43952887132970181 0 0.1057511992397152 -0.44685649192661098 0 0.1048145176555168 -0.42953619597632831 0 0.094455505435067699 -0.43952887132970181 0 0.079458046923934947 -0.45842176706091248 0 0.074762168672292142 -0.44923753090302382 0 0.094455505435067699 -0.43952887132970181 0 0.074762168672292142 -0.44923753090302382 0 0.077348214346532801 -0.43734522841463352 0 0.094455505435067699 -0.43952887132970181 0 0.087915352951952103 -0.46812108766418842 0 0.094455505435067699 -0.43952887132970181 0 0.087915352951952103 -0.46812108766418842 0 0.079458046923934947 -0.45842176706091248 0 0.075204643097509918 -0.47338219570307422 0 0.087915352951952103 -0.46812108766418842 0 0.079458046923934947 -0.45842176706091248 0 0.079458046923934947 -0.45842176706091248 0 0.064952564462852636 -0.46183914970457451 0 0.074762168672292142 -0.44923753090302382 0 0.075204643097509918 -0.47338219570307422 0 0.079458046923934947 -0.45842176706091248 0 0.064952564462852636 -0.46183914970457451 0 0.064952564462852636 -0.46183914970457451 0 0.062511407303808803 -0.44912600376879169 0 0.074762168672292142 -0.44923753090302382 0 0.062511407303808803 -0.44912600376879169 0 0.068750312224201401 -0.44127500612742399 0 0.074762168672292142 -0.44923753090302382 0 0.062511407303808803 -0.44912600376879169 0 0.068750312224201401 -0.44127500612742399 0 0.059564034560094042 -0.43865010986556868 0 0.068750312224201401 -0.44127500612742399 0 0.074762168672292142 -0.44923753090302382 0 0.077348214346532801 -0.43734522841463352 0 0.068085011698278297 -0.42817774356758009 0 0.077598310781201635 -0.41475500260664461 0 0.081619073722795255 -0.42757741896453672 0 0.077348214346532801 -0.43734522841463352 0 0.068085011698278297 -0.42817774356758009 0 0.081619073722795255 -0.42757741896453672 0 0.068750312224201401 -0.44127500612742399 0 0.077348214346532801 -0.43734522841463352 0 0.068085011698278297 -0.42817774356758009 0 0.068750312224201401 -0.44127500612742399 0 0.068085011698278297 -0.42817774356758009 0 0.059564034560094042 -0.43865010986556868 0 0.068085011698278297 -0.42817774356758009 0 0.066845607495290699 -0.41411859226960213 0 0.056213092764164981 -0.41578749013636612 0 0.066845607495290699 -0.41411859226960213 0 0.069525304058633178 -0.40402446997438529 0 0.060478767855482687 -0.40935375713223399 0 0.066845607495290699 -0.41411859226960213 0 0.077598310781201635 -0.41475500260664461 0 0.069525304058633178 -0.40402446997438529 0 0.077598310781201635 -0.41475500260664461 0 0.077813459135410823 -0.40132848111743191 0 0.069525304058633178 -0.40402446997438529 0 0.068085011698278297 -0.42817774356758009 0 0.066845607495290699 -0.41411859226960213 0 0.077598310781201635 -0.41475500260664461 0 0.090608326352895854 -0.41808024890412299 0 0.1000048301140686 -0.40853203513971248 0 0.088112679797065441 -0.40172019105408763 0 0.090608326352895854 -0.41808024890412299 0 0.077813459135410823 -0.40132848111743191 0 0.077598310781201635 -0.41475500260664461 0 0.090608326352895854 -0.41808024890412299 0 0.077813459135410823 -0.40132848111743191 0 0.090608326352895854 -0.41808024890412299 0 0.088112679797065441 -0.40172019105408763 0 0.077813459135410823 -0.40132848111743191 0 0.077598310781201635 -0.41475500260664461 0 0.090608326352895854 -0.41808024890412299 0 0.081619073722795255 -0.42757741896453672 0 0.094455505435067699 -0.43952887132970181 0 0.077348214346532801 -0.43734522841463352 0 0.081619073722795255 -0.42757741896453672 0 0.094455505435067699 -0.43952887132970181 0 0.090608326352895854 -0.41808024890412299 0 0.081619073722795255 -0.42757741896453672 0 0.094455505435067699 -0.43952887132970181 0 0.090608326352895854 -0.41808024890412299 0 0.1048145176555168 -0.42953619597632831 0 0.1197495137669671 -0.44434559610951452 0 0.1174068315428666 -0.42034502386167738 0 0.1254919560232248 -0.43653501583723658 0 0.1197495137669671 -0.44434559610951452 0 0.1174068315428666 -0.42034502386167738 0 0.13177345360018561 -0.42915100639474552 0 0.1254919560232248 -0.43653501583723658 0 0.1174068315428666 -0.42034502386167738 0 0.1197495137669671 -0.44434559610951452 0 0.1048145176555168 -0.42953619597632831 0 0.1174068315428666 -0.42034502386167738 0 0.1174068315428666 -0.42034502386167738 0 0.1000048301140686 -0.40853203513971248 0 0.115064149318766 -0.39634445161384008 0 0.1174068315428666 -0.42034502386167738 0 0.115064149318766 -0.39634445161384008 0 0.13003302182081761 -0.40806774761930892 0 0.1174068315428666 -0.42034502386167738 0 0.115064149318766 -0.39634445161384008 0 0.090608326352895854 -0.41808024890412299 0 0.1048145176555168 -0.42953619597632831 0 0.1000048301140686 -0.40853203513971248 0 0.1048145176555168 -0.42953619597632831 0 0.1174068315428666 -0.42034502386167738 0 0.1000048301140686 -0.40853203513971248 0 0.1000048301140686 -0.40853203513971248 0 0.093711028591666259 -0.39804866565319819 0 0.088112679797065441 -0.40172019105408763 0 0.1000048301140686 -0.40853203513971248 0 0.10221934243117731 -0.39488749955123198 0 0.093711028591666259 -0.39804866565319819 0 0.094599480016091336 -0.39171823268954481 0 0.10221934243117731 -0.39488749955123198 0 0.098884252328858016 -0.38540256184206889 0 0.094599480016091336 -0.39171823268954481 0 0.10221934243117731 -0.39488749955123198 0 0.093711028591666259 -0.39804866565319819 0 0.10221934243117731 -0.39488749955123198 0 0.115064149318766 -0.39634445161384008 0 0.10885192808111049 -0.38585383841171061 0 0.1000048301140686 -0.40853203513971248 0 0.10221934243117731 -0.39488749955123198 0 0.115064149318766 -0.39634445161384008 0 0.12935657299154121 -0.38814703697060321 0 0.13003302182081761 -0.40806774761930892 0 0.115064149318766 -0.39634445161384008 0 0.115064149318766 -0.39634445161384008 0 0.112721467094665 -0.37234387936600299 0 0.115064149318766 -0.39634445161384008 0 0.10885192808111049 -0.38585383841171061 0 0.112721467094665 -0.37234387936600299 0 0.12935657299154121 -0.38814703697060321 0 0.112721467094665 -0.37234387936600299 0 0.12935657299154121 -0.38814703697060321 0 0.115064149318766 -0.39634445161384008 0 0.112721467094665 -0.37234387936600299 0 0.12751598258885849 -0.37275489806000728 0 0.12935657299154121 -0.38814703697060321 0 0.112721467094665 -0.37234387936600299 0 0.1067479676338712 -0.38013218090402401 0 0.10885192808111049 -0.38585383841171061 0 0.112721467094665 -0.37234387936600299 0 0.1067479676338712 -0.38013218090402401 0 0.112721467094665 -0.37234387936600299 0 0.10879199685857741 -0.37437886055054909 0 0.1067479676338712 -0.38013218090402401 0 0.098884252328858016 -0.38540256184206889 0 0.1001393812557064 -0.37693012658991332 0 0.1067479676338712 -0.38013218090402401 0 0.1047445308745272 -0.374374555060838 0 0.10879199685857741 -0.37437886055054909 0 0.1067479676338712 -0.38013218090402401 0 0.1001393812557064 -0.37693012658991332 0 0.1047445308745272 -0.374374555060838 0 0.1067479676338712 -0.38013218090402401 0 0.10885192808111049 -0.38585383841171061 0 0.098884252328858016 -0.38540256184206889 0 0.10221934243117731 -0.39488749955123198 0 0.10885192808111049 -0.38585383841171061 0 0.098884252328858016 -0.38540256184206889 0 0.094599480016091336 -0.39171823268954481 0 0.098884252328858016 -0.38540256184206889 0 0.090970176183881424 -0.38721690382629131 0 0.098884252328858016 -0.38540256184206889 0 0.092324477608098504 -0.37974768846178608 0 0.090970176183881424 -0.38721690382629131 0 0.098884252328858016 -0.38540256184206889 0 0.1001393812557064 -0.37693012658991332 0 0.092324477608098504 -0.37974768846178608 0 0.1001393812557064 -0.37693012658991332 0 0.092324477608098504 -0.37974768846178608 0 0.09589770983431084 -0.37120652805628168 0 0.082992153608590843 -0.38713290926782029 0 0.08686023546009547 -0.36929177575019018 0 0.082992153608590843 -0.38713290926782029 0 0.08686023546009547 -0.36929177575019018 0 0.077736662447614083 -0.3736880441050226 0 0.092324477608098504 -0.37974768846178608 0 0.082992153608590843 -0.38713290926782029 0 0.08686023546009547 -0.36929177575019018 0 0.082992153608590843 -0.38713290926782029 0 0.074376958208976093 -0.38324205621463592 0 0.077736662447614083 -0.3736880441050226 0 0.082992153608590843 -0.38713290926782029 0 0.087212600544873731 -0.3930355325749334 0 0.079325834043477442 -0.3912961829351268 0 0.082992153608590843 -0.38713290926782029 0 0.079325834043477442 -0.3912961829351268 0 0.074376958208976093 -0.38324205621463592 0 0.082992153608590843 -0.38713290926782029 0 0.090970176183881424 -0.38721690382629131 0 0.087212600544873731 -0.3930355325749334 0 0.092324477608098504 -0.37974768846178608 0 0.082992153608590843 -0.38713290926782029 0 0.090970176183881424 -0.38721690382629131 0 0.094599480016091336 -0.39171823268954481 0 0.090970176183881424 -0.38721690382629131 0 0.087212600544873731 -0.3930355325749334 0 0.094599480016091336 -0.39171823268954481 0 0.093711028591666259 -0.39804866565319819 0 0.087212600544873731 -0.3930355325749334 0 0.093711028591666259 -0.39804866565319819 0 0.087212600544873731 -0.3930355325749334 0 0.088112679797065441 -0.40172019105408763 0 0.088112679797065441 -0.40172019105408763 0 0.079325834043477442 -0.3912961829351268 0 0.077813459135410823 -0.40132848111743191 0 0.087212600544873731 -0.3930355325749334 0 0.088112679797065441 -0.40172019105408763 0 0.079325834043477442 -0.3912961829351268 0 0.077813459135410823 -0.40132848111743191 0 0.065018591917926249 -0.38457671333074039 0 0.077813459135410823 -0.40132848111743191 0 0.069525304058633178 -0.40402446997438529 0 0.065018591917926249 -0.38457671333074039 0 0.069525304058633178 -0.40402446997438529 0 0.056098993453862968 -0.38038757818948349 0 0.079325834043477442 -0.3912961829351268 0 0.077813459135410823 -0.40132848111743191 0 0.065018591917926249 -0.38457671333074039 0 0.069525304058633178 -0.40402446997438529 0 0.057983134201828317 -0.40317740330951141 0 0.060478767855482687 -0.40935375713223399 0 0.069525304058633178 -0.40402446997438529 0 0.065018591917926249 -0.38457671333074039 0 0.056098993453862968 -0.38038757818948349 0 0.065018591917926249 -0.38457671333074039 0 0.074376958208976093 -0.38324205621463592 0 0.067830570364931494 -0.3719444483839941 0 0.074376958208976093 -0.38324205621463592 0 0.067830570364931494 -0.3719444483839941 0 0.077736662447614083 -0.3736880441050226 0 0.079325834043477442 -0.3912961829351268 0 0.065018591917926249 -0.38457671333074039 0 0.079325834043477442 -0.3912961829351268 0 0.065018591917926249 -0.38457671333074039 0 0.074376958208976093 -0.38324205621463592 0 0.065018591917926249 -0.38457671333074039 0 0.052260529336356408 -0.36787313226641682 0 0.065018591917926249 -0.38457671333074039 0 0.056098993453862968 -0.38038757818948349 0 0.052260529336356408 -0.36787313226641682 0 0.056098993453862968 -0.38038757818948349 0 0.056628596194609672 -0.39565196527352098 0 0.049403395763143183 -0.3911505746403493 0 0.056098993453862968 -0.38038757818948349 0 0.049403395763143183 -0.3911505746403493 0 0.043132338927944082 -0.38131246161306648 0 0.065018591917926249 -0.38457671333074039 0 0.056098993453862968 -0.38038757818948349 0 0.069525304058633178 -0.40402446997438529 0 0.056098993453862968 -0.38038757818948349 0 0.056628596194609672 -0.39565196527352098 0 0.069525304058633178 -0.40402446997438529 0 0.056628596194609672 -0.39565196527352098 0 0.057983134201828317 -0.40317740330951141 0 0.056628596194609672 -0.39565196527352098 0 0.057983134201828317 -0.40317740330951141 0 0.050132153495580728 -0.39951980025387518 0 0.057983134201828317 -0.40317740330951141 0 0.050132153495580728 -0.39951980025387518 0 0.051826700757496243 -0.40966082997130532 0 0.050132153495580728 -0.39951980025387518 0 0.043773921860666053 -0.40426577011690251 0 0.051826700757496243 -0.40966082997130532 0 0.056628596194609672 -0.39565196527352098 0 0.050132153495580728 -0.39951980025387518 0 0.049403395763143183 -0.3911505746403493 0 0.049403395763143183 -0.3911505746403493 0 0.038014777442690433 -0.39593957207265967 0 0.036215956470599282 -0.38520074647902619 0 0.038014777442690433 -0.39593957207265967 0 0.036215956470599282 -0.38520074647902619 0 0.022360200033327469 -0.39146736763095957 0 0.050132153495580728 -0.39951980025387518 0 0.049403395763143183 -0.3911505746403493 0 0.038014777442690433 -0.39593957207265967 0 0.050132153495580728 -0.39951980025387518 0 0.043773921860666053 -0.40426577011690251 0 0.038014777442690433 -0.39593957207265967 0 0.043773921860666053 -0.40426577011690251 0 0.038014777442690433 -0.39593957207265967 0 0.036897371588361053 -0.40750393123775541 0 0.038014777442690433 -0.39593957207265967 0 0.030289388859859691 -0.40250085641702671 0 0.036897371588361053 -0.40750393123775541 0 0.056098993453862968 -0.38038757818948349 0 0.043132338927944082 -0.38131246161306648 0 0.030811010024170901 -0.36851094714340688 0 0.036215956470599282 -0.38520074647902619 0 0.043132338927944082 -0.38131246161306648 0 0.030811010024170901 -0.36851094714340688 0 0.049403395763143183 -0.3911505746403493 0 0.036215956470599282 -0.38520074647902619 0 0.043132338927944082 -0.38131246161306648 0 0.036215956470599282 -0.38520074647902619 0 0.024701261199978331 -0.38035413267665258 0 0.030811010024170901 -0.36851094714340688 0 0.024701261199978331 -0.38035413267665258 0 0.0094178782718157012 -0.37623746945321768 0 0.030811010024170901 -0.36851094714340688 0 0.036215956470599282 -0.38520074647902619 0 0.024701261199978331 -0.38035413267665258 0 0.022360200033327469 -0.39146736763095957 0 0.024701261199978331 -0.38035413267665258 0 0.0094178782718157012 -0.37623746945321768 0 0.022360200033327469 -0.39146736763095957 0 0.0094178782718157012 -0.37623746945321768 0 0.0026077901979910151 -0.3937155129803267 0 0.022360200033327469 -0.39146736763095957 0 0.0026077901979910151 -0.3937155129803267 0 0.011039794756536809 -0.40299079535917071 0 0.022360200033327469 -0.39146736763095957 0 -0.0021544753678095999 -0.40784943556256648 0 0.0026077901979910151 -0.3937155129803267 0 0.011039794756536809 -0.40299079535917071 0 0.038014777442690433 -0.39593957207265967 0 0.022360200033327469 -0.39146736763095957 0 0.030289388859859691 -0.40250085641702671 0 0.022360200033327469 -0.39146736763095957 0 0.030289388859859691 -0.40250085641702671 0 0.020867937515133151 -0.40777075659430911 0 0.011039794756536809 -0.40299079535917071 0 0.022360200033327469 -0.39146736763095957 0 0.020867937515133151 -0.40777075659430911 0 0.03011805919037502 -0.41455756803216892 0 0.019944034336731569 -0.41860592239319211 0 0.020867937515133151 -0.40777075659430911 0 0.030289388859859691 -0.40250085641702671 0 0.03011805919037502 -0.41455756803216892 0 0.020867937515133151 -0.40777075659430911 0 0.03011805919037502 -0.41455756803216892 0 0.019944034336731569 -0.41860592239319211 0 0.028176765302755081 -0.42305266484665133 0 0.019944034336731569 -0.41860592239319211 0 0.020867937515133151 -0.40777075659430911 0 0.0099498392384724903 -0.41488593289157782 0 0.011039794756536809 -0.40299079535917071 0 0.020867937515133151 -0.40777075659430911 0 0.0099498392384724903 -0.41488593289157782 0 0.019944034336731569 -0.41860592239319211 0 0.0099498392384724903 -0.41488593289157782 0 0.011717128083925169 -0.42758598836330908 0 -0.001601110338014082 -0.42097589615010578 0 -0.0021544753678095999 -0.40784943556256648 0 0.0099498392384724903 -0.41488593289157782 0 -0.001601110338014082 -0.42097589615010578 0 0.0099498392384724903 -0.41488593289157782 0 0.011717128083925169 -0.42758598836330908 0 -0.0021544753678095999 -0.40784943556256648 0 0.011039794756536809 -0.40299079535917071 0 0.0099498392384724903 -0.41488593289157782 0 -0.001601110338014082 -0.42097589615010578 0 0.00088915341899545048 -0.43615426505860788 0 0.011717128083925169 -0.42758598836330908 0 0.011717128083925169 -0.42758598836330908 0 0.020160644338872689 -0.43647731888139668 0 0.011077691900881179 -0.43839449497152611 0 0.00088915341899545048 -0.43615426505860788 0 0.011717128083925169 -0.42758598836330908 0 0.011077691900881179 -0.43839449497152611 0 0.011717128083925169 -0.42758598836330908 0 0.020160644338872689 -0.43647731888139668 0 0.022204008742439579 -0.42752473423561038 0 0.019944034336731569 -0.41860592239319211 0 0.011717128083925169 -0.42758598836330908 0 0.022204008742439579 -0.42752473423561038 0 0.022204008742439579 -0.42752473423561038 0 0.028176765302755081 -0.42305266484665133 0 0.031648965752706149 -0.43087248049252808 0 0.019944034336731569 -0.41860592239319211 0 0.022204008742439579 -0.42752473423561038 0 0.028176765302755081 -0.42305266484665133 0 0.020160644338872689 -0.43647731888139668 0 0.022204008742439579 -0.42752473423561038 0 0.031648965752706149 -0.43087248049252808 0 0.020160644338872689 -0.43647731888139668 0 0.031648965752706149 -0.43087248049252808 0 0.029759634357800421 -0.44114044959405929 0 0.031648965752706149 -0.43087248049252808 0 0.039218811862669033 -0.43720654145288701 0 0.029759634357800421 -0.44114044959405929 0 0.031648965752706149 -0.43087248049252808 0 0.039218811862669033 -0.43720654145288701 0 0.043142075504979387 -0.42844778646909221 0 0.039218811862669033 -0.43720654145288701 0 0.043142075504979387 -0.42844778646909221 0 0.049207555867558768 -0.43640604935561422 0 0.043142075504979387 -0.42844778646909221 0 0.035741374414386802 -0.42246703283890952 0 0.042370571461418857 -0.41563387690683268 0 0.043142075504979387 -0.42844778646909221 0 0.042370571461418857 -0.41563387690683268 0 0.049225907804521983 -0.42165130884641278 0 0.028176765302755081 -0.42305266484665133 0 0.031648965752706149 -0.43087248049252808 0 0.035741374414386802 -0.42246703283890952 0 0.031648965752706149 -0.43087248049252808 0 0.043142075504979387 -0.42844778646909221 0 0.035741374414386802 -0.42246703283890952 0 0.03011805919037502 -0.41455756803216892 0 0.035741374414386802 -0.42246703283890952 0 0.042370571461418857 -0.41563387690683268 0 0.03011805919037502 -0.41455756803216892 0 0.028176765302755081 -0.42305266484665133 0 0.035741374414386802 -0.42246703283890952 0 0.030289388859859691 -0.40250085641702671 0 0.03011805919037502 -0.41455756803216892 0 0.036897371588361053 -0.40750393123775541 0 0.03011805919037502 -0.41455756803216892 0 0.036897371588361053 -0.40750393123775541 0 0.042370571461418857 -0.41563387690683268 0 0.043773921860666053 -0.40426577011690251 0 0.036897371588361053 -0.40750393123775541 0 0.042370571461418857 -0.41563387690683268 0 0.043773921860666053 -0.40426577011690251 0 0.042370571461418857 -0.41563387690683268 0 0.051826700757496243 -0.40966082997130532 0 0.049225907804521983 -0.42165130884641278 0 0.051826700757496243 -0.40966082997130532 0 0.056213092764164981 -0.41578749013636612 0 0.042370571461418857 -0.41563387690683268 0 0.049225907804521983 -0.42165130884641278 0 0.051826700757496243 -0.40966082997130532 0 0.051826700757496243 -0.40966082997130532 0 0.060478767855482687 -0.40935375713223399 0 0.056213092764164981 -0.41578749013636612 0 0.057983134201828317 -0.40317740330951141 0 0.051826700757496243 -0.40966082997130532 0 0.060478767855482687 -0.40935375713223399 0 0.066845607495290699 -0.41411859226960213 0 0.060478767855482687 -0.40935375713223399 0 0.056213092764164981 -0.41578749013636612 0 0.068085011698278297 -0.42817774356758009 0 0.056213092764164981 -0.41578749013636612 0 0.055640848455399801 -0.42827436076878589 0 0.068085011698278297 -0.42817774356758009 0 0.055640848455399801 -0.42827436076878589 0 0.059564034560094042 -0.43865010986556868 0 0.055640848455399801 -0.42827436076878589 0 0.049207555867558768 -0.43640604935561422 0 0.059564034560094042 -0.43865010986556868 0 0.043142075504979387 -0.42844778646909221 0 0.055640848455399801 -0.42827436076878589 0 0.049207555867558768 -0.43640604935561422 0 0.043142075504979387 -0.42844778646909221 0 0.049225907804521983 -0.42165130884641278 0 0.055640848455399801 -0.42827436076878589 0 0.049225907804521983 -0.42165130884641278 0 0.056213092764164981 -0.41578749013636612 0 0.055640848455399801 -0.42827436076878589 0 0.05254291432310898 -0.4457952019000101 0 0.045582184866803682 -0.45166854288000069 0 0.044421213709540407 -0.443185910364439 0 0.05254291432310898 -0.4457952019000101 0 0.053971089630848172 -0.45573459516564652 0 0.045582184866803682 -0.45166854288000069 0 0.049207555867558768 -0.43640604935561422 0 0.05254291432310898 -0.4457952019000101 0 0.044421213709540407 -0.443185910364439 0 0.049207555867558768 -0.43640604935561422 0 0.05254291432310898 -0.4457952019000101 0 0.059564034560094042 -0.43865010986556868 0 0.062511407303808803 -0.44912600376879169 0 0.05254291432310898 -0.4457952019000101 0 0.059564034560094042 -0.43865010986556868 0 0.062511407303808803 -0.44912600376879169 0 0.05254291432310898 -0.4457952019000101 0 0.053971089630848172 -0.45573459516564652 0 0.064952564462852636 -0.46183914970457451 0 0.062511407303808803 -0.44912600376879169 0 0.053971089630848172 -0.45573459516564652 0 0.064952564462852636 -0.46183914970457451 0 0.055796426859872267 -0.46337306781983351 0 0.053971089630848172 -0.45573459516564652 0 0.064952564462852636 -0.46183914970457451 0 0.055796426859872267 -0.46337306781983351 0 0.057106320527649509 -0.47143906907577998 0 0.055796426859872267 -0.46337306781983351 0 0.047155732818138757 -0.46447945733333262 0 0.057106320527649509 -0.47143906907577998 0 0.055796426859872267 -0.46337306781983351 0 0.047155732818138757 -0.46447945733333262 0 0.053971089630848172 -0.45573459516564652 0 0.047155732818138757 -0.46447945733333262 0 0.053971089630848172 -0.45573459516564652 0 0.045582184866803682 -0.45166854288000069 0 0.047155732818138757 -0.46447945733333262 0 0.037162637683835827 -0.45665227522390978 0 0.045582184866803682 -0.45166854288000069 0 0.047155732818138757 -0.46447945733333262 0 0.036575273498175853 -0.46621016757558309 0 0.037162637683835827 -0.45665227522390978 0 0.036575273498175853 -0.46621016757558309 0 0.037162637683835827 -0.45665227522390978 0 0.02515061182248338 -0.45957462974103969 0 0.037339256081147278 -0.44671794053729058 0 0.029759634357800421 -0.44114044959405929 0 0.027891054006234341 -0.45045392370844861 0 0.037162637683835827 -0.45665227522390978 0 0.037339256081147278 -0.44671794053729058 0 0.027891054006234341 -0.45045392370844861 0 0.037162637683835827 -0.45665227522390978 0 0.037339256081147278 -0.44671794053729058 0 0.045582184866803682 -0.45166854288000069 0 0.037339256081147278 -0.44671794053729058 0 0.045582184866803682 -0.45166854288000069 0 0.044421213709540407 -0.443185910364439 0 0.039218811862669033 -0.43720654145288701 0 0.037339256081147278 -0.44671794053729058 0 0.044421213709540407 -0.443185910364439 0 0.039218811862669033 -0.43720654145288701 0 0.049207555867558768 -0.43640604935561422 0 0.044421213709540407 -0.443185910364439 0 0.039218811862669033 -0.43720654145288701 0 0.037339256081147278 -0.44671794053729058 0 0.029759634357800421 -0.44114044959405929 0 0.029759634357800421 -0.44114044959405929 0 0.027891054006234341 -0.45045392370844861 0 0.019370446241102159 -0.44582737684038048 0 0.019370446241102159 -0.44582737684038048 0 0.02092964513992094 -0.45234094673732939 0 0.01130646848986386 -0.45350785665944882 0 0.027891054006234341 -0.45045392370844861 0 0.019370446241102159 -0.44582737684038048 0 0.02092964513992094 -0.45234094673732939 0 0.020160644338872689 -0.43647731888139668 0 0.019370446241102159 -0.44582737684038048 0 0.011077691900881179 -0.43839449497152611 0 0.020160644338872689 -0.43647731888139668 0 0.029759634357800421 -0.44114044959405929 0 0.019370446241102159 -0.44582737684038048 0 0.019370446241102159 -0.44582737684038048 0 0.011077691900881179 -0.43839449497152611 0 0.0076953212378278717 -0.44595833397685369 0 0.019370446241102159 -0.44582737684038048 0 0.0076953212378278717 -0.44595833397685369 0 0.01130646848986386 -0.45350785665944882 0 -0.0026670013933727068 -0.44670431023323709 0 0.0076953212378278717 -0.44595833397685369 0 0.0021011584974573948 -0.45182517477826251 0 0.0076953212378278717 -0.44595833397685369 0 0.0021011584974573948 -0.45182517477826251 0 0.01130646848986386 -0.45350785665944882 0 0.00088915341899545048 -0.43615426505860788 0 0.011077691900881179 -0.43839449497152611 0 0.0076953212378278717 -0.44595833397685369 0 -0.0026670013933727068 -0.44670431023323709 0 0.00088915341899545048 -0.43615426505860788 0 0.0076953212378278717 -0.44595833397685369 0 -0.002347703866505482 -0.45999088199490612 0 0.02515061182248338 -0.45957462974103969 0 -0.002347703866505482 -0.45999088199490612 0 -0.0062631933699878028 -0.46411406759441309 0 0.01731963281551889 -0.46782100094005319 0 -0.002347703866505482 -0.45999088199490612 0 0.01130646848986386 -0.45350785665944882 0 0.02515061182248338 -0.45957462974103969 0 -0.0062631933699878028 -0.46411406759441309 0 0.01731963281551889 -0.46782100094005319 0 -0.002347703866505482 -0.45999088199490612 0 0.01731963281551889 -0.46782100094005319 0 0.02515061182248338 -0.45957462974103969 0 -0.0062631933699878028 -0.46411406759441309 0 0.01731963281551889 -0.46782100094005319 0 0.00103595329040903 -0.47221624115264649 0 -0.002347703866505482 -0.45999088199490612 0 0.0021011584974573948 -0.45182517477826251 0 0.01130646848986386 -0.45350785665944882 0 0.02092964513992094 -0.45234094673732939 0 0.01130646848986386 -0.45350785665944882 0 0.02515061182248338 -0.45957462974103969 0 0.027891054006234341 -0.45045392370844861 0 0.02092964513992094 -0.45234094673732939 0 0.02515061182248338 -0.45957462974103969 0 0.037162637683835827 -0.45665227522390978 0 0.027891054006234341 -0.45045392370844861 0 0.02515061182248338 -0.45957462974103969 0 0.01731963281551889 -0.46782100094005319 0 0.02515061182248338 -0.45957462974103969 0 0.028910650811243131 -0.47325516989017719 0 0.036575273498175853 -0.46621016757558309 0 0.02515061182248338 -0.45957462974103969 0 0.028910650811243131 -0.47325516989017719 0 0.01731963281551889 -0.46782100094005319 0 0.028910650811243131 -0.47325516989017719 0 0.019042301475282741 -0.4838582621845513 0 0.028910650811243131 -0.47325516989017719 0 0.019042301475282741 -0.4838582621845513 0 0.031532532016025072 -0.48477160350666598 0 0.01731963281551889 -0.46782100094005319 0 0.0099907723835669683 -0.47572689947752528 0 0.00103595329040903 -0.47221624115264649 0 0.019042301475282741 -0.4838582621845513 0 0.0099907723835669683 -0.47572689947752528 0 0.0030783257516484299 -0.48155330781822908 0 0.01731963281551889 -0.46782100094005319 0 0.019042301475282741 -0.4838582621845513 0 0.0099907723835669683 -0.47572689947752528 0 0.0099907723835669683 -0.47572689947752528 0 0.0030783257516484299 -0.48155330781822908 0 0.00103595329040903 -0.47221624115264649 0 -0.0040708438948800496 -0.5 0 0.019042301475282741 -0.4838582621845513 0 0.0030783257516484299 -0.48155330781822908 0 -0.0040708438948800496 -0.5 0 0.019042301475282741 -0.4838582621845513 0 0.024160572469515081 -0.5 0 0.019042301475282741 -0.4838582621845513 0 0.024160572469515081 -0.5 0 0.031532532016025072 -0.48477160350666598 0 0.024160572469515081 -0.5 0 0.040987272292012537 -0.48929835056440402 0 0.031532532016025072 -0.48477160350666598 0 0.024160572469515081 -0.5 0 0.040987272292012537 -0.48929835056440402 0 0.052391988833910268 -0.5 0 0.040987272292012537 -0.48929835056440402 0 0.031532532016025072 -0.48477160350666598 0 0.042416356866584841 -0.47733102668431121 0 0.028910650811243131 -0.47325516989017719 0 0.031532532016025072 -0.48477160350666598 0 0.042416356866584841 -0.47733102668431121 0 0.036575273498175853 -0.46621016757558309 0 0.028910650811243131 -0.47325516989017719 0 0.042416356866584841 -0.47733102668431121 0 0.047155732818138757 -0.46447945733333262 0 0.036575273498175853 -0.46621016757558309 0 0.042416356866584841 -0.47733102668431121 0 0.040987272292012537 -0.48929835056440402 0 0.042416356866584841 -0.47733102668431121 0 0.054434911274027373 -0.48438912263104261 0 0.042416356866584841 -0.47733102668431121 0 0.057106320527649509 -0.47143906907577998 0 0.054434911274027373 -0.48438912263104261 0 0.047155732818138757 -0.46447945733333262 0 0.042416356866584841 -0.47733102668431121 0 0.057106320527649509 -0.47143906907577998 0 0.065273610280148706 -0.47722180231078343 0 0.064952564462852636 -0.46183914970457451 0 0.057106320527649509 -0.47143906907577998 0 0.067627582565066041 -0.48813165578323298 0 0.065273610280148706 -0.47722180231078343 0 0.054434911274027373 -0.48438912263104261 0 0.065273610280148706 -0.47722180231078343 0 0.057106320527649509 -0.47143906907577998 0 0.054434911274027373 -0.48438912263104261 0 0.067627582565066041 -0.48813165578323298 0 0.052391988833910268 -0.5 0 0.054434911274027373 -0.48438912263104261 0 0.040987272292012537 -0.48929835056440402 0 0.052391988833910268 -0.5 0 0.054434911274027373 -0.48438912263104261 0 0.078700907048128613 -0.2855309486460314 0 0.085151576002749141 -0.31224921001815698 0 0.1005720009588518 -0.30604765413715179 0 0.078700907048128613 -0.2855309486460314 0 0.070017269913130703 -0.31008448998825838 0 0.078700907048128613 -0.2855309486460314 0 0.085151576002749141 -0.31224921001815698 0 0.070017269913130703 -0.31008448998825838 0 0.078700907048128613 -0.2855309486460314 0 0.070017269913130703 -0.31008448998825838 0 0.057595228312526628 -0.28723524166859832 0 0.078700907048128613 -0.2855309486460314 0 0.06791686840857486 -0.26511321518141978 0 0.08738454418312655 -0.26097740730380431 0 0.078700907048128613 -0.2855309486460314 0 0.06791686840857486 -0.26511321518141978 0 0.057595228312526628 -0.28723524166859832 0 0.06791686840857486 -0.26511321518141978 0 0.058239966685712588 -0.2449186303793702 0 0.076827087817202433 -0.2465148051290279 0 0.06791686840857486 -0.26511321518141978 0 0.08738454418312655 -0.26097740730380431 0 0.076827087817202433 -0.2465148051290279 0 0.078700907048128613 -0.2855309486460314 0 0.08738454418312655 -0.26097740730380431 0 0.10107609717776 -0.27391910474389353 0 0.078700907048128613 -0.2855309486460314 0 0.08738454418312655 -0.26097740730380431 0 0.08738454418312655 -0.26097740730380431 0 0.10107609717776 -0.27391910474389353 0 0.1057365399118136 -0.25470783319042251 0 0.10107609717776 -0.27391910474389353 0 0.1057365399118136 -0.25470783319042251 0 0.1170682930768161 -0.26606450844549201 0 0.08738454418312655 -0.26097740730380431 0 0.1057365399118136 -0.25470783319042251 0 0.096068181318124585 -0.2364238659615773 0 0.13574709872065269 -0.26669610342613209 0 0.1201509403983588 -0.25476415833570842 0 0.1170682930768161 -0.26606450844549201 0 0.1057365399118136 -0.25470783319042251 0 0.1201509403983588 -0.25476415833570842 0 0.1127569838668786 -0.24092540419269151 0 0.1057365399118136 -0.25470783319042251 0 0.1201509403983588 -0.25476415833570842 0 0.1170682930768161 -0.26606450844549201 0 0.10107609717776 -0.27391910474389353 0 0.1170682930768161 -0.26606450844549201 0 0.1166542472287994 -0.28632687223493031 0 0.1285665355501662 -0.27963149572183532 0 0.1170682930768161 -0.26606450844549201 0 0.1166542472287994 -0.28632687223493031 0 0.1287513209415935 -0.29114423132653389 0 0.1285665355501662 -0.27963149572183532 0 0.1166542472287994 -0.28632687223493031 0 0.1287513209415935 -0.29114423132653389 0 0.1166542472287994 -0.28632687223493031 0 0.1179165457094245 -0.29941235917357728 0 0.1166542472287994 -0.28632687223493031 0 0.10298395962459291 -0.29024738778711678 0 0.1179165457094245 -0.29941235917357728 0 0.078700907048128613 -0.2855309486460314 0 0.10298395962459291 -0.29024738778711678 0 0.1005720009588518 -0.30604765413715179 0 0.10107609717776 -0.27391910474389353 0 0.1166542472287994 -0.28632687223493031 0 0.10298395962459291 -0.29024738778711678 0 0.078700907048128613 -0.2855309486460314 0 0.10107609717776 -0.27391910474389353 0 0.10298395962459291 -0.29024738778711678 0 0.10298395962459291 -0.29024738778711678 0 0.1005720009588518 -0.30604765413715179 0 0.1179165457094245 -0.29941235917357728 0 0.1005720009588518 -0.30604765413715179 0 0.1179165457094245 -0.29941235917357728 0 0.1239283851024847 -0.31562421082186892 0 0.1005720009588518 -0.30604765413715179 0 0.1121708699519573 -0.32731793154861089 0 0.1239283851024847 -0.31562421082186892 0 0.13025486328074379 -0.33383548688203268 0 0.1121708699519573 -0.32731793154861089 0 0.1239283851024847 -0.31562421082186892 0 0.13025486328074379 -0.33383548688203268 0 0.1105488475755126 -0.3430534930588508 0 0.1200697072631093 -0.35053784775465641 0 0.13025486328074379 -0.33383548688203268 0 0.1121708699519573 -0.32731793154861089 0 0.1105488475755126 -0.3430534930588508 0 0.095650159135225996 -0.3287491481848559 0 0.099835625192429056 -0.3452102488395552 0 0.09072831731159911 -0.35145064223255978 0 0.1121708699519573 -0.32731793154861089 0 0.1105488475755126 -0.3430534930588508 0 0.095650159135225996 -0.3287491481848559 0 0.1105488475755126 -0.3430534930588508 0 0.095650159135225996 -0.3287491481848559 0 0.099835625192429056 -0.3452102488395552 0 0.1005720009588518 -0.30604765413715179 0 0.1121708699519573 -0.32731793154861089 0 0.095650159135225996 -0.3287491481848559 0 0.1005720009588518 -0.30604765413715179 0 0.095650159135225996 -0.3287491481848559 0 0.085151576002749141 -0.31224921001815698 0 0.1005720009588518 -0.30604765413715179 0 0.095650159135225996 -0.3287491481848559 0 0.13675290106859381 -0.3552518356565002 0 0.1124692175830892 -0.36975960542364711 0 0.11196350086204759 -0.36457858233159562 0 0.13675290106859381 -0.3552518356565002 0 0.1124692175830892 -0.36975960542364711 0 0.112721467094665 -0.37234387936600299 0 0.1109540218312476 -0.37066482687133029 0 0.10879199685857741 -0.37437886055054909 0 0.112721467094665 -0.37234387936600299 0 0.1109540218312476 -0.37066482687133029 0 0.1109540218312476 -0.37066482687133029 0 0.1124692175830892 -0.36975960542364711 0 0.1098848894615006 -0.3667804199578385 0 0.112721467094665 -0.37234387936600299 0 0.1124692175830892 -0.36975960542364711 0 0.112721467094665 -0.37234387936600299 0 0.1109540218312476 -0.37066482687133029 0 0.1124692175830892 -0.36975960542364711 0 0.1109540218312476 -0.37066482687133029 0 0.1124692175830892 -0.36975960542364711 0 0.12751598258885849 -0.37275489806000728 0 0.112721467094665 -0.37234387936600299 0 0.1124692175830892 -0.36975960542364711 0 0.11196350086204759 -0.36457858233159562 0 0.11082842352864861 -0.35596984084430261 0 0.10885856346752761 -0.36317617841100669 0 0.1124692175830892 -0.36975960542364711 0 0.11196350086204759 -0.36457858233159562 0 0.1124692175830892 -0.36975960542364711 0 0.11196350086204759 -0.36457858233159562 0 0.1098848894615006 -0.3667804199578385 0 0.11196350086204759 -0.36457858233159562 0 0.1098848894615006 -0.3667804199578385 0 0.10885856346752761 -0.36317617841100669 0 0.13675290106859381 -0.3552518356565002 0 0.11196350086204759 -0.36457858233159562 0 0.1200697072631093 -0.35053784775465641 0 0.11196350086204759 -0.36457858233159562 0 0.11082842352864861 -0.35596984084430261 0 0.1200697072631093 -0.35053784775465641 0 0.1105488475755126 -0.3430534930588508 0 0.11082842352864861 -0.35596984084430261 0 0.1200697072631093 -0.35053784775465641 0 0.1105488475755126 -0.3430534930588508 0 0.1047303436974153 -0.35151611454442261 0 0.099835625192429056 -0.3452102488395552 0 0.1105488475755126 -0.3430534930588508 0 0.11082842352864861 -0.35596984084430261 0 0.1047303436974153 -0.35151611454442261 0 0.099835625192429056 -0.3452102488395552 0 0.1001097826636534 -0.35252728919366583 0 0.09072831731159911 -0.35145064223255978 0 0.1047303436974153 -0.35151611454442261 0 0.099835625192429056 -0.3452102488395552 0 0.1001097826636534 -0.35252728919366583 0 0.1001097826636534 -0.35252728919366583 0 0.10514484445317029 -0.36193215115812538 0 0.09072831731159911 -0.35145064223255978 0 0.1047303436974153 -0.35151611454442261 0 0.1001097826636534 -0.35252728919366583 0 0.10514484445317029 -0.36193215115812538 0 0.11082842352864861 -0.35596984084430261 0 0.1047303436974153 -0.35151611454442261 0 0.10514484445317029 -0.36193215115812538 0 0.1109540218312476 -0.37066482687133029 0 0.09072831731159911 -0.35145064223255978 0 0.1109540218312476 -0.37066482687133029 0 0.10514484445317029 -0.36193215115812538 0 0.09072831731159911 -0.35145064223255978 0 0.1109540218312476 -0.37066482687133029 0 0.10014587352026399 -0.36479157967515519 0 0.09072831731159911 -0.35145064223255978 0 0.1109540218312476 -0.37066482687133029 0 0.1098848894615006 -0.3667804199578385 0 0.10514484445317029 -0.36193215115812538 0 0.11082842352864861 -0.35596984084430261 0 0.10885856346752761 -0.36317617841100669 0 0.10514484445317029 -0.36193215115812538 0 0.1098848894615006 -0.3667804199578385 0 0.10885856346752761 -0.36317617841100669 0 0.10514484445317029 -0.36193215115812538 0 0.095247110056738915 -0.36453230375379819 0 0.10014587352026399 -0.36479157967515519 0 0.09072831731159911 -0.35145064223255978 0 0.095247110056738915 -0.36453230375379819 0 0.10014587352026399 -0.36479157967515519 0 0.099865055451006102 -0.36795456978348251 0 0.10014587352026399 -0.36479157967515519 0 0.099865055451006102 -0.36795456978348251 0 0.1039348629507289 -0.36935555573460449 0 0.099865055451006102 -0.36795456978348251 0 0.09589770983431084 -0.37120652805628168 0 0.1009163080732559 -0.37196426704502411 0 0.095247110056738915 -0.36453230375379819 0 0.099865055451006102 -0.36795456978348251 0 0.09589770983431084 -0.37120652805628168 0 0.1001393812557064 -0.37693012658991332 0 0.09589770983431084 -0.37120652805628168 0 0.1009163080732559 -0.37196426704502411 0 0.1009163080732559 -0.37196426704502411 0 0.1047445308745272 -0.374374555060838 0 0.1039348629507289 -0.36935555573460449 0 0.1109540218312476 -0.37066482687133029 0 0.10014587352026399 -0.36479157967515519 0 0.1039348629507289 -0.36935555573460449 0 0.1001393812557064 -0.37693012658991332 0 0.1009163080732559 -0.37196426704502411 0 0.1047445308745272 -0.374374555060838 0 0.099865055451006102 -0.36795456978348251 0 0.1009163080732559 -0.37196426704502411 0 0.1039348629507289 -0.36935555573460449 0 0.1109540218312476 -0.37066482687133029 0 0.1047445308745272 -0.374374555060838 0 0.1109540218312476 -0.37066482687133029 0 0.1047445308745272 -0.374374555060838 0 0.1039348629507289 -0.36935555573460449 0 0.1109540218312476 -0.37066482687133029 0 0.1047445308745272 -0.374374555060838 0 0.10879199685857741 -0.37437886055054909 0 0.095247110056738915 -0.36453230375379819 0 0.08686023546009547 -0.36929177575019018 0 0.09072831731159911 -0.35145064223255978 0 0.08686023546009547 -0.36929177575019018 0 0.09072831731159911 -0.35145064223255978 0 0.08686023546009547 -0.36929177575019018 0 0.081935502762315898 -0.35831232748414571 0 0.09072831731159911 -0.35145064223255978 0 0.092324477608098504 -0.37974768846178608 0 0.09589770983431084 -0.37120652805628168 0 0.08686023546009547 -0.36929177575019018 0 0.095247110056738915 -0.36453230375379819 0 0.09589770983431084 -0.37120652805628168 0 0.08686023546009547 -0.36929177575019018 0 0.08686023546009547 -0.36929177575019018 0 0.081935502762315898 -0.35831232748414571 0 0.077736662447614083 -0.3736880441050226 0 0.081935502762315898 -0.35831232748414571 0 0.088337442652259568 -0.34917933904467718 0 0.076885191721637158 -0.35083362203140461 0 0.081935502762315898 -0.35831232748414571 0 0.088337442652259568 -0.34917933904467718 0 0.09072831731159911 -0.35145064223255978 0 0.088337442652259568 -0.34917933904467718 0 0.09072831731159911 -0.35145064223255978 0 0.088337442652259568 -0.34917933904467718 0 0.076885191721637158 -0.35083362203140461 0 0.077781346001603108 -0.33964525312194532 0 0.076885191721637158 -0.35083362203140461 0 0.067565489335660589 -0.3473574001249865 0 0.077781346001603108 -0.33964525312194532 0 0.067565489335660589 -0.3473574001249865 0 0.06880617785634667 -0.3596737903812684 0 0.056004342525166957 -0.35145473650200321 0 0.076885191721637158 -0.35083362203140461 0 0.067565489335660589 -0.3473574001249865 0 0.06880617785634667 -0.3596737903812684 0 0.081935502762315898 -0.35831232748414571 0 0.076885191721637158 -0.35083362203140461 0 0.06880617785634667 -0.3596737903812684 0 0.06880617785634667 -0.3596737903812684 0 0.067830570364931494 -0.3719444483839941 0 0.052260529336356408 -0.36787313226641682 0 0.081935502762315898 -0.35831232748414571 0 0.06880617785634667 -0.3596737903812684 0 0.077736662447614083 -0.3736880441050226 0 0.06880617785634667 -0.3596737903812684 0 0.067830570364931494 -0.3719444483839941 0 0.077736662447614083 -0.3736880441050226 0 0.085151576002749141 -0.31224921001815698 0 0.095650159135225996 -0.3287491481848559 0 0.078244137329099239 -0.32559691585653561 0 0.095650159135225996 -0.3287491481848559 0 0.088337442652259568 -0.34917933904467718 0 0.09072831731159911 -0.35145064223255978 0 0.095650159135225996 -0.3287491481848559 0 0.078244137329099239 -0.32559691585653561 0 0.077781346001603108 -0.33964525312194532 0 0.095650159135225996 -0.3287491481848559 0 0.09072831731159911 -0.35145064223255978 0 0.095650159135225996 -0.3287491481848559 0 0.088337442652259568 -0.34917933904467718 0 0.077781346001603108 -0.33964525312194532 0 0.078244137329099239 -0.32559691585653561 0 0.077781346001603108 -0.33964525312194532 0 0.061333632778132613 -0.33463803133048547 0 0.077781346001603108 -0.33964525312194532 0 0.064620458650362603 -0.34008043002506833 0 0.061333632778132613 -0.33463803133048547 0 0.077781346001603108 -0.33964525312194532 0 0.061333632778132613 -0.33463803133048547 0 0.067565489335660589 -0.3473574001249865 0 0.077781346001603108 -0.33964525312194532 0 0.064620458650362603 -0.34008043002506833 0 0.067565489335660589 -0.3473574001249865 0 0.064620458650362603 -0.34008043002506833 0 0.05936550726105598 -0.34362610865024412 0 0.070017269913130703 -0.31008448998825838 0 0.061333632778132613 -0.33463803133048547 0 0.070017269913130703 -0.31008448998825838 0 0.078244137329099239 -0.32559691585653561 0 0.061333632778132613 -0.33463803133048547 0 0.085151576002749141 -0.31224921001815698 0 0.070017269913130703 -0.31008448998825838 0 0.078244137329099239 -0.32559691585653561 0 0.055483720378909751 -0.31827277846887281 0 0.042459010857195563 -0.32889197916480672 0 0.045947798362827127 -0.31147361821639319 0 0.055483720378909751 -0.31827277846887281 0 0.061333632778132613 -0.33463803133048547 0 0.042459010857195563 -0.32889197916480672 0 0.070017269913130703 -0.31008448998825838 0 0.055483720378909751 -0.31827277846887281 0 0.061333632778132613 -0.33463803133048547 0 0.061333632778132613 -0.33463803133048547 0 0.0549104151153023 -0.33767262598263509 0 0.042459010857195563 -0.32889197916480672 0 0.061333632778132613 -0.33463803133048547 0 0.042459010857195563 -0.32889197916480672 0 0.064620458650362603 -0.34008043002506833 0 0.05936550726105598 -0.34362610865024412 0 0.060661351847276813 -0.33967800176680801 0 0.064620458650362603 -0.34008043002506833 0 0.061333632778132613 -0.33463803133048547 0 0.060661351847276813 -0.33967800176680801 0 0.061333632778132613 -0.33463803133048547 0 0.05948020610478956 -0.33688161105896719 0 0.060661351847276813 -0.33967800176680801 0 0.061333632778132613 -0.33463803133048547 0 0.05948020610478956 -0.33688161105896719 0 0.0549104151153023 -0.33767262598263509 0 0.05948020610478956 -0.33688161105896719 0 0.060661351847276813 -0.33967800176680801 0 0.0549104151153023 -0.33767262598263509 0 0.05936550726105598 -0.34362610865024412 0 0.060661351847276813 -0.33967800176680801 0 0.0549104151153023 -0.33767262598263509 0 0.0549104151153023 -0.33767262598263509 0 0.047349060729512588 -0.34181134475651259 0 0.042459010857195563 -0.32889197916480672 0 0.05936550726105598 -0.34362610865024412 0 0.0549104151153023 -0.33767262598263509 0 0.047349060729512588 -0.34181134475651259 0 0.047349060729512588 -0.34181134475651259 0 0.031543427845521659 -0.33715773910061292 0 0.039502466754787288 -0.35116955120209248 0 0.042459010857195563 -0.32889197916480672 0 0.031543427845521659 -0.33715773910061292 0 0.02358438893625708 -0.32314592699913269 0 0.047349060729512588 -0.34181134475651259 0 0.042459010857195563 -0.32889197916480672 0 0.031543427845521659 -0.33715773910061292 0 0.031543427845521659 -0.33715773910061292 0 0.039502466754787288 -0.35116955120209248 0 0.027969284363644039 -0.33606965294023661 0 0.039502466754787288 -0.35116955120209248 0 0.027969284363644039 -0.33606965294023661 0 0.042459010857195563 -0.32889197916480672 0 0.02358438893625708 -0.32314592699913269 0 0.042459010857195563 -0.32889197916480672 0 0.035582045419147397 -0.31708257223065961 0 0.02358438893625708 -0.32314592699913269 0 0.042459010857195563 -0.32889197916480672 0 0.035582045419147397 -0.31708257223065961 0 0.045947798362827127 -0.31147361821639319 0 0.065018591917926249 -0.38457671333074039 0 0.067830570364931494 -0.3719444483839941 0 0.052260529336356408 -0.36787313226641682 0 0.06880617785634667 -0.3596737903812684 0 0.052260529336356408 -0.36787313226641682 0 0.056004342525166957 -0.35145473650200321 0 0.056098993453862968 -0.38038757818948349 0 0.052260529336356408 -0.36787313226641682 0 0.047800730104325249 -0.36577856469578801 0 0.056098993453862968 -0.38038757818948349 0 0.047800730104325249 -0.36577856469578801 0 0.047349060729512588 -0.34181134475651259 0 0.056004342525166957 -0.35145473650200321 0 0.039502466754787288 -0.35116955120209248 0 0.052260529336356408 -0.36787313226641682 0 0.056004342525166957 -0.35145473650200321 0 0.039502466754787288 -0.35116955120209248 0 0.067565489335660589 -0.3473574001249865 0 0.05936550726105598 -0.34362610865024412 0 0.056004342525166957 -0.35145473650200321 0 0.05936550726105598 -0.34362610865024412 0 0.047349060729512588 -0.34181134475651259 0 0.056004342525166957 -0.35145473650200321 0 0.039502466754787288 -0.35116955120209248 0 0.030811010024170901 -0.36851094714340688 0 0.02354368559549163 -0.34944720955821951 0 0.031543427845521659 -0.33715773910061292 0 0.039502466754787288 -0.35116955120209248 0 0.047800730104325249 -0.36577856469578801 0 0.039502466754787288 -0.35116955120209248 0 0.052260529336356408 -0.36787313226641682 0 0.047800730104325249 -0.36577856469578801 0 0.039502466754787288 -0.35116955120209248 0 0.056098993453862968 -0.38038757818948349 0 0.047800730104325249 -0.36577856469578801 0 0.030811010024170901 -0.36851094714340688 0 0.047800730104325249 -0.36577856469578801 0 0.039502466754787288 -0.35116955120209248 0 0.030811010024170901 -0.36851094714340688 0 0.052260529336356408 -0.36787313226641682 0 0.039502466754787288 -0.35116955120209248 0 0.056098993453862968 -0.38038757818948349 0 0.030811010024170901 -0.36851094714340688 0 0.030811010024170901 -0.36851094714340688 0 0.0055230265944788276 -0.35663431609733032 0 0.030811010024170901 -0.36851094714340688 0 0.02354368559549163 -0.34944720955821951 0 0.0055230265944788276 -0.35663431609733032 0 0.039502466754787288 -0.35116955120209248 0 0.02354368559549163 -0.34944720955821951 0 0.027969284363644039 -0.33606965294023661 0 0.02354368559549163 -0.34944720955821951 0 0.0055230265944788276 -0.35663431609733032 0 0.01444439937210177 -0.33831562515446112 0 0.0094178782718157012 -0.37623746945321768 0 0.030811010024170901 -0.36851094714340688 0 0.0055230265944788276 -0.35663431609733032 0 -0.0073527707683874628 -0.36700998164504728 0 0.0094178782718157012 -0.37623746945321768 0 0.0055230265944788276 -0.35663431609733032 0 0.02358438893625708 -0.32314592699913269 0 0.012333226864937921 -0.30333836346491561 0 0.02358438893625708 -0.32314592699913269 0 0.01206532725406027 -0.31524728785737249 0 0.012333226864937921 -0.30333836346491561 0 0.016436101972501099 -0.32096975467838051 0 0.02358438893625708 -0.32314592699913269 0 0.027969284363644039 -0.33606965294023661 0 0.016436101972501099 -0.32096975467838051 0 0.02358438893625708 -0.32314592699913269 0 0.016436101972501099 -0.32096975467838051 0 0.02358438893625708 -0.32314592699913269 0 0.01206532725406027 -0.31524728785737249 0 0.035582045419147397 -0.31708257223065961 0 0.02358438893625708 -0.32314592699913269 0 0.02727622230281845 -0.30794963465423819 0 0.031543427845521659 -0.33715773910061292 0 0.02358438893625708 -0.32314592699913269 0 0.031543427845521659 -0.33715773910061292 0 0.02358438893625708 -0.32314592699913269 0 0.027969284363644039 -0.33606965294023661 0 0.016436101972501099 -0.32096975467838051 0 0.027969284363644039 -0.33606965294023661 0 0.01444439937210177 -0.33831562515446112 0 0.02354368559549163 -0.34944720955821951 0 0.027969284363644039 -0.33606965294023661 0 0.01444439937210177 -0.33831562515446112 0 0.016436101972501099 -0.32096975467838051 0 0.027969284363644039 -0.33606965294023661 0 -0.00018658340215797691 -0.33538528199099882 0 0.016436101972501099 -0.32096975467838051 0 0.01444439937210177 -0.33831562515446112 0 -0.00018658340215797691 -0.33538528199099882 0 0.0055230265944788276 -0.35663431609733032 0 0.01444439937210177 -0.33831562515446112 0 -0.0059567954907406356 -0.31415262438017377 0 0.016436101972501099 -0.32096975467838051 0 -0.0059567954907406356 -0.31415262438017377 0 -0.00018658340215797691 -0.33538528199099882 0 0.016436101972501099 -0.32096975467838051 0 -0.0059567954907406356 -0.31415262438017377 0 0.016436101972501099 -0.32096975467838051 0 0.01206532725406027 -0.31524728785737249 0 0.016436101972501099 -0.32096975467838051 0 0.01206532725406027 -0.31524728785737249 0 -0.0059567954907406356 -0.31415262438017377 0 0.01206532725406027 -0.31524728785737249 0 0.0041958668063563371 -0.307640622600581 0 -0.001658291402832203 -0.29782421469986192 0 0.0041958668063563371 -0.307640622600581 0 0.012333226864937921 -0.30333836346491561 0 0.01206532725406027 -0.31524728785737249 0 0.0041958668063563371 -0.307640622600581 0 0.012333226864937921 -0.30333836346491561 0 -0.001658291402832203 -0.29782421469986192 0 -0.0018933533600431129 -0.28046667749116883 0 0.0094319431288546855 -0.28913050344487629 0 -0.001658291402832203 -0.29782421469986192 0 0.012333226864937921 -0.30333836346491561 0 0.0094319431288546855 -0.28913050344487629 0 0.012333226864937921 -0.30333836346491561 0 0.0094319431288546855 -0.28913050344487629 0 0.024455993964840651 -0.29461435965771199 0 0.020813872692820579 -0.28170826773689189 0 0.024455993964840651 -0.29461435965771199 0 0.036815911879402703 -0.28410303829377709 0 0.0094319431288546855 -0.28913050344487629 0 0.020813872692820579 -0.28170826773689189 0 0.024455993964840651 -0.29461435965771199 0 0.02358438893625708 -0.32314592699913269 0 0.012333226864937921 -0.30333836346491561 0 0.02727622230281845 -0.30794963465423819 0 0.024455993964840651 -0.29461435965771199 0 0.02727622230281845 -0.30794963465423819 0 0.040275318537992738 -0.30111351400119452 0 0.012333226864937921 -0.30333836346491561 0 0.024455993964840651 -0.29461435965771199 0 0.02727622230281845 -0.30794963465423819 0 0.035582045419147397 -0.31708257223065961 0 0.045947798362827127 -0.31147361821639319 0 0.040275318537992738 -0.30111351400119452 0 0.035582045419147397 -0.31708257223065961 0 0.02727622230281845 -0.30794963465423819 0 0.040275318537992738 -0.30111351400119452 0 0.045947798362827127 -0.31147361821639319 0 0.040275318537992738 -0.30111351400119452 0 0.053863867101077392 -0.30563592846866339 0 0.040275318537992738 -0.30111351400119452 0 0.036815911879402703 -0.28410303829377709 0 0.057595228312526628 -0.28723524166859832 0 0.024455993964840651 -0.29461435965771199 0 0.040275318537992738 -0.30111351400119452 0 0.036815911879402703 -0.28410303829377709 0 0.070017269913130703 -0.31008448998825838 0 0.055483720378909751 -0.31827277846887281 0 0.053863867101077392 -0.30563592846866339 0 0.040275318537992738 -0.30111351400119452 0 0.057595228312526628 -0.28723524166859832 0 0.053863867101077392 -0.30563592846866339 0 0.070017269913130703 -0.31008448998825838 0 0.057595228312526628 -0.28723524166859832 0 0.053863867101077392 -0.30563592846866339 0 0.055483720378909751 -0.31827277846887281 0 0.045947798362827127 -0.31147361821639319 0 0.053863867101077392 -0.30563592846866339 0 0.06791686840857486 -0.26511321518141978 0 0.048753476404752381 -0.26550225796168692 0 0.058239966685712588 -0.2449186303793702 0 0.048753476404752381 -0.26550225796168692 0 0.037955064236187899 -0.25118774778527803 0 0.058239966685712588 -0.2449186303793702 0 0.06791686840857486 -0.26511321518141978 0 0.057595228312526628 -0.28723524166859832 0 0.048753476404752381 -0.26550225796168692 0 0.036815911879402703 -0.28410303829377709 0 0.057595228312526628 -0.28723524166859832 0 0.048753476404752381 -0.26550225796168692 0 0.036815911879402703 -0.28410303829377709 0 0.048753476404752381 -0.26550225796168692 0 0.032591061234039001 -0.26859936609716267 0 0.032591061234039001 -0.26859936609716267 0 0.037955064236187899 -0.25118774778527803 0 0.026269242157815152 -0.25951961293376941 0 0.048753476404752381 -0.26550225796168692 0 0.032591061234039001 -0.26859936609716267 0 0.037955064236187899 -0.25118774778527803 0 0.037955064236187899 -0.25118774778527803 0 0.026269242157815152 -0.25951961293376941 0 0.023051903495568269 -0.24790950880486909 0 0.026269242157815152 -0.25951961293376941 0 0.016448128385143521 -0.26000092398717117 0 0.021300053438137088 -0.26990051799436582 0 0.026269242157815152 -0.25951961293376941 0 0.016448128385143521 -0.26000092398717117 0 0.023051903495568269 -0.24790950880486909 0 0.016448128385143521 -0.26000092398717117 0 0.0085209550452993704 -0.2491140407910134 0 0.023051903495568269 -0.24790950880486909 0 0.020813872692820579 -0.28170826773689189 0 0.036815911879402703 -0.28410303829377709 0 0.032591061234039001 -0.26859936609716267 0 0.020813872692820579 -0.28170826773689189 0 0.032591061234039001 -0.26859936609716267 0 0.021300053438137088 -0.26990051799436582 0 0.032591061234039001 -0.26859936609716267 0 0.026269242157815152 -0.25951961293376941 0 0.021300053438137088 -0.26990051799436582 0 0.016448128385143521 -0.26000092398717117 0 0.021300053438137088 -0.26990051799436582 0 0.0099749681491097652 -0.27262588672955362 0 0.020813872692820579 -0.28170826773689189 0 0.021300053438137088 -0.26990051799436582 0 0.0099749681491097652 -0.27262588672955362 0 -0.0018933533600431129 -0.28046667749116883 0 0.0094319431288546855 -0.28913050344487629 0 0.0099749681491097652 -0.27262588672955362 0 0.0094319431288546855 -0.28913050344487629 0 0.020813872692820579 -0.28170826773689189 0 0.0099749681491097652 -0.27262588672955362 0 0.0099749681491097652 -0.27262588672955362 0 0.00043718057657325931 -0.27070861411802111 0 0.0072873538856892076 -0.26327591049339011 0 -0.0018933533600431129 -0.28046667749116883 0 0.0099749681491097652 -0.27262588672955362 0 0.00043718057657325931 -0.27070861411802111 0 0.016448128385143521 -0.26000092398717117 0 0.0072873538856892076 -0.26327591049339011 0 0.0085209550452993704 -0.2491140407910134 0 0.016448128385143521 -0.26000092398717117 0 0.0099749681491097652 -0.27262588672955362 0 0.0072873538856892076 -0.26327591049339011 0 -0.0023769070460768161 -0.25944029114748868 0 0.00043718057657325931 -0.27070861411802111 0 0.0072873538856892076 -0.26327591049339011 0 -0.0023769070460768161 -0.25944029114748868 0 -0.0050609087585187914 -0.24448965595804831 0 0.0085209550452993704 -0.2491140407910134 0 -0.0023769070460768161 -0.25944029114748868 0 0.0072873538856892076 -0.26327591049339011 0 0.0085209550452993704 -0.2491140407910134 0 -0.0050609087585187914 -0.24448965595804831 0 0.0085209550452993704 -0.2491140407910134 0 0.0043532972358198471 -0.23289883483909901 0 0.0085209550452993704 -0.2491140407910134 0 0.0043532972358198471 -0.23289883483909901 0 0.016013125080552911 -0.2347787977544811 0 -0.00046921512868739422 -0.22569995350716959 0 0.0043532972358198471 -0.23289883483909901 0 0.0091405715748848274 -0.2260720658487689 0 -0.00046921512868739422 -0.22569995350716959 0 0.0091405715748848274 -0.2260720658487689 0 0.0052132563045326416 -0.217943300132031 0 0.0091405715748848274 -0.2260720658487689 0 0.017230403323221059 -0.22254969322337581 0 0.0052132563045326416 -0.217943300132031 0 0.0091405715748848274 -0.2260720658487689 0 0.017230403323221059 -0.22254969322337581 0 0.016013125080552911 -0.2347787977544811 0 0.0043532972358198471 -0.23289883483909901 0 0.0091405715748848274 -0.2260720658487689 0 0.016013125080552911 -0.2347787977544811 0 0.017230403323221059 -0.22254969322337581 0 0.016013125080552911 -0.2347787977544811 0 0.032012317779818562 -0.2334114825923084 0 0.017230403323221059 -0.22254969322337581 0 0.029429419905672001 -0.21844912323838059 0 0.032012317779818562 -0.2334114825923084 0 0.023051903495568269 -0.24790950880486909 0 0.016013125080552911 -0.2347787977544811 0 0.032012317779818562 -0.2334114825923084 0 0.037955064236187899 -0.25118774778527803 0 0.023051903495568269 -0.24790950880486909 0 0.032012317779818562 -0.2334114825923084 0 0.0085209550452993704 -0.2491140407910134 0 0.023051903495568269 -0.24790950880486909 0 0.016013125080552911 -0.2347787977544811 0 -0.00051630681429407424 -0.19859453141270639 0 0.016357364450400352 -0.19205522290353819 0 0.0028164378603697019 -0.18575172484963451 0 -0.00051630681429407424 -0.19859453141270639 0 0.014403133177008301 -0.21080932795299359 0 0.016357364450400352 -0.19205522290353819 0 -0.0051387385167336562 -0.21108637924508611 0 -0.00051630681429407424 -0.19859453141270639 0 0.0072164994348546396 -0.21245754233064759 0 -0.00051630681429407424 -0.19859453141270639 0 0.014403133177008301 -0.21080932795299359 0 -0.00051630681429407424 -0.19859453141270639 0 0.014403133177008301 -0.21080932795299359 0 0.0072164994348546396 -0.21245754233064759 0 -0.0051387385167336562 -0.21108637924508611 0 0.0072164994348546396 -0.21245754233064759 0 0.0052132563045326416 -0.217943300132031 0 0.017230403323221059 -0.22254969322337581 0 0.0072164994348546396 -0.21245754233064759 0 0.0052132563045326416 -0.217943300132031 0 0.014403133177008301 -0.21080932795299359 0 0.0072164994348546396 -0.21245754233064759 0 0.029429419905672001 -0.21844912323838059 0 0.017230403323221059 -0.22254969322337581 0 0.0072164994348546396 -0.21245754233064759 0 0.029429419905672001 -0.21844912323838059 0 0.0072164994348546396 -0.21245754233064759 0 0.029429419905672001 -0.21844912323838059 0 0.014403133177008301 -0.21080932795299359 0 0.029429419905672001 -0.21844912323838059 0 0.02838487568919652 -0.20422502515148991 0 0.014403133177008301 -0.21080932795299359 0 0.02838487568919652 -0.20422502515148991 0 0.016357364450400352 -0.19205522290353819 0 0.02838487568919652 -0.20422502515148991 0 0.016357364450400352 -0.19205522290353819 0 0.036582621869690669 -0.1917410130999713 0 0.02838487568919652 -0.20422502515148991 0 0.036582621869690669 -0.1917410130999713 0 0.04515183904321126 -0.20807043856256599 0 0.029429419905672001 -0.21844912323838059 0 0.02838487568919652 -0.20422502515148991 0 0.04515183904321126 -0.20807043856256599 0 0.029429419905672001 -0.21844912323838059 0 0.04515183904321126 -0.20807043856256599 0 0.051642340376489369 -0.22444070414611339 0 0.04515183904321126 -0.20807043856256599 0 0.064127492937710681 -0.21421472538186431 0 0.065252116273661759 -0.1935999375650069 0 0.04515183904321126 -0.20807043856256599 0 0.051642340376489369 -0.22444070414611339 0 0.064127492937710681 -0.21421472538186431 0 0.036582621869690669 -0.1917410130999713 0 0.04515183904321126 -0.20807043856256599 0 0.065252116273661759 -0.1935999375650069 0 0.037955064236187899 -0.25118774778527803 0 0.044962422269552098 -0.23848964122576749 0 0.032012317779818562 -0.2334114825923084 0 0.029429419905672001 -0.21844912323838059 0 0.032012317779818562 -0.2334114825923084 0 0.051642340376489369 -0.22444070414611339 0 0.044962422269552098 -0.23848964122576749 0 0.032012317779818562 -0.2334114825923084 0 0.051642340376489369 -0.22444070414611339 0 0.029429419905672001 -0.21844912323838059 0 0.051642340376489369 -0.22444070414611339 0 0.051642340376489369 -0.22444070414611339 0 0.058239966685712588 -0.2449186303793702 0 0.073855260847306731 -0.2304322850538463 0 0.037955064236187899 -0.25118774778527803 0 0.044962422269552098 -0.23848964122576749 0 0.058239966685712588 -0.2449186303793702 0 0.044962422269552098 -0.23848964122576749 0 0.051642340376489369 -0.22444070414611339 0 0.058239966685712588 -0.2449186303793702 0 0.058239966685712588 -0.2449186303793702 0 0.076827087817202433 -0.2465148051290279 0 0.073855260847306731 -0.2304322850538463 0 0.076827087817202433 -0.2465148051290279 0 0.073855260847306731 -0.2304322850538463 0 0.096068181318124585 -0.2364238659615773 0 0.08738454418312655 -0.26097740730380431 0 0.096068181318124585 -0.2364238659615773 0 0.08738454418312655 -0.26097740730380431 0 0.076827087817202433 -0.2465148051290279 0 0.096068181318124585 -0.2364238659615773 0 0.092844814468846473 -0.22488418705838831 0 0.073855260847306731 -0.2304322850538463 0 0.085735826328305925 -0.21456173493339969 0 0.092844814468846473 -0.22488418705838831 0 0.073855260847306731 -0.2304322850538463 0 0.096068181318124585 -0.2364238659615773 0 0.073855260847306731 -0.2304322850538463 0 0.096068181318124585 -0.2364238659615773 0 0.051642340376489369 -0.22444070414611339 0 0.073855260847306731 -0.2304322850538463 0 0.064127492937710681 -0.21421472538186431 0 0.051642340376489369 -0.22444070414611339 0 0.073855260847306731 -0.2304322850538463 0 0.073855260847306731 -0.2304322850538463 0 0.064127492937710681 -0.21421472538186431 0 0.085735826328305925 -0.21456173493339969 0 0.064127492937710681 -0.21421472538186431 0 0.065252116273661759 -0.1935999375650069 0 0.085735826328305925 -0.21456173493339969 0 0.065252116273661759 -0.1935999375650069 0 0.085735826328305925 -0.21456173493339969 0 0.065252116273661759 -0.1935999375650069 0 0.085735826328305925 -0.21456173493339969 0 0.0943254936002446 -0.19659396527531331 0 0.065252116273661759 -0.1935999375650069 0 0.0943254936002446 -0.19659396527531331 0 0.086694012142380789 -0.18123868286261791 0 0.085735826328305925 -0.21456173493339969 0 0.1011380005573841 -0.21225814791517719 0 0.0943254936002446 -0.19659396527531331 0 0.092844814468846473 -0.22488418705838831 0 0.085735826328305925 -0.21456173493339969 0 0.1011380005573841 -0.21225814791517719 0 0.1011380005573841 -0.21225814791517719 0 0.10608831923890891 -0.20265911853720431 0 0.11700302096417151 -0.2088944707406378 0 0.1011380005573841 -0.21225814791517719 0 0.0943254936002446 -0.19659396527531331 0 0.10608831923890891 -0.20265911853720431 0 0.1011380005573841 -0.21225814791517719 0 0.11192616342336929 -0.2198594753164258 0 0.1025906440692519 -0.22376549647794511 0 0.0943254936002446 -0.19659396527531331 0 0.1118867618338352 -0.1928898902176889 0 0.1031683885755252 -0.17797428555611899 0 0.0943254936002446 -0.19659396527531331 0 0.10608831923890891 -0.20265911853720431 0 0.1118867618338352 -0.1928898902176889 0 0.1118867618338352 -0.1928898902176889 0 0.11700302096417151 -0.2088944707406378 0 0.13324399690201749 -0.1968848679071625 0 0.1118867618338352 -0.1928898902176889 0 0.11866445213751201 -0.1761215583406342 0 0.13324399690201749 -0.1968848679071625 0 0.10608831923890891 -0.20265911853720431 0 0.1118867618338352 -0.1928898902176889 0 0.11700302096417151 -0.2088944707406378 0 0.1011380005573841 -0.21225814791517719 0 0.11700302096417151 -0.2088944707406378 0 0.11192616342336929 -0.2198594753164258 0 0.11700302096417151 -0.2088944707406378 0 0.12198520600478829 -0.22024484094270749 0 0.11192616342336929 -0.2198594753164258 0 0.11700302096417151 -0.2088944707406378 0 0.12198520600478829 -0.22024484094270749 0 0.1323274781045381 -0.21950090468917591 0 0.12198520600478829 -0.22024484094270749 0 0.1160157298579563 -0.22511939314727361 0 0.11860561704638389 -0.23211821667625801 0 0.12198520600478829 -0.22024484094270749 0 0.11860561704638389 -0.23211821667625801 0 0.12944578641563309 -0.24542694242380381 0 0.12198520600478829 -0.22024484094270749 0 0.11192616342336929 -0.2198594753164258 0 0.1160157298579563 -0.22511939314727361 0 0.11192616342336929 -0.2198594753164258 0 0.1160157298579563 -0.22511939314727361 0 0.1115459329572836 -0.22825503965370289 0 0.1115459329572836 -0.22825503965370289 0 0.1127569838668786 -0.24092540419269151 0 0.1041285431808489 -0.2322466796588602 0 0.1115459329572836 -0.22825503965370289 0 0.11860561704638389 -0.23211821667625801 0 0.1127569838668786 -0.24092540419269151 0 0.1160157298579563 -0.22511939314727361 0 0.1115459329572836 -0.22825503965370289 0 0.11860561704638389 -0.23211821667625801 0 0.11860561704638389 -0.23211821667625801 0 0.1127569838668786 -0.24092540419269151 0 0.12944578641563309 -0.24542694242380381 0 0.1201509403983588 -0.25476415833570842 0 0.1127569838668786 -0.24092540419269151 0 0.12944578641563309 -0.24542694242380381 0 0.1127569838668786 -0.24092540419269151 0 0.12944578641563309 -0.24542694242380381 0 0.1127569838668786 -0.24092540419269151 0 0.096068181318124585 -0.2364238659615773 0 0.1041285431808489 -0.2322466796588602 0 0.1127569838668786 -0.24092540419269151 0 0.096068181318124585 -0.2364238659615773 0 0.1057365399118136 -0.25470783319042251 0 0.1127569838668786 -0.24092540419269151 0 0.096068181318124585 -0.2364238659615773 0 0.092844814468846473 -0.22488418705838831 0 0.096068181318124585 -0.2364238659615773 0 0.097680973692705717 -0.23186359200838441 0 0.096068181318124585 -0.2364238659615773 0 0.097680973692705717 -0.23186359200838441 0 0.096068181318124585 -0.2364238659615773 0 0.097680973692705717 -0.23186359200838441 0 0.1041285431808489 -0.2322466796588602 0 0.092844814468846473 -0.22488418705838831 0 0.097680973692705717 -0.23186359200838441 0 0.1025906440692519 -0.22376549647794511 0 0.097680973692705717 -0.23186359200838441 0 0.1025906440692519 -0.22376549647794511 0 0.1041285431808489 -0.2322466796588602 0 0.092844814468846473 -0.22488418705838831 0 0.1011380005573841 -0.21225814791517719 0 0.1025906440692519 -0.22376549647794511 0 0.11192616342336929 -0.2198594753164258 0 0.1115459329572836 -0.22825503965370289 0 0.1025906440692519 -0.22376549647794511 0 0.1115459329572836 -0.22825503965370289 0 0.1025906440692519 -0.22376549647794511 0 0.1041285431808489 -0.2322466796588602 0 0.099829395505855345 -0.13121997112818451 0 0.1107438507569779 -0.14958101692169351 0 0.088002301770600422 -0.150122231731183 0 0.1107438507569779 -0.14958101692169351 0 0.095954718573422193 -0.1641587369515527 0 0.088002301770600422 -0.150122231731183 0 0.099829395505855345 -0.13121997112818451 0 0.1194960029087308 -0.12911457695895751 0 0.1107438507569779 -0.14958101692169351 0 0.1194960029087308 -0.12911457695895751 0 0.1107438507569779 -0.14958101692169351 0 0.13519100098590339 -0.14884055490780301 0 0.1107438507569779 -0.14958101692169351 0 0.1216498976553972 -0.16278532909297319 0 0.13519100098590339 -0.14884055490780301 0 0.1107438507569779 -0.14958101692169351 0 0.1216498976553972 -0.16278532909297319 0 0.109880092156146 -0.16583575645744919 0 0.1216498976553972 -0.16278532909297319 0 0.11866445213751201 -0.1761215583406342 0 0.13416051569949869 -0.17426883112514921 0 0.1216498976553972 -0.16278532909297319 0 0.109880092156146 -0.16583575645744919 0 0.11866445213751201 -0.1761215583406342 0 0.1118867618338352 -0.1928898902176889 0 0.11866445213751201 -0.1761215583406342 0 0.1031683885755252 -0.17797428555611899 0 0.11866445213751201 -0.1761215583406342 0 0.1031683885755252 -0.17797428555611899 0 0.109880092156146 -0.16583575645744919 0 0.11866445213751201 -0.1761215583406342 0 0.1031683885755252 -0.17797428555611899 0 0.1031683885755252 -0.17797428555611899 0 0.095954718573422193 -0.1641587369515527 0 0.086694012142380789 -0.18123868286261791 0 0.0943254936002446 -0.19659396527531331 0 0.1031683885755252 -0.17797428555611899 0 0.086694012142380789 -0.18123868286261791 0 0.1107438507569779 -0.14958101692169351 0 0.109880092156146 -0.16583575645744919 0 0.095954718573422193 -0.1641587369515527 0 0.109880092156146 -0.16583575645744919 0 0.1031683885755252 -0.17797428555611899 0 0.095954718573422193 -0.1641587369515527 0 0.095954718573422193 -0.1641587369515527 0 0.076874624570068675 -0.1679869158900662 0 0.088002301770600422 -0.150122231731183 0 0.095954718573422193 -0.1641587369515527 0 0.086694012142380789 -0.18123868286261791 0 0.076874624570068675 -0.1679869158900662 0 0.065252116273661759 -0.1935999375650069 0 0.086694012142380789 -0.18123868286261791 0 0.076874624570068675 -0.1679869158900662 0 0.076874624570068675 -0.1679869158900662 0 0.064932441880032984 -0.15147763334507591 0 0.088002301770600422 -0.150122231731183 0 0.064932441880032984 -0.15147763334507591 0 0.088002301770600422 -0.150122231731183 0 0.079678779337245459 -0.13630911615052571 0 0.064932441880032984 -0.15147763334507591 0 0.079678779337245459 -0.13630911615052571 0 0.063541117044716836 -0.1363943602463244 0 0.099829395505855345 -0.13121997112818451 0 0.079678779337245459 -0.13630911615052571 0 0.086359778491213873 -0.1186116559357633 0 0.099829395505855345 -0.13121997112818451 0 0.088002301770600422 -0.150122231731183 0 0.079678779337245459 -0.13630911615052571 0 0.079678779337245459 -0.13630911615052571 0 0.086359778491213873 -0.1186116559357633 0 0.066105729429237411 -0.122347312065754 0 0.079678779337245459 -0.13630911615052571 0 0.063541117044716836 -0.1363943602463244 0 0.066105729429237411 -0.122347312065754 0 0.063541117044716836 -0.1363943602463244 0 0.050885683669062647 -0.12784531727048301 0 0.066105729429237411 -0.122347312065754 0 0.063541117044716836 -0.1363943602463244 0 0.050885683669062647 -0.12784531727048301 0 0.052121044778882568 -0.1429823469318304 0 0.064932441880032984 -0.15147763334507591 0 0.063541117044716836 -0.1363943602463244 0 0.052121044778882568 -0.1429823469318304 0 0.064932441880032984 -0.15147763334507591 0 0.052121044778882568 -0.1429823469318304 0 0.043404626828727047 -0.15392982238796421 0 0.043404626828727047 -0.15392982238796421 0 0.037025421602263971 -0.1388780798875737 0 0.024284696164373318 -0.15167634282822121 0 0.052121044778882568 -0.1429823469318304 0 0.043404626828727047 -0.15392982238796421 0 0.037025421602263971 -0.1388780798875737 0 0.050885683669062647 -0.12784531727048301 0 0.037025421602263971 -0.1388780798875737 0 0.03342922526907547 -0.1174165576600532 0 0.050885683669062647 -0.12784531727048301 0 0.052121044778882568 -0.1429823469318304 0 0.037025421602263971 -0.1388780798875737 0 0.076874624570068675 -0.1679869158900662 0 0.064932441880032984 -0.15147763334507591 0 0.044768406219017551 -0.17263814019661411 0 0.065252116273661759 -0.1935999375650069 0 0.076874624570068675 -0.1679869158900662 0 0.044768406219017551 -0.17263814019661411 0 0.036582621869690669 -0.1917410130999713 0 0.065252116273661759 -0.1935999375650069 0 0.044768406219017551 -0.17263814019661411 0 0.065252116273661759 -0.1935999375650069 0 0.044768406219017551 -0.17263814019661411 0 0.064932441880032984 -0.15147763334507591 0 0.043404626828727047 -0.15392982238796421 0 0.044768406219017551 -0.17263814019661411 0 0.043404626828727047 -0.15392982238796421 0 0.044768406219017551 -0.17263814019661411 0 0.024284696164373318 -0.15167634282822121 0 0.044768406219017551 -0.17263814019661411 0 0.024284696164373318 -0.15167634282822121 0 0.036582621869690669 -0.1917410130999713 0 0.044768406219017551 -0.17263814019661411 0 0.02355360116565728 -0.1758569133039101 0 0.016357364450400352 -0.19205522290353819 0 0.02355360116565728 -0.1758569133039101 0 0.01138521736531556 -0.1755803857176258 0 0.016357364450400352 -0.19205522290353819 0 0.036582621869690669 -0.1917410130999713 0 0.02355360116565728 -0.1758569133039101 0 0.02355360116565728 -0.1758569133039101 0 0.01424980654890767 -0.16543015493956861 0 0.01138521736531556 -0.1755803857176258 0 0.02355360116565728 -0.1758569133039101 0 0.01424980654890767 -0.16543015493956861 0 0.024284696164373318 -0.15167634282822121 0 0.044768406219017551 -0.17263814019661411 0 0.02355360116565728 -0.1758569133039101 0 0.024284696164373318 -0.15167634282822121 0 0.0081228045588438123 -0.15844939700383179 0 0.01424980654890767 -0.16543015493956861 0 0.024284696164373318 -0.15167634282822121 0 0.0081228045588438123 -0.15844939700383179 0 0.0039027134903483682 -0.1655877358442541 0 0.01424980654890767 -0.16543015493956861 0 0.0081228045588438123 -0.15844939700383179 0 0.0003014096489009662 -0.15827909213919711 0 0.0039027134903483682 -0.1655877358442541 0 0.0039027134903483682 -0.1655877358442541 0 0.01424980654890767 -0.16543015493956861 0 0.01138521736531556 -0.1755803857176258 0 0.016357364450400352 -0.19205522290353819 0 0.01138521736531556 -0.1755803857176258 0 0.0028164378603697019 -0.18575172484963451 0 0.0039027134903483682 -0.1655877358442541 0 0.01138521736531556 -0.1755803857176258 0 0.00066715547760964802 -0.17832489532098381 0 0.01138521736531556 -0.1755803857176258 0 0.00066715547760964802 -0.17832489532098381 0 0.0028164378603697019 -0.18575172484963451 0 0.022813063036778731 -0.13147217706671721 0 0.024284696164373318 -0.15167634282822121 0 0.003800986109728721 -0.1307145454598288 0 0.037025421602263971 -0.1388780798875737 0 0.022813063036778731 -0.13147217706671721 0 0.03342922526907547 -0.1174165576600532 0 0.037025421602263971 -0.1388780798875737 0 0.022813063036778731 -0.13147217706671721 0 0.024284696164373318 -0.15167634282822121 0 -0.00099965877895308438 -0.1488051650987488 0 0.0081228045588438123 -0.15844939700383179 0 0.003800986109728721 -0.1307145454598288 0 0.0081228045588438123 -0.15844939700383179 0 0.003800986109728721 -0.1307145454598288 0 0.024284696164373318 -0.15167634282822121 0 0.003800986109728721 -0.1307145454598288 0 0.0081228045588438123 -0.15844939700383179 0 0.024284696164373318 -0.15167634282822121 0 0.003800986109728721 -0.1307145454598288 0 -0.00099965877895308438 -0.1488051650987488 0 0.0081228045588438123 -0.15844939700383179 0 0.0003014096489009662 -0.15827909213919711 0 0.022813063036778731 -0.13147217706671721 0 0.003800986109728721 -0.1307145454598288 0 0.016484873284124721 -0.11638481488360281 0 -0.00050519907656484302 -0.1030800188666879 0 0.003800986109728721 -0.1307145454598288 0 -0.00050519907656484302 -0.1030800188666879 0 0.003800986109728721 -0.1307145454598288 0 0.016484873284124721 -0.11638481488360281 0 0.016484873284124721 -0.11638481488360281 0 0.020827633868130389 -0.10286555596041019 0 0.03342922526907547 -0.1174165576600532 0 0.022813063036778731 -0.13147217706671721 0 0.016484873284124721 -0.11638481488360281 0 0.03342922526907547 -0.1174165576600532 0 0.020827633868130389 -0.10286555596041019 0 0.012255484700806689 -0.092203595459533841 0 0.034315715551376448 -0.094416744931229812 0 0.020827633868130389 -0.10286555596041019 0 0.03342922526907547 -0.1174165576600532 0 0.034315715551376448 -0.094416744931229812 0 -0.00050519907656484302 -0.1030800188666879 0 0.016484873284124721 -0.11638481488360281 0 0.020827633868130389 -0.10286555596041019 0 -0.00050519907656484302 -0.1030800188666879 0 0.020827633868130389 -0.10286555596041019 0 0.012255484700806689 -0.092203595459533841 0 -0.0048113842628591426 -0.075445492273546855 0 -0.00050519907656484302 -0.1030800188666879 0 0.012255484700806689 -0.092203595459533841 0 -0.0048113842628591426 -0.075445492273546855 0 0.012255484700806689 -0.092203595459533841 0 0.023792571964919618 -0.075818819598628823 0 -0.0048113842628591426 -0.075445492273546855 0 0.023792571964919618 -0.075818819598628823 0 -0.0062574754781501464 -0.066165341881438272 0 -0.0048113842628591426 -0.075445492273546855 0 0.012523966587644019 -0.060924802511955839 0 -0.0048113842628591426 -0.075445492273546855 0 0.023792571964919618 -0.075818819598628823 0 0.012523966587644019 -0.060924802511955839 0 0.023792571964919618 -0.075818819598628823 0 0.012523966587644019 -0.060924802511955839 0 0.034068598804345811 -0.061224980386850383 0 0.023792571964919618 -0.075818819598628823 0 0.034068598804345811 -0.061224980386850383 0 0.012255484700806689 -0.092203595459533841 0 0.023792571964919618 -0.075818819598628823 0 0.012255484700806689 -0.092203595459533841 0 0.023792571964919618 -0.075818819598628823 0 0.034315715551376448 -0.094416744931229812 0 0.023792571964919618 -0.075818819598628823 0 0.043365508698569033 -0.076074277691790329 0 0.034315715551376448 -0.094416744931229812 0 0.043365508698569033 -0.076074277691790329 0 0.052692590721632758 -0.090027073011083564 0 0.034315715551376448 -0.094416744931229812 0 0.023792571964919618 -0.075818819598628823 0 0.043365508698569033 -0.076074277691790329 0 0.023792571964919618 -0.075818819598628823 0 0.043365508698569033 -0.076074277691790329 0 0.034068598804345811 -0.061224980386850383 0 0.043365508698569033 -0.076074277691790329 0 0.044365686142279391 -0.063173475522878025 0 0.034068598804345811 -0.061224980386850383 0 0.058140403903834827 -0.055091221850674332 0 0.062938445432218451 -0.076329735784950337 0 0.055684011422429028 -0.068763502837798252 0 0.058140403903834827 -0.055091221850674332 0 0.062938445432218451 -0.076329735784950337 0 0.043365508698569033 -0.076074277691790329 0 0.062938445432218451 -0.076329735784950337 0 0.043365508698569033 -0.076074277691790329 0 0.055684011422429028 -0.068763502837798252 0 0.062938445432218451 -0.076329735784950337 0 0.043365508698569033 -0.076074277691790329 0 0.044365686142279391 -0.063173475522878025 0 0.055684011422429028 -0.068763502837798252 0 0.043365508698569033 -0.076074277691790329 0 0.052692590721632758 -0.090027073011083564 0 0.062938445432218451 -0.076329735784950337 0 0.052692590721632758 -0.090027073011083564 0 0.067753668905437547 -0.097644305537539916 0 0.062938445432218451 -0.076329735784950337 0 0.052692590721632758 -0.090027073011083564 0 0.054003166360052708 -0.10866983401863151 0 0.034315715551376448 -0.094416744931229812 0 0.052692590721632758 -0.090027073011083564 0 0.054003166360052708 -0.10866983401863151 0 0.067753668905437547 -0.097644305537539916 0 0.050885683669062647 -0.12784531727048301 0 0.054003166360052708 -0.10866983401863151 0 0.066105729429237411 -0.122347312065754 0 0.050885683669062647 -0.12784531727048301 0 0.054003166360052708 -0.10866983401863151 0 0.03342922526907547 -0.1174165576600532 0 0.054003166360052708 -0.10866983401863151 0 0.03342922526907547 -0.1174165576600532 0 0.034315715551376448 -0.094416744931229812 0 0.0067200560687082156 0.00010385857572603739 0 0.02320130703148204 -0.0053633350158952308 0 0.0061510902218013946 -0.016732856684622179 0 0.02320130703148204 -0.0053633350158952308 0 0.0061510902218013946 -0.016732856684622179 0 -0.0078605566542857899 -0.00046063017767232288 0 0.0067200560687082156 0.00010385857572603739 0 0.0061510902218013946 -0.016732856684622179 0 0.0061510902218013946 -0.016732856684622179 0 0.015585866436716139 -0.03025484334809431 0 0.0044416444853491791 -0.042406610406893218 0 0.02320130703148204 -0.0053633350158952308 0 0.0061510902218013946 -0.016732856684622179 0 0.015585866436716139 -0.03025484334809431 0 0.02320130703148204 -0.0053633350158952308 0 0.033772966337629363 -0.02599723809548397 0 0.02320130703148204 -0.0053633350158952308 0 0.015585866436716139 -0.03025484334809431 0 0.033772966337629363 -0.02599723809548397 0 0.015585866436716139 -0.03025484334809431 0 0.0241229447159097 -0.04457326932072514 0 0.033772966337629363 -0.02599723809548397 0 0.015585866436716139 -0.03025484334809431 0 0.0241229447159097 -0.04457326932072514 0 0.0044416444853491791 -0.042406610406893218 0 -0.0062574754781501464 -0.066165341881438272 0 0.0044416444853491791 -0.042406610406893218 0 0.012523966587644019 -0.060924802511955839 0 0.0241229447159097 -0.04457326932072514 0 0.0044416444853491791 -0.042406610406893218 0 0.012523966587644019 -0.060924802511955839 0 0.0241229447159097 -0.04457326932072514 0 0.012523966587644019 -0.060924802511955839 0 0.034068598804345811 -0.061224980386850383 0 0.0241229447159097 -0.04457326932072514 0 0.034068598804345811 -0.061224980386850383 0 0.044344625643774643 -0.046631141175073797 0 0.044365686142279391 -0.063173475522878025 0 0.034068598804345811 -0.061224980386850383 0 0.044344625643774643 -0.046631141175073797 0 0.034068598804345811 -0.061224980386850383 0 0.044344625643774643 -0.046631141175073797 0 0.044365686142279391 -0.063173475522878025 0 0.055684011422429028 -0.068763502837798252 0 0.044344625643774643 -0.046631141175073797 0 0.055684011422429028 -0.068763502837798252 0 0.058140403903834827 -0.055091221850674332 0 0.044344625643774643 -0.046631141175073797 0 0.055684011422429028 -0.068763502837798252 0 0.044344625643774643 -0.046631141175073797 0 0.058140403903834827 -0.055091221850674332 0 0.053342362375449551 -0.03385270791639873 0 0.058140403903834827 -0.055091221850674332 0 0.053342362375449551 -0.03385270791639873 0 0.066924932148428706 -0.039757178670694678 0 0.053342362375449551 -0.03385270791639873 0 0.044344625643774643 -0.046631141175073797 0 0.04449970749090057 -0.027578173183486768 0 0.058140403903834827 -0.055091221850674332 0 0.053342362375449551 -0.03385270791639873 0 0.044344625643774643 -0.046631141175073797 0 0.053342362375449551 -0.03385270791639873 0 0.044344625643774643 -0.046631141175073797 0 0.053342362375449551 -0.03385270791639873 0 0.05726968036285477 -0.028275197450796749 0 0.066924932148428706 -0.039757178670694678 0 0.044344625643774643 -0.046631141175073797 0 0.033772966337629363 -0.02599723809548397 0 0.04449970749090057 -0.027578173183486768 0 0.0241229447159097 -0.04457326932072514 0 0.044344625643774643 -0.046631141175073797 0 0.033772966337629363 -0.02599723809548397 0 0.044344625643774643 -0.046631141175073797 0 0.033772966337629363 -0.02599723809548397 0 0.033772966337629363 -0.02599723809548397 0 0.04449970749090057 -0.027578173183486768 0 0.03716822413324683 -0.01269004698075875 0 0.04449970749090057 -0.027578173183486768 0 0.049786269337681308 -0.018111674603656799 0 0.03716822413324683 -0.01269004698075875 0 0.053342362375449551 -0.03385270791639873 0 0.049786269337681308 -0.018111674603656799 0 0.053342362375449551 -0.03385270791639873 0 0.04449970749090057 -0.027578173183486768 0 0.049786269337681308 -0.018111674603656799 0 0.053342362375449551 -0.03385270791639873 0 0.05726968036285477 -0.028275197450796749 0 0.049786269337681308 -0.018111674603656799 0 0.053342362375449551 -0.03385270791639873 0 0.05726968036285477 -0.028275197450796749 0 0.05726968036285477 -0.028275197450796749 0 0.061857832032224717 -0.024142170591418259 0 0.06659390878526858 -0.02818772640692959 0 0.05726968036285477 -0.028275197450796749 0 0.061857832032224717 -0.024142170591418259 0 0.05806479528536046 -0.019177792925473031 0 0.05726968036285477 -0.028275197450796749 0 0.05806479528536046 -0.019177792925473031 0 0.049786269337681308 -0.018111674603656799 0 0.05806479528536046 -0.019177792925473031 0 0.061413841351340627 -0.009215915785432946 0 0.065234971159484678 -0.018836295752778488 0 0.061857832032224717 -0.024142170591418259 0 0.05806479528536046 -0.019177792925473031 0 0.065234971159484678 -0.018836295752778488 0 0.05806479528536046 -0.019177792925473031 0 0.049786269337681308 -0.018111674603656799 0 0.054189438633633291 -0.010336858238583459 0 0.049786269337681308 -0.018111674603656799 0 0.04623017629991278 -0.0023706412909148891 0 0.049786269337681308 -0.018111674603656799 0 0.054189438633633291 -0.010336858238583459 0 0.04623017629991278 -0.0023706412909148891 0 0.05806479528536046 -0.019177792925473031 0 0.054189438633633291 -0.010336858238583459 0 0.061413841351340627 -0.009215915785432946 0 0.061757503530185887 0.0030345535022356859 0 0.061413841351340627 -0.009215915785432946 0 0.055452110893871268 -0.0028082665874396419 0 0.054189438633633291 -0.010336858238583459 0 0.061413841351340627 -0.009215915785432946 0 0.055452110893871268 -0.0028082665874396419 0 0.053802205276232327 0.003682353028027469 0 0.055452110893871268 -0.0028082665874396419 0 0.04623017629991278 -0.0023706412909148891 0 0.054189438633633291 -0.010336858238583459 0 0.055452110893871268 -0.0028082665874396419 0 0.04623017629991278 -0.0023706412909148891 0 0.049786269337681308 -0.018111674603656799 0 0.04623017629991278 -0.0023706412909148891 0 0.03716822413324683 -0.01269004698075875 0 0.02320130703148204 -0.0053633350158952308 0 0.033772966337629363 -0.02599723809548397 0 0.03716822413324683 -0.01269004698075875 0 0.02320130703148204 -0.0053633350158952308 0 0.04623017629991278 -0.0023706412909148891 0 0.03716822413324683 -0.01269004698075875 0 0.087361369612945494 -0.0080835094384430137 0 0.096101903732410079 -0.01233878904357345 0 0.09468229154267907 -0.001137269383548628 0 0.087389042276107873 0.0058380201399859666 0 0.087361369612945494 -0.0080835094384430137 0 0.09468229154267907 -0.001137269383548628 0 0.087361369612945494 -0.0080835094384430137 0 0.089938378811294267 -0.020232979707340441 0 0.096101903732410079 -0.01233878904357345 0 0.087361369612945494 -0.0080835094384430137 0 0.081525270058044663 -0.0162412611750394 0 0.089938378811294267 -0.020232979707340441 0 0.087361369612945494 -0.0080835094384430137 0 0.074874011010648875 -0.0094430718014662535 0 0.081525270058044663 -0.0162412611750394 0 0.087361369612945494 -0.0080835094384430137 0 0.079607049088793305 -0.0022136162043640468 0 0.074874011010648875 -0.0094430718014662535 0 0.087389042276107873 0.0058380201399859666 0 0.087361369612945494 -0.0080835094384430137 0 0.079607049088793305 -0.0022136162043640468 0 0.079607049088793305 -0.0022136162043640468 0 0.06795049627233557 -0.0023941361538292539 0 0.074874011010648875 -0.0094430718014662535 0 0.061757503530185887 0.0030345535022356859 0 0.061413841351340627 -0.009215915785432946 0 0.06795049627233557 -0.0023941361538292539 0 0.061413841351340627 -0.009215915785432946 0 0.06795049627233557 -0.0023941361538292539 0 0.067939131413757903 -0.012172473660509209 0 0.061413841351340627 -0.009215915785432946 0 0.067939131413757903 -0.012172473660509209 0 0.065234971159484678 -0.018836295752778488 0 0.06795049627233557 -0.0023941361538292539 0 0.067939131413757903 -0.012172473660509209 0 0.074874011010648875 -0.0094430718014662535 0 0.067939131413757903 -0.012172473660509209 0 0.074874011010648875 -0.0094430718014662535 0 0.073511372680515968 -0.019651222906146831 0 0.074874011010648875 -0.0094430718014662535 0 0.073511372680515968 -0.019651222906146831 0 0.081525270058044663 -0.0162412611750394 0 0.073511372680515968 -0.019651222906146831 0 0.065234971159484678 -0.018836295752778488 0 0.06659390878526858 -0.02818772640692959 0 0.067939131413757903 -0.012172473660509209 0 0.073511372680515968 -0.019651222906146831 0 0.065234971159484678 -0.018836295752778488 0 0.061857832032224717 -0.024142170591418259 0 0.065234971159484678 -0.018836295752778488 0 0.06659390878526858 -0.02818772640692959 0 0.073511372680515968 -0.019651222906146831 0 0.076327770296927847 -0.028214305691081468 0 0.081668660975933172 -0.023248570176194451 0 0.073511372680515968 -0.019651222906146831 0 0.06659390878526858 -0.02818772640692959 0 0.076327770296927847 -0.028214305691081468 0 0.06659390878526858 -0.02818772640692959 0 0.076327770296927847 -0.028214305691081468 0 0.072326566105478704 -0.033424530612457037 0 0.076327770296927847 -0.028214305691081468 0 0.085892760815879737 -0.029523912522753569 0 0.081668660975933172 -0.023248570176194451 0 0.085892760815879737 -0.029523912522753569 0 0.081668660975933172 -0.023248570176194451 0 0.089938378811294267 -0.020232979707340441 0 0.081525270058044663 -0.0162412611750394 0 0.081668660975933172 -0.023248570176194451 0 0.089938378811294267 -0.020232979707340441 0 0.073511372680515968 -0.019651222906146831 0 0.081525270058044663 -0.0162412611750394 0 0.081668660975933172 -0.023248570176194451 0 0.085892760815879737 -0.029523912522753569 0 0.089938378811294267 -0.020232979707340441 0 0.096549113809131698 -0.029184085720073489 0 0.085892760815879737 -0.029523912522753569 0 0.091259624040394033 -0.037198116495185389 0 0.096549113809131698 -0.029184085720073489 0 0.087174673772597772 -0.044362502957667457 0 0.092525386484717601 -0.05112222683527038 0 0.096385083014811329 -0.043171006784654388 0 0.091259624040394033 -0.037198116495185389 0 0.087174673772597772 -0.044362502957667457 0 0.096385083014811329 -0.043171006784654388 0 0.091259624040394033 -0.037198116495185389 0 0.087174673772597772 -0.044362502957667457 0 0.079459653191289725 -0.037538911681122403 0 0.087174673772597772 -0.044362502957667457 0 0.079459653191289725 -0.037538911681122403 0 0.079833555897829436 -0.049648424470065761 0 0.085892760815879737 -0.029523912522753569 0 0.091259624040394033 -0.037198116495185389 0 0.079459653191289725 -0.037538911681122403 0 0.076327770296927847 -0.028214305691081468 0 0.085892760815879737 -0.029523912522753569 0 0.079459653191289725 -0.037538911681122403 0 0.076327770296927847 -0.028214305691081468 0 0.079459653191289725 -0.037538911681122403 0 0.072326566105478704 -0.033424530612457037 0 0.079459653191289725 -0.037538911681122403 0 0.072326566105478704 -0.033424530612457037 0 0.066924932148428706 -0.039757178670694678 0 0.05726968036285477 -0.028275197450796749 0 0.06659390878526858 -0.02818772640692959 0 0.066924932148428706 -0.039757178670694678 0 0.06659390878526858 -0.02818772640692959 0 0.072326566105478704 -0.033424530612457037 0 0.066924932148428706 -0.039757178670694678 0 0.079459653191289725 -0.037538911681122403 0 0.066924932148428706 -0.039757178670694678 0 0.079833555897829436 -0.049648424470065761 0 0.066924932148428706 -0.039757178670694678 0 0.069677056294332851 -0.053723721274598762 0 0.079833555897829436 -0.049648424470065761 0 0.058140403903834827 -0.055091221850674332 0 0.066924932148428706 -0.039757178670694678 0 0.069677056294332851 -0.053723721274598762 0 0.058140403903834827 -0.055091221850674332 0 0.069677056294332851 -0.053723721274598762 0 0.068491296682106961 -0.064820628090086915 0 0.069677056294332851 -0.053723721274598762 0 0.068491296682106961 -0.064820628090086915 0 0.077696738226399914 -0.063312696948810282 0 0.069677056294332851 -0.053723721274598762 0 0.079833555897829436 -0.049648424470065761 0 0.077696738226399914 -0.063312696948810282 0 0.079833555897829436 -0.049648424470065761 0 0.088797973357899657 -0.060599509778072623 0 0.077696738226399914 -0.063312696948810282 0 0.079833555897829436 -0.049648424470065761 0 0.092525386484717601 -0.05112222683527038 0 0.088797973357899657 -0.060599509778072623 0 0.087174673772597772 -0.044362502957667457 0 0.079833555897829436 -0.049648424470065761 0 0.092525386484717601 -0.05112222683527038 0 0.092525386484717601 -0.05112222683527038 0 0.088797973357899657 -0.060599509778072623 0 0.1002271519690076 -0.059512395473830207 0 0.092525386484717601 -0.05112222683527038 0 0.10306697257808931 -0.049093251381909453 0 0.096385083014811329 -0.043171006784654388 0 0.092525386484717601 -0.05112222683527038 0 0.1002271519690076 -0.059512395473830207 0 0.10306697257808931 -0.049093251381909453 0 0.1002271519690076 -0.059512395473830207 0 0.10306697257808931 -0.049093251381909453 0 0.11004714739756991 -0.05306331529086037 0 0.10306697257808931 -0.049093251381909453 0 0.11004714739756991 -0.05306331529086037 0 0.1121815233964738 -0.043099784472150529 0 0.1002271519690076 -0.059512395473830207 0 0.11004714739756991 -0.05306331529086037 0 0.11011785867134689 -0.067162655692318926 0 0.1246422303729318 -0.04644848943409273 0 0.11952073278848541 -0.066500676982826079 0 0.1246422303729318 -0.04644848943409273 0 0.11011785867134689 -0.067162655692318926 0 0.11004714739756991 -0.05306331529086037 0 0.1246422303729318 -0.04644848943409273 0 0.11011785867134689 -0.067162655692318926 0 0.1246422303729318 -0.04644848943409273 0 0.11011785867134689 -0.067162655692318926 0 0.11952073278848541 -0.066500676982826079 0 0.11004714739756991 -0.05306331529086037 0 0.1121815233964738 -0.043099784472150529 0 0.1246422303729318 -0.04644848943409273 0 0.1246422303729318 -0.04644848943409273 0 0.1176900241437977 -0.033356834359231327 0 0.12906925390040211 -0.029115374541086179 0 0.1121815233964738 -0.043099784472150529 0 0.1246422303729318 -0.04644848943409273 0 0.1176900241437977 -0.033356834359231327 0 0.1176900241437977 -0.033356834359231327 0 0.1103300964374999 -0.03511403862689514 0 0.1082432026119507 -0.027141997460110281 0 0.1121815233964738 -0.043099784472150529 0 0.1176900241437977 -0.033356834359231327 0 0.1103300964374999 -0.03511403862689514 0 0.1121815233964738 -0.043099784472150529 0 0.1103300964374999 -0.03511403862689514 0 0.1027530237355215 -0.03778238122606109 0 0.1027530237355215 -0.03778238122606109 0 0.096549113809131698 -0.029184085720073489 0 0.1082432026119507 -0.027141997460110281 0 0.1103300964374999 -0.03511403862689514 0 0.1027530237355215 -0.03778238122606109 0 0.1082432026119507 -0.027141997460110281 0 0.10306697257808931 -0.049093251381909453 0 0.1121815233964738 -0.043099784472150529 0 0.1027530237355215 -0.03778238122606109 0 0.091259624040394033 -0.037198116495185389 0 0.1027530237355215 -0.03778238122606109 0 0.096385083014811329 -0.043171006784654388 0 0.10306697257808931 -0.049093251381909453 0 0.1027530237355215 -0.03778238122606109 0 0.096385083014811329 -0.043171006784654388 0 0.091259624040394033 -0.037198116495185389 0 0.1027530237355215 -0.03778238122606109 0 0.096549113809131698 -0.029184085720073489 0 0.089938378811294267 -0.020232979707340441 0 0.100912001033011 -0.020820389939287941 0 0.096101903732410079 -0.01233878904357345 0 0.089938378811294267 -0.020232979707340441 0 0.096549113809131698 -0.029184085720073489 0 0.100912001033011 -0.020820389939287941 0 0.100912001033011 -0.020820389939287941 0 0.1093543709643704 -0.015808325646878719 0 0.1082432026119507 -0.027141997460110281 0 0.100912001033011 -0.020820389939287941 0 0.1093543709643704 -0.015808325646878719 0 0.096101903732410079 -0.01233878904357345 0 0.096549113809131698 -0.029184085720073489 0 0.100912001033011 -0.020820389939287941 0 0.1082432026119507 -0.027141997460110281 0 0.1176900241437977 -0.033356834359231327 0 0.1082432026119507 -0.027141997460110281 0 0.1194802521896846 -0.0209186053009544 0 0.1176900241437977 -0.033356834359231327 0 0.1194802521896846 -0.0209186053009544 0 0.12906925390040211 -0.029115374541086179 0 0.1093543709643704 -0.015808325646878719 0 0.1082432026119507 -0.027141997460110281 0 0.1194802521896846 -0.0209186053009544 0 0.1093543709643704 -0.015808325646878719 0 0.1185004275877808 -0.0089099387401484452 0 0.1035045777476903 -0.0060376178322144964 0 0.1093543709643704 -0.015808325646878719 0 0.1194802521896846 -0.0209186053009544 0 0.1185004275877808 -0.0089099387401484452 0 0.1194802521896846 -0.0209186053009544 0 0.1185004275877808 -0.0089099387401484452 0 0.13349627742787201 -0.01178225964807952 0 0.12497209006325551 0.0045335831921891464 0 0.11278102560414061 0.0018115570737424059 0 0.1185004275877808 -0.0089099387401484452 0 0.1185004275877808 -0.0089099387401484452 0 0.1035045777476903 -0.0060376178322144964 0 0.11278102560414061 0.0018115570737424059 0 0.1185004275877808 -0.0089099387401484452 0 0.1035045777476903 -0.0060376178322144964 0 0.1093543709643704 -0.015808325646878719 0 0.1035045777476903 -0.0060376178322144964 0 0.096101903732410079 -0.01233878904357345 0 0.1035045777476903 -0.0060376178322144964 0 0.096101903732410079 -0.01233878904357345 0 0.09468229154267907 -0.001137269383548628 0 0.090182881643716961 -0.10209388408909351 0 0.07404894911388607 -0.1110422047047958 0 0.080758724348984581 -0.090152997810022353 0 0.090182881643716961 -0.10209388408909351 0 0.086359778491213873 -0.1186116559357633 0 0.07404894911388607 -0.1110422047047958 0 0.086359778491213873 -0.1186116559357633 0 0.07404894911388607 -0.1110422047047958 0 0.066105729429237411 -0.122347312065754 0 0.054003166360052708 -0.10866983401863151 0 0.07404894911388607 -0.1110422047047958 0 0.066105729429237411 -0.122347312065754 0 0.07404894911388607 -0.1110422047047958 0 0.067753668905437547 -0.097644305537539916 0 0.080758724348984581 -0.090152997810022353 0 0.054003166360052708 -0.10866983401863151 0 0.07404894911388607 -0.1110422047047958 0 0.067753668905437547 -0.097644305537539916 0 0.067753668905437547 -0.097644305537539916 0 0.062938445432218451 -0.076329735784950337 0 0.067753668905437547 -0.097644305537539916 0 0.074566682342692286 -0.076481502853346664 0 0.080758724348984581 -0.090152997810022353 0 0.067753668905437547 -0.097644305537539916 0 0.062938445432218451 -0.076329735784950337 0 0.074566682342692286 -0.076481502853346664 0 0.058140403903834827 -0.055091221850674332 0 0.068491296682106961 -0.064820628090086915 0 0.062938445432218451 -0.076329735784950337 0 0.068491296682106961 -0.064820628090086915 0 0.062938445432218451 -0.076329735784950337 0 0.074566682342692286 -0.076481502853346664 0 0.062938445432218451 -0.076329735784950337 0 0.074566682342692286 -0.076481502853346664 0 0.068491296682106961 -0.064820628090086915 0 0.074566682342692286 -0.076481502853346664 0 0.077696738226399914 -0.063312696948810282 0 0.085574668272897017 -0.074660925061055303 0 0.095593486969762567 -0.087876821950545539 0 0.096034404391643069 -0.069542021025534431 0 0.088797973357899657 -0.060599509778072623 0 0.077696738226399914 -0.063312696948810282 0 0.085574668272897017 -0.074660925061055303 0 0.074566682342692286 -0.076481502853346664 0 0.077696738226399914 -0.063312696948810282 0 0.085574668272897017 -0.074660925061055303 0 0.088797973357899657 -0.060599509778072623 0 0.085574668272897017 -0.074660925061055303 0 0.096034404391643069 -0.069542021025534431 0 0.074566682342692286 -0.076481502853346664 0 0.085574668272897017 -0.074660925061055303 0 0.080758724348984581 -0.090152997810022353 0 0.085574668272897017 -0.074660925061055303 0 0.080758724348984581 -0.090152997810022353 0 0.095593486969762567 -0.087876821950545539 0 0.090182881643716961 -0.10209388408909351 0 0.080758724348984581 -0.090152997810022353 0 0.095593486969762567 -0.087876821950545539 0 0.095593486969762567 -0.087876821950545539 0 0.11011785867134689 -0.067162655692318926 0 0.1143992352040384 -0.086552864531559248 0 0.095593486969762567 -0.087876821950545539 0 0.1143992352040384 -0.086552864531559248 0 0.10927773761959129 -0.1066050520802924 0 0.095593486969762567 -0.087876821950545539 0 0.11011785867134689 -0.067162655692318926 0 0.095593486969762567 -0.087876821950545539 0 0.096034404391643069 -0.069542021025534431 0 0.11011785867134689 -0.067162655692318926 0 0.088797973357899657 -0.060599509778072623 0 0.1002271519690076 -0.059512395473830207 0 0.096034404391643069 -0.069542021025534431 0 0.1002271519690076 -0.059512395473830207 0 0.096034404391643069 -0.069542021025534431 0 0.11011785867134689 -0.067162655692318926 0 0.11952073278848541 -0.066500676982826079 0 0.1143992352040384 -0.086552864531559248 0 0.1318965563483408 -0.076574972600390062 0 0.11011785867134689 -0.067162655692318926 0 0.11952073278848541 -0.066500676982826079 0 0.1143992352040384 -0.086552864531559248 0 0.11952073278848541 -0.066500676982826079 0 0.1143992352040384 -0.086552864531559248 0 0.1143992352040384 -0.086552864531559248 0 0.10927773761959129 -0.1066050520802924 0 0.13142029063853999 -0.098099261924585693 0 0.1143992352040384 -0.086552864531559248 0 0.10927773761959129 -0.1066050520802924 0 0.10927773761959129 -0.1066050520802924 0 0.1243973756391545 -0.1132901008285489 0 0.13142029063853999 -0.098099261924585693 0 0.090182881643716961 -0.10209388408909351 0 0.086359778491213873 -0.1186116559357633 0 0.10927773761959129 -0.1066050520802924 0 0.090182881643716961 -0.10209388408909351 0 0.095593486969762567 -0.087876821950545539 0 0.10927773761959129 -0.1066050520802924 0 0.099829395505855345 -0.13121997112818451 0 0.086359778491213873 -0.1186116559357633 0 0.10927773761959129 -0.1066050520802924 0 0.099829395505855345 -0.13121997112818451 0 0.1194960029087308 -0.12911457695895751 0 0.10927773761959129 -0.1066050520802924 0 0.1194960029087308 -0.12911457695895751 0 0.10927773761959129 -0.1066050520802924 0 0.1243973756391545 -0.1132901008285489 0 0.1194960029087308 -0.12911457695895751 0 0.1243973756391545 -0.1132901008285489 0 0.139669502064318 -0.1160510743186111 0 0.139669502064318 -0.1160510743186111 0 0.15749918273757721 -0.1023448504222616 0 0.15186406329806909 -0.13344742645604471 0 0.13142029063853999 -0.098099261924585693 0 0.145740942554792 -0.083877669973417807 0 0.15749918273757721 -0.1023448504222616 0 0.139669502064318 -0.1160510743186111 0 0.13142029063853999 -0.098099261924585693 0 0.15749918273757721 -0.1023448504222616 0 0.1243973756391545 -0.1132901008285489 0 0.139669502064318 -0.1160510743186111 0 0.13142029063853999 -0.098099261924585693 0 0.13142029063853999 -0.098099261924585693 0 0.1318965563483408 -0.076574972600390062 0 0.145740942554792 -0.083877669973417807 0 0.1143992352040384 -0.086552864531559248 0 0.13142029063853999 -0.098099261924585693 0 0.1318965563483408 -0.076574972600390062 0 0.1318965563483408 -0.076574972600390062 0 0.14348693188351769 -0.068088325236896119 0 0.145740942554792 -0.083877669973417807 0 0.11952073278848541 -0.066500676982826079 0 0.1318965563483408 -0.076574972600390062 0 0.13162971371761731 -0.062349246100101612 0 0.1318965563483408 -0.076574972600390062 0 0.14348693188351769 -0.068088325236896119 0 0.13162971371761731 -0.062349246100101612 0 0.14348693188351769 -0.068088325236896119 0 0.145740942554792 -0.083877669973417807 0 0.16183074994837079 -0.073272680569389959 0 0.14348693188351769 -0.068088325236896119 0 0.16183074994837079 -0.073272680569389959 0 0.1536054819185472 -0.054471776497714522 0 0.145740942554792 -0.083877669973417807 0 0.16183074994837079 -0.073272680569389959 0 0.15749918273757721 -0.1023448504222616 0 0.16183074994837079 -0.073272680569389959 0 0.17749694734942539 -0.090705731813508744 0 0.15749918273757721 -0.1023448504222616 0 0.18151906000102649 -0.064097594854467269 0 0.17749694734942539 -0.090705731813508744 0 0.19733586741137801 -0.070172022041258039 0 0.16183074994837079 -0.073272680569389959 0 0.18151906000102649 -0.064097594854467269 0 0.17749694734942539 -0.090705731813508744 0 0.18151906000102649 -0.064097594854467269 0 0.17749694734942539 -0.090705731813508744 0 0.17749694734942539 -0.090705731813508744 0 0.17347483469782421 -0.11731386877255021 0 0.19659745207935631 -0.1059476065056621 0 0.17749694734942539 -0.090705731813508744 0 0.17347483469782421 -0.11731386877255021 0 0.17347483469782421 -0.11731386877255021 0 0.19138583502893591 -0.1213435105547989 0 0.18424225032122571 -0.13274986993923751 0 0.17347483469782421 -0.11731386877255021 0 0.19138583502893591 -0.1213435105547989 0 0.19659745207935631 -0.1059476065056621 0 0.17347483469782421 -0.11731386877255021 0 0.15749918273757721 -0.1023448504222616 0 0.15186406329806909 -0.13344742645604471 0 0.17749694734942539 -0.090705731813508744 0 0.17347483469782421 -0.11731386877255021 0 0.15749918273757721 -0.1023448504222616 0 0.14975444328776941 -0.01489636589894632 0 0.13349627742787201 -0.01178225964807952 0 0.14570859857624119 -0.016404349667772308 0 0.14975444328776941 -0.01489636589894632 0 0.14273738575677031 -0.0089758206601970418 0 0.13349627742787201 -0.01178225964807952 0 0.14975444328776941 -0.01489636589894632 0 0.13349627742787201 -0.01178225964807952 0 0.15458946145240851 -0.0042119541687945248 0 0.1477914957536117 -0.0079479717677282766 0 0.14381200007779371 -0.0019232760749363191 0 0.15458946145240851 -0.0042119541687945248 0 0.1526154724792575 -0.0094557343963562121 0 0.1477914957536117 -0.0079479717677282766 0 0.15458946145240851 -0.0042119541687945248 0 0.1526154724792575 -0.0094557343963562121 0 0.1583264894232404 -0.010766645749955729 0 0.1526154724792575 -0.0094557343963562121 0 0.14975444328776941 -0.01489636589894632 0 0.1583264894232404 -0.010766645749955729 0 0.1526154724792575 -0.0094557343963562121 0 0.14975444328776941 -0.01489636589894632 0 0.1477914957536117 -0.0079479717677282766 0 0.14975444328776941 -0.01489636589894632 0 0.1477914957536117 -0.0079479717677282766 0 0.14273738575677031 -0.0089758206601970418 0 0.1477914957536117 -0.0079479717677282766 0 0.14273738575677031 -0.0089758206601970418 0 0.14381200007779371 -0.0019232760749363191 0 0.13948744810705679 0.01167495694034958 0 0.14381200007779371 -0.0019232760749363191 0 0.13349627742787201 -0.01178225964807952 0 0.13948744810705679 0.01167495694034958 0 0.13349627742787201 -0.01178225964807952 0 0.14273738575677031 -0.0089758206601970418 0 0.14381200007779371 -0.0019232760749363191 0 0.13349627742787201 -0.01178225964807952 0 0.12497209006325551 0.0045335831921891464 0 0.1185004275877808 -0.0089099387401484452 0 0.13349627742787201 -0.01178225964807952 0 0.1185004275877808 -0.0089099387401484452 0 0.13349627742787201 -0.01178225964807952 0 0.13349627742787201 -0.01178225964807952 0 0.13702693641443439 -0.021410733141016831 0 0.14570859857624119 -0.016404349667772308 0 0.13349627742787201 -0.01178225964807952 0 0.13369197055432361 -0.023433696720278709 0 0.12906925390040211 -0.029115374541086179 0 0.1194802521896846 -0.0209186053009544 0 0.13349627742787201 -0.01178225964807952 0 0.12906925390040211 -0.029115374541086179 0 0.13702693641443439 -0.021410733141016831 0 0.14570859857624119 -0.016404349667772308 0 0.13517541447458609 -0.031426419550932318 0 0.13349627742787201 -0.01178225964807952 0 0.12906925390040211 -0.029115374541086179 0 0.13349627742787201 -0.01178225964807952 0 0.13369197055432361 -0.023433696720278709 0 0.13702693641443439 -0.021410733141016831 0 0.13369197055432361 -0.023433696720278709 0 0.12906925390040211 -0.029115374541086179 0 0.13517541447458609 -0.031426419550932318 0 0.13369197055432361 -0.023433696720278709 0 0.13702693641443439 -0.021410733141016831 0 0.13517541447458609 -0.031426419550932318 0 0.14570859857624119 -0.016404349667772308 0 0.13517541447458609 -0.031426419550932318 0 0.1464355916752762 -0.02811797029184997 0 0.14570859857624119 -0.016404349667772308 0 0.13517541447458609 -0.031426419550932318 0 0.1464355916752762 -0.02811797029184997 0 0.14570859857624119 -0.016404349667772308 0 0.15010229663337599 -0.022011029915180651 0 0.14975444328776941 -0.01489636589894632 0 0.15010229663337599 -0.022011029915180651 0 0.15761714701633731 -0.024552826922271481 0 0.14975444328776941 -0.01489636589894632 0 0.14570859857624119 -0.016404349667772308 0 0.15010229663337599 -0.022011029915180651 0 0.1464355916752762 -0.02811797029184997 0 0.15010229663337599 -0.022011029915180651 0 0.15761714701633731 -0.024552826922271481 0 0.1464355916752762 -0.02811797029184997 0 0.1553061620882909 -0.036621993073423953 0 0.15761714701633731 -0.024552826922271481 0 0.1553061620882909 -0.036621993073423953 0 0.1445853453938947 -0.045537377974861418 0 0.1536054819185472 -0.054471776497714522 0 0.1553061620882909 -0.036621993073423953 0 0.1445853453938947 -0.045537377974861418 0 0.1429832893143945 -0.036140319684422301 0 0.1445853453938947 -0.045537377974861418 0 0.1429832893143945 -0.036140319684422301 0 0.13719767935012361 -0.042737274578122361 0 0.1464355916752762 -0.02811797029184997 0 0.1429832893143945 -0.036140319684422301 0 0.13517541447458609 -0.031426419550932318 0 0.1464355916752762 -0.02811797029184997 0 0.1553061620882909 -0.036621993073423953 0 0.1429832893143945 -0.036140319684422301 0 0.1246422303729318 -0.04644848943409273 0 0.12906925390040211 -0.029115374541086179 0 0.13517541447458609 -0.031426419550932318 0 0.1246422303729318 -0.04644848943409273 0 0.12906925390040211 -0.029115374541086179 0 0.1429832893143945 -0.036140319684422301 0 0.13517541447458609 -0.031426419550932318 0 0.13719767935012361 -0.042737274578122361 0 0.1246422303729318 -0.04644848943409273 0 0.13517541447458609 -0.031426419550932318 0 0.1246422303729318 -0.04644848943409273 0 0.13517541447458609 -0.031426419550932318 0 0.13719767935012361 -0.042737274578122361 0 0.1445853453938947 -0.045537377974861418 0 0.13719767935012361 -0.042737274578122361 0 0.1386021171948108 -0.054133766246303047 0 0.1246422303729318 -0.04644848943409273 0 0.11952073278848541 -0.066500676982826079 0 0.13162971371761731 -0.062349246100101612 0 0.1246422303729318 -0.04644848943409273 0 0.1386021171948108 -0.054133766246303047 0 0.13162971371761731 -0.062349246100101612 0 0.1246422303729318 -0.04644848943409273 0 0.13719767935012361 -0.042737274578122361 0 0.1386021171948108 -0.054133766246303047 0 0.14348693188351769 -0.068088325236896119 0 0.1386021171948108 -0.054133766246303047 0 0.13162971371761731 -0.062349246100101612 0 0.14348693188351769 -0.068088325236896119 0 0.1386021171948108 -0.054133766246303047 0 0.1536054819185472 -0.054471776497714522 0 0.1445853453938947 -0.045537377974861418 0 0.1386021171948108 -0.054133766246303047 0 0.1536054819185472 -0.054471776497714522 0 0.16183074994837079 -0.073272680569389959 0 0.18151906000102649 -0.064097594854467269 0 0.16971524277166161 -0.049346117852895742 0 0.16183074994837079 -0.073272680569389959 0 0.1536054819185472 -0.054471776497714522 0 0.16971524277166161 -0.049346117852895742 0 0.18151906000102649 -0.064097594854467269 0 0.16971524277166161 -0.049346117852895742 0 0.18554117265262771 -0.03748945789542589 0 0.18151906000102649 -0.064097594854467269 0 0.18554117265262771 -0.03748945789542589 0 0.19352384925607699 -0.052304189061076603 0 0.18151906000102649 -0.064097594854467269 0 0.18554117265262771 -0.03748945789542589 0 0.16971524277166161 -0.049346117852895742 0 0.18554117265262771 -0.03748945789542589 0 0.1702271600943045 -0.03121417077330476 0 0.1553061620882909 -0.036621993073423953 0 0.1536054819185472 -0.054471776497714522 0 0.16971524277166161 -0.049346117852895742 0 0.1553061620882909 -0.036621993073423953 0 0.16971524277166161 -0.049346117852895742 0 0.1702271600943045 -0.03121417077330476 0 0.14975444328776941 -0.01489636589894632 0 0.16601260914766719 -0.018010472149810611 0 0.14975444328776941 -0.01489636589894632 0 0.15761714701633731 -0.024552826922271481 0 0.16601260914766719 -0.018010472149810611 0 0.1553061620882909 -0.036621993073423953 0 0.15761714701633731 -0.024552826922271481 0 0.1702271600943045 -0.03121417077330476 0 0.15761714701633731 -0.024552826922271481 0 0.16601260914766719 -0.018010472149810611 0 0.15761714701633731 -0.024552826922271481 0 0.16601260914766719 -0.018010472149810611 0 0.1702271600943045 -0.03121417077330476 0 0.16601260914766719 -0.018010472149810611 0 0.1832557522809336 -0.02131324198735348 0 0.18554117265262771 -0.03748945789542589 0 0.1702271600943045 -0.03121417077330476 0 0.1832557522809336 -0.02131324198735348 0 0.16601260914766719 -0.018010472149810611 0 0.1702271600943045 -0.03121417077330476 0 0.1832557522809336 -0.02131324198735348 0 0.16601260914766719 -0.018010472149810611 0 0.18436858390171409 -0.0037061614213828738 0 0.16658796298411421 -0.0040629546997722581 0 0.17474613889701679 0.0066209854137925604 0 0.18436858390171409 -0.0037061614213828738 0 0.16658796298411421 -0.0040629546997722581 0 0.16601260914766719 -0.018010472149810611 0 0.1832557522809336 -0.02131324198735348 0 0.18436858390171409 -0.0037061614213828738 0 0.1832557522809336 -0.02131324198735348 0 0.18436858390171409 -0.0037061614213828738 0 0.1946986481728317 -0.01563160838894782 0 0.16601260914766719 -0.018010472149810611 0 0.18436858390171409 -0.0037061614213828738 0 0.14975444328776941 -0.01489636589894632 0 0.16601260914766719 -0.018010472149810611 0 0.1583264894232404 -0.010766645749955729 0 0.16601260914766719 -0.018010472149810611 0 0.16658796298411421 -0.0040629546997722581 0 0.1583264894232404 -0.010766645749955729 0 0.15458946145240851 -0.0042119541687945248 0 0.16658796298411421 -0.0040629546997722581 0 0.1583264894232404 -0.010766645749955729 0 0.16157493590422931 0.0071784542262573166 0 0.15458946145240851 -0.0042119541687945248 0 0.16658796298411421 -0.0040629546997722581 0 0.21656024508351429 -0.0014627478743725779 0 0.21039000402715999 -0.0160493812847111 0 0.2261694047138573 -0.013235765593690749 0 0.21656024508351429 -0.0014627478743725779 0 0.20167340524385621 -0.0052805064801682402 0 0.21039000402715999 -0.0160493812847111 0 0.20167340524385621 -0.0052805064801682402 0 0.1946986481728317 -0.01563160838894782 0 0.21039000402715999 -0.0160493812847111 0 0.18436858390171409 -0.0037061614213828738 0 0.20167340524385621 -0.0052805064801682402 0 0.1946986481728317 -0.01563160838894782 0 0.1832557522809336 -0.02131324198735348 0 0.19913368894760231 -0.029666429622911269 0 0.1946986481728317 -0.01563160838894782 0 0.18554117265262771 -0.03748945789542589 0 0.1832557522809336 -0.02131324198735348 0 0.19913368894760231 -0.029666429622911269 0 0.19913368894760231 -0.029666429622911269 0 0.1946986481728317 -0.01563160838894782 0 0.21039000402715999 -0.0160493812847111 0 0.19913368894760231 -0.029666429622911269 0 0.21039000402715999 -0.0160493812847111 0 0.22037954314699179 -0.032908021301097948 0 0.20972231959823259 -0.047742506932731688 0 0.2214731036851447 -0.054372167264227528 0 0.22037954314699179 -0.032908021301097948 0 0.19913368894760231 -0.029666429622911269 0 0.20972231959823259 -0.047742506932731688 0 0.22037954314699179 -0.032908021301097948 0 0.18554117265262771 -0.03748945789542589 0 0.19913368894760231 -0.029666429622911269 0 0.19352384925607699 -0.052304189061076603 0 0.19913368894760231 -0.029666429622911269 0 0.19352384925607699 -0.052304189061076603 0 0.20972231959823259 -0.047742506932731688 0 0.19352384925607699 -0.052304189061076603 0 0.20972231959823259 -0.047742506932731688 0 0.19733586741137801 -0.070172022041258039 0 0.18151906000102649 -0.064097594854467269 0 0.19352384925607699 -0.052304189061076603 0 0.19733586741137801 -0.070172022041258039 0 0.20972231959823259 -0.047742506932731688 0 0.2214731036851447 -0.054372167264227528 0 0.2137828767556553 -0.068931388751549777 0 0.20972231959823259 -0.047742506932731688 0 0.2137828767556553 -0.068931388751549777 0 0.20972231959823259 -0.047742506932731688 0 0.19733586741137801 -0.070172022041258039 0 0.2137828767556553 -0.068931388751549777 0 0.2352111771673594 -0.044763693073203513 0 0.23077544846840631 -0.066945512845197605 0 0.2214731036851447 -0.054372167264227528 0 0.2352111771673594 -0.044763693073203513 0 0.23077544846840631 -0.066945512845197605 0 0.24136188534573441 -0.05752807780087827 0 0.2352111771673594 -0.044763693073203513 0 0.23077544846840631 -0.066945512845197605 0 0.25002621826855981 -0.068739235795218789 0 0.25759959138121291 -0.043614638356919297 0 0.24136188534573441 -0.05752807780087827 0 0.25759959138121291 -0.043614638356919297 0 0.24136188534573441 -0.05752807780087827 0 0.2352111771673594 -0.044763693073203513 0 0.25759959138121291 -0.043614638356919297 0 0.2352111771673594 -0.044763693073203513 0 0.24956736139890351 -0.030837517079297161 0 0.2352111771673594 -0.044763693073203513 0 0.24956736139890351 -0.030837517079297161 0 0.2396469058663124 -0.022581873301209521 0 0.2352111771673594 -0.044763693073203513 0 0.2396469058663124 -0.022581873301209521 0 0.2214731036851447 -0.054372167264227528 0 0.2352111771673594 -0.044763693073203513 0 0.22037954314699179 -0.032908021301097948 0 0.2352111771673594 -0.044763693073203513 0 0.22037954314699179 -0.032908021301097948 0 0.2396469058663124 -0.022581873301209521 0 0.22037954314699179 -0.032908021301097948 0 0.2396469058663124 -0.022581873301209521 0 0.2261694047138573 -0.013235765593690749 0 0.21039000402715999 -0.0160493812847111 0 0.22037954314699179 -0.032908021301097948 0 0.2261694047138573 -0.013235765593690749 0 0.25080229761055728 -0.017245066800580459 0 0.24956736139890351 -0.030837517079297161 0 0.2396469058663124 -0.022581873301209521 0 0.25080229761055728 -0.017245066800580459 0 0.2396469058663124 -0.022581873301209521 0 0.24021195748739579 -0.0094468855104940328 0 0.2396469058663124 -0.022581873301209521 0 0.24021195748739579 -0.0094468855104940328 0 0.2261694047138573 -0.013235765593690749 0 0.25080229761055728 -0.017245066800580459 0 0.25045753469988208 -0.0069632004254019291 0 0.24021195748739579 -0.0094468855104940328 0 0.24397708060534851 0.00076903392350891183 0 0.25045753469988208 -0.0069632004254019291 0 0.24021195748739579 -0.0094468855104940328 0 0.24397708060534851 0.00076903392350891183 0 0.23161248302967111 0.001740318802090361 0 0.24021195748739579 -0.0094468855104940328 0 0.23161248302967111 0.001740318802090361 0 0.24021195748739579 -0.0094468855104940328 0 0.2261694047138573 -0.013235765593690749 0 0.23161248302967111 0.001740318802090361 0 0.21656024508351429 -0.0014627478743725779 0 0.2261694047138573 -0.013235765593690749 0 0.21570864099168621 -0.1053299941376815 0 0.21784343391307801 -0.090120270570367866 0 0.22190399107050041 -0.111309152389186 0 0.21013414248700249 -0.1011680807924706 0 0.21144397339837931 -0.1112518695313892 0 0.19659745207935631 -0.1059476065056621 0 0.21013414248700249 -0.1011680807924706 0 0.19659745207935631 -0.1059476065056621 0 0.2064773429243151 -0.092492151734124076 0 0.21013414248700249 -0.1011680807924706 0 0.2064773429243151 -0.092492151734124076 0 0.21784343391307801 -0.090120270570367866 0 0.21013414248700249 -0.1011680807924706 0 0.21570864099168621 -0.1053299941376815 0 0.21784343391307801 -0.090120270570367866 0 0.21013414248700249 -0.1011680807924706 0 0.21570864099168621 -0.1053299941376815 0 0.21144397339837931 -0.1112518695313892 0 0.21570864099168621 -0.1053299941376815 0 0.2166524563073573 -0.1122004373913431 0 0.22190399107050041 -0.111309152389186 0 0.2166524563073573 -0.1122004373913431 0 0.2132356293105617 -0.1171316282187321 0 0.22097004676565901 -0.11597954267972679 0 0.2166524563073573 -0.1122004373913431 0 0.2132356293105617 -0.1171316282187321 0 0.21144397339837931 -0.1112518695313892 0 0.21570864099168621 -0.1053299941376815 0 0.2166524563073573 -0.1122004373913431 0 0.21144397339837931 -0.1112518695313892 0 0.2132356293105617 -0.1171316282187321 0 0.22097004676565901 -0.11597954267972679 0 0.21255794736014069 -0.12663118270418269 0 0.2132356293105617 -0.1171316282187321 0 0.2039885149391589 -0.1189949487733676 0 0.21255794736014069 -0.12663118270418269 0 0.21144397339837931 -0.1112518695313892 0 0.2039885149391589 -0.1189949487733676 0 0.19659745207935631 -0.1059476065056621 0 0.2132356293105617 -0.1171316282187321 0 0.21144397339837931 -0.1112518695313892 0 0.2039885149391589 -0.1189949487733676 0 0.2039885149391589 -0.1189949487733676 0 0.19138583502893591 -0.1213435105547989 0 0.19659745207935631 -0.1059476065056621 0 0.2039885149391589 -0.1189949487733676 0 0.19138583502893591 -0.1213435105547989 0 0.19862612310711461 -0.1317112587831771 0 0.19659745207935631 -0.1059476065056621 0 0.19726309413592291 -0.087629407035175452 0 0.2064773429243151 -0.092492151734124076 0 0.17749694734942539 -0.090705731813508744 0 0.19659745207935631 -0.1059476065056621 0 0.19726309413592291 -0.087629407035175452 0 0.17749694734942539 -0.090705731813508744 0 0.19726309413592291 -0.087629407035175452 0 0.19733586741137801 -0.070172022041258039 0 0.19726309413592291 -0.087629407035175452 0 0.19733586741137801 -0.070172022041258039 0 0.20696978067242319 -0.081275987401866978 0 0.19733586741137801 -0.070172022041258039 0 0.2137828767556553 -0.068931388751549777 0 0.20696978067242319 -0.081275987401866978 0 0.2137828767556553 -0.068931388751549777 0 0.21784343391307801 -0.090120270570367866 0 0.2137828767556553 -0.068931388751549777 0 0.20696978067242319 -0.081275987401866978 0 0.21784343391307801 -0.090120270570367866 0 0.2137828767556553 -0.068931388751549777 0 0.21784343391307801 -0.090120270570367866 0 0.22333728634068531 -0.076992512677373268 0 0.2064773429243151 -0.092492151734124076 0 0.20696978067242319 -0.081275987401866978 0 0.21784343391307801 -0.090120270570367866 0 0.19726309413592291 -0.087629407035175452 0 0.2064773429243151 -0.092492151734124076 0 0.20696978067242319 -0.081275987401866978 0 0.22633971976945319 -0.089127332617191773 0 0.23077544846840631 -0.066945512845197605 0 0.2378088336772588 -0.079886407700366091 0 0.21784343391307801 -0.090120270570367866 0 0.22633971976945319 -0.089127332617191773 0 0.22333728634068531 -0.076992512677373268 0 0.22633971976945319 -0.089127332617191773 0 0.23431391704629939 -0.092515032310852063 0 0.2378088336772588 -0.079886407700366091 0 0.2214731036851447 -0.054372167264227528 0 0.2137828767556553 -0.068931388751549777 0 0.23077544846840631 -0.066945512845197605 0 0.2137828767556553 -0.068931388751549777 0 0.23077544846840631 -0.066945512845197605 0 0.22333728634068531 -0.076992512677373268 0 0.22633971976945319 -0.089127332617191773 0 0.23077544846840631 -0.066945512845197605 0 0.22333728634068531 -0.076992512677373268 0 0.22633971976945319 -0.089127332617191773 0 0.23077544846840631 -0.066945512845197605 0 0.25002621826855981 -0.068739235795218789 0 0.23077544846840631 -0.066945512845197605 0 0.2378088336772588 -0.079886407700366091 0 0.25002621826855981 -0.068739235795218789 0 0.24136188534573441 -0.05752807780087827 0 0.23077544846840631 -0.066945512845197605 0 0.25002621826855981 -0.068739235795218789 0 0.2378088336772588 -0.079886407700366091 0 0.24245284515590679 -0.093863833233518226 0 0.25002621826855981 -0.068739235795218789 0 0.24245284515590679 -0.093863833233518226 0 0.23431391704629939 -0.092515032310852063 0 0.2378088336772588 -0.079886407700366091 0 0.24245284515590679 -0.093863833233518226 0 0.24994483656663891 -0.1061256540670502 0 0.24245284515590679 -0.093863833233518226 0 0.2339780929486403 -0.1010322325967288 0 0.24994483656663891 -0.1061256540670502 0 0.2339780929486403 -0.1010322325967288 0 0.2335071758686158 -0.11517993464928521 0 0.23431391704629939 -0.092515032310852063 0 0.24245284515590679 -0.093863833233518226 0 0.2339780929486403 -0.1010322325967288 0 0.22633971976945319 -0.089127332617191773 0 0.22190399107050041 -0.111309152389186 0 0.22633971976945319 -0.089127332617191773 0 0.23431391704629939 -0.092515032310852063 0 0.2339780929486403 -0.1010322325967288 0 0.21784343391307801 -0.090120270570367866 0 0.22190399107050041 -0.111309152389186 0 0.21784343391307801 -0.090120270570367866 0 0.22633971976945319 -0.089127332617191773 0 0.22190399107050041 -0.111309152389186 0 0.22633971976945319 -0.089127332617191773 0 0.22893224491430239 -0.1041621630630979 0 0.22190399107050041 -0.111309152389186 0 0.22633971976945319 -0.089127332617191773 0 0.2339780929486403 -0.1010322325967288 0 0.22893224491430239 -0.1041621630630979 0 0.2339780929486403 -0.1010322325967288 0 0.22893224491430239 -0.1041621630630979 0 0.2335071758686158 -0.11517993464928521 0 0.22190399107050041 -0.111309152389186 0 0.2268981998881294 -0.13737003426146571 0 0.22190399107050041 -0.111309152389186 0 0.2335071758686158 -0.11517993464928521 0 0.2268981998881294 -0.13737003426146571 0 0.22097004676565901 -0.11597954267972679 0 0.22190399107050041 -0.111309152389186 0 0.2268981998881294 -0.13737003426146571 0 0.22097004676565901 -0.11597954267972679 0 0.22190399107050041 -0.111309152389186 0 0.2166524563073573 -0.1122004373913431 0 0.22097004676565901 -0.11597954267972679 0 0.22190399107050041 -0.111309152389186 0 0.22893224491430239 -0.1041621630630979 0 0.22190399107050041 -0.111309152389186 0 0.2335071758686158 -0.11517993464928521 0 0.24994483656663891 -0.1061256540670502 0 0.2335071758686158 -0.11517993464928521 0 0.24393906892098721 -0.1259442153439837 0 0.25104821782774878 -0.14859720022468589 0 0.24393906892098721 -0.1259442153439837 0 0.2268981998881294 -0.13737003426146571 0 0.2335071758686158 -0.11517993464928521 0 0.24393906892098721 -0.1259442153439837 0 0.2268981998881294 -0.13737003426146571 0 0.25104821782774878 -0.14859720022468589 0 0.2268981998881294 -0.13737003426146571 0 0.22588792112452069 -0.158261803707263 0 0.2268981998881294 -0.13737003426146571 0 0.21070140072767859 -0.14465742971993031 0 0.22588792112452069 -0.158261803707263 0 0.22097004676565901 -0.11597954267972679 0 0.2268981998881294 -0.13737003426146571 0 0.21255794736014069 -0.12663118270418269 0 0.21255794736014069 -0.12663118270418269 0 0.21070140072767859 -0.14465742971993031 0 0.19862612310711461 -0.1317112587831771 0 0.2268981998881294 -0.13737003426146571 0 0.21255794736014069 -0.12663118270418269 0 0.21070140072767859 -0.14465742971993031 0 0.2039885149391589 -0.1189949487733676 0 0.21255794736014069 -0.12663118270418269 0 0.19862612310711461 -0.1317112587831771 0 0.21070140072767859 -0.14465742971993031 0 0.20558619352398311 -0.16191365466849689 0 0.22588792112452069 -0.158261803707263 0 0.21070140072767859 -0.14465742971993031 0 0.18962019940288891 -0.15045128478814049 0 0.19862612310711461 -0.1317112587831771 0 0.21070140072767859 -0.14465742971993031 0 0.18962019940288891 -0.15045128478814049 0 0.20558619352398311 -0.16191365466849689 0 0.18962019940288891 -0.15045128478814049 0 0.19862612310711461 -0.1317112587831771 0 0.18424225032122571 -0.13274986993923751 0 0.19138583502893591 -0.1213435105547989 0 0.19862612310711461 -0.1317112587831771 0 0.18424225032122571 -0.13274986993923751 0 0.19844551481459011 -0.17766395994849291 0 0.204840610072478 -0.1906952716276783 0 0.18682334290056579 -0.1938995760758298 0 0.19844551481459011 -0.17766395994849291 0 0.18682334290056579 -0.1938995760758298 0 0.18622226823145849 -0.17654026285207799 0 0.19844551481459011 -0.17766395994849291 0 0.1918067818582877 -0.16709156701430419 0 0.18622226823145849 -0.17654026285207799 0 0.19844551481459011 -0.17766395994849291 0 0.1918067818582877 -0.16709156701430419 0 0.20558619352398311 -0.16191365466849689 0 0.18962019940288891 -0.15045128478814049 0 0.1918067818582877 -0.16709156701430419 0 0.20558619352398311 -0.16191365466849689 0 0.20558619352398311 -0.16191365466849689 0 0.21770793907096461 -0.1762863575797434 0 0.22588792112452069 -0.158261803707263 0 0.19844551481459011 -0.17766395994849291 0 0.21770793907096461 -0.1762863575797434 0 0.204840610072478 -0.1906952716276783 0 0.19844551481459011 -0.17766395994849291 0 0.20558619352398311 -0.16191365466849689 0 0.21770793907096461 -0.1762863575797434 0 0.21770793907096461 -0.1762863575797434 0 0.2320284086568489 -0.1888186033206114 0 0.204840610072478 -0.1906952716276783 0 0.21770793907096461 -0.1762863575797434 0 0.23969257354154719 -0.1738158023373102 0 0.2320284086568489 -0.1888186033206114 0 0.21770793907096461 -0.1762863575797434 0 0.22588792112452069 -0.158261803707263 0 0.23969257354154719 -0.1738158023373102 0 0.25104821782774878 -0.14859720022468589 0 0.22588792112452069 -0.158261803707263 0 0.23969257354154719 -0.1738158023373102 0 0.25104821782774878 -0.14859720022468589 0 0.23969257354154719 -0.1738158023373102 0 0.25921620724121969 -0.18694193501354439 0 0.23969257354154719 -0.1738158023373102 0 0.2320284086568489 -0.1888186033206114 0 0.25921620724121969 -0.18694193501354439 0 0.24867434555772169 -0.2037098839959397 0 0.2320284086568489 -0.1888186033206114 0 0.24867434555772169 -0.2037098839959397 0 0.22548881427983311 -0.20299321023550551 0 0.2320284086568489 -0.1888186033206114 0 0.25921620724121969 -0.18694193501354439 0 0.2320284086568489 -0.1888186033206114 0 0.25646648418805063 -0.22785476341040739 0 0.24867434555772169 -0.2037098839959397 0 0.23325210375888911 -0.21653636763221479 0 0.24867434555772169 -0.2037098839959397 0 0.23325210375888911 -0.21653636763221479 0 0.22548881427983311 -0.20299321023550551 0 0.23325210375888911 -0.21653636763221479 0 0.22548881427983311 -0.20299321023550551 0 0.21003772332972739 -0.20521797185402241 0 0.23325210375888911 -0.21653636763221479 0 0.21003772332972739 -0.20521797185402241 0 0.23325210375888911 -0.21653636763221479 0 0.21605597658921419 -0.2216184454327573 0 0.21003772332972739 -0.20521797185402241 0 0.22548881427983311 -0.20299321023550551 0 0.2320284086568489 -0.1888186033206114 0 0.204840610072478 -0.1906952716276783 0 0.25646648418805063 -0.22785476341040739 0 0.23325210375888911 -0.21653636763221479 0 0.25646648418805063 -0.22785476341040739 0 0.23325210375888911 -0.21653636763221479 0 0.24172280262944201 -0.23911909159452521 0 0.23325210375888911 -0.21653636763221479 0 0.2210057349904386 -0.23788311283172689 0 0.21605597658921419 -0.2216184454327573 0 0.23325210375888911 -0.21653636763221479 0 0.24172280262944201 -0.23911909159452521 0 0.2210057349904386 -0.23788311283172689 0 0.23617547327348351 -0.25594095147207307 0 0.24172280262944201 -0.23911909159452521 0 0.2210057349904386 -0.23788311283172689 0 0.21820320670320331 -0.25994355100239708 0 0.2210057349904386 -0.23788311283172689 0 0.1984659880394421 -0.24764077805753781 0 0.2210057349904386 -0.23788311283172689 0 0.1999283442778016 -0.22683632941306511 0 0.1984659880394421 -0.24764077805753781 0 0.2210057349904386 -0.23788311283172689 0 0.21605597658921419 -0.2216184454327573 0 0.1999283442778016 -0.22683632941306511 0 0.1999283442778016 -0.22683632941306511 0 0.1929626229280389 -0.2107736271758886 0 0.17713847726003351 -0.22089257044357671 0 0.1999283442778016 -0.22683632941306511 0 0.1984659880394421 -0.24764077805753781 0 0.18416516364632021 -0.23794677239095949 0 0.2320284086568489 -0.1888186033206114 0 0.204840610072478 -0.1906952716276783 0 0.22548881427983311 -0.20299321023550551 0 0.204840610072478 -0.1906952716276783 0 0.21003772332972739 -0.20521797185402241 0 0.21605597658921419 -0.2216184454327573 0 0.1999283442778016 -0.22683632941306511 0 0.21003772332972739 -0.20521797185402241 0 0.1999283442778016 -0.22683632941306511 0 0.21003772332972739 -0.20521797185402241 0 0.1929626229280389 -0.2107736271758886 0 0.21003772332972739 -0.20521797185402241 0 0.1929626229280389 -0.2107736271758886 0 0.18682334290056579 -0.1938995760758298 0 0.204840610072478 -0.1906952716276783 0 0.21003772332972739 -0.20521797185402241 0 0.18682334290056579 -0.1938995760758298 0 0.21003772332972739 -0.20521797185402241 0 0.18682334290056579 -0.1938995760758298 0 0.18682334290056579 -0.1938995760758298 0 0.16360896247140391 -0.18258118029763781 0 0.18682334290056579 -0.1938995760758298 0 0.17635844977043799 -0.20613222935960199 0 0.16152333926516629 -0.19637854320699821 0 0.1929626229280389 -0.2107736271758886 0 0.18682334290056579 -0.1938995760758298 0 0.17635844977043799 -0.20613222935960199 0 0.1929626229280389 -0.2107736271758886 0 0.17635844977043799 -0.20613222935960199 0 0.17713847726003351 -0.22089257044357671 0 0.17635844977043799 -0.20613222935960199 0 0.16363132769942099 -0.21152817818670319 0 0.17713847726003351 -0.22089257044357671 0 0.17635844977043799 -0.20613222935960199 0 0.16363132769942099 -0.21152817818670319 0 0.16152333926516629 -0.19637854320699821 0 0.16363132769942099 -0.21152817818670319 0 0.16152333926516629 -0.19637854320699821 0 0.148483735791789 -0.2069684000971887 0 0.18682334290056579 -0.1938995760758298 0 0.16152333926516629 -0.19637854320699821 0 0.16360896247140391 -0.18258118029763781 0 0.16152333926516629 -0.19637854320699821 0 0.15614274270559569 -0.1842089318231788 0 0.16360896247140391 -0.18258118029763781 0 0.16152333926516629 -0.19637854320699821 0 0.16360896247140391 -0.18258118029763781 0 0.17509037416051099 -0.25355722264805808 0 0.18416516364632021 -0.23794677239095949 0 0.17106436602920319 -0.23741014010495559 0 0.17509037416051099 -0.25355722264805808 0 0.1984659880394421 -0.24764077805753781 0 0.18416516364632021 -0.23794677239095949 0 0.18416516364632021 -0.23794677239095949 0 0.17713847726003351 -0.22089257044357671 0 0.17106436602920319 -0.23741014010495559 0 0.1999283442778016 -0.22683632941306511 0 0.18416516364632021 -0.23794677239095949 0 0.17713847726003351 -0.22089257044357671 0 0.16363132769942099 -0.21152817818670319 0 0.16444782227514751 -0.22800957282444989 0 0.15452460871643711 -0.21753498908677121 0 0.16363132769942099 -0.21152817818670319 0 0.17713847726003351 -0.22089257044357671 0 0.16444782227514751 -0.22800957282444989 0 0.17713847726003351 -0.22089257044357671 0 0.16444782227514751 -0.22800957282444989 0 0.17106436602920319 -0.23741014010495559 0 0.17509037416051099 -0.25355722264805808 0 0.17106436602920319 -0.23741014010495559 0 0.15620345587478421 -0.23985091964252669 0 0.16444782227514751 -0.22800957282444989 0 0.17106436602920319 -0.23741014010495559 0 0.15620345587478421 -0.23985091964252669 0 0.14646117842628659 -0.25326064310199847 0 0.14676453921249469 -0.243718526500803 0 0.13904891830873781 -0.24801723404172771 0 0.14676453921249469 -0.243718526500803 0 0.1402908058599289 -0.24141474322696449 0 0.13904891830873781 -0.24801723404172771 0 0.14646117842628659 -0.25326064310199847 0 0.14676453921249469 -0.243718526500803 0 0.15620345587478421 -0.23985091964252669 0 0.14676453921249469 -0.243718526500803 0 0.15620345587478421 -0.23985091964252669 0 0.14291814197653949 -0.2312566826044152 0 0.14676453921249469 -0.243718526500803 0 0.14291814197653949 -0.2312566826044152 0 0.1402908058599289 -0.24141474322696449 0 0.16444782227514751 -0.22800957282444989 0 0.15620345587478421 -0.23985091964252669 0 0.14291814197653949 -0.2312566826044152 0 0.16444782227514751 -0.22800957282444989 0 0.14291814197653949 -0.2312566826044152 0 0.15452460871643711 -0.21753498908677121 0 0.14291814197653949 -0.2312566826044152 0 0.14427676975492071 -0.2191623367736111 0 0.15452460871643711 -0.21753498908677121 0 0.12198520600478829 -0.22024484094270749 0 0.12944578641563309 -0.24542694242380381 0 0.14291814197653949 -0.2312566826044152 0 0.1323274781045381 -0.21950090468917591 0 0.13141095930705879 -0.2421169414711894 0 0.12198520600478829 -0.22024484094270749 0 0.1323274781045381 -0.21950090468917591 0 0.13141095930705879 -0.2421169414711894 0 0.1323274781045381 -0.21950090468917591 0 0.13141095930705879 -0.2421169414711894 0 0.14291814197653949 -0.2312566826044152 0 0.14427676975492071 -0.2191623367736111 0 0.1323274781045381 -0.21950090468917591 0 0.12198520600478829 -0.22024484094270749 0 0.13141095930705879 -0.2421169414711894 0 0.12944578641563309 -0.24542694242380381 0 0.14291814197653949 -0.2312566826044152 0 0.1402908058599289 -0.24141474322696449 0 0.13141095930705879 -0.2421169414711894 0 0.1402908058599289 -0.24141474322696449 0 0.13141095930705879 -0.2421169414711894 0 0.13904891830873781 -0.24801723404172771 0 0.13141095930705879 -0.2421169414711894 0 0.12944578641563309 -0.24542694242380381 0 0.13904891830873781 -0.24801723404172771 0 0.12944578641563309 -0.24542694242380381 0 0.13904891830873781 -0.24801723404172771 0 0.15086229478207111 -0.189732597485327 0 0.13324399690201749 -0.1968848679071625 0 0.1437807265885393 -0.18154660115605409 0 0.15086229478207111 -0.189732597485327 0 0.148483735791789 -0.2069684000971887 0 0.13324399690201749 -0.1968848679071625 0 0.16152333926516629 -0.19637854320699821 0 0.15086229478207111 -0.189732597485327 0 0.148483735791789 -0.2069684000971887 0 0.16152333926516629 -0.19637854320699821 0 0.15086229478207111 -0.189732597485327 0 0.15614274270559569 -0.1842089318231788 0 0.14427676975492071 -0.2191623367736111 0 0.1323274781045381 -0.21950090468917591 0 0.148483735791789 -0.2069684000971887 0 0.16363132769942099 -0.21152817818670319 0 0.148483735791789 -0.2069684000971887 0 0.15452460871643711 -0.21753498908677121 0 0.14427676975492071 -0.2191623367736111 0 0.148483735791789 -0.2069684000971887 0 0.15452460871643711 -0.21753498908677121 0 0.1323274781045381 -0.21950090468917591 0 0.148483735791789 -0.2069684000971887 0 0.13324399690201749 -0.1968848679071625 0 0.1323274781045381 -0.21950090468917591 0 0.13324399690201749 -0.1968848679071625 0 0.11700302096417151 -0.2088944707406378 0 0.1323274781045381 -0.21950090468917591 0 0.13324399690201749 -0.1968848679071625 0 0.11866445213751201 -0.1761215583406342 0 0.13324399690201749 -0.1968848679071625 0 0.13416051569949869 -0.17426883112514921 0 0.13324399690201749 -0.1968848679071625 0 0.13416051569949869 -0.17426883112514921 0 0.1437807265885393 -0.18154660115605409 0 0.13324399690201749 -0.1968848679071625 0 0.13416051569949869 -0.17426883112514921 0 0.11866445213751201 -0.1761215583406342 0 0.13416051569949869 -0.17426883112514921 0 0.14979556254706139 -0.17239948690789181 0 0.15282684090440429 -0.1773242526102376 0 0.16543060939462401 -0.17053014269063341 0 0.13416051569949869 -0.17426883112514921 0 0.1437807265885393 -0.18154660115605409 0 0.14979556254706139 -0.17239948690789181 0 0.13416051569949869 -0.17426883112514921 0 0.14979556254706139 -0.17239948690789181 0 0.1437807265885393 -0.18154660115605409 0 0.14979556254706139 -0.17239948690789181 0 0.15282684090440429 -0.1773242526102376 0 0.15086229478207111 -0.189732597485327 0 0.15282684090440429 -0.1773242526102376 0 0.15614274270559569 -0.1842089318231788 0 0.15086229478207111 -0.189732597485327 0 0.1437807265885393 -0.18154660115605409 0 0.15282684090440429 -0.1773242526102376 0 0.13416051569949869 -0.17426883112514921 0 0.14979556254706139 -0.17239948690789181 0 0.1457241762758418 -0.16178852969151719 0 0.1457241762758418 -0.16178852969151719 0 0.15181053025608951 -0.150469075799325 0 0.15645966279950771 -0.159865474643276 0 0.14979556254706139 -0.17239948690789181 0 0.1457241762758418 -0.16178852969151719 0 0.15645966279950771 -0.159865474643276 0 0.1216498976553972 -0.16278532909297319 0 0.13416051569949869 -0.17426883112514921 0 0.13519100098590339 -0.14884055490780301 0 0.13416051569949869 -0.17426883112514921 0 0.1457241762758418 -0.16178852969151719 0 0.13519100098590339 -0.14884055490780301 0 0.13416051569949869 -0.17426883112514921 0 0.13519100098590339 -0.14884055490780301 0 0.1194960029087308 -0.12911457695895751 0 0.139669502064318 -0.1160510743186111 0 0.15186406329806909 -0.13344742645604471 0 0.1194960029087308 -0.12911457695895751 0 0.13519100098590339 -0.14884055490780301 0 0.15186406329806909 -0.13344742645604471 0 0.1457241762758418 -0.16178852969151719 0 0.13519100098590339 -0.14884055490780301 0 0.15181053025608951 -0.150469075799325 0 0.13519100098590339 -0.14884055490780301 0 0.15186406329806909 -0.13344742645604471 0 0.15181053025608951 -0.150469075799325 0 0.15181053025608951 -0.150469075799325 0 0.16945272204622311 -0.1439220057315917 0 0.15645966279950771 -0.159865474643276 0 0.15186406329806909 -0.13344742645604471 0 0.15181053025608951 -0.150469075799325 0 0.16945272204622311 -0.1439220057315917 0 0.17347483469782421 -0.11731386877255021 0 0.16945272204622311 -0.1439220057315917 0 0.17347483469782421 -0.11731386877255021 0 0.15186406329806909 -0.13344742645604471 0 0.16945272204622311 -0.1439220057315917 0 0.17347483469782421 -0.11731386877255021 0 0.16945272204622311 -0.1439220057315917 0 0.18424225032122571 -0.13274986993923751 0 0.18962019940288891 -0.15045128478814049 0 0.16945272204622311 -0.1439220057315917 0 0.17915973331851801 -0.16888867281431269 0 0.18962019940288891 -0.15045128478814049 0 0.16945272204622311 -0.1439220057315917 0 0.18424225032122571 -0.13274986993923751 0 0.18962019940288891 -0.15045128478814049 0 0.1918067818582877 -0.16709156701430419 0 0.17915973331851801 -0.16888867281431269 0 0.17915973331851801 -0.16888867281431269 0 0.16543060939462401 -0.17053014269063341 0 0.1918067818582877 -0.16709156701430419 0 0.17915973331851801 -0.16888867281431269 0 0.18622226823145849 -0.17654026285207799 0 0.18682334290056579 -0.1938995760758298 0 0.17605273392950899 -0.17903882961346421 0 0.16360896247140391 -0.18258118029763781 0 0.17915973331851801 -0.16888867281431269 0 0.18622226823145849 -0.17654026285207799 0 0.17605273392950899 -0.17903882961346421 0 0.18682334290056579 -0.1938995760758298 0 0.18622226823145849 -0.17654026285207799 0 0.17605273392950899 -0.17903882961346421 0 0.17915973331851801 -0.16888867281431269 0 0.17605273392950899 -0.17903882961346421 0 0.16543060939462401 -0.17053014269063341 0 0.17605273392950899 -0.17903882961346421 0 0.16360896247140391 -0.18258118029763781 0 0.16543060939462401 -0.17053014269063341 0 0.16360896247140391 -0.18258118029763781 0 0.16543060939462401 -0.17053014269063341 0 0.15282684090440429 -0.1773242526102376 0 0.16360896247140391 -0.18258118029763781 0 0.15282684090440429 -0.1773242526102376 0 0.15614274270559569 -0.1842089318231788 0 0.16360896247140391 -0.18258118029763781 0 0.15282684090440429 -0.1773242526102376 0 0.16360896247140391 -0.18258118029763781 0 0.16543060939462401 -0.17053014269063341 0 0.16945272204622311 -0.1439220057315917 0 0.16543060939462401 -0.17053014269063341 0 0.14979556254706139 -0.17239948690789181 0 0.15645966279950771 -0.159865474643276 0 0.16543060939462401 -0.17053014269063341 0 0.16945272204622311 -0.1439220057315917 0 0.15645966279950771 -0.159865474643276 0 0.16543060939462401 -0.17053014269063341 0 0.14979556254706139 -0.17239948690789181 0 0.16543060939462401 -0.17053014269063341 0 0.16945272204622311 -0.1439220057315917 0 0.17915973331851801 -0.16888867281431269 0 0.16543060939462401 -0.17053014269063341 0 
</DataArray>
</Points>
<Cells>
<DataArray type="UInt32" Name="connectivity" format="ascii">
0 1 2 3 4 5 6 7 8 9 10 11 12 13 14 15 16 17 18 19 20 21 22 23 24 25 26 27 28 29 30 31 32 33 34 35 36 37 38 39 40 41 42 43 44 45 46 47 48 49 50 51 52 53 54 55 56 57 58 59 60 61 62 63 64 65 66 67 68 69 70 71 72 73 74 75 76 77 78 79 80 81 82 83 84 85 86 87 88 89 90 91 92 93 94 95 96 97 98 99 100 101 102 103 104 105 106 107 108 109 110 111 112 113 114 115 116 117 118 119 120 121 122 123 124 125 126 127 128 129 130 131 132 133 134 135 136 137 138 139 140 141 142 143 144 145 146 147 148 149 150 151 152 153 154 155 156 157 158 159 160 161 162 163 164 165 166 167 168 169 170 171 172 173 174 175 176 177 178 179 180 181 182 183 184 185 186 187 188 189 190 191 192 193 194 195 196 197 198 199 200 201 202 203 204 205 206 207 208 209 210 211 212 213 214 215 216 217 218 219 220 221 222 223 224 225 226 227 228 229 230 231 232 233 234 235 236 237 238 239 240 241 242 243 244 245 246 247 248 249 250 251 252 253 254 255 256 257 258 259 260 261 262 263 264 265 266 267 268 269 270 271 272 273 274 275 276 277 278 279 280 281 282 283 284 285 286 287 288 289 290 291 292 293 294 295 296 297 298 299 300 301 302 303 304 305 306 307 308 309 310 311 312 313 314 315 316 317 318 319 320 321 322 323 324 325 326 327 328 329 330 331 332 333 334 335 336 337 338 339 340 341 342 343 344 345 346 347 348 349 350 351 352 353 354 355 356 357 358 359 360 361 362 363 364 365 366 367 368 369 370 371 372 373 374 375 376 377 378 379 380 381 382 383 384 385 386 387 388 389 390 391 392 393 394 395 396 397 398 399 400 401 402 403 404 405 406 407 408 409 410 411 412 413 414 415 416 417 418 419 420 421 422 423 424 425 426 427 428 429 430 431 432 433 434 435 436 437 438 439 440 441 442 443 444 445 446 447 448 449 450 451 452 453 454 455 456 457 458 459 460 461 462 463 464 465 466 467 468 469 470 471 472 473 474 475 476 477 478 479 480 481 482 483 484 485 486 487 488 489 490 491 492 493 494 495 496 497 498 499 500 501 502 503 504 505 506 507 508 509 510 511 512 513 514 515 516 517 518 519 520 521 522 523 524 525 526 527 528 529 530 531 532 533 534 535 536 537 538 539 540 541 542 543 544 545 546 547 548 549 550 551 552 553 554 555 556 557 558 559 560 561 562 563 564 565 566 567 568 569 570 571 572 573 574 575 576 577 578 579 580 581 582 583 584 585 586 587 588 589 590 591 592 593 594 595 596 597 598 599 600 601 602 603 604 605 606 607 608 609 610 611 612 613 614 615 616 617 618 619 620 621 622 623 624 625 626 627 628 629 630 631 632 633 634 635 636 637 638 639 640 641 642 643 644 645 646 647 648 649 650 651 652 653 654 655 656 657 658 659 660 661 662 663 664 665 666 667 668 669 670 671 672 673 674 675 676 677 678 679 680 681 682 683 684 685 686 687 688 689 690 691 692 693 694 695 696 697 698 699 700 701 702 703 704 705 706 707 708 709 710 711 712 713 714 715 716 717 718 719 720 721 722 723 724 725 726 727 728 729 730 731 732 733 734 735 736 737 738 739 740 741 742 743 744 745 746 747 748 749 750 751 752 753 754 755 756 757 758 759 760 761 762 763 764 765 766 767 768 769 770 771 772 773 774 775 776 777 778 779 780 781 782 783 784 785 786 787 788 789 790 791 792 793 794 795 796 797 798 799 800 801 802 803 804 805 806 807 808 809 810 811 812 813 814 815 816 817 818 819 820 821 822 823 824 825 826 827 828 829 830 831 832 833 834 835 836 837 838 839 840 841 842 843 844 845 846 847 848 849 850 851 852 853 854 855 856 857 858 859 860 861 862 863 864 865 866 867 868 869 870 871 872 873 874 875 876 877 878 879 880 881 882 883 884 885 886 887 888 889 890 891 892 893 894 895 896 897 898 899 900 901 902 903 904 905 906 907 908 909 910 911 912 913 914 915 916 917 918 919 920 921 922 923 924 925 926 927 928 929 930 931 932 933 934 935 936 937 938 939 940 941 942 943 944 945 946 947 948 949 950 951 952 953 954 955 956 957 958 959 960 961 962 963 964 965 966 967 968 969 970 971 972 973 974 975 976 977 978 979 980 981 982 983 984 985 986 987 988 989 990 991 992 993 994 995 996 997 998 999 1000 1001 1002 1003 1004 1005 1006 1007 1008 1009 1010 1011 1012 1013 1014 1015 1016 1017 1018 1019 1020 1021 1022 1023 1024 1025 1026 1027 1028 1029 1030 1031 1032 1033 1034 1035 1036 1037 1038 1039 1040 1041 1042 1043 1044 1045 1046 1047 1048 1049 1050 1051 1052 1053 1054 1055 1056 1057 1058 1059 1060 1061 1062 1063 1064 1065 1066 1067 1068 1069 1070 1071 1072 1073 1074 1075 1076 1077 1078 1079 1080 1081 1082 1083 1084 1085 1086 1087 1088 1089 1090 1091 1092 1093 1094 1095 1096 1097 1098 1099 1100 1101 1102 1103 1104 1105 1106 1107 1108 1109 1110 1111 1112 1113 1114 1115 1116 1117 1118 1119 1120 1121 1122 1123 1124 1125 1126 1127 1128 1129 1130 1131 1132 1133 1134 1135 1136 1137 1138 1139 1140 1141 1142 1143 1144 1145 1146 1147 1148 1149 1150 1151 1152 1153 1154 1155 1156 1157 1158 1159 1160 1161 1162 1163 1164 1165 1166 1167 1168 1169 1170 1171 1172 1173 1174 1175 1176 1177 1178 1179 1180 1181 1182 1183 1184 1185 1186 1187 1188 1189 1190 1191 1192 1193 1194 1195 1196 1197 1198 1199 1200 1201 1202 1203 1204 1205 1206 1207 1208 1209 1210 1211 1212 1213 1214 1215 1216 1217 1218 1219 1220 1221 1222 1223 1224 1225 1226 1227 1228 1229 1230 1231 1232 1233 1234 1235 1236 1237 1238 1239 1240 1241 1242 1243 1244 1245 1246 1247 1248 1249 1250 1251 1252 1253 1254 1255 1256 1257 1258 1259 1260 1261 1262 1263 1264 1265 1266 1267 1268 1269 1270 1271 1272 1273 1274 1275 1276 1277 1278 1279 1280 1281 1282 1283 1284 1285 1286 1287 1288 1289 1290 1291 1292 1293 1294 1295 1296 1297 1298 1299 1300 1301 1302 1303 1304 1305 1306 1307 1308 1309 1310 1311 1312 1313 1314 1315 1316 1317 1318 1319 1320 1321 1322 1323 1324 1325 1326 1327 1328 1329 1330 1331 1332 1333 1334 1335 1336 1337 1338 1339 1340 1341 1342 1343 1344 1345 1346 1347 1348 1349 1350 1351 1352 1353 1354 1355 1356 1357 1358 1359 1360 1361 1362 1363 1364 1365 1366 1367 1368 1369 1370 1371 1372 1373 1374 1375 1376 1377 1378 1379 1380 1381 1382 1383 1384 1385 1386 1387 1388 1389 1390 1391 1392 1393 1394 1395 1396 1397 1398 1399 1400 1401 1402 1403 1404 1405 1406 1407 1408 1409 1410 1411 1412 1413 1414 1415 1416 1417 1418 1419 1420 1421 1422 1423 1424 1425 1426 1427 1428 1429 1430 1431 1432 1433 1434 1435 1436 1437 1438 1439 1440 1441 1442 1443 1444 1445 1446 1447 1448 1449 1450 1451 1452 1453 1454 1455 1456 1457 1458 1459 1460 1461 1462 1463 1464 1465 1466 1467 1468 1469 1470 1471 1472 1473 1474 1475 1476 1477 1478 1479 1480 1481 1482 1483 1484 1485 1486 1487 1488 1489 1490 1491 1492 1493 1494 1495 1496 1497 1498 1499 1500 1501 1502 1503 1504 1505 1506 1507 1508 1509 1510 1511 1512 1513 1514 1515 1516 1517 1518 1519 1520 1521 1522 1523 1524 1525 1526 1527 1528 1529 1530 1531 1532 1533 1534 1535 1536 1537 1538 1539 1540 1541 1542 1543 1544 1545 1546 1547 1548 1549 1550 1551 1552 1553 1554 1555 1556 1557 1558 1559 1560 1561 1562 1563 1564 1565 1566 1567 1568 1569 1570 1571 1572 1573 1574 1575 1576 1577 1578 1579 1580 1581 1582 1583 1584 1585 1586 1587 1588 1589 1590 1591 1592 1593 1594 1595 1596 1597 1598 1599 1600 1601 1602 1603 1604 1605 1606 1607 1608 1609 1610 1611 1612 1613 1614 1615 1616 1617 1618 1619 1620 1621 1622 1623 1624 1625 1626 1627 1628 1629 1630 1631 1632 1633 1634 1635 1636 1637 1638 1639 1640 1641 1642 1643 1644 1645 1646 1647 1648 1649 1650 1651 1652 1653 1654 1655 1656 1657 1658 1659 1660 1661 1662 1663 1664 1665 1666 1667 1668 1669 1670 1671 1672 1673 1674 1675 1676 1677 1678 1679 1680 1681 1682 1683 1684 1685 1686 1687 1688 1689 1690 1691 1692 1693 1694 1695 1696 1697 1698 1699 1700 1701 1702 1703 1704 1705 1706 1707 1708 1709 1710 1711 1712 1713 1714 1715 1716 1717 1718 1719 1720 1721 1722 1723 1724 1725 1726 1727 1728 1729 1730 1731 1732 1733 1734 1735 1736 1737 1738 1739 1740 1741 1742 1743 1744 1745 1746 1747 1748 1749 1750 1751 1752 1753 1754 1755 1756 1757 1758 1759 1760 1761 1762 1763 1764 1765 1766 1767 1768 1769 1770 1771 1772 1773 1774 1775 1776 1777 1778 1779 1780 1781 1782 1783 1784 1785 1786 1787 1788 1789 1790 1791 1792 1793 1794 1795 1796 1797 1798 1799 1800 1801 1802 1803 1804 1805 1806 1807 1808 1809 1810 1811 1812 1813 1814 1815 1816 1817 1818 1819 1820 1821 1822 1823 1824 1825 1826 1827 1828 1829 1830 1831 1832 1833 1834 1835 1836 1837 1838 1839 1840 1841 1842 1843 1844 1845 1846 1847 1848 1849 1850 1851 1852 1853 1854 1855 1856 1857 1858 1859 1860 1861 1862 1863 1864 1865 1866 1867 1868 1869 1870 1871 1872 1873 1874 1875 1876 1877 1878 1879 1880 1881 1882 1883 1884 1885 1886 1887 1888 1889 1890 1891 1892 1893 1894 1895 1896 1897 1898 1899 1900 1901 1902 1903 1904 1905 1906 1907 1908 1909 1910 1911 1912 1913 1914 1915 1916 1917 1918 1919 1920 1921 1922 1923 1924 1925 1926 1927 1928 1929 1930 1931 1932 1933 1934 1935 1936 1937 1938 1939 1940 1941 1942 1943 1944 1945 1946 1947 1948 1949 1950 1951 1952 1953 1954 1955 1956 1957 1958 1959 1960 1961 1962 1963 1964 1965 1966 1967 1968 1969 1970 1971 1972 1973 1974 1975 1976 1977 1978 1979 1980 1981 1982 1983 1984 1985 1986 1987 1988 1989 1990 1991 1992 1993 1994 1995 1996 1997 1998 1999 2000 2001 2002 2003 2004 2005 2006 2007 2008 2009 2010 2011 2012 2013 2014 2015 2016 2017 2018 2019 2020 2021 2022 2023 2024 2025 2026 2027 2028 2029 2030 2031 2032 2033 2034 2035 2036 2037 2038 2039 2040 2041 2042 2043 2044 2045 2046 2047 2048 2049 2050 2051 2052 2053 2054 2055 2056 2057 2058 2059 2060 2061 2062 2063 2064 2065 2066 2067 2068 2069 2070 2071 2072 2073 2074 2075 2076 2077 2078 2079 2080 2081 2082 2083 2084 2085 2086 2087 2088 2089 2090 2091 2092 2093 2094 2095 2096 2097 2098 2099 2100 2101 2102 2103 2104 2105 2106 2107 2108 2109 2110 2111 2112 2113 2114 2115 2116 2117 2118 2119 2120 2121 2122 2123 2124 2125 2126 2127 2128 2129 2130 2131 2132 2133 2134 2135 2136 2137 2138 2139 2140 2141 2142 2143 2144 2145 2146 2147 2148 2149 2150 2151 2152 2153 2154 2155 2156 2157 2158 2159 2160 2161 2162 2163 2164 2165 2166 2167 2168 2169 2170 2171 2172 2173 2174 2175 2176 2177 2178 2179 2180 2181 2182 2183 2184 2185 2186 2187 2188 2189 2190 2191 2192 2193 2194 2195 2196 2197 2198 2199 2200 2201 2202 2203 2204 2205 2206 2207 2208 2209 2210 2211 2212 2213 2214 2215 2216 2217 2218 2219 2220 2221 2222 2223 2224 2225 2226 2227 2228 2229 2230 2231 2232 2233 2234 2235 2236 2237 2238 2239 2240 2241 2242 2243 2244 2245 2246 2247 2248 2249 2250 2251 2252 2253 2254 2255 2256 2257 2258 2259 2260 2261 2262 2263 2264 2265 2266 2267 2268 2269 2270 2271 2272 2273 2274 2275 2276 2277 2278 2279 2280 2281 2282 2283 2284 2285 2286 2287 2288 2289 2290 2291 2292 2293 2294 2295 2296 2297 2298 2299 2300 2301 2302 2303 2304 2305 2306 2307 2308 2309 2310 2311 2312 2313 2314 2315 2316 2317 2318 2319 2320 2321 2322 2323 2324 2325 2326 2327 2328 2329 2330 2331 2332 2333 2334 2335 2336 2337 2338 2339 2340 2341 2342 2343 2344 2345 2346 2347 2348 2349 2350 2351 2352 2353 2354 2355 2356 2357 2358 2359 2360 2361 2362 2363 2364 2365 2366 2367 2368 2369 2370 2371 2372 2373 2374 2375 2376 2377 2378 2379 2380 2381 2382 2383 2384 2385 2386 2387 2388 2389 2390 2391 2392 2393 2394 2395 2396 2397 2398 2399 2400 2401 2402 2403 2404 2405 2406 2407 2408 2409 2410 2411 2412 2413 2414 2415 2416 2417 2418 2419 2420 2421 2422 2423 2424 2425 2426 2427 2428 2429 2430 2431 2432 2433 2434 2435 2436 2437 2438 2439 2440 2441 2442 2443 2444 2445 2446 2447 2448 2449 2450 2451 2452 2453 2454 2455 2456 2457 2458 2459 2460 2461 2462 2463 2464 2465 2466 2467 2468 2469 2470 2471 2472 2473 2474 2475 2476 2477 2478 2479 2480 2481 2482 2483 2484 2485 2486 2487 2488 2489 2490 2491 2492 2493 2494 2495 2496 2497 2498 2499 2500 2501 2502 2503 2504 2505 2506 2507 2508 2509 2510 2511 2512 2513 2514 2515 2516 2517 2518 2519 2520 2521 2522 2523 2524 2525 2526 2527 2528 2529 2530 2531 2532 2533 2534 2535 2536 2537 2538 2539 2540 2541 2542 2543 2544 2545 2546 2547 2548 2549 2550 2551 2552 2553 2554 2555 2556 2557 2558 2559 2560 2561 2562 2563 2564 2565 2566 2567 2568 2569 2570 2571 2572 2573 2574 2575 2576 2577 2578 2579 2580 2581 2582 2583 2584 2585 2586 2587 2588 2589 2590 2591 2592 2593 2594 2595 2596 2597 2598 2599 2600 2601 2602 2603 2604 2605 2606 2607 2608 2609 2610 2611 2612 2613 2614 2615 2616 2617 2618 2619 2620 2621 2622 2623 2624 2625 2626 2627 2628 2629 2630 2631 2632 2633 2634 2635 2636 2637 2638 2639 2640 2641 2642 2643 2644 2645 2646 2647 2648 2649 2650 2651 2652 2653 2654 2655 2656 2657 2658 2659 2660 2661 2662 2663 2664 2665 2666 2667 2668 2669 2670 2671 2672 2673 2674 2675 2676 2677 2678 2679 2680 2681 2682 2683 2684 2685 2686 2687 2688 2689 2690 2691 2692 2693 2694 2695 2696 2697 2698 2699 2700 2701 2702 2703 2704 2705 2706 2707 2708 2709 2710 2711 2712 2713 2714 2715 2716 2717 2718 2719 2720 2721 2722 2723 2724 2725 2726 2727 2728 2729 2730 2731 2732 2733 2734 2735 2736 2737 2738 2739 2740 2741 2742 2743 2744 2745 2746 2747 2748 2749 2750 2751 2752 2753 2754 2755 2756 2757 2758 2759 2760 2761 2762 2763 2764 2765 2766 2767 2768 2769 2770 2771 2772 2773 2774 2775 2776 2777 2778 2779 2780 2781 2782 2783 2784 2785 2786 2787 2788 2789 2790 2791 2792 2793 2794 2795 2796 2797 2798 2799 2800 2801 2802 2803 2804 2805 2806 2807 2808 2809 2810 2811 2812 2813 2814 2815 2816 2817 2818 2819 2820 2821 2822 2823 2824 2825 2826 2827 2828 2829 2830 2831 2832 2833 2834 2835 2836 2837 2838 2839 2840 2841 2842 2843 2844 2845 2846 2847 2848 2849 2850 2851 2852 2853 2854 2855 2856 2857 2858 2859 2860 2861 2862 2863 2864 2865 2866 2867 2868 2869 2870 2871 2872 2873 2874 2875 2876 2877 2878 2879 2880 2881 2882 2883 2884 2885 2886 2887 2888 2889 2890 2891 2892 2893 2894 2895 2896 2897 2898 2899 2900 2901 2902 2903 2904 2905 2906 2907 2908 2909 2910 2911 2912 2913 2914 2915 2916 2917 2918 2919 2920 2921 2922 2923 2924 2925 2926 2927 2928 2929 2930 2931 2932 2933 2934 2935 2936 2937 2938 2939 2940 2941 2942 2943 2944 2945 2946 2947 2948 2949 2950 2951 2952 2953 2954 2955 2956 2957 2958 2959 2960 2961 2962 2963 2964 2965 2966 2967 2968 2969 2970 2971 2972 2973 2974 2975 2976 2977 2978 2979 2980 2981 2982 2983 2984 2985 2986 2987 2988 2989 2990 2991 2992 2993 2994 2995 2996 2997 2998 2999 3000 3001 3002 3003 3004 3005 3006 3007 3008 3009 3010 3011 3012 3013 3014 3015 3016 3017 3018 3019 3020 3021 3022 3023 3024 3025 3026 3027 3028 3029 3030 3031 3032 3033 3034 3035 3036 3037 3038 3039 3040 3041 3042 3043 3044 3045 3046 3047 3048 3049 3050 3051 3052 3053 3054 3055 3056 3057 3058 3059 3060 3061 3062 3063 3064 3065 3066 3067 3068 3069 3070 3071 3072 3073 3074 3075 3076 3077 3078 3079 3080 3081 3082 3083 3084 3085 3086 3087 3088 3089 3090 3091 3092 3093 3094 3095 3096 3097 3098 3099 3100 3101 3102 3103 3104 3105 3106 3107 3108 3109 3110 3111 3112 3113 3114 3115 3116 3117 3118 3119 3120 3121 3122 3123 3124 3125 3126 3127 3128 3129 3130 3131 3132 3133 3134 3135 3136 3137 3138 3139 3140 3141 3142 3143 3144 3145 3146 3147 3148 3149 3150 3151 3152 3153 3154 3155 3156 3157 3158 3159 3160 3161 3162 3163 3164 3165 3166 3167 3168 3169 3170 3171 3172 3173 3174 3175 3176 3177 3178 3179 3180 3181 3182 3183 3184 3185 3186 3187 3188 3189 3190 3191 3192 3193 3194 3195 3196 3197 3198 3199 3200 3201 3202 3203 3204 3205 3206 3207 3208 3209 3210 3211 3212 3213 3214 3215 3216 3217 3218 3219 3220 3221 3222 3223 3224 3225 3226 3227 3228 3229 3230 3231 3232 3233 3234 3235 3236 3237 3238 3239 3240 3241 3242 3243 3244 3245 3246 3247 3248 3249 3250 3251 3252 3253 3254 3255 3256 3257 3258 3259 3260 3261 3262 3263 3264 3265 3266 3267 3268 3269 3270 3271 3272 3273 3274 3275 3276 3277 3278 3279 3280 3281 3282 3283 3284 3285 3286 3287 3288 3289 3290 3291 3292 3293 3294 3295 3296 3297 3298 3299 3300 3301 3302 3303 3304 3305 3306 3307 3308 3309 3310 3311 3312 3313 3314 3315 3316 3317 3318 3319 3320 3321 3322 3323 3324 3325 3326 3327 3328 3329 3330 3331 3332 3333 3334 3335 3336 3337 3338 3339 3340 3341 3342 3343 3344 3345 3346 3347 3348 3349 3350 3351 3352 3353 3354 3355 3356 3357 3358 3359 3360 3361 3362 3363 3364 3365 3366 3367 3368 3369 3370 3371 3372 3373 3374 3375 3376 3377 3378 3379 3380 3381 3382 3383 3384 3385 3386 3387 3388 3389 3390 3391 3392 3393 3394 3395 3396 3397 3398 3399 3400 3401 3402 3403 3404 3405 3406 3407 3408 3409 3410 3411 3412 3413 3414 3415 3416 3417 3418 3419 3420 3421 3422 3423 3424 3425 3426 3427 3428 3429 3430 3431 3432 3433 3434 3435 3436 3437 3438 3439 3440 3441 3442 3443 3444 3445 3446 3447 3448 3449 3450 3451 3452 3453 3454 3455 3456 3457 3458 3459 3460 3461 3462 3463 3464 3465 3466 3467 3468 3469 3470 3471 3472 3473 3474 3475 3476 3477 3478 3479 3480 3481 3482 3483 3484 3485 3486 3487 3488 3489 3490 3491 3492 3493 3494 3495 3496 3497 3498 3499 3500 3501 3502 3503 3504 3505 3506 3507 3508 3509 3510 3511 3512 3513 3514 3515 3516 3517 3518 3519 3520 3521 3522 3523 3524 3525 3526 3527 3528 3529 3530 3531 3532 3533 3534 3535 3536 3537 3538 3539 3540 3541 3542 3543 3544 3545 3546 3547 3548 3549 3550 3551 3552 3553 3554 3555 3556 3557 3558 3559 3560 3561 3562 3563 3564 3565 3566 3567 3568 3569 3570 3571 3572 3573 3574 3575 3576 3577 3578 3579 3580 3581 3582 3583 3584 3585 3586 3587 3588 3589 3590 3591 3592 3593 3594 3595 3596 3597 3598 3599 3600 3601 3602 3603 3604 3605 3606 3607 3608 3609 3610 3611 3612 3613 3614 3615 3616 3617 3618 3619 3620 3621 3622 3623 3624 3625 3626 3627 3628 3629 3630 3631 3632 3633 3634 3635 3636 3637 3638 3639 3640 3641 3642 3643 3644 3645 3646 3647 3648 3649 3650 3651 3652 3653 3654 3655 3656 3657 3658 3659 3660 3661 3662 3663 3664 3665 3666 3667 3668 3669 3670 3671 3672 3673 3674 3675 3676 3677 3678 3679 3680 3681 3682 3683 3684 3685 3686 3687 3688 3689 3690 3691 3692 3693 3694 3695 3696 3697 3698 3699 3700 3701 3702 3703 3704 3705 3706 3707 3708 3709 3710 3711 3712 3713 3714 3715 3716 3717 3718 3719 3720 3721 3722 3723 3724 3725 3726 3727 3728 3729 3730 3731 3732 3733 3734 3735 3736 3737 3738 3739 3740 3741 3742 3743 3744 3745 3746 3747 3748 3749 3750 3751 3752 3753 3754 3755 3756 3757 3758 3759 3760 3761 3762 3763 3764 3765 3766 3767 3768 3769 3770 3771 3772 3773 3774 3775 3776 3777 3778 3779 3780 3781 3782 3783 3784 3785 3786 3787 3788 3789 3790 3791 3792 3793 3794 3795 3796 3797 3798 3799 3800 3801 3802 3803 3804 3805 3806 3807 3808 3809 3810 3811 3812 3813 3814 3815 3816 3817 3818 3819 3820 3821 3822 3823 3824 3825 3826 3827 3828 3829 3830 3831 3832 3833 3834 3835 3836 3837 3838 3839 3840 3841 3842 3843 3844 3845 3846 3847 3848 3849 3850 3851 3852 3853 3854 3855 3856 3857 3858 3859 3860 3861 3862 3863 3864 3865 3866 3867 3868 3869 3870 3871 3872 3873 3874 3875 3876 3877 3878 3879 3880 3881 3882 3883 3884 3885 3886 3887 3888 3889 3890 3891 3892 3893 3894 3895 3896 3897 3898 3899 3900 3901 3902 3903 3904 3905 3906 3907 3908 3909 3910 3911 3912 3913 3914 3915 3916 3917 3918 3919 3920 3921 3922 3923 3924 3925 3926 3927 3928 3929 3930 3931 3932 3933 3934 3935 3936 3937 3938 3939 3940 3941 3942 3943 3944 3945 3946 3947 3948 3949 3950 3951 3952 3953 3954 3955 3956 3957 3958 3959 3960 3961 3962 3963 3964 3965 3966 3967 3968 3969 3970 3971 3972 3973 3974 3975 3976 3977 3978 3979 3980 3981 3982 3983 3984 3985 3986 3987 3988 3989 3990 3991 3992 3993 3994 3995 3996 3997 3998 3999 4000 4001 4002 4003 4004 4005 4006 4007 4008 4009 4010 4011 4012 4013 4014 4015 4016 4017 4018 4019 4020 4021 4022 4023 4024 4025 4026 4027 4028 4029 4030 4031 4032 4033 4034 4035 4036 4037 4038 4039 4040 4041 4042 4043 4044 4045 4046 4047 4048 4049 4050 4051 4052 4053 4054 4055 4056 4057 4058 4059 4060 4061 4062 4063 4064 4065 4066 4067 4068 4069 4070 4071 4072 4073 4074 4075 4076 4077 4078 4079 4080 4081 4082 4083 4084 4085 4086 4087 4088 4089 4090 4091 4092 4093 4094 4095 4096 4097 4098 4099 4100 4101 4102 4103 4104 4105 4106 4107 4108 4109 4110 4111 4112 4113 4114 4115 4116 4117 4118 4119 4120 4121 4122 4123 4124 4125 4126 4127 4128 4129 4130 4131 4132 4133 4134 4135 4136 4137 4138 4139 4140 4141 4142 4143 4144 4145 4146 4147 4148 4149 4150 4151 4152 4153 4154 4155 4156 4157 4158 4159 4160 4161 4162 4163 4164 4165 4166 4167 4168 4169 4170 4171 4172 4173 4174 4175 4176 4177 4178 4179 4180 4181 4182 4183 4184 4185 4186 4187 4188 4189 4190 4191 4192 4193 4194 4195 4196 4197 4198 4199 4200 4201 4202 4203 4204 4205 4206 4207 4208 4209 4210 4211 4212 4213 4214 4215 4216 4217 4218 4219 4220 4221 4222 4223 4224 4225 4226 4227 4228 4229 4230 4231 4232 4233 4234 4235 4236 4237 4238 4239 4240 4241 4242 4243 4244 4245 4246 4247 4248 4249 4250 4251 4252 4253 4254 4255 4256 4257 4258 4259 4260 4261 4262 4263 4264 4265 4266 4267 4268 4269 4270 4271 4272 4273 4274 4275 4276 4277 4278 4279 4280 4281 4282 4283 4284 4285 4286 4287 4288 4289 4290 4291 4292 4293 4294 4295 4296 4297 4298 4299 4300 4301 4302 4303 4304 4305 4306 4307 4308 4309 4310 4311 4312 4313 4314 4315 4316 4317 4318 4319 4320 4321 4322 4323 4324 4325 4326 4327 4328 4329 4330 4331 4332 4333 4334 4335 4336 4337 4338 4339 4340 4341 4342 4343 4344 4345 4346 4347 4348 4349 4350 4351 4352 4353 4354 4355 4356 4357 4358 4359 4360 4361 4362 4363 4364 4365 4366 4367 4368 4369 4370 4371 4372 4373 4374 4375 4376 4377 4378 4379 4380 4381 4382 4383 4384 4385 4386 4387 4388 4389 4390 4391 4392 4393 4394 4395 4396 4397 4398 4399 4400 4401 4402 4403 4404 4405 4406 4407 4408 4409 4410 4411 4412 4413 4414 4415 4416 4417 4418 4419 4420 4421 4422 4423 4424 4425 4426 4427 4428 4429 4430 4431 4432 4433 4434 4435 4436 4437 4438 4439 4440 4441 4442 4443 4444 4445 4446 4447 4448 4449 4450 4451 4452 4453 4454 4455 4456 4457 4458 4459 4460 4461 4462 4463 4464 4465 4466 4467 4468 4469 4470 4471 4472 4473 4474 4475 4476 4477 4478 4479 4480 4481 4482 4483 4484 4485 4486 4487 4488 4489 4490 4491 4492 4493 4494 4495 4496 4497 4498 4499 4500 4501 4502 4503 4504 4505 4506 4507 4508 4509 4510 4511 4512 4513 4514 4515 4516 4517 4518 4519 4520 4521 4522 4523 4524 4525 4526 4527 4528 4529 4530 4531 4532 4533 4534 4535 4536 4537 4538 4539 4540 4541 4542 4543 4544 4545 4546 4547 4548 4549 4550 4551 4552 4553 4554 4555 4556 4557 4558 4559 4560 4561 4562 4563 4564 4565 4566 4567 4568 4569 4570 4571 4572 4573 4574 4575 4576 4577 4578 4579 4580 4581 4582 4583 4584 4585 4586 4587 4588 4589 4590 4591 4592 4593 4594 4595 4596 4597 4598 4599 4600 4601 4602 4603 4604 4605 4606 4607 4608 4609 4610 4611 4612 4613 4614 4615 4616 4617 4618 4619 4620 4621 4622 4623 4624 4625 4626 4627 4628 4629 4630 4631 4632 4633 4634 4635 4636 4637 4638 4639 4640 4641 4642 4643 4644 4645 4646 4647 4648 4649 4650 4651 4652 4653 4654 4655 4656 4657 4658 4659 4660 4661 4662 4663 4664 4665 4666 4667 4668 4669 4670 4671 4672 4673 4674 4675 4676 4677 4678 4679 4680 4681 4682 4683 4684 4685 4686 4687 4688 4689 4690 4691 4692 4693 4694 4695 4696 4697 4698 4699 4700 4701 4702 4703 4704 4705 4706 4707 4708 4709 4710 4711 4712 4713 4714 4715 4716 4717 4718 4719 4720 4721 4722 4723 4724 4725 4726 4727 4728 4729 4730 4731 4732 4733 4734 4735 4736 4737 4738 4739 4740 4741 4742 4743 4744 4745 4746 4747 4748 4749 4750 4751 4752 4753 4754 4755 4756 4757 4758 4759 4760 4761 4762 4763 4764 4765 4766 4767 4768 4769 4770 4771 4772 4773 4774 4775 4776 4777 4778 4779 4780 4781 4782 4783 4784 4785 4786 4787 4788 4789 4790 4791 4792 4793 4794 4795 4796 4797 4798 4799 4800 4801 4802 4803 4804 4805 4806 4807 4808 4809 4810 4811 4812 4813 4814 4815 4816 4817 4818 4819 4820 4821 4822 4823 4824 4825 4826 4827 4828 4829 4830 4831 4832 4833 4834 4835 4836 4837 4838 4839 4840 4841 4842 4843 4844 4845 4846 4847 4848 4849 4850 4851 4852 4853 4854 4855 4856 4857 4858 4859 4860 4861 4862 4863 4864 4865 4866 4867 4868 4869 4870 4871 4872 4873 4874 4875 4876 4877 4878 4879 4880 4881 4882 4883 4884 4885 4886 4887 4888 4889 4890 4891 4892 4893 4894 4895 4896 4897 4898 4899 4900 4901 4902 4903 4904 4905 4906 4907 4908 4909 4910 4911 4912 4913 4914 4915 4916 4917 4918 4919 4920 4921 4922 4923 4924 4925 4926 4927 4928 4929 4930 4931 4932 4933 4934 4935 4936 4937 4938 4939 4940 4941 4942 4943 4944 4945 4946 4947 4948 4949 4950 4951 4952 4953 4954 4955 4956 4957 4958 4959 4960 4961 4962 4963 4964 4965 4966 4967 4968 4969 4970 4971 4972 4973 4974 4975 4976 4977 4978 4979 4980 4981 4982 4983 4984 4985 4986 4987 4988 4989 4990 4991 4992 4993 4994 4995 4996 4997 4998 4999 5000 5001 5002 5003 5004 5005 5006 5007 5008 5009 5010 5011 5012 5013 5014 5015 5016 5017 5018 5019 5020 5021 5022 5023 5024 5025 5026 5027 5028 5029 5030 5031 5032 5033 5034 5035 5036 5037 5038 5039 5040 5041 5042 5043 5044 5045 5046 5047 5048 5049 5050 5051 5052 5053 5054 5055 5056 5057 5058 5059 5060 5061 5062 5063 5064 5065 5066 5067 5068 5069 5070 5071 5072 5073 5074 5075 5076 5077 5078 5079 5080 5081 5082 5083 5084 5085 5086 5087 5088 5089 5090 5091 5092 5093 5094 5095 5096 5097 5098 5099 5100 5101 5102 5103 5104 5105 5106 5107 5108 5109 5110 5111 5112 5113 5114 5115 5116 5117 5118 5119 5120 5121 5122 5123 5124 5125 5126 5127 5128 5129 5130 5131 5132 5133 5134 5135 5136 5137 5138 5139 5140 5141 5142 5143 5144 5145 5146 5147 5148 5149 5150 5151 5152 5153 5154 5155 5156 5157 5158 5159 5160 5161 5162 5163 5164 5165 5166 5167 5168 5169 5170 5171 5172 5173 5174 5175 5176 5177 5178 5179 5180 5181 5182 5183 5184 5185 5186 5187 5188 5189 5190 5191 5192 5193 5194 5195 5196 5197 5198 5199 5200 5201 5202 5203 5204 5205 5206 5207 5208 5209 5210 5211 5212 5213 5214 5215 5216 5217 5218 5219 5220 5221 5222 5223 5224 5225 5226 5227 5228 5229 5230 5231 5232 5233 5234 5235 5236 5237 5238 5239 5240 5241 5242 5243 5244 5245 5246 5247 5248 5249 5250 5251 5252 5253 5254 5255 5256 5257 5258 5259 5260 5261 5262 5263 5264 5265 5266 5267 5268 5269 5270 5271 5272 5273 5274 5275 5276 5277 5278 5279 5280 5281 5282 5283 5284 5285 5286 5287 5288 5289 5290 5291 5292 5293 5294 5295 5296 5297 5298 5299 5300 5301 5302 5303 5304 5305 5306 5307 5308 5309 5310 5311 5312 5313 5314 5315 5316 5317 5318 5319 5320 5321 5322 5323 5324 5325 5326 5327 5328 5329 5330 5331 5332 5333 5334 5335 5336 5337 5338 5339 5340 5341 5342 5343 5344 5345 5346 5347 5348 5349 5350 5351 5352 5353 5354 5355 5356 5357 5358 5359 5360 5361 5362 5363 5364 5365 5366 5367 5368 5369 5370 5371 5372 5373 5374 5375 5376 5377 5378 5379 5380 5381 5382 5383 5384 5385 5386 5387 5388 5389 5390 5391 5392 5393 5394 5395 5396 5397 5398 5399 5400 5401 5402 5403 5404 5405 5406 5407 5408 5409 5410 5411 5412 5413 5414 5415 5416 5417 5418 5419 5420 5421 5422 5423 5424 5425 5426 5427 5428 5429 5430 5431 5432 5433 5434 5435 5436 5437 5438 5439 5440 5441 5442 5443 5444 5445 5446 5447 5448 5449 5450 5451 5452 5453 5454 5455 5456 5457 5458 5459 5460 5461 5462 5463 5464 5465 5466 5467 5468 5469 5470 5471 5472 5473 5474 5475 5476 5477 5478 5479 5480 5481 5482 5483 5484 5485 5486 5487 5488 5489 5490 5491 5492 5493 5494 5495 5496 5497 5498 5499 5500 5501 5502 5503 5504 5505 5506 5507 5508 5509 5510 5511 5512 5513 5514 5515 5516 5517 5518 5519 5520 5521 5522 5523 5524 5525 5526 5527 5528 5529 5530 5531 5532 5533 5534 5535 5536 5537 5538 5539 5540 5541 5542 5543 5544 5545 5546 5547 5548 5549 5550 5551 5552 5553 5554 5555 5556 5557 5558 5559 5560 5561 5562 5563 5564 5565 5566 5567 5568 5569 5570 5571 5572 5573 5574 5575 5576 5577 5578 5579 5580 5581 5582 5583 5584 5585 5586 5587 5588 5589 5590 5591 5592 5593 5594 5595 5596 5597 5598 5599 5600 5601 5602 5603 5604 5605 5606 5607 5608 5609 5610 5611 5612 5613 5614 5615 5616 5617 5618 5619 5620 5621 5622 5623 5624 5625 5626 5627 5628 5629 5630 5631 5632 5633 5634 5635 5636 5637 5638 5639 5640 5641 5642 5643 5644 5645 5646 5647 5648 5649 5650 5651 5652 5653 5654 5655 5656 5657 5658 5659 5660 5661 5662 5663 5664 5665 5666 5667 5668 5669 5670 5671 5672 5673 5674 5675 5676 5677 5678 5679 5680 5681 5682 5683 5684 5685 5686 5687 5688 5689 5690 5691 5692 5693 5694 5695 5696 5697 5698 5699 5700 5701 5702 5703 5704 5705 5706 5707 5708 5709 5710 5711 5712 5713 5714 5715 5716 5717 5718 5719 5720 5721 5722 5723 5724 5725 5726 5727 5728 5729 5730 5731 5732 5733 5734 5735 5736 5737 5738 5739 5740 5741 5742 5743 5744 5745 5746 5747 5748 5749 5750 5751 5752 5753 5754 5755 5756 5757 5758 5759 5760 5761 5762 5763 5764 5765 5766 5767 5768 5769 5770 5771 5772 5773 5774 5775 5776 5777 5778 5779 5780 5781 5782 5783 5784 5785 5786 5787 5788 5789 5790 5791 5792 5793 5794 5795 5796 5797 5798 5799 5800 5801 5802 5803 5804 5805 5806 5807 5808 5809 5810 5811 5812 5813 5814 5815 5816 5817 5818 5819 5820 5821 5822 5823 5824 5825 5826 5827 5828 5829 5830 5831 5832 5833 5834 5835 5836 5837 5838 5839 5840 5841 5842 5843 5844 5845 5846 5847 5848 5849 5850 5851 5852 5853 5854 5855 5856 5857 5858 5859 5860 5861 5862 5863 5864 5865 5866 5867 5868 5869 5870 5871 5872 5873 5874 5875 5876 5877 5878 5879 5880 5881 5882 5883 5884 5885 5886 5887 5888 5889 5890 5891 5892 5893 5894 5895 5896 5897 5898 5899 5900 5901 5902 5903 5904 5905 5906 5907 5908 5909 5910 5911 5912 5913 5914 5915 5916 5917 5918 5919 5920 5921 5922 5923 5924 5925 5926 5927 5928 5929 5930 5931 5932 5933 5934 5935 5936 5937 5938 5939 5940 5941 5942 5943 5944 5945 5946 5947 5948 5949 5950 5951 5952 5953 5954 5955 5956 5957 5958 5959 5960 5961 5962 5963 5964 5965 5966 5967 5968 5969 5970 5971 5972 5973 5974 5975 5976 5977 5978 5979 5980 5981 5982 5983 5984 5985 5986 5987 5988 5989 5990 5991 5992 5993 5994 5995 5996 5997 5998 5999 6000 6001 6002 6003 6004 6005 6006 6007 6008 6009 6010 6011 6012 6013 6014 6015 6016 6017 6018 6019 6020 6021 6022 6023 6024 6025 6026 6027 6028 6029 6030 6031 6032 6033 6034 6035 6036 6037 6038 6039 6040 6041 6042 6043 6044 6045 6046 6047 6048 6049 6050 6051 6052 6053 6054 6055 6056 6057 6058 6059 6060 6061 6062 6063 6064 6065 6066 6067 6068 6069 6070 6071 6072 6073 6074 6075 6076 6077 6078 6079 6080 6081 6082 6083 6084 6085 6086 6087 6088 6089 6090 6091 6092 6093 6094 6095 6096 6097 6098 6099 6100 6101 6102 6103 6104 6105 6106 6107 6108 6109 6110 6111 6112 6113 6114 6115 6116 6117 6118 6119 6120 6121 6122 6123 6124 6125 6126 6127 6128 6129 6130 6131 6132 6133 6134 6135 6136 6137 6138 6139 6140 6141 6142 6143 6144 6145 6146 6147 6148 6149 6150 6151 6152 6153 6154 6155 6156 6157 6158 6159 6160 6161 6162 6163 6164 6165 6166 6167 6168 6169 6170 6171 6172 6173 6174 6175 6176 6177 6178 6179 6180 6181 6182 6183 6184 6185 6186 6187 6188 6189 6190 6191 6192 6193 6194 6195 6196 6197 6198 6199 6200 6201 6202 6203 6204 6205 6206 6207 6208 6209 6210 6211 6212 6213 6214 6215 6216 6217 6218 6219 6220 6221 6222 6223 6224 6225 6226 6227 6228 6229 6230 6231 6232 6233 6234 6235 6236 6237 6238 6239 6240 6241 6242 6243 6244 6245 6246 6247 6248 6249 6250 6251 6252 6253 6254 6255 6256 6257 6258 6259 6260 6261 6262 6263 6264 6265 6266 6267 6268 6269 6270 6271 6272 6273 6274 6275 6276 6277 6278 6279 6280 6281 6282 6283 6284 6285 6286 6287 6288 6289 6290 6291 6292 6293 6294 6295 6296 6297 6298 6299 6300 6301 6302 6303 6304 6305 6306 6307 6308 6309 6310 6311 6312 6313 6314 6315 6316 6317 6318 6319 6320 6321 6322 6323 6324 6325 6326 6327 6328 6329 6330 6331 6332 6333 6334 6335 6336 6337 6338 6339 6340 6341 6342 6343 6344 6345 6346 6347 6348 6349 6350 6351 6352 6353 6354 6355 6356 6357 6358 6359 6360 6361 6362 6363 6364 6365 6366 6367 6368 6369 6370 6371 6372 6373 6374 6375 6376 6377 6378 6379 6380 6381 6382 6383 6384 6385 6386 6387 6388 6389 6390 6391 6392 6393 6394 6395 6396 6397 6398 6399 6400 6401 6402 6403 6404 6405 6406 6407 6408 6409 6410 6411 6412 6413 6414 6415 6416 6417 6418 6419 6420 6421 6422 6423 6424 6425 6426 6427 6428 6429 6430 6431 6432 6433 6434 6435 6436 6437 6438 6439 6440 6441 6442 6443 6444 6445 6446 6447 6448 6449 6450 6451 6452 6453 6454 6455 6456 6457 6458 6459 6460 6461 6462 6463 6464 6465 6466 6467 6468 6469 6470 6471 6472 6473 6474 6475 6476 6477 6478 6479 6480 6481 6482 6483 6484 6485 6486 6487 6488 6489 6490 6491 6492 6493 6494 6495 6496 6497 6498 6499 6500 6501 6502 6503 6504 6505 6506 6507 6508 6509 6510 6511 6512 6513 6514 6515 6516 6517 6518 6519 6520 6521 6522 6523 6524 6525 6526 6527 6528 6529 6530 6531 6532 6533 6534 6535 6536 6537 6538 6539 6540 6541 6542 6543 6544 6545 6546 6547 6548 6549 6550 6551 6552 6553 6554 6555 6556 6557 6558 6559 6560 6561 6562 6563 6564 6565 6566 6567 6568 6569 6570 6571 6572 6573 6574 6575 6576 6577 6578 6579 6580 6581 6582 6583 6584 6585 6586 6587 6588 6589 6590 6591 6592 6593 6594 6595 6596 6597 6598 6599 6600 6601 6602 6603 6604 6605 6606 6607 6608 6609 6610 6611 6612 6613 6614 6615 6616 6617 6618 6619 6620 6621 6622 6623 6624 6625 6626 6627 6628 6629 6630 6631 6632 6633 6634 6635 6636 6637 6638 6639 6640 6641 6642 6643 6644 6645 6646 6647 6648 6649 6650 6651 6652 6653 6654 6655 6656 6657 6658 6659 6660 6661 6662 6663 6664 6665 6666 6667 6668 6669 6670 6671 6672 6673 6674 6675 6676 6677 6678 6679 6680 6681 6682 6683 6684 6685 6686 6687 6688 6689 6690 6691 6692 6693 6694 6695 6696 6697 6698 6699 6700 6701 6702 6703 6704 6705 6706 6707 6708 6709 6710 6711 6712 6713 6714 6715 6716 6717 6718 6719 6720 6721 6722 6723 6724 6725 6726 6727 6728 6729 6730 6731 6732 6733 6734 6735 6736 6737 6738 6739 6740 6741 6742 6743 6744 6745 6746 6747 6748 6749 6750 6751 6752 6753 6754 6755 6756 6757 6758 6759 6760 6761 6762 6763 6764 6765 6766 6767 6768 6769 6770 6771 6772 6773 6774 6775 6776 6777 6778 6779 6780 6781 6782 6783 6784 6785 6786 6787 6788 6789 6790 6791 6792 6793 6794 6795 6796 6797 6798 6799 6800 6801 6802 6803 6804 6805 6806 6807 6808 6809 6810 6811 6812 6813 6814 6815 6816 6817 6818 6819 6820 6821 6822 6823 6824 6825 6826 6827 6828 6829 6830 6831 6832 6833 6834 6835 6836 6837 6838 6839 6840 6841 6842 6843 6844 6845 6846 6847 6848 6849 6850 6851 6852 6853 6854 6855 6856 6857 6858 6859 6860 6861 6862 6863 6864 6865 6866 6867 6868 6869 6870 6871 6872 6873 6874 6875 6876 6877 6878 6879 6880 6881 6882 6883 6884 6885 6886 6887 6888 6889 6890 6891 6892 6893 6894 6895 6896 6897 6898 6899 6900 6901 6902 6903 6904 6905 6906 6907 6908 6909 6910 6911 6912 6913 6914 6915 6916 6917 6918 6919 6920 6921 6922 6923 6924 6925 6926 6927 6928 6929 6930 6931 6932 6933 6934 6935 6936 6937 6938 6939 6940 6941 6942 6943 6944 6945 6946 6947 6948 6949 6950 6951 6952 6953 6954 6955 6956 6957 6958 6959 6960 6961 6962 6963 6964 6965 6966 6967 6968 6969 6970 6971 6972 6973 6974 6975 6976 6977 6978 6979 6980 6981 6982 6983 6984 6985 6986 6987 6988 6989 6990 6991 6992 6993 6994 6995 6996 6997 6998 6999 7000 7001 7002 7003 7004 7005 7006 7007 7008 7009 7010 7011 7012 7013 7014 7015 7016 7017 7018 7019 7020 7021 7022 7023 7024 7025 7026 7027 7028 7029 7030 7031 7032 7033 7034 7035 7036 7037 7038 7039 7040 7041 7042 7043 7044 7045 7046 7047 7048 7049 7050 7051 7052 7053 7054 7055 7056 7057 7058 7059 7060 7061 7062 7063 7064 7065 7066 7067 7068 7069 7070 7071 7072 7073 7074 7075 7076 7077 7078 7079 7080 7081 7082 7083 7084 7085 7086 7087 7088 7089 7090 7091 7092 7093 7094 7095 7096 7097 7098 7099 7100 7101 7102 7103 7104 7105 7106 7107 7108 7109 7110 7111 7112 7113 7114 7115 7116 7117 7118 7119 7120 7121 7122 7123 7124 7125 7126 7127 7128 7129 7130 7131 7132 7133 7134 7135 7136 7137 7138 7139 7140 7141 7142 7143 7144 7145 7146 7147 7148 7149 7150 7151 7152 7153 7154 7155 7156 7157 7158 7159 7160 7161 7162 7163 7164 7165 7166 7167 7168 7169 7170 7171 7172 7173 7174 7175 7176 7177 7178 7179 7180 7181 7182 7183 7184 7185 7186 7187 7188 7189 7190 7191 7192 7193 7194 7195 7196 7197 7198 7199 7200 7201 7202 7203 7204 7205 7206 7207 7208 7209 7210 7211 7212 7213 7214 7215 7216 7217 7218 7219 7220 7221 7222 7223 7224 7225 7226 7227 7228 7229 7230 7231 7232 7233 7234 7235 7236 7237 7238 7239 7240 7241 7242 7243 7244 7245 7246 7247 7248 7249 7250 7251 7252 7253 7254 7255 7256 7257 7258 7259 7260 7261 7262 7263 7264 7265 7266 7267 7268 7269 7270 7271 7272 7273 7274 7275 7276 7277 7278 7279 7280 7281 7282 7283 7284 7285 7286 7287 7288 7289 7290 7291 7292 7293 7294 7295 7296 7297 7298 7299 7300 7301 7302 7303 7304 7305 7306 7307 7308 7309 7310 7311 7312 7313 7314 7315 7316 7317 7318 7319 7320 7321 7322 7323 7324 7325 7326 7327 7328 7329 7330 7331 7332 7333 7334 7335 7336 7337 7338 7339 7340 7341 7342 7343 7344 7345 7346 7347 7348 7349 7350 7351 7352 7353 7354 7355 7356 7357 7358 7359 7360 7361 7362 7363 7364 7365 7366 7367 7368 7369 7370 7371 7372 7373 7374 7375 7376 7377 7378 7379 7380 7381 7382 7383 7384 7385 7386 7387 7388 7389 7390 7391 7392 7393 7394 7395 7396 7397 7398 7399 7400 7401 7402 7403 7404 7405 7406 7407 7408 7409 7410 7411 7412 7413 7414 7415 7416 7417 7418 7419 7420 7421 7422 7423 7424 7425 7426 7427 7428 7429 7430 7431 7432 7433 7434 7435 7436 7437 7438 7439 7440 7441 7442 7443 7444 7445 7446 7447 7448 7449 7450 7451 7452 7453 7454 7455 7456 7457 7458 7459 7460 7461 7462 7463 7464 7465 7466 7467 7468 7469 7470 7471 7472 7473 7474 7475 7476 7477 7478 7479 7480 7481 7482 7483 7484 7485 7486 7487 7488 7489 7490 7491 7492 7493 7494 7495 7496 7497 7498 7499 7500 7501 7502 7503 7504 7505 7506 7507 7508 7509 7510 7511 7512 7513 7514 7515 7516 7517 7518 7519 7520 7521 7522 7523 7524 7525 7526 7527 7528 7529 7530 7531 7532 7533 7534 7535 7536 7537 7538 7539 7540 7541 7542 7543 7544 7545 7546 7547 7548 7549 7550 7551 7552 7553 7554 7555 7556 7557 7558 7559 7560 7561 7562 7563 7564 7565 7566 7567 7568 7569 7570 7571 7572 7573 7574 7575 7576 7577 7578 7579 7580 7581 7582 7583 7584 7585 7586 7587 7588 7589 7590 7591 7592 7593 7594 7595 7596 7597 7598 7599 7600 7601 7602 7603 7604 7605 7606 7607 7608 7609 7610 7611 7612 7613 7614 7615 7616 7617 7618 7619 7620 7621 7622 7623 7624 7625 7626 7627 7628 7629 7630 7631 7632 7633 7634 7635 7636 7637 7638 7639 7640 7641 7642 7643 7644 7645 7646 7647 7648 7649 7650 7651 7652 7653 7654 7655 7656 7657 7658 7659 7660 7661 7662 7663 7664 7665 7666 7667 7668 7669 7670 7671 7672 7673 7674 7675 7676 7677 7678 7679 7680 7681 7682 7683 7684 7685 7686 7687 7688 7689 7690 7691 7692 7693 7694 7695 7696 7697 7698 7699 7700 7701 7702 7703 7704 7705 7706 7707 7708 7709 7710 7711 7712 7713 7714 7715 7716 7717 7718 7719 7720 7721 7722 7723 7724 7725 7726 7727 7728 7729 7730 7731 7732 7733 7734 7735 7736 7737 7738 7739 7740 7741 7742 7743 7744 7745 7746 7747 7748 7749 7750 7751 7752 7753 7754 7755 7756 7757 7758 7759 7760 7761 7762 7763 7764 7765 7766 7767 7768 7769 7770 7771 7772 7773 7774 7775 7776 7777 7778 7779 7780 7781 7782 7783 7784 7785 7786 7787 7788 7789 7790 7791 7792 7793 7794 7795 7796 7797 7798 7799 7800 7801 7802 7803 7804 7805 7806 7807 7808 7809 7810 7811 7812 7813 7814 7815 7816 7817 7818 7819 7820 7821 7822 7823 7824 7825 7826 7827 7828 7829 7830 7831 7832 7833 7834 7835 7836 7837 7838 7839 7840 7841 7842 7843 7844 7845 7846 7847 7848 7849 7850 7851 7852 7853 7854 7855 7856 7857 7858 7859 7860 7861 7862 7863 7864 7865 7866 7867 7868 7869 7870 7871 7872 7873 7874 7875 7876 7877 7878 7879 7880 7881 7882 7883 7884 7885 7886 7887 7888 7889 7890 7891 7892 7893 7894 7895 7896 7897 7898 7899 7900 7901 7902 7903 7904 7905 7906 7907 7908 7909 7910 7911 7912 7913 7914 7915 7916 7917 7918 7919 7920 7921 7922 7923 7924 7925 7926 7927 7928 7929 7930 7931 7932 7933 7934 7935 7936 7937 7938 7939 7940 7941 7942 7943 7944 7945 7946 7947 7948 7949 7950 7951 7952 7953 7954 7955 7956 7957 7958 7959 7960 7961 7962 7963 7964 7965 7966 7967 7968 7969 7970 7971 7972 7973 7974 7975 7976 7977 7978 7979 7980 7981 7982 7983 7984 7985 7986 7987 7988 7989 7990 7991 7992 7993 7994 7995 7996 7997 7998 7999 8000 8001 8002 8003 8004 8005 8006 8007 8008 8009 8010 8011 8012 8013 8014 8015 8016 8017 8018 8019 8020 8021 8022 8023 8024 8025 8026 8027 8028 8029 8030 8031 8032 8033 8034 8035 8036 8037 8038 8039 8040 8041 8042 8043 8044 8045 8046 8047 8048 8049 8050 8051 8052 8053 8054 8055 8056 8057 8058 8059 8060 8061 8062 8063 8064 8065 8066 8067 8068 8069 8070 8071 8072 8073 8074 8075 8076 8077 8078 8079 8080 8081 8082 8083 8084 8085 8086 8087 8088 8089 8090 8091 8092 8093 8094 8095 8096 8097 8098 8099 8100 8101 8102 8103 8104 8105 8106 8107 8108 8109 8110 8111 8112 8113 8114 8115 8116 8117 8118 8119 8120 8121 8122 8123 8124 8125 8126 8127 8128 8129 8130 8131 8132 8133 8134 8135 8136 8137 8138 8139 8140 8141 8142 8143 8144 8145 8146 8147 8148 8149 8150 8151 8152 8153 8154 8155 8156 8157 8158 8159 8160 8161 8162 8163 8164 8165 8166 8167 8168 8169 8170 8171 8172 8173 8174 8175 8176 8177 8178 8179 8180 8181 8182 8183 8184 8185 8186 8187 8188 8189 8190 8191 8192 8193 8194 8195 8196 8197 8198 8199 8200 8201 8202 8203 8204 8205 8206 8207 8208 8209 8210 8211 8212 8213 8214 8215 8216 8217 8218 8219 8220 8221 8222 8223 8224 8225 8226 8227 8228 8229 8230 8231 8232 8233 8234 8235 8236 8237 8238 8239 8240 8241 8242 8243 8244 8245 8246 8247 8248 8249 8250 8251 8252 8253 8254 8255 8256 8257 8258 8259 8260 8261 8262 8263 8264 8265 8266 8267 8268 8269 8270 8271 8272 8273 8274 8275 8276 8277 8278 8279 8280 8281 8282 8283 8284 8285 8286 8287 8288 8289 8290 8291 8292 8293 8294 8295 8296 8297 8298 8299 8300 8301 8302 8303 8304 8305 8306 8307 8308 8309 8310 8311 8312 8313 8314 8315 8316 8317 8318 8319 8320 8321 8322 8323 8324 8325 8326 8327 8328 8329 8330 8331 8332 8333 8334 8335 8336 8337 8338 8339 8340 8341 8342 8343 8344 8345 8346 8347 8348 8349 8350 8351 8352 8353 8354 8355 8356 8357 8358 8359 8360 8361 8362 8363 8364 8365 8366 8367 8368 8369 8370 8371 8372 8373 8374 8375 8376 8377 8378 8379 8380 8381 8382 8383 8384 8385 8386 8387 8388 8389 8390 8391 8392 8393 8394 8395 8396 8397 8398 8399 8400 8401 8402 8403 8404 8405 8406 8407 8408 8409 8410 8411 8412 8413 8414 8415 8416 8417 8418 8419 8420 8421 8422 8423 8424 8425 8426 8427 8428 8429 8430 8431 8432 8433 8434 8435 8436 8437 8438 8439 8440 8441 8442 8443 8444 8445 8446 8447 8448 8449 8450 8451 8452 8453 8454 8455 8456 8457 8458 8459 8460 8461 8462 8463 8464 8465 8466 8467 8468 8469 8470 8471 8472 8473 8474 8475 8476 8477 8478 8479 8480 8481 8482 8483 8484 8485 8486 8487 8488 8489 8490 8491 8492 8493 8494 8495 8496 8497 8498 8499 8500 8501 8502 8503 8504 8505 8506 8507 8508 8509 8510 8511 8512 8513 8514 8515 8516 8517 8518 8519 8520 8521 8522 8523 8524 8525 8526 8527 8528 8529 8530 8531 8532 8533 8534 8535 8536 8537 8538 8539 8540 8541 8542 8543 8544 8545 8546 8547 8548 8549 8550 8551 8552 8553 8554 8555 8556 8557 8558 8559 8560 8561 8562 8563 8564 8565 8566 8567 8568 8569 8570 8571 8572 8573 8574 8575 8576 8577 8578 8579 8580 8581 8582 8583 8584 8585 8586 8587 8588 8589 8590 8591 8592 8593 8594 8595 8596 8597 8598 8599 8600 8601 8602 8603 8604 8605 8606 8607 8608 8609 8610 8611 8612 8613 8614 8615 8616 8617 8618 8619 8620 8621 8622 8623 8624 8625 8626 8627 8628 8629 8630 8631 8632 8633 8634 8635 8636 8637 8638 8639 8640 8641 8642 8643 8644 8645 8646 8647 8648 8649 8650 8651 8652 8653 8654 8655 8656 8657 8658 8659 8660 8661 8662 8663 8664 8665 8666 8667 8668 8669 8670 8671 8672 8673 8674 8675 8676 8677 8678 8679 8680 8681 8682 8683 8684 8685 8686 8687 8688 8689 8690 8691 8692 8693 8694 8695 8696 8697 8698 8699 8700 8701 8702 8703 8704 8705 8706 8707 8708 8709 8710 8711 8712 8713 8714 8715 8716 8717 8718 8719 8720 8721 8722 8723 8724 8725 8726 8727 8728 8729 8730 8731 8732 8733 8734 8735 8736 8737 8738 8739 8740 8741 8742 8743 8744 8745 8746 8747 8748 8749 8750 8751 8752 8753 8754 8755 8756 8757 8758 8759 8760 8761 8762 8763 8764 8765 8766 8767 8768 8769 8770 8771 8772 8773 8774 8775 8776 8777 8778 8779 8780 8781 8782 8783 8784 8785 8786 8787 8788 8789 8790 8791 8792 8793 8794 8795 8796 8797 8798 8799 8800 8801 8802 8803 8804 8805 8806 8807 8808 8809 8810 8811 8812 8813 8814 8815 8816 8817 8818 8819 8820 8821 8822 8823 8824 8825 8826 8827 8828 8829 8830 8831 8832 8833 8834 8835 8836 8837 8838 8839 8840 8841 8842 8843 8844 8845 8846 8847 8848 8849 8850 8851 8852 8853 8854 8855 8856 8857 8858 8859 8860 8861 8862 8863 8864 8865 8866 8867 8868 8869 8870 8871 8872 8873 8874 8875 8876 8877 8878 8879 8880 8881 8882 8883 8884 8885 8886 8887 8888 8889 8890 8891 8892 8893 8894 8895 8896 8897 8898 8899 8900 8901 8902 8903 8904 8905 8906 8907 8908 8909 8910 8911 8912 8913 8914 8915 8916 8917 8918 8919 8920 8921 8922 8923 8924 8925 8926 8927 8928 8929 8930 8931 8932 8933 8934 8935 8936 8937 8938 8939 8940 8941 8942 8943 8944 8945 8946 8947 8948 8949 8950 8951 8952 8953 8954 8955 8956 8957 8958 8959 8960 8961 8962 8963 8964 8965 8966 8967 8968 8969 8970 8971 8972 8973 8974 8975 8976 8977 8978 8979 8980 8981 8982 8983 8984 8985 8986 8987 8988 8989 8990 8991 8992 8993 8994 8995 8996 8997 8998 8999 9000 9001 9002 9003 9004 9005 9006 9007 9008 9009 9010 9011 9012 9013 9014 9015 9016 9017 9018 9019 9020 9021 9022 9023 9024 9025 9026 9027 9028 9029 9030 9031 9032 9033 9034 9035 9036 9037 9038 9039 9040 9041 9042 9043 9044 9045 9046 9047 9048 9049 9050 9051 9052 9053 9054 9055 9056 9057 9058 9059 9060 9061 9062 9063 9064 9065 9066 9067 9068 9069 9070 9071 9072 9073 9074 9075 9076 9077 9078 9079 9080 9081 9082 9083 9084 9085 9086 9087 9088 9089 9090 9091 9092 9093 9094 9095 9096 9097 9098 9099 9100 9101 9102 9103 9104 9105 9106 9107 9108 9109 9110 9111 9112 9113 9114 9115 9116 9117 9118 9119 9120 9121 9122 9123 9124 9125 9126 9127 9128 9129 9130 9131 9132 9133 9134 9135 9136 9137 9138 9139 9140 9141 9142 9143 9144 9145 9146 9147 9148 9149 9150 9151 9152 9153 9154 9155 9156 9157 9158 9159 9160 9161 9162 9163 9164 9165 9166 9167 9168 9169 9170 9171 9172 9173 9174 9175 9176 9177 9178 9179 9180 9181 9182 9183 9184 9185 9186 9187 9188 9189 9190 9191 9192 9193 9194 9195 9196 9197 9198 9199 9200 9201 9202 9203 9204 9205 9206 9207 9208 9209 9210 9211 9212 9213 9214 9215 9216 9217 9218 9219 9220 9221 9222 9223 9224 9225 9226 9227 9228 9229 9230 9231 9232 9233 9234 9235 9236 9237 9238 9239 9240 9241 9242 9243 9244 9245 9246 9247 9248 9249 9250 9251 9252 9253 9254 9255 9256 9257 9258 9259 9260 9261 9262 9263 9264 9265 9266 9267 9268 9269 9270 9271 9272 9273 9274 9275 9276 9277 9278 9279 9280 9281 9282 9283 9284 9285 9286 9287 9288 9289 9290 9291 9292 9293 9294 9295 9296 9297 9298 9299 9300 9301 9302 9303 9304 9305 9306 9307 9308 9309 9310 9311 9312 9313 9314 9315 9316 9317 9318 9319 9320 9321 9322 9323 9324 9325 9326 9327 9328 9329 9330 9331 9332 9333 9334 9335 9336 9337 9338 9339 9340 9341 9342 9343 9344 9345 9346 9347 9348 9349 9350 9351 9352 9353 9354 9355 9356 9357 9358 9359 9360 9361 9362 9363 9364 9365 9366 9367 9368 9369 9370 9371 9372 9373 9374 9375 9376 9377 9378 9379 9380 9381 9382 9383 9384 9385 9386 9387 9388 9389 9390 9391 9392 9393 9394 9395 9396 9397 9398 9399 9400 9401 9402 9403 9404 9405 9406 9407 9408 9409 9410 9411 9412 9413 9414 9415 9416 9417 9418 9419 9420 9421 9422 9423 9424 9425 9426 9427 9428 9429 9430 9431 9432 9433 9434 9435 9436 9437 9438 9439 9440 9441 9442 9443 9444 9445 9446 9447 9448 9449 9450 9451 9452 9453 9454 9455 9456 9457 9458 9459 9460 9461 9462 9463 9464 9465 9466 9467 9468 9469 9470 9471 9472 9473 9474 9475 9476 9477 9478 9479 9480 9481 9482 9483 9484 9485 9486 9487 9488 9489 9490 9491 9492 9493 9494 9495 9496 9497 9498 9499 9500 9501 9502 9503 9504 9505 9506 9507 9508 9509 9510 9511 9512 9513 9514 9515 9516 9517 9518 9519 9520 9521 9522 9523 9524 9525 9526 9527 9528 9529 9530 9531 9532 9533 9534 9535 9536 9537 9538 9539 9540 9541 9542 9543 9544 9545 9546 9547 9548 9549 9550 9551 9552 9553 9554 9555 9556 9557 9558 9559 9560 9561 9562 9563 9564 9565 9566 9567 9568 9569 9570 9571 9572 9573 9574 9575 9576 9577 9578 9579 9580 9581 9582 9583 9584 9585 9586 9587 9588 9589 9590 9591 9592 9593 9594 9595 9596 9597 9598 9599 9600 9601 9602 9603 9604 9605 9606 9607 9608 9609 9610 9611 9612 9613 9614 9615 9616 9617 9618 9619 9620 9621 9622 9623 9624 9625 9626 9627 9628 9629 9630 9631 9632 9633 9634 9635 9636 9637 9638 9639 9640 9641 9642 9643 9644 9645 9646 9647 9648 9649 9650 9651 9652 9653 9654 9655 9656 9657 9658 9659 9660 9661 9662 9663 9664 9665 9666 9667 9668 9669 9670 9671 9672 9673 9674 9675 9676 9677 9678 9679 9680 9681 9682 9683 9684 9685 9686 9687 9688 9689 9690 9691 9692 9693 9694 9695 9696 9697 9698 9699 9700 9701 9702 9703 9704 9705 9706 9707 9708 9709 9710 9711 9712 9713 9714 9715 9716 9717 9718 9719 9720 9721 9722 9723 9724 9725 9726 9727 9728 9729 9730 9731 9732 9733 9734 9735 9736 9737 9738 9739 9740 9741 9742 9743 9744 9745 9746 9747 9748 9749 9750 9751 9752 9753 9754 9755 9756 9757 9758 9759 9760 9761 9762 9763 9764 9765 9766 9767 9768 9769 9770 9771 9772 9773 9774 9775 9776 9777 9778 9779 9780 9781 9782 9783 9784 9785 9786 9787 9788 9789 9790 9791 9792 9793 9794 9795 9796 9797 9798 9799 9800 9801 9802 9803 9804 9805 9806 9807 9808 9809 9810 9811 9812 9813 9814 9815 9816 9817 9818 9819 9820 9821 9822 9823 9824 9825 9826 9827 9828 9829 9830 9831 9832 9833 9834 9835 9836 9837 9838 9839 9840 9841 9842 9843 9844 9845 9846 9847 9848 9849 9850 9851 9852 9853 9854 9855 9856 9857 9858 9859 9860 9861 9862 9863 9864 9865 9866 9867 9868 9869 9870 9871 9872 9873 9874 9875 9876 9877 9878 9879 9880 9881 9882 9883 9884 9885 9886 9887 9888 9889 9890 9891 9892 9893 9894 9895 9896 9897 9898 9899 9900 9901 9902 9903 9904 9905 9906 9907 9908 9909 9910 9911 9912 9913 9914 9915 9916 9917 9918 9919 9920 9921 9922 9923 9924 9925 9926 9927 9928 9929 9930 9931 9932 9933 9934 9935 9936 9937 9938 9939 9940 9941 9942 9943 9944 9945 9946 9947 9948 9949 9950 9951 9952 9953 9954 9955 9956 9957 9958 9959 9960 9961 9962 9963 9964 9965 9966 9967 9968 9969 9970 9971 9972 9973 9974 9975 9976 9977 9978 9979 9980 9981 9982 9983 9984 9985 9986 9987 9988 9989 9990 9991 9992 9993 9994 9995 9996 9997 9998 9999 10000 10001 10002 10003 10004 10005 10006 10007 10008 10009 10010 10011 10012 10013 10014 10015 10016 10017 10018 10019 10020 10021 10022 10023 10024 10025 10026 10027 10028 10029 10030 10031 10032 10033 10034 10035 10036 10037 10038 10039 10040 10041 10042 10043 10044 10045 10046 10047 10048 10049 10050 10051 10052 10053 10054 10055 10056 10057 10058 10059 10060 10061 10062 10063 10064 10065 10066 10067 10068 10069 10070 10071 10072 10073 10074 10075 10076 10077 10078 10079 10080 10081 10082 10083 10084 10085 10086 10087 10088 10089 10090 10091 10092 10093 10094 10095 10096 10097 10098 10099 10100 10101 10102 10103 10104 10105 10106 10107 10108 10109 10110 10111 10112 10113 10114 10115 10116 10117 10118 10119 10120 10121 10122 10123 10124 10125 10126 10127 10128 10129 10130 10131 10132 10133 10134 10135 10136 10137 10138 10139 10140 10141 10142 10143 10144 10145 10146 10147 10148 10149 10150 10151 10152 10153 10154 10155 10156 10157 10158 10159 10160 10161 10162 10163 10164 10165 10166 10167 10168 10169 10170 10171 10172 10173 10174 10175 10176 10177 10178 10179 10180 10181 10182 10183 10184 10185 10186 10187 10188 10189 10190 10191 10192 10193 10194 10195 10196 10197 10198 10199 10200 10201 10202 10203 10204 10205 10206 10207 10208 10209 10210 10211 10212 10213 10214 10215 10216 10217 10218 10219 10220 10221 10222 10223 10224 10225 10226 10227 10228 10229 10230 10231 10232 10233 10234 10235 10236 10237 10238 10239 10240 10241 10242 10243 10244 10245 10246 10247 10248 10249 10250 10251 10252 10253 10254 10255 10256 10257 10258 10259 10260 10261 10262 10263 10264 10265 10266 10267 10268 10269 10270 10271 10272 10273 10274 10275 10276 10277 10278 10279 10280 10281 10282 10283 10284 10285 10286 10287 10288 10289 10290 10291 10292 10293 10294 10295 10296 10297 10298 10299 10300 10301 10302 10303 10304 10305 10306 10307 10308 10309 10310 10311 10312 10313 10314 10315 10316 10317 10318 10319 10320 10321 10322 10323 10324 10325 10326 10327 10328 10329 10330 10331 10332 10333 10334 10335 10336 10337 10338 10339 10340 10341 10342 10343 10344 10345 10346 10347 10348 10349 10350 10351 10352 10353 10354 10355 10356 10357 10358 10359 10360 10361 10362 10363 10364 10365 10366 10367 10368 10369 10370 10371 10372 10373 10374 10375 10376 10377 10378 10379 10380 10381 10382 10383 10384 10385 10386 10387 10388 10389 10390 10391 10392 10393 10394 10395 10396 10397 10398 10399 10400 10401 10402 10403 10404 10405 10406 10407 10408 10409 10410 10411 10412 10413 10414 10415 10416 10417 10418 10419 10420 10421 10422 10423 10424 10425 10426 10427 10428 10429 10430 10431 10432 10433 10434 10435 10436 10437 10438 10439 10440 10441 10442 10443 10444 10445 10446 10447 10448 10449 10450 10451 10452 10453 10454 10455 10456 10457 10458 10459 10460 10461 10462 10463 10464 10465 10466 10467 10468 10469 10470 10471 10472 10473 10474 10475 10476 10477 10478 10479 10480 10481 10482 10483 10484 10485 10486 10487 10488 10489 10490 10491 10492 10493 10494 10495 10496 10497 10498 10499 10500 10501 10502 10503 10504 10505 10506 10507 10508 10509 10510 10511 10512 10513 10514 10515 10516 10517 10518 10519 10520 10521 10522 10523 10524 10525 10526 10527 10528 10529 10530 10531 10532 10533 10534 10535 10536 10537 10538 10539 10540 10541 10542 10543 10544 10545 10546 10547 10548 10549 10550 10551 10552 10553 10554 10555 10556 10557 10558 10559 10560 10561 10562 10563 10564 10565 10566 10567 10568 10569 10570 10571 10572 10573 10574 10575 10576 10577 10578 10579 10580 10581 10582 10583 10584 10585 10586 10587 10588 10589 10590 10591 10592 10593 10594 10595 10596 10597 10598 10599 10600 10601 10602 10603 10604 10605 10606 10607 10608 10609 10610 10611 10612 10613 10614 10615 10616 10617 10618 10619 10620 10621 10622 10623 10624 10625 10626 10627 10628 10629 10630 10631 10632 10633 10634 10635 10636 10637 10638 10639 10640 10641 10642 10643 10644 10645 10646 10647 10648 10649 10650 10651 10652 10653 10654 10655 10656 10657 10658 10659 10660 10661 10662 10663 10664 10665 10666 10667 10668 10669 10670 10671 10672 10673 10674 10675 10676 10677 10678 10679 10680 10681 10682 10683 10684 10685 10686 10687 10688 10689 10690 10691 10692 10693 10694 10695 10696 10697 10698 10699 10700 10701 10702 10703 10704 10705 10706 10707 10708 10709 10710 10711 10712 10713 10714 10715 10716 10717 10718 10719 10720 10721 10722 10723 10724 10725 10726 10727 10728 10729 10730 10731 10732 10733 10734 10735 10736 10737 10738 10739 10740 10741 10742 10743 10744 10745 10746 10747 10748 10749 10750 10751 10752 10753 10754 10755 10756 10757 10758 10759 10760 10761 10762 10763 10764 10765 10766 10767 10768 10769 10770 10771 10772 10773 10774 10775 10776 10777 10778 10779 10780 10781 10782 10783 10784 10785 10786 10787 10788 10789 10790 10791 10792 10793 10794 10795 10796 10797 10798 10799 10800 10801 10802 10803 10804 10805 10806 10807 10808 10809 10810 10811 10812 10813 10814 10815 10816 10817 10818 10819 10820 10821 10822 10823 10824 10825 10826 10827 10828 10829 10830 10831 10832 10833 10834 10835 10836 10837 10838 10839 10840 10841 10842 10843 10844 10845 10846 10847 10848 10849 10850 10851 10852 10853 10854 10855 10856 10857 10858 10859 10860 10861 10862 10863 10864 10865 10866 10867 10868 10869 10870 10871 10872 10873 10874 10875 10876 10877 10878 10879 10880 10881 10882 10883 10884 10885 10886 10887 10888 10889 10890 10891 10892 10893 10894 10895 10896 10897 10898 10899 10900 10901 10902 10903 10904 10905 10906 10907 10908 10909 10910 10911 10912 10913 10914 10915 10916 10917 10918 10919 10920 10921 10922 10923 10924 10925 10926 10927 10928 10929 10930 10931 10932 10933 10934 10935 10936 10937 10938 10939 10940 10941 10942 10943 10944 10945 10946 10947 10948 10949 10950 10951 10952 10953 10954 10955 10956 10957 10958 10959 10960 10961 10962 10963 10964 10965 10966 10967 10968 10969 10970 10971 10972 10973 10974 10975 10976 10977 10978 10979 10980 10981 10982 10983 10984 10985 10986 10987 10988 10989 10990 10991 10992 10993 10994 10995 10996 10997 10998 10999 11000 11001 11002 11003 11004 11005 11006 11007 11008 11009 11010 11011 11012 11013 11014 11015 11016 11017 11018 11019 11020 11021 11022 11023 11024 11025 11026 11027 11028 11029 11030 11031 11032 11033 11034 11035 11036 11037 11038 11039 11040 11041 11042 11043 11044 11045 11046 11047 11048 11049 11050 11051 11052 11053 11054 11055 11056 11057 11058 11059 11060 11061 11062 11063 11064 11065 11066 11067 11068 11069 11070 11071 11072 11073 11074 11075 11076 11077 11078 11079 11080 11081 11082 11083 11084 11085 11086 11087 11088 11089 11090 11091 11092 11093 11094 11095 11096 11097 11098 11099 11100 11101 11102 11103 11104 11105 11106 11107 11108 11109 11110 11111 11112 11113 11114 11115 11116 11117 11118 11119 11120 11121 11122 11123 11124 11125 11126 11127 11128 11129 11130 11131 11132 11133 11134 11135 11136 11137 11138 11139 11140 11141 11142 11143 11144 11145 11146 11147 11148 11149 11150 11151 11152 11153 11154 11155 11156 11157 11158 11159 11160 11161 11162 11163 11164 11165 11166 11167 11168 11169 11170 11171 11172 11173 11174 11175 11176 11177 11178 11179 11180 11181 11182 11183 11184 11185 11186 11187 11188 11189 11190 11191 11192 11193 11194 11195 11196 11197 11198 11199 11200 11201 11202 11203 11204 11205 11206 11207 11208 11209 11210 11211 11212 11213 11214 11215 11216 11217 11218 11219 11220 11221 11222 11223 11224 11225 11226 11227 11228 11229 11230 11231 11232 11233 11234 11235 11236 11237 11238 11239 11240 11241 11242 11243 11244 11245 11246 11247 11248 11249 11250 11251 11252 11253 11254 11255 11256 11257 11258 11259 11260 11261 11262 11263 11264 11265 11266 11267 11268 11269 11270 11271 11272 11273 11274 11275 11276 11277 11278 11279 11280 11281 11282 11283 11284 11285 11286 11287 11288 11289 11290 11291 11292 11293 11294 11295 11296 11297 11298 11299 11300 11301 11302 11303 11304 11305 11306 11307 11308 11309 11310 11311 11312 11313 11314 11315 11316 11317 11318 11319 11320 11321 11322 11323 11324 11325 11326 11327 11328 11329 11330 11331 11332 11333 11334 11335 11336 11337 11338 11339 11340 11341 11342 11343 11344 11345 11346 11347 11348 11349 11350 11351 11352 11353 11354 11355 11356 11357 11358 11359 11360 11361 11362 11363 11364 11365 11366 11367 11368 11369 11370 11371 11372 11373 11374 11375 11376 11377 11378 11379 11380 11381 11382 11383 11384 11385 11386 11387 11388 11389 11390 11391 11392 11393 11394 11395 11396 11397 11398 11399 11400 11401 11402 11403 11404 11405 11406 11407 11408 11409 11410 11411 11412 11413 11414 11415 11416 11417 11418 11419 11420 11421 11422 11423 11424 11425 11426 11427 11428 11429 11430 11431 11432 11433 11434 11435 11436 11437 11438 11439 11440 11441 11442 11443 11444 11445 11446 11447 11448 11449 11450 11451 11452 11453 11454 11455 11456 11457 11458 11459 11460 11461 11462 11463 11464 11465 11466 11467 11468 11469 11470 11471 11472 11473 11474 11475 11476 11477 11478 11479 11480 11481 11482 11483 11484 11485 11486 11487 11488 11489 11490 11491 11492 11493 11494 11495 11496 11497 11498 11499 11500 11501 11502 11503 11504 11505 11506 11507 11508 11509 11510 11511 11512 11513 11514 11515 11516 11517 11518 11519 11520 11521 11522 11523 11524 11525 11526 11527 11528 11529 11530 11531 11532 11533 11534 11535 11536 11537 11538 11539 11540 11541 11542 11543 11544 11545 11546 11547 11548 11549 11550 11551 11552 11553 11554 11555 11556 11557 11558 11559 11560 11561 11562 11563 11564 11565 11566 11567 11568 11569 11570 11571 11572 11573 11574 11575 11576 11577 11578 11579 11580 11581 11582 11583 11584 11585 11586 11587 11588 11589 11590 11591 11592 11593 11594 11595 11596 11597 11598 11599 11600 11601 11602 11603 11604 11605 11606 11607 11608 11609 11610 11611 11612 11613 11614 11615 11616 11617 11618 11619 11620 11621 11622 11623 11624 11625 11626 11627 11628 11629 11630 11631 11632 11633 11634 11635 11636 11637 11638 11639 11640 11641 11642 11643 11644 11645 11646 11647 11648 11649 11650 11651 11652 11653 11654 11655 11656 11657 11658 11659 11660 11661 11662 11663 11664 11665 11666 11667 11668 11669 11670 11671 11672 11673 11674 11675 11676 11677 11678 11679 11680 11681 11682 11683 11684 11685 11686 11687 11688 11689 11690 11691 11692 11693 11694 11695 11696 11697 11698 11699 11700 11701 11702 11703 11704 11705 11706 11707 11708 11709 11710 11711 11712 11713 11714 11715 11716 11717 11718 11719 11720 11721 11722 11723 11724 11725 11726 11727 11728 11729 11730 11731 11732 11733 11734 11735 11736 11737 11738 11739 11740 11741 11742 11743 11744 11745 11746 11747 11748 11749 11750 11751 11752 11753 11754 11755 11756 11757 11758 11759 11760 11761 11762 11763 11764 11765 11766 11767 11768 11769 11770 11771 11772 11773 11774 11775 11776 11777 11778 11779 11780 11781 11782 11783 11784 11785 11786 11787 11788 11789 11790 11791 11792 11793 11794 11795 11796 11797 11798 11799 11800 11801 11802 11803 11804 11805 11806 11807 11808 11809 11810 11811 11812 11813 11814 11815 11816 11817 11818 11819 11820 11821 11822 11823 11824 11825 11826 11827 11828 11829 11830 11831 11832 11833 11834 11835 11836 11837 11838 11839 11840 11841 11842 11843 11844 11845 11846 11847 11848 11849 11850 11851 11852 11853 11854 11855 11856 11857 11858 11859 11860 11861 11862 11863 11864 11865 11866 11867 11868 11869 11870 11871 11872 11873 11874 11875 11876 11877 11878 11879 11880 11881 11882 11883 11884 11885 11886 11887 11888 11889 11890 11891 11892 11893 11894 11895 11896 11897 11898 11899 11900 11901 11902 11903 11904 11905 11906 11907 11908 11909 11910 11911 11912 11913 11914 11915 11916 11917 11918 11919 11920 11921 11922 11923 11924 11925 11926 11927 11928 11929 11930 11931 11932 11933 11934 11935 11936 11937 11938 11939 11940 11941 11942 11943 11944 11945 11946 11947 11948 11949 11950 11951 11952 11953 11954 11955 11956 11957 11958 11959 11960 11961 11962 11963 11964 11965 11966 11967 11968 11969 11970 11971 11972 11973 11974 11975 11976 11977 11978 11979 11980 11981 11982 11983 11984 11985 11986 11987 11988 11989 11990 11991 11992 11993 11994 11995 11996 11997 11998 11999 12000 12001 12002 12003 12004 12005 12006 12007 12008 12009 12010 12011 12012 12013 12014 12015 12016 12017 12018 12019 12020 12021 12022 12023 12024 12025 12026 12027 12028 12029 12030 12031 12032 12033 12034 12035 12036 12037 12038 12039 12040 12041 12042 12043 12044 12045 12046 12047 12048 12049 12050 12051 12052 12053 12054 12055 12056 12057 12058 12059 12060 12061 12062 12063 12064 12065 12066 12067 12068 12069 12070 12071 12072 12073 12074 12075 12076 12077 12078 12079 12080 12081 12082 12083 12084 12085 12086 12087 12088 12089 12090 12091 12092 12093 12094 12095 12096 12097 12098 12099 12100 12101 12102 12103 12104 12105 12106 12107 12108 12109 12110 12111 12112 12113 12114 12115 12116 12117 12118 12119 12120 12121 12122 12123 12124 12125 12126 12127 12128 12129 12130 12131 12132 12133 12134 12135 12136 12137 12138 12139 12140 12141 12142 12143 12144 12145 12146 12147 12148 12149 12150 12151 12152 12153 12154 12155 12156 12157 12158 12159 12160 12161 12162 12163 12164 12165 12166 12167 12168 12169 12170 12171 12172 12173 12174 12175 12176 12177 12178 12179 12180 12181 12182 12183 12184 12185 12186 12187 12188 12189 12190 12191 12192 12193 12194 12195 12196 12197 12198 12199 12200 12201 12202 12203 12204 12205 12206 12207 12208 12209 12210 12211 12212 12213 12214 12215 12216 12217 12218 12219 12220 12221 12222 12223 12224 12225 12226 12227 12228 12229 12230 12231 12232 12233 12234 12235 12236 12237 12238 12239 12240 12241 12242 12243 12244 12245 12246 12247 12248 12249 12250 12251 12252 12253 12254 12255 12256 12257 12258 12259 12260 12261 12262 12263 12264 12265 12266 12267 12268 12269 12270 12271 12272 12273 12274 12275 12276 12277 12278 12279 12280 12281 12282 12283 12284 12285 12286 12287 12288 12289 12290 12291 12292 12293 12294 12295 12296 12297 12298 12299 12300 12301 12302 12303 12304 12305 12306 12307 12308 12309 12310 12311 12312 12313 12314 12315 12316 12317 12318 12319 12320 12321 12322 12323 12324 12325 12326 12327 12328 12329 12330 12331 12332 12333 12334 12335 12336 12337 12338 12339 12340 12341 12342 12343 12344 12345 12346 12347 12348 12349 12350 12351 12352 12353 12354 12355 12356 12357 12358 12359 12360 12361 12362 12363 12364 12365 12366 12367 12368 12369 12370 12371 12372 12373 12374 12375 12376 12377 12378 12379 12380 12381 12382 12383 12384 12385 12386 12387 12388 12389 12390 12391 12392 12393 12394 12395 12396 12397 12398 12399 12400 12401 12402 12403 12404 12405 12406 12407 12408 12409 12410 12411 12412 12413 12414 12415 12416 12417 12418 12419 12420 12421 12422 12423 12424 12425 12426 12427 12428 12429 12430 12431 12432 12433 12434 12435 12436 12437 12438 12439 12440 12441 12442 12443 12444 12445 12446 12447 12448 12449 12450 12451 12452 12453 12454 12455 12456 12457 12458 12459 12460 12461 12462 12463 12464 12465 12466 12467 12468 12469 12470 12471 12472 12473 12474 12475 12476 12477 12478 12479 12480 12481 12482 12483 12484 12485 12486 12487 12488 12489 12490 12491 12492 12493 12494 12495 12496 12497 12498 12499 12500 12501 12502 12503 12504 12505 12506 12507 12508 12509 12510 12511 12512 12513 12514 12515 12516 12517 12518 12519 12520 12521 12522 12523 12524 12525 12526 12527 12528 12529 12530 12531 12532 12533 12534 12535 12536 12537 12538 12539 12540 12541 12542 12543 12544 12545 12546 12547 12548 12549 12550 12551 12552 12553 12554 12555 12556 12557 12558 12559 12560 12561 12562 12563 12564 12565 12566 12567 12568 12569 12570 12571 12572 12573 12574 12575 12576 12577 12578 12579 12580 12581 12582 12583 12584 12585 12586 12587 12588 12589 12590 12591 12592 12593 12594 12595 12596 12597 12598 12599 12600 12601 12602 12603 12604 12605 12606 12607 12608 12609 12610 12611 12612 12613 12614 12615 12616 12617 12618 12619 12620 12621 12622 12623 12624 12625 12626 12627 12628 12629 12630 12631 12632 12633 12634 12635 12636 12637 12638 12639 12640 12641 12642 12643 12644 12645 12646 12647 12648 12649 12650 12651 12652 12653 12654 12655 12656 12657 12658 12659 12660 12661 12662 12663 12664 12665 12666 12667 12668 12669 12670 12671 12672 12673 12674 12675 12676 12677 12678 12679 12680 12681 12682 12683 12684 12685 12686 12687 12688 12689 12690 12691 12692 12693 12694 12695 12696 12697 12698 12699 12700 12701 12702 12703 12704 12705 12706 12707 12708 12709 12710 12711 12712 12713 12714 12715 12716 12717 12718 12719 12720 12721 12722 12723 12724 12725 12726 12727 12728 12729 12730 12731 12732 12733 12734 12735 12736 12737 12738 12739 12740 12741 12742 12743 12744 12745 12746 12747 12748 12749 12750 12751 12752 12753 12754 12755 12756 12757 12758 12759 12760 12761 12762 12763 12764 12765 12766 12767 12768 12769 12770 12771 12772 12773 12774 12775 12776 12777 12778 12779 12780 12781 12782 12783 12784 12785 12786 12787 12788 12789 12790 12791 12792 12793 12794 12795 12796 12797 12798 12799 12800 12801 12802 12803 12804 12805 12806 12807 12808 12809 12810 12811 12812 12813 12814 12815 12816 12817 12818 12819 12820 12821 12822 12823 12824 12825 12826 12827 12828 12829 12830 12831 12832 12833 12834 12835 12836 12837 12838 12839 12840 12841 12842 12843 12844 12845 12846 12847 12848 12849 12850 12851 12852 12853 12854 12855 12856 12857 12858 12859 12860 12861 12862 12863 12864 12865 12866 12867 12868 12869 12870 12871 12872 12873 12874 12875 12876 12877 12878 12879 12880 12881 12882 12883 12884 12885 12886 12887 12888 12889 12890 12891 12892 12893 12894 12895 12896 12897 12898 12899 12900 12901 12902 12903 12904 12905 12906 12907 12908 12909 12910 12911 12912 12913 12914 12915 12916 12917 12918 12919 12920 12921 12922 12923 12924 12925 12926 12927 12928 12929 12930 12931 12932 12933 12934 12935 12936 12937 12938 12939 12940 12941 12942 12943 12944 12945 12946 12947 12948 12949 12950 12951 12952 12953 12954 12955 12956 12957 12958 12959 12960 12961 12962 12963 12964 12965 12966 12967 12968 12969 12970 12971 12972 12973 12974 12975 12976 12977 12978 12979 12980 12981 12982 12983 12984 12985 12986 12987 12988 12989 12990 12991 12992 12993 12994 12995 12996 12997 12998 12999 13000 13001 13002 13003 13004 13005 13006 13007 13008 13009 13010 13011 13012 13013 13014 13015 13016 13017 13018 13019 13020 13021 13022 13023 13024 13025 13026 13027 13028 13029 13030 13031 13032 13033 13034 13035 13036 13037 13038 13039 13040 13041 13042 13043 13044 13045 13046 13047 13048 13049 13050 13051 13052 13053 13054 13055 13056 13057 13058 13059 13060 13061 13062 13063 13064 13065 13066 13067 13068 13069 13070 13071 13072 13073 13074 13075 13076 13077 13078 13079 13080 13081 13082 13083 13084 13085 13086 13087 13088 13089 13090 13091 13092 13093 13094 13095 13096 13097 13098 13099 13100 13101 13102 13103 13104 13105 13106 13107 13108 13109 13110 13111 13112 13113 13114 13115 13116 13117 13118 13119 13120 13121 13122 13123 13124 13125 13126 13127 13128 13129 13130 13131 13132 13133 13134 13135 13136 13137 13138 13139 13140 13141 13142 13143 13144 13145 13146 13147 13148 13149 13150 13151 13152 13153 13154 13155 13156 13157 13158 13159 13160 13161 13162 13163 13164 13165 13166 13167 13168 13169 13170 13171 13172 13173 13174 13175 13176 13177 13178 13179 13180 13181 13182 13183 13184 13185 13186 13187 13188 13189 13190 13191 13192 13193 13194 13195 13196 13197 13198 13199 13200 13201 13202 13203 13204 13205 13206 13207 13208 13209 13210 13211 13212 13213 13214 13215 13216 13217 13218 13219 13220 13221 13222 13223 13224 13225 13226 13227 13228 13229 13230 13231 13232 13233 13234 13235 13236 13237 13238 13239 13240 13241 13242 13243 13244 13245 13246 13247 13248 13249 13250 13251 13252 13253 13254 13255 13256 13257 13258 13259 13260 13261 13262 13263 13264 13265 13266 13267 13268 13269 13270 13271 13272 13273 13274 13275 13276 13277 13278 13279 13280 13281 13282 13283 13284 13285 13286 13287 13288 13289 13290 13291 13292 13293 13294 13295 13296 13297 13298 13299 13300 13301 13302 13303 13304 13305 13306 13307 13308 13309 13310 13311 13312 13313 13314 13315 13316 13317 13318 13319 13320 13321 13322 13323 13324 13325 13326 13327 13328 13329 13330 13331 13332 13333 13334 13335 13336 13337 13338 13339 13340 13341 13342 13343 13344 13345 13346 13347 13348 13349 13350 13351 13352 13353 13354 13355 13356 13357 13358 13359 13360 13361 13362 13363 13364 13365 13366 13367 13368 13369 13370 13371 13372 13373 13374 13375 13376 13377 13378 13379 13380 13381 13382 13383 13384 13385 13386 13387 13388 13389 13390 13391 13392 13393 13394 13395 13396 13397 13398 13399 13400 13401 13402 13403 13404 13405 13406 13407 13408 13409 13410 13411 13412 13413 13414 13415 13416 13417 13418 13419 13420 13421 13422 13423 13424 13425 13426 13427 13428 13429 13430 13431 13432 13433 13434 13435 13436 13437 13438 13439 13440 13441 13442 13443 13444 13445 13446 13447 13448 13449 13450 13451 13452 13453 13454 13455 13456 13457 13458 13459 13460 13461 13462 13463 13464 13465 13466 13467 13468 13469 13470 13471 13472 13473 13474 13475 13476 13477 13478 13479 13480 13481 13482 13483 13484 13485 13486 13487 13488 13489 13490 13491 13492 13493 13494 13495 13496 13497 13498 13499 13500 13501 13502 13503 13504 13505 13506 13507 13508 13509 13510 13511 13512 13513 13514 13515 13516 13517 13518 13519 13520 13521 13522 13523 13524 13525 13526 13527 13528 13529 13530 13531 13532 13533 13534 13535 13536 13537 13538 13539 13540 13541 13542 13543 13544 13545 13546 13547 13548 13549 13550 13551 13552 13553 13554 13555 13556 13557 13558 13559 13560 13561 13562 13563 13564 13565 13566 13567 13568 13569 13570 13571 13572 13573 13574 13575 13576 13577 13578 13579 13580 13581 13582 13583 13584 13585 13586 13587 13588 13589 13590 13591 13592 13593 13594 13595 13596 13597 13598 13599 13600 13601 13602 13603 13604 13605 13606 13607 13608 13609 13610 13611 13612 13613 13614 13615 13616 13617 13618 13619 13620 13621 13622 13623 13624 13625 13626 13627 13628 13629 13630 13631 13632 13633 13634 13635 13636 13637 13638 13639 13640 13641 13642 13643 13644 13645 13646 13647 13648 13649 13650 13651 13652 13653 13654 13655 13656 13657 13658 13659 13660 13661 13662 13663 13664 13665 13666 13667 13668 13669 13670 13671 13672 13673 13674 13675 13676 13677 13678 13679 13680 13681 13682 13683 13684 13685 13686 13687 13688 13689 13690 13691 13692 13693 13694 13695 13696 13697 13698 13699 13700 13701 13702 13703 13704 13705 13706 13707 13708 13709 13710 13711 13712 13713 13714 13715 13716 13717 13718 13719 13720 13721 13722 13723 13724 13725 13726 13727 13728 13729 13730 13731 13732 13733 13734 13735 13736 13737 13738 13739 13740 13741 13742 13743 13744 13745 13746 13747 13748 13749 13750 13751 13752 13753 13754 13755 13756 13757 13758 13759 13760 13761 13762 13763 13764 13765 13766 13767 13768 13769 13770 13771 13772 13773 13774 13775 13776 13777 13778 13779 13780 13781 13782 13783 13784 13785 13786 13787 13788 13789 13790 13791 13792 13793 13794 13795 13796 13797 13798 13799 13800 13801 13802 13803 13804 13805 13806 13807 13808 13809 13810 13811 13812 13813 13814 13815 13816 13817 13818 13819 13820 13821 13822 13823 13824 13825 13826 13827 13828 13829 13830 13831 13832 13833 13834 13835 13836 13837 13838 13839 13840 13841 13842 13843 13844 13845 13846 13847 13848 13849 13850 13851 13852 13853 13854 13855 13856 13857 13858 13859 13860 13861 13862 13863 13864 13865 13866 13867 13868 13869 13870 13871 13872 13873 13874 13875 13876 13877 13878 13879 13880 13881 13882 13883 13884 13885 13886 13887 13888 13889 13890 13891 13892 13893 13894 13895 13896 13897 13898 13899 13900 13901 13902 13903 13904 13905 13906 13907 13908 13909 13910 13911 13912 13913 13914 13915 13916 13917 13918 13919 13920 13921 13922 13923 13924 13925 13926 13927 13928 13929 13930 13931 13932 13933 13934 13935 13936 13937 13938 13939 13940 13941 13942 13943 13944 13945 13946 13947 13948 13949 13950 13951 13952 13953 13954 13955 13956 13957 13958 13959 13960 13961 13962 13963 13964 13965 13966 13967 13968 13969 13970 13971 13972 13973 13974 13975 13976 13977 13978 13979 13980 13981 13982 13983 13984 13985 13986 13987 13988 13989 13990 13991 13992 13993 13994 13995 13996 13997 13998 13999 14000 14001 14002 14003 14004 14005 14006 14007 14008 14009 14010 14011 14012 14013 14014 14015 14016 14017 14018 14019 14020 14021 14022 14023 14024 14025 14026 14027 14028 14029 14030 14031 14032 14033 14034 14035 14036 14037 14038 14039 14040 14041 14042 14043 14044 14045 14046 14047 14048 14049 14050 14051 14052 14053 14054 14055 14056 14057 14058 14059 14060 14061 14062 14063 14064 14065 14066 14067 14068 14069 14070 14071 14072 14073 14074 14075 14076 14077 14078 14079 14080 14081 14082 14083 14084 14085 14086 14087 14088 14089 14090 14091 14092 14093 14094 14095 14096 14097 14098 14099 14100 14101 14102 14103 14104 14105 14106 14107 14108 14109 14110 14111 14112 14113 14114 14115 14116 14117 14118 14119 14120 14121 14122 14123 14124 14125 14126 14127 14128 14129 14130 14131 14132 14133 14134 14135 14136 14137 14138 14139 14140 14141 14142 14143 14144 14145 14146 14147 14148 14149 14150 14151 14152 14153 14154 14155 14156 14157 14158 14159 14160 14161 14162 14163 14164 14165 14166 14167 14168 14169 14170 14171 14172 14173 14174 14175 14176 14177 14178 14179 14180 14181 14182 14183 14184 14185 14186 14187 14188 14189 14190 14191 14192 14193 14194 14195 14196 14197 14198 14199 14200 14201 14202 14203 14204 14205 14206 14207 14208 14209 14210 14211 14212 14213 14214 14215 14216 14217 14218 14219 14220 14221 14222 14223 14224 14225 14226 14227 14228 14229 14230 14231 14232 14233 14234 14235 14236 14237 14238 14239 14240 14241 14242 14243 14244 14245 14246 14247 14248 14249 14250 14251 14252 14253 14254 14255 14256 14257 14258 14259 14260 14261 14262 14263 14264 14265 14266 14267 14268 14269 14270 14271 14272 14273 14274 14275 14276 14277 14278 14279 14280 14281 14282 14283 14284 14285 14286 14287 14288 14289 14290 14291 14292 14293 14294 14295 14296 14297 14298 14299 14300 14301 14302 14303 14304 14305 14306 14307 14308 14309 14310 14311 14312 14313 14314 14315 14316 14317 14318 14319 14320 14321 14322 14323 14324 14325 14326 14327 14328 14329 14330 14331 14332 14333 14334 14335 14336 14337 14338 14339 14340 14341 14342 14343 14344 14345 14346 14347 14348 14349 14350 14351 14352 14353 14354 14355 14356 14357 14358 14359 14360 14361 14362 14363 14364 14365 14366 14367 14368 14369 14370 14371 14372 14373 14374 14375 14376 14377 14378 14379 14380 14381 14382 14383 14384 14385 14386 14387 14388 14389 14390 14391 14392 14393 14394 14395 14396 14397 14398 14399 14400 14401 14402 14403 14404 14405 14406 14407 14408 14409 14410 14411 14412 14413 14414 14415 14416 14417 14418 14419 14420 14421 14422 14423 14424 14425 14426 14427 14428 14429 14430 14431 14432 14433 14434 14435 14436 14437 14438 14439 14440 14441 14442 14443 14444 14445 14446 14447 14448 14449 14450 14451 14452 14453 14454 14455 14456 14457 14458 14459 14460 14461 14462 14463 14464 14465 14466 14467 14468 14469 14470 14471 14472 14473 14474 14475 14476 14477 14478 14479 14480 14481 14482 14483 14484 14485 14486 14487 14488 14489 14490 14491 14492 14493 14494 14495 14496 14497 14498 14499 14500 14501 14502 14503 14504 14505 14506 14507 14508 14509 14510 14511 14512 14513 14514 14515 14516 14517 14518 14519 14520 14521 14522 14523 14524 14525 14526 14527 14528 14529 14530 14531 14532 14533 14534 14535 14536 14537 14538 14539 14540 14541 14542 14543 14544 14545 14546 14547 14548 14549 14550 14551 14552 14553 14554 14555 14556 14557 14558 14559 14560 14561 14562 14563 14564 14565 14566 14567 14568 14569 14570 14571 14572 14573 14574 14575 14576 14577 14578 14579 14580 14581 14582 14583 14584 14585 14586 14587 14588 14589 14590 14591 14592 14593 14594 14595 14596 14597 14598 14599 14600 14601 14602 14603 14604 14605 14606 14607 14608 14609 14610 14611 14612 14613 14614 14615 14616 14617 14618 14619 14620 14621 14622 14623 14624 14625 14626 14627 14628 14629 14630 14631 14632 14633 14634 14635 14636 14637 14638 14639 14640 14641 14642 14643 14644 14645 14646 14647 14648 14649 14650 14651 14652 14653 14654 14655 14656 14657 14658 14659 14660 14661 14662 14663 14664 14665 14666 14667 14668 14669 14670 14671 14672 14673 14674 14675 14676 14677 14678 14679 14680 14681 14682 14683 14684 14685 14686 14687 14688 14689 14690 14691 14692 14693 14694 14695 14696 14697 14698 14699 14700 14701 14702 14703 14704 14705 14706 14707 14708 14709 14710 14711 14712 14713 14714 14715 14716 14717 14718 14719 14720 14721 14722 14723 14724 14725 14726 14727 14728 14729 14730 14731 14732 14733 14734 14735 14736 14737 14738 14739 14740 14741 14742 14743 14744 14745 14746 14747 14748 14749 14750 14751 14752 14753 14754 14755 14756 14757 14758 14759 14760 14761 14762 14763 14764 14765 14766 14767 14768 14769 14770 14771 14772 14773 14774 14775 14776 14777 14778 14779 14780 14781 14782 14783 14784 14785 14786 14787 14788 14789 14790 14791 14792 14793 14794 14795 14796 14797 14798 14799 14800 14801 14802 14803 14804 14805 14806 14807 14808 14809 14810 14811 14812 14813 14814 14815 14816 14817 14818 14819 14820 14821 14822 14823 14824 14825 14826 14827 14828 14829 14830 14831 14832 14833 14834 14835 14836 14837 14838 14839 14840 14841 14842 14843 14844 14845 14846 14847 14848 14849 14850 14851 14852 14853 14854 14855 14856 14857 14858 14859 14860 14861 14862 14863 14864 14865 14866 14867 14868 14869 14870 14871 14872 14873 14874 14875 14876 14877 14878 14879 14880 14881 14882 14883 14884 14885 14886 14887 14888 14889 14890 14891 14892 14893 14894 14895 14896 14897 14898 14899 14900 14901 14902 14903 14904 14905 14906 14907 14908 14909 14910 14911 14912 14913 14914 14915 14916 14917 14918 14919 14920 14921 14922 14923 14924 14925 14926 14927 14928 14929 14930 14931 14932 14933 14934 14935 14936 14937 14938 14939 14940 14941 14942 14943 14944 14945 14946 14947 14948 14949 14950 14951 14952 14953 14954 14955 14956 14957 14958 14959 14960 14961 14962 14963 14964 14965 14966 14967 14968 14969 14970 14971 14972 14973 14974 14975 14976 14977 14978 14979 14980 14981 14982 14983 14984 14985 14986 14987 14988 14989 14990 14991 14992 14993 14994 14995 14996 14997 14998 14999 15000 15001 15002 15003 15004 15005 15006 15007 15008 15009 15010 15011 15012 15013 15014 15015 15016 15017 15018 15019 15020 15021 15022 15023 15024 15025 15026 15027 15028 15029 15030 15031 15032 15033 15034 15035 15036 15037 15038 15039 15040 15041 15042 15043 15044 15045 15046 15047 15048 15049 15050 15051 15052 15053 15054 15055 15056 15057 15058 15059 15060 15061 15062 15063 15064 15065 15066 15067 15068 15069 15070 15071 15072 15073 15074 15075 15076 15077 15078 15079 15080 15081 15082 15083 15084 15085 15086 15087 15088 15089 15090 15091 15092 15093 15094 15095 15096 15097 15098 15099 15100 15101 15102 15103 15104 15105 15106 15107 15108 15109 15110 15111 15112 15113 15114 15115 15116 15117 15118 15119 15120 15121 15122 15123 15124 15125 15126 15127 15128 15129 15130 15131 15132 15133 15134 15135 15136 15137 15138 15139 15140 15141 15142 15143 15144 15145 15146 15147 15148 15149 15150 15151 15152 15153 15154 15155 15156 15157 15158 15159 15160 15161 15162 15163 15164 15165 15166 15167 15168 15169 15170 15171 15172 15173 15174 15175 15176 15177 15178 15179 15180 15181 15182 15183 15184 15185 15186 15187 15188 15189 15190 15191 15192 15193 15194 15195 15196 15197 15198 15199 15200 15201 15202 15203 15204 15205 15206 15207 15208 15209 15210 15211 15212 15213 15214 15215 15216 15217 15218 15219 15220 15221 15222 15223 15224 15225 15226 15227 15228 15229 15230 15231 15232 15233 15234 15235 15236 15237 15238 15239 15240 15241 15242 15243 15244 15245 15246 15247 15248 15249 15250 15251 15252 15253 15254 15255 15256 15257 15258 15259 15260 15261 15262 15263 15264 15265 15266 15267 15268 15269 15270 15271 15272 15273 15274 15275 15276 15277 15278 15279 15280 15281 15282 15283 15284 15285 15286 15287 15288 15289 15290 15291 15292 15293 15294 15295 15296 15297 15298 15299 15300 15301 15302 15303 15304 15305 15306 15307 15308 15309 15310 15311 15312 15313 15314 15315 15316 15317 15318 15319 15320 15321 15322 15323 15324 15325 15326 15327 15328 15329 15330 15331 15332 15333 15334 15335 15336 15337 15338 15339 15340 15341 15342 15343 15344 15345 15346 15347 15348 15349 15350 15351 15352 15353 15354 15355 15356 15357 15358 15359 15360 15361 15362 15363 15364 15365 15366 15367 15368 15369 15370 15371 15372 15373 15374 15375 15376 15377 15378 15379 15380 15381 15382 15383 15384 15385 15386 15387 15388 15389 15390 15391 15392 15393 15394 15395 15396 15397 15398 15399 15400 15401 15402 15403 15404 15405 15406 15407 15408 15409 15410 15411 15412 15413 15414 15415 15416 15417 15418 15419 15420 15421 15422 15423 15424 15425 15426 15427 15428 15429 15430 15431 15432 15433 15434 15435 15436 15437 15438 15439 15440 15441 15442 15443 15444 15445 15446 15447 15448 15449 15450 15451 15452 15453 15454 15455 15456 15457 15458 15459 15460 15461 15462 15463 15464 15465 15466 15467 15468 15469 15470 15471 15472 15473 15474 15475 15476 15477 15478 15479 15480 15481 15482 15483 15484 15485 15486 15487 15488 15489 15490 15491 15492 15493 15494 15495 15496 15497 15498 15499 15500 15501 15502 15503 15504 15505 15506 15507 15508 15509 15510 15511 15512 15513 15514 15515 15516 15517 15518 15519 15520 15521 15522 15523 15524 15525 15526 15527 15528 15529 15530 15531 15532 15533 15534 15535 15536 15537 15538 15539 15540 15541 15542 15543 15544 15545 15546 15547 15548 15549 15550 15551 15552 15553 15554 15555 15556 15557 15558 15559 15560 15561 15562 15563 15564 15565 15566 15567 15568 15569 15570 15571 15572 15573 15574 15575 15576 15577 15578 15579 15580 15581 15582 15583 15584 15585 15586 15587 15588 15589 15590 15591 15592 15593 15594 15595 15596 15597 15598 15599 15600 15601 15602 15603 15604 15605 15606 15607 15608 15609 15610 15611 15612 15613 15614 15615 15616 15617 15618 15619 15620 15621 15622 15623 15624 15625 15626 15627 15628 15629 15630 15631 15632 15633 15634 15635 15636 15637 15638 15639 15640 15641 15642 15643 15644 15645 15646 15647 15648 15649 15650 15651 15652 15653 15654 15655 15656 15657 15658 15659 15660 15661 15662 15663 15664 15665 15666 15667 15668 15669 15670 15671 15672 15673 15674 15675 15676 15677 15678 15679 15680 15681 15682 15683 15684 15685 15686 15687 15688 15689 15690 15691 15692 15693 15694 15695 15696 15697 15698 15699 15700 15701 15702 15703 15704 15705 15706 15707 15708 15709 15710 15711 15712 15713 15714 15715 15716 15717 15718 15719 15720 15721 15722 15723 15724 15725 15726 15727 15728 15729 15730 15731 15732 15733 15734 15735 15736 15737 15738 15739 15740 15741 15742 15743 15744 15745 15746 15747 15748 15749 15750 15751 15752 15753 15754 15755 15756 15757 15758 15759 15760 15761 15762 15763 15764 15765 15766 15767 15768 15769 15770 15771 15772 15773 15774 15775 15776 15777 15778 15779 15780 15781 15782 15783 15784 15785 15786 15787 15788 15789 15790 15791 15792 15793 15794 15795 15796 15797 15798 15799 15800 15801 15802 15803 15804 15805 15806 15807 15808 15809 15810 15811 15812 15813 15814 15815 15816 15817 15818 15819 15820 15821 15822 15823 15824 15825 15826 15827 15828 15829 15830 15831 15832 15833 15834 15835 15836 15837 15838 15839 15840 15841 15842 15843 15844 15845 15846 15847 15848 15849 15850 15851 15852 15853 15854 15855 15856 15857 15858 15859 15860 15861 15862 15863 15864 15865 15866 15867 15868 15869 15870 15871 15872 15873 15874 15875 15876 15877 15878 15879 15880 15881 15882 15883 15884 15885 15886 15887 15888 15889 15890 15891 15892 15893 15894 15895 15896 15897 15898 15899 15900 15901 15902 15903 15904 15905 15906 15907 15908 15909 15910 15911 15912 15913 15914 15915 15916 15917 15918 15919 15920 15921 15922 15923 15924 15925 15926 15927 15928 15929 15930 15931 15932 15933 15934 15935 15936 15937 15938 15939 15940 15941 15942 15943 15944 15945 15946 15947 15948 15949 15950 15951 15952 15953 15954 15955 15956 15957 15958 15959 15960 15961 15962 15963 15964 15965 15966 15967 15968 15969 15970 15971 15972 15973 15974 15975 15976 15977 15978 15979 15980 15981 15982 15983 15984 15985 15986 15987 15988 15989 15990 15991 15992 15993 15994 15995 15996 15997 15998 15999 16000 16001 16002 16003 16004 16005 16006 16007 16008 16009 16010 16011 16012 16013 16014 16015 16016 16017 16018 16019 16020 16021 16022 16023 16024 16025 16026 16027 16028 16029 16030 16031 16032 16033 16034 16035 16036 16037 16038 16039 16040 16041 16042 16043 16044 16045 16046 16047 16048 16049 16050 16051 16052 16053 16054 16055 16056 16057 16058 16059 16060 16061 16062 16063 16064 16065 16066 16067 16068 16069 16070 16071 16072 16073 16074 16075 16076 16077 16078 16079 16080 16081 16082 16083 16084 16085 16086 16087 16088 16089 16090 16091 16092 16093 16094 16095 16096 16097 16098 16099 16100 16101 16102 16103 16104 16105 16106 16107 16108 16109 16110 16111 16112 16113 16114 16115 16116 16117 16118 16119 16120 16121 16122 16123 16124 16125 16126 16127 16128 16129 16130 16131 16132 16133 16134 16135 16136 16137 16138 16139 16140 16141 16142 16143 16144 16145 16146 16147 16148 16149 16150 16151 16152 16153 16154 16155 16156 16157 16158 16159 16160 16161 16162 16163 16164 16165 16166 16167 16168 16169 16170 16171 16172 16173 16174 16175 16176 16177 16178 16179 16180 16181 16182 16183 16184 16185 16186 16187 16188 16189 16190 16191 16192 16193 16194 16195 16196 16197 16198 16199 16200 16201 16202 16203 16204 16205 16206 16207 16208 16209 16210 16211 16212 16213 16214 16215 16216 16217 16218 16219 16220 16221 16222 16223 16224 16225 16226 16227 16228 16229 16230 16231 16232 16233 16234 16235 16236 16237 16238 16239 16240 16241 16242 16243 16244 16245 16246 16247 16248 16249 16250 16251 16252 16253 16254 16255 16256 16257 16258 16259 16260 16261 16262 16263 16264 16265 16266 16267 16268 16269 16270 16271 16272 16273 16274 16275 16276 16277 16278 16279 16280 16281 16282 16283 16284 16285 16286 16287 16288 16289 16290 16291 16292 16293 16294 16295 16296 16297 16298 16299 16300 16301 16302 16303 16304 16305 16306 16307 16308 16309 16310 16311 16312 16313 16314 16315 16316 16317 16318 16319 16320 16321 16322 16323 16324 16325 16326 16327 16328 16329 16330 16331 16332 16333 16334 16335 16336 16337 16338 16339 16340 16341 16342 16343 16344 16345 16346 16347 16348 16349 16350 16351 16352 16353 16354 16355 16356 16357 16358 16359 16360 16361 16362 16363 16364 16365 16366 16367 16368 16369 16370 16371 16372 16373 16374 16375 16376 16377 16378 16379 16380 16381 16382 16383 16384 16385 16386 16387 16388 16389 16390 16391 16392 16393 16394 16395 16396 16397 16398 16399 16400 16401 16402 16403 16404 16405 16406 16407 16408 16409 16410 16411 16412 16413 16414 16415 16416 16417 16418 16419 16420 16421 16422 16423 16424 16425 16426 16427 16428 16429 16430 16431 16432 16433 16434 16435 16436 16437 16438 16439 16440 16441 16442 16443 16444 16445 16446 16447 16448 16449 16450 16451 16452 16453 16454 16455 16456 16457 16458 16459 16460 16461 16462 16463 16464 16465 16466 16467 16468 16469 16470 16471 16472 16473 16474 16475 16476 16477 16478 16479 16480 16481 16482 16483 16484 16485 16486 16487 16488 16489 16490 16491 16492 16493 16494 16495 16496 16497 16498 16499 16500 16501 16502 16503 16504 16505 16506 16507 16508 16509 16510 16511 16512 16513 16514 16515 16516 16517 16518 16519 16520 16521 16522 16523 16524 16525 16526 16527 16528 16529 16530 16531 16532 16533 16534 16535 16536 16537 16538 16539 16540 16541 16542 16543 16544 16545 16546 16547 16548 16549 16550 16551 16552 16553 16554 16555 16556 16557 16558 16559 16560 16561 16562 16563 16564 16565 16566 16567 16568 16569 16570 16571 16572 16573 16574 16575 16576 16577 16578 16579 16580 16581 16582 16583 16584 16585 16586 16587 16588 16589 16590 16591 16592 16593 16594 16595 16596 16597 16598 16599 16600 16601 16602 16603 16604 16605 16606 16607 16608 16609 16610 16611 16612 16613 16614 16615 16616 16617 16618 16619 16620 16621 16622 16623 16624 16625 16626 16627 16628 16629 16630 16631 16632 16633 16634 16635 16636 16637 16638 16639 16640 16641 16642 16643 16644 16645 16646 16647 16648 16649 16650 16651 16652 16653 16654 16655 16656 16657 16658 16659 16660 16661 16662 16663 16664 16665 16666 16667 16668 16669 16670 16671 16672 16673 16674 16675 16676 16677 16678 16679 16680 16681 16682 16683 16684 16685 16686 16687 16688 16689 16690 16691 16692 16693 16694 16695 16696 16697 16698 16699 16700 16701 16702 16703 16704 16705 16706 16707 16708 16709 16710 16711 16712 16713 16714 16715 16716 16717 16718 16719 16720 16721 16722 16723 16724 16725 16726 16727 16728 16729 16730 16731 16732 16733 16734 16735 16736 16737 16738 16739 16740 16741 16742 16743 16744 16745 16746 16747 16748 16749 16750 16751 16752 16753 16754 16755 16756 16757 16758 16759 16760 16761 16762 16763 16764 16765 16766 16767 16768 16769 16770 16771 16772 16773 16774 16775 16776 16777 16778 16779 16780 16781 16782 16783 16784 16785 16786 16787 16788 16789 16790 16791 16792 16793 16794 16795 16796 16797 16798 16799 16800 16801 16802 16803 16804 16805 16806 16807 16808 16809 16810 16811 16812 16813 16814 16815 16816 16817 16818 16819 16820 16821 16822 16823 16824 16825 16826 16827 16828 16829 16830 16831 16832 16833 16834 16835 16836 16837 16838 16839 16840 16841 16842 16843 16844 16845 16846 16847 16848 16849 16850 16851 16852 16853 16854 16855 16856 16857 16858 16859 16860 16861 16862 16863 16864 16865 16866 16867 16868 16869 16870 16871 16872 16873 16874 16875 16876 16877 16878 16879 16880 16881 16882 16883 16884 16885 16886 16887 16888 16889 16890 16891 16892 16893 16894 16895 16896 16897 16898 16899 16900 16901 16902 16903 16904 16905 16906 16907 16908 16909 16910 16911 16912 16913 16914 16915 16916 16917 16918 16919 16920 16921 16922 16923 16924 16925 16926 16927 16928 16929 16930 16931 16932 16933 16934 16935 16936 16937 16938 16939 16940 16941 16942 16943 16944 16945 16946 16947 16948 16949 16950 16951 16952 16953 16954 16955 16956 16957 16958 16959 16960 16961 16962 16963 16964 16965 16966 16967 16968 16969 16970 16971 16972 16973 16974 16975 16976 16977 16978 16979 16980 16981 16982 16983 16984 16985 16986 16987 16988 16989 16990 16991 16992 16993 16994 16995 16996 16997 16998 16999 17000 17001 17002 17003 17004 17005 17006 17007 17008 17009 17010 17011 17012 17013 17014 17015 17016 17017 17018 17019 17020 17021 17022 17023 17024 17025 17026 17027 17028 17029 17030 17031 17032 17033 17034 17035 17036 17037 17038 17039 17040 17041 17042 17043 17044 17045 17046 17047 17048 17049 17050 17051 17052 17053 17054 17055 17056 17057 17058 17059 17060 17061 17062 17063 17064 17065 17066 17067 17068 17069 17070 17071 17072 17073 17074 17075 17076 17077 17078 17079 17080 17081 17082 17083 17084 17085 17086 17087 17088 17089 17090 17091 17092 17093 17094 17095 17096 17097 17098 17099 17100 17101 17102 17103 17104 17105 17106 17107 17108 17109 17110 17111 17112 17113 17114 17115 17116 17117 17118 17119 17120 17121 17122 17123 17124 17125 17126 17127 17128 17129 17130 17131 17132 17133 17134 17135 17136 17137 17138 17139 17140 17141 17142 17143 17144 17145 17146 17147 17148 17149 17150 17151 17152 17153 17154 17155 17156 17157 17158 17159 17160 17161 17162 17163 17164 17165 17166 17167 17168 17169 17170 17171 17172 17173 17174 17175 17176 17177 17178 17179 17180 17181 17182 17183 17184 17185 17186 17187 17188 17189 17190 17191 17192 17193 17194 17195 17196 17197 17198 17199 17200 17201 17202 17203 17204 17205 17206 17207 17208 17209 17210 17211 17212 17213 17214 17215 17216 17217 17218 17219 17220 17221 17222 17223 17224 17225 17226 17227 17228 17229 17230 17231 17232 17233 17234 17235 17236 17237 17238 17239 17240 17241 17242 17243 17244 17245 17246 17247 17248 17249 17250 17251 17252 17253 17254 17255 17256 17257 17258 17259 17260 17261 17262 17263 17264 17265 17266 17267 17268 17269 17270 17271 17272 17273 17274 17275 17276 17277 17278 17279 17280 17281 17282 17283 17284 17285 17286 17287 17288 17289 17290 17291 17292 17293 17294 17295 17296 17297 17298 17299 17300 17301 17302 17303 17304 17305 17306 17307 17308 17309 17310 17311 17312 17313 17314 17315 17316 17317 17318 17319 17320 17321 17322 17323 17324 17325 17326 17327 17328 17329 17330 17331 17332 17333 17334 17335 17336 17337 17338 17339 17340 17341 17342 17343 17344 17345 17346 17347 17348 17349 17350 17351 17352 17353 17354 17355 17356 17357 17358 17359 17360 17361 17362 17363 17364 17365 17366 17367 17368 17369 17370 17371 17372 17373 17374 17375 17376 17377 17378 17379 17380 17381 17382 17383 17384 17385 17386 17387 17388 17389 17390 17391 17392 17393 17394 17395 17396 17397 17398 17399 17400 17401 17402 17403 17404 17405 17406 17407 17408 17409 17410 17411 17412 17413 17414 17415 17416 17417 17418 17419 17420 17421 17422 17423 17424 17425 17426 17427 17428 17429 17430 17431 17432 17433 17434 17435 17436 17437 17438 17439 17440 17441 17442 17443 17444 17445 17446 17447 17448 17449 17450 17451 17452 17453 17454 17455 17456 17457 17458 17459 17460 17461 17462 17463 17464 17465 17466 17467 17468 17469 17470 17471 17472 17473 17474 17475 17476 17477 17478 17479 17480 17481 17482 17483 17484 17485 17486 17487 17488 17489 17490 17491 17492 17493 17494 17495 17496 17497 17498 17499 17500 17501 17502 17503 17504 17505 17506 17507 17508 17509 17510 17511 17512 17513 17514 17515 17516 17517 17518 17519 17520 17521 17522 17523 17524 17525 17526 17527 17528 17529 17530 17531 17532 17533 17534 17535 17536 17537 17538 17539 17540 17541 17542 17543 17544 17545 17546 17547 17548 17549 17550 17551 17552 17553 17554 17555 17556 17557 17558 17559 17560 17561 17562 17563 17564 17565 17566 17567 17568 17569 17570 17571 17572 17573 17574 17575 17576 17577 17578 17579 17580 17581 17582 17583 17584 17585 17586 17587 17588 17589 17590 17591 17592 17593 17594 17595 17596 17597 17598 17599 17600 17601 17602 17603 17604 17605 17606 17607 17608 17609 17610 17611 17612 17613 17614 17615 17616 17617 17618 17619 17620 17621 17622 17623 17624 17625 17626 17627 17628 17629 17630 17631 17632 17633 17634 17635 17636 17637 17638 17639 17640 17641 17642 17643 17644 17645 17646 17647 17648 17649 17650 17651 17652 17653 17654 17655 17656 17657 17658 17659 17660 17661 17662 17663 17664 17665 17666 17667 17668 17669 17670 17671 17672 17673 17674 17675 17676 17677 17678 17679 17680 17681 17682 17683 17684 17685 17686 17687 17688 17689 17690 17691 17692 17693 17694 17695 17696 17697 17698 17699 17700 17701 17702 17703 17704 17705 17706 17707 17708 17709 17710 17711 17712 17713 17714 17715 17716 17717 17718 17719 17720 17721 17722 17723 17724 17725 17726 17727 17728 17729 17730 17731 17732 17733 17734 17735 17736 17737 17738 17739 17740 17741 17742 17743 17744 17745 17746 17747 17748 17749 17750 17751 17752 17753 17754 17755 17756 17757 17758 17759 17760 17761 17762 17763 17764 17765 17766 17767 17768 17769 17770 17771 17772 17773 17774 17775 17776 17777 17778 17779 17780 17781 17782 17783 17784 17785 17786 17787 17788 17789 17790 17791 17792 17793 17794 17795 17796 17797 17798 17799 17800 17801 17802 17803 17804 17805 17806 17807 17808 17809 17810 17811 17812 17813 17814 17815 17816 17817 17818 17819 17820 17821 17822 17823 17824 17825 17826 17827 17828 17829 17830 17831 17832 17833 17834 17835 17836 17837 17838 17839 17840 17841 17842 17843 17844 17845 17846 17847 17848 17849 17850 17851 17852 17853 17854 17855 17856 17857 17858 17859 17860 17861 17862 17863 17864 17865 17866 17867 17868 17869 17870 17871 17872 17873 17874 17875 17876 17877 17878 17879 17880 17881 17882 17883 17884 17885 17886 17887 17888 17889 17890 17891 17892 17893 17894 17895 17896 17897 17898 17899 17900 17901 17902 17903 17904 17905 17906 17907 17908 17909 17910 17911 17912 17913 17914 17915 17916 17917 17918 17919 17920 17921 17922 17923 17924 17925 17926 17927 17928 17929 17930 17931 17932 17933 17934 17935 17936 17937 17938 17939 17940 17941 17942 17943 17944 17945 17946 17947 17948 17949 17950 17951 17952 17953 17954 17955 17956 17957 17958 17959 17960 17961 17962 17963 17964 17965 17966 17967 17968 17969 17970 17971 17972 17973 17974 17975 17976 17977 17978 17979 17980 17981 17982 17983 17984 17985 17986 17987 17988 17989 17990 17991 17992 17993 17994 17995 17996 17997 17998 17999 18000 18001 18002 18003 18004 18005 18006 18007 18008 18009 18010 18011 18012 18013 18014 18015 18016 18017 18018 18019 18020 18021 18022 18023 18024 18025 18026 18027 18028 18029 18030 18031 18032 18033 18034 18035 18036 18037 18038 18039 18040 18041 18042 18043 18044 18045 18046 18047 18048 18049 18050 18051 18052 18053 18054 18055 18056 18057 18058 18059 18060 18061 18062 18063 18064 18065 18066 18067 18068 18069 18070 18071 18072 18073 18074 18075 18076 18077 18078 18079 18080 18081 18082 18083 18084 18085 18086 18087 18088 18089 18090 18091 18092 18093 18094 18095 18096 18097 18098 18099 18100 18101 18102 18103 18104 18105 18106 18107 18108 18109 18110 18111 18112 18113 18114 18115 18116 18117 18118 18119 18120 18121 18122 18123 18124 18125 18126 18127 18128 18129 18130 18131 18132 18133 18134 18135 18136 18137 18138 18139 18140 18141 18142 18143 18144 18145 18146 18147 18148 18149 18150 18151 18152 18153 18154 18155 18156 18157 18158 18159 18160 18161 18162 18163 18164 18165 18166 18167 18168 18169 18170 18171 18172 18173 18174 18175 18176 18177 18178 18179 18180 18181 18182 18183 18184 18185 18186 18187 18188 18189 18190 18191 18192 18193 18194 18195 18196 18197 18198 18199 18200 18201 18202 18203 18204 18205 18206 18207 18208 18209 18210 18211 18212 18213 18214 18215 18216 18217 18218 18219 18220 18221 18222 18223 18224 18225 18226 18227 18228 18229 18230 18231 18232 18233 18234 18235 18236 18237 18238 18239 18240 18241 18242 18243 18244 18245 18246 18247 18248 18249 18250 18251 18252 18253 18254 18255 18256 18257 18258 18259 18260 18261 18262 18263 18264 18265 18266 18267 18268 18269 18270 18271 18272 18273 18274 18275 18276 18277 18278 18279 18280 18281 18282 18283 18284 18285 18286 18287 18288 18289 18290 18291 18292 18293 18294 18295 18296 18297 18298 18299 18300 18301 18302 18303 18304 18305 18306 18307 18308 18309 18310 18311 18312 18313 18314 18315 18316 18317 18318 18319 18320 18321 18322 18323 18324 18325 18326 18327 18328 18329 18330 18331 18332 18333 18334 18335 18336 18337 18338 18339 18340 18341 18342 18343 18344 18345 18346 18347 18348 18349 18350 18351 18352 18353 18354 18355 18356 18357 18358 18359 18360 18361 18362 18363 18364 18365 18366 18367 18368 18369 18370 18371 18372 18373 18374 18375 18376 18377 18378 18379 18380 18381 18382 18383 18384 18385 18386 18387 18388 18389 18390 18391 18392 18393 18394 18395 18396 18397 18398 18399 18400 18401 18402 18403 18404 18405 18406 18407 18408 18409 18410 18411 18412 18413 18414 18415 18416 18417 18418 18419 18420 18421 18422 18423 18424 18425 18426 18427 18428 18429 18430 18431 18432 18433 18434 18435 18436 18437 18438 18439 18440 18441 18442 18443 18444 18445 18446 18447 18448 18449 18450 18451 18452 18453 18454 18455 18456 18457 18458 18459 18460 18461 18462 18463 18464 18465 18466 18467 18468 18469 18470 18471 18472 18473 18474 18475 18476 18477 18478 18479 18480 18481 18482 18483 18484 18485 18486 18487 18488 18489 18490 18491 18492 18493 18494 18495 18496 18497 18498 18499 18500 18501 18502 18503 18504 18505 18506 18507 18508 18509 18510 18511 18512 18513 18514 18515 18516 18517 18518 18519 18520 18521 18522 18523 18524 18525 18526 18527 18528 18529 18530 18531 18532 18533 18534 18535 18536 18537 18538 18539 18540 18541 18542 18543 18544 18545 18546 18547 18548 18549 18550 18551 18552 18553 18554 18555 18556 18557 18558 18559 18560 18561 18562 18563 18564 18565 18566 18567 18568 18569 18570 18571 18572 18573 18574 18575 18576 18577 18578 18579 18580 18581 18582 18583 18584 18585 18586 18587 18588 18589 18590 18591 18592 18593 18594 18595 18596 18597 18598 18599 18600 18601 18602 18603 18604 18605 18606 18607 18608 18609 18610 18611 18612 18613 18614 18615 18616 18617 18618 18619 18620 18621 18622 18623 18624 18625 18626 18627 18628 18629 18630 18631 18632 18633 18634 18635 18636 18637 18638 18639 18640 18641 18642 18643 18644 18645 18646 18647 18648 18649 18650 18651 18652 18653 18654 18655 18656 18657 18658 18659 18660 18661 18662 18663 18664 18665 18666 18667 18668 18669 18670 18671 18672 18673 18674 18675 18676 18677 18678 18679 18680 18681 18682 18683 18684 18685 18686 18687 18688 18689 18690 18691 18692 18693 18694 18695 18696 18697 18698 18699 18700 18701 18702 18703 18704 18705 18706 18707 18708 18709 18710 18711 18712 18713 18714 18715 18716 18717 18718 18719 18720 18721 18722 18723 18724 18725 18726 18727 18728 18729 18730 18731 18732 18733 18734 18735 18736 18737 18738 18739 18740 18741 18742 18743 18744 18745 18746 18747 18748 18749 18750 18751 18752 18753 18754 18755 18756 18757 18758 18759 18760 18761 18762 18763 18764 18765 18766 18767 18768 18769 18770 18771 18772 18773 18774 18775 18776 18777 18778 18779 18780 18781 18782 18783 18784 18785 18786 18787 18788 18789 18790 18791 18792 18793 18794 18795 18796 18797 18798 18799 18800 18801 18802 18803 18804 18805 18806 18807 18808 18809 18810 18811 18812 18813 18814 18815 18816 18817 18818 18819 18820 18821 18822 18823 18824 18825 18826 18827 18828 18829 18830 18831 18832 18833 18834 18835 18836 18837 18838 18839 18840 18841 18842 18843 18844 18845 18846 18847 18848 18849 18850 18851 18852 18853 18854 18855 18856 18857 18858 18859 18860 18861 18862 18863 18864 18865 18866 18867 18868 18869 18870 18871 18872 18873 18874 18875 18876 18877 18878 18879 18880 18881 18882 18883 18884 18885 18886 18887 18888 18889 18890 18891 18892 18893 18894 18895 18896 18897 18898 18899 18900 18901 18902 18903 18904 18905 18906 18907 18908 18909 18910 18911 18912 18913 18914 18915 18916 18917 18918 18919 18920 18921 18922 18923 18924 18925 18926 18927 18928 18929 18930 18931 18932 18933 18934 18935 18936 18937 18938 18939 18940 18941 18942 18943 18944 18945 18946 18947 18948 18949 18950 18951 18952 18953 18954 18955 18956 18957 18958 18959 18960 18961 18962 18963 18964 18965 18966 18967 18968 18969 18970 18971 18972 18973 18974 18975 18976 18977 18978 18979 18980 18981 18982 18983 18984 18985 18986 18987 18988 18989 18990 18991 18992 18993 18994 18995 18996 18997 18998 18999 19000 19001 19002 19003 19004 19005 19006 19007 19008 19009 19010 19011 19012 19013 19014 19015 19016 19017 19018 19019 19020 19021 19022 19023 19024 19025 19026 19027 19028 19029 19030 19031 19032 19033 19034 19035 19036 19037 19038 19039 19040 19041 19042 19043 19044 19045 19046 19047 19048 19049 19050 19051 19052 19053 19054 19055 19056 19057 19058 19059 19060 19061 19062 19063 19064 19065 19066 19067 19068 19069 19070 19071 19072 19073 19074 19075 19076 19077 19078 19079 19080 19081 19082 19083 19084 19085 19086 19087 19088 19089 19090 19091 19092 19093 19094 19095 19096 19097 19098 19099 19100 19101 19102 19103 19104 19105 19106 19107 19108 19109 19110 19111 19112 19113 19114 19115 19116 19117 19118 19119 19120 19121 19122 19123 19124 19125 19126 19127 19128 19129 19130 19131 19132 19133 19134 19135 19136 19137 19138 19139 19140 19141 19142 19143 19144 19145 19146 19147 19148 19149 19150 19151 19152 19153 19154 19155 19156 19157 19158 19159 19160 19161 19162 19163 19164 19165 19166 19167 19168 19169 19170 19171 19172 19173 19174 19175 19176 19177 19178 19179 19180 19181 19182 19183 19184 19185 19186 19187 19188 19189 19190 19191 19192 19193 19194 19195 19196 19197 19198 19199 19200 19201 19202 19203 19204 19205 19206 19207 19208 19209 19210 19211 19212 19213 19214 19215 19216 19217 19218 19219 19220 19221 19222 19223 19224 19225 19226 19227 19228 19229 19230 19231 19232 19233 19234 19235 19236 19237 19238 19239 19240 19241 19242 19243 19244 19245 19246 19247 19248 19249 19250 19251 19252 19253 19254 19255 19256 19257 19258 19259 19260 19261 19262 19263 19264 19265 19266 19267 19268 19269 19270 19271 19272 19273 19274 19275 19276 19277 19278 19279 19280 19281 19282 19283 19284 19285 19286 19287 19288 19289 19290 19291 19292 19293 19294 19295 19296 19297 19298 19299 19300 19301 19302 19303 19304 19305 19306 19307 19308 19309 19310 19311 19312 19313 19314 19315 19316 19317 19318 19319 19320 19321 19322 19323 19324 19325 19326 19327 19328 19329 19330 19331 19332 19333 19334 19335 19336 19337 19338 19339 19340 19341 19342 19343 19344 19345 19346 19347 19348 19349 19350 19351 19352 19353 19354 19355 19356 19357 19358 19359 19360 19361 19362 19363 19364 19365 19366 19367 19368 19369 19370 19371 19372 19373 19374 19375 19376 19377 19378 19379 19380 19381 19382 19383 19384 19385 19386 19387 19388 19389 19390 19391 19392 19393 19394 19395 19396 19397 19398 19399 19400 19401 19402 19403 19404 19405 19406 19407 19408 19409 19410 19411 19412 19413 19414 19415 19416 19417 19418 19419 19420 19421 19422 19423 19424 19425 19426 19427 19428 19429 19430 19431 19432 19433 19434 19435 19436 19437 19438 19439 19440 19441 19442 19443 19444 19445 19446 19447 19448 19449 19450 19451 19452 19453 19454 19455 19456 19457 19458 19459 19460 19461 19462 19463 19464 19465 19466 19467 19468 19469 19470 19471 19472 19473 19474 19475 19476 19477 19478 19479 19480 19481 19482 19483 19484 19485 19486 19487 19488 19489 19490 19491 19492 19493 19494 19495 19496 19497 19498 19499 19500 19501 19502 19503 19504 19505 19506 19507 19508 19509 19510 19511 19512 19513 19514 19515 19516 19517 19518 19519 19520 19521 19522 19523 19524 19525 19526 19527 19528 19529 19530 19531 19532 19533 19534 19535 19536 19537 19538 19539 19540 19541 19542 19543 19544 19545 19546 19547 19548 19549 19550 19551 19552 19553 19554 19555 19556 19557 19558 19559 19560 19561 19562 19563 19564 19565 19566 19567 19568 19569 19570 19571 19572 19573 19574 19575 19576 19577 19578 19579 19580 19581 19582 19583 19584 19585 19586 19587 19588 19589 19590 19591 19592 19593 19594 19595 19596 19597 19598 19599 19600 19601 19602 19603 19604 19605 19606 19607 19608 19609 19610 19611 19612 19613 19614 19615 19616 19617 19618 19619 19620 19621 19622 19623 19624 19625 19626 19627 19628 19629 19630 19631 19632 19633 19634 19635 19636 19637 19638 19639 19640 19641 19642 19643 19644 19645 19646 19647 19648 19649 19650 19651 19652 19653 19654 19655 19656 19657 19658 19659 19660 19661 19662 19663 19664 19665 19666 19667 19668 19669 19670 19671 19672 19673 19674 19675 19676 19677 19678 19679 19680 19681 19682 19683 19684 19685 19686 19687 19688 19689 19690 19691 19692 19693 19694 19695 19696 19697 19698 19699 19700 19701 19702 19703 19704 19705 19706 19707 19708 19709 19710 19711 19712 19713 19714 19715 19716 19717 19718 19719 19720 19721 19722 19723 19724 19725 19726 19727 19728 19729 19730 19731 19732 19733 19734 19735 19736 19737 19738 19739 19740 19741 19742 19743 19744 19745 19746 19747 19748 19749 19750 19751 19752 19753 19754 19755 19756 19757 19758 19759 19760 19761 19762 19763 19764 19765 19766 19767 19768 19769 19770 19771 19772 19773 19774 19775 19776 19777 19778 19779 19780 19781 19782 19783 19784 19785 19786 19787 19788 19789 19790 19791 19792 19793 19794 19795 19796 19797 19798 19799 19800 19801 19802 19803 19804 19805 19806 19807 19808 19809 19810 19811 19812 19813 19814 19815 19816 19817 19818 19819 19820 19821 19822 19823 19824 19825 19826 19827 19828 19829 19830 19831 19832 19833 19834 19835 19836 19837 19838 19839 19840 19841 19842 19843 19844 19845 19846 19847 19848 19849 19850 19851 19852 19853 19854 19855 19856 19857 19858 19859 19860 19861 19862 19863 19864 19865 19866 19867 19868 19869 19870 19871 19872 19873 19874 19875 19876 19877 19878 19879 19880 19881 19882 19883 19884 19885 19886 19887 19888 19889 19890 19891 19892 19893 19894 19895 19896 19897 19898 19899 19900 19901 19902 19903 19904 19905 19906 19907 19908 19909 19910 19911 19912 19913 19914 19915 19916 19917 19918 19919 19920 19921 19922 19923 19924 19925 19926 19927 19928 19929 19930 19931 19932 19933 19934 19935 19936 19937 19938 19939 19940 19941 19942 19943 19944 19945 19946 19947 19948 19949 19950 19951 19952 19953 19954 19955 19956 19957 19958 19959 19960 19961 19962 19963 19964 19965 19966 19967 19968 19969 19970 19971 19972 19973 19974 19975 19976 19977 19978 19979 19980 19981 19982 19983 19984 19985 19986 19987 19988 19989 19990 19991 19992 19993 19994 19995 19996 19997 19998 19999 20000 20001 20002 20003 20004 20005 20006 20007 20008 20009 20010 20011 20012 20013 20014 20015 20016 20017 20018 20019 20020 20021 20022 20023 20024 20025 20026 20027 20028 20029 20030 20031 20032 20033 20034 20035 20036 20037 20038 20039 20040 20041 20042 20043 20044 20045 20046 20047 20048 20049 20050 20051 20052 20053 20054 20055 20056 20057 20058 20059 20060 20061 20062 20063 20064 20065 20066 20067 20068 20069 20070 20071 20072 20073 20074 20075 20076 20077 20078 20079 20080 20081 20082 20083 20084 20085 20086 20087 20088 20089 20090 20091 20092 20093 20094 20095 20096 20097 20098 20099 20100 20101 20102 20103 20104 20105 20106 20107 20108 20109 20110 20111 20112 20113 20114 20115 20116 20117 20118 20119 20120 20121 20122 20123 20124 20125 20126 20127 20128 20129 20130 20131 20132 20133 20134 20135 20136 20137 20138 20139 20140 20141 20142 20143 20144 20145 20146 20147 20148 20149 20150 20151 20152 20153 20154 20155 20156 20157 20158 20159 20160 20161 20162 20163 20164 20165 20166 20167 20168 20169 20170 20171 20172 20173 20174 20175 20176 20177 20178 20179 20180 20181 20182 20183 20184 20185 20186 20187 20188 20189 20190 20191 20192 20193 20194 20195 20196 20197 20198 20199 20200 20201 20202 20203 20204 20205 20206 20207 20208 20209 20210 20211 20212 20213 20214 20215 20216 20217 20218 20219 20220 20221 20222 20223 20224 20225 20226 20227 20228 20229 20230 20231 20232 20233 20234 20235 20236 20237 20238 20239 20240 20241 20242 20243 20244 20245 20246 20247 20248 20249 20250 20251 20252 20253 20254 20255 20256 20257 20258 20259 20260 20261 20262 20263 20264 20265 20266 20267 20268 20269 20270 20271 20272 20273 20274 20275 20276 20277 20278 20279 20280 20281 20282 20283 20284 20285 20286 20287 20288 20289 20290 20291 20292 20293 20294 20295 20296 20297 20298 20299 20300 20301 20302 20303 20304 20305 20306 20307 20308 20309 20310 20311 20312 20313 20314 20315 20316 20317 20318 20319 20320 20321 20322 20323 20324 20325 20326 20327 20328 20329 20330 20331 20332 20333 20334 20335 20336 20337 20338 20339 20340 20341 20342 20343 20344 20345 20346 20347 20348 20349 20350 20351 20352 20353 20354 20355 20356 20357 20358 20359 20360 20361 20362 20363 20364 20365 20366 20367 20368 20369 20370 20371 20372 20373 20374 20375 20376 20377 20378 20379 20380 20381 20382 20383 20384 20385 20386 20387 20388 20389 20390 20391 20392 20393 20394 20395 20396 20397 20398 20399 20400 20401 20402 20403 20404 20405 20406 20407 20408 20409 20410 20411 20412 20413 20414 20415 20416 20417 20418 20419 20420 20421 20422 20423 20424 20425 20426 20427 20428 20429 20430 20431 20432 20433 20434 20435 20436 20437 20438 20439 20440 20441 20442 20443 20444 20445 20446 20447 20448 20449 20450 20451 20452 20453 20454 20455 20456 20457 20458 20459 20460 20461 20462 20463 20464 20465 20466 20467 20468 20469 20470 20471 20472 20473 20474 20475 20476 20477 20478 20479 20480 20481 20482 20483 20484 20485 20486 20487 20488 20489 20490 20491 20492 20493 20494 20495 20496 20497 20498 20499 20500 20501 20502 20503 20504 20505 20506 20507 20508 20509 20510 20511 20512 20513 20514 20515 20516 20517 20518 20519 20520 20521 20522 20523 20524 20525 20526 20527 20528 20529 20530 20531 20532 20533 20534 20535 20536 20537 20538 20539 20540 20541 20542 20543 20544 20545 20546 20547 20548 20549 20550 20551 20552 20553 20554 20555 20556 20557 20558 20559 20560 20561 20562 20563 20564 20565 20566 20567 20568 20569 20570 20571 20572 20573 20574 20575 20576 20577 20578 20579 20580 20581 20582 20583 20584 20585 20586 20587 20588 20589 20590 20591 20592 20593 20594 20595 20596 20597 20598 20599 20600 20601 20602 20603 20604 20605 20606 20607 20608 20609 20610 20611 20612 20613 20614 20615 20616 20617 20618 20619 20620 20621 20622 20623 20624 20625 20626 20627 20628 20629 20630 20631 20632 20633 20634 20635 20636 20637 20638 20639 20640 20641 20642 20643 20644 20645 20646 20647 20648 20649 20650 20651 20652 20653 20654 20655 20656 20657 20658 20659 20660 20661 20662 20663 20664 20665 20666 20667 20668 20669 20670 20671 20672 20673 20674 20675 20676 20677 20678 20679 20680 20681 20682 20683 20684 20685 20686 20687 20688 20689 20690 20691 20692 20693 20694 20695 20696 20697 20698 20699 20700 20701 20702 20703 20704 20705 20706 20707 20708 20709 20710 20711 20712 20713 20714 20715 20716 20717 20718 20719 20720 20721 20722 20723 20724 20725 20726 20727 20728 20729 20730 20731 20732 20733 20734 20735 20736 20737 20738 20739 20740 20741 20742 20743 20744 20745 20746 20747 20748 20749 20750 20751 20752 20753 20754 20755 20756 20757 20758 20759 20760 20761 20762 20763 20764 20765 20766 20767 20768 20769 20770 20771 20772 20773 20774 20775 20776 20777 20778 20779 20780 20781 20782 20783 20784 20785 20786 20787 20788 20789 20790 20791 20792 20793 20794 20795 20796 20797 20798 20799 20800 20801 20802 20803 20804 20805 20806 20807 20808 20809 20810 20811 20812 20813 20814 20815 20816 20817 20818 20819 20820 20821 20822 20823 20824 20825 20826 20827 20828 20829 20830 20831 20832 20833 20834 20835 20836 20837 20838 20839 20840 20841 20842 20843 20844 20845 20846 20847 20848 20849 20850 20851 20852 20853 20854 20855 20856 20857 20858 20859 20860 20861 20862 20863 20864 20865 20866 20867 20868 20869 20870 20871 20872 20873 20874 20875 20876 20877 20878 20879 20880 20881 20882 20883 20884 20885 20886 20887 20888 20889 20890 20891 20892 20893 20894 20895 20896 20897 20898 20899 20900 20901 20902 20903 20904 20905 20906 20907 20908 20909 20910 20911 20912 20913 20914 20915 20916 20917 20918 20919 20920 20921 20922 20923 20924 20925 20926 20927 20928 20929 20930 20931 20932 20933 20934 20935 20936 20937 20938 20939 20940 20941 20942 20943 20944 20945 20946 20947 20948 20949 20950 20951 20952 20953 20954 20955 20956 20957 20958 20959 20960 20961 20962 20963 20964 20965 20966 20967 20968 20969 20970 20971 20972 20973 20974 20975 20976 20977 20978 20979 20980 20981 20982 20983 20984 20985 20986 20987 20988 20989 20990 20991 20992 20993 20994 20995 20996 20997 20998 20999 21000 21001 21002 21003 21004 21005 21006 21007 21008 21009 21010 21011 21012 21013 21014 21015 21016 21017 21018 21019 21020 21021 21022 21023 21024 21025 21026 21027 21028 21029 21030 21031 21032 21033 21034 21035 21036 21037 21038 21039 21040 21041 21042 21043 21044 21045 21046 21047 21048 21049 21050 21051 21052 21053 21054 21055 21056 21057 21058 21059 21060 21061 21062 21063 21064 21065 21066 21067 21068 21069 21070 21071 21072 21073 21074 21075 21076 21077 21078 21079 21080 21081 21082 21083 21084 21085 21086 21087 21088 21089 21090 21091 21092 21093 21094 21095 21096 21097 21098 21099 21100 21101 21102 21103 21104 21105 21106 21107 21108 21109 21110 21111 21112 21113 21114 21115 21116 21117 21118 21119 21120 21121 21122 21123 21124 21125 21126 21127 21128 21129 21130 21131 21132 21133 21134 21135 21136 21137 21138 21139 21140 21141 21142 21143 21144 21145 21146 21147 21148 21149 21150 21151 21152 21153 21154 21155 21156 21157 21158 21159 21160 21161 21162 21163 21164 21165 21166 21167 21168 21169 21170 21171 21172 21173 21174 21175 21176 21177 21178 21179 21180 21181 21182 21183 21184 21185 21186 21187 21188 21189 21190 21191 21192 21193 21194 21195 21196 21197 21198 21199 21200 21201 21202 21203 21204 21205 21206 21207 21208 21209 21210 21211 21212 21213 21214 21215 21216 21217 21218 21219 21220 21221 21222 21223 21224 21225 21226 21227 21228 21229 21230 21231 21232 21233 21234 21235 21236 21237 21238 21239 21240 21241 21242 21243 21244 21245 21246 21247 21248 21249 21250 21251 21252 21253 21254 21255 21256 21257 21258 21259 21260 21261 21262 21263 21264 21265 21266 21267 21268 21269 21270 21271 21272 21273 21274 21275 21276 21277 21278 21279 21280 21281 21282 21283 21284 21285 21286 21287 21288 21289 21290 21291 21292 21293 21294 21295 21296 21297 21298 21299 21300 21301 21302 21303 21304 21305 21306 21307 21308 21309 21310 21311 21312 21313 21314 21315 21316 21317 21318 21319 21320 21321 21322 21323 21324 21325 21326 21327 21328 21329 21330 21331 21332 21333 21334 21335 21336 21337 21338 21339 21340 21341 21342 21343 21344 21345 21346 21347 21348 21349 21350 21351 21352 21353 21354 21355 21356 21357 21358 21359 21360 21361 21362 21363 21364 21365 21366 21367 21368 21369 21370 21371 21372 21373 21374 21375 21376 21377 21378 21379 21380 21381 21382 21383 21384 21385 21386 21387 21388 21389 21390 21391 21392 21393 21394 21395 21396 21397 21398 21399 21400 21401 21402 21403 21404 21405 21406 21407 21408 21409 21410 21411 21412 21413 21414 21415 21416 21417 21418 21419 21420 21421 21422 21423 21424 21425 21426 21427 21428 21429 21430 21431 21432 21433 21434 21435 21436 21437 21438 21439 21440 21441 21442 21443 21444 21445 21446 21447 21448 21449 21450 21451 21452 21453 21454 21455 21456 21457 21458 21459 21460 21461 21462 21463 21464 21465 21466 21467 21468 21469 21470 21471 21472 21473 21474 21475 21476 21477 21478 21479 21480 21481 21482 21483 21484 21485 21486 21487 21488 21489 21490 21491 21492 21493 21494 21495 21496 21497 21498 21499 21500 21501 21502 21503 21504 21505 21506 21507 21508 21509 21510 21511 21512 21513 21514 21515 21516 21517 21518 21519 21520 21521 21522 21523 21524 21525 21526 21527 21528 21529 21530 21531 21532 21533 21534 21535 21536 21537 21538 21539 21540 21541 21542 21543 21544 21545 21546 21547 21548 21549 21550 21551 21552 21553 21554 21555 21556 21557 21558 21559 21560 21561 21562 21563 21564 21565 21566 21567 21568 21569 21570 21571 21572 21573 21574 21575 21576 21577 21578 21579 21580 21581 21582 21583 21584 21585 21586 21587 21588 21589 21590 21591 21592 21593 21594 21595 21596 21597 21598 21599 21600 21601 21602 21603 21604 21605 21606 21607 21608 21609 21610 21611 21612 21613 21614 21615 21616 21617 21618 21619 21620 21621 21622 21623 21624 21625 21626 21627 21628 21629 21630 21631 21632 21633 21634 21635 21636 21637 21638 21639 21640 21641 21642 21643 21644 21645 21646 21647 21648 21649 21650 21651 21652 21653 21654 21655 21656 21657 21658 21659 21660 21661 21662 21663 21664 21665 21666 21667 21668 21669 21670 21671 21672 21673 21674 21675 21676 21677 21678 21679 21680 21681 21682 21683 21684 21685 21686 21687 21688 21689 21690 21691 21692 21693 21694 21695 21696 21697 21698 21699 21700 21701 21702 21703 21704 21705 21706 21707 21708 21709 21710 21711 21712 21713 21714 21715 21716 21717 21718 21719 21720 21721 21722 21723 21724 21725 21726 21727 21728 21729 21730 21731 21732 21733 21734 21735 21736 21737 21738 21739 21740 21741 21742 21743 21744 21745 21746 21747 21748 21749 21750 21751 21752 21753 21754 21755 21756 21757 21758 21759 21760 21761 21762 21763 21764 21765 21766 21767 21768 21769 21770 21771 21772 21773 21774 21775 21776 21777 21778 21779 21780 21781 21782 21783 21784 21785 21786 21787 21788 21789 21790 21791 21792 21793 21794 21795 21796 21797 21798 21799 21800 21801 21802 21803 21804 21805 21806 21807 21808 21809 21810 21811 21812 21813 21814 21815 21816 21817 21818 21819 21820 21821 21822 21823 21824 21825 21826 21827 21828 21829 21830 21831 21832 21833 21834 21835 21836 21837 21838 21839 21840 21841 21842 21843 21844 21845 21846 21847 21848 21849 21850 21851 21852 21853 21854 21855 21856 21857 21858 21859 21860 21861 21862 21863 21864 21865 21866 21867 21868 21869 21870 21871 21872 21873 21874 21875 21876 21877 21878 21879 21880 21881 21882 21883 21884 21885 21886 21887 21888 21889 21890 21891 21892 21893 21894 21895 21896 21897 21898 21899 21900 21901 21902 21903 21904 21905 21906 21907 21908 21909 21910 21911 21912 21913 21914 21915 21916 21917 21918 21919 21920 21921 21922 21923 21924 21925 21926 21927 21928 21929 21930 21931 21932 21933 21934 21935 21936 21937 21938 21939 21940 21941 21942 21943 21944 21945 21946 21947 21948 21949 21950 21951 21952 21953 21954 21955 21956 21957 21958 21959 21960 21961 21962 21963 21964 21965 21966 21967 21968 21969 21970 21971 21972 21973 21974 21975 21976 21977 21978 21979 21980 21981 21982 21983 21984 21985 21986 21987 21988 21989 21990 21991 21992 21993 21994 21995 21996 21997 21998 21999 22000 22001 22002 22003 22004 22005 22006 22007 22008 22009 22010 22011 22012 22013 22014 22015 22016 22017 22018 22019 22020 22021 22022 22023 22024 22025 22026 22027 22028 22029 22030 22031 22032 22033 22034 22035 22036 22037 22038 22039 22040 22041 22042 22043 22044 22045 22046 22047 22048 22049 22050 22051 22052 22053 22054 22055 22056 22057 22058 22059 22060 22061 22062 22063 22064 22065 22066 22067 22068 22069 22070 22071 22072 22073 22074 22075 22076 22077 22078 22079 22080 22081 22082 22083 22084 22085 22086 22087 22088 22089 22090 22091 22092 22093 22094 22095 22096 22097 22098 22099 22100 22101 22102 22103 22104 22105 22106 22107 22108 22109 22110 22111 22112 22113 22114 22115 22116 22117 22118 22119 22120 22121 22122 22123 22124 22125 22126 22127 22128 22129 22130 22131 22132 22133 22134 22135 22136 22137 22138 22139 22140 22141 22142 22143 22144 22145 22146 22147 22148 22149 22150 22151 22152 22153 22154 22155 22156 22157 22158 22159 22160 22161 22162 22163 22164 22165 22166 22167 22168 22169 22170 22171 22172 22173 22174 22175 22176 22177 22178 22179 22180 22181 22182 22183 22184 22185 22186 22187 22188 22189 22190 22191 22192 22193 22194 22195 22196 22197 22198 22199 22200 22201 22202 22203 22204 22205 22206 22207 22208 22209 22210 22211 22212 22213 22214 22215 22216 22217 22218 22219 22220 22221 22222 22223 22224 22225 22226 22227 22228 22229 22230 22231 22232 22233 22234 22235 22236 22237 22238 22239 22240 22241 22242 22243 22244 22245 22246 22247 22248 22249 22250 22251 22252 22253 22254 22255 22256 22257 22258 22259 22260 22261 22262 22263 22264 22265 22266 22267 22268 22269 22270 22271 22272 22273 22274 22275 22276 22277 22278 22279 22280 22281 22282 22283 22284 22285 22286 22287 22288 22289 22290 22291 22292 22293 22294 22295 22296 22297 22298 22299 22300 22301 22302 22303 22304 22305 22306 22307 22308 22309 22310 22311 22312 22313 22314 22315 22316 22317 22318 22319 22320 22321 22322 22323 22324 22325 22326 22327 22328 22329 22330 22331 22332 22333 22334 22335 22336 22337 22338 22339 22340 22341 22342 22343 22344 22345 22346 22347 22348 22349 22350 22351 22352 22353 22354 22355 22356 22357 22358 22359 22360 22361 22362 22363 22364 22365 22366 22367 22368 22369 22370 22371 22372 22373 22374 22375 22376 22377 22378 22379 22380 22381 22382 22383 22384 22385 22386 22387 22388 22389 22390 22391 22392 22393 22394 22395 22396 22397 22398 22399 22400 22401 22402 22403 22404 22405 22406 22407 22408 22409 22410 22411 22412 22413 22414 22415 22416 22417 22418 22419 22420 22421 22422 22423 22424 22425 22426 22427 22428 22429 22430 22431 22432 22433 22434 22435 22436 22437 22438 22439 22440 22441 22442 22443 22444 22445 22446 22447 22448 22449 22450 22451 22452 22453 22454 22455 22456 22457 22458 22459 22460 22461 22462 22463 22464 22465 22466 22467 22468 22469 22470 22471 22472 22473 22474 22475 22476 22477 22478 22479 22480 22481 22482 22483 22484 22485 22486 22487 22488 22489 22490 22491 22492 22493 22494 22495 22496 22497 22498 22499 22500 22501 22502 22503 22504 22505 22506 22507 22508 22509 22510 22511 22512 22513 22514 22515 22516 22517 22518 22519 22520 22521 22522 22523 22524 22525 22526 22527 22528 22529 22530 22531 22532 22533 22534 22535 22536 22537 22538 22539 22540 22541 22542 22543 22544 22545 22546 22547 22548 22549 22550 22551 22552 22553 22554 22555 22556 22557 22558 22559 22560 22561 22562 22563 22564 22565 22566 22567 22568 22569 22570 22571 22572 22573 22574 22575 22576 22577 22578 22579 22580 22581 22582 22583 22584 22585 22586 22587 22588 22589 22590 22591 22592 22593 22594 22595 22596 22597 22598 22599 22600 22601 22602 22603 22604 22605 22606 22607 22608 22609 22610 22611 22612 22613 22614 22615 22616 22617 22618 22619 22620 22621 22622 22623 22624 22625 22626 22627 22628 22629 22630 22631 22632 22633 22634 22635 22636 22637 22638 22639 22640 22641 22642 22643 22644 22645 22646 22647 22648 22649 22650 22651 22652 22653 22654 22655 22656 22657 22658 22659 22660 22661 22662 22663 22664 22665 22666 22667 22668 22669 22670 22671 22672 22673 22674 22675 22676 22677 22678 22679 22680 22681 22682 22683 22684 22685 22686 22687 22688 22689 22690 22691 22692 22693 22694 22695 22696 22697 22698 22699 22700 22701 22702 22703 22704 22705 22706 22707 22708 22709 22710 22711 22712 22713 22714 22715 22716 22717 22718 22719 22720 22721 22722 22723 22724 22725 22726 22727 22728 22729 22730 22731 22732 22733 22734 22735 22736 22737 22738 22739 22740 22741 22742 22743 22744 22745 22746 22747 22748 22749 22750 22751 22752 22753 22754 22755 22756 22757 22758 22759 22760 22761 22762 22763 22764 22765 22766 22767 22768 22769 22770 22771 22772 22773 22774 22775 22776 22777 22778 22779 22780 22781 22782 22783 22784 22785 22786 22787 22788 22789 22790 22791 22792 22793 22794 22795 22796 22797 22798 22799 22800 22801 22802 22803 22804 22805 22806 22807 22808 22809 22810 22811 22812 22813 22814 22815 22816 22817 22818 22819 22820 22821 22822 22823 22824 22825 22826 22827 22828 22829 22830 22831 22832 22833 22834 22835 22836 22837 22838 22839 22840 22841 22842 22843 22844 22845 22846 22847 22848 22849 22850 22851 22852 22853 22854 22855 22856 22857 22858 22859 22860 22861 22862 22863 22864 22865 22866 22867 22868 22869 22870 22871 22872 22873 22874 22875 22876 22877 22878 22879 22880 22881 22882 22883 22884 22885 22886 22887 22888 22889 22890 22891 22892 22893 22894 22895 22896 22897 22898 22899 22900 22901 22902 22903 22904 22905 22906 22907 22908 22909 22910 22911 22912 22913 22914 22915 22916 22917 22918 22919 22920 22921 22922 22923 22924 22925 22926 22927 22928 22929 22930 22931 22932 22933 22934 22935 22936 22937 22938 22939 22940 22941 22942 22943 22944 22945 22946 22947 22948 22949 22950 22951 22952 22953 22954 22955 22956 22957 22958 22959 22960 22961 22962 22963 22964 22965 22966 22967 22968 22969 22970 22971 22972 22973 22974 22975 22976 22977 22978 22979 22980 22981 22982 22983 22984 22985 22986 22987 22988 22989 22990 22991 22992 22993 22994 22995 22996 22997 22998 22999 23000 23001 23002 23003 23004 23005 23006 23007 23008 23009 23010 23011 23012 23013 23014 23015 23016 23017 23018 23019 23020 23021 23022 23023 23024 23025 23026 23027 23028 23029 23030 23031 23032 23033 23034 23035 23036 23037 23038 23039 23040 23041 23042 23043 23044 23045 23046 23047 23048 23049 23050 23051 23052 23053 23054 23055 23056 23057 23058 23059 23060 23061 23062 23063 23064 23065 23066 23067 23068 23069 23070 23071 23072 23073 23074 23075 23076 23077 23078 23079 23080 23081 23082 23083 23084 23085 23086 23087 23088 23089 23090 23091 23092 23093 23094 23095 23096 23097 23098 23099 23100 23101 23102 23103 23104 23105 23106 23107 23108 23109 23110 23111 23112 23113 23114 23115 23116 23117 23118 23119 23120 23121 23122 23123 23124 23125 23126 23127 23128 23129 23130 23131 23132 23133 23134 23135 23136 23137 23138 23139 23140 23141 23142 23143 23144 23145 23146 23147 23148 23149 23150 23151 23152 23153 23154 23155 23156 23157 23158 23159 23160 23161 23162 23163 23164 23165 23166 23167 23168 23169 23170 23171 23172 23173 23174 23175 23176 23177 23178 23179 23180 23181 23182 23183 23184 23185 23186 23187 23188 23189 23190 23191 23192 23193 23194 23195 23196 23197 23198 23199 23200 23201 23202 23203 23204 23205 23206 23207 23208 23209 23210 23211 23212 23213 23214 23215 23216 23217 23218 23219 23220 23221 23222 23223 23224 23225 23226 23227 23228 23229 23230 23231 23232 23233 23234 23235 23236 23237 23238 23239 23240 23241 23242 23243 23244 23245 23246 23247 23248 23249 23250 23251 23252 23253 23254 23255 23256 23257 23258 23259 23260 23261 23262 23263 23264 23265 23266 23267 23268 23269 23270 23271 23272 23273 23274 23275 23276 23277 23278 23279 23280 23281 23282 23283 23284 23285 23286 23287 23288 23289 23290 23291 23292 23293 23294 23295 23296 23297 23298 23299 23300 23301 23302 23303 23304 23305 23306 23307 23308 23309 23310 23311 23312 23313 23314 23315 23316 23317 23318 23319 23320 23321 23322 23323 23324 23325 23326 23327 23328 23329 23330 23331 23332 23333 23334 23335 23336 23337 23338 23339 23340 23341 23342 23343 23344 23345 23346 23347 23348 23349 23350 23351 23352 23353 23354 23355 23356 23357 23358 23359 23360 23361 23362 23363 23364 23365 23366 23367 23368 23369 23370 23371 23372 23373 23374 23375 23376 23377 23378 23379 23380 23381 23382 23383 23384 23385 23386 23387 23388 23389 23390 23391 23392 23393 23394 23395 23396 23397 23398 23399 23400 23401 23402 23403 23404 23405 23406 23407 23408 23409 23410 23411 23412 23413 23414 23415 23416 23417 23418 23419 23420 23421 23422 23423 23424 23425 23426 23427 23428 23429 23430 23431 23432 23433 23434 23435 23436 23437 23438 23439 23440 23441 23442 23443 23444 23445 23446 23447 23448 23449 23450 23451 23452 23453 23454 23455 23456 23457 23458 23459 23460 23461 23462 23463 23464 23465 23466 23467 23468 23469 23470 23471 23472 23473 23474 23475 23476 23477 23478 23479 23480 23481 23482 23483 23484 23485 23486 23487 23488 23489 23490 23491 23492 23493 23494 23495 23496 23497 23498 23499 23500 23501 23502 23503 23504 23505 23506 23507 23508 23509 23510 23511 23512 23513 23514 23515 23516 23517 23518 23519 23520 23521 23522 23523 23524 23525 23526 23527 23528 23529 23530 23531 23532 23533 23534 23535 23536 23537 23538 23539 23540 23541 23542 23543 23544 23545 23546 23547 23548 23549 23550 23551 23552 23553 23554 23555 23556 23557 23558 23559 23560 23561 23562 23563 23564 23565 23566 23567 23568 23569 23570 23571 23572 23573 23574 23575 23576 23577 23578 23579 23580 23581 23582 23583 23584 23585 23586 23587 23588 23589 23590 23591 23592 23593 23594 23595 23596 23597 23598 23599 23600 23601 23602 23603 23604 23605 23606 23607 23608 23609 23610 23611 23612 23613 23614 23615 23616 23617 23618 23619 23620 23621 23622 23623 23624 23625 23626 23627 23628 23629 23630 23631 23632 23633 23634 23635 23636 23637 23638 23639 23640 23641 23642 23643 23644 23645 23646 23647 23648 23649 23650 23651 23652 23653 23654 23655 23656 23657 23658 23659 23660 23661 23662 23663 23664 23665 23666 23667 23668 23669 23670 23671 23672 23673 23674 23675 23676 23677 23678 23679 23680 23681 23682 23683 23684 23685 23686 23687 23688 23689 23690 23691 23692 23693 23694 23695 23696 23697 23698 23699 23700 23701 23702 23703 23704 23705 23706 23707 23708 23709 23710 23711 23712 23713 23714 23715 23716 23717 23718 23719 23720 23721 23722 23723 23724 23725 23726 23727 23728 23729 23730 23731 23732 23733 23734 23735 23736 23737 23738 23739 23740 23741 23742 23743 23744 23745 23746 23747 23748 23749 23750 23751 23752 23753 23754 23755 23756 23757 23758 23759 23760 23761 23762 23763 23764 23765 23766 23767 23768 23769 23770 23771 23772 23773 23774 23775 23776 23777 23778 23779 23780 23781 23782 23783 23784 23785 23786 23787 23788 23789 23790 23791 23792 23793 23794 23795 23796 23797 23798 23799 23800 23801 23802 23803 23804 23805 23806 23807 23808 23809 23810 23811 23812 23813 23814 23815 23816 23817 23818 23819 23820 23821 23822 23823 23824 23825 23826 23827 23828 23829 23830 23831 23832 23833 23834 23835 23836 23837 23838 23839 23840 23841 23842 23843 23844 23845 23846 23847 23848 23849 23850 23851 23852 23853 23854 23855 23856 23857 23858 23859 23860 23861 23862 23863 23864 23865 23866 23867 23868 23869 23870 23871 23872 23873 23874 23875 23876 23877 23878 23879 23880 23881 23882 23883 23884 23885 23886 23887 23888 23889 23890 23891 23892 23893 23894 23895 23896 23897 23898 23899 23900 23901 23902 23903 23904 23905 23906 23907 23908 23909 23910 23911 23912 23913 23914 23915 23916 23917 23918 23919 23920 23921 23922 23923 23924 23925 23926 23927 23928 23929 23930 23931 23932 23933 23934 23935 23936 23937 23938 23939 23940 23941 23942 23943 23944 23945 23946 23947 23948 23949 23950 23951 23952 23953 23954 23955 23956 23957 23958 23959 23960 23961 23962 23963 23964 23965 23966 23967 23968 23969 23970 23971 23972 23973 23974 23975 23976 23977 23978 23979 23980 23981 23982 23983 23984 23985 23986 23987 23988 23989 23990 23991 23992 23993 23994 23995 23996 23997 23998 23999 24000 24001 24002 24003 24004 24005 24006 24007 24008 24009 24010 24011 24012 24013 24014 24015 24016 24017 24018 24019 24020 24021 24022 24023 24024 24025 24026 24027 24028 24029 24030 24031 24032 24033 24034 24035 24036 24037 24038 24039 24040 24041 24042 24043 24044 24045 24046 24047 24048 24049 24050 24051 24052 24053 24054 24055 24056 24057 24058 24059 24060 24061 24062 24063 24064 24065 24066 24067 24068 24069 24070 24071 24072 24073 24074 24075 24076 24077 24078 24079 24080 24081 24082 24083 24084 24085 24086 24087 24088 24089 24090 24091 24092 24093 24094 24095 24096 24097 24098 24099 24100 24101 24102 24103 24104 24105 24106 24107 24108 24109 24110 24111 24112 24113 24114 24115 24116 24117 24118 24119 24120 24121 24122 24123 24124 24125 24126 24127 24128 24129 24130 24131 24132 24133 24134 24135 24136 24137 24138 24139 24140 24141 24142 24143 24144 24145 24146 24147 24148 24149 24150 24151 24152 24153 24154 24155 24156 24157 24158 24159 24160 24161 24162 24163 24164 24165 24166 24167 24168 24169 24170 24171 24172 24173 24174 24175 24176 24177 24178 24179 24180 24181 24182 24183 24184 24185 24186 24187 24188 24189 24190 24191 24192 24193 24194 24195 24196 24197 24198 24199 24200 24201 24202 24203 24204 24205 24206 24207 24208 24209 24210 24211 24212 24213 24214 24215 24216 24217 24218 24219 24220 24221 24222 24223 24224 24225 24226 24227 24228 24229 24230 24231 24232 24233 24234 24235 24236 24237 24238 24239 24240 24241 24242 24243 24244 24245 24246 24247 24248 24249 24250 24251 24252 24253 24254 24255 24256 24257 24258 24259 24260 24261 24262 24263 24264 24265 24266 24267 24268 24269 24270 24271 24272 24273 24274 24275 24276 24277 24278 24279 24280 24281 24282 24283 24284 24285 24286 24287 24288 24289 24290 24291 24292 24293 24294 24295 24296 24297 24298 24299 24300 24301 24302 24303 24304 24305 24306 24307 24308 24309 24310 24311 24312 24313 24314 24315 24316 24317 24318 24319 24320 24321 24322 24323 24324 24325 24326 24327 24328 24329 24330 24331 24332 24333 24334 24335 24336 24337 24338 24339 24340 24341 24342 24343 24344 24345 24346 24347 24348 24349 24350 24351 24352 24353 24354 24355 24356 24357 24358 24359 24360 24361 24362 24363 24364 24365 24366 24367 24368 24369 24370 24371 24372 24373 24374 24375 24376 24377 24378 24379 24380 24381 24382 24383 24384 24385 24386 24387 24388 24389 24390 24391 24392 24393 24394 24395 24396 24397 24398 24399 24400 24401 24402 24403 24404 24405 24406 24407 24408 24409 24410 24411 24412 24413 24414 24415 24416 24417 24418 24419 24420 24421 24422 24423 24424 24425 24426 24427 24428 24429 24430 24431 24432 24433 24434 24435 24436 24437 24438 24439 24440 24441 24442 24443 24444 24445 24446 24447 24448 24449 24450 24451 24452 24453 24454 24455 24456 24457 24458 24459 24460 24461 24462 24463 24464 24465 24466 24467 24468 24469 24470 24471 24472 24473 24474 24475 24476 24477 24478 24479 24480 24481 24482 24483 24484 24485 24486 24487 24488 24489 24490 24491 24492 24493 24494 24495 24496 24497 24498 24499 24500 24501 24502 24503 24504 24505 24506 24507 24508 24509 24510 24511 24512 24513 24514 24515 24516 24517 24518 24519 24520 24521 24522 24523 24524 24525 24526 24527 24528 24529 24530 24531 24532 24533 24534 24535 24536 24537 24538 24539 24540 24541 24542 24543 24544 24545 24546 24547 24548 24549 24550 24551 24552 24553 24554 24555 24556 24557 24558 24559 24560 24561 24562 24563 24564 24565 24566 24567 24568 24569 24570 24571 24572 24573 24574 24575 24576 24577 24578 24579 24580 24581 24582 24583 24584 24585 24586 24587 24588 24589 24590 24591 24592 24593 24594 24595 24596 24597 24598 24599 24600 24601 24602 24603 24604 24605 24606 24607 24608 24609 24610 24611 24612 24613 24614 24615 24616 24617 24618 24619 24620 24621 24622 24623 24624 24625 24626 24627 24628 24629 24630 24631 24632 24633 24634 24635 24636 24637 24638 24639 24640 24641 24642 24643 24644 24645 24646 24647 24648 24649 24650 24651 24652 24653 24654 24655 24656 24657 24658 24659 24660 24661 24662 24663 24664 24665 24666 24667 24668 24669 24670 24671 24672 24673 24674 24675 24676 24677 24678 24679 24680 24681 24682 24683 24684 24685 24686 24687 24688 24689 24690 24691 24692 24693 24694 24695 24696 24697 24698 24699 24700 24701 24702 24703 24704 24705 24706 24707 24708 24709 24710 24711 24712 24713 24714 24715 24716 24717 24718 24719 24720 24721 24722 24723 24724 24725 24726 24727 24728 24729 24730 24731 24732 24733 24734 24735 24736 24737 24738 24739 24740 24741 24742 24743 24744 24745 24746 24747 24748 24749 24750 24751 24752 24753 24754 24755 24756 24757 24758 24759 24760 24761 24762 24763 24764 24765 24766 24767 24768 24769 24770 24771 24772 24773 24774 24775 24776 24777 24778 24779 24780 24781 24782 24783 24784 24785 24786 24787 24788 24789 24790 24791 24792 24793 24794 24795 24796 24797 24798 24799 24800 24801 24802 24803 24804 24805 24806 24807 24808 24809 24810 24811 24812 24813 24814 24815 24816 24817 24818 24819 24820 24821 24822 24823 24824 24825 24826 24827 24828 24829 24830 24831 24832 24833 24834 24835 24836 24837 24838 24839 24840 24841 24842 24843 24844 24845 24846 24847 24848 24849 24850 24851 24852 24853 24854 24855 24856 24857 24858 24859 24860 24861 24862 24863 24864 24865 24866 24867 24868 24869 24870 24871 24872 24873 24874 24875 24876 24877 24878 24879 24880 24881 24882 24883 24884 24885 24886 24887 24888 24889 24890 24891 24892 24893 24894 24895 24896 24897 24898 24899 24900 24901 24902 24903 24904 24905 24906 24907 24908 24909 24910 24911 24912 24913 24914 24915 24916 24917 24918 24919 24920 24921 24922 24923 24924 24925 24926 24927 24928 24929 24930 24931 24932 24933 24934 24935 24936 24937 24938 24939 24940 24941 24942 24943 24944 24945 24946 24947 24948 24949 24950 24951 24952 24953 24954 24955 24956 24957 24958 24959 24960 24961 24962 24963 24964 24965 24966 24967 24968 24969 24970 24971 24972 24973 24974 24975 24976 24977 24978 24979 24980 24981 24982 24983 24984 24985 24986 24987 24988 24989 24990 24991 24992 24993 24994 24995 24996 24997 24998 24999 25000 25001 25002 25003 25004 25005 25006 25007 25008 25009 25010 25011 25012 25013 25014 25015 25016 25017 25018 25019 25020 25021 25022 25023 25024 25025 25026 25027 25028 25029 25030 25031 25032 25033 25034 25035 25036 25037 25038 25039 25040 25041 25042 25043 25044 25045 25046 25047 25048 25049 25050 25051 25052 25053 25054 25055 25056 25057 25058 25059 25060 25061 25062 25063 25064 25065 25066 25067 25068 25069 25070 25071 25072 25073 25074 25075 25076 25077 25078 25079 25080 25081 25082 25083 25084 25085 25086 25087 25088 25089 25090 25091 25092 25093 25094 25095 25096 25097 25098 25099 25100 25101 25102 25103 25104 25105 25106 25107 25108 25109 25110 25111 25112 25113 25114 25115 25116 25117 25118 25119 25120 25121 25122 25123 25124 25125 25126 25127 25128 25129 25130 25131 25132 25133 25134 25135 25136 25137 25138 25139 25140 25141 25142 25143 25144 25145 25146 25147 25148 25149 25150 25151 25152 25153 25154 25155 25156 25157 25158 25159 25160 25161 25162 25163 25164 25165 25166 25167 25168 25169 25170 25171 25172 25173 25174 25175 25176 25177 25178 25179 25180 25181 25182 25183 25184 25185 25186 25187 25188 25189 25190 25191 25192 25193 25194 25195 25196 25197 25198 25199 25200 25201 25202 25203 25204 25205 25206 25207 25208 25209 25210 25211 25212 25213 25214 25215 25216 25217 25218 25219 25220 25221 25222 25223 25224 25225 25226 25227 25228 25229 25230 25231 25232 25233 25234 25235 25236 25237 25238 25239 25240 25241 25242 25243 25244 25245 25246 25247 25248 25249 25250 25251 25252 25253 25254 25255 25256 25257 25258 25259 25260 25261 25262 25263 25264 25265 25266 25267 25268 25269 25270 25271 25272 25273 25274 25275 25276 25277 25278 25279 25280 25281 25282 25283 25284 25285 25286 25287 25288 25289 25290 25291 25292 25293 25294 25295 25296 25297 25298 25299 25300 25301 25302 25303 25304 25305 25306 25307 25308 25309 25310 25311 25312 25313 25314 25315 25316 25317 25318 25319 25320 25321 25322 25323 25324 25325 25326 25327 25328 25329 25330 25331 25332 25333 25334 25335 25336 25337 25338 25339 25340 25341 25342 25343 25344 25345 25346 25347 25348 25349 25350 25351 25352 25353 25354 25355 25356 25357 25358 25359 25360 25361 25362 25363 25364 25365 25366 25367 25368 25369 25370 25371 25372 25373 25374 25375 25376 25377 25378 25379 25380 25381 25382 25383 25384 25385 25386 25387 25388 25389 25390 25391 25392 25393 25394 25395 25396 25397 25398 25399 25400 25401 25402 25403 25404 25405 25406 25407 25408 25409 25410 25411 25412 25413 25414 25415 25416 25417 25418 25419 25420 25421 25422 25423 25424 25425 25426 25427 25428 25429 25430 25431 25432 25433 25434 25435 25436 25437 25438 25439 25440 25441 25442 25443 25444 25445 25446 25447 25448 25449 25450 25451 25452 25453 25454 25455 25456 25457 25458 25459 25460 25461 25462 25463 25464 25465 25466 25467 25468 25469 25470 25471 25472 25473 25474 25475 25476 25477 25478 25479 25480 25481 25482 25483 25484 25485 25486 25487 25488 25489 25490 25491 25492 25493 25494 25495 25496 25497 25498 25499 25500 25501 25502 25503 25504 25505 25506 25507 25508 25509 25510 25511 25512 25513 25514 25515 25516 25517 25518 25519 25520 25521 25522 25523 25524 25525 25526 25527 25528 25529 25530 25531 25532 25533 25534 25535 25536 25537 25538 25539 25540 25541 25542 25543 25544 25545 25546 25547 25548 25549 25550 25551 25552 25553 25554 25555 25556 25557 25558 25559 25560 25561 25562 25563 25564 25565 25566 25567 25568 25569 25570 25571 25572 25573 25574 25575 25576 25577 25578 25579 25580 25581 25582 25583 25584 25585 25586 25587 25588 25589 25590 25591 25592 25593 25594 25595 25596 25597 25598 25599 25600 25601 25602 25603 25604 25605 25606 25607 25608 25609 25610 25611 25612 25613 25614 25615 25616 25617 25618 25619 25620 25621 25622 25623 25624 25625 25626 25627 25628 25629 25630 25631 25632 25633 25634 25635 25636 25637 25638 25639 25640 25641 25642 25643 25644 25645 25646 25647 25648 25649 25650 25651 25652 25653 25654 25655 25656 25657 25658 25659 25660 25661 25662 25663 25664 25665 25666 25667 25668 25669 25670 25671 25672 25673 25674 25675 25676 25677 25678 25679 25680 25681 25682 25683 25684 25685 25686 25687 25688 25689 25690 25691 25692 25693 25694 25695 25696 25697 25698 25699 25700 25701 25702 25703 25704 25705 25706 25707 25708 25709 25710 25711 25712 25713 25714 25715 25716 25717 25718 25719 25720 25721 25722 25723 25724 25725 25726 25727 25728 25729 25730 25731 25732 25733 25734 25735 25736 25737 25738 25739 25740 25741 25742 25743 25744 25745 25746 25747 25748 25749 25750 25751 25752 25753 25754 25755 25756 25757 25758 25759 25760 25761 25762 25763 25764 25765 25766 25767 25768 25769 25770 25771 25772 25773 25774 25775 25776 25777 25778 25779 25780 25781 25782 25783 25784 25785 25786 25787 25788 25789 25790 25791 25792 25793 25794 25795 25796 25797 25798 25799 25800 25801 25802 25803 25804 25805 25806 25807 25808 25809 25810 25811 25812 25813 25814 25815 25816 25817 25818 25819 25820 25821 25822 25823 25824 25825 25826 25827 25828 25829 25830 25831 25832 25833 25834 25835 25836 25837 25838 25839 25840 25841 25842 25843 25844 25845 25846 25847 25848 25849 25850 25851 25852 25853 25854 25855 25856 25857 25858 25859 25860 25861 25862 25863 25864 25865 25866 25867 25868 25869 25870 25871 25872 25873 25874 25875 25876 25877 25878 25879 25880 25881 25882 25883 25884 25885 25886 25887 25888 25889 25890 25891 25892 25893 25894 25895 25896 25897 25898 25899 25900 25901 25902 25903 25904 25905 25906 25907 25908 25909 25910 25911 25912 25913 25914 25915 25916 25917 25918 25919 25920 25921 25922 25923 25924 25925 25926 25927 25928 25929 25930 25931 25932 25933 25934 25935 25936 25937 25938 25939 25940 25941 25942 25943 25944 25945 25946 25947 25948 25949 25950 25951 25952 25953 25954 25955 25956 25957 25958 25959 25960 25961 25962 25963 25964 25965 25966 25967 25968 25969 25970 25971 25972 25973 25974 25975 25976 25977 25978 25979 25980 25981 25982 25983 25984 25985 25986 25987 25988 25989 25990 25991 25992 25993 25994 25995 25996 25997 25998 25999 26000 26001 26002 26003 26004 26005 26006 26007 26008 26009 26010 26011 26012 26013 26014 26015 26016 26017 26018 26019 26020 26021 26022 26023 26024 26025 26026 26027 26028 26029 26030 26031 26032 26033 26034 26035 26036 26037 26038 26039 26040 26041 26042 26043 26044 26045 26046 26047 26048 26049 26050 26051 26052 26053 26054 26055 26056 26057 26058 26059 26060 26061 26062 26063 26064 26065 26066 26067 26068 26069 26070 26071 26072 26073 26074 26075 26076 26077 26078 26079 26080 26081 26082 26083 26084 26085 26086 26087 26088 26089 26090 26091 26092 26093 26094 26095 26096 26097 26098 26099 26100 26101 26102 26103 26104 26105 26106 26107 26108 26109 26110 26111 26112 26113 26114 26115 26116 26117 26118 26119 26120 26121 26122 26123 26124 26125 26126 26127 26128 26129 26130 26131 26132 26133 26134 26135 26136 26137 26138 26139 26140 26141 26142 26143 26144 26145 26146 26147 26148 26149 26150 26151 26152 26153 26154 26155 26156 26157 26158 26159 26160 26161 26162 26163 26164 26165 26166 26167 26168 26169 26170 26171 26172 26173 26174 26175 26176 26177 26178 26179 26180 26181 26182 26183 26184 26185 26186 26187 26188 26189 26190 26191 26192 26193 26194 26195 26196 26197 26198 26199 26200 26201 26202 26203 26204 26205 26206 26207 26208 26209 26210 26211 26212 26213 26214 26215 26216 26217 26218 26219 26220 26221 26222 26223 26224 26225 26226 26227 26228 26229 26230 26231 26232 26233 26234 26235 26236 26237 26238 26239 26240 26241 26242 26243 26244 26245 26246 26247 26248 26249 26250 26251 26252 26253 26254 26255 26256 26257 26258 26259 26260 26261 26262 26263 26264 26265 26266 26267 26268 26269 26270 26271 26272 26273 26274 26275 26276 26277 26278 26279 26280 26281 26282 26283 26284 26285 26286 26287 26288 26289 26290 26291 26292 26293 26294 26295 26296 26297 26298 26299 26300 26301 26302 26303 26304 26305 26306 26307 26308 26309 26310 26311 26312 26313 26314 26315 26316 26317 26318 26319 26320 26321 26322 26323 26324 26325 26326 26327 26328 26329 26330 26331 26332 26333 26334 26335 26336 26337 26338 26339 26340 26341 26342 26343 26344 26345 26346 26347 26348 26349 26350 26351 26352 26353 26354 26355 26356 26357 26358 26359 26360 26361 26362 26363 26364 26365 26366 26367 26368 26369 26370 26371 26372 26373 26374 26375 26376 26377 26378 26379 26380 26381 26382 26383 26384 26385 26386 26387 26388 26389 26390 26391 26392 26393 26394 26395 26396 26397 26398 26399 26400 26401 26402 26403 26404 26405 26406 26407 26408 26409 26410 26411 26412 26413 26414 26415 26416 26417 26418 26419 26420 26421 26422 26423 26424 26425 26426 26427 26428 26429 26430 26431 26432 26433 26434 26435 26436 26437 26438 26439 26440 26441 26442 26443 26444 26445 26446 26447 26448 26449 26450 26451 26452 26453 26454 26455 26456 26457 26458 26459 26460 26461 26462 26463 26464 26465 26466 26467 26468 26469 26470 26471 26472 26473 26474 26475 26476 26477 26478 26479 26480 26481 26482 26483 26484 26485 26486 26487 26488 26489 26490 26491 26492 26493 26494 26495 26496 26497 26498 26499 26500 26501 26502 26503 26504 26505 26506 26507 26508 26509 26510 26511 26512 26513 26514 26515 26516 26517 26518 26519 26520 26521 26522 26523 26524 26525 26526 26527 26528 26529 26530 26531 26532 26533 26534 26535 26536 26537 26538 26539 26540 26541 26542 26543 26544 26545 26546 26547 26548 26549 26550 26551 26552 26553 26554 26555 26556 26557 26558 26559 26560 26561 26562 26563 26564 26565 26566 26567 26568 26569 26570 26571 26572 26573 26574 26575 26576 26577 26578 26579 26580 26581 26582 26583 26584 26585 26586 26587 26588 26589 26590 26591 26592 26593 26594 26595 26596 26597 26598 26599 26600 26601 26602 26603 26604 26605 26606 26607 26608 26609 26610 26611 26612 26613 26614 26615 26616 26617 26618 26619 26620 26621 26622 26623 26624 26625 26626 26627 26628 26629 26630 26631 26632 26633 26634 26635 26636 26637 26638 26639 26640 26641 26642 26643 26644 26645 26646 26647 26648 26649 26650 26651 26652 26653 26654 26655 26656 26657 26658 26659 26660 26661 26662 26663 26664 26665 26666 26667 26668 26669 26670 26671 26672 26673 26674 26675 26676 26677 26678 26679 26680 26681 26682 26683 26684 26685 26686 26687 26688 26689 26690 26691 26692 26693 26694 26695 26696 26697 26698 26699 26700 26701 26702 26703 26704 26705 26706 26707 26708 26709 26710 26711 26712 26713 26714 26715 26716 26717 26718 26719 26720 26721 26722 26723 26724 26725 26726 26727 26728 26729 26730 26731 26732 26733 26734 26735 26736 26737 26738 26739 26740 26741 26742 26743 26744 26745 26746 26747 26748 26749 26750 26751 26752 26753 26754 26755 26756 26757 26758 26759 26760 26761 26762 26763 26764 26765 26766 26767 26768 26769 26770 26771 26772 26773 26774 26775 26776 26777 26778 26779 26780 26781 26782 26783 26784 26785 26786 26787 26788 26789 26790 26791 26792 26793 26794 26795 26796 26797 26798 26799 26800 26801 26802 26803 26804 26805 26806 26807 26808 26809 26810 26811 26812 26813 26814 26815 26816 26817 26818 26819 26820 26821 26822 26823 26824 26825 26826 26827 26828 26829 26830 26831 26832 26833 26834 26835 26836 26837 26838 26839 26840 26841 26842 26843 26844 26845 26846 26847 26848 26849 26850 26851 26852 26853 26854 26855 26856 26857 26858 26859 26860 26861 26862 26863 26864 26865 26866 26867 26868 26869 26870 26871 26872 26873 26874 26875 26876 26877 26878 26879 26880 26881 26882 26883 26884 26885 26886 26887 26888 26889 26890 26891 26892 26893 26894 26895 26896 26897 26898 26899 26900 26901 26902 26903 26904 26905 26906 26907 26908 26909 26910 26911 26912 26913 26914 26915 26916 26917 26918 26919 26920 26921 26922 26923 26924 26925 26926 26927 26928 26929 26930 26931 26932 26933 26934 26935 26936 26937 26938 26939 26940 26941 26942 26943 26944 26945 26946 26947 26948 26949 26950 26951 26952 26953 26954 26955 26956 26957 26958 26959 26960 26961 26962 26963 26964 26965 26966 26967 26968 26969 26970 26971 26972 26973 26974 26975 26976 26977 26978 26979 26980 26981 26982 26983 26984 26985 26986 26987 26988 26989 26990 26991 26992 26993 26994 26995 26996 26997 26998 26999 27000 27001 27002 27003 27004 27005 27006 27007 27008 27009 27010 27011 27012 27013 27014 27015 27016 27017 27018 27019 27020 27021 27022 27023 27024 27025 27026 27027 27028 27029 27030 27031 27032 27033 27034 27035 27036 27037 27038 27039 27040 27041 27042 27043 27044 27045 27046 27047 27048 27049 27050 27051 27052 27053 27054 27055 27056 27057 27058 27059 27060 27061 27062 27063 27064 27065 27066 27067 27068 27069 27070 27071 27072 27073 27074 27075 27076 27077 27078 27079 27080 27081 27082 27083 27084 27085 27086 27087 27088 27089 27090 27091 27092 27093 27094 27095 27096 27097 27098 27099 27100 27101 27102 27103 27104 27105 27106 27107 27108 27109 27110 27111 27112 27113 27114 27115 27116 27117 27118 27119 27120 27121 27122 27123 27124 27125 27126 27127 27128 27129 27130 27131 27132 27133 27134 27135 27136 27137 27138 27139 27140 27141 27142 27143 27144 27145 27146 27147 27148 27149 27150 27151 27152 27153 27154 27155 27156 27157 27158 27159 27160 27161 27162 27163 27164 27165 27166 27167 27168 27169 27170 27171 27172 27173 27174 27175 27176 27177 27178 27179 27180 27181 27182 27183 27184 27185 27186 27187 27188 27189 27190 27191 27192 27193 27194 27195 27196 27197 27198 27199 27200 27201 27202 27203 27204 27205 27206 27207 27208 27209 27210 27211 27212 27213 27214 27215 27216 27217 27218 27219 27220 27221 27222 27223 27224 27225 27226 27227 27228 27229 27230 27231 27232 27233 27234 27235 27236 27237 27238 27239 27240 27241 27242 27243 27244 27245 27246 27247 27248 27249 27250 27251 27252 27253 27254 27255 27256 27257 27258 27259 27260 27261 27262 27263 27264 27265 27266 27267 27268 27269 27270 27271 27272 27273 27274 27275 27276 27277 27278 27279 27280 27281 27282 27283 27284 27285 27286 27287 27288 27289 27290 27291 27292 27293 27294 27295 27296 27297 27298 27299 27300 27301 27302 27303 27304 27305 27306 27307 27308 27309 27310 27311 27312 27313 27314 27315 27316 27317 27318 27319 27320 27321 27322 27323 27324 27325 27326 27327 27328 27329 27330 27331 27332 27333 27334 27335 27336 27337 27338 27339 27340 27341 27342 27343 27344 27345 27346 27347 27348 27349 27350 27351 27352 27353 27354 27355 27356 27357 27358 27359 27360 27361 27362 27363 27364 27365 27366 27367 27368 27369 27370 27371 27372 27373 27374 27375 27376 27377 27378 27379 27380 27381 27382 27383 27384 27385 27386 27387 27388 27389 27390 27391 27392 27393 27394 27395 27396 27397 27398 27399 27400 27401 27402 27403 27404 27405 27406 27407 27408 27409 27410 27411 27412 27413 27414 27415 27416 27417 27418 27419 27420 27421 27422 27423 27424 27425 27426 27427 27428 27429 27430 27431 27432 27433 27434 27435 27436 27437 27438 27439 27440 27441 27442 27443 27444 27445 27446 27447 27448 27449 27450 27451 27452 27453 27454 27455 27456 27457 27458 27459 27460 27461 27462 27463 27464 27465 27466 27467 27468 27469 27470 27471 27472 27473 27474 27475 27476 27477 27478 27479 27480 27481 27482 27483 27484 27485 27486 27487 27488 27489 27490 27491 27492 27493 27494 27495 27496 27497 27498 27499 27500 27501 27502 27503 27504 27505 27506 27507 27508 27509 27510 27511 27512 27513 27514 27515 27516 27517 27518 27519 27520 27521 27522 27523 27524 27525 27526 27527 27528 27529 27530 27531 27532 27533 27534 27535 27536 27537 27538 27539 27540 27541 27542 27543 27544 27545 27546 27547 27548 27549 27550 27551 27552 27553 27554 27555 27556 27557 27558 27559 27560 27561 27562 27563 27564 27565 27566 27567 27568 27569 27570 27571 27572 27573 27574 27575 27576 27577 27578 27579 27580 27581 27582 27583 27584 27585 27586 27587 27588 27589 27590 27591 27592 27593 27594 27595 27596 27597 27598 27599 27600 27601 27602 27603 27604 27605 27606 27607 27608 27609 27610 27611 27612 27613 27614 27615 27616 27617 27618 27619 27620 27621 27622 27623 27624 27625 27626 27627 27628 27629 27630 27631 27632 27633 27634 27635 27636 27637 27638 27639 27640 27641 27642 27643 27644 27645 27646 27647 27648 27649 27650 27651 27652 27653 27654 27655 27656 27657 27658 27659 27660 27661 27662 27663 27664 27665 27666 27667 27668 27669 27670 27671 27672 27673 27674 27675 27676 27677 27678 27679 27680 27681 27682 27683 27684 27685 27686 27687 27688 27689 27690 27691 27692 27693 27694 27695 27696 27697 27698 27699 27700 27701 27702 27703 27704 27705 27706 27707 27708 27709 27710 27711 27712 27713 27714 27715 27716 27717 27718 27719 27720 27721 27722 27723 27724 27725 27726 27727 27728 27729 27730 27731 27732 27733 27734 27735 27736 27737 27738 27739 27740 27741 27742 27743 27744 27745 27746 27747 27748 27749 27750 27751 27752 27753 27754 27755 27756 27757 27758 27759 27760 27761 27762 27763 27764 27765 27766 27767 27768 27769 27770 27771 27772 27773 27774 27775 27776 27777 27778 27779 27780 27781 27782 27783 27784 27785 27786 27787 27788 27789 27790 27791 27792 27793 27794 27795 27796 27797 27798 27799 27800 27801 27802 27803 27804 27805 27806 27807 27808 27809 27810 27811 27812 27813 27814 27815 27816 27817 27818 27819 27820 27821 27822 27823 27824 27825 27826 27827 27828 27829 27830 27831 27832 27833 27834 27835 27836 27837 27838 27839 27840 27841 27842 27843 27844 27845 27846 27847 27848 27849 27850 27851 27852 27853 27854 27855 27856 27857 27858 27859 27860 27861 27862 27863 27864 27865 27866 27867 27868 27869 27870 27871 27872 27873 27874 27875 27876 27877 27878 27879 27880 27881 27882 27883 27884 27885 27886 27887 27888 27889 27890 27891 27892 27893 27894 27895 27896 27897 27898 27899 27900 27901 27902 27903 27904 27905 27906 27907 27908 27909 27910 27911 27912 27913 27914 27915 27916 27917 27918 27919 27920 27921 27922 27923 27924 27925 27926 27927 27928 27929 27930 27931 27932 27933 27934 27935 27936 27937 27938 27939 27940 27941 27942 27943 27944 27945 27946 27947 27948 27949 27950 27951 27952 27953 27954 27955 27956 27957 27958 27959 27960 27961 27962 27963 27964 27965 27966 27967 27968 27969 27970 27971 27972 27973 27974 27975 27976 27977 27978 27979 27980 27981 27982 27983 27984 27985 27986 27987 27988 27989 27990 27991 27992 27993 27994 27995 27996 27997 27998 27999 28000 28001 28002 28003 28004 28005 28006 28007 28008 28009 28010 28011 28012 28013 28014 28015 28016 28017 28018 28019 28020 28021 28022 28023 28024 28025 28026 28027 28028 28029 28030 28031 28032 28033 28034 28035 28036 28037 28038 28039 28040 28041 28042 28043 28044 28045 28046 28047 28048 28049 28050 28051 28052 28053 28054 28055 28056 28057 28058 28059 28060 28061 28062 28063 28064 28065 28066 28067 28068 28069 28070 28071 28072 28073 28074 28075 28076 28077 28078 28079 28080 28081 28082 28083 28084 28085 28086 28087 28088 28089 28090 28091 28092 28093 28094 28095 28096 28097 28098 28099 28100 28101 28102 28103 28104 28105 28106 28107 28108 28109 28110 28111 28112 28113 28114 28115 28116 28117 28118 28119 28120 28121 28122 28123 28124 28125 28126 28127 28128 28129 28130 28131 28132 28133 28134 28135 28136 28137 28138 28139 28140 28141 28142 28143 28144 28145 28146 28147 28148 28149 28150 28151 28152 28153 28154 28155 28156 28157 28158 28159 28160 28161 28162 28163 28164 28165 28166 28167 28168 28169 28170 28171 28172 28173 28174 28175 28176 28177 28178 28179 28180 28181 28182 28183 28184 28185 28186 28187 28188 28189 28190 28191 28192 28193 28194 28195 28196 28197 28198 28199 28200 28201 28202 28203 28204 28205 28206 28207 28208 28209 28210 28211 28212 28213 28214 28215 28216 28217 28218 28219 28220 28221 28222 28223 28224 28225 28226 28227 28228 28229 28230 28231 28232 28233 28234 28235 28236 28237 28238 28239 28240 28241 28242 28243 28244 28245 28246 28247 28248 28249 28250 28251 28252 28253 28254 28255 28256 28257 28258 28259 28260 28261 28262 28263 28264 28265 28266 28267 28268 28269 28270 28271 28272 28273 28274 28275 28276 28277 28278 28279 28280 28281 28282 28283 28284 28285 28286 28287 28288 28289 28290 28291 28292 28293 28294 28295 28296 28297 28298 28299 28300 28301 28302 28303 28304 28305 28306 28307 28308 28309 28310 28311 28312 28313 28314 28315 28316 28317 28318 28319 28320 28321 28322 28323 28324 28325 28326 28327 28328 28329 28330 28331 28332 28333 28334 28335 28336 28337 28338 28339 28340 28341 28342 28343 28344 28345 28346 28347 28348 28349 28350 28351 28352 28353 28354 28355 28356 28357 28358 28359 28360 28361 28362 28363 28364 28365 28366 28367 28368 28369 28370 28371 28372 28373 28374 28375 28376 28377 28378 28379 28380 28381 28382 28383 28384 28385 28386 28387 28388 28389 28390 28391 28392 28393 28394 28395 28396 28397 28398 28399 28400 28401 28402 28403 28404 28405 28406 28407 28408 28409 28410 28411 28412 28413 28414 28415 28416 28417 28418 28419 28420 28421 28422 28423 28424 28425 28426 28427 28428 28429 28430 28431 28432 28433 28434 28435 28436 28437 28438 28439 28440 28441 28442 28443 28444 28445 28446 28447 28448 28449 28450 28451 28452 28453 28454 28455 28456 28457 28458 28459 28460 28461 28462 28463 28464 28465 28466 28467 28468 28469 28470 28471 28472 28473 28474 28475 28476 28477 28478 28479 28480 28481 28482 28483 28484 28485 28486 28487 28488 28489 28490 28491 28492 28493 28494 28495 28496 28497 28498 28499 28500 28501 28502 28503 28504 28505 28506 28507 28508 28509 28510 28511 28512 28513 28514 28515 28516 28517 28518 28519 28520 28521 28522 28523 28524 28525 28526 28527 28528 28529 28530 28531 28532 28533 28534 28535 28536 28537 28538 28539 28540 28541 28542 28543 28544 28545 28546 28547 28548 28549 28550 28551 28552 28553 28554 28555 28556 28557 28558 28559 28560 28561 28562 28563 28564 28565 28566 28567 28568 28569 28570 28571 28572 28573 28574 28575 28576 28577 28578 28579 28580 28581 28582 28583 28584 28585 28586 28587 28588 28589 28590 28591 28592 28593 28594 28595 28596 28597 28598 28599 28600 28601 28602 28603 28604 28605 28606 28607 28608 28609 28610 28611 28612 28613 28614 28615 28616 28617 28618 28619 28620 28621 28622 28623 28624 28625 28626 28627 28628 28629 28630 28631 28632 28633 28634 28635 28636 28637 28638 28639 28640 28641 28642 28643 28644 28645 28646 28647 28648 28649 28650 28651 28652 28653 28654 28655 28656 28657 28658 28659 28660 28661 28662 28663 28664 28665 28666 28667 28668 28669 28670 28671 28672 28673 28674 28675 28676 28677 28678 28679 28680 28681 28682 28683 28684 28685 28686 28687 28688 28689 28690 28691 28692 28693 28694 28695 28696 28697 28698 28699 28700 28701 28702 28703 28704 28705 28706 28707 28708 28709 28710 28711 28712 28713 28714 28715 28716 28717 28718 28719 28720 28721 28722 28723 28724 28725 28726 28727 28728 28729 28730 28731 28732 28733 28734 28735 28736 28737 28738 28739 28740 28741 28742 28743 28744 28745 28746 28747 28748 28749 28750 28751 28752 28753 28754 28755 28756 28757 28758 28759 28760 28761 28762 28763 28764 28765 28766 28767 28768 28769 28770 28771 28772 28773 28774 28775 28776 28777 28778 28779 28780 28781 28782 28783 28784 28785 28786 28787 28788 28789 28790 28791 28792 28793 28794 28795 28796 28797 28798 28799 28800 28801 28802 28803 28804 28805 28806 28807 28808 28809 28810 28811 28812 28813 28814 28815 28816 28817 28818 28819 28820 28821 28822 28823 28824 28825 28826 28827 28828 28829 28830 28831 28832 28833 28834 28835 28836 28837 28838 28839 28840 28841 28842 28843 28844 28845 28846 28847 28848 28849 28850 28851 28852 28853 28854 28855 28856 28857 28858 28859 28860 28861 28862 28863 28864 28865 28866 28867 28868 28869 28870 28871 28872 28873 28874 28875 28876 28877 28878 28879 28880 28881 28882 28883 28884 28885 28886 28887 28888 28889 28890 28891 28892 28893 28894 28895 28896 28897 28898 28899 28900 28901 28902 28903 28904 28905 28906 28907 28908 28909 28910 28911 28912 28913 28914 28915 28916 28917 28918 28919 28920 28921 28922 28923 28924 28925 28926 28927 28928 28929 28930 28931 28932 28933 28934 28935 28936 28937 28938 28939 28940 28941 28942 28943 28944 28945 28946 28947 28948 28949 28950 28951 28952 28953 28954 28955 28956 28957 28958 28959 28960 28961 28962 28963 28964 28965 28966 28967 28968 28969 28970 28971 28972 28973 28974 28975 28976 28977 28978 28979 28980 28981 28982 28983 28984 28985 28986 28987 28988 28989 28990 28991 28992 28993 28994 28995 28996 28997 28998 28999 29000 29001 29002 29003 29004 29005 29006 29007 29008 29009 29010 29011 29012 29013 29014 29015 29016 29017 29018 29019 29020 29021 29022 29023 29024 29025 29026 29027 29028 29029 29030 29031 29032 29033 29034 29035 29036 29037 29038 29039 29040 29041 29042 29043 29044 29045 29046 29047 29048 29049 29050 29051 29052 29053 29054 29055 29056 29057 29058 29059 29060 29061 29062 29063 29064 29065 29066 29067 29068 29069 29070 29071 29072 29073 29074 29075 29076 29077 29078 29079 29080 29081 29082 29083 29084 29085 29086 29087 29088 29089 29090 29091 29092 29093 29094 29095 29096 29097 29098 29099 29100 29101 29102 29103 29104 29105 29106 29107 29108 29109 29110 29111 29112 29113 29114 29115 29116 29117 29118 29119 29120 29121 29122 29123 29124 29125 29126 29127 29128 29129 29130 29131 29132 29133 29134 29135 29136 29137 29138 29139 29140 29141 29142 29143 29144 29145 29146 29147 29148 29149 29150 29151 29152 29153 29154 29155 29156 29157 29158 29159 29160 29161 29162 29163 29164 29165 29166 29167 29168 29169 29170 29171 29172 29173 29174 29175 29176 29177 29178 29179 29180 29181 29182 29183 29184 29185 29186 29187 29188 29189 29190 29191 29192 29193 29194 29195 29196 29197 29198 29199 29200 29201 29202 29203 29204 29205 29206 29207 29208 29209 29210 29211 29212 29213 29214 29215 29216 29217 29218 29219 29220 29221 29222 29223 29224 29225 29226 29227 29228 29229 29230 29231 29232 29233 29234 29235 29236 29237 29238 29239 29240 29241 29242 29243 29244 29245 29246 29247 29248 29249 29250 29251 29252 29253 29254 29255 29256 29257 29258 29259 29260 29261 29262 29263 29264 29265 29266 29267 29268 29269 29270 29271 29272 29273 29274 29275 29276 29277 29278 29279 29280 29281 29282 29283 29284 29285 29286 29287 29288 29289 29290 29291 29292 29293 29294 29295 29296 29297 29298 29299 29300 29301 29302 29303 29304 29305 29306 29307 29308 29309 29310 29311 29312 29313 29314 29315 29316 29317 29318 29319 29320 29321 29322 29323 29324 29325 29326 29327 29328 29329 29330 29331 29332 29333 29334 29335 29336 29337 29338 29339 29340 29341 29342 29343 29344 29345 29346 29347 29348 29349 29350 29351 29352 29353 29354 29355 29356 29357 29358 29359 29360 29361 29362 29363 29364 29365 29366 29367 29368 29369 29370 29371 29372 29373 29374 29375 29376 29377 29378 29379 29380 29381 29382 29383 29384 29385 29386 29387 29388 29389 29390 29391 29392 29393 29394 29395 29396 29397 29398 29399 29400 29401 29402 29403 29404 29405 29406 29407 29408 29409 29410 29411 29412 29413 29414 29415 29416 29417 29418 29419 29420 29421 29422 29423 29424 29425 29426 29427 29428 29429 29430 29431 29432 29433 29434 29435 29436 29437 29438 29439 29440 29441 29442 29443 29444 29445 29446 29447 29448 29449 29450 29451 29452 29453 29454 29455 29456 29457 29458 29459 29460 29461 29462 29463 29464 29465 29466 29467 29468 29469 29470 29471 29472 29473 29474 29475 29476 29477 29478 29479 29480 29481 29482 29483 29484 29485 29486 29487 29488 29489 29490 29491 29492 29493 29494 29495 29496 29497 29498 29499 29500 29501 29502 29503 29504 29505 29506 29507 29508 29509 29510 29511 29512 29513 29514 29515 29516 29517 29518 29519 29520 29521 29522 29523 29524 29525 29526 29527 29528 29529 29530 29531 29532 29533 29534 29535 29536 29537 29538 29539 29540 29541 29542 29543 29544 29545 29546 29547 29548 29549 29550 29551 29552 29553 29554 29555 29556 29557 29558 29559 29560 29561 29562 29563 29564 29565 29566 29567 29568 29569 29570 29571 29572 29573 29574 29575 29576 29577 29578 29579 29580 29581 29582 29583 29584 29585 29586 29587 29588 29589 29590 29591 29592 29593 29594 29595 29596 29597 29598 29599 29600 29601 29602 29603 29604 29605 29606 29607 29608 29609 29610 29611 29612 29613 29614 29615 29616 29617 29618 29619 29620 29621 29622 29623 29624 29625 29626 29627 29628 29629 29630 29631 29632 29633 29634 29635 29636 29637 29638 29639 29640 29641 29642 29643 29644 29645 29646 29647 29648 29649 29650 29651 29652 29653 29654 29655 29656 29657 29658 29659 29660 29661 29662 29663 29664 29665 29666 29667 29668 29669 29670 29671 29672 29673 29674 29675 29676 29677 29678 29679 29680 29681 29682 29683 29684 29685 29686 29687 29688 29689 29690 29691 29692 29693 29694 29695 29696 29697 29698 29699 29700 29701 29702 29703 29704 29705 29706 29707 29708 29709 29710 29711 29712 29713 29714 29715 29716 29717 29718 29719 29720 29721 29722 29723 29724 29725 29726 29727 29728 29729 29730 29731 29732 29733 29734 29735 29736 29737 29738 29739 29740 29741 29742 29743 29744 29745 29746 29747 29748 29749 29750 29751 29752 29753 29754 29755 29756 29757 29758 29759 29760 29761 29762 29763 29764 29765 29766 29767 29768 29769 29770 29771 29772 29773 29774 29775 29776 29777 29778 29779 29780 29781 29782 29783 29784 29785 29786 29787 29788 29789 29790 29791 29792 29793 29794 29795 29796 29797 29798 29799 29800 29801 29802 29803 29804 29805 29806 29807 29808 29809 29810 29811 29812 29813 29814 29815 29816 29817 29818 29819 29820 29821 29822 29823 29824 29825 29826 29827 29828 29829 29830 29831 29832 29833 29834 29835 29836 29837 29838 29839 29840 29841 29842 29843 29844 29845 29846 29847 29848 29849 29850 29851 29852 29853 29854 29855 29856 29857 29858 29859 29860 29861 29862 29863 29864 29865 29866 29867 29868 29869 29870 29871 29872 29873 29874 29875 29876 29877 29878 29879 29880 29881 29882 29883 29884 29885 29886 29887 29888 29889 29890 29891 29892 29893 29894 29895 29896 29897 29898 29899 29900 29901 29902 29903 29904 29905 29906 29907 29908 29909 29910 29911 29912 29913 29914 29915 29916 29917 29918 29919 29920 29921 29922 29923 29924 29925 29926 29927 29928 29929 29930 29931 29932 29933 29934 29935 29936 29937 29938 29939 29940 29941 29942 29943 29944 29945 29946 29947 29948 29949 29950 29951 29952 29953 29954 29955 29956 29957 29958 29959 29960 29961 29962 29963 29964 29965 29966 29967 29968 29969 29970 29971 29972 29973 29974 29975 29976 29977 29978 29979 29980 29981 29982 29983 29984 29985 29986 29987 29988 29989 29990 29991 29992 29993 29994 29995 29996 29997 29998 29999 30000 30001 30002 30003 30004 30005 30006 30007 30008 30009 30010 30011 30012 30013 30014 30015 30016 30017 30018 30019 30020 30021 30022 30023 30024 30025 30026 30027 30028 30029 30030 30031 30032 30033 30034 30035 30036 30037 30038 30039 30040 30041 30042 30043 30044 30045 30046 30047 30048 30049 30050 30051 30052 30053 30054 30055 30056 30057 30058 30059 30060 30061 30062 30063 30064 30065 30066 30067 30068 30069 30070 30071 30072 30073 30074 30075 30076 30077 30078 30079 30080 30081 30082 30083 30084 30085 30086 30087 30088 30089 30090 30091 30092 30093 30094 30095 30096 30097 30098 30099 30100 30101 30102 30103 30104 30105 30106 30107 30108 30109 30110 30111 30112 30113 30114 30115 30116 30117 30118 30119 30120 30121 30122 30123 30124 30125 30126 30127 30128 30129 30130 30131 30132 30133 30134 30135 30136 30137 30138 30139 30140 30141 30142 30143 30144 30145 30146 30147 30148 30149 30150 30151 30152 30153 30154 30155 30156 30157 30158 30159 30160 30161 30162 30163 30164 30165 30166 30167 30168 30169 30170 30171 30172 30173 30174 30175 30176 30177 30178 30179 30180 30181 30182 30183 30184 30185 30186 30187 30188 30189 30190 30191 30192 30193 30194 30195 30196 30197 30198 30199 30200 30201 30202 30203 30204 30205 30206 30207 30208 30209 30210 30211 30212 30213 30214 30215 30216 30217 30218 30219 30220 30221 30222 30223 30224 30225 30226 30227 30228 30229 30230 30231 30232 30233 30234 30235 30236 30237 30238 30239 30240 30241 30242 30243 30244 30245 30246 30247 30248 30249 30250 30251 30252 30253 30254 30255 30256 30257 30258 30259 30260 30261 30262 30263 30264 30265 30266 30267 30268 30269 30270 30271 30272 30273 30274 30275 30276 30277 30278 30279 30280 30281 30282 30283 30284 30285 30286 30287 30288 30289 30290 30291 30292 30293 30294 30295 30296 30297 30298 30299 30300 30301 30302 30303 30304 30305 30306 30307 30308 30309 30310 30311 30312 30313 30314 30315 30316 30317 30318 30319 30320 30321 30322 30323 30324 30325 30326 30327 30328 30329 30330 30331 30332 30333 30334 30335 30336 30337 30338 30339 30340 30341 30342 30343 30344 30345 30346 30347 30348 30349 30350 30351 30352 30353 30354 30355 30356 30357 30358 30359 30360 30361 30362 30363 30364 30365 30366 30367 30368 30369 30370 30371 30372 30373 30374 30375 30376 30377 30378 30379 30380 30381 30382 30383 30384 30385 30386 30387 30388 30389 30390 30391 30392 30393 30394 30395 30396 30397 30398 30399 30400 30401 30402 30403 30404 30405 30406 30407 30408 30409 30410 30411 30412 30413 30414 30415 30416 30417 30418 30419 30420 30421 30422 30423 30424 30425 30426 30427 30428 30429 30430 30431 30432 30433 30434 30435 30436 30437 30438 30439 30440 30441 30442 30443 30444 30445 30446 30447 30448 30449 30450 30451 30452 30453 30454 30455 30456 30457 30458 30459 30460 30461 30462 30463 30464 30465 30466 30467 30468 30469 30470 30471 30472 30473 30474 30475 30476 30477 30478 30479 30480 30481 30482 30483 30484 30485 30486 30487 30488 30489 30490 30491 30492 30493 30494 30495 30496 30497 30498 30499 30500 30501 30502 30503 30504 30505 30506 30507 30508 30509 30510 30511 30512 30513 30514 30515 30516 30517 30518 30519 30520 30521 30522 30523 30524 30525 30526 30527 30528 30529 30530 30531 30532 30533 30534 30535 30536 30537 30538 30539 30540 30541 30542 30543 30544 30545 30546 30547 30548 30549 30550 30551 30552 30553 30554 30555 30556 30557 30558 30559 30560 30561 30562 30563 30564 30565 30566 30567 30568 30569 30570 30571 30572 30573 30574 30575 30576 30577 30578 30579 30580 30581 30582 30583 30584 30585 30586 30587 30588 30589 30590 30591 30592 30593 30594 30595 30596 30597 30598 30599 30600 30601 30602 30603 30604 30605 30606 30607 30608 30609 30610 30611 30612 30613 30614 30615 30616 30617 30618 30619 30620 30621 30622 30623 30624 30625 30626 30627 30628 30629 30630 30631 30632 30633 30634 30635 30636 30637 30638 30639 30640 30641 30642 30643 30644 30645 30646 30647 30648 30649 30650 30651 30652 30653 30654 30655 30656 30657 30658 30659 30660 30661 30662 30663 30664 30665 30666 30667 30668 30669 30670 30671 30672 30673 30674 30675 30676 30677 30678 30679 30680 30681 30682 30683 30684 30685 30686 30687 30688 30689 30690 30691 30692 30693 30694 30695 30696 30697 30698 30699 30700 30701 30702 30703 30704 30705 30706 30707 30708 30709 30710 30711 30712 30713 30714 30715 30716 30717 30718 30719 30720 30721 30722 30723 30724 30725 30726 30727 30728 30729 30730 30731 30732 30733 30734 30735 30736 30737 30738 30739 30740 30741 30742 30743 30744 30745 30746 30747 30748 30749 30750 30751 30752 30753 30754 30755 30756 30757 30758 30759 30760 30761 30762 30763 30764 30765 30766 30767 30768 30769 30770 30771 30772 30773 30774 30775 30776 30777 30778 30779 30780 30781 30782 30783 30784 30785 30786 30787 30788 30789 30790 30791 30792 30793 30794 30795 30796 30797 30798 30799 30800 30801 30802 30803 30804 30805 30806 30807 30808 30809 30810 30811 30812 30813 30814 30815 30816 30817 30818 30819 30820 30821 30822 30823 30824 30825 30826 30827 30828 30829 30830 30831 30832 30833 30834 30835 30836 30837 30838 30839 30840 30841 30842 30843 30844 30845 30846 30847 30848 30849 30850 30851 30852 30853 30854 30855 30856 30857 30858 30859 30860 30861 30862 30863 30864 30865 30866 30867 30868 30869 30870 30871 30872 30873 30874 30875 30876 30877 30878 30879 30880 30881 30882 30883 30884 30885 30886 30887 30888 30889 30890 30891 30892 30893 30894 30895 30896 30897 30898 30899 30900 30901 30902 30903 30904 30905 30906 30907 30908 30909 30910 30911 30912 30913 30914 30915 30916 30917 30918 30919 30920 30921 30922 30923 30924 30925 30926 30927 30928 30929 30930 30931 30932 30933 30934 30935 30936 30937 30938 30939 30940 30941 30942 30943 30944 30945 30946 30947 30948 30949 30950 30951 30952 30953 30954 30955 30956 30957 30958 30959 30960 30961 30962 30963 30964 30965 30966 30967 30968 30969 30970 30971 
</DataArray>
<DataArray type="UInt32" Name="offsets" format="ascii">
3 6 9 12 15 18 21 24 26 29 32 35 38 40 42 44 47 50 53 56 59 61 64 66 69 72 75 78 81 84 87 90 92 95 98 101 104 106 109 112 115 118 121 124 127 130 133 136 139 141 144 147 150 152 155 158 160 163 165 168 171 173 176 179 182 184 186 189 191 193 196 198 201 204 207 210 213 216 219 222 224 227 230 232 235 237 240 243 246 249 252 254 257 260 262 265 268 270 273 276 279 282 285 288 291 294 297 300 302 305 308 311 314 316 319 322 325 328 331 333 336 338 341 344 347 349 351 353 356 359 362 365 367 370 373 376 379 381 384 387 390 393 396 399 402 404 407 410 413 416 419 421 424 427 430 433 436 439 442 445 448 451 454 457 460 463 466 469 472 475 478 480 482 485 488 491 494 497 500 503 506 509 512 515 518 521 524 526 529 532 535 538 541 543 546 549 552 555 558 561 563 566 569 572 575 578 581 584 587 589 592 595 598 601 603 606 609 612 615 618 620 623 626 629 631 634 637 640 643 646 649 652 654 657 660 663 665 667 670 673 676 679 682 685 688 690 693 696 698 701 704 707 710 713 716 719 722 725 728 730 733 736 739 742 745 747 750 752 755 758 760 763 766 769 772 775 778 781 784 786 789 792 794 797 800 803 805 808 810 813 816 819 822 825 827 830 832 834 837 840 843 846 849 852 854 857 860 863 866 869 872 875 878 881 884 887 890 893 896 899 902 905 908 911 914 917 920 923 926 929 932 934 937 940 942 945 948 951 954 957 960 963 966 969 972 975 978 981 984 987 990 992 995 998 1001 1004 1007 1010 1013 1015 1018 1021 1024 1027 1030 1033 1036 1039 1042 1045 1048 1051 1054 1057 1060 1063 1066 1069 1072 1074 1077 1080 1083 1086 1089 1092 1094 1097 1100 1103 1106 1109 1112 1115 1118 1121 1124 1127 1130 1133 1136 1139 1142 1145 1147 1149 1152 1155 1158 1161 1164 1167 1170 1173 1175 1178 1181 1183 1186 1189 1191 1194 1197 1200 1203 1206 1208 1211 1214 1217 1220 1222 1225 1228 1231 1234 1237 1240 1242 1245 1248 1251 1254 1257 1260 1263 1266 1269 1272 1274 1277 1280 1283 1285 1288 1291 1294 1297 1300 1302 1305 1308 1311 1314 1316 1319 1322 1325 1328 1331 1334 1337 1339 1342 1345 1348 1351 1354 1357 1359 1362 1365 1367 1370 1373 1376 1379 1382 1385 1388 1391 1394 1397 1400 1403 1406 1408 1411 1414 1417 1420 1422 1425 1428 1431 1434 1436 1439 1442 1444 1447 1449 1452 1455 1458 1460 1463 1466 1469 1472 1475 1477 1480 1483 1486 1489 1492 1495 1497 1500 1503 1506 1509 1512 1515 1518 1521 1523 1526 1529 1531 1534 1537 1539 1542 1545 1547 1550 1553 1555 1558 1561 1564 1567 1569 1572 1575 1578 1581 1584 1587 1590 1592 1595 1598 1600 1603 1606 1609 1612 1614 1617 1620 1623 1626 1629 1632 1634 1636 1638 1641 1644 1647 1650 1653 1656 1658 1661 1664 1667 1670 1673 1676 1679 1682 1685 1688 1691 1694 1697 1700 1703 1706 1709 1712 1715 1718 1721 1724 1727 1730 1733 1736 1739 1742 1745 1748 1751 1754 1757 1760 1762 1765 1768 1771 1774 1777 1780 1783 1785 1788 1791 1794 1797 1799 1802 1805 1808 1811 1814 1817 1820 1823 1826 1829 1832 1835 1838 1841 1844 1847 1850 1853 1856 1859 1862 1865 1867 1870 1873 1875 1878 1881 1884 1887 1890 1892 1895 1898 1900 1903 1906 1908 1911 1913 1916 1919 1922 1925 1928 1930 1933 1936 1939 1942 1944 1947 1950 1953 1956 1959 1962 1965 1968 1970 1973 1976 1979 1981 1983 1985 1987 1990 1993 1996 1999 2002 2005 2008 2011 2014 2017 2019 2022 2024 2027 2030 2032 2035 2038 2041 2044 2047 2050 2053 2056 2059 2062 2065 2068 2071 2074 2076 2078 2080 2083 2086 2088 2091 2094 2096 2098 2101 2104 2107 2110 2112 2115 2118 2120 2123 2126 2128 2131 2134 2137 2140 2143 2146 2149 2152 2155 2158 2161 2164 2166 2169 2172 2175 2178 2181 2183 2186 2188 2191 2194 2196 2198 2201 2204 2207 2210 2213 2215 2218 2221 2223 2226 2229 2231 2234 2237 2239 2242 2245 2247 2249 2252 2255 2257 2260 2263 2265 2268 2270 2272 2275 2278 2281 2284 2286 2289 2292 2295 2297 2300 2302 2305 2308 2311 2313 2316 2319 2322 2324 2327 2330 2333 2335 2338 2341 2343 2345 2348 2351 2354 2356 2359 2362 2365 2368 2370 2373 2375 2378 2381 2384 2386 2389 2391 2394 2397 2400 2403 2406 2409 2412 2415 2418 2421 2424 2427 2430 2433 2436 2439 2442 2444 2447 2450 2453 2456 2459 2462 2465 2467 2470 2473 2476 2479 2482 2485 2488 2491 2494 2497 2500 2503 2506 2509 2512 2515 2518 2521 2524 2527 2530 2533 2536 2539 2542 2545 2548 2551 2554 2557 2560 2563 2566 2569 2572 2575 2578 2581 2583 2586 2589 2592 2595 2598 2601 2604 2607 2610 2613 2616 2619 2622 2625 2628 2631 2634 2637 2640 2643 2646 2649 2652 2655 2658 2661 2664 2667 2670 2673 2676 2679 2682 2685 2688 2691 2694 2697 2700 2703 2706 2708 2711 2714 2716 2719 2721 2724 2727 2730 2733 2736 2738 2740 2742 2745 2748 2751 2754 2757 2760 2763 2766 2768 2771 2774 2777 2780 2783 2786 2789 2792 2795 2798 2800 2803 2806 2809 2812 2815 2817 2820 2823 2826 2829 2832 2835 2837 2840 2843 2846 2849 2852 2854 2856 2859 2862 2865 2868 2871 2874 2877 2880 2883 2886 2889 2892 2894 2896 2899 2902 2905 2908 2911 2914 2917 2920 2922 2925 2928 2931 2934 2937 2940 2942 2945 2948 2951 2954 2957 2960 2963 2966 2969 2972 2975 2978 2981 2984 2987 2990 2993 2996 2999 3002 3005 3008 3011 3014 3017 3020 3023 3026 3029 3032 3035 3037 3040 3043 3046 3049 3052 3055 3057 3060 3063 3066 3069 3072 3074 3077 3080 3083 3086 3088 3091 3093 3096 3099 3102 3105 3107 3110 3113 3116 3119 3122 3124 3127 3130 3133 3136 3139 3141 3144 3147 3150 3152 3155 3158 3161 3163 3166 3169 3172 3175 3178 3181 3184 3187 3190 3193 3196 3199 3202 3205 3208 3211 3213 3216 3218 3221 3224 3227 3230 3232 3235 3238 3241 3243 3246 3249 3251 3254 3257 3260 3262 3264 3267 3270 3273 3276 3279 3282 3285 3288 3291 3294 3297 3300 3303 3306 3309 3312 3315 3318 3321 3324 3326 3329 3332 3334 3337 3340 3343 3346 3348 3351 3354 3357 3359 3362 3365 3368 3371 3373 3376 3379 3382 3385 3388 3391 3394 3397 3400 3403 3406 3409 3412 3415 3418 3421 3424 3427 3430 3433 3436 3439 3442 3444 3447 3450 3453 3456 3459 3462 3465 3468 3471 3474 3477 3480 3483 3486 3489 3492 3495 3498 3501 3504 3507 3510 3513 3516 3519 3521 3523 3526 3529 3532 3535 3538 3541 3544 3547 3550 3553 3556 3559 3562 3565 3568 3571 3574 3577 3580 3583 3586 3589 3592 3595 3598 3601 3603 3606 3609 3612 3615 3618 3621 3624 3627 3630 3633 3636 3639 3642 3645 3648 3651 3654 3657 3660 3663 3666 3669 3672 3675 3678 3681 3684 3686 3689 3692 3695 3698 3701 3704 3707 3709 3712 3715 3718 3721 3724 3727 3730 3733 3736 3739 3742 3745 3748 3751 3754 3757 3760 3763 3766 3769 3771 3773 3776 3779 3782 3785 3788 3791 3794 3797 3800 3803 3806 3809 3812 3815 3818 3821 3824 3827 3829 3831 3834 3837 3839 3842 3845 3848 3851 3854 3857 3860 3863 3866 3868 3870 3872 3875 3878 3881 3884 3886 3889 3892 3894 3897 3900 3903 3906 3908 3911 3914 3917 3920 3923 3926 3929 3931 3934 3937 3940 3943 3946 3949 3951 3953 3955 3958 3961 3964 3967 3970 3973 3976 3979 3982 3985 3988 3991 3994 3997 4000 4002 4005 4008 4011 4014 4017 4020 4022 4025 4028 4031 4034 4037 4040 4043 4046 4049 4052 4055 4057 4059 4062 4065 4068 4071 4073 4076 4079 4082 4084 4087 4090 4093 4096 4099 4102 4105 4108 4111 4114 4117 4120 4123 4126 4129 4132 4134 4136 4139 4141 4143 4146 4149 4152 4154 4157 4159 4162 4165 4168 4171 4174 4176 4179 4182 4185 4188 4191 4194 4197 4200 4203 4205 4208 4211 4214 4217 4220 4222 4225 4228 4231 4233 4236 4238 4241 4244 4247 4250 4252 4255 4257 4260 4263 4266 4269 4272 4274 4277 4280 4283 4286 4289 4292 4295 4298 4301 4304 4307 4310 4313 4316 4319 4321 4324 4327 4330 4333 4335 4338 4341 4344 4347 4350 4353 4356 4359 4362 4365 4368 4371 4374 4377 4380 4383 4386 4389 4392 4395 4398 4401 4404 4407 4410 4413 4416 4419 4422 4425 4428 4431 4434 4437 4440 4443 4446 4449 4452 4455 4458 4461 4464 4466 4469 4471 4474 4476 4479 4482 4485 4488 4491 4494 4497 4499 4502 4505 4508 4510 4513 4516 4519 4522 4525 4528 4531 4534 4536 4539 4542 4545 4548 4551 4554 4557 4560 4562 4565 4568 4571 4574 4577 4580 4583 4586 4589 4592 4595 4598 4601 4604 4607 4610 4613 4616 4619 4622 4625 4628 4631 4634 4637 4640 4643 4646 4649 4652 4655 4658 4661 4664 4667 4670 4673 4676 4679 4682 4685 4688 4691 4694 4697 4700 4703 4706 4709 4712 4715 4718 4721 4724 4727 4730 4733 4735 4738 4741 4744 4747 4750 4753 4756 4759 4762 4764 4767 4770 4772 4775 4778 4780 4783 4786 4789 4791 4793 4796 4798 4800 4803 4806 4809 4811 4814 4817 4819 4822 4825 4828 4831 4834 4837 4839 4842 4845 4848 4851 4854 4857 4860 4863 4866 4869 4872 4875 4878 4880 4882 4885 4888 4891 4893 4896 4899 4902 4905 4908 4910 4913 4916 4919 4922 4924 4927 4930 4932 4935 4937 4940 4942 4945 4947 4950 4952 4955 4957 4960 4963 4966 4969 4972 4975 4978 4981 4983 4985 4988 4991 4994 4997 5000 5003 5006 5009 5012 5015 5018 5021 5024 5027 5030 5033 5036 5039 5042 5045 5048 5051 5054 5057 5060 5063 5066 5069 5072 5075 5078 5080 5083 5086 5089 5092 5095 5098 5100 5103 5106 5109 5112 5115 5118 5120 5123 5126 5129 5132 5134 5137 5139 5142 5145 5148 5151 5154 5157 5160 5163 5166 5169 5171 5174 5177 5180 5182 5185 5188 5191 5194 5197 5200 5203 5206 5209 5212 5215 5217 5220 5223 5226 5229 5232 5235 5238 5241 5244 5247 5250 5253 5256 5259 5261 5264 5267 5270 5272 5274 5277 5279 5282 5285 5287 5290 5293 5296 5298 5300 5303 5306 5309 5312 5315 5317 5320 5323 5325 5328 5331 5333 5336 5339 5342 5345 5347 5350 5353 5356 5359 5362 5365 5368 5371 5374 5377 5380 5383 5386 5389 5392 5394 5397 5400 5403 5406 5409 5412 5415 5417 5420 5423 5426 5429 5432 5435 5438 5440 5443 5446 5449 5452 5455 5458 5461 5464 5467 5470 5473 5476 5479 5482 5485 5488 5491 5494 5497 5500 5503 5505 5508 5511 5514 5517 5520 5522 5525 5528 5530 5533 5536 5538 5541 5544 5547 5550 5553 5556 5559 5562 5565 5568 5571 5574 5577 5580 5583 5586 5589 5592 5595 5598 5601 5604 5607 5610 5613 5616 5619 5622 5625 5628 5631 5634 5637 5640 5643 5646 5649 5652 5655 5658 5661 5664 5667 5670 5673 5676 5679 5682 5685 5688 5690 5693 5696 5698 5701 5704 5707 5709 5712 5715 5718 5721 5724 5727 5730 5733 5736 5739 5742 5745 5748 5750 5753 5756 5759 5762 5765 5768 5770 5773 5776 5779 5781 5784 5787 5790 5792 5795 5798 5800 5803 5806 5809 5812 5814 5817 5820 5823 5826 5829 5832 5835 5838 5840 5843 5846 5849 5852 5855 5858 5861 5864 5867 5870 5873 5875 5878 5881 5884 5887 5890 5893 5896 5899 5902 5905 5907 5910 5913 5916 5918 5921 5924 5927 5930 5933 5936 5939 5942 5945 5948 5951 5953 5956 5958 5961 5964 5967 5969 5972 5975 5978 5981 5984 5987 5990 5993 5995 5998 6001 6004 6007 6010 6013 6016 6018 6021 6024 6027 6030 6032 6035 6037 6040 6043 6046 6049 6051 6054 6057 6060 6063 6066 6069 6071 6074 6077 6080 6083 6086 6089 6092 6095 6098 6101 6104 6107 6110 6112 6115 6118 6121 6124 6126 6129 6132 6135 6138 6141 6143 6146 6149 6152 6155 6158 6161 6164 6167 6170 6173 6176 6179 6182 6184 6187 6190 6192 6195 6198 6201 6204 6207 6210 6213 6216 6219 6222 6225 6228 6231 6234 6236 6238 6241 6244 6247 6250 6253 6256 6259 6262 6265 6268 6271 6274 6277 6280 6283 6286 6289 6292 6295 6298 6301 6304 6307 6310 6312 6315 6318 6321 6324 6327 6329 6332 6335 6338 6341 6344 6347 6350 6353 6355 6358 6361 6364 6367 6369 6372 6375 6378 6381 6384 6387 6390 6393 6396 6399 6402 6405 6408 6411 6414 6417 6420 6423 6426 6429 6431 6434 6437 6439 6442 6444 6447 6450 6453 6456 6459 6462 6465 6468 6471 6474 6477 6480 6483 6486 6489 6492 6495 6498 6501 6504 6507 6510 6513 6516 6518 6521 6524 6527 6530 6533 6536 6539 6542 6545 6548 6551 6553 6556 6559 6562 6565 6568 6570 6573 6576 6579 6582 6585 6588 6591 6594 6597 6600 6603 6606 6609 6612 6615 6618 6621 6624 6627 6630 6633 6636 6639 6642 6645 6648 6651 6654 6657 6660 6663 6666 6669 6672 6675 6678 6681 6684 6687 6690 6692 6695 6698 6701 6704 6707 6710 6713 6716 6719 6722 6725 6727 6730 6733 6735 6738 6741 6744 6746 6749 6752 6755 6758 6761 6764 6767 6770 6773 6776 6779 6782 6785 6788 6791 6794 6797 6800 6803 6806 6809 6812 6815 6818 6821 6824 6827 6830 6833 6836 6839 6842 6845 6847 6850 6853 6856 6858 6861 6863 6866 6869 6872 6874 6877 6880 6883 6886 6888 6891 6894 6897 6900 6903 6906 6909 6912 6915 6918 6920 6923 6926 6929 6932 6935 6938 6940 6942 6945 6948 6951 6954 6956 6959 6962 6965 6968 6970 6973 6976 6979 6982 6985 6988 6991 6994 6997 6999 7002 7005 7008 7011 7014 7017 7020 7022 7025 7028 7030 7032 7035 7038 7041 7044 7047 7050 7053 7056 7059 7062 7065 7067 7070 7072 7075 7077 7080 7083 7086 7089 7091 7094 7097 7100 7103 7106 7108 7111 7113 7116 7118 7121 7124 7127 7130 7133 7136 7139 7142 7145 7148 7150 7153 7155 7158 7161 7163 7166 7168 7171 7174 7177 7180 7182 7185 7188 7191 7194 7197 7200 7203 7206 7209 7212 7215 7218 7221 7223 7226 7229 7232 7235 7238 7241 7243 7246 7249 7251 7254 7257 7260 7263 7266 7269 7272 7275 7278 7280 7283 7286 7289 7292 7295 7298 7301 7303 7306 7309 7312 7315 7318 7320 7323 7326 7329 7332 7335 7338 7341 7344 7347 7350 7353 7356 7358 7361 7364 7366 7369 7372 7375 7378 7380 7383 7386 7389 7392 7395 7398 7401 7404 7407 7410 7413 7416 7419 7422 7425 7428 7431 7434 7437 7440 7443 7446 7449 7452 7455 7458 7461 7464 7467 7470 7473 7476 7479 7482 7485 7488 7491 7494 7496 7498 7501 7504 7507 7510 7513 7516 7519 7522 7525 7528 7531 7534 7537 7539 7542 7545 7548 7551 7554 7557 7560 7563 7566 7569 7572 7575 7578 7580 7583 7586 7589 7592 7595 7598 7601 7604 7607 7610 7613 7616 7619 7622 7625 7627 7630 7633 7636 7639 7642 7645 7648 7651 7654 7656 7659 7661 7664 7667 7670 7672 7675 7678 7680 7683 7686 7689 7692 7695 7698 7701 7704 7707 7710 7713 7716 7719 7722 7725 7728 7731 7734 7737 7740 7742 7745 7747 7750 7753 7755 7758 7761 7764 7767 7770 7773 7776 7779 7782 7785 7787 7789 7792 7795 7797 7800 7803 7806 7809 7812 7815 7818 7821 7823 7826 7829 7832 7834 7837 7840 7843 7845 7848 7850 7853 7855 7858 7860 7863 7866 7869 7872 7875 7878 7881 7884 7887 7890 7893 7896 7899 7902 7905 7907 7910 7913 7916 7919 7922 7925 7928 7931 7934 7937 7940 7943 7946 7949 7952 7955 7958 7961 7964 7966 7969 7972 7975 7978 7981 7984 7987 7990 7993 7995 7998 8001 8004 8007 8010 8012 8015 8018 8021 8024 8027 8030 8033 8036 8039 8042 8044 8047 8049 8052 8055 8058 8061 8063 8065 8068 8071 8074 8077 8080 8083 8086 8089 8092 8095 8098 8101 8104 8107 8110 8112 8115 8118 8121 8124 8127 8129 8132 8135 8138 8141 8144 8147 8150 8153 8156 8159 8162 8165 8167 8170 8173 8176 8179 8181 8184 8187 8190 8193 8196 8199 8202 8204 8206 8209 8212 8215 8217 8220 8223 8226 8229 8232 8235 8238 8241 8244 8247 8250 8252 8255 8257 8260 8263 8266 8269 8271 8274 8277 8280 8283 8286 8289 8291 8294 8297 8300 8303 8306 8309 8311 8314 8317 8320 8323 8326 8329 8331 8334 8337 8339 8342 8345 8348 8351 8354 8357 8360 8363 8366 8369 8372 8375 8378 8381 8384 8387 8389 8392 8395 8398 8401 8404 8407 8410 8413 8416 8418 8421 8424 8427 8430 8433 8436 8439 8442 8445 8448 8451 8454 8457 8460 8463 8466 8469 8472 8475 8478 8481 8483 8486 8489 8491 8494 8497 8500 8502 8505 8508 8510 8513 8515 8518 8521 8524 8527 8530 8533 8536 8538 8541 8544 8547 8550 8553 8556 8559 8562 8565 8568 8571 8574 8576 8578 8581 8584 8587 8590 8593 8595 8598 8601 8603 8606 8609 8611 8614 8617 8620 8623 8626 8628 8631 8633 8636 8639 8642 8645 8647 8650 8653 8656 8659 8662 8665 8668 8671 8673 8676 8678 8680 8683 8686 8689 8692 8694 8697 8699 8702 8705 8707 8710 8713 8716 8718 8721 8724 8726 8729 8731 8734 8737 8739 8742 8744 8746 8749 8751 8754 8757 8760 8762 8765 8767 8770 8773 8776 8778 8780 8783 8786 8789 8792 8795 8797 8800 8803 8805 8808 8810 8813 8816 8819 8822 8824 8827 8829 8832 8835 8837 8840 8842 8845 8848 8851 8853 8856 8859 8861 8863 8866 8868 8870 8873 8876 8879 8881 8884 8886 8889 8892 8894 8897 8900 8903 8905 8907 8909 8912 8914 8917 8920 8922 8924 8927 8930 8932 8935 8938 8941 8944 8946 8949 8951 8954 8957 8960 8963 8965 8968 8971 8974 8977 8980 8983 8986 8989 8991 8994 8996 8999 9001 9004 9007 9010 9013 9016 9018 9020 9023 9025 9028 9031 9034 9037 9040 9043 9046 9049 9052 9055 9057 9059 9061 9064 9067 9070 9073 9076 9079 9082 9085 9088 9091 9093 9096 9098 9101 9104 9106 9108 9111 9114 9117 9120 9122 9125 9128 9131 9134 9137 9140 9143 9146 9149 9152 9155 9157 9160 9163 9166 9169 9172 9174 9177 9180 9183 9186 9189 9191 9194 9197 9200 9203 9205 9208 9210 9213 9215 9218 9221 9223 9226 9229 9231 9234 9237 9240 9243 9246 9249 9252 9254 9257 9260 9263 9266 9269 9272 9275 9278 9281 9284 9287 9290 9293 9296 9299 9302 9305 9308 9311 9314 9317 9319 9322 9325 9328 9331 9334 9336 9339 9342 9345 9347 9349 9352 9355 9358 9361 9364 9367 9370 9373 9376 9379 9382 9385 9387 9390 9393 9396 9399 9402 9405 9408 9410 9413 9416 9419 9422 9425 9428 9431 9434 9437 9439 9442 9444 9447 9450 9452 9454 9456 9459 9462 9464 9467 9470 9473 9476 9479 9482 9485 9488 9490 9493 9496 9499 9502 9505 9508 9511 9513 9516 9518 9521 9523 9526 9529 9532 9535 9538 9541 9543 9545 9548 9551 9553 9556 9559 9562 9565 9568 9571 9574 9577 9580 9583 9586 9589 9592 9594 9597 9600 9603 9605 9608 9611 9614 9617 9620 9623 9626 9629 9632 9635 9638 9641 9644 9647 9650 9653 9656 9659 9662 9665 9668 9671 9674 9677 9680 9683 9686 9689 9692 9695 9698 9701 9704 9706 9709 9712 9714 9717 9720 9723 9726 9729 9732 9735 9738 9741 9744 9746 9749 9752 9755 9758 9761 9764 9767 9770 9773 9776 9779 9782 9785 9787 9790 9792 9795 9798 9801 9803 9806 9809 9812 9815 9817 9820 9823 9826 9829 9832 9835 9838 9841 9844 9847 9850 9852 9855 9858 9861 9864 9867 9870 9873 9876 9879 9882 9885 9888 9891 9894 9896 9898 9901 9904 9907 9910 9912 9915 9918 9921 9924 9927 9930 9933 9935 9938 9941 9944 9946 9949 9952 9955 9958 9961 9964 9967 9970 9973 9976 9979 9982 9985 9988 9991 9994 9996 9999 10002 10005 10008 10010 10013 10015 10018 10021 10024 10027 10030 10033 10036 10038 10041 10044 10047 10050 10053 10056 10059 10062 10065 10068 10071 10074 10077 10080 10083 10086 10089 10092 10095 10098 10101 10104 10107 10110 10112 10115 10117 10119 10122 10125 10128 10131 10134 10137 10140 10143 10146 10149 10152 10155 10158 10160 10163 10166 10169 10172 10175 10178 10180 10183 10186 10189 10191 10194 10197 10200 10203 10206 10209 10212 10215 10217 10220 10223 10226 10229 10231 10233 10235 10238 10240 10243 10246 10249 10252 10255 10257 10260 10263 10266 10269 10272 10275 10278 10280 10283 10286 10289 10292 10295 10298 10301 10304 10307 10309 10311 10314 10317 10320 10323 10326 10329 10332 10335 10338 10341 10344 10347 10350 10353 10356 10359 10362 10365 10368 10371 10374 10377 10380 10382 10385 10388 10391 10394 10397 10400 10402 10404 10407 10410 10413 10416 10418 10421 10423 10426 10429 10431 10434 10437 10440 10443 10445 10448 10451 10454 10456 10459 10462 10465 10468 10471 10474 10477 10480 10482 10485 10487 10489 10492 10495 10498 10501 10504 10507 10510 10512 10515 10518 10521 10524 10526 10529 10532 10535 10538 10541 10544 10547 10550 10553 10556 10559 10562 10565 10568 10571 10574 10576 10578 10581 10583 10586 10588 10591 10593 10596 10599 10602 10605 10608 10611 10614 10616 10619 10622 10625 10628 10631 10634 10637 10640 10643 10646 10649 10652 10655 10658 10661 10664 10667 10670 10673 10676 10679 10682 10685 10688 10691 10694 10696 10699 10701 10704 10707 10710 10712 10715 10717 10720 10723 10726 10729 10732 10735 10738 10741 10744 10747 10750 10753 10756 10759 10762 10765 10768 10771 10774 10777 10780 10783 10786 10789 10792 10794 10796 10799 10802 10804 10807 10809 10812 10815 10818 10821 10824 10827 10830 10833 10835 10838 10841 10844 10847 10849 10852 10854 10857 10860 10863 10866 10869 10872 10875 10877 10880 10883 10885 10888 10891 10894 10897 10900 10903 10906 10909 10912 10915 10918 10921 10924 10927 10930 10933 10936 10939 10942 10945 10948 10951 10954 10957 10960 10963 10966 10969 10972 10975 10977 10980 10982 10985 10988 10991 10994 10997 11000 11002 11004 11007 11010 11013 11016 11018 11021 11024 11027 11030 11032 11034 11037 11039 11042 11045 11048 11051 11053 11056 11059 11062 11065 11068 11070 11072 11075 11078 11080 11083 11086 11089 11091 11094 11097 11099 11102 11105 11108 11111 11114 11117 11120 11123 11126 11129 11131 11134 11137 11140 11142 11145 11147 11150 11153 11155 11158 11161 11164 11167 11170 11172 11175 11177 11180 11183 11185 11187 11190 11193 11196 11198 11200 11203 11206 11208 11210 11213 11215 11218 11221 11224 11226 11228 11230 11233 11235 11238 11241 11243 11246 11249 11252 11255 11258 11261 11264 11267 11270 11272 11274 11277 11280 11283 11285 11288 11291 11293 11295 11297 11299 11302 11305 11308 11310 11312 11315 11318 11321 11324 11327 11329 11332 11335 11338 11341 11344 11347 11350 11353 11356 11359 11362 11365 11368 11370 11373 11376 11379 11381 11384 11387 11390 11392 11395 11398 11401 11404 11407 11410 11412 11415 11418 11421 11424 11427 11430 11433 11436 11439 11442 11445 11448 11451 11453 11456 11458 11461 11464 11467 11470 11473 11475 11478 11481 11484 11487 11490 11493 11495 11498 11500 11503 11506 11509 11512 11515 11518 11521 11524 11527 11530 11533 11536 11539 11541 11544 11547 11550 11553 11556 11559 11562 11565 11568 11571 11574 11577 11580 11583 11586 11589 11592 11594 11597 11600 11603 11605 11608 11611 11614 11617 11620 11623 11626 11629 11632 11635 11638 11641 11644 11646 11649 11652 11654 11656 11659 11661 11664 11667 11669 11672 11675 11678 11681 11684 11687 11690 11693 11696 11699 11702 11705 11708 11711 11714 11717 11720 11723 11726 11729 11731 11734 11737 11740 11743 11746 11749 11752 11755 11758 11761 11764 11767 11770 11773 11776 11778 11781 11783 11786 11789 11792 11795 11797 11800 11803 11805 11808 11810 11813 11816 11819 11822 11825 11828 11831 11833 11836 11839 11842 11845 11848 11850 11853 11856 11859 11862 11865 11868 11871 11874 11877 11880 11883 11886 11889 11892 11895 11898 11901 11904 11907 11910 11913 11916 11919 11922 11924 11927 11930 11933 11936 11939 11941 11944 11947 11950 11953 11956 11959 11962 11965 11968 11971 11974 11977 11980 11983 11986 11989 11992 11995 11998 12001 12004 12007 12010 12013 12016 12019 12022 12025 12028 12031 12034 12037 12040 12043 12046 12049 12052 12055 12058 12061 12064 12067 12070 12073 12076 12079 12081 12084 12087 12090 12093 12095 12098 12100 12103 12106 12109 12111 12114 12117 12120 12123 12126 12129 12131 12134 12137 12139 12142 12145 12148 12151 12154 12157 12160 12162 12165 12168 12171 12174 12177 12180 12183 12186 12189 12192 12195 12198 12201 12204 12207 12210 12213 12216 12219 12222 12225 12228 12231 12234 12237 12240 12243 12246 12249 12252 12255 12258 12261 12264 12267 12270 12273 12276 12279 12282 12285 12288 12290 12293 12296 12298 12301 12304 12307 12310 12313 12316 12318 12321 12324 12327 12330 12332 12335 12337 12340 12343 12345 12348 12351 12353 12356 12359 12362 12365 12368 12371 12374 12376 12379 12382 12385 12388 12391 12394 12397 12400 12403 12406 12409 12411 12414 12417 12420 12423 12425 12428 12431 12434 12436 12438 12441 12444 12446 12449 12452 12455 12457 12460 12463 12465 12468 12471 12474 12477 12480 12483 12486 12489 12491 12494 12497 12499 12502 12505 12507 12510 12513 12516 12518 12521 12524 12527 12529 12532 12535 12538 12541 12544 12546 12549 12552 12555 12558 12561 12563 12566 12569 12572 12575 12578 12581 12584 12587 12590 12592 12595 12598 12601 12604 12606 12609 12612 12615 12618 12621 12624 12627 12630 12632 12635 12637 12640 12643 12646 12649 12652 12655 12658 12661 12664 12667 12669 12672 12675 12678 12681 12684 12687 12689 12692 12695 12697 12700 12703 12705 12708 12711 12714 12717 12720 12723 12726 12729 12732 12734 12737 12740 12743 12746 12749 12752 12754 12757 12760 12762 12765 12768 12771 12774 12777 12780 12783 12786 12789 12792 12794 12796 12799 12802 12805 12807 12809 12812 12815 12818 12821 12823 12826 12829 12831 12833 12836 12839 12841 12844 12847 12850 12852 12855 12858 12860 12862 12865 12868 12871 12874 12877 12880 12883 12885 12888 12891 12894 12897 12900 12903 12906 12909 12912 12915 12918 12921 12924 12927 12930 12932 12935 12938 12941 12944 12947 12950 12953 12955 12958 12961 12963 12965 12968 12970 12973 12975 12978 12981 12983 12986 12989 12992 12994 12996 12999 13002 13005 13008 13010 13013 13016 13018 13021 13024 13026 13029 13032 13034 13037 13040 13043 13046 13048 13050 13053 13056 13059 13061 13064 13067 13070 13073 13076 13079 13082 13085 13088 13091 13094 13097 13100 13103 13106 13109 13112 13115 13118 13121 13124 13127 13130 13133 13136 13139 13142 13145 13148 13151 13154 13157 13160 13163 13166 13169 13172 13175 13178 13181 13184 13187 13190 13193 13196 13199 13202 13205 13207 13210 13213 13216 13219 13221 13224 13227 13230 13233 13236 13239 13241 13244 13247 13250 13253 13255 13257 13260 13263 13266 13269 13272 13275 13278 13281 13284 13287 13290 13293 13296 13299 13302 13305 13308 13311 13314 13317 13320 13323 13325 13328 13331 13334 13337 13340 13343 13346 13349 13352 13355 13358 13361 13364 13367 13370 13373 13375 13378 13381 13384 13387 13389 13392 13395 13398 13401 13404 13407 13410 13413 13415 13418 13421 13424 13427 13430 13433 13436 13439 13441 13444 13447 13450 13453 13455 13458 13460 13463 13466 13469 13472 13475 13478 13481 13484 13487 13490 13493 13496 13499 13502 13505 13508 13511 13514 13517 13520 13523 13526 13529 13532 13535 13538 13541 13543 13546 13549 13552 13555 13558 13561 13564 13566 13569 13572 13575 13578 13581 13584 13587 13590 13593 13596 13599 13601 13604 13607 13610 13613 13616 13619 13622 13625 13627 13630 13633 13636 13639 13642 13645 13648 13651 13654 13657 13659 13662 13664 13667 13670 13673 13676 13678 13681 13684 13687 13690 13692 13695 13698 13700 13703 13706 13709 13712 13715 13718 13720 13723 13726 13729 13732 13735 13738 13741 13744 13747 13749 13752 13755 13758 13760 13763 13765 13768 13771 13773 13776 13778 13781 13784 13786 13789 13792 13795 13798 13801 13804 13807 13809 13812 13815 13818 13821 13824 13826 13829 13832 13835 13838 13841 13844 13847 13850 13853 13856 13859 13862 13864 13867 13870 13873 13875 13878 13881 13884 13887 13889 13892 13895 13898 13901 13904 13906 13909 13912 13914 13917 13920 13923 13925 13928 13931 13934 13937 13939 13942 13945 13947 13949 13952 13955 13958 13961 13964 13967 13970 13973 13976 13979 13982 13984 13987 13990 13993 13996 13999 14002 14005 14008 14011 14014 14017 14020 14023 14026 14028 14031 14033 14036 14039 14042 14045 14048 14051 14054 14057 14060 14063 14066 14069 14072 14075 14078 14081 14084 14087 14090 14093 14096 14099 14102 14104 14107 14110 14113 14116 14119 14122 14125 14128 14131 14134 14137 14140 14143 14146 14148 14151 14154 14157 14160 14163 14166 14169 14172 14175 14178 14181 14184 14187 14190 14193 14196 14199 14202 14205 14208 14211 14214 14217 14220 14223 14226 14229 14232 14235 14238 14241 14244 14247 14250 14253 14256 14259 14262 14265 14268 14270 14273 14276 14279 14282 14285 14288 14291 14294 14297 14300 14302 14305 14307 14310 14313 14316 14319 14322 14324 14327 14330 14333 14336 14339 14342 14345 14348 14351 14354 14356 14359 14362 14364 14367 14370 14372 14375 14378 14381 14384 14387 14389 14392 14395 14398 14400 14402 14405 14408 14410 14413 14416 14419 14422 14425 14428 14431 14433 14435 14438 14440 14443 14446 14449 14452 14455 14457 14460 14463 14466 14469 14472 14475 14478 14481 14484 14487 14490 14493 14496 14499 14501 14504 14507 14510 14512 14515 14517 14520 14523 14526 14529 14532 14534 14537 14540 14543 14546 14549 14552 14555 14558 14561 14564 14567 14570 14573 14576 14578 14581 14584 14587 14589 14592 14595 14598 14601 14604 14606 14609 14612 14615 14617 14619 14622 14625 14628 14631 14634 14637 14640 14643 14646 14649 14652 14655 14658 14661 14664 14667 14669 14671 14674 14677 14680 14682 14685 14688 14690 14693 14695 14698 14700 14703 14706 14709 14711 14714 14716 14719 14722 14725 14728 14731 14734 14736 14739 14742 14745 14748 14751 14754 14757 14760 14762 14765 14768 14771 14774 14777 14779 14782 14784 14787 14790 14793 14796 14799 14802 14805 14808 14811 14813 14816 14818 14821 14824 14827 14830 14833 14836 14839 14842 14845 14848 14851 14854 14857 14860 14863 14866 14868 14871 14874 14877 14880 14883 14886 14889 14892 14895 14897 14900 14903 14906 14909 14912 14915 14918 14921 14924 14927 14930 14932 14935 14938 14941 14944 14947 14950 14953 14956 14958 14961 14964 14967 14970 14973 14976 14978 14981 14984 14987 14990 14993 14996 14999 15002 15005 15008 15011 15014 15017 15019 15022 15025 15028 15031 15034 15037 15040 15043 15046 15049 15052 15055 15058 15061 15064 15067 15070 15072 15075 15078 15081 15084 15087 15090 15093 15096 15099 15102 15105 15108 15111 15114 15117 15120 15123 15126 15129 15132 15135 15138 15141 15144 15147 15150 15153 15156 15159 15162 15164 15167 15170 15173 15176 15179 15182 15185 15188 15191 15194 15197 15200 15202 15205 15207 15210 15213 15216 15219 15222 15225 15228 15231 15234 15237 15239 15242 15245 15248 15251 15254 15257 15260 15263 15266 15269 15272 15274 15277 15279 15281 15284 15287 15289 15292 15295 15297 15299 15302 15305 15307 15310 15313 15315 15318 15321 15324 15327 15330 15333 15336 15339 15341 15344 15347 15350 15353 15356 15359 15362 15365 15368 15370 15373 15376 15379 15382 15385 15388 15391 15393 15395 15398 15400 15403 15406 15409 15411 15414 15417 15420 15423 15426 15428 15431 15434 15437 15440 15443 15446 15448 15451 15454 15457 15460 15463 15466 15468 15471 15474 15476 15479 15482 15485 15488 15491 15493 15496 15498 15501 15503 15506 15509 15512 15515 15518 15521 15524 15527 15530 15533 15535 15538 15540 15543 15546 15548 15551 15554 15557 15559 15561 15564 15567 15570 15573 15575 15578 15580 15583 15586 15588 15591 15594 15597 15600 15603 15606 15609 15612 15615 15618 15621 15624 15627 15630 15633 15636 15639 15642 15645 15648 15651 15654 15657 15660 15662 15665 15668 15671 15674 15677 15680 15683 15685 15688 15691 15694 15697 15699 15702 15705 15708 15710 15713 15716 15718 15721 15723 15726 15729 15732 15735 15738 15741 15744 15747 15749 15752 15755 15758 15760 15763 15766 15769 15772 15774 15777 15779 15782 15785 15788 15791 15794 15797 15799 15802 15805 15808 15810 15813 15816 15818 15821 15824 15827 15830 15833 15835 15838 15841 15844 15847 15850 15852 15854 15857 15860 15863 15866 15869 15872 15875 15878 15881 15884 15887 15890 15893 15896 15899 15902 15905 15908 15911 15914 15917 15920 15923 15926 15929 15932 15935 15938 15941 15944 15947 15950 15953 15956 15959 15962 15965 15968 15971 15974 15977 15980 15983 15986 15989 15992 15995 15997 16000 16003 16006 16009 16012 16015 16018 16021 16024 16027 16030 16033 16036 16039 16042 16045 16048 16051 16053 16056 16059 16062 16065 16068 16071 16074 16076 16079 16082 16085 16088 16090 16093 16096 16099 16102 16105 16108 16111 16114 16117 16120 16123 16125 16128 16131 16134 16137 16140 16143 16145 16148 16151 16153 16156 16158 16160 16162 16165 16168 16171 16174 16177 16180 16183 16186 16189 16192 16195 16198 16201 16204 16207 16210 16213 16216 16219 16222 16225 16228 16231 16234 16237 16240 16243 16246 16249 16252 16255 16258 16261 16264 16267 16270 16273 16276 16279 16282 16285 16288 16291 16294 16297 16300 16303 16306 16309 16312 16315 16318 16321 16324 16327 16330 16332 16335 16338 16341 16343 16346 16348 16351 16354 16357 16360 16363 16366 16369 16372 16375 16378 16381 16383 16386 16389 16392 16394 16397 16399 16402 16404 16407 16410 16413 16416 16419 16422 16425 16428 16431 16434 16437 16440 16443 16446 16449 16452 16455 16458 16461 16464 16467 16470 16472 16475 16478 16481 16484 16487 16490 16493 16496 16499 16502 16505 16508 16511 16514 16517 16519 16522 16525 16528 16531 16533 16535 16538 16541 16543 16546 16549 16552 16555 16557 16560 16562 16565 16567 16570 16573 16576 16578 16581 16583 16586 16589 16592 16595 16598 16601 16604 16607 16609 16612 16615 16618 16620 16623 16626 16629 16631 16634 16637 16640 16643 16646 16649 16652 16655 16658 16661 16664 16667 16670 16673 16676 16679 16682 16685 16688 16690 16693 16696 16699 16702 16705 16708 16711 16714 16717 16720 16723 16726 16729 16732 16735 16738 16740 16743 16746 16749 16751 16754 16757 16760 16763 16766 16769 16771 16774 16777 16780 16783 16786 16789 16792 16795 16798 16801 16803 16806 16809 16812 16815 16818 16821 16824 16827 16830 16833 16836 16839 16842 16845 16848 16851 16854 16857 16860 16863 16866 16869 16872 16875 16878 16881 16884 16887 16890 16892 16895 16898 16901 16904 16906 16908 16911 16914 16917 16919 16922 16925 16928 16931 16934 16937 16940 16942 16945 16948 16951 16953 16956 16959 16962 16965 16967 16970 16972 16974 16977 16980 16982 16985 16988 16991 16994 16997 16999 17002 17004 17007 17010 17012 17015 17017 17019 17022 17025 17027 17029 17032 17035 17038 17041 17043 17046 17048 17051 17054 17057 17059 17061 17064 17067 17070 17073 17076 17078 17081 17084 17087 17089 17092 17095 17098 17101 17104 17106 17109 17112 17115 17118 17121 17124 17126 17129 17132 17135 17138 17141 17144 17147 17150 17152 17154 17156 17159 17161 17164 17167 17169 17172 17175 17178 17181 17184 17187 17190 17193 17196 17199 17202 17204 17207 17210 17213 17216 17219 17222 17225 17228 17231 17233 17236 17239 17242 17245 17248 17251 17254 17257 17259 17262 17265 17268 17271 17274 17276 17279 17282 17285 17288 17291 17294 17297 17299 17302 17305 17308 17310 17313 17316 17318 17321 17324 17327 17330 17333 17336 17339 17342 17345 17348 17351 17354 17357 17360 17363 17366 17369 17372 17375 17378 17381 17384 17387 17389 17392 17395 17398 17401 17404 17406 17409 17412 17415 17418 17421 17424 17427 17430 17433 17436 17439 17442 17445 17448 17450 17453 17456 17459 17462 17465 17468 17471 17474 17477 17479 17482 17484 17487 17490 17493 17496 17499 17501 17504 17506 17508 17511 17514 17517 17520 17523 17526 17529 17531 17534 17537 17540 17543 17546 17549 17551 17554 17556 17559 17561 17564 17567 17570 17573 17576 17579 17582 17585 17588 17591 17594 17597 17600 17603 17606 17609 17612 17615 17618 17621 17624 17627 17630 17633 17636 17639 17642 17645 17648 17651 17654 17657 17660 17663 17666 17669 17672 17675 17678 17681 17684 17687 17689 17692 17695 17698 17701 17704 17707 17710 17713 17716 17718 17721 17724 17727 17730 17733 17736 17738 17741 17744 17746 17749 17752 17755 17758 17761 17764 17767 17770 17773 17776 17779 17782 17784 17787 17790 17792 17795 17798 17801 17804 17806 17809 17811 17814 17817 17820 17823 17825 17828 17830 17833 17836 17839 17842 17844 17846 17849 17851 17854 17857 17860 17863 17866 17869 17872 17875 17878 17881 17884 17887 17890 17893 17895 17898 17901 17904 17907 17910 17913 17916 17919 17922 17925 17928 17931 17934 17937 17940 17943 17946 17949 17952 17954 17957 17960 17962 17965 17968 17971 17973 17976 17979 17982 17985 17988 17990 17993 17996 17999 18002 18005 18008 18011 18014 18017 18020 18023 18026 18028 18031 18033 18036 18039 18042 18044 18047 18050 18053 18055 18058 18060 18063 18066 18069 18072 18075 18077 18080 18083 18086 18088 18091 18094 18097 18100 18102 18105 18108 18111 18114 18116 18119 18122 18124 18127 18130 18133 18135 18138 18141 18144 18147 18150 18153 18156 18159 18162 18164 18167 18170 18172 18175 18178 18181 18183 18186 18189 18192 18195 18198 18201 18204 18207 18210 18213 18216 18219 18222 18225 18228 18231 18234 18237 18240 18243 18246 18249 18252 18255 18258 18261 18264 18267 18270 18273 18276 18279 18282 18285 18288 18290 18293 18296 18299 18302 18305 18308 18311 18314 18317 18320 18323 18326 18329 18332 18335 18337 18339 18342 18345 18348 18351 18354 18357 18360 18362 18365 18368 18371 18374 18377 18380 18383 18386 18389 18392 18395 18398 18401 18404 18407 18410 18413 18416 18419 18422 18425 18428 18431 18434 18437 18440 18443 18446 18449 18452 18455 18458 18461 18464 18467 18470 18472 18475 18478 18480 18483 18486 18489 18492 18495 18498 18501 18504 18507 18509 18512 18515 18518 18521 18524 18527 18530 18533 18536 18539 18542 18545 18548 18551 18553 18556 18559 18562 18565 18568 18571 18574 18576 18579 18582 18585 18588 18590 18593 18595 18598 18601 18604 18607 18610 18613 18616 18619 18622 18625 18627 18630 18633 18636 18639 18641 18644 18647 18650 18653 18656 18659 18661 18664 18667 18669 18672 18675 18678 18680 18683 18686 18689 18692 18694 18697 18700 18703 18705 18708 18711 18714 18717 18720 18723 18726 18729 18732 18734 18736 18739 18742 18745 18748 18751 18754 18757 18759 18762 18765 18768 18771 18774 18776 18779 18782 18784 18787 18790 18793 18796 18799 18802 18805 18808 18810 18813 18816 18819 18822 18825 18827 18830 18833 18836 18839 18842 18845 18848 18851 18854 18857 18860 18863 18866 18869 18872 18875 18878 18881 18884 18887 18890 18892 18895 18898 18901 18904 18907 18910 18913 18915 18918 18921 18924 18927 18930 18933 18936 18938 18941 18943 18945 18948 18951 18954 18957 18960 18963 18966 18969 18972 18975 18978 18981 18984 18987 18990 18993 18996 18999 19002 19005 19008 19011 19014 19017 19020 19023 19026 19029 19032 19034 19037 19040 19043 19046 19049 19052 19055 19058 19061 19064 19067 19070 19073 19076 19079 19082 19085 19088 19091 19094 19097 19100 19103 19106 19108 19111 19114 19117 19120 19122 19125 19128 19131 19134 19137 19140 19143 19146 19149 19152 19155 19158 19161 19164 19167 19170 19173 19176 19179 19182 19185 19188 19191 19194 19197 19200 19203 19206 19209 19212 19215 19218 19221 19224 19227 19230 19233 19236 19238 19241 19244 19247 19250 19253 19256 19259 19262 19265 19267 19270 19272 19274 19277 19280 19283 19286 19289 19291 19294 19297 19300 19302 19305 19308 19311 19314 19317 19320 19323 19326 19329 19332 19335 19338 19341 19344 19347 19350 19353 19356 19359 19362 19365 19368 19371 19374 19377 19380 19383 19386 19389 19392 19395 19398 19401 19404 19407 19410 19413 19416 19419 19422 19425 19428 19431 19434 19436 19439 19442 19445 19448 19451 19454 19457 19460 19463 19466 19469 19472 19475 19478 19481 19484 19487 19490 19493 19495 19498 19501 19503 19506 19508 19511 19514 19517 19520 19523 19526 19529 19531 19534 19537 19540 19543 19546 19549 19552 19555 19558 19560 19563 19566 19569 19572 19575 19578 19581 19584 19587 19590 19593 19596 19598 19601 19604 19607 19610 19613 19616 19619 19622 19625 19628 19631 19634 19637 19640 19643 19646 19649 19652 19654 19657 19660 19663 19666 19669 19671 19673 19676 19679 19682 19684 19687 19690 19693 19696 19699 19701 19704 19706 19709 19712 19715 19718 19721 19723 19725 19728 19730 19733 19736 19739 19742 19745 19748 19751 19754 19757 19760 19763 19766 19769 19772 19774 19777 19780 19783 19786 19789 19792 19795 19798 19801 19804 19807 19810 19813 19816 19819 19822 19825 19828 19831 19834 19837 19839 19842 19845 19848 19851 19854 19856 19859 19862 19865 19868 19871 19874 19876 19879 19881 19883 19886 19889 19892 19895 19898 19901 19904 19907 19910 19913 19916 19919 19922 19925 19928 19931 19934 19937 19940 19943 19946 19949 19952 19955 19957 19960 19963 19966 19969 19972 19975 19978 19981 19983 19986 19989 19992 19995 19998 20001 20004 20007 20010 20012 20015 20018 20021 20024 20027 20030 20033 20036 20038 20041 20044 20046 20049 20052 20055 20058 20060 20062 20065 20068 20070 20072 20075 20078 20081 20084 20087 20089 20092 20095 20098 20101 20104 20106 20109 20112 20115 20118 20121 20124 20127 20130 20132 20135 20138 20141 20144 20147 20150 20153 20156 20159 20162 20164 20166 20169 20172 20175 20178 20181 20184 20186 20189 20192 20195 20198 20201 20204 20207 20210 20213 20216 20218 20221 20224 20227 20230 20233 20236 20239 20242 20245 20248 20251 20254 20256 20259 20262 20265 20268 20271 20274 20277 20280 20283 20286 20289 20292 20295 20298 20301 20304 20307 20310 20313 20316 20319 20322 20325 20328 20330 20333 20336 20339 20342 20345 20348 20351 20354 20357 20360 20363 20366 20369 20372 20374 20377 20380 20383 20386 20389 20392 20395 20398 20401 20404 20407 20410 20413 20416 20419 20422 20425 20428 20431 20434 20437 20440 20443 20446 20449 20452 20455 20458 20461 20464 20467 20470 20473 20476 20479 20482 20485 20488 20491 20493 20496 20499 20502 20505 20508 20511 20514 20517 20520 20523 20526 20529 20532 20535 20538 20541 20543 20546 20549 20551 20554 20557 20560 20563 20566 20568 20571 20574 20577 20580 20583 20586 20589 20592 20595 20598 20601 20604 20607 20610 20613 20616 20619 20622 20625 20628 20631 20634 20637 20640 20643 20645 20648 20651 20654 20656 20659 20662 20665 20668 20671 20673 20676 20679 20682 20685 20688 20691 20694 20697 20700 20703 20706 20709 20712 20715 20718 20721 20724 20727 20730 20733 20736 20739 20742 20745 20748 20751 20754 20757 20760 20763 20766 20769 20772 20775 20778 20781 20784 20787 20790 20793 20796 20799 20802 20805 20808 20811 20814 20817 20820 20822 20825 20827 20830 20833 20836 20839 20842 20845 20848 20851 20854 20857 20860 20863 20866 20869 20872 20875 20878 20880 20883 20886 20889 20892 20895 20898 20901 20904 20907 20909 20912 20915 20918 20921 20924 20927 20930 20933 20935 20938 20941 20944 20947 20950 20953 20956 20959 20962 20965 20968 20971 20974 20977 20980 20983 20986 20989 20992 20995 20998 21001 21004 21007 21010 21013 21016 21018 21020 21023 21026 21029 21031 21034 21037 21039 21042 21045 21047 21050 21053 21056 21059 21061 21064 21067 21069 21072 21074 21077 21080 21083 21086 21089 21092 21095 21098 21101 21104 21107 21110 21113 21116 21119 21122 21125 21128 21130 21133 21136 21139 21142 21145 21148 21151 21154 21157 21160 21163 21166 21169 21172 21175 21178 21181 21184 21187 21190 21193 21196 21199 21202 21205 21208 21210 21213 21216 21219 21222 21225 21228 21230 21233 21236 21239 21242 21245 21247 21249 21252 21255 21258 21261 21263 21265 21268 21271 21273 21276 21279 21281 21284 21287 21289 21292 21295 21298 21301 21303 21306 21309 21312 21315 21318 21321 21324 21327 21330 21333 21336 21338 21341 21344 21347 21349 21352 21355 21357 21360 21363 21366 21368 21371 21374 21376 21378 21380 21383 21386 21389 21392 21395 21398 21401 21404 21407 21410 21413 21416 21418 21421 21424 21427 21430 21433 21436 21439 21442 21445 21448 21451 21454 21457 21460 21463 21466 21469 21472 21475 21477 21480 21483 21486 21488 21491 21494 21497 21500 21502 21505 21508 21511 21514 21517 21520 21523 21525 21528 21531 21534 21537 21539 21542 21545 21548 21551 21554 21557 21560 21563 21566 21569 21572 21575 21578 21581 21584 21587 21589 21592 21594 21597 21599 21602 21605 21607 21610 21613 21615 21618 21621 21624 21627 21630 21632 21635 21637 21640 21643 21645 21648 21651 21654 21657 21660 21663 21666 21669 21672 21675 21678 21681 21684 21687 21690 21693 21696 21699 21702 21705 21708 21711 21714 21717 21720 21723 21726 21728 21731 21734 21737 21740 21742 21745 21748 21751 21754 21757 21760 21763 21765 21768 21771 21773 21775 21778 21781 21784 21786 21789 21792 21794 21797 21799 21801 21803 21806 21809 21811 21813 21816 21819 21822 21824 21827 21830 21832 21835 21838 21841 21843 21846 21849 21851 21854 21857 21860 21862 21865 21868 21871 21874 21877 21880 21883 21885 21888 21890 21893 21896 21899 21902 21905 21907 21910 21912 21915 21918 21921 21924 21927 21930 21933 21936 21939 21942 21945 21947 21950 21953 21955 21958 21961 21964 21967 21969 21972 21974 21977 21980 21983 21986 21989 21992 21995 21998 22000 22002 22005 22008 22011 22014 22017 22020 22023 22026 22029 22032 22035 22038 22041 22044 22047 22050 22053 22056 22059 22062 22065 22068 22070 22073 22076 22079 22081 22084 22087 22090 22093 22096 22099 22102 22105 22108 22111 22114 22116 22119 22122 22125 22128 22131 22134 22137 22139 22142 22145 22147 22150 22153 22156 22159 22162 22165 22167 22170 22173 22176 22179 22182 22185 22188 22191 22194 22197 22200 22203 22206 22209 22211 22214 22217 22220 22223 22226 22229 22232 22235 22238 22241 22244 22247 22250 22253 22256 22259 22262 22265 22267 22270 22273 22275 22278 22281 22284 22287 22290 22293 22296 22299 22302 22305 22308 22310 22313 22316 22318 22321 22323 22326 22329 22331 22334 22337 22340 22342 22344 22347 22349 22352 22355 22358 22361 22363 22366 22369 22372 22375 22378 22381 22384 22387 22390 22392 22395 22398 22401 22404 22407 22410 22413 22416 22419 22422 22425 22428 22431 22433 22436 22439 22442 22445 22448 22451 22454 22457 22460 22463 22466 22469 22472 22474 22477 22480 22483 22486 22489 22492 22495 22497 22500 22503 22506 22509 22512 22514 22517 22520 22523 22526 22529 22532 22535 22538 22541 22544 22547 22550 22553 22556 22559 22562 22565 22568 22571 22573 22575 22578 22581 22584 22587 22590 22593 22595 22598 22601 22604 22607 22609 22612 22615 22618 22621 22623 22626 22629 22632 22635 22637 22640 22642 22645 22648 22651 22654 22657 22660 22663 22666 22669 22672 22675 22678 22681 22684 22687 22689 22692 22695 22697 22699 22702 22705 22708 22711 22714 22717 22720 22723 22726 22728 22731 22734 22737 22740 22742 22745 22747 22749 22752 22755 22758 22761 22764 22767 22769 22772 22775 22778 22781 22783 22785 22788 22790 22793 22796 22798 22801 22804 22807 22810 22813 22816 22818 22821 22824 22827 22830 22832 22835 22838 22841 22844 22847 22849 22852 22855 22858 22861 22864 22867 22869 22872 22875 22878 22881 22883 22886 22889 22892 22895 22898 22901 22904 22907 22910 22913 22916 22919 22922 22925 22928 22930 22933 22936 22939 22942 22945 22948 22951 22954 22957 22960 22963 22966 22968 22971 22974 22977 22980 22983 22986 22989 22992 22995 22998 23000 23003 23006 23009 23012 23015 23018 23021 23024 23027 23030 23033 23036 23039 23042 23045 23048 23051 23054 23057 23060 23063 23066 23069 23072 23075 23078 23081 23084 23086 23089 23092 23095 23098 23100 23103 23106 23109 23112 23115 23118 23121 23124 23127 23130 23133 23136 23139 23142 23145 23148 23150 23153 23156 23159 23162 23165 23168 23171 23174 23177 23179 23182 23185 23188 23191 23194 23197 23199 23202 23205 23207 23210 23213 23216 23219 23222 23225 23228 23231 23234 23237 23240 23242 23245 23248 23251 23253 23256 23259 23262 23265 23268 23271 23274 23277 23280 23283 23286 23289 23292 23295 23297 23300 23303 23305 23308 23310 23313 23316 23319 23321 23324 23327 23330 23333 23336 23338 23341 23344 23347 23350 23353 23356 23359 23362 23365 23368 23371 23374 23377 23380 23383 23386 23389 23392 23395 23398 23401 23404 23407 23410 23413 23416 23419 23422 23425 23428 23431 23434 23437 23440 23443 23446 23449 23452 23454 23457 23460 23462 23465 23468 23471 23474 23477 23480 23483 23486 23489 23492 23495 23498 23501 23504 23507 23510 23513 23516 23518 23521 23524 23527 23530 23533 23536 23538 23541 23544 23547 23549 23552 23555 23558 23561 23564 23567 23570 23573 23576 23579 23582 23584 23587 23590 23593 23596 23599 23602 23605 23608 23611 23614 23616 23619 23622 23625 23628 23631 23634 23637 23640 23642 23645 23647 23650 23653 23655 23658 23661 23663 23665 23667 23670 23673 23676 23678 23681 23684 23687 23690 23692 23695 23698 23701 23704 23707 23710 23712 23714 23717 23720 23723 23726 23729 23732 23735 23738 23741 23744 23747 23750 23752 23755 23758 23761 23764 23767 23770 23772 23775 23778 23781 23784 23787 23790 23793 23796 23799 23801 23804 23807 23810 23813 23816 23819 23822 23825 23828 23830 23833 23836 23839 23842 23844 23847 23850 23853 23856 23859 23861 23864 23867 23869 23872 23875 23878 23881 23884 23886 23889 23892 23895 23898 23901 23904 23907 23910 23913 23916 23919 23922 23925 23928 23930 23933 23936 23939 23942 23945 23947 23949 23952 23955 23958 23960 23963 23966 23969 23972 23974 23977 23980 23982 23985 23988 23991 23994 23997 24000 24003 24006 24009 24012 24015 24018 24021 24023 24026 24029 24032 24035 24038 24041 24044 24046 24049 24052 24055 24058 24061 24064 24067 24070 24073 24076 24079 24081 24084 24087 24090 24093 24096 24099 24102 24105 24108 24111 24114 24117 24120 24123 24126 24129 24132 24134 24137 24140 24143 24146 24149 24152 24154 24157 24160 24163 24165 24168 24171 24174 24177 24180 24182 24185 24188 24191 24193 24196 24199 24202 24205 24208 24211 24214 24216 24219 24222 24224 24227 24230 24233 24236 24239 24242 24245 24248 24251 24254 24256 24258 24261 24264 24267 24270 24273 24276 24279 24282 24285 24288 24291 24294 24297 24300 24303 24306 24309 24311 24314 24317 24320 24323 24326 24329 24331 24334 24337 24340 24342 24345 24348 24351 24353 24356 24359 24362 24365 24368 24371 24374 24377 24380 24382 24385 24388 24391 24394 24397 24400 24402 24405 24408 24411 24414 24417 24420 24423 24426 24429 24432 24435 24438 24441 24444 24447 24450 24452 24455 24458 24460 24463 24465 24468 24471 24474 24477 24480 24483 24486 24488 24491 24493 24496 24499 24502 24505 24508 24511 24513 24516 24519 24521 24524 24527 24530 24533 24536 24539 24542 24545 24548 24550 24553 24556 24559 24562 24565 24567 24570 24573 24576 24579 24582 24585 24587 24590 24593 24596 24599 24602 24605 24608 24611 24613 24616 24619 24622 24625 24628 24631 24634 24637 24640 24643 24646 24649 24652 24654 24657 24659 24662 24665 24667 24670 24673 24675 24678 24681 24684 24687 24690 24693 24696 24699 24701 24704 24707 24709 24712 24715 24718 24721 24724 24727 24730 24733 24736 24739 24742 24745 24748 24751 24754 24757 24760 24763 24766 24769 24772 24775 24778 24781 24784 24787 24790 24793 24796 24799 24801 24804 24807 24810 24813 24816 24819 24822 24825 24828 24831 24834 24837 24840 24843 24846 24849 24852 24855 24858 24861 24864 24867 24870 24873 24876 24879 24882 24885 24888 24891 24894 24897 24900 24903 24906 24909 24912 24915 24918 24921 24924 24927 24930 24933 24936 24939 24942 24945 24948 24951 24954 24957 24960 24962 24965 24968 24971 24974 24977 24980 24983 24986 24989 24992 24994 24996 24999 25002 25005 25008 25010 25013 25016 25018 25021 25023 25026 25029 25032 25035 25038 25041 25044 25047 25049 25052 25055 25058 25061 25064 25067 25070 25073 25076 25079 25082 25085 25088 25091 25094 25097 25100 25103 25106 25109 25112 25115 25118 25121 25124 25127 25130 25133 25135 25138 25141 25144 25147 25149 25152 25155 25157 25160 25163 25166 25169 25172 25175 25178 25181 25184 25187 25190 25192 25195 25197 25200 25203 25206 25209 25212 25215 25218 25221 25224 25227 25230 25233 25236 25238 25240 25243 25246 25249 25252 25255 25257 25260 25263 25266 25269 25272 25274 25277 25280 25282 25285 25288 25290 25293 25296 25298 25300 25302 25304 25307 25310 25312 25315 25318 25321 25324 25326 25329 25332 25334 25337 25340 25343 25345 25348 25351 25354 25356 25359 25362 25365 25368 25371 25373 25375 25378 25380 25383 25386 25389 25392 25395 25398 25401 25404 25407 25410 25413 25416 25419 25422 25425 25428 25431 25434 25437 25440 25443 25446 25448 25451 25454 25457 25459 25462 25465 25468 25471 25474 25477 25480 25483 25486 25489 25492 25495 25498 25501 25504 25507 25510 25512 25515 25518 25521 25524 25527 25530 25533 25536 25539 25542 25545 25548 25551 25554 25557 25560 25562 25565 25567 25570 25573 25576 25579 25582 25585 25588 25591 25593 25595 25597 25600 25603 25605 25608 25611 25614 25616 25619 25622 25624 25627 25629 25632 25635 25638 25641 25644 25647 25650 25653 25655 25658 25661 25664 25667 25670 25673 25676 25678 25681 25684 25687 25690 25693 25696 25699 25702 25704 25707 25710 25713 25715 25718 25721 25724 25727 25730 25733 25736 25739 25742 25745 25748 25751 25754 25756 25759 25761 25764 25766 25769 25772 25775 25778 25781 25783 25786 25789 25792 25795 25798 25801 25803 25805 25807 25810 25813 25816 25819 25822 25825 25828 25831 25834 25837 25840 25843 25846 25849 25852 25855 25858 25861 25864 25867 25870 25873 25876 25879 25882 25885 25888 25891 25894 25897 25900 25903 25906 25909 25912 25915 25918 25921 25923 25926 25929 25931 25934 25937 25940 25943 25946 25949 25952 25955 25958 25961 25964 25967 25969 25972 25975 25978 25980 25983 25986 25989 25992 25995 25998 26001 26004 26007 26010 26013 26016 26019 26022 26025 26028 26031 26034 26037 26040 26043 26046 26049 26051 26054 26057 26060 26063 26066 26069 26072 26075 26078 26081 26083 26086 26089 26092 26095 26098 26101 26104 26106 26108 26111 26113 26116 26119 26122 26125 26128 26131 26134 26137 26140 26143 26146 26149 26152 26155 26158 26160 26163 26165 26168 26171 26174 26176 26179 26182 26184 26187 26190 26193 26196 26199 26202 26205 26208 26211 26214 26217 26220 26223 26226 26229 26232 26235 26237 26240 26243 26246 26249 26252 26255 26258 26260 26263 26266 26269 26272 26275 26278 26281 26284 26287 26289 26292 26294 26297 26300 26303 26306 26309 26312 26315 26318 26321 26324 26327 26329 26332 26334 26337 26340 26343 26346 26349 26352 26355 26358 26361 26364 26367 26370 26373 26376 26379 26382 26385 26388 26391 26394 26397 26400 26403 26406 26409 26412 26415 26418 26421 26424 26427 26430 26433 26436 26439 26442 26445 26448 26451 26454 26457 26460 26463 26466 26469 26471 26473 26476 26479 26482 26484 26487 26489 26492 26494 26497 26499 26502 26505 26508 26511 26513 26515 26517 26520 26522 26525 26528 26531 26534 26536 26539 26542 26545 26548 26550 26553 26556 26559 26561 26564 26566 26568 26570 26573 26576 26578 26581 26584 26587 26590 26592 26595 26598 26601 26604 26607 26610 26613 26616 26619 26622 26625 26628 26631 26634 26636 26639 26642 26644 26647 26650 26653 26656 26659 26661 26664 26667 26669 26672 26675 26678 26681 26684 26687 26690 26693 26696 26699 26702 26705 26708 26711 26714 26717 26720 26723 26726 26728 26731 26734 26737 26740 26743 26746 26749 26752 26755 26758 26761 26763 26766 26769 26772 26775 26778 26781 26783 26786 26789 26792 26795 26798 26801 26804 26807 26810 26813 26816 26819 26822 26825 26827 26830 26833 26835 26838 26841 26844 26847 26850 26853 26856 26858 26861 26863 26866 26868 26871 26873 26876 26878 26881 26884 26886 26889 26892 26895 26898 26901 26904 26907 26910 26913 26916 26919 26922 26925 26928 26931 26934 26937 26940 26943 26946 26948 26951 26954 26956 26959 26962 26965 26968 26971 26974 26977 26980 26983 26986 26989 26992 26995 26998 27001 27004 27007 27010 27013 27016 27019 27022 27025 27028 27031 27034 27037 27040 27043 27045 27048 27051 27053 27056 27059 27062 27065 27068 27071 27074 27077 27080 27083 27086 27089 27092 27095 27098 27100 27103 27106 27109 27112 27115 27118 27121 27124 27127 27130 27133 27136 27139 27142 27145 27148 27150 27153 27155 27157 27160 27163 27166 27169 27172 27174 27176 27179 27182 27185 27188 27190 27193 27196 27199 27202 27205 27208 27211 27214 27217 27220 27223 27226 27229 27232 27235 27238 27241 27244 27247 27250 27253 27255 27257 27260 27262 27264 27267 27270 27273 27275 27278 27281 27283 27285 27288 27291 27293 27296 27299 27302 27305 27308 27311 27313 27315 27318 27321 27323 27326 27329 27332 27334 27337 27340 27343 27346 27348 27350 27353 27356 27359 27362 27365 27368 27371 27374 27376 27379 27382 27384 27387 27389 27392 27394 27397 27400 27403 27406 27409 27412 27414 27417 27420 27423 27426 27428 27431 27434 27437 27440 27443 27446 27449 27452 27455 27458 27460 27463 27466 27469 27471 27474 27476 27479 27481 27484 27486 27489 27492 27495 27497 27500 27503 27506 27509 27512 27515 27518 27521 27524 27527 27529 27532 27535 27538 27541 27543 27546 27549 27552 27555 27558 27561 27564 27567 27569 27572 27575 27578 27581 27584 27587 27589 27592 27595 27598 27601 27604 27607 27609 27612 27615 27617 27620 27623 27626 27629 27632 27635 27637 27640 27643 27646 27649 27652 27655 27658 27661 27664 27667 27670 27672 27675 27678 27681 27684 27686 27688 27691 27694 27696 27699 27702 27705 27707 27710 27713 27716 27718 27720 27723 27725 27728 27730 27733 27736 27739 27742 27745 27748 27751 27754 27756 27759 27762 27765 27768 27771 27774 27777 27780 27783 27786 27789 27792 27795 27798 27801 27804 27807 27810 27812 27815 27818 27821 27824 27827 27830 27832 27835 27838 27841 27844 27846 27849 27852 27855 27858 27861 27864 27867 27870 27873 27876 27878 27881 27883 27886 27889 27892 27895 27898 27901 27904 27907 27910 27913 27916 27919 27922 27924 27927 27930 27933 27936 27939 27942 27945 27948 27951 27954 27957 27960 27962 27965 27967 27970 27973 27976 27979 27982 27984 27987 27989 27992 27995 27998 28000 28003 28006 28009 28012 28015 28018 28021 28024 28027 28030 28033 28036 28039 28042 28045 28048 28051 28054 28057 28060 28063 28066 28069 28072 28075 28078 28081 28084 28087 28090 28093 28096 28099 28102 28105 28108 28111 28114 28117 28120 28123 28126 28129 28132 28135 28138 28141 28144 28147 28150 28153 28156 28159 28162 28165 28168 28171 28174 28177 28180 28183 28186 28189 28192 28195 28198 28201 28204 28207 28210 28213 28216 28219 28222 28225 28228 28231 28234 28237 28240 28243 28246 28249 28252 28255 28258 28261 28264 28267 28270 28273 28276 28279 28282 28285 28288 28291 28294 28297 28300 28302 28305 28308 28310 28313 28316 28319 28322 28325 28328 28331 28334 28337 28340 28343 28346 28349 28352 28355 28358 28361 28364 28367 28370 28373 28376 28379 28382 28385 28388 28391 28394 28397 28400 28403 28406 28408 28411 28414 28417 28420 28423 28426 28429 28431 28434 28437 28440 28443 28446 28449 28452 28455 28458 28461 28464 28467 28470 28473 28476 28479 28482 28485 28488 28491 28494 28497 28500 28503 28505 28508 28511 28513 28516 28518 28521 28523 28526 28528 28531 28534 28536 28539 28542 28545 28548 28551 28554 28557 28560 28563 28566 28569 28572 28574 28577 28580 28583 28586 28589 28592 28595 28598 28601 28604 28607 28610 28613 28616 28619 28621 28624 28627 28630 28632 28635 28638 28641 28644 28647 28650 28652 28655 28658 28661 28664 28667 28670 28673 28676 28679 28682 28685 28687 28690 28693 28696 28698 28701 28704 28706 28709 28712 28715 28718 28721 28724 28726 28729 28732 28735 28738 28741 28744 28747 28750 28753 28756 28759 28762 28764 28766 28769 28772 28775 28778 28781 28783 28786 28789 28792 28795 28798 28800 28802 28805 28808 28811 28813 28815 28817 28820 28823 28826 28829 28832 28834 28837 28840 28842 28845 28848 28850 28853 28856 28859 28861 28864 28867 28869 28872 28875 28877 28880 28883 28886 28889 28892 28895 28898 28901 28904 28907 28910 28913 28916 28919 28922 28925 28928 28931 28934 28937 28940 28943 28946 28949 28952 28955 28958 28961 28964 28967 28970 28973 28976 28979 28982 28985 28988 28991 28994 28997 29000 29003 29006 29009 29012 29015 29018 29021 29024 29027 29030 29033 29036 29039 29042 29045 29048 29051 29054 29057 29059 29062 29065 29068 29071 29074 29076 29079 29082 29085 29088 29091 29094 29097 29100 29103 29106 29109 29112 29114 29117 29120 29123 29126 29129 29131 29134 29137 29140 29142 29145 29147 29150 29153 29155 29158 29161 29164 29167 29170 29173 29176 29179 29182 29185 29188 29191 29194 29197 29200 29203 29206 29209 29212 29215 29218 29221 29224 29227 29229 29232 29234 29237 29240 29242 29245 29248 29251 29254 29257 29260 29263 29266 29269 29272 29275 29278 29281 29284 29287 29289 29292 29295 29298 29301 29304 29307 29310 29313 29316 29319 29322 29325 29328 29331 29334 29337 29340 29343 29346 29349 29352 29355 29358 29361 29364 29367 29369 29372 29375 29377 29380 29383 29386 29389 29392 29395 29398 29401 29404 29407 29410 29413 29416 29419 29422 29425 29428 29430 29432 29435 29438 29441 29443 29446 29449 29452 29455 29458 29461 29464 29467 29470 29472 29475 29478 29481 29483 29485 29488 29491 29494 29496 29499 29502 29504 29507 29509 29512 29515 29518 29521 29524 29527 29530 29533 29536 29539 29541 29544 29547 29550 29552 29555 29558 29561 29564 29567 29570 29573 29576 29578 29581 29584 29586 29588 29591 29594 29597 29599 29602 29605 29608 29610 29613 29616 29618 29621 29624 29626 29629 29632 29635 29638 29641 29644 29646 29649 29652 29655 29658 29661 29664 29667 29670 29673 29676 29679 29682 29685 29688 29691 29694 29697 29700 29703 29706 29709 29712 29715 29718 29721 29724 29727 29730 29733 29736 29739 29742 29745 29748 29751 29754 29757 29760 29763 29766 29769 29772 29775 29778 29781 29784 29787 29790 29793 29796 29799 29802 29805 29808 29811 29814 29817 29820 29823 29826 29828 29830 29833 29836 29839 29842 29845 29848 29851 29854 29857 29860 29863 29866 29869 29872 29875 29878 29881 29884 29887 29890 29893 29896 29899 29902 29905 29908 29910 29913 29916 29919 29922 29925 29928 29931 29934 29937 29939 29942 29945 29948 29951 29953 29956 29959 29962 29965 29968 29971 29974 29977 29980 29983 29985 29988 29991 29994 29997 30000 30002 30005 30007 30010 30013 30016 30019 30022 30025 30028 30031 30034 30037 30040 30043 30046 30049 30052 30055 30058 30061 30064 30067 30070 30073 30075 30078 30080 30083 30086 30089 30092 30095 30098 30100 30103 30106 30109 30112 30115 30118 30121 30124 30126 30129 30132 30134 30137 30140 30143 30146 30148 30151 30154 30157 30159 30162 30165 30168 30171 30174 30177 30180 30183 30186 30189 30192 30195 30197 30200 30202 30205 30208 30211 30214 30217 30220 30223 30226 30229 30232 30235 30238 30240 30243 30246 30249 30251 30254 30257 30259 30262 30264 30267 30270 30273 30276 30279 30282 30284 30287 30290 30293 30296 30299 30302 30305 30308 30311 30314 30317 30320 30323 30326 30329 30332 30335 30338 30341 30343 30346 30348 30351 30354 30357 30360 30363 30366 30368 30371 30374 30377 30380 30383 30386 30389 30392 30395 30398 30401 30404 30407 30410 30413 30416 30419 30422 30425 30428 30431 30434 30437 30440 30443 30446 30449 30452 30455 30458 30461 30464 30467 30469 30472 30475 30478 30481 30484 30487 30490 30493 30496 30499 30501 30504 30507 30510 30512 30515 30518 30521 30524 30526 30529 30531 30534 30537 30540 30543 30545 30548 30551 30553 30556 30559 30562 30565 30568 30571 30574 30577 30580 30583 30586 30589 30592 30595 30598 30601 30604 30607 30610 30613 30616 30619 30622 30625 30628 30631 30634 30637 30639 30642 30645 30648 30650 30653 30656 30659 30661 30664 30667 30669 30672 30675 30678 30681 30684 30687 30690 30693 30696 30698 30701 30704 30707 30710 30713 30715 30717 30720 30723 30726 30729 30732 30735 30738 30741 30743 30746 30749 30752 30755 30758 30761 30764 30767 30770 30773 30776 30779 30782 30785 30788 30791 30794 30796 30799 30802 30804 30807 30810 30813 30816 30819 30821 30824 30827 30830 30833 30836 30839 30842 30845 30847 30850 30853 30856 30858 30860 30863 30866 30868 30871 30874 30877 30880 30883 30886 30889 30892 30894 30897 30900 30903 30906 30909 30912 30914 30917 30920 30923 30926 30929 30931 30934 30937 30940 30943 30946 30949 30951 30953 30956 30959 30961 30964 30967 30969 30972 
</DataArray>
<DataArray type="UInt32" Name="types" format="ascii">
5 5 5 5 5 5 5 5 3 5 5 5 5 3 3 3 5 5 5 5 5 3 5 3 5 5 5 5 5 5 5 5 3 5 5 5 5 3 5 5 5 5 5 5 5 5 5 5 5 3 5 5 5 3 5 5 3 5 3 5 5 3 5 5 5 3 3 5 3 3 5 3 5 5 5 5 5 5 5 5 3 5 5 3 5 3 5 5 5 5 5 3 5 5 3 5 5 3 5 5 5 5 5 5 5 5 5 5 3 5 5 5 5 3 5 5 5 5 5 3 5 3 5 5 5 3 3 3 5 5 5 5 3 5 5 5 5 3 5 5 5 5 5 5 5 3 5 5 5 5 5 3 5 5 5 5 5 5 5 5 5 5 5 5 5 5 5 5 5 5 5 3 3 5 5 5 5 5 5 5 5 5 5 5 5 5 5 3 5 5 5 5 5 3 5 5 5 5 5 5 3 5 5 5 5 5 5 5 5 3 5 5 5 5 3 5 5 5 5 5 3 5 5 5 3 5 5 5 5 5 5 5 3 5 5 5 3 3 5 5 5 5 5 5 5 3 5 5 3 5 5 5 5 5 5 5 5 5 5 3 5 5 5 5 5 3 5 3 5 5 3 5 5 5 5 5 5 5 5 3 5 5 3 5 5 5 3 5 3 5 5 5 5 5 3 5 3 3 5 5 5 5 5 5 3 5 5 5 5 5 5 5 5 5 5 5 5 5 5 5 5 5 5 5 5 5 5 5 5 5 5 3 5 5 3 5 5 5 5 5 5 5 5 5 5 5 5 5 5 5 5 3 5 5 5 5 5 5 5 3 5 5 5 5 5 5 5 5 5 5 5 5 5 5 5 5 5 5 5 3 5 5 5 5 5 5 3 5 5 5 5 5 5 5 5 5 5 5 5 5 5 5 5 5 3 3 5 5 5 5 5 5 5 5 3 5 5 3 5 5 3 5 5 5 5 5 3 5 5 5 5 3 5 5 5 5 5 5 3 5 5 5 5 5 5 5 5 5 5 3 5 5 5 3 5 5 5 5 5 3 5 5 5 5 3 5 5 5 5 5 5 5 3 5 5 5 5 5 5 3 5 5 3 5 5 5 5 5 5 5 5 5 5 5 5 5 3 5 5 5 5 3 5 5 5 5 3 5 5 3 5 3 5 5 5 3 5 5 5 5 5 3 5 5 5 5 5 5 3 5 5 5 5 5 5 5 5 3 5 5 3 5 5 3 5 5 3 5 5 3 5 5 5 5 3 5 5 5 5 5 5 5 3 5 5 3 5 5 5 5 3 5 5 5 5 5 5 3 3 3 5 5 5 5 5 5 3 5 5 5 5 5 5 5 5 5 5 5 5 5 5 5 5 5 5 5 5 5 5 5 5 5 5 5 5 5 5 5 5 5 5 3 5 5 5 5 5 5 5 3 5 5 5 5 3 5 5 5 5 5 5 5 5 5 5 5 5 5 5 5 5 5 5 5 5 5 5 3 5 5 3 5 5 5 5 5 3 5 5 3 5 5 3 5 3 5 5 5 5 5 3 5 5 5 5 3 5 5 5 5 5 5 5 5 3 5 5 5 3 3 3 3 5 5 5 5 5 5 5 5 5 5 3 5 3 5 5 3 5 5 5 5 5 5 5 5 5 5 5 5 5 5 3 3 3 5 5 3 5 5 3 3 5 5 5 5 3 5 5 3 5 5 3 5 5 5 5 5 5 5 5 5 5 5 5 3 5 5 5 5 5 3 5 3 5 5 3 3 5 5 5 5 5 3 5 5 3 5 5 3 5 5 3 5 5 3 3 5 5 3 5 5 3 5 3 3 5 5 5 5 3 5 5 5 3 5 3 5 5 5 3 5 5 5 3 5 5 5 3 5 5 3 3 5 5 5 3 5 5 5 5 3 5 3 5 5 5 3 5 3 5 5 5 5 5 5 5 5 5 5 5 5 5 5 5 5 5 3 5 5 5 5 5 5 5 3 5 5 5 5 5 5 5 5 5 5 5 5 5 5 5 5 5 5 5 5 5 5 5 5 5 5 5 5 5 5 5 5 5 5 5 5 5 5 3 5 5 5 5 5 5 5 5 5 5 5 5 5 5 5 5 5 5 5 5 5 5 5 5 5 5 5 5 5 5 5 5 5 5 5 5 5 5 5 5 5 3 5 5 3 5 3 5 5 5 5 5 3 3 3 5 5 5 5 5 5 5 5 3 5 5 5 5 5 5 5 5 5 5 3 5 5 5 5 5 3 5 5 5 5 5 5 3 5 5 5 5 5 3 3 5 5 5 5 5 5 5 5 5 5 5 5 3 3 5 5 5 5 5 5 5 5 3 5 5 5 5 5 5 3 5 5 5 5 5 5 5 5 5 5 5 5 5 5 5 5 5 5 5 5 5 5 5 5 5 5 5 5 5 5 5 3 5 5 5 5 5 5 3 5 5 5 5 5 3 5 5 5 5 3 5 3 5 5 5 5 3 5 5 5 5 5 3 5 5 5 5 5 3 5 5 5 3 5 5 5 3 5 5 5 5 5 5 5 5 5 5 5 5 5 5 5 5 3 5 3 5 5 5 5 3 5 5 5 3 5 5 3 5 5 5 3 3 5 5 5 5 5 5 5 5 5 5 5 5 5 5 5 5 5 5 5 5 3 5 5 3 5 5 5 5 3 5 5 5 3 5 5 5 5 3 5 5 5 5 5 5 5 5 5 5 5 5 5 5 5 5 5 5 5 5 5 5 5 3 5 5 5 5 5 5 5 5 5 5 5 5 5 5 5 5 5 5 5 5 5 5 5 5 5 3 3 5 5 5 5 5 5 5 5 5 5 5 5 5 5 5 5 5 5 5 5 5 5 5 5 5 5 3 5 5 5 5 5 5 5 5 5 5 5 5 5 5 5 5 5 5 5 5 5 5 5 5 5 5 5 3 5 5 5 5 5 5 5 3 5 5 5 5 5 5 5 5 5 5 5 5 5 5 5 5 5 5 5 5 3 3 5 5 5 5 5 5 5 5 5 5 5 5 5 5 5 5 5 5 3 3 5 5 3 5 5 5 5 5 5 5 5 5 3 3 3 5 5 5 5 3 5 5 3 5 5 5 5 3 5 5 5 5 5 5 5 3 5 5 5 5 5 5 3 3 3 5 5 5 5 5 5 5 5 5 5 5 5 5 5 5 3 5 5 5 5 5 5 3 5 5 5 5 5 5 5 5 5 5 5 3 3 5 5 5 5 3 5 5 5 3 5 5 5 5 5 5 5 5 5 5 5 5 5 5 5 5 3 3 5 3 3 5 5 5 3 5 3 5 5 5 5 5 3 5 5 5 5 5 5 5 5 5 3 5 5 5 5 5 3 5 5 5 3 5 3 5 5 5 5 3 5 3 5 5 5 5 5 3 5 5 5 5 5 5 5 5 5 5 5 5 5 5 5 3 5 5 5 5 3 5 5 5 5 5 5 5 5 5 5 5 5 5 5 5 5 5 5 5 5 5 5 5 5 5 5 5 5 5 5 5 5 5 5 5 5 5 5 5 5 5 5 5 3 5 3 5 3 5 5 5 5 5 5 5 3 5 5 5 3 5 5 5 5 5 5 5 5 3 5 5 5 5 5 5 5 5 3 5 5 5 5 5 5 5 5 5 5 5 5 5 5 5 5 5 5 5 5 5 5 5 5 5 5 5 5 5 5 5 5 5 5 5 5 5 5 5 5 5 5 5 5 5 5 5 5 5 5 5 5 5 5 5 5 5 3 5 5 5 5 5 5 5 5 5 3 5 5 3 5 5 3 5 5 5 3 3 5 3 3 5 5 5 3 5 5 3 5 5 5 5 5 5 3 5 5 5 5 5 5 5 5 5 5 5 5 5 3 3 5 5 5 3 5 5 5 5 5 3 5 5 5 5 3 5 5 3 5 3 5 3 5 3 5 3 5 3 5 5 5 5 5 5 5 5 3 3 5 5 5 5 5 5 5 5 5 5 5 5 5 5 5 5 5 5 5 5 5 5 5 5 5 5 5 5 5 5 5 3 5 5 5 5 5 5 3 5 5 5 5 5 5 3 5 5 5 5 3 5 3 5 5 5 5 5 5 5 5 5 5 3 5 5 5 3 5 5 5 5 5 5 5 5 5 5 5 3 5 5 5 5 5 5 5 5 5 5 5 5 5 5 3 5 5 5 3 3 5 3 5 5 3 5 5 5 3 3 5 5 5 5 5 3 5 5 3 5 5 3 5 5 5 5 3 5 5 5 5 5 5 5 5 5 5 5 5 5 5 5 3 5 5 5 5 5 5 5 3 5 5 5 5 5 5 5 3 5 5 5 5 5 5 5 5 5 5 5 5 5 5 5 5 5 5 5 5 5 3 5 5 5 5 5 3 5 5 3 5 5 3 5 5 5 5 5 5 5 5 5 5 5 5 5 5 5 5 5 5 5 5 5 5 5 5 5 5 5 5 5 5 5 5 5 5 5 5 5 5 5 5 5 5 5 5 5 5 5 5 5 5 3 5 5 3 5 5 5 3 5 5 5 5 5 5 5 5 5 5 5 5 5 3 5 5 5 5 5 5 3 5 5 5 3 5 5 5 3 5 5 3 5 5 5 5 3 5 5 5 5 5 5 5 5 3 5 5 5 5 5 5 5 5 5 5 5 3 5 5 5 5 5 5 5 5 5 5 3 5 5 5 3 5 5 5 5 5 5 5 5 5 5 5 3 5 3 5 5 5 3 5 5 5 5 5 5 5 5 3 5 5 5 5 5 5 5 3 5 5 5 5 3 5 3 5 5 5 5 3 5 5 5 5 5 5 3 5 5 5 5 5 5 5 5 5 5 5 5 5 3 5 5 5 5 3 5 5 5 5 5 3 5 5 5 5 5 5 5 5 5 5 5 5 5 3 5 5 3 5 5 5 5 5 5 5 5 5 5 5 5 5 5 3 3 5 5 5 5 5 5 5 5 5 5 5 5 5 5 5 5 5 5 5 5 5 5 5 5 3 5 5 5 5 5 3 5 5 5 5 5 5 5 5 3 5 5 5 5 3 5 5 5 5 5 5 5 5 5 5 5 5 5 5 5 5 5 5 5 5 3 5 5 3 5 3 5 5 5 5 5 5 5 5 5 5 5 5 5 5 5 5 5 5 5 5 5 5 5 5 3 5 5 5 5 5 5 5 5 5 5 5 3 5 5 5 5 5 3 5 5 5 5 5 5 5 5 5 5 5 5 5 5 5 5 5 5 5 5 5 5 5 5 5 5 5 5 5 5 5 5 5 5 5 5 5 5 5 5 3 5 5 5 5 5 5 5 5 5 5 5 3 5 5 3 5 5 5 3 5 5 5 5 5 5 5 5 5 5 5 5 5 5 5 5 5 5 5 5 5 5 5 5 5 5 5 5 5 5 5 5 5 3 5 5 5 3 5 3 5 5 5 3 5 5 5 5 3 5 5 5 5 5 5 5 5 5 5 3 5 5 5 5 5 5 3 3 5 5 5 5 3 5 5 5 5 3 5 5 5 5 5 5 5 5 5 3 5 5 5 5 5 5 5 3 5 5 3 3 5 5 5 5 5 5 5 5 5 5 5 3 5 3 5 3 5 5 5 5 3 5 5 5 5 5 3 5 3 5 3 5 5 5 5 5 5 5 5 5 5 3 5 3 5 5 3 5 3 5 5 5 5 3 5 5 5 5 5 5 5 5 5 5 5 5 5 3 5 5 5 5 5 5 3 5 5 3 5 5 5 5 5 5 5 5 5 3 5 5 5 5 5 5 5 3 5 5 5 5 5 3 5 5 5 5 5 5 5 5 5 5 5 5 3 5 5 3 5 5 5 5 3 5 5 5 5 5 5 5 5 5 5 5 5 5 5 5 5 5 5 5 5 5 5 5 5 5 5 5 5 5 5 5 5 5 5 5 5 5 5 3 3 5 5 5 5 5 5 5 5 5 5 5 5 5 3 5 5 5 5 5 5 5 5 5 5 5 5 5 3 5 5 5 5 5 5 5 5 5 5 5 5 5 5 5 3 5 5 5 5 5 5 5 5 5 3 5 3 5 5 5 3 5 5 3 5 5 5 5 5 5 5 5 5 5 5 5 5 5 5 5 5 5 5 5 3 5 3 5 5 3 5 5 5 5 5 5 5 5 5 5 3 3 5 5 3 5 5 5 5 5 5 5 5 3 5 5 5 3 5 5 5 3 5 3 5 3 5 3 5 5 5 5 5 5 5 5 5 5 5 5 5 5 5 3 5 5 5 5 5 5 5 5 5 5 5 5 5 5 5 5 5 5 5 3 5 5 5 5 5 5 5 5 5 3 5 5 5 5 5 3 5 5 5 5 5 5 5 5 5 5 3 5 3 5 5 5 5 3 3 5 5 5 5 5 5 5 5 5 5 5 5 5 5 5 3 5 5 5 5 5 3 5 5 5 5 5 5 5 5 5 5 5 5 3 5 5 5 5 3 5 5 5 5 5 5 5 3 3 5 5 5 3 5 5 5 5 5 5 5 5 5 5 5 3 5 3 5 5 5 5 3 5 5 5 5 5 5 3 5 5 5 5 5 5 3 5 5 5 5 5 5 3 5 5 3 5 5 5 5 5 5 5 5 5 5 5 5 5 5 5 5 3 5 5 5 5 5 5 5 5 5 3 5 5 5 5 5 5 5 5 5 5 5 5 5 5 5 5 5 5 5 5 5 3 5 5 3 5 5 5 3 5 5 3 5 3 5 5 5 5 5 5 5 3 5 5 5 5 5 5 5 5 5 5 5 5 3 3 5 5 5 5 5 3 5 5 3 5 5 3 5 5 5 5 5 3 5 3 5 5 5 5 3 5 5 5 5 5 5 5 5 3 5 3 3 5 5 5 5 3 5 3 5 5 3 5 5 5 3 5 5 3 5 3 5 5 3 5 3 3 5 3 5 5 5 3 5 3 5 5 5 3 3 5 5 5 5 5 3 5 5 3 5 3 5 5 5 5 3 5 3 5 5 3 5 3 5 5 5 3 5 5 3 3 5 3 3 5 5 5 3 5 3 5 5 3 5 5 5 3 3 3 5 3 5 5 3 3 5 5 3 5 5 5 5 3 5 3 5 5 5 5 3 5 5 5 5 5 5 5 5 3 5 3 5 3 5 5 5 5 5 3 3 5 3 5 5 5 5 5 5 5 5 5 5 3 3 3 5 5 5 5 5 5 5 5 5 5 3 5 3 5 5 3 3 5 5 5 5 3 5 5 5 5 5 5 5 5 5 5 5 3 5 5 5 5 5 3 5 5 5 5 5 3 5 5 5 5 3 5 3 5 3 5 5 3 5 5 3 5 5 5 5 5 5 5 3 5 5 5 5 5 5 5 5 5 5 5 5 5 5 5 5 5 5 5 5 5 3 5 5 5 5 5 3 5 5 5 3 3 5 5 5 5 5 5 5 5 5 5 5 5 3 5 5 5 5 5 5 5 3 5 5 5 5 5 5 5 5 5 3 5 3 5 5 3 3 3 5 5 3 5 5 5 5 5 5 5 5 3 5 5 5 5 5 5 5 3 5 3 5 3 5 5 5 5 5 5 3 3 5 5 3 5 5 5 5 5 5 5 5 5 5 5 5 5 3 5 5 5 3 5 5 5 5 5 5 5 5 5 5 5 5 5 5 5 5 5 5 5 5 5 5 5 5 5 5 5 5 5 5 5 5 5 3 5 5 3 5 5 5 5 5 5 5 5 5 5 3 5 5 5 5 5 5 5 5 5 5 5 5 5 3 5 3 5 5 5 3 5 5 5 5 3 5 5 5 5 5 5 5 5 5 5 5 3 5 5 5 5 5 5 5 5 5 5 5 5 5 5 3 3 5 5 5 5 3 5 5 5 5 5 5 5 3 5 5 5 3 5 5 5 5 5 5 5 5 5 5 5 5 5 5 5 5 3 5 5 5 5 3 5 3 5 5 5 5 5 5 5 3 5 5 5 5 5 5 5 5 5 5 5 5 5 5 5 5 5 5 5 5 5 5 5 5 3 5 3 3 5 5 5 5 5 5 5 5 5 5 5 5 5 3 5 5 5 5 5 5 3 5 5 5 3 5 5 5 5 5 5 5 5 3 5 5 5 5 3 3 3 5 3 5 5 5 5 5 3 5 5 5 5 5 5 5 3 5 5 5 5 5 5 5 5 5 3 3 5 5 5 5 5 5 5 5 5 5 5 5 5 5 5 5 5 5 5 5 5 5 5 3 5 5 5 5 5 5 3 3 5 5 5 5 3 5 3 5 5 3 5 5 5 5 3 5 5 5 3 5 5 5 5 5 5 5 5 3 5 3 3 5 5 5 5 5 5 5 3 5 5 5 5 3 5 5 5 5 5 5 5 5 5 5 5 5 5 5 5 5 3 3 5 3 5 3 5 3 5 5 5 5 5 5 5 3 5 5 5 5 5 5 5 5 5 5 5 5 5 5 5 5 5 5 5 5 5 5 5 5 5 5 3 5 3 5 5 5 3 5 3 5 5 5 5 5 5 5 5 5 5 5 5 5 5 5 5 5 5 5 5 5 5 5 5 5 3 3 5 5 3 5 3 5 5 5 5 5 5 5 5 3 5 5 5 5 3 5 3 5 5 5 5 5 5 5 3 5 5 3 5 5 5 5 5 5 5 5 5 5 5 5 5 5 5 5 5 5 5 5 5 5 5 5 5 5 5 5 5 5 3 5 3 5 5 5 5 5 5 3 3 5 5 5 5 3 5 5 5 5 3 3 5 3 5 5 5 5 3 5 5 5 5 5 3 3 5 5 3 5 5 5 3 5 5 3 5 5 5 5 5 5 5 5 5 5 3 5 5 5 3 5 3 5 5 3 5 5 5 5 5 3 5 3 5 5 3 3 5 5 5 3 3 5 5 3 3 5 3 5 5 5 3 3 3 5 3 5 5 3 5 5 5 5 5 5 5 5 5 3 3 5 5 5 3 5 5 3 3 3 3 5 5 5 3 3 5 5 5 5 5 3 5 5 5 5 5 5 5 5 5 5 5 5 5 3 5 5 5 3 5 5 5 3 5 5 5 5 5 5 3 5 5 5 5 5 5 5 5 5 5 5 5 5 3 5 3 5 5 5 5 5 3 5 5 5 5 5 5 3 5 3 5 5 5 5 5 5 5 5 5 5 5 5 5 3 5 5 5 5 5 5 5 5 5 5 5 5 5 5 5 5 5 3 5 5 5 3 5 5 5 5 5 5 5 5 5 5 5 5 5 3 5 5 3 3 5 3 5 5 3 5 5 5 5 5 5 5 5 5 5 5 5 5 5 5 5 5 5 5 5 3 5 5 5 5 5 5 5 5 5 5 5 5 5 5 5 3 5 3 5 5 5 5 3 5 5 3 5 3 5 5 5 5 5 5 5 3 5 5 5 5 5 3 5 5 5 5 5 5 5 5 5 5 5 5 5 5 5 5 5 5 5 5 5 5 5 5 3 5 5 5 5 5 3 5 5 5 5 5 5 5 5 5 5 5 5 5 5 5 5 5 5 5 5 5 5 5 5 5 5 5 5 5 5 5 5 5 5 5 5 5 5 5 5 5 5 5 5 5 5 3 5 5 5 5 3 5 3 5 5 5 3 5 5 5 5 5 5 3 5 5 3 5 5 5 5 5 5 5 3 5 5 5 5 5 5 5 5 5 5 5 5 5 5 5 5 5 5 5 5 5 5 5 5 5 5 5 5 5 5 5 5 5 5 5 5 5 5 5 5 5 5 3 5 5 3 5 5 5 5 5 5 3 5 5 5 5 3 5 3 5 5 3 5 5 3 5 5 5 5 5 5 5 3 5 5 5 5 5 5 5 5 5 5 5 3 5 5 5 5 3 5 5 5 3 3 5 5 3 5 5 5 3 5 5 3 5 5 5 5 5 5 5 5 3 5 5 3 5 5 3 5 5 5 3 5 5 5 3 5 5 5 5 5 3 5 5 5 5 5 3 5 5 5 5 5 5 5 5 5 3 5 5 5 5 3 5 5 5 5 5 5 5 5 3 5 3 5 5 5 5 5 5 5 5 5 5 3 5 5 5 5 5 5 3 5 5 3 5 5 3 5 5 5 5 5 5 5 5 5 3 5 5 5 5 5 5 3 5 5 3 5 5 5 5 5 5 5 5 5 5 3 3 5 5 5 3 3 5 5 5 5 3 5 5 3 3 5 5 3 5 5 5 3 5 5 3 3 5 5 5 5 5 5 5 3 5 5 5 5 5 5 5 5 5 5 5 5 5 5 5 3 5 5 5 5 5 5 5 3 5 5 3 3 5 3 5 3 5 5 3 5 5 5 3 3 5 5 5 5 3 5 5 3 5 5 3 5 5 3 5 5 5 5 3 3 5 5 5 3 5 5 5 5 5 5 5 5 5 5 5 5 5 5 5 5 5 5 5 5 5 5 5 5 5 5 5 5 5 5 5 5 5 5 5 5 5 5 5 5 5 5 5 5 5 5 5 5 3 5 5 5 5 3 5 5 5 5 5 5 3 5 5 5 5 3 3 5 5 5 5 5 5 5 5 5 5 5 5 5 5 5 5 5 5 5 5 5 5 3 5 5 5 5 5 5 5 5 5 5 5 5 5 5 5 5 3 5 5 5 5 3 5 5 5 5 5 5 5 5 3 5 5 5 5 5 5 5 5 3 5 5 5 5 3 5 3 5 5 5 5 5 5 5 5 5 5 5 5 5 5 5 5 5 5 5 5 5 5 5 5 5 5 5 3 5 5 5 5 5 5 5 3 5 5 5 5 5 5 5 5 5 5 5 3 5 5 5 5 5 5 5 5 3 5 5 5 5 5 5 5 5 5 5 3 5 3 5 5 5 5 3 5 5 5 5 3 5 5 3 5 5 5 5 5 5 3 5 5 5 5 5 5 5 5 5 3 5 5 5 3 5 3 5 5 3 5 3 5 5 3 5 5 5 5 5 5 5 3 5 5 5 5 5 3 5 5 5 5 5 5 5 5 5 5 5 5 3 5 5 5 3 5 5 5 5 3 5 5 5 5 5 3 5 5 3 5 5 5 3 5 5 5 5 3 5 5 3 3 5 5 5 5 5 5 5 5 5 5 5 3 5 5 5 5 5 5 5 5 5 5 5 5 5 5 3 5 3 5 5 5 5 5 5 5 5 5 5 5 5 5 5 5 5 5 5 5 5 5 5 5 3 5 5 5 5 5 5 5 5 5 5 5 5 5 5 3 5 5 5 5 5 5 5 5 5 5 5 5 5 5 5 5 5 5 5 5 5 5 5 5 5 5 5 5 5 5 5 5 5 5 5 5 5 5 5 5 3 5 5 5 5 5 5 5 5 5 5 3 5 3 5 5 5 5 5 3 5 5 5 5 5 5 5 5 5 5 3 5 5 3 5 5 3 5 5 5 5 5 3 5 5 5 3 3 5 5 3 5 5 5 5 5 5 5 3 3 5 3 5 5 5 5 5 3 5 5 5 5 5 5 5 5 5 5 5 5 5 5 3 5 5 5 3 5 3 5 5 5 5 5 3 5 5 5 5 5 5 5 5 5 5 5 5 5 5 3 5 5 5 3 5 5 5 5 5 3 5 5 5 3 3 5 5 5 5 5 5 5 5 5 5 5 5 5 5 5 5 3 3 5 5 5 3 5 5 3 5 3 5 3 5 5 5 3 5 3 5 5 5 5 5 5 3 5 5 5 5 5 5 5 5 3 5 5 5 5 5 3 5 3 5 5 5 5 5 5 5 5 5 3 5 3 5 5 5 5 5 5 5 5 5 5 5 5 5 5 5 5 3 5 5 5 5 5 5 5 5 5 3 5 5 5 5 5 5 5 5 5 5 5 3 5 5 5 5 5 5 5 5 3 5 5 5 5 5 5 3 5 5 5 5 5 5 5 5 5 5 5 5 5 3 5 5 5 5 5 5 5 5 5 5 5 5 5 5 5 5 5 3 5 5 5 5 5 5 5 5 5 5 5 5 5 5 5 5 5 5 5 5 5 5 5 5 5 5 5 5 5 5 3 5 5 5 5 5 5 5 5 5 5 5 5 3 5 3 5 5 5 5 5 5 5 5 5 5 3 5 5 5 5 5 5 5 5 5 5 5 3 5 3 3 5 5 3 5 5 3 3 5 5 3 5 5 3 5 5 5 5 5 5 5 5 3 5 5 5 5 5 5 5 5 5 3 5 5 5 5 5 5 5 3 3 5 3 5 5 5 3 5 5 5 5 5 3 5 5 5 5 5 5 3 5 5 5 5 5 5 3 5 5 3 5 5 5 5 5 3 5 3 5 3 5 5 5 5 5 5 5 5 5 5 3 5 3 5 5 3 5 5 5 3 3 5 5 5 5 3 5 3 5 5 3 5 5 5 5 5 5 5 5 5 5 5 5 5 5 5 5 5 5 5 5 5 5 5 5 3 5 5 5 5 5 5 5 3 5 5 5 5 3 5 5 5 3 5 5 3 5 3 5 5 5 5 5 5 5 5 3 5 5 5 3 5 5 5 5 3 5 3 5 5 5 5 5 5 3 5 5 5 3 5 5 3 5 5 5 5 5 3 5 5 5 5 5 3 3 5 5 5 5 5 5 5 5 5 5 5 5 5 5 5 5 5 5 5 5 5 5 5 5 5 5 5 5 5 5 5 5 5 5 5 5 5 5 5 5 5 5 5 5 5 5 5 3 5 5 5 5 5 5 5 5 5 5 5 5 5 5 5 5 5 5 3 5 5 5 5 5 5 5 3 5 5 5 5 3 5 5 5 5 5 5 5 5 5 5 5 3 5 5 5 5 5 5 3 5 5 3 5 3 3 3 5 5 5 5 5 5 5 5 5 5 5 5 5 5 5 5 5 5 5 5 5 5 5 5 5 5 5 5 5 5 5 5 5 5 5 5 5 5 5 5 5 5 5 5 5 5 5 5 5 5 5 5 5 5 5 5 3 5 5 5 3 5 3 5 5 5 5 5 5 5 5 5 5 5 3 5 5 5 3 5 3 5 3 5 5 5 5 5 5 5 5 5 5 5 5 5 5 5 5 5 5 5 5 5 5 3 5 5 5 5 5 5 5 5 5 5 5 5 5 5 5 3 5 5 5 5 3 3 5 5 3 5 5 5 5 3 5 3 5 3 5 5 5 3 5 3 5 5 5 5 5 5 5 5 3 5 5 5 3 5 5 5 3 5 5 5 5 5 5 5 5 5 5 5 5 5 5 5 5 5 5 5 3 5 5 5 5 5 5 5 5 5 5 5 5 5 5 5 5 3 5 5 5 3 5 5 5 5 5 5 3 5 5 5 5 5 5 5 5 5 5 3 5 5 5 5 5 5 5 5 5 5 5 5 5 5 5 5 5 5 5 5 5 5 5 5 5 5 5 5 5 3 5 5 5 5 3 3 5 5 5 3 5 5 5 5 5 5 5 3 5 5 5 3 5 5 5 5 3 5 3 3 5 5 3 5 5 5 5 5 3 5 3 5 5 3 5 3 3 5 5 3 3 5 5 5 5 3 5 3 5 5 5 3 3 5 5 5 5 5 3 5 5 5 3 5 5 5 5 5 3 5 5 5 5 5 5 3 5 5 5 5 5 5 5 5 3 3 3 5 3 5 5 3 5 5 5 5 5 5 5 5 5 5 5 3 5 5 5 5 5 5 5 5 5 3 5 5 5 5 5 5 5 5 3 5 5 5 5 5 3 5 5 5 5 5 5 5 3 5 5 5 3 5 5 3 5 5 5 5 5 5 5 5 5 5 5 5 5 5 5 5 5 5 5 5 5 5 5 3 5 5 5 5 5 3 5 5 5 5 5 5 5 5 5 5 5 5 5 5 3 5 5 5 5 5 5 5 5 5 3 5 3 5 5 5 5 5 3 5 3 3 5 5 5 5 5 5 5 3 5 5 5 5 5 5 3 5 3 5 3 5 5 5 5 5 5 5 5 5 5 5 5 5 5 5 5 5 5 5 5 5 5 5 5 5 5 5 5 5 5 5 5 5 5 5 5 5 5 5 5 5 5 3 5 5 5 5 5 5 5 5 5 3 5 5 5 5 5 5 3 5 5 3 5 5 5 5 5 5 5 5 5 5 5 5 3 5 5 3 5 5 5 5 3 5 3 5 5 5 5 3 5 3 5 5 5 5 3 3 5 3 5 5 5 5 5 5 5 5 5 5 5 5 5 5 3 5 5 5 5 5 5 5 5 5 5 5 5 5 5 5 5 5 5 5 3 5 5 3 5 5 5 3 5 5 5 5 5 3 5 5 5 5 5 5 5 5 5 5 5 5 3 5 3 5 5 5 3 5 5 5 3 5 3 5 5 5 5 5 3 5 5 5 3 5 5 5 5 3 5 5 5 5 3 5 5 3 5 5 5 3 5 5 5 5 5 5 5 5 5 3 5 5 3 5 5 5 3 5 5 5 5 5 5 5 5 5 5 5 5 5 5 5 5 5 5 5 5 5 5 5 5 5 5 5 5 5 5 5 5 5 5 5 3 5 5 5 5 5 5 5 5 5 5 5 5 5 5 5 3 3 5 5 5 5 5 5 5 3 5 5 5 5 5 5 5 5 5 5 5 5 5 5 5 5 5 5 5 5 5 5 5 5 5 5 5 5 5 5 5 5 5 5 5 5 3 5 5 3 5 5 5 5 5 5 5 5 5 3 5 5 5 5 5 5 5 5 5 5 5 5 5 5 3 5 5 5 5 5 5 5 3 5 5 5 5 3 5 3 5 5 5 5 5 5 5 5 5 5 3 5 5 5 5 3 5 5 5 5 5 5 3 5 5 3 5 5 5 3 5 5 5 5 3 5 5 5 3 5 5 5 5 5 5 5 5 5 3 3 5 5 5 5 5 5 5 3 5 5 5 5 5 3 5 5 3 5 5 5 5 5 5 5 5 3 5 5 5 5 5 3 5 5 5 5 5 5 5 5 5 5 5 5 5 5 5 5 5 5 5 5 5 3 5 5 5 5 5 5 5 3 5 5 5 5 5 5 5 3 5 3 3 5 5 5 5 5 5 5 5 5 5 5 5 5 5 5 5 5 5 5 5 5 5 5 5 5 5 5 5 5 3 5 5 5 5 5 5 5 5 5 5 5 5 5 5 5 5 5 5 5 5 5 5 5 5 3 5 5 5 5 3 5 5 5 5 5 5 5 5 5 5 5 5 5 5 5 5 5 5 5 5 5 5 5 5 5 5 5 5 5 5 5 5 5 5 5 5 5 5 3 5 5 5 5 5 5 5 5 5 3 5 3 3 5 5 5 5 5 3 5 5 5 3 5 5 5 5 5 5 5 5 5 5 5 5 5 5 5 5 5 5 5 5 5 5 5 5 5 5 5 5 5 5 5 5 5 5 5 5 5 5 5 5 5 5 5 5 3 5 5 5 5 5 5 5 5 5 5 5 5 5 5 5 5 5 5 5 3 5 5 3 5 3 5 5 5 5 5 5 5 3 5 5 5 5 5 5 5 5 5 3 5 5 5 5 5 5 5 5 5 5 5 5 3 5 5 5 5 5 5 5 5 5 5 5 5 5 5 5 5 5 5 3 5 5 5 5 5 3 3 5 5 5 3 5 5 5 5 5 3 5 3 5 5 5 5 5 3 3 5 3 5 5 5 5 5 5 5 5 5 5 5 5 5 5 3 5 5 5 5 5 5 5 5 5 5 5 5 5 5 5 5 5 5 5 5 5 3 5 5 5 5 5 3 5 5 5 5 5 5 3 5 3 3 5 5 5 5 5 5 5 5 5 5 5 5 5 5 5 5 5 5 5 5 5 5 5 5 3 5 5 5 5 5 5 5 5 3 5 5 5 5 5 5 5 5 5 3 5 5 5 5 5 5 5 5 3 5 5 3 5 5 5 5 3 3 5 5 3 3 5 5 5 5 5 3 5 5 5 5 5 3 5 5 5 5 5 5 5 5 3 5 5 5 5 5 5 5 5 5 5 3 3 5 5 5 5 5 5 3 5 5 5 5 5 5 5 5 5 5 3 5 5 5 5 5 5 5 5 5 5 5 5 3 5 5 5 5 5 5 5 5 5 5 5 5 5 5 5 5 5 5 5 5 5 5 5 5 3 5 5 5 5 5 5 5 5 5 5 5 5 5 5 3 5 5 5 5 5 5 5 5 5 5 5 5 5 5 5 5 5 5 5 5 5 5 5 5 5 5 5 5 5 5 5 5 5 5 5 5 5 5 5 3 5 5 5 5 5 5 5 5 5 5 5 5 5 5 5 5 3 5 5 3 5 5 5 5 5 3 5 5 5 5 5 5 5 5 5 5 5 5 5 5 5 5 5 5 5 5 5 5 5 5 5 3 5 5 5 3 5 5 5 5 5 3 5 5 5 5 5 5 5 5 5 5 5 5 5 5 5 5 5 5 5 5 5 5 5 5 5 5 5 5 5 5 5 5 5 5 5 5 5 5 5 5 5 5 5 5 5 5 5 5 5 3 5 3 5 5 5 5 5 5 5 5 5 5 5 5 5 5 5 5 5 3 5 5 5 5 5 5 5 5 5 3 5 5 5 5 5 5 5 5 3 5 5 5 5 5 5 5 5 5 5 5 5 5 5 5 5 5 5 5 5 5 5 5 5 5 5 5 3 3 5 5 5 3 5 5 3 5 5 3 5 5 5 5 3 5 5 3 5 3 5 5 5 5 5 5 5 5 5 5 5 5 5 5 5 5 5 5 3 5 5 5 5 5 5 5 5 5 5 5 5 5 5 5 5 5 5 5 5 5 5 5 5 5 5 3 5 5 5 5 5 5 3 5 5 5 5 5 3 3 5 5 5 5 3 3 5 5 3 5 5 3 5 5 3 5 5 5 5 3 5 5 5 5 5 5 5 5 5 5 5 3 5 5 5 3 5 5 3 5 5 5 3 5 5 3 3 3 5 5 5 5 5 5 5 5 5 5 5 5 3 5 5 5 5 5 5 5 5 5 5 5 5 5 5 5 5 5 5 5 3 5 5 5 3 5 5 5 5 3 5 5 5 5 5 5 5 3 5 5 5 5 3 5 5 5 5 5 5 5 5 5 5 5 5 5 5 5 5 3 5 3 5 3 5 5 3 5 5 3 5 5 5 5 5 3 5 3 5 5 3 5 5 5 5 5 5 5 5 5 5 5 5 5 5 5 5 5 5 5 5 5 5 5 5 5 5 5 3 5 5 5 5 3 5 5 5 5 5 5 5 3 5 5 3 3 5 5 5 3 5 5 3 5 3 3 3 5 5 3 3 5 5 5 3 5 5 3 5 5 5 3 5 5 3 5 5 5 3 5 5 5 5 5 5 5 3 5 3 5 5 5 5 5 3 5 3 5 5 5 5 5 5 5 5 5 5 5 3 5 5 3 5 5 5 5 3 5 3 5 5 5 5 5 5 5 5 3 3 5 5 5 5 5 5 5 5 5 5 5 5 5 5 5 5 5 5 5 5 5 5 3 5 5 5 3 5 5 5 5 5 5 5 5 5 5 5 3 5 5 5 5 5 5 5 3 5 5 3 5 5 5 5 5 5 3 5 5 5 5 5 5 5 5 5 5 5 5 5 5 3 5 5 5 5 5 5 5 5 5 5 5 5 5 5 5 5 5 5 3 5 5 3 5 5 5 5 5 5 5 5 5 5 5 3 5 5 3 5 3 5 5 3 5 5 5 3 3 5 3 5 5 5 5 3 5 5 5 5 5 5 5 5 5 3 5 5 5 5 5 5 5 5 5 5 5 5 5 3 5 5 5 5 5 5 5 5 5 5 5 5 5 3 5 5 5 5 5 5 5 3 5 5 5 5 5 3 5 5 5 5 5 5 5 5 5 5 5 5 5 5 5 5 5 5 5 3 3 5 5 5 5 5 5 3 5 5 5 5 3 5 5 5 5 3 5 5 5 5 3 5 3 5 5 5 5 5 5 5 5 5 5 5 5 5 5 5 3 5 5 3 3 5 5 5 5 5 5 5 5 5 3 5 5 5 5 3 5 3 3 5 5 5 5 5 5 3 5 5 5 5 3 3 5 3 5 5 3 5 5 5 5 5 5 3 5 5 5 5 3 5 5 5 5 5 3 5 5 5 5 5 5 3 5 5 5 5 3 5 5 5 5 5 5 5 5 5 5 5 5 5 5 5 3 5 5 5 5 5 5 5 5 5 5 5 5 3 5 5 5 5 5 5 5 5 5 5 3 5 5 5 5 5 5 5 5 5 5 5 5 5 5 5 5 5 5 5 5 5 5 5 5 5 5 5 5 3 5 5 5 5 3 5 5 5 5 5 5 5 5 5 5 5 5 5 5 5 5 3 5 5 5 5 5 5 5 5 5 3 5 5 5 5 5 5 3 5 5 3 5 5 5 5 5 5 5 5 5 5 5 3 5 5 5 3 5 5 5 5 5 5 5 5 5 5 5 5 5 5 3 5 5 3 5 3 5 5 5 3 5 5 5 5 5 3 5 5 5 5 5 5 5 5 5 5 5 5 5 5 5 5 5 5 5 5 5 5 5 5 5 5 5 5 5 5 5 5 5 5 5 5 5 5 3 5 5 3 5 5 5 5 5 5 5 5 5 5 5 5 5 5 5 5 5 5 3 5 5 5 5 5 5 3 5 5 5 3 5 5 5 5 5 5 5 5 5 5 5 3 5 5 5 5 5 5 5 5 5 5 3 5 5 5 5 5 5 5 5 3 5 3 5 5 3 5 5 3 3 3 5 5 5 3 5 5 5 5 3 5 5 5 5 5 5 3 3 5 5 5 5 5 5 5 5 5 5 5 5 3 5 5 5 5 5 5 3 5 5 5 5 5 5 5 5 5 3 5 5 5 5 5 5 5 5 5 3 5 5 5 5 3 5 5 5 5 5 3 5 5 3 5 5 5 5 5 3 5 5 5 5 5 5 5 5 5 5 5 5 5 5 3 5 5 5 5 5 3 3 5 5 5 3 5 5 5 5 3 5 5 3 5 5 5 5 5 5 5 5 5 5 5 5 5 3 5 5 5 5 5 5 5 3 5 5 5 5 5 5 5 5 5 5 5 3 5 5 5 5 5 5 5 5 5 5 5 5 5 5 5 5 5 3 5 5 5 5 5 5 3 5 5 5 3 5 5 5 5 5 3 5 5 5 3 5 5 5 5 5 5 5 3 5 5 3 5 5 5 5 5 5 5 5 5 5 3 3 5 5 5 5 5 5 5 5 5 5 5 5 5 5 5 5 5 3 5 5 5 5 5 5 3 5 5 5 3 5 5 5 3 5 5 5 5 5 5 5 5 5 3 5 5 5 5 5 5 3 5 5 5 5 5 5 5 5 5 5 5 5 5 5 5 5 3 5 5 3 5 3 5 5 5 5 5 5 5 3 5 3 5 5 5 5 5 5 3 5 5 3 5 5 5 5 5 5 5 5 5 3 5 5 5 5 5 3 5 5 5 5 5 5 3 5 5 5 5 5 5 5 5 3 5 5 5 5 5 5 5 5 5 5 5 5 5 3 5 3 5 5 3 5 5 3 5 5 5 5 5 5 5 5 3 5 5 3 5 5 5 5 5 5 5 5 5 5 5 5 5 5 5 5 5 5 5 5 5 5 5 5 5 5 5 5 5 5 3 5 5 5 5 5 5 5 5 5 5 5 5 5 5 5 5 5 5 5 5 5 5 5 5 5 5 5 5 5 5 5 5 5 5 5 5 5 5 5 5 5 5 5 5 5 5 5 5 5 5 5 5 5 3 5 5 5 5 5 5 5 5 5 5 3 3 5 5 5 5 3 5 5 3 5 3 5 5 5 5 5 5 5 5 3 5 5 5 5 5 5 5 5 5 5 5 5 5 5 5 5 5 5 5 5 5 5 5 5 5 5 5 5 3 5 5 5 5 3 5 5 3 5 5 5 5 5 5 5 5 5 5 5 3 5 3 5 5 5 5 5 5 5 5 5 5 5 5 5 3 3 5 5 5 5 5 3 5 5 5 5 5 3 5 5 3 5 5 3 5 5 3 3 3 3 5 5 3 5 5 5 5 3 5 5 3 5 5 5 3 5 5 5 3 5 5 5 5 5 3 3 5 3 5 5 5 5 5 5 5 5 5 5 5 5 5 5 5 5 5 5 5 5 5 5 3 5 5 5 3 5 5 5 5 5 5 5 5 5 5 5 5 5 5 5 5 5 3 5 5 5 5 5 5 5 5 5 5 5 5 5 5 5 5 3 5 3 5 5 5 5 5 5 5 5 3 3 3 5 5 3 5 5 5 3 5 5 3 5 3 5 5 5 5 5 5 5 5 3 5 5 5 5 5 5 5 3 5 5 5 5 5 5 5 5 3 5 5 5 3 5 5 5 5 5 5 5 5 5 5 5 5 5 3 5 3 5 3 5 5 5 5 5 3 5 5 5 5 5 5 3 3 3 5 5 5 5 5 5 5 5 5 5 5 5 5 5 5 5 5 5 5 5 5 5 5 5 5 5 5 5 5 5 5 5 5 5 5 5 5 5 3 5 5 3 5 5 5 5 5 5 5 5 5 5 5 5 3 5 5 5 3 5 5 5 5 5 5 5 5 5 5 5 5 5 5 5 5 5 5 5 5 5 5 5 3 5 5 5 5 5 5 5 5 5 5 3 5 5 5 5 5 5 5 3 3 5 3 5 5 5 5 5 5 5 5 5 5 5 5 5 5 5 3 5 3 5 5 5 3 5 5 3 5 5 5 5 5 5 5 5 5 5 5 5 5 5 5 5 5 3 5 5 5 5 5 5 5 3 5 5 5 5 5 5 5 5 5 3 5 3 5 5 5 5 5 5 5 5 5 5 5 3 5 3 5 5 5 5 5 5 5 5 5 5 5 5 5 5 5 5 5 5 5 5 5 5 5 5 5 5 5 5 5 5 5 5 5 5 5 5 5 5 5 5 5 5 5 5 5 3 3 5 5 5 3 5 3 5 3 5 3 5 5 5 5 3 3 3 5 3 5 5 5 5 3 5 5 5 5 3 5 5 5 3 5 3 3 3 5 5 3 5 5 5 5 3 5 5 5 5 5 5 5 5 5 5 5 5 5 5 3 5 5 3 5 5 5 5 5 3 5 5 3 5 5 5 5 5 5 5 5 5 5 5 5 5 5 5 5 5 5 5 3 5 5 5 5 5 5 5 5 5 5 5 3 5 5 5 5 5 5 3 5 5 5 5 5 5 5 5 5 5 5 5 5 5 3 5 5 3 5 5 5 5 5 5 5 3 5 3 5 3 5 3 5 3 5 5 3 5 5 5 5 5 5 5 5 5 5 5 5 5 5 5 5 5 5 5 5 3 5 5 3 5 5 5 5 5 5 5 5 5 5 5 5 5 5 5 5 5 5 5 5 5 5 5 5 5 5 5 5 5 3 5 5 3 5 5 5 5 5 5 5 5 5 5 5 5 5 5 5 3 5 5 5 5 5 5 5 5 5 5 5 5 5 5 5 5 3 5 3 3 5 5 5 5 5 3 3 5 5 5 5 3 5 5 5 5 5 5 5 5 5 5 5 5 5 5 5 5 5 5 5 5 5 3 3 5 3 3 5 5 5 3 5 5 3 3 5 5 3 5 5 5 5 5 5 3 3 5 5 3 5 5 5 3 5 5 5 5 3 3 5 5 5 5 5 5 5 5 3 5 5 3 5 3 5 3 5 5 5 5 5 5 3 5 5 5 5 3 5 5 5 5 5 5 5 5 5 5 3 5 5 5 3 5 3 5 3 5 3 5 5 5 3 5 5 5 5 5 5 5 5 5 5 3 5 5 5 5 3 5 5 5 5 5 5 5 5 3 5 5 5 5 5 5 3 5 5 5 5 5 5 3 5 5 3 5 5 5 5 5 5 3 5 5 5 5 5 5 5 5 5 5 5 3 5 5 5 5 3 3 5 5 3 5 5 5 3 5 5 5 3 3 5 3 5 3 5 5 5 5 5 5 5 5 3 5 5 5 5 5 5 5 5 5 5 5 5 5 5 5 5 5 5 3 5 5 5 5 5 5 3 5 5 5 5 3 5 5 5 5 5 5 5 5 5 5 3 5 3 5 5 5 5 5 5 5 5 5 5 5 5 5 3 5 5 5 5 5 5 5 5 5 5 5 5 3 5 3 5 5 5 5 5 3 5 3 5 5 5 3 5 5 5 5 5 5 5 5 5 5 5 5 5 5 5 5 5 5 5 5 5 5 5 5 5 5 5 5 5 5 5 5 5 5 5 5 5 5 5 5 5 5 5 5 5 5 5 5 5 5 5 5 5 5 5 5 5 5 5 5 5 5 5 5 5 5 5 5 5 5 5 5 5 5 5 5 5 5 5 5 5 5 5 5 5 5 5 5 5 5 5 5 5 5 5 5 5 5 5 5 3 5 5 3 5 5 5 5 5 5 5 5 5 5 5 5 5 5 5 5 5 5 5 5 5 5 5 5 5 5 5 5 5 5 5 5 3 5 5 5 5 5 5 5 3 5 5 5 5 5 5 5 5 5 5 5 5 5 5 5 5 5 5 5 5 5 5 5 5 3 5 5 3 5 3 5 3 5 3 5 5 3 5 5 5 5 5 5 5 5 5 5 5 5 3 5 5 5 5 5 5 5 5 5 5 5 5 5 5 5 3 5 5 5 3 5 5 5 5 5 5 3 5 5 5 5 5 5 5 5 5 5 5 3 5 5 5 3 5 5 3 5 5 5 5 5 5 3 5 5 5 5 5 5 5 5 5 5 5 5 3 3 5 5 5 5 5 3 5 5 5 5 5 3 3 5 5 5 3 3 3 5 5 5 5 5 3 5 5 3 5 5 3 5 5 5 3 5 5 3 5 5 3 5 5 5 5 5 5 5 5 5 5 5 5 5 5 5 5 5 5 5 5 5 5 5 5 5 5 5 5 5 5 5 5 5 5 5 5 5 5 5 5 5 5 5 5 5 5 5 5 5 5 5 5 5 5 5 5 5 5 5 5 3 5 5 5 5 5 3 5 5 5 5 5 5 5 5 5 5 5 5 3 5 5 5 5 5 3 5 5 5 3 5 3 5 5 3 5 5 5 5 5 5 5 5 5 5 5 5 5 5 5 5 5 5 5 5 5 5 5 5 3 5 3 5 5 3 5 5 5 5 5 5 5 5 5 5 5 5 5 5 5 3 5 5 5 5 5 5 5 5 5 5 5 5 5 5 5 5 5 5 5 5 5 5 5 5 5 5 3 5 5 3 5 5 5 5 5 5 5 5 5 5 5 5 5 5 5 5 5 3 3 5 5 5 3 5 5 5 5 5 5 5 5 5 3 5 5 5 3 3 5 5 5 3 5 5 3 5 3 5 5 5 5 5 5 5 5 5 5 3 5 5 5 3 5 5 5 5 5 5 5 5 3 5 5 3 3 5 5 5 3 5 5 5 3 5 5 3 5 5 3 5 5 5 5 5 5 3 5 5 5 5 5 5 5 5 5 5 5 5 5 5 5 5 5 5 5 5 5 5 5 5 5 5 5 5 5 5 5 5 5 5 5 5 5 5 5 5 5 5 5 5 5 5 5 5 5 5 5 5 5 5 5 5 5 5 5 5 3 3 5 5 5 5 5 5 5 5 5 5 5 5 5 5 5 5 5 5 5 5 5 5 5 5 5 5 3 5 5 5 5 5 5 5 5 5 3 5 5 5 5 3 5 5 5 5 5 5 5 5 5 5 3 5 5 5 5 5 3 5 3 5 5 5 5 5 5 5 5 5 5 5 5 5 5 5 5 5 5 5 5 5 5 3 5 3 5 5 5 5 5 5 3 5 5 5 5 5 5 5 5 3 5 5 3 5 5 5 5 3 5 5 5 3 5 5 5 5 5 5 5 5 5 5 5 5 3 5 3 5 5 5 5 5 5 5 5 5 5 5 5 3 5 5 5 3 5 5 3 5 3 5 5 5 5 5 5 3 5 5 5 5 5 5 5 5 5 5 5 5 5 5 5 5 5 5 5 3 5 3 5 5 5 5 5 5 3 5 5 5 5 5 5 5 5 5 5 5 5 5 5 5 5 5 5 5 5 5 5 5 5 5 5 5 5 5 5 5 5 5 3 5 5 5 5 5 5 5 5 5 5 3 5 5 5 3 5 5 5 5 3 5 3 5 5 5 5 3 5 5 3 5 5 5 5 5 5 5 5 5 5 5 5 5 5 5 5 5 5 5 5 5 5 5 5 5 5 5 5 3 5 5 5 3 5 5 5 3 5 5 3 5 5 5 5 5 5 5 5 5 3 5 5 5 5 5 3 3 5 5 5 5 5 5 5 5 3 5 5 5 5 5 5 5 5 5 5 5 5 5 5 5 5 5 3 5 5 3 5 5 5 5 5 3 5 5 5 5 5 5 5 5 3 5 5 5 3 3 5 5 3 5 5 5 5 5 5 5 5 3 5 5 5 5 5 5 3 5 5 5 5 5 3 5 5 5 5 5 5 3 3 5 5 3 5 5 3 5 
</DataArray>
</Cells>
<PointData Scalars="" Vectors="displacement," Tensors="">
<DataArray type="Float64" Name="displacement" NumberOfComponents="3" format="ascii">
1.9840903739033328e-07 0.0049994495804113704 0 -1.6800154382963522e-06 0.0049308088317924301 0 1.1395415218250158e-06 0.0049926866020721227 0 1.9840903739033328e-07 0.0049994495804113704 0 -5.2105292686326699e-08 0.0050001023294774022 0 1.1395415218250158e-06 0.0049926866020721227 0 1.9840903739033328e-07 0.0049994495804113704 0 -1.6800154382963522e-06 0.0049308088317924301 0 -1.0906098204147114e-05 0.0048867753845835667 0 1.9840903739033328e-07 0.0049994495804113704 0 -1.0906098204147114e-05 0.0048867753845835667 0 -3.1374342380389311e-07 0.0046039230788871652 0 -3.9199794233141986e-06 0.0049756219740223918 0 -1.6800154382963522e-06 0.0049308088317924301 0 1.1395415218250158e-06 0.0049926866020721227 0 -3.9199794233141986e-06 0.0049756219740223918 0 -1.23702802128446e-05 0.0049592350066124773 0 -1.6800154382963522e-06 0.0049308088317924301 0 -5.8374411883613706e-06 0.0042573701227366836 0 7.1817164338549823e-06 0.0042546035639288125 0 -3.1611186870591109e-06 0.0042520422771382552 0 -2.4137242941160627e-05 0.0045934728065370502 0 -1.3742290634068036e-05 0.0045944433836137962 0 -1.9488111749046655e-05 0.0046072673342501553 0 -1.0115750202351657e-05 0.0048234269492475465 0 -9.5447308053690202e-06 0.0046906790458931492 0 -1.3742290634068036e-05 0.0045944433836137962 0 -1.376857400434722e-05 0.0046176019423659507 0 -1.9488111749046655e-05 0.0046072673342501553 0 -2.4137242941160627e-05 0.0045934728065370502 0 -1.5893346731711253e-05 0.0045898186569084754 0 -1.34552338826353e-05 0.0045859846362935825 0 -1.3742290634068036e-05 0.0045944433836137962 0 -1.5893346731711253e-05 0.0045898186569084754 0 -1.2628590116218974e-05 0.0045864702563338201 0 -1.8475670339785289e-05 0.0050036410290450811 0 -1.6800154382963522e-06 0.0049308088317924301 0 -1.0906098204147114e-05 0.0048867753845835667 0 -1.0115750202351657e-05 0.0048234269492475465 0 -1.1312967077838948e-05 0.0047311437199216433 0 -1.0115750202351657e-05 0.0048234269492475465 0 -1.0143744116943643e-05 0.0049852782732019143 0 -1.6146434366619957e-05 0.0044271166766799664 0 -1.5735031810450013e-05 0.0044504499827201687 0 -2.4137242941160627e-05 0.0045934728065370502 0 -1.3742290634068036e-05 0.0045944433836137962 0 -1.5893346731711253e-05 0.0045898186569084754 0 -5.8374411883613706e-06 0.0042573701227366836 0 -2.4935977596493429e-05 0.0043106088838745799 0 2.6305351890204075e-05 0.0042526597082840276 0 -2.4935977596493429e-05 0.0043106088838745799 0 1.3783549755527578e-07 0.0043826397774774433 0 2.6305351890204075e-05 0.0042526597082840276 0 -1.2628590116218974e-05 0.0045864702563338201 0 -1.34552338826353e-05 0.0045859846362935825 0 5.582524093285051e-08 0.0045861723935398573 0 -1.5893346731711253e-05 0.0045898186569084754 0 -1.2628590116218974e-05 0.0045864702563338201 0 -1.34552338826353e-05 0.0045859846362935825 0 -1.1312967077838948e-05 0.0047311437199216433 0 -6.5216336266554588e-09 0.0046030351856617491 0 -1.2628590116218974e-05 0.0045864702563338201 0 5.582524093285051e-08 0.0045861723935398573 0 -6.108272350661871e-08 0.0046022913505710788 0 -1.5735031810450013e-05 0.0044504499827201687 0 -1.0929625546896423e-08 0.0045854307886952685 0 -2.4935977596493429e-05 0.0043106088838745799 0 -2.7206171355495252e-07 0.0045849196959965623 0 1.3783549755527578e-07 0.0043826397774774433 0 1.3543931607102019e-05 0.0041576288653497277 0 2.6305351890204075e-05 0.0042526597082840276 0 -2.8917754226429437e-05 0.0042317142551466227 0 1.3783549755527578e-07 0.0043826397774774433 0 7.7636405556916455e-08 0.0041795111363841274 0 2.6305351890204075e-05 0.0042526597082840276 0 7.7636405556916455e-08 0.0041795111363841274 0 1.3543931607102019e-05 0.0041576288653497277 0 2.6305351890204075e-05 0.0042526597082840276 0 7.7636405556916455e-08 0.0041795111363841274 0 1.3543931607102019e-05 0.0041576288653497277 0 -1.6762979594416859e-07 0.003977058764776888 0 3.4944338979458138e-07 0.0038414620541296187 0 6.4207033553771598e-06 0.0036455241670381097 0 8.9558097483053326e-05 0.0035981236049473573 0 3.4944338979458138e-07 0.0038414620541296187 0 -4.9219412403112327e-07 0.0039760935457704236 0 6.4207033553771598e-06 0.0036455241670381097 0 1.3543931607102019e-05 0.0041576288653497277 0 -1.6762979594416859e-07 0.003977058764776888 0 -2.8917754226429437e-05 0.0042317142551466227 0 -3.3331150842781832e-08 0.003976585496605671 0 -6.9113267744382763e-05 0.0038779133112380295 0 -4.9219412403112327e-07 0.0039760935457704236 0 -0.0001275358157727827 0.0035320005881654226 0 6.4207033553771598e-06 0.0036455241670381097 0 -0.0001275358157727827 0.0035320005881654226 0 6.4207033553771598e-06 0.0036455241670381097 0 -1.82497290441099e-05 0.0034571484326694104 0 6.4207033553771598e-06 0.0036455241670381097 0 -1.82497290441099e-05 0.0034571484326694104 0 4.4458232370846401e-05 0.0035099916927044919 0 -0.0001275358157727827 0.0035320005881654226 0 -1.82497290441099e-05 0.0034571484326694104 0 -7.9707297879791513e-05 0.0033661457205459988 0 -6.9113267744382763e-05 0.0038779133112380295 0 -4.936960372194667e-05 0.0038142943474821296 0 -2.8917754226429437e-05 0.0042317142551466227 0 -1.505107472291344e-05 0.0042483553581248602 0 7.1817164338549823e-06 0.0042546035639288125 0 -1.82497290441099e-05 0.0034571484326694104 0 -7.9707297879791513e-05 0.0033661457205459988 0 -1.3234313917707415e-05 0.0033670824778752853 0 2.6305351890204075e-05 0.0042526597082840276 0 -2.8917754226429437e-05 0.0042317142551466227 0 7.1817164338549823e-06 0.0042546035639288125 0 -5.8374411883613706e-06 0.0042573701227366836 0 2.6305351890204075e-05 0.0042526597082840276 0 7.1817164338549823e-06 0.0042546035639288125 0 -1.505107472291344e-05 0.0042483553581248602 0 7.1817164338549823e-06 0.0042546035639288125 0 -1.9644652687763449e-06 0.0042527337818444449 0 7.1817164338549823e-06 0.0042546035639288125 0 -1.9644652687763449e-06 0.0042527337818444449 0 -3.1611186870591109e-06 0.0042520422771382552 0 -1.9644652687763449e-06 0.0042527337818444449 0 -1.0170254720187562e-05 0.0042489547484645942 0 -8.3849688003279446e-06 0.0042512751811936856 0 -1.9644652687763449e-06 0.0042527337818444449 0 -4.0720634565078555e-06 0.0042520451377844994 0 -8.3849688003279446e-06 0.0042512751811936856 0 -1.9644652687763449e-06 0.0042527337818444449 0 -4.0720634565078555e-06 0.0042520451377844994 0 -3.1611186870591109e-06 0.0042520422771382552 0 -7.9707297879791513e-05 0.0033661457205459988 0 -1.3234313917707415e-05 0.0033670824778752853 0 -2.5646857427548278e-05 0.0033177444450758374 0 -7.9707297879791513e-05 0.0033661457205459988 0 -2.5646857427548278e-05 0.0033177444450758374 0 -5.0087057866999431e-05 0.0033116072181894867 0 -4.936960372194667e-05 0.0038142943474821296 0 -3.2475356078874485e-05 0.0037639338671132312 0 -1.505107472291344e-05 0.0042483553581248602 0 -1.9644652687763449e-06 0.0042527337818444449 0 -1.0170254720187562e-05 0.0042489547484645942 0 -2.5646857427548278e-05 0.0033177444450758374 0 -3.6118621568072479e-05 0.0032788519689401288 0 6.9208346889664556e-06 0.0032765080560202995 0 -2.5646857427548278e-05 0.0033177444450758374 0 -5.0087057866999431e-05 0.0033116072181894867 0 -4.335089505472759e-05 0.0033110407579904069 0 -2.9566412140599512e-05 0.0033148436933745262 0 -3.9834681900889695e-05 0.0033017021898070439 0 -5.0087057866999431e-05 0.0033116072181894867 0 -4.335089505472759e-05 0.0033110407579904069 0 -4.3285939907586498e-05 0.0033157946010539878 0 -0.00020663479144028332 0.0030411852474690479 0 -0.00016702824061817296 0.0030813980087951499 0 -0.00017940974857867621 0.0030384345635307676 0 -0.00016192009564835753 0.0032732966417673807 0 -8.1099308037533121e-05 0.0031632450207828059 0 -3.6118621568072479e-05 0.0032788519689401288 0 -4.7467104585931269e-05 0.0032369177737399729 0 6.9208346889664556e-06 0.0032765080560202995 0 -3.9834681900889695e-05 0.0033017021898070439 0 -0.00016192009564835753 0.0032732966417673807 0 -5.0087057866999431e-05 0.0033116072181894867 0 -4.3285939907586498e-05 0.0033157946010539878 0 -4.1464061411348352e-05 0.0033180794926726299 0 -1.0170254720187562e-05 0.0042489547484645942 0 -1.2374902700804745e-05 0.004250063429592753 0 -8.3849688003279446e-06 0.0042512751811936856 0 -3.2475356078874485e-05 0.0037639338671132312 0 -1.3215292687074274e-05 0.0038610880170386924 0 -1.4003479839535289e-05 0.0042525719762877374 0 -1.2374902700804745e-05 0.004250063429592753 0 -8.3849688003279446e-06 0.0042512751811936856 0 -1.4003479839535289e-05 0.0042525719762877374 0 -2.6062427827484938e-05 0.0042393637929602074 0 -2.5185517417273639e-05 0.0042569410600769861 0 -0.00014589152013926607 0.0035428187789453354 0 -0.00011580912889976632 0.003564775312197576 0 -0.00011721496898717024 0.0036562272892548316 0 -1.3215292687074274e-05 0.0038610880170386924 0 -0.00020811587378966287 0.0036343840334964322 0 5.8593803623978411e-05 0.0042485055119299807 0 -1.3215292687074274e-05 0.0038610880170386924 0 -0.00020164011085776378 0.0030219628195290353 0 -0.00017995439583352277 0.0030163978776674106 0 -0.00021361802795232695 0.003008098599943197 0 -0.00015331625605684052 0.0029593740424034677 0 -0.00020811587378966287 0.0036343840334964322 0 -0.00016192009564835753 0.0032732966417673807 0 -0.00020811587378966287 0.0036343840334964322 0 -0.00020663479144028332 0.0030411852474690479 0 -0.00020164011085776378 0.0030219628195290353 0 -0.00021361802795232695 0.003008098599943197 0 -0.00016192009564835753 0.0032732966417673807 0 -1.3215292687074274e-05 0.0038610880170386924 0 -0.00020663479144028332 0.0030411852474690479 0 -0.00020164011085776378 0.0030219628195290353 0 -0.00017940974857867621 0.0030384345635307676 0 -0.00020164011085776378 0.0030219628195290353 0 -0.00017940974857867621 0.0030384345635307676 0 -0.00017995439583352277 0.0030163978776674106 0 -4.0720634565078555e-06 0.0042520451377844994 0 -6.3541043410722649e-06 0.0042544817839600454 0 -1.873016337816411e-06 0.0042542749950006441 0 -4.0720634565078555e-06 0.0042520451377844994 0 -8.3849688003279446e-06 0.0042512751811936856 0 -6.3541043410722649e-06 0.0042544817839600454 0 -1.4003479839535289e-05 0.0042525719762877374 0 -6.3541043410722649e-06 0.0042544817839600454 0 -1.1132347964959587e-05 0.0042672852091430137 0 -1.4003479839535289e-05 0.0042525719762877374 0 -8.3849688003279446e-06 0.0042512751811936856 0 -6.3541043410722649e-06 0.0042544817839600454 0 -6.3541043410722649e-06 0.0042544817839600454 0 -1.873016337816411e-06 0.0042542749950006441 0 4.2174294610138027e-08 0.0042624484392249423 0 -4.040018753200748e-05 0.0047230112631051688 0 -5.7596868571276469e-05 0.0046687725963025489 0 -7.9558494858129097e-05 0.004741600732320805 0 -3.0260785359760042e-05 0.0044667247382669077 0 -3.8329923780528877e-05 0.0044841059660498854 0 -4.040018753200748e-05 0.0047230112631051688 0 -5.7596868571276469e-05 0.0046687725963025489 0 -1.7435041770479282e-05 0.0046989073227956864 0 -5.7596868571276469e-05 0.0046687725963025489 0 -1.7435041770479282e-05 0.0046989073227956864 0 -1.6050210146806651e-05 0.0046513025790721743 0 -5.1839190505888699e-06 0.0047933325382216304 0 -1.4500375846662066e-05 0.0046977850634027435 0 -1.7435041770479282e-05 0.0046989073227956864 0 -5.0925956134786331e-06 0.0047181372722951238 0 -1.5216267294138576e-05 0.0046455562325848345 0 -1.6621850742865351e-05 0.0046765108981314885 0 -1.4500375846662066e-05 0.0046977850634027435 0 -6.6582066030783933e-06 0.0048520613064831561 0 1.5967372970694893e-06 0.0048352931848885351 0 -8.9824021996487923e-06 0.0048222135285094321 0 -4.040018753200748e-05 0.0047230112631051688 0 -1.7435041770479282e-05 0.0046989073227956864 0 -5.0925956134786331e-06 0.0047181372722951238 0 -4.040018753200748e-05 0.0047230112631051688 0 -5.0925956134786331e-06 0.0047181372722951238 0 -3.3916738481825873e-05 0.0047590756960847538 0 1.5169419975061554e-06 0.0049453425006073378 0 1.3332207593121928e-05 0.0049641978582697106 0 1.3362713175642086e-05 0.0049239884350822461 0 -6.6582066030783933e-06 0.0048520613064831561 0 1.5967372970694893e-06 0.0048352931848885351 0 5.2102816365175996e-06 0.004867371343376131 0 6.6473865366839558e-06 0.0048967634504292409 0 8.9447084484770145e-06 0.0048964791879593742 0 1.5169419975061554e-06 0.0049453425006073378 0 -1.3161902444827833e-06 0.0049315250912525151 0 1.3362713175642086e-05 0.0049239884350822461 0 -1.8591589725174333e-07 0.0050002784515738958 0 -5.2105292686326699e-08 0.0050001023294774022 0 -3.6573243803624455e-08 0.0050000751383910916 0 -4.2610447763847268e-06 0.0049820241819090415 0 1.4756182952059317e-07 0.0050036343666967492 0 1.5169419975061554e-06 0.0049453425006073378 0 -1.5969361792839569e-05 0.0049487977545721222 0 -1.3161902444827833e-06 0.0049315250912525151 0 1.5169419975061554e-06 0.0049453425006073378 0 -1.5969361792839569e-05 0.0049487977545721222 0 -3.3533217250396552e-06 0.0049604360936741998 0 -4.2610447763847268e-06 0.0049820241819090415 0 -5.4541961402897769e-06 0.0049834838948666395 0 -1.5969361792839569e-05 0.0049487977545721222 0 -3.3533217250396552e-06 0.0049604360936741998 0 -1.1396856189847087e-05 0.0049724438925912448 0 -1.8591589725174333e-07 0.0050002784515738958 0 -5.2105292686326699e-08 0.0050001023294774022 0 -2.1548162414805112e-07 0.0049979419760919257 0 -1.1396856189847087e-05 0.0049724438925912448 0 -1.3044634389121794e-06 0.0049693088570562545 0 6.786359511866404e-08 0.0049768175056041338 0 -3.3533217250396552e-06 0.0049604360936741998 0 -1.1396856189847087e-05 0.0049724438925912448 0 -1.3044634389121794e-06 0.0049693088570562545 0 1.3332207593121928e-05 0.0049641978582697106 0 2.4931101633108654e-06 0.0049790449556735084 0 6.786359511866404e-08 0.0049768175056041338 0 -3.3533217250396552e-06 0.0049604360936741998 0 1.3332207593121928e-05 0.0049641978582697106 0 -1.3044634389121794e-06 0.0049693088570562545 0 1.5169419975061554e-06 0.0049453425006073378 0 -3.3533217250396552e-06 0.0049604360936741998 0 1.3332207593121928e-05 0.0049641978582697106 0 1.3332207593121928e-05 0.0049641978582697106 0 -1.3044634389121794e-06 0.0049693088570562545 0 6.786359511866404e-08 0.0049768175056041338 0 -5.2105292686326699e-08 0.0050001023294774022 0 -2.1548162414805112e-07 0.0049979419760919257 0 1.1395415218250158e-06 0.0049926866020721227 0 1.3332207593121928e-05 0.0049641978582697106 0 2.4931101633108654e-06 0.0049790449556735084 0 -1.1232640941331327e-06 0.0049864878651680791 0 6.6473865366839558e-06 0.0048967634504292409 0 -1.0050861064568933e-06 0.0049060180904245323 0 2.4931101633108654e-06 0.0049790449556735084 0 6.786359511866404e-08 0.0049768175056041338 0 9.0608986797904047e-07 0.0049860519420271716 0 2.4931101633108654e-06 0.0049790449556735084 0 9.0608986797904047e-07 0.0049860519420271716 0 -1.1232640941331327e-06 0.0049864878651680791 0 -1.1396856189847087e-05 0.0049724438925912448 0 9.0608986797904047e-07 0.0049860519420271716 0 1.1395415218250158e-06 0.0049926866020721227 0 -1.1396856189847087e-05 0.0049724438925912448 0 6.786359511866404e-08 0.0049768175056041338 0 9.0608986797904047e-07 0.0049860519420271716 0 -5.4541961402897769e-06 0.0049834838948666395 0 4.1144530329615881e-08 0.004992611803806668 0 -3.9199794233141986e-06 0.0049756219740223918 0 -1.23702802128446e-05 0.0049592350066124773 0 -1.1232640941331327e-06 0.0049864878651680791 0 -3.9199794233141986e-06 0.0049756219740223918 0 9.0608986797904047e-07 0.0049860519420271716 0 -1.1232640941331327e-06 0.0049864878651680791 0 -3.9199794233141986e-06 0.0049756219740223918 0 9.0608986797904047e-07 0.0049860519420271716 0 1.1395415218250158e-06 0.0049926866020721227 0 -1.376857400434722e-05 0.0046176019423659507 0 -1.9488111749046655e-05 0.0046072673342501553 0 -1.6283446557640407e-05 0.0046464606245410845 0 -1.9488111749046655e-05 0.0046072673342501553 0 -3.9002539361158062e-05 0.0046224752090395808 0 -1.6050210146806651e-05 0.0046513025790721743 0 -1.0115750202351657e-05 0.0048234269492475465 0 -1.0050861064568933e-06 0.0049060180904245323 0 -6.8675013189885618e-06 0.0047828939086263025 0 -2.6015913231396001e-06 0.0048065678696363485 0 -7.1791469574055725e-06 0.004801161224675902 0 -1.6146434366619957e-05 0.0044271166766799664 0 -2.1047278169665413e-05 0.0044370334566796957 0 -2.4137242941160627e-05 0.0045934728065370502 0 -1.9488111749046655e-05 0.0046072673342501553 0 -3.9002539361158062e-05 0.0046224752090395808 0 -5.7596868571276469e-05 0.0046687725963025489 0 -3.9002539361158062e-05 0.0046224752090395808 0 -1.6050210146806651e-05 0.0046513025790721743 0 -4.0720634565078555e-06 0.0042520451377844994 0 -1.873016337816411e-06 0.0042542749950006441 0 -3.1611186870591109e-06 0.0042520422771382552 0 -3.0260785359760042e-05 0.0044667247382669077 0 -2.1047278169665413e-05 0.0044370334566796957 0 -9.5447308053690202e-06 0.0046906790458931492 0 -1.4500375846662066e-05 0.0046977850634027435 0 -2.0575099877780456e-05 0.0045876476228368631 0 -1.4500375846662066e-05 0.0046977850634027435 0 1.5967372970694893e-06 0.0048352931848885351 0 -2.6015913231396001e-06 0.0048065678696363485 0 -8.9824021996487923e-06 0.0048222135285094321 0 -2.6015913231396001e-06 0.0048065678696363485 0 -7.1791469574055725e-06 0.004801161224675902 0 -8.9824021996487923e-06 0.0048222135285094321 0 -3.4206457353452613e-05 0.002125711260500803 0 7.4805918072148333e-05 0.0020619253591861834 0 3.6714528481843744e-05 0.00210016943646544 0 7.9972891067505561e-05 0.0028069878696323426 0 -4.8449718583413567e-05 0.0028662132812585484 0 -7.7901857967256727e-06 0.0026730947613159005 0 2.3913649872207337e-05 0.0024702136544437698 0 -3.7463482804675203e-05 0.0026621791152655599 0 7.9972891067505561e-05 0.0028069878696323426 0 -9.118092412518806e-06 0.0029744575129204078 0 -4.8449718583413567e-05 0.0028662132812585484 0 -3.4206457353452613e-05 0.002125711260500803 0 3.0094579649479552e-05 0.0022471170531650894 0 3.6714528481843744e-05 0.00210016943646544 0 -3.4206457353452613e-05 0.002125711260500803 0 -9.0774930187141067e-05 0.0023710657193286638 0 3.0094579649479552e-05 0.0022471170531650894 0 1.4063463085773338e-07 0.0025392468066751639 0 -9.0774930187141067e-05 0.0023710657193286638 0 3.0094579649479552e-05 0.0022471170531650894 0 -3.7463482804675203e-05 0.0026621791152655599 0 -1.3391988941293749e-08 0.0028301054220221467 0 1.4063463085773338e-07 0.0025392468066751639 0 -9.0774930187141067e-05 0.0023710657193286638 0 -4.4342126187543344e-07 0.0028296081643400489 0 -4.6719165019887597e-05 0.0029305456458042722 0 -2.1456050862599705e-05 0.0030148870923703518 0 -0.00012254215212261093 0.0028574447368401169 0 -9.118092412518806e-06 0.0029744575129204078 0 -4.6719165019887597e-05 0.0029305456458042722 0 -2.1456050862599705e-05 0.0030148870923703518 0 -2.1456050862599705e-05 0.0030148870923703518 0 -2.5070889673407519e-07 0.0028307763783798272 0 9.7618532968791252e-08 0.0030828403485158346 0 -9.118092412518806e-06 0.0029744575129204078 0 -2.1456050862599705e-05 0.0030148870923703518 0 -2.5070889673407519e-07 0.0028307763783798272 0 -2.1456050862599705e-05 0.0030148870923703518 0 9.7618532968791252e-08 0.0030828403485158346 0 3.1585159839253612e-05 0.0031962391484661908 0 -2.1456050862599705e-05 0.0030148870923703518 0 3.1585159839253612e-05 0.0031962391484661908 0 9.541613969701591e-06 0.0033061973737544864 0 -3.1825835341767933e-05 0.0030238202867517738 0 -4.3178695339387677e-05 0.0030765073756968786 0 -4.6719165019887597e-05 0.0029305456458042722 0 -0.00012254215212261093 0.0028574447368401169 0 -4.8449718583413567e-05 0.0028662132812585484 0 -9.118092412518806e-06 0.0029744575129204078 0 -4.6719165019887597e-05 0.0029305456458042722 0 -4.8449718583413567e-05 0.0028662132812585484 0 -4.8449718583413567e-05 0.0028662132812585484 0 -0.00011838553052148797 0.0027914921836122899 0 -7.7901857967256727e-06 0.0026730947613159005 0 -0.00012254215212261093 0.0028574447368401169 0 -4.8449718583413567e-05 0.0028662132812585484 0 -0.00011838553052148797 0.0027914921836122899 0 9.541613969701591e-06 0.0033061973737544864 0 5.723432903691615e-05 0.0033233406966614743 0 9.6348004855521631e-05 0.0032957961818613399 0 -4.3178695339387677e-05 0.0030765073756968786 0 2.2397454907533808e-05 0.0030677348964452057 0 -0.00012254215212261093 0.0028574447368401169 0 -0.00011838553052148797 0.0027914921836122899 0 -3.5543455419808122e-05 0.0028364825624565986 0 5.723432903691615e-05 0.0033233406966614743 0 3.4207292600714965e-05 0.0032996600374453843 0 9.6348004855521631e-05 0.0032957961818613399 0 5.723432903691615e-05 0.0033233406966614743 0 5.641970946031938e-05 0.0033358900644699678 0 3.4207292600714965e-05 0.0032996600374453843 0 5.641970946031938e-05 0.0033358900644699678 0 4.9786487215939408e-05 0.0033407431067137574 0 3.4207292600714965e-05 0.0032996600374453843 0 5.641970946031938e-05 0.0033358900644699678 0 6.392101559296339e-05 0.0033794627283968612 0 4.9786487215939408e-05 0.0033407431067137574 0 5.641970946031938e-05 0.0033358900644699678 0 6.2864744865914066e-05 0.0033193364998225106 0 6.392101559296339e-05 0.0033794627283968612 0 6.2864744865914066e-05 0.0033193364998225106 0 5.675195841110677e-05 0.0033838456258330572 0 6.392101559296339e-05 0.0033794627283968612 0 5.723432903691615e-05 0.0033233406966614743 0 5.641970946031938e-05 0.0033358900644699678 0 6.2864744865914066e-05 0.0033193364998225106 0 9.541613969701591e-06 0.0033061973737544864 0 5.723432903691615e-05 0.0033233406966614743 0 6.2864744865914066e-05 0.0033193364998225106 0 3.1585159839253612e-05 0.0031962391484661908 0 9.541613969701591e-06 0.0033061973737544864 0 6.2864744865914066e-05 0.0033193364998225106 0 3.1585159839253612e-05 0.0031962391484661908 0 6.2864744865914066e-05 0.0033193364998225106 0 3.7121375729781841e-05 0.0032756564397669915 0 9.7618532968791252e-08 0.0030828403485158346 0 3.7121375729781841e-05 0.0032756564397669915 0 8.8224666004373989e-08 0.0033357574863182075 0 9.7618532968791252e-08 0.0030828403485158346 0 3.1585159839253612e-05 0.0031962391484661908 0 3.7121375729781841e-05 0.0032756564397669915 0 3.7121375729781841e-05 0.0032756564397669915 0 8.8224666004373989e-08 0.0033357574863182075 0 5.675195841110677e-05 0.0033838456258330572 0 6.2864744865914066e-05 0.0033193364998225106 0 3.7121375729781841e-05 0.0032756564397669915 0 5.675195841110677e-05 0.0033838456258330572 0 5.675195841110677e-05 0.0033838456258330572 0 7.072026010436654e-05 0.0034594218493783388 0 8.9558097483053326e-05 0.0035981236049473573 0 5.675195841110677e-05 0.0033838456258330572 0 7.072026010436654e-05 0.0034594218493783388 0 6.392101559296339e-05 0.0033794627283968612 0 8.8224666004373989e-08 0.0033357574863182075 0 5.675195841110677e-05 0.0033838456258330572 0 2.4344243857183503e-08 0.0035883644046788093 0 5.675195841110677e-05 0.0033838456258330572 0 2.4344243857183503e-08 0.0035883644046788093 0 -1.1106876341279793e-05 0.0035570142008188462 0 6.0642378988127176e-05 0.0034217231166140745 0 4.1308083501592459e-05 0.0035796009853363724 0 4.7752716866135032e-09 0.0038411117069568012 0 4.1308083501592459e-05 0.0035796009853363724 0 -7.5336869046216231e-08 0.0038410929158097418 0 2.4344243857183503e-08 0.0035883644046788093 0 -1.1106876341279793e-05 0.0035570142008188462 0 7.072026010436654e-05 0.0034594218493783388 0 8.9558097483053326e-05 0.0035981236049473573 0 4.4458232370846401e-05 0.0035099916927044919 0 6.4207033553771598e-06 0.0036455241670381097 0 8.9558097483053326e-05 0.0035981236049473573 0 4.4458232370846401e-05 0.0035099916927044919 0 -1.82497290441099e-05 0.0034571484326694104 0 4.4458232370846401e-05 0.0035099916927044919 0 3.6349278895465913e-05 0.0034097479091276355 0 -1.82497290441099e-05 0.0034571484326694104 0 -1.3234313917707415e-05 0.0033670824778752853 0 3.6349278895465913e-05 0.0034097479091276355 0 7.072026010436654e-05 0.0034594218493783388 0 4.4458232370846401e-05 0.0035099916927044919 0 3.6349278895465913e-05 0.0034097479091276355 0 7.072026010436654e-05 0.0034594218493783388 0 3.6349278895465913e-05 0.0034097479091276355 0 6.392101559296339e-05 0.0033794627283968612 0 3.6349278895465913e-05 0.0034097479091276355 0 6.392101559296339e-05 0.0033794627283968612 0 4.9786487215939408e-05 0.0033407431067137574 0 3.6349278895465913e-05 0.0034097479091276355 0 4.9786487215939408e-05 0.0033407431067137574 0 2.3819327517049831e-05 0.0033426977843847446 0 -1.3234313917707415e-05 0.0033670824778752853 0 3.6349278895465913e-05 0.0034097479091276355 0 2.3819327517049831e-05 0.0033426977843847446 0 -2.5646857427548278e-05 0.0033177444450758374 0 2.3819327517049831e-05 0.0033426977843847446 0 1.4811665377521465e-05 0.0033133863380043383 0 -1.3234313917707415e-05 0.0033670824778752853 0 -2.5646857427548278e-05 0.0033177444450758374 0 2.3819327517049831e-05 0.0033426977843847446 0 2.3819327517049831e-05 0.0033426977843847446 0 4.6441761377759916e-05 0.0033150626589125752 0 1.4811665377521465e-05 0.0033133863380043383 0 4.9786487215939408e-05 0.0033407431067137574 0 2.3819327517049831e-05 0.0033426977843847446 0 4.6441761377759916e-05 0.0033150626589125752 0 -2.3630047856121825e-05 0.0032421017124944127 0 -8.1099308037533121e-05 0.0031632450207828059 0 -0.00010070808110279901 0.0031609576713664831 0 -0.00011029544413563677 0.003074212036188198 0 -2.9948300990952091e-05 0.003039017155355578 0 -0.00010070808110279901 0.0031609576713664831 0 -0.00016702824061817296 0.0030813980087951499 0 -0.00011029544413563677 0.003074212036188198 0 4.6441761377759916e-05 0.0033150626589125752 0 6.9208346889664556e-06 0.0032765080560202995 0 1.4811665377521465e-05 0.0033133863380043383 0 -2.5646857427548278e-05 0.0033177444450758374 0 6.9208346889664556e-06 0.0032765080560202995 0 1.4811665377521465e-05 0.0033133863380043383 0 -0.00016702824061817296 0.0030813980087951499 0 -0.00017940974857867621 0.0030384345635307676 0 -0.00012747092030668481 0.0030227662502149868 0 -0.00015331625605684052 0.0029593740424034677 0 -7.9457499119671912e-05 0.0030293128047069098 0 -0.00017940974857867621 0.0030384345635307676 0 -0.00017995439583352277 0.0030163978776674106 0 -0.00012747092030668481 0.0030227662502149868 0 -7.690395625920365e-05 0.0030081391376510351 0 -5.4072463757992254e-05 0.0030215165557775162 0 -5.7136502640836217e-05 0.0029953353981663922 0 -5.4072463757992254e-05 0.0030215165557775162 0 -2.9948300990952091e-05 0.003039017155355578 0 -2.5528035641182158e-05 0.0030068019419828874 0 -5.4072463757992254e-05 0.0030215165557775162 0 -2.5528035641182158e-05 0.0030068019419828874 0 -5.7136502640836217e-05 0.0029953353981663922 0 -0.00016702824061817296 0.0030813980087951499 0 -0.00012747092030668481 0.0030227662502149868 0 -0.00011029544413563677 0.003074212036188198 0 -0.00012747092030668481 0.0030227662502149868 0 -0.00011029544413563677 0.003074212036188198 0 -2.9948300990952091e-05 0.003039017155355578 0 -7.9457499119671912e-05 0.0030293128047069098 0 -3.7762401481714717e-05 0.0030385581987892908 0 -2.5528035641182158e-05 0.0030068019419828874 0 1.125200273196085e-05 0.0030257078343393618 0 1.1928683733719626e-05 0.0029883312065280354 0 -2.9948300990952091e-05 0.003039017155355578 0 -2.5528035641182158e-05 0.0030068019419828874 0 1.125200273196085e-05 0.0030257078343393618 0 1.125200273196085e-05 0.0030257078343393618 0 4.1712718007705039e-05 0.0030046899585040869 0 1.1928683733719626e-05 0.0029883312065280354 0 1.125200273196085e-05 0.0030257078343393618 0 3.7307694828208303e-05 0.0030535382993881538 0 -1.5361302853701875e-05 0.003033405213957847 0 -2.9948300990952091e-05 0.003039017155355578 0 1.125200273196085e-05 0.0030257078343393618 0 3.7307694828208303e-05 0.0030535382993881538 0 3.7307694828208303e-05 0.0030535382993881538 0 -3.5543455419808122e-05 0.0028364825624565986 0 -2.3356943257669853e-05 0.0029706188461652299 0 3.7307694828208303e-05 0.0030535382993881538 0 -7.5429133339860414e-06 0.0031627226423346453 0 9.6348004855521631e-05 0.0032957961818613399 0 3.7307694828208303e-05 0.0030535382993881538 0 -2.3356943257669853e-05 0.0029706188461652299 0 -1.5361302853701875e-05 0.003033405213957847 0 3.7043971453888656e-05 0.0030520414156351055 0 2.2397454907533808e-05 0.0030677348964452057 0 -2.9948300990952091e-05 0.003039017155355578 0 3.7307694828208303e-05 0.0030535382993881538 0 -7.5429133339860414e-06 0.0031627226423346453 0 -0.00010070808110279901 0.0031609576713664831 0 -2.9948300990952091e-05 0.003039017155355578 0 -7.5429133339860414e-06 0.0031627226423346453 0 -0.00010070808110279901 0.0031609576713664831 0 -7.5429133339860414e-06 0.0031627226423346453 0 3.4207292600714965e-05 0.0032996600374453843 0 4.9786487215939408e-05 0.0033407431067137574 0 4.6441761377759916e-05 0.0033150626589125752 0 3.4207292600714965e-05 0.0032996600374453843 0 -2.3630047856121825e-05 0.0032421017124944127 0 3.2469381256831163e-05 0.0032946461343107236 0 -7.5429133339860414e-06 0.0031627226423346453 0 3.4207292600714965e-05 0.0032996600374453843 0 9.6348004855521631e-05 0.0032957961818613399 0 -0.00011838553052148797 0.0027914921836122899 0 -3.5543455419808122e-05 0.0028364825624565986 0 -7.0703146901038443e-05 0.002938431365846587 0 -3.5543455419808122e-05 0.0028364825624565986 0 -7.0703146901038443e-05 0.002938431365846587 0 -2.3356943257669853e-05 0.0029706188461652299 0 -0.00011838553052148797 0.0027914921836122899 0 -0.00013273389903242517 0.0025162924231157454 0 -7.7901857967256727e-06 0.0026730947613159005 0 -0.00011838553052148797 0.0027914921836122899 0 -0.00014557336045102046 0.0029512357222336817 0 -7.0703146901038443e-05 0.002938431365846587 0 -0.00012494198781670977 0.0027842116326552121 0 -0.0001315366945739912 0.0027234626493872907 0 -0.00014557336045102046 0.0029512357222336817 0 -7.0703146901038443e-05 0.002938431365846587 0 -9.6176379775900867e-05 0.0030119769219678224 0 -7.0703146901038443e-05 0.002938431365846587 0 -1.5361302853701875e-05 0.003033405213957847 0 -9.6176379775900867e-05 0.0030119769219678224 0 -7.0703146901038443e-05 0.002938431365846587 0 -2.3356943257669853e-05 0.0029706188461652299 0 -1.5361302853701875e-05 0.003033405213957847 0 -1.7547187911544062e-05 0.0030029315453796324 0 5.7594281326025219e-06 0.0031125942968552771 0 -1.5361302853701875e-05 0.003033405213957847 0 -7.4029862566638916e-05 0.0030984980068863867 0 -8.8726416131149169e-05 0.0030624567311532121 0 1.125200273196085e-05 0.0030257078343393618 0 -1.5361302853701875e-05 0.003033405213957847 0 4.1712718007705039e-05 0.0030046899585040869 0 -1.5361302853701875e-05 0.003033405213957847 0 -8.8726416131149169e-05 0.0030624567311532121 0 -9.6176379775900867e-05 0.0030119769219678224 0 -0.00010918242911115938 0.0030909330276093455 0 -0.00013785616733002991 0.0030544106110923742 0 -0.00013893102242580889 0.0031035707103552511 0 -7.4029862566638916e-05 0.0030984980068863867 0 -0.00010918242911115938 0.0030909330276093455 0 -8.8726416131149169e-05 0.0030624567311532121 0 -0.00010918242911115938 0.0030909330276093455 0 -0.00013785616733002991 0.0030544106110923742 0 -8.8726416131149169e-05 0.0030624567311532121 0 -0.00014557336045102046 0.0029512357222336817 0 -0.00013785616733002991 0.0030544106110923742 0 -9.6176379775900867e-05 0.0030119769219678224 0 -0.0001315366945739912 0.0027234626493872907 0 -0.00010850073314338813 0.0027202026694204302 0 -0.00013785616733002991 0.0030544106110923742 0 -8.8726416131149169e-05 0.0030624567311532121 0 -9.6176379775900867e-05 0.0030119769219678224 0 -8.3027824416677561e-05 0.002305615232194325 0 8.426326435965468e-05 0.0022450708901644895 0 3.8602256739278262e-05 0.0023970329107941123 0 -8.3027824416677561e-05 0.002305615232194325 0 8.426326435965468e-05 0.0022450708901644895 0 -4.0964487654892531e-05 0.002146209893780707 0 -1.6849846420369606e-05 0.0020585779273041447 0 -0.00018301819272217761 0.0024090796438011142 0 -0.00010850073314338813 0.0027202026694204302 0 -0.00018301819272217761 0.0024090796438011142 0 -9.8675604882223763e-05 0.0019610192982661401 0 -9.8175689746499758e-05 0.0019144791312558686 0 -4.9313957836656568e-05 0.0019299564801773614 0 -9.8675604882223763e-05 0.0019610192982661401 0 -9.8175689746499758e-05 0.0019144791312558686 0 -0.00014541898616990062 0.0019274729087215747 0 8.426326435965468e-05 0.0022450708901644895 0 3.8602256739278262e-05 0.0023970329107941123 0 0.00012336957329560534 0.0022493794409518958 0 3.8602256739278262e-05 0.0023970329107941123 0 0.00015068068196193309 0.0025562438248090389 0 0.00012336957329560534 0.0022493794409518958 0 3.8602256739278262e-05 0.0023970329107941123 0 -7.7901857967256727e-06 0.0026730947613159005 0 0.00015068068196193309 0.0025562438248090389 0 -0.00013273389903242517 0.0025162924231157454 0 -8.3027824416677561e-05 0.002305615232194325 0 3.8602256739278262e-05 0.0023970329107941123 0 -0.00013273389903242517 0.0025162924231157454 0 3.8602256739278262e-05 0.0023970329107941123 0 -7.7901857967256727e-06 0.0026730947613159005 0 2.3913649872207337e-05 0.0024702136544437698 0 0.00010525200223294488 0.002317586118444852 0 7.9972891067505561e-05 0.0028069878696323426 0 -7.7901857967256727e-06 0.0026730947613159005 0 0.00015068068196193309 0.0025562438248090389 0 -0.00045582275937426691 0.0016591633078969104 0 -0.00045081332816036048 0.0017391118484236035 0 -0.00048298626393710533 0.0016785963952136854 0 -0.00035968486724844768 0.0018526119702061518 0 -0.00047287511838607621 0.0017217142354106854 0 -0.00040132104905212635 0.0016180092667655822 0 -0.00045582275937426691 0.0016591633078969104 0 -0.00045081332816036048 0.0017391118484236035 0 -0.00052616720396071455 0.0018387586112969965 0 -0.00051443398373605834 0.0017699568345007611 0 -0.00045081332816036048 0.0017391118484236035 0 -0.00056453025407652072 0.0018275855495183339 0 -0.00052616720396071455 0.0018387586112969965 0 -0.00051443398373605834 0.0017699568345007611 0 -0.00052616720396071455 0.0018387586112969965 0 -0.00050214434543953803 0.0019771059557714171 0 -0.00045081332816036048 0.0017391118484236035 0 -0.0005859617774011663 0.001841048738694416 0 -0.00056453025407652072 0.0018275855495183339 0 -0.00060681203586426986 0.0018295039700011062 0 -0.00056453025407652072 0.0018275855495183339 0 -0.00057207288298576813 0.0018559914713495557 0 -0.00052616720396071455 0.0018387586112969965 0 -0.0005859617774011663 0.001841048738694416 0 -0.00057207288298576813 0.0018559914713495557 0 -0.00059905198998672744 0.0018524323255655465 0 -0.0005859617774011663 0.001841048738694416 0 -0.00056453025407652072 0.0018275855495183339 0 -0.00057207288298576813 0.0018559914713495557 0 -0.00057207288298576813 0.0018559914713495557 0 -0.00055902122420658541 0.001899329899460145 0 -0.00059057663289105824 0.0018781684885129915 0 -0.00057207288298576813 0.0018559914713495557 0 -0.00055902122420658541 0.001899329899460145 0 -0.00052616720396071455 0.0018387586112969965 0 -0.00035968486724844768 0.0018526119702061518 0 -0.00064073528138666074 0.0019540428210998244 0 -0.00055902122420658541 0.001899329899460145 0 -0.00050214434543953803 0.0019771059557714171 0 -0.00062999139429665825 0.0019101945883527179 0 -0.00055902122420658541 0.001899329899460145 0 -0.00052616720396071455 0.0018387586112969965 0 -0.00050214434543953803 0.0019771059557714171 0 -0.00036071757934421251 0.0020205091683047818 0 -0.00047744414693935184 0.0020455844927841746 0 -0.00062999139429665825 0.0019101945883527179 0 -0.00040132104905212635 0.0016180092667655822 0 -0.00045582275937426691 0.0016591633078969104 0 -0.00047530618765009652 0.0015806230975496589 0 -0.00012701379814209789 0.0018411466274035008 0 -0.00013612359562826696 0.0018840645072213751 0 -6.206437023525594e-05 0.0018694533699783124 0 -0.00035968486724844768 0.0018526119702061518 0 -0.00025391930872315139 0.0017107809055669299 0 -9.8175689746499758e-05 0.0019144791312558686 0 -0.00013612359562826696 0.0018840645072213751 0 -6.206437023525594e-05 0.0018694533699783124 0 -0.00018301819272217761 0.0024090796438011142 0 -0.00025969816603910927 0.0020053146604670962 0 -0.00043840526394433574 0.0023494916064599101 0 -0.00039913993444248732 0.0021842234502049132 0 -0.00056351846235104639 0.0022465621499553052 0 -9.8175689746499758e-05 0.0019144791312558686 0 -0.00014541898616990062 0.0019274729087215747 0 -0.00013612359562826696 0.0018840645072213751 0 -0.00035968486724844768 0.0018526119702061518 0 -0.00025969816603910927 0.0020053146604670962 0 -0.00039913993444248732 0.0021842234502049132 0 -0.00050906105611637803 0.0021283398668676561 0 -0.00056351846235104639 0.0022465621499553052 0 -0.00036071757934421251 0.0020205091683047818 0 -0.00047744414693935184 0.0020455844927841746 0 -0.00039913993444248732 0.0021842234502049132 0 -0.00047744414693935184 0.0020455844927841746 0 -0.00039913993444248732 0.0021842234502049132 0 -0.00050906105611637803 0.0021283398668676561 0 -0.00047744414693935184 0.0020455844927841746 0 -0.00050906105611637803 0.0021283398668676561 0 -0.00056043281318880333 0.0020299074133570613 0 -0.00050906105611637803 0.0021283398668676561 0 -0.00057016539614719217 0.0021141540914818282 0 -0.00056043281318880333 0.0020299074133570613 0 -0.00057016539614719217 0.0021141540914818282 0 -0.00061130123514486134 0.0020630869602142297 0 -0.00056043281318880333 0.0020299074133570613 0 -0.00061130123514486134 0.0020630869602142297 0 -0.00062969764978090933 0.0021323699415290095 0 -0.00067769815951482931 0.00207601357038649 0 -0.00057016539614719217 0.0021141540914818282 0 -0.00061130123514486134 0.0020630869602142297 0 -0.00062969764978090933 0.0021323699415290095 0 -0.00057501672727706976 0.0021025248253054786 0 -0.00044093431883290932 0.002198039517618133 0 -0.00062969764978090933 0.0021323699415290095 0 -0.00056351846235104639 0.0022465621499553052 0 -0.00068324607015590527 0.0021446720855770878 0 -0.00057016539614719217 0.0021141540914818282 0 -0.00062969764978090933 0.0021323699415290095 0 -0.00056351846235104639 0.0022465621499553052 0 -0.00033909145115809593 0.0026693540096912917 0 -0.000223178156428363 0.0027383145363318062 0 -0.00050906105611637803 0.0021283398668676561 0 -0.00057016539614719217 0.0021141540914818282 0 -0.00056351846235104639 0.0022465621499553052 0 -7.4029862566638916e-05 0.0030984980068863867 0 -0.00010918242911115938 0.0030909330276093455 0 -0.00011208600158249187 0.0031223716939417869 0 -0.00010918242911115938 0.0030909330276093455 0 -0.00013893102242580889 0.0031035707103552511 0 -0.00011208600158249187 0.0031223716939417869 0 -0.00018301819272217761 0.0024090796438011142 0 -0.00033909145115809593 0.0026693540096912917 0 4.1712718007705039e-05 0.0030046899585040869 0 3.6006575447992934e-05 0.0029705034363382565 0 6.7439499811113574e-05 0.0029373359434695439 0 5.7594281326025219e-06 0.0031125942968552771 0 -0.000223178156428363 0.0027383145363318062 0 -7.4029862566638916e-05 0.0030984980068863867 0 -0.00011208600158249187 0.0031223716939417869 0 -9.1450307311938443e-05 0.0031364874877996681 0 3.6006575447992934e-05 0.0029705034363382565 0 3.9453585863565746e-05 0.0029462019059523824 0 6.7439499811113574e-05 0.0029373359434695439 0 3.9453585863565746e-05 0.0029462019059523824 0 6.7439499811113574e-05 0.0029373359434695439 0 3.4031358236951083e-05 0.0029225412729862593 0 -0.00015013146595405143 0.0026740352663778486 0 -0.00015536940645998344 0.0027061653087837941 0 -4.4116927584098177e-05 0.002763447803428202 0 6.7439499811113574e-05 0.0029373359434695439 0 3.3648058793073498e-05 0.0028941345735223299 0 3.4031358236951083e-05 0.0029225412729862593 0 -0.000223178156428363 0.0027383145363318062 0 -0.00044093431883290932 0.002198039517618133 0 -0.00062969764978090933 0.0021323699415290095 0 -0.00068324607015590527 0.0021446720855770878 0 -0.00067217572754356728 0.0020888640569107454 0 -0.00044093431883290932 0.002198039517618133 0 -0.000251179140217879 0.002319223104652894 0 -0.000223178156428363 0.0027383145363318062 0 2.945566680270669e-05 0.0028482410971192081 0 -0.00061029529033593483 0.0017099954480372217 0 -0.00057151615882746246 0.001792856262705493 0 -0.0004720006948297213 0.0018255545201467389 0 -0.00015536940645998344 0.0027061653087837941 0 -5.0795918381284829e-05 0.0028021296485840948 0 -4.4116927584098177e-05 0.002763447803428202 0 -0.00061029529033593483 0.0017099954480372217 0 -0.00057151615882746246 0.001792856262705493 0 -0.0006311629428275696 0.0018593993671853209 0 -0.00067769815951482931 0.00207601357038649 0 -0.00062999139429665825 0.0019101945883527179 0 -0.0006311629428275696 0.0018593993671853209 0 -0.00061130123514486134 0.0020630869602142297 0 -0.00067769815951482931 0.00207601357038649 0 -0.00062999139429665825 0.0019101945883527179 0 -0.00061130123514486134 0.0020630869602142297 0 -0.00056043281318880333 0.0020299074133570613 0 -0.00062999139429665825 0.0019101945883527179 0 -0.00044093431883290932 0.002198039517618133 0 -0.00066540507330801926 0.001744080330424537 0 -0.00047744414693935184 0.0020455844927841746 0 -0.00056043281318880333 0.0020299074133570613 0 -0.00062999139429665825 0.0019101945883527179 0 -0.00055902122420658541 0.001899329899460145 0 -0.00062999139429665825 0.0019101945883527179 0 -0.00059057663289105824 0.0018781684885129915 0 -0.00062999139429665825 0.0019101945883527179 0 -0.0006311629428275696 0.0018593993671853209 0 -0.00061227370784984394 0.00186831861839055 0 -0.00062999139429665825 0.0019101945883527179 0 -0.00061227370784984394 0.00186831861839055 0 -0.00059057663289105824 0.0018781684885129915 0 -0.00061227370784984394 0.00186831861839055 0 -0.00059057663289105824 0.0018781684885129915 0 -0.00059905198998672744 0.0018524323255655465 0 -0.00057207288298576813 0.0018559914713495557 0 -0.00059057663289105824 0.0018781684885129915 0 -0.00059905198998672744 0.0018524323255655465 0 -0.00061227370784984394 0.00186831861839055 0 -0.00059905198998672744 0.0018524323255655465 0 -0.00061528565558114745 0.0018612974700892725 0 -0.00061528565558114745 0.0018612974700892725 0 -0.00061078313561112351 0.0018505691428487149 0 -0.00061390922456842922 0.0018690431034188622 0 -0.00059905198998672744 0.0018524323255655465 0 -0.00061528565558114745 0.0018612974700892725 0 -0.00061078313561112351 0.0018505691428487149 0 -0.0005859617774011663 0.001841048738694416 0 -0.00059905198998672744 0.0018524323255655465 0 -0.00060681203586426986 0.0018295039700011062 0 -0.00059905198998672744 0.0018524323255655465 0 -0.00061078313561112351 0.0018505691428487149 0 -0.00060681203586426986 0.0018295039700011062 0 -0.0006311629428275696 0.0018593993671853209 0 -0.00061227370784984394 0.00186831861839055 0 -0.00061528565558114745 0.0018612974700892725 0 -0.0006311629428275696 0.0018593993671853209 0 -0.00061528565558114745 0.0018612974700892725 0 -0.00061689480912142773 0.0018783402192202757 0 -0.00061528565558114745 0.0018612974700892725 0 -0.00061689480912142773 0.0018783402192202757 0 -0.00061390922456842922 0.0018690431034188622 0 -0.0006311629428275696 0.0018593993671853209 0 -0.00058495869501964557 0.0018927482387418751 0 -0.00057008319019119318 0.0018529077796945416 0 -0.0006311629428275696 0.0018593993671853209 0 -0.00061689480912142773 0.0018783402192202757 0 -0.00058495869501964557 0.0018927482387418751 0 -0.00058495869501964557 0.0018927482387418751 0 -0.00052554045185856165 0.0018801589580047873 0 -0.0004461367083635104 0.0020002273597979265 0 -0.00061689480912142773 0.0018783402192202757 0 -0.00058495869501964557 0.0018927482387418751 0 -0.00061011811236033576 0.0019086886374110117 0 -0.00058495869501964557 0.0018927482387418751 0 -0.00052554045185856165 0.0018801589580047873 0 -0.00057008319019119318 0.0018529077796945416 0 -0.00057151615882746246 0.001792856262705493 0 -0.00057008319019119318 0.0018529077796945416 0 -0.00053275905358002589 0.0018402054912388661 0 -0.00057151615882746246 0.001792856262705493 0 -0.00053275905358002589 0.0018402054912388661 0 -0.0004720006948297213 0.0018255545201467389 0 -0.00052554045185856165 0.0018801589580047873 0 -0.00057008319019119318 0.0018529077796945416 0 -0.00053275905358002589 0.0018402054912388661 0 -0.00057151615882746246 0.001792856262705493 0 -0.0006311629428275696 0.0018593993671853209 0 -0.00057008319019119318 0.0018529077796945416 0 -0.00052554045185856165 0.0018801589580047873 0 -0.0004720006948297213 0.0018255545201467389 0 -0.0004461367083635104 0.0020002273597979265 0 -0.0004720006948297213 0.0018255545201467389 0 -0.00026811163703148027 0.0020682316848940215 0 -0.0004461367083635104 0.0020002273597979265 0 -5.0795918381284829e-05 0.0028021296485840948 0 -9.0271576176602859e-07 0.0028274368514426534 0 -4.4116927584098177e-05 0.002763447803428202 0 -0.000251179140217879 0.002319223104652894 0 -0.00013693246936043537 0.0024389751021892145 0 -0.00052554045185856165 0.0018801589580047873 0 -0.00053275905358002589 0.0018402054912388661 0 -0.0004720006948297213 0.0018255545201467389 0 -5.0795918381284829e-05 0.0028021296485840948 0 -9.0271576176602859e-07 0.0028274368514426534 0 6.6742575888853947e-06 0.0028182795349575344 0 -1.7813272269395022e-05 0.0028164073436738129 0 2.945566680270669e-05 0.0028482410971192081 0 -9.0271576176602859e-07 0.0028274368514426534 0 -1.9938859480232113e-05 0.0028346372419030532 0 6.6742575888853947e-06 0.0028182795349575344 0 -9.0271576176602859e-07 0.0028274368514426534 0 7.0018293900381823e-06 0.0028845405757922508 0 -1.3141007916961974e-05 0.0028639086333756419 0 -9.0271576176602859e-07 0.0028274368514426534 0 7.0018293900381823e-06 0.0028845405757922508 0 3.3648058793073498e-05 0.0028941345735223299 0 7.0018293900381823e-06 0.0028845405757922508 0 -1.3141007916961974e-05 0.0028639086333756419 0 -1.1855866692283587e-05 0.0029013930155164379 0 7.0018293900381823e-06 0.0028845405757922508 0 -1.1855866692283587e-05 0.0029013930155164379 0 1.1994374669285425e-05 0.002919180894070476 0 3.3648058793073498e-05 0.0028941345735223299 0 3.4031358236951083e-05 0.0029225412729862593 0 1.1994374669285425e-05 0.002919180894070476 0 7.0018293900381823e-06 0.0028845405757922508 0 3.3648058793073498e-05 0.0028941345735223299 0 1.1994374669285425e-05 0.002919180894070476 0 3.4031358236951083e-05 0.0029225412729862593 0 1.1994374669285425e-05 0.002919180894070476 0 2.0751939534298836e-05 0.0029512013719080869 0 3.6006575447992934e-05 0.0029705034363382565 0 3.9453585863565746e-05 0.0029462019059523824 0 2.0751939534298836e-05 0.0029512013719080869 0 3.9453585863565746e-05 0.0029462019059523824 0 3.4031358236951083e-05 0.0029225412729862593 0 2.0751939534298836e-05 0.0029512013719080869 0 4.1712718007705039e-05 0.0030046899585040869 0 3.6006575447992934e-05 0.0029705034363382565 0 1.1928683733719626e-05 0.0029883312065280354 0 2.0751939534298836e-05 0.0029512013719080869 0 1.1928683733719626e-05 0.0029883312065280354 0 -2.0287411778512212e-05 0.0029642060235001463 0 3.6006575447992934e-05 0.0029705034363382565 0 2.0751939534298836e-05 0.0029512013719080869 0 1.1928683733719626e-05 0.0029883312065280354 0 -2.5528035641182158e-05 0.0030068019419828874 0 1.1928683733719626e-05 0.0029883312065280354 0 -2.0287411778512212e-05 0.0029642060235001463 0 1.1994374669285425e-05 0.002919180894070476 0 2.0751939534298836e-05 0.0029512013719080869 0 -2.0287411778512212e-05 0.0029642060235001463 0 -1.1855866692283587e-05 0.0029013930155164379 0 1.1994374669285425e-05 0.002919180894070476 0 -2.0287411778512212e-05 0.0029642060235001463 0 -2.3974801444492461e-05 0.0029633657361319947 0 -4.9944461575126687e-05 0.0029630967896106743 0 -1.1855866692283587e-05 0.0029013930155164379 0 -2.0287411778512212e-05 0.0029642060235001463 0 -4.0990740218748349e-05 0.0029076560839477448 0 -2.0287411778512212e-05 0.0029642060235001463 0 -5.6136701264502826e-05 0.0029369669182715452 0 -4.0990740218748349e-05 0.0029076560839477448 0 -5.6136701264502826e-05 0.0029369669182715452 0 -6.3313211620997576e-05 0.0028950466898210207 0 -4.0990740218748349e-05 0.0029076560839477448 0 -2.0287411778512212e-05 0.0029642060235001463 0 -5.7136502640836217e-05 0.0029953353981663922 0 -5.979897534921166e-05 0.0029745261419817067 0 -2.5528035641182158e-05 0.0030068019419828874 0 -2.0287411778512212e-05 0.0029642060235001463 0 -5.7136502640836217e-05 0.0029953353981663922 0 -7.690395625920365e-05 0.0030081391376510351 0 -5.7136502640836217e-05 0.0029953353981663922 0 -7.4057567731221138e-05 0.0029897209774289533 0 -5.7136502640836217e-05 0.0029953353981663922 0 -7.4057567731221138e-05 0.0029897209774289533 0 -5.979897534921166e-05 0.0029745261419817067 0 -4.9944461575126687e-05 0.0029630967896106743 0 -0.00010735891523423937 0.0028896544323300517 0 -5.6136701264502826e-05 0.0029369669182715452 0 -6.3313211620997576e-05 0.0028950466898210207 0 -0.00010230322732114696 0.0029224890081743747 0 -7.4057567731221138e-05 0.0029897209774289533 0 -5.979897534921166e-05 0.0029745261419817067 0 -8.2021378235645569e-05 0.0029872618722127475 0 -8.747905367482551e-05 0.0028767834000097145 0 -6.3313211620997576e-05 0.0028950466898210207 0 -0.00010230322732114696 0.0029224890081743747 0 -6.3313211620997576e-05 0.0028950466898210207 0 -3.4520927320377287e-05 0.0028731033913878597 0 -5.5573994843174248e-05 0.0028472138050104848 0 -8.747905367482551e-05 0.0028767834000097145 0 -6.3313211620997576e-05 0.0028950466898210207 0 -5.5573994843174248e-05 0.0028472138050104848 0 -6.3313211620997576e-05 0.0028950466898210207 0 -4.0990740218748349e-05 0.0029076560839477448 0 -3.4520927320377287e-05 0.0028731033913878597 0 -1.1855866692283587e-05 0.0029013930155164379 0 -4.0990740218748349e-05 0.0029076560839477448 0 -3.4520927320377287e-05 0.0028731033913878597 0 -1.3141007916961974e-05 0.0028639086333756419 0 -1.1855866692283587e-05 0.0029013930155164379 0 -3.4520927320377287e-05 0.0028731033913878597 0 -3.4520927320377287e-05 0.0028731033913878597 0 -1.9938859480232113e-05 0.0028346372419030532 0 -5.5573994843174248e-05 0.0028472138050104848 0 -1.3141007916961974e-05 0.0028639086333756419 0 -3.4520927320377287e-05 0.0028731033913878597 0 -1.9938859480232113e-05 0.0028346372419030532 0 -9.0271576176602859e-07 0.0028274368514426534 0 -1.3141007916961974e-05 0.0028639086333756419 0 -1.9938859480232113e-05 0.0028346372419030532 0 -1.9938859480232113e-05 0.0028346372419030532 0 -5.5573994843174248e-05 0.0028472138050104848 0 -2.5028663072335399e-05 0.0028020585032548007 0 -5.5573994843174248e-05 0.0028472138050104848 0 -5.9333650837986324e-05 0.0028035732801127253 0 -9.3936573755665499e-05 0.0028370075006546969 0 -8.747905367482551e-05 0.0028767834000097145 0 -5.5573994843174248e-05 0.0028472138050104848 0 -9.3936573755665499e-05 0.0028370075006546969 0 -5.9333650837986324e-05 0.0028035732801127253 0 -2.5028663072335399e-05 0.0028020585032548007 0 -4.4968669966825717e-05 0.002767101176806151 0 -5.9333650837986324e-05 0.0028035732801127253 0 -4.4968669966825717e-05 0.002767101176806151 0 -8.8615749804832146e-05 0.002767275642059204 0 -5.5573994843174248e-05 0.0028472138050104848 0 -5.9333650837986324e-05 0.0028035732801127253 0 -2.5028663072335399e-05 0.0028020585032548007 0 -1.9938859480232113e-05 0.0028346372419030532 0 -2.5028663072335399e-05 0.0028020585032548007 0 6.6742575888853947e-06 0.0028182795349575344 0 -2.5028663072335399e-05 0.0028020585032548007 0 -2.8967356496024511e-06 0.0027360769294930646 0 6.6742575888853947e-06 0.0028182795349575344 0 -5.6072437383424151e-05 0.0025393395988203339 0 -0.00013693246936043537 0.0024389751021892145 0 -2.5028663072335399e-05 0.0028020585032548007 0 -2.8967356496024511e-06 0.0027360769294930646 0 -4.4968669966825717e-05 0.002767101176806151 0 -9.3965052499469248e-05 0.002352974991486353 0 -0.00013665932103310542 0.0024543884141610497 0 -0.00024664057072502297 0.0022875244810277098 0 -2.8967356496024511e-06 0.0027360769294930646 0 -4.4968669966825717e-05 0.002767101176806151 0 -5.7049057045038346e-05 0.0027224525853533801 0 -2.8967356496024511e-06 0.0027360769294930646 0 -5.7049057045038346e-05 0.0027224525853533801 0 -5.8707510288997112e-05 0.0026604142973372172 0 -4.4968669966825717e-05 0.002767101176806151 0 -5.7049057045038346e-05 0.0027224525853533801 0 -8.8615749804832146e-05 0.002767275642059204 0 -9.3965052499469248e-05 0.002352974991486353 0 -7.6731915577723752e-05 0.00254480038559148 0 -4.6137672326010005e-05 0.0025874162442049153 0 -5.6072437383424151e-05 0.0025393395988203339 0 -4.9868007990529595e-05 0.0025759590013244077 0 -2.8967356496024511e-06 0.0027360769294930646 0 -5.8707510288997112e-05 0.0026604142973372172 0 -4.6137672326010005e-05 0.0025874162442049153 0 -7.6731915577723752e-05 0.00254480038559148 0 -4.6137672326010005e-05 0.0025874162442049153 0 -5.9633215785114498e-05 0.0025725681852739029 0 -5.8707510288997112e-05 0.0026604142973372172 0 -4.6137672326010005e-05 0.0025874162442049153 0 -6.8077654825066802e-05 0.0026270058429054932 0 -4.6137672326010005e-05 0.0025874162442049153 0 -5.5608488495158346e-05 0.0025801462814811775 0 -5.9633215785114498e-05 0.0025725681852739029 0 -4.6137672326010005e-05 0.0025874162442049153 0 -5.5608488495158346e-05 0.0025801462814811775 0 -6.1169572069143369e-05 0.0025844127821066931 0 -7.6731915577723752e-05 0.00254480038559148 0 -6.352390746544519e-05 0.0025806401876128102 0 -5.9633215785114498e-05 0.0025725681852739029 0 -5.5608488495158346e-05 0.0025801462814811775 0 -5.1483638204544782e-05 0.0025947745582691048 0 -6.1169572069143369e-05 0.0025844127821066931 0 -5.5608488495158346e-05 0.0025801462814811775 0 -6.352390746544519e-05 0.0025806401876128102 0 -5.1483638204544782e-05 0.0025947745582691048 0 -5.5608488495158346e-05 0.0025801462814811775 0 -6.352390746544519e-05 0.0025806401876128102 0 -5.9633215785114498e-05 0.0025725681852739029 0 -7.6731915577723752e-05 0.00254480038559148 0 -6.352390746544519e-05 0.0025806401876128102 0 -8.4595863405912642e-05 0.0025661726253325295 0 -8.4595863405912642e-05 0.0025661726253325295 0 -8.259696276473578e-05 0.0026018990676591244 0 -0.00011561532492594887 0.0025370217650630966 0 -7.6731915577723752e-05 0.00254480038559148 0 -8.4595863405912642e-05 0.0025661726253325295 0 -0.00011561532492594887 0.0025370217650630966 0 -6.352390746544519e-05 0.0025806401876128102 0 -8.4595863405912642e-05 0.0025661726253325295 0 -8.259696276473578e-05 0.0026018990676591244 0 -6.352390746544519e-05 0.0025806401876128102 0 -8.259696276473578e-05 0.0026018990676591244 0 -5.4020484710536486e-05 0.0026015887130418215 0 -5.4020484710536486e-05 0.0026015887130418215 0 -5.1483638204544782e-05 0.0025947745582691048 0 -1.7728354850312234e-05 0.0026291340620841594 0 -6.352390746544519e-05 0.0025806401876128102 0 -5.4020484710536486e-05 0.0026015887130418215 0 -5.1483638204544782e-05 0.0025947745582691048 0 -8.259696276473578e-05 0.0026018990676591244 0 -0.00023214532749206627 0.0023082111085858691 0 -0.00014864238771360074 0.002621329383961226 0 -0.00030625491970949302 0.002270717352673817 0 -0.00016185104755774148 0.0023420887140152453 0 -8.9763464714753415e-05 0.0025865026258297275 0 -0.00022513642253173458 0.0024008117644000303 0 -8.259696276473578e-05 0.0026018990676591244 0 -0.00011561532492594887 0.0025370217650630966 0 -0.00021266059238447311 0.0024955165933680857 0 -9.3965052499469248e-05 0.002352974991486353 0 -7.6731915577723752e-05 0.00254480038559148 0 -0.00013665932103310542 0.0024543884141610497 0 -0.00011561532492594887 0.0025370217650630966 0 -0.00013665932103310542 0.0024543884141610497 0 -0.00021266059238447311 0.0024955165933680857 0 -0.00013665932103310542 0.0024543884141610497 0 -0.00021266059238447311 0.0024955165933680857 0 -0.00024664057072502297 0.0022875244810277098 0 -7.6731915577723752e-05 0.00254480038559148 0 -0.00011561532492594887 0.0025370217650630966 0 -0.00013665932103310542 0.0024543884141610497 0 -0.00023214532749206627 0.0023082111085858691 0 -0.00031689018230928264 0.0024187037423549652 0 -0.00049383088852510484 0.0022037327929264649 0 -0.00030383727835601901 0.002101663778678175 0 -0.00035675086248155284 0.0021665116674060717 0 -0.00019629903268592258 0.002200849337673554 0 -0.00023214532749206627 0.0023082111085858691 0 -0.00031689018230928264 0.0024187037423549652 0 -0.00014864238771360074 0.002621329383961226 0 -0.00033604008952451911 0.0022099098168477499 0 -0.00016185104755774148 0.0023420887140152453 0 -0.00035675086248155284 0.0021665116674060717 0 -0.0004087491342361442 0.0020950043249713126 0 -0.00050600296337798879 0.0021301296599818488 0 -0.00029353576618133391 0.0022767063718960034 0 -0.00038209960755834251 0.0022480792268044737 0 -0.00033486086671864621 0.0023082832774499714 0 -0.00033604008952451911 0.0022099098168477499 0 -0.00044215258645805851 0.0021905135775619543 0 -0.00030383727835601901 0.002101663778678175 0 -0.00035675086248155284 0.0021665116674060717 0 -0.0004087491342361442 0.0020950043249713126 0 -0.0004087491342361442 0.0020950043249713126 0 -0.0004079686968245522 0.0020105784003909472 0 -0.00047791100712628066 0.0020357769598332641 0 -0.00030625491970949302 0.002270717352673817 0 -0.00044813729697488618 0.0021075643890839904 0 -0.00030383727835601901 0.002101663778678175 0 -0.0004087491342361442 0.0020950043249713126 0 -0.0004079686968245522 0.0020105784003909472 0 -0.00049383088852510484 0.0022037327929264649 0 -0.00044378438163731709 0.002033143663271716 0 -0.00060576642825674136 0.0020122037529752951 0 -9.3965052499469248e-05 0.002352974991486353 0 -0.00024664057072502297 0.0022875244810277098 0 -0.00026811163703148027 0.0020682316848940215 0 -0.00042741203307018679 0.0022191593933254131 0 -0.00024664057072502297 0.0022875244810277098 0 -0.00035591682088148541 0.0021308151319594766 0 -0.00021266059238447311 0.0024955165933680857 0 -0.00042741203307018679 0.0022191593933254131 0 -0.00024664057072502297 0.0022875244810277098 0 -0.00022513642253173458 0.0024008117644000303 0 -0.00043247719373726176 0.0021256174366718495 0 -0.00023214532749206627 0.0023082111085858691 0 -0.00049383088852510484 0.0022037327929264649 0 -0.00044378438163731709 0.002033143663271716 0 -0.00024664057072502297 0.0022875244810277098 0 -0.00035591682088148541 0.0021308151319594766 0 -0.00026811163703148027 0.0020682316848940215 0 -0.00035591682088148541 0.0021308151319594766 0 -0.00026811163703148027 0.0020682316848940215 0 -0.0004461367083635104 0.0020002273597979265 0 -0.00042741203307018679 0.0022191593933254131 0 -0.00035591682088148541 0.0021308151319594766 0 -0.0004461367083635104 0.0020002273597979265 0 -0.00057856729511567852 0.0019113170369785962 0 -0.00043247719373726176 0.0021256174366718495 0 -0.00058495869501964557 0.0018927482387418751 0 -0.00042741203307018679 0.0022191593933254131 0 -0.0004461367083635104 0.0020002273597979265 0 -0.00058495869501964557 0.0018927482387418751 0 -0.00061011811236033576 0.0019086886374110117 0 -0.00060576642825674136 0.0020122037529752951 0 -0.00058495869501964557 0.0018927482387418751 0 -0.00044378438163731709 0.002033143663271716 0 -0.00060576642825674136 0.0020122037529752951 0 -0.00061390922456842922 0.0018690431034188622 0 -0.00061011811236033576 0.0019086886374110117 0 -0.00061049296474114658 0.0018521972288460954 0 -0.00061049296474114658 0.0018521972288460954 0 -0.00058268867784237559 0.0019168057602010017 0 -0.00050695003609058814 0.0019261749461997781 0 -0.00061011811236033576 0.0019086886374110117 0 -0.00061049296474114658 0.0018521972288460954 0 -0.00060576642825674136 0.0020122037529752951 0 -0.00060683650685126487 0.0018712044333814794 0 -0.00055006878046858138 0.0019709254402091969 0 -0.00061689480912142773 0.0018783402192202757 0 -0.00061390922456842922 0.0018690431034188622 0 -0.00061011811236033576 0.0019086886374110117 0 -0.00060681203586426986 0.0018295039700011062 0 -0.00061049296474114658 0.0018521972288460954 0 -0.00060954042647517158 0.0018780926300856757 0 -0.00061078313561112351 0.0018505691428487149 0 -0.00060681203586426986 0.0018295039700011062 0 -0.00061049296474114658 0.0018521972288460954 0 -0.00061078313561112351 0.0018505691428487149 0 -0.00061390922456842922 0.0018690431034188622 0 -0.00061049296474114658 0.0018521972288460954 0 -0.00060954042647517158 0.0018780926300856757 0 -0.00058268867784237559 0.0019168057602010017 0 -0.00063770558164123704 0.0018956659511304272 0 -0.00061049296474114658 0.0018521972288460954 0 -0.00060954042647517158 0.0018780926300856757 0 -0.00058268867784237559 0.0019168057602010017 0 -0.00058268867784237559 0.0019168057602010017 0 -0.00055741413824333106 0.0020202389301364906 0 -0.00063551510660113896 0.0019901730370963707 0 -0.00058268867784237559 0.0019168057602010017 0 -0.00050695003609058814 0.0019261749461997781 0 -0.00055741413824333106 0.0020202389301364906 0 -0.0004079686968245522 0.0020105784003909472 0 -0.00050695003609058814 0.0019261749461997781 0 -0.00047791100712628066 0.0020357769598332641 0 -0.00050695003609058814 0.0019261749461997781 0 -0.00047791100712628066 0.0020357769598332641 0 -0.00055741413824333106 0.0020202389301364906 0 -0.00044813729697488618 0.0021075643890839904 0 -0.00055006878046858138 0.0019709254402091969 0 -0.00047791100712628066 0.0020357769598332641 0 -0.00050600296337798879 0.0021301296599818488 0 -0.00055741413824333106 0.0020202389301364906 0 -0.0004087491342361442 0.0020950043249713126 0 -0.00047791100712628066 0.0020357769598332641 0 -0.00050600296337798879 0.0021301296599818488 0 -0.00050600296337798879 0.0021301296599818488 0 -0.00055741413824333106 0.0020202389301364906 0 -0.00064223484838953082 0.0020948108421655564 0 -0.00044215258645805851 0.0021905135775619543 0 -0.00055800052531331272 0.0021554900312469828 0 -0.00038209960755834251 0.0022480792268044737 0 -0.00047783225017024056 0.0022167984701012213 0 -0.00040616946556349878 0.0023107246370032623 0 -0.00055741413824333106 0.0020202389301364906 0 -0.00064223484838953082 0.0020948108421655564 0 -0.00063551510660113896 0.0019901730370963707 0 -0.00064223484838953082 0.0020948108421655564 0 -0.00071971964418382159 0.0019855014048105364 0 -0.00063551510660113896 0.0019901730370963707 0 -0.00047783225017024056 0.0022167984701012213 0 -0.00055430592739997328 0.0022616885831857332 0 -0.00048526044166370355 0.0022990701878955327 0 -0.00047783225017024056 0.0022167984701012213 0 -0.00057287197601643865 0.0021860714711890326 0 -0.00055430592739997328 0.0022616885831857332 0 -0.00055800052531331272 0.0021554900312469828 0 -0.00068145063566042751 0.0021282407339398065 0 -0.00076485281244812375 0.0020634757108166468 0 -0.00071971964418382159 0.0019855014048105364 0 -0.00079359979212646607 0.0019781289223438046 0 -0.00064223484838953082 0.0020948108421655564 0 -0.00076485281244812375 0.0020634757108166468 0 -0.00071971964418382159 0.0019855014048105364 0 -0.00046360614275048931 0.0016823928760396809 0 -0.00045956835661714449 0.0016831755643202037 0 -0.00044982857858299818 0.0017291339380033739 0 -0.00071971964418382159 0.0019855014048105364 0 -0.00070760456717656323 0.0019095187298475481 0 -0.00079359979212646607 0.0019781289223438046 0 -0.00058560193292772037 0.0018032150654653239 0 -0.00062936390660453631 0.0018450482247822358 0 -0.00071971964418382159 0.0019855014048105364 0 -0.00065689679562398208 0.0019399455504921616 0 -0.00070760456717656323 0.0019095187298475481 0 -0.00071971964418382159 0.0019855014048105364 0 -0.00063551510660113896 0.0019901730370963707 0 -0.00065689679562398208 0.0019399455504921616 0 -0.00058268867784237559 0.0019168057602010017 0 -0.00065689679562398208 0.0019399455504921616 0 -0.00063770558164123704 0.0018956659511304272 0 -0.00058268867784237559 0.0019168057602010017 0 -0.00063551510660113896 0.0019901730370963707 0 -0.00065689679562398208 0.0019399455504921616 0 -0.00065689679562398208 0.0019399455504921616 0 -0.00063770558164123704 0.0018956659511304272 0 -0.00070760456717656323 0.0019095187298475481 0 -0.00060681203586426986 0.0018295039700011062 0 -0.00063770558164123704 0.0018956659511304272 0 -0.00070760456717656323 0.0019095187298475481 0 -0.00060681203586426986 0.0018295039700011062 0 -0.00051443398373605834 0.0017699568345007611 0 -0.00046360614275048931 0.0016823928760396809 0 -0.00060306205050825439 0.0018215488779958265 0 -0.00058560193292772037 0.0018032150654653239 0 -0.00060681203586426986 0.0018295039700011062 0 -0.00060954042647517158 0.0018780926300856757 0 -0.00063770558164123704 0.0018956659511304272 0 -0.00056453025407652072 0.0018275855495183339 0 -0.00060681203586426986 0.0018295039700011062 0 -0.00051443398373605834 0.0017699568345007611 0 -0.00045081332816036048 0.0017391118484236035 0 -0.00045956835661714449 0.0016831755643202037 0 -0.00048298626393710533 0.0016785963952136854 0 -0.00051443398373605834 0.0017699568345007611 0 -0.00045081332816036048 0.0017391118484236035 0 -0.00046360614275048931 0.0016823928760396809 0 -0.00045081332816036048 0.0017391118484236035 0 -0.00046360614275048931 0.0016823928760396809 0 -0.00045956835661714449 0.0016831755643202037 0 -3.1520134527480725e-05 0.0048673984913584377 0 -4.8578061000784717e-06 0.004905804146988736 0 3.5751332768791582e-06 0.0048047055926254915 0 -3.0314325151357135e-06 0.0049020217274585113 0 -1.4093810547647243e-06 0.004842467068103192 0 -3.1520134527480725e-05 0.0048673984913584377 0 -3.432811001488605e-05 0.0049177396325900203 0 -4.8578061000784717e-06 0.004905804146988736 0 -3.1520134527480725e-05 0.0048673984913584377 0 -5.1324791261999931e-05 0.0048900843379673558 0 -3.432811001488605e-05 0.0049177396325900203 0 -3.3054479199963604e-05 0.0048966455596112218 0 -4.8820361027836577e-05 0.0046385733239145358 0 -3.1520134527480725e-05 0.0048673984913584377 0 -6.5906444169170156e-05 0.0048581038056463872 0 -8.5092656342181862e-05 0.0048139820691313062 0 -6.5906444169170156e-05 0.0048581038056463872 0 -8.5092656342181862e-05 0.0048139820691313062 0 -0.00010071922234353837 0.0048447902188905106 0 -6.5906444169170156e-05 0.0048581038056463872 0 -6.850422342303648e-05 0.0048884941626914768 0 -0.00010071922234353837 0.0048447902188905106 0 -6.5906444169170156e-05 0.0048581038056463872 0 -5.1324791261999931e-05 0.0048900843379673558 0 -6.850422342303648e-05 0.0048884941626914768 0 -3.1520134527480725e-05 0.0048673984913584377 0 -6.5906444169170156e-05 0.0048581038056463872 0 -5.1324791261999931e-05 0.0048900843379673558 0 -5.1324791261999931e-05 0.0048900843379673558 0 -6.1680681728873771e-05 0.0049146150375588187 0 -3.432811001488605e-05 0.0049177396325900203 0 -6.1680681728873771e-05 0.0049146150375588187 0 -3.432811001488605e-05 0.0049177396325900203 0 -3.9206473574038271e-05 0.0049526577955523749 0 -5.1324791261999931e-05 0.0048900843379673558 0 -6.850422342303648e-05 0.0048884941626914768 0 -6.1680681728873771e-05 0.0049146150375588187 0 -3.432811001488605e-05 0.0049177396325900203 0 -1.3288747350525475e-05 0.0049446279495435081 0 -4.8578061000784717e-06 0.004905804146988736 0 1.9099634868235242e-06 0.0049943193842798307 0 1.2055593092448153e-09 0.0049999956402578434 0 6.025682892780961e-09 0.004999928428049286 0 -1.3288747350525475e-05 0.0049446279495435081 0 1.0758959574143357e-07 0.0049203123902259605 0 6.3024495484913407e-06 0.0049803163596078065 0 -1.3288747350525475e-05 0.0049446279495435081 0 1.0758959574143357e-07 0.0049203123902259605 0 -4.8578061000784717e-06 0.004905804146988736 0 1.0758959574143357e-07 0.0049203123902259605 0 1.5404349668908873e-05 0.0049006229279917046 0 6.3024495484913407e-06 0.0049803163596078065 0 7.7031266562649461e-06 0.0049498076607921871 0 6.4802951921963837e-06 0.0049774053197673938 0 1.0758959574143357e-07 0.0049203123902259605 0 1.5404349668908873e-05 0.0049006229279917046 0 6.7571618327103031e-06 0.0048973918610537353 0 1.0758959574143357e-07 0.0049203123902259605 0 6.7571618327103031e-06 0.0048973918610537353 0 -4.8578061000784717e-06 0.004905804146988736 0 6.7571618327103031e-06 0.0048973918610537353 0 -4.8578061000784717e-06 0.004905804146988736 0 -3.7059814843591614e-06 0.0048827685175537126 0 6.7571618327103031e-06 0.0048973918610537353 0 -4.8091073107255556e-06 0.0049123621238330896 0 1.3362713175642086e-05 0.0049239884350822461 0 7.285580795162688e-06 0.0048970648434641991 0 8.9447084484770145e-06 0.0048964791879593742 0 6.7571618327103031e-06 0.0048973918610537353 0 5.2102816365175996e-06 0.004867371343376131 0 -3.7059814843591614e-06 0.0048827685175537126 0 -5.2105292686326699e-08 0.0050001023294774022 0 2.5940376528988781e-08 0.0049999491291224888 0 -3.6573243803624455e-08 0.0050000751383910916 0 1.9099634868235242e-06 0.0049943193842798307 0 1.2055593092448153e-09 0.0049999956402578434 0 1.7230584877641219e-06 0.0050026645263380716 0 1.5404349668908873e-05 0.0049006229279917046 0 6.7571618327103031e-06 0.0048973918610537353 0 -4.8091073107255556e-06 0.0049123621238330896 0 7.7031266562649461e-06 0.0049498076607921871 0 -1.3843886119549512e-06 0.0049574465138138742 0 1.093516253878375e-06 0.0050062305464822991 0 1.7230584877641219e-06 0.0050026645263380716 0 1.0174479034347428e-06 0.0050047373993186333 0 1.2055593092448153e-09 0.0049999956402578434 0 1.7230584877641219e-06 0.0050026645263380716 0 1.0174479034347428e-06 0.0050047373993186333 0 1.3177375948813188e-07 0.0049995104212047581 0 1.4756182952059317e-07 0.0050036343666967492 0 -4.8091073107255556e-06 0.0049123621238330896 0 -1.3161902444827833e-06 0.0049315250912525151 0 1.3362713175642086e-05 0.0049239884350822461 0 -4.2610447763847268e-06 0.0049820241819090415 0 -1.3843886119549512e-06 0.0049574465138138742 0 -1.5969361792839569e-05 0.0049487977545721222 0 -4.8091073107255556e-06 0.0049123621238330896 0 -1.3161902444827833e-06 0.0049315250912525151 0 -6.6582066030783933e-06 0.0048520613064831561 0 5.2102816365175996e-06 0.004867371343376131 0 -3.7059814843591614e-06 0.0048827685175537126 0 -5.0925956134786331e-06 0.0047181372722951238 0 -3.3916738481825873e-05 0.0047590756960847538 0 3.5751332768791582e-06 0.0048047055926254915 0 -5.1839190505888699e-06 0.0047933325382216304 0 -1.4093810547647243e-06 0.004842467068103192 0 -3.1520134527480725e-05 0.0048673984913584377 0 3.5751332768791582e-06 0.0048047055926254915 0 -4.7331049062308657e-05 0.0048076534906936093 0 -3.3916738481825873e-05 0.0047590756960847538 0 3.5751332768791582e-06 0.0048047055926254915 0 -4.7331049062308657e-05 0.0048076534906936093 0 -3.1520134527480725e-05 0.0048673984913584377 0 -4.7331049062308657e-05 0.0048076534906936093 0 -9.6323389568251985e-05 0.0048271410659050384 0 -4.7331049062308657e-05 0.0048076534906936093 0 -7.9558494858129097e-05 0.004741600732320805 0 -9.6323389568251985e-05 0.0048271410659050384 0 -3.3916738481825873e-05 0.0047590756960847538 0 -4.7331049062308657e-05 0.0048076534906936093 0 -7.9558494858129097e-05 0.004741600732320805 0 -3.8329923780528877e-05 0.0044841059660498854 0 -4.8820361027836577e-05 0.0046385733239145358 0 -4.040018753200748e-05 0.0047230112631051688 0 -3.3916738481825873e-05 0.0047590756960847538 0 -7.9558494858129097e-05 0.004741600732320805 0 -6.3541043410722649e-06 0.0042544817839600454 0 4.2174294610138027e-08 0.0042624484392249423 0 -1.1132347964959587e-05 0.0042672852091430137 0 4.2174294610138027e-08 0.0042624484392249423 0 -1.1132347964959587e-05 0.0042672852091430137 0 -8.9341093431558357e-07 0.0042780358660824483 0 -0.00031926544792286395 0.0045183784188517918 0 -0.0003483054800628601 0.0046851189042739017 0 -0.00055120192544923295 0.0045555252195832322 0 -0.00031926544792286395 0.0045183784188517918 0 -0.0003483054800628601 0.0046851189042739017 0 -0.00021613129757842855 0.0047122252999559078 0 -0.00031926544792286395 0.0045183784188517918 0 -0.00021613129757842855 0.0047122252999559078 0 -6.2601718847490897e-05 0.0046707001464717139 0 -0.00016086122205819889 0.0044521999346623835 0 -4.8820361027836577e-05 0.0046385733239145358 0 -7.690395625920365e-05 0.0030081391376510351 0 -8.1030796142770784e-05 0.0030005518338686085 0 -8.9516333209367719e-05 0.0030043266791598658 0 -7.690395625920365e-05 0.0030081391376510351 0 -7.4057567731221138e-05 0.0029897209774289533 0 -8.1030796142770784e-05 0.0030005518338686085 0 -7.4057567731221138e-05 0.0029897209774289533 0 -8.1030796142770784e-05 0.0030005518338686085 0 -8.3803997814140989e-05 0.0029941742187064215 0 -8.1030796142770784e-05 0.0030005518338686085 0 -8.6103564606684795e-05 0.0030000441123003057 0 -8.9516333209367719e-05 0.0030043266791598658 0 -8.1030796142770784e-05 0.0030005518338686085 0 -8.6103564606684795e-05 0.0030000441123003057 0 -8.3803997814140989e-05 0.0029941742187064215 0 -8.6103564606684795e-05 0.0030000441123003057 0 -8.7107506427616075e-05 0.0029982238453432203 0 -8.3803997814140989e-05 0.0029941742187064215 0 -0.00031926544792286395 0.0045183784188517918 0 -0.00059650532257726448 0.0043596022888676414 0 -0.00055120192544923295 0.0045555252195832322 0 -1.4003479839535289e-05 0.0042525719762877374 0 -1.1132347964959587e-05 0.0042672852091430137 0 -2.5185517417273639e-05 0.0042569410600769861 0 -0.00016086122205819889 0.0044521999346623835 0 -0.00020811587378966287 0.0036343840334964322 0 -8.7107506427616075e-05 0.0029982238453432203 0 -8.8835654628859257e-05 0.003002881881688322 0 -8.8838365390003619e-05 0.0029970965729363319 0 -8.8835654628859257e-05 0.003002881881688322 0 -8.9589031151989827e-05 0.0030047300587755471 0 -8.8838365390003619e-05 0.0029970965729363319 0 -0.00020811587378966287 0.0036343840334964322 0 -0.00030956017698312901 0.0037789678348279002 0 -8.6103564606684795e-05 0.0030000441123003057 0 -8.7107506427616075e-05 0.0029982238453432203 0 -8.8835654628859257e-05 0.003002881881688322 0 -8.6103564606684795e-05 0.0030000441123003057 0 -8.8835654628859257e-05 0.003002881881688322 0 -8.9516333209367719e-05 0.0030043266791598658 0 -0.00018079810649266985 0.0034684298793769401 0 -0.00020811587378966287 0.0036343840334964322 0 -8.8838365390003619e-05 0.0029970965729363319 0 -8.2021378235645569e-05 0.0029872618722127475 0 -8.9255522275467095e-05 0.0029979183242528898 0 -0.0003483054800628601 0.0046851189042739017 0 -0.00055120192544923295 0.0045555252195832322 0 -0.00050422422020132446 0.0047443662958012982 0 -0.00030956017698312901 0.0037789678348279002 0 -0.00022662659820958439 0.0038343421551466947 0 -8.7107506427616075e-05 0.0029982238453432203 0 -8.8838365390003619e-05 0.0029970965729363319 0 -8.3803997814140989e-05 0.0029941742187064215 0 -8.8838365390003619e-05 0.0029970965729363319 0 -8.3803997814140989e-05 0.0029941742187064215 0 -8.2021378235645569e-05 0.0029872618722127475 0 -0.00010735891523423937 0.0028896544323300517 0 -0.00022662659820958439 0.0038343421551466947 0 -7.4057567731221138e-05 0.0029897209774289533 0 -8.3803997814140989e-05 0.0029941742187064215 0 -8.2021378235645569e-05 0.0029872618722127475 0 -0.00010230322732114696 0.0029224890081743747 0 -0.00011979847416947465 0.0028762922696106371 0 -0.00015378116749906114 0.0029097911577373389 0 -8.747905367482551e-05 0.0028767834000097145 0 -0.00010230322732114696 0.0029224890081743747 0 -0.00011979847416947465 0.0028762922696106371 0 -0.00011979847416947465 0.0028762922696106371 0 -0.00015378116749906114 0.0029097911577373389 0 -0.00014233665534965981 0.0028633107322863943 0 -0.00022662659820958439 0.0038343421551466947 0 -0.00013129544640562619 0.0039434341114154316 0 -0.00015378116749906114 0.0029097911577373389 0 -0.00014233665534965981 0.0028633107322863943 0 -0.00015655255375536325 0.0028488085256582231 0 -0.00014233665534965981 0.0028633107322863943 0 -0.00015655255375536325 0.0028488085256582231 0 -0.00015282089944897295 0.0028389011992966963 0 -0.00014233665534965981 0.0028633107322863943 0 -0.00012801337846582949 0.0028491769319970721 0 -0.00015282089944897295 0.0028389011992966963 0 -0.00011979847416947465 0.0028762922696106371 0 -0.00014233665534965981 0.0028633107322863943 0 -0.00012801337846582949 0.0028491769319970721 0 -0.00011979847416947465 0.0028762922696106371 0 -0.00012801337846582949 0.0028491769319970721 0 -9.3936573755665499e-05 0.0028370075006546969 0 -0.00012801337846582949 0.0028491769319970721 0 -9.3936573755665499e-05 0.0028370075006546969 0 -0.00012138371223344936 0.002807774442572923 0 -8.747905367482551e-05 0.0028767834000097145 0 -0.00011979847416947465 0.0028762922696106371 0 -9.3936573755665499e-05 0.0028370075006546969 0 -9.212744135292115e-05 0.0048730337003175771 0 -0.00016301144977733117 0.0049001406163490325 0 -6.850422342303648e-05 0.0048884941626914768 0 -0.00010071922234353837 0.0048447902188905106 0 -0.00025982869124893296 0.0048309313632345181 0 -0.00021613129757842855 0.0047122252999559078 0 -6.2601718847490897e-05 0.0046707001464717139 0 -0.00010071922234353837 0.0048447902188905106 0 -4.8820361027836577e-05 0.0046385733239145358 0 -9.5889065690173126e-05 0.0048577200029682483 0 -0.00021613129757842855 0.0047122252999559078 0 -0.00010071922234353837 0.0048447902188905106 0 -0.00025982869124893296 0.0048309313632345181 0 -0.0003483054800628601 0.0046851189042739017 0 -0.00021613129757842855 0.0047122252999559078 0 -0.00025982869124893296 0.0048309313632345181 0 -0.00016582052254122522 0.0048205967834352818 0 -0.00010947116713092892 0.0048519032264223343 0 -0.00014298971355397361 0.0048947029972403839 0 -0.0003483054800628601 0.0046851189042739017 0 -0.00050422422020132446 0.0047443662958012982 0 -0.00025982869124893296 0.0048309313632345181 0 -0.00022662659820958439 0.0038343421551466947 0 -0.00016301144977733117 0.0049001406163490325 0 -0.00014298971355397361 0.0048947029972403839 0 -9.5184396781402129e-05 0.0048955692959551256 0 -8.3316884374602142e-05 0.0049292850310394022 0 -0.00010947116713092892 0.0048519032264223343 0 -0.00014298971355397361 0.0048947029972403839 0 -9.5184396781402129e-05 0.0048955692959551256 0 -6.850422342303648e-05 0.0048884941626914768 0 -6.1680681728873771e-05 0.0049146150375588187 0 -9.5184396781402129e-05 0.0048955692959551256 0 -6.1680681728873771e-05 0.0049146150375588187 0 -9.5184396781402129e-05 0.0048955692959551256 0 -8.3316884374602142e-05 0.0049292850310394022 0 -6.850422342303648e-05 0.0048884941626914768 0 -0.00010947116713092892 0.0048519032264223343 0 -9.5184396781402129e-05 0.0048955692959551256 0 -0.00014298971355397361 0.0048947029972403839 0 -8.3316884374602142e-05 0.0049292850310394022 0 -0.00012073639897496272 0.0049467773405007763 0 -0.00013129544640562619 0.0039434341114154316 0 -0.00015912998211046393 0.0036015229173038412 0 -0.00015912998211046393 0.0036015229173038412 0 -0.00025297828880785502 0.0031761304108062927 0 -0.00015912998211046393 0.0036015229173038412 0 -5.6799136009934275e-05 0.0045554979509479154 0 -8.3316884374602142e-05 0.0049292850310394022 0 -0.00012073639897496272 0.0049467773405007763 0 -6.5235680902478655e-05 0.0049621146752560569 0 -0.00012073639897496272 0.0049467773405007763 0 -6.5235680902478655e-05 0.0049621146752560569 0 -7.0262867406062083e-05 0.0049886669346260694 0 -5.9333650837986324e-05 0.0028035732801127253 0 -9.3936573755665499e-05 0.0028370075006546969 0 -8.8615749804832146e-05 0.002767275642059204 0 -9.3936573755665499e-05 0.0028370075006546969 0 -8.8615749804832146e-05 0.002767275642059204 0 -0.00012138371223344936 0.002807774442572923 0 -8.8615749804832146e-05 0.002767275642059204 0 -0.00012138371223344936 0.002807774442572923 0 -0.00014719137972929035 0.0027672814648565039 0 -0.00022597065147375808 0.0027438737390644776 0 -0.00014719137972929035 0.0027672814648565039 0 -0.00015282089944897295 0.0028389011992966963 0 -0.00015912998211046393 0.0036015229173038412 0 -0.00024074747092655088 0.0025716067073457824 0 -0.00015655255375536325 0.0028488085256582231 0 -0.00014630026784450206 0.0028739756618200076 0 -0.00015282089944897295 0.0028389011992966963 0 -0.00012138371223344936 0.002807774442572923 0 -0.00014719137972929035 0.0027672814648565039 0 -0.00015282089944897295 0.0028389011992966963 0 -0.00012801337846582949 0.0028491769319970721 0 -0.00012138371223344936 0.002807774442572923 0 -0.00015282089944897295 0.0028389011992966963 0 -0.00022597065147375808 0.0027438737390644776 0 -0.00014719137972929035 0.0027672814648565039 0 -0.00016558443577073303 0.0027176942752697719 0 -0.00022597065147375808 0.0027438737390644776 0 -0.00016558443577073303 0.0027176942752697719 0 -0.00018566739347926914 0.0026731156879048618 0 -0.00016558443577073303 0.0027176942752697719 0 -0.00014147238355243435 0.0026825520485129792 0 -0.00018566739347926914 0.0026731156879048618 0 -0.00016558443577073303 0.0027176942752697719 0 -0.00012922605225585061 0.0027238380184529437 0 -0.00014147238355243435 0.0026825520485129792 0 -0.00014719137972929035 0.0027672814648565039 0 -0.00016558443577073303 0.0027176942752697719 0 -0.00012922605225585061 0.0027238380184529437 0 -8.8615749804832146e-05 0.002767275642059204 0 -0.00014719137972929035 0.0027672814648565039 0 -0.00012922605225585061 0.0027238380184529437 0 -8.8615749804832146e-05 0.002767275642059204 0 -0.00012922605225585061 0.0027238380184529437 0 -9.6377713881218085e-05 0.0026945920490234489 0 -0.00012922605225585061 0.0027238380184529437 0 -9.6377713881218085e-05 0.0026945920490234489 0 -0.00014147238355243435 0.0026825520485129792 0 -5.7049057045038346e-05 0.0027224525853533801 0 -5.8707510288997112e-05 0.0026604142973372172 0 -9.6377713881218085e-05 0.0026945920490234489 0 -5.7049057045038346e-05 0.0027224525853533801 0 -8.8615749804832146e-05 0.002767275642059204 0 -9.6377713881218085e-05 0.0026945920490234489 0 -4.6137672326010005e-05 0.0025874162442049153 0 -8.1450881127476444e-05 0.0026146175383580865 0 -6.8077654825066802e-05 0.0026270058429054932 0 -4.6137672326010005e-05 0.0025874162442049153 0 -8.1450881127476444e-05 0.0026146175383580865 0 -6.1169572069143369e-05 0.0025844127821066931 0 -8.1450881127476444e-05 0.0026146175383580865 0 -9.0036163119166506e-05 0.002602296043709271 0 -0.0001067550737781632 0.0026162918446723474 0 -8.1450881127476444e-05 0.0026146175383580865 0 -9.0036163119166506e-05 0.002602296043709271 0 -6.1169572069143369e-05 0.0025844127821066931 0 -8.1450881127476444e-05 0.0026146175383580865 0 -8.3538551609397033e-05 0.0026496436925221569 0 -0.00011116237735818825 0.0026493006127448373 0 -8.1450881127476444e-05 0.0026146175383580865 0 -6.8077654825066802e-05 0.0026270058429054932 0 -8.3538551609397033e-05 0.0026496436925221569 0 -5.8707510288997112e-05 0.0026604142973372172 0 -9.6377713881218085e-05 0.0026945920490234489 0 -8.3538551609397033e-05 0.0026496436925221569 0 -5.8707510288997112e-05 0.0026604142973372172 0 -6.8077654825066802e-05 0.0026270058429054932 0 -8.3538551609397033e-05 0.0026496436925221569 0 -9.6377713881218085e-05 0.0026945920490234489 0 -8.3538551609397033e-05 0.0026496436925221569 0 -0.00011116237735818825 0.0026493006127448373 0 -0.00011116237735818825 0.0026493006127448373 0 -0.00014294984579106212 0.0026282365432337717 0 -0.00014147238355243435 0.0026825520485129792 0 -9.6377713881218085e-05 0.0026945920490234489 0 -0.00011116237735818825 0.0026493006127448373 0 -0.00014147238355243435 0.0026825520485129792 0 -0.0001067550737781632 0.0026162918446723474 0 -0.00014294984579106212 0.0026282365432337717 0 -0.0001091695380617552 0.0025935536292262 0 -0.00011116237735818825 0.0026493006127448373 0 -0.0001067550737781632 0.0026162918446723474 0 -0.00014294984579106212 0.0026282365432337717 0 -8.1450881127476444e-05 0.0026146175383580865 0 -0.00011116237735818825 0.0026493006127448373 0 -0.0001067550737781632 0.0026162918446723474 0 -0.00014294984579106212 0.0026282365432337717 0 -0.00014147238355243435 0.0026825520485129792 0 -0.00018566739347926914 0.0026731156879048618 0 -0.00014294984579106212 0.0026282365432337717 0 -0.00018566739347926914 0.0026731156879048618 0 -0.00019182671137962993 0.0026119853198105138 0 -0.00014466447444273878 0.0025846148333116383 0 -0.00019182671137962993 0.0026119853198105138 0 -0.00016886450984694411 0.0025331131352002044 0 -0.00014294984579106212 0.0026282365432337717 0 -0.00014466447444273878 0.0025846148333116383 0 -0.00019182671137962993 0.0026119853198105138 0 -0.00014294984579106212 0.0026282365432337717 0 -0.00014466447444273878 0.0025846148333116383 0 -0.0001091695380617552 0.0025935536292262 0 -5.1483638204544782e-05 0.0025947745582691048 0 -6.1169572069143369e-05 0.0025844127821066931 0 -1.7728354850312234e-05 0.0026291340620841594 0 -0.00011069967261517857 0.0025637088022524733 0 -6.1169572069143369e-05 0.0025844127821066931 0 -8.4252178161547099e-05 0.0025386840775371397 0 -3.8143771243448876e-05 0.0025362364601339252 0 -0.00021741547399765091 0.0027249937087459562 0 -9.0036163119166506e-05 0.002602296043709271 0 -0.0001067550737781632 0.0026162918446723474 0 -0.0001091695380617552 0.0025935536292262 0 -0.00014466447444273878 0.0025846148333116383 0 -0.0001091695380617552 0.0025935536292262 0 -0.00011069967261517857 0.0025637088022524733 0 -9.0036163119166506e-05 0.002602296043709271 0 -0.0001091695380617552 0.0025935536292262 0 -6.1169572069143369e-05 0.0025844127821066931 0 -0.0001091695380617552 0.0025935536292262 0 -0.00011069967261517857 0.0025637088022524733 0 -6.1169572069143369e-05 0.0025844127821066931 0 -0.00022597065147375808 0.0027438737390644776 0 -0.00018566739347926914 0.0026731156879048618 0 -0.00023400336184437897 0.0026549850697530891 0 -0.00029346491792493957 0.0036114739311537388 0 -8.3457613096814078e-05 0.0038625372431986362 0 -0.0002394716891107527 0.0038303385280906059 0 -0.00018566739347926914 0.0026731156879048618 0 -0.00023400336184437897 0.0026549850697530891 0 -0.00019182671137962993 0.0026119853198105138 0 -0.00025297828880785502 0.0031761304108062927 0 -0.00022871022627274476 0.0032611900443140127 0 -0.00019182671137962993 0.0026119853198105138 0 -0.00023692490279067155 0.0025872717038352678 0 -0.00016886450984694411 0.0025331131352002044 0 -0.00023400336184437897 0.0026549850697530891 0 -0.00019182671137962993 0.0026119853198105138 0 -0.00023692490279067155 0.0025872717038352678 0 -8.3457613096814078e-05 0.0038625372431986362 0 -0.00018615432650369366 0.0040508394103062262 0 -3.9012697492487892e-05 0.0041354273475492156 0 -8.3457613096814078e-05 0.0038625372431986362 0 -0.0002394716891107527 0.0038303385280906059 0 -0.00018615432650369366 0.0040508394103062262 0 -5.6799136009934275e-05 0.0045554979509479154 0 4.5947501428702751e-05 0.0045188528910072119 0 6.025682892780961e-09 0.004999928428049286 0 -5.7219702098793568e-06 0.0050003976233311031 0 -9.6160393033401844e-07 0.0049999516143953253 0 -7.0262867406062083e-05 0.0049886669346260694 0 -2.7919146055502038e-05 0.0049877866812439216 0 -3.276055222184575e-05 0.0050043662993817448 0 -8.3457613096814078e-05 0.0038625372431986362 0 0.00012805345949429221 0.0041174421937719072 0 -3.9012697492487892e-05 0.0041354273475492156 0 -2.7919146055502038e-05 0.0049877866812439216 0 -8.7899133832091378e-06 0.0049982954464079694 0 -3.276055222184575e-05 0.0050043662993817448 0 -6.5235680902478655e-05 0.0049621146752560569 0 -7.0262867406062083e-05 0.0049886669346260694 0 -2.7919146055502038e-05 0.0049877866812439216 0 -6.5235680902478655e-05 0.0049621146752560569 0 -2.7919146055502038e-05 0.0049877866812439216 0 -3.9206473574038271e-05 0.0049526577955523749 0 -2.7919146055502038e-05 0.0049877866812439216 0 -3.9206473574038271e-05 0.0049526577955523749 0 -8.4804490016781908e-06 0.0049792005143004655 0 -3.432811001488605e-05 0.0049177396325900203 0 -1.3288747350525475e-05 0.0049446279495435081 0 -3.9206473574038271e-05 0.0049526577955523749 0 -1.3288747350525475e-05 0.0049446279495435081 0 -3.9206473574038271e-05 0.0049526577955523749 0 -8.4804490016781908e-06 0.0049792005143004655 0 -6.1680681728873771e-05 0.0049146150375588187 0 -8.3316884374602142e-05 0.0049292850310394022 0 -3.9206473574038271e-05 0.0049526577955523749 0 -8.3316884374602142e-05 0.0049292850310394022 0 -6.5235680902478655e-05 0.0049621146752560569 0 -3.9206473574038271e-05 0.0049526577955523749 0 1.9099634868235242e-06 0.0049943193842798307 0 6.3024495484913407e-06 0.0049803163596078065 0 6.025682892780961e-09 0.004999928428049286 0 6.3024495484913407e-06 0.0049803163596078065 0 -8.4804490016781908e-06 0.0049792005143004655 0 6.025682892780961e-09 0.004999928428049286 0 -1.3288747350525475e-05 0.0049446279495435081 0 6.3024495484913407e-06 0.0049803163596078065 0 -8.4804490016781908e-06 0.0049792005143004655 0 -2.7919146055502038e-05 0.0049877866812439216 0 -8.4804490016781908e-06 0.0049792005143004655 0 -8.9986639722558972e-06 0.0049913347617446058 0 -8.4804490016781908e-06 0.0049792005143004655 0 6.025682892780961e-09 0.004999928428049286 0 -8.9986639722558972e-06 0.0049913347617446058 0 6.025682892780961e-09 0.004999928428049286 0 -8.7899133832091378e-06 0.0049982954464079694 0 -5.7219702098793568e-06 0.0050003976233311031 0 6.025682892780961e-09 0.004999928428049286 0 -8.9986639722558972e-06 0.0049913347617446058 0 -8.7899133832091378e-06 0.0049982954464079694 0 -2.7919146055502038e-05 0.0049877866812439216 0 -8.9986639722558972e-06 0.0049913347617446058 0 -8.7899133832091378e-06 0.0049982954464079694 0 6.025682892780961e-09 0.004999928428049286 0 -9.6160393033401844e-07 0.0049999516143953253 0 -5.6232484010406312e-09 0.0050000098895133446 0 -8.7899133832091378e-06 0.0049982954464079694 0 -1.4194244651851248e-05 0.0050028416565193858 0 -5.7219702098793568e-06 0.0050003976233311031 0 -1.4194244651851248e-05 0.0050028416565193858 0 -5.7219702098793568e-06 0.0050003976233311031 0 -1.2083307347139564e-05 0.0050070706954936746 0 9.1462714136696853e-05 0.0047956083195643817 0 -3.5658573976107477e-05 0.005044163788494674 0 2.9980445190654064e-06 0.0049863267170379673 0 -9.6160393033401844e-07 0.0049999516143953253 0 1.3283177338085576e-06 0.0049880164280029391 0 -5.7219702098793568e-06 0.0050003976233311031 0 -1.2083307347139564e-05 0.0050070706954936746 0 -9.6160393033401844e-07 0.0049999516143953253 0 9.1462714136696853e-05 0.0047956083195643817 0 4.5655516736389655e-05 0.0049668423752018843 0 -2.0861556369590226e-06 0.0049765679318032963 0 -3.7114332291716926e-06 0.0049613629925947767 0 1.3283177338085576e-06 0.0049880164280029391 0 0.00012805345949429221 0.0041174421937719072 0 0.00010360081631313388 0.0043258585738029324 0 -3.9012697492487892e-05 0.0041354273475492156 0 0.00033812216839397438 0.0043764610439981817 0 0.00012805345949429221 0.0041174421937719072 0 0.00010360081631313388 0.0043258585738029324 0 -8.7899133832091378e-06 0.0049982954464079694 0 -1.4194244651851248e-05 0.0050028416565193858 0 -3.276055222184575e-05 0.0050043662993817448 0 -1.4194244651851248e-05 0.0050028416565193858 0 -1.2083307347139564e-05 0.0050070706954936746 0 -3.276055222184575e-05 0.0050043662993817448 0 9.1462714136696853e-05 0.0047956083195643817 0 4.5947501428702751e-05 0.0045188528910072119 0 -2.0861556369590226e-06 0.0049765679318032963 0 -3.7114332291716926e-06 0.0049613629925947767 0 -2.837683027808705e-05 0.0049618893659468324 0 -3.7114332291716926e-06 0.0049613629925947767 0 -3.2965189790110453e-05 0.0049339700086819902 0 -2.837683027808705e-05 0.0049618893659468324 0 9.1462714136696853e-05 0.0047956083195643817 0 5.564530873595864e-05 0.0046773521800820075 0 -3.2965189790110453e-05 0.0049339700086819902 0 -4.6680556654746129e-05 0.0049435007059314296 0 -2.837683027808705e-05 0.0049618893659468324 0 -3.2965189790110453e-05 0.0049339700086819902 0 -4.6680556654746129e-05 0.0049435007059314296 0 -6.9988113866116793e-05 0.0049132343403965927 0 5.564530873595864e-05 0.0046773521800820075 0 -5.285645540581512e-05 0.0037808586308306453 0 -8.2929391802293681e-06 0.0049814648135504533 0 -1.0066848023198589e-05 0.0049842914926507024 0 -6.0285885648273553e-06 0.0049885198009820414 0 -5.5200649431742934e-05 0.0050018254796065599 0 7.1298309057721168e-05 0.0045380537235622928 0 -8.2929391802293681e-06 0.0049814648135504533 0 -1.0066848023198589e-05 0.0049842914926507024 0 -1.3876141150578099e-05 0.0049804669609421776 0 -2.837683027808705e-05 0.0049618893659468324 0 -5.7831855993449715e-05 0.0049593071160839493 0 -5.8735046982398216e-05 0.0049619324174907144 0 -4.6680556654746129e-05 0.0049435007059314296 0 -2.837683027808705e-05 0.0049618893659468324 0 -5.7831855993449715e-05 0.0049593071160839493 0 -8.2929391802293681e-06 0.0049814648135504533 0 -1.2071525288809795e-06 0.0049886568090002029 0 -6.0285885648273553e-06 0.0049885198009820414 0 -2.0861556369590226e-06 0.0049765679318032963 0 -8.2929391802293681e-06 0.0049814648135504533 0 -1.2071525288809795e-06 0.0049886568090002029 0 1.3228450642996461e-05 0.0049676815818251478 0 -5.5200649431742934e-05 0.0050018254796065599 0 -6.0285885648273553e-06 0.0049885198009820414 0 2.1078024594622617e-07 0.004995109787169656 0 -6.6575217710458182e-06 0.0049928364729387277 0 -1.2071525288809795e-06 0.0049886568090002029 0 -6.0285885648273553e-06 0.0049885198009820414 0 2.1078024594622617e-07 0.004995109787169656 0 -6.0285885648273553e-06 0.0049885198009820414 0 -6.6575217710458182e-06 0.0049928364729387277 0 -1.3557023547951008e-05 0.0049860264609010337 0 -1.0066848023198589e-05 0.0049842914926507024 0 -6.0285885648273553e-06 0.0049885198009820414 0 -1.3557023547951008e-05 0.0049860264609010337 0 1.7049489668123627e-05 0.0048967946644812238 0 3.7257404263383002e-05 0.0046220673253674757 0 2.8420334591640543e-05 0.0047691189834572975 0 -6.2008956516919564e-05 0.0047512590302378598 0 -7.014779522131724e-05 0.004696919239529313 0 -1.2071525288809795e-06 0.0049886568090002029 0 -5.6232484010406312e-09 0.0050000098895133446 0 2.1078024594622617e-07 0.004995109787169656 0 -1.2071525288809795e-06 0.0049886568090002029 0 -5.6232484010406312e-09 0.0050000098895133446 0 1.3283177338085576e-06 0.0049880164280029391 0 -9.6160393033401844e-07 0.0049999516143953253 0 -5.6232484010406312e-09 0.0050000098895133446 0 1.3283177338085576e-06 0.0049880164280029391 0 -2.0861556369590226e-06 0.0049765679318032963 0 -1.2071525288809795e-06 0.0049886568090002029 0 1.3283177338085576e-06 0.0049880164280029391 0 -5.6232484010406312e-09 0.0050000098895133446 0 1.5126681674633531e-09 0.004999974249215125 0 2.1078024594622617e-07 0.004995109787169656 0 1.5126681674633531e-09 0.004999974249215125 0 1.2531793918147678e-06 0.0049951185918485144 0 2.1078024594622617e-07 0.004995109787169656 0 1.2531793918147678e-06 0.0049951185918485144 0 2.1078024594622617e-07 0.004995109787169656 0 -1.1105912637799653e-06 0.0049960135416267102 0 -5.720733759604764e-06 0.0050015266290593888 0 3.3032105034206903e-05 0.0049299188768469971 0 1.2531793918147678e-06 0.0049951185918485144 0 -4.9924820022776216e-06 0.0049683820728195138 0 -5.3660058487975044e-06 0.0049859761274468921 0 2.1078024594622617e-07 0.004995109787169656 0 -1.1105912637799653e-06 0.0049960135416267102 0 -6.6575217710458182e-06 0.0049928364729387277 0 0.00012374387591517942 0.0048411690985442537 0 3.2483262939281033e-05 0.0047959264106686309 0 2.8420334591640543e-05 0.0047691189834572975 0 3.3032105034206903e-05 0.0049299188768469971 0 1.7049489668123627e-05 0.0048967946644812238 0 3.3032105034206903e-05 0.0049299188768469971 0 2.4440176337436287e-05 0.0048831638285330948 0 2.4440176337436287e-05 0.0048831638285330948 0 -6.1496180370607124e-06 0.0044715836206481287 0 3.3107324708974227e-05 0.0045155310329960839 0 -6.1496180370607124e-06 0.0044715836206481287 0 -2.0185227317293211e-05 0.0049527172698273234 0 -3.2734308745966417e-05 0.0049741136270043803 0 -4.0284836631526294e-05 0.0049389551316985558 0 3.2483262939281033e-05 0.0047959264106686309 0 2.8420334591640543e-05 0.0047691189834572975 0 -6.2008956516919564e-05 0.0047512590302378598 0 -3.2734308745966417e-05 0.0049741136270043803 0 -1.6314096067687632e-05 0.0049731840722791838 0 -1.6498384859067687e-05 0.0049850674318623438 0 -2.0185227317293211e-05 0.0049527172698273234 0 -3.2734308745966417e-05 0.0049741136270043803 0 -1.6314096067687632e-05 0.0049731840722791838 0 -4.9924820022776216e-06 0.0049683820728195138 0 -1.6314096067687632e-05 0.0049731840722791838 0 -5.3660058487975044e-06 0.0049859761274468921 0 -4.9924820022776216e-06 0.0049683820728195138 0 -2.0185227317293211e-05 0.0049527172698273234 0 -1.6314096067687632e-05 0.0049731840722791838 0 -1.6314096067687632e-05 0.0049731840722791838 0 -1.6498384859067687e-05 0.0049850674318623438 0 -5.3660058487975044e-06 0.0049859761274468921 0 -1.6498384859067687e-05 0.0049850674318623438 0 -4.8845980851152468e-06 0.0049944231346796021 0 -5.3660058487975044e-06 0.0049859761274468921 0 -1.6498384859067687e-05 0.0049850674318623438 0 -2.5728468705590153e-05 0.0049969922710036765 0 -4.8845980851152468e-06 0.0049944231346796021 0 -3.2734308745966417e-05 0.0049741136270043803 0 -1.6498384859067687e-05 0.0049850674318623438 0 -2.5728468705590153e-05 0.0049969922710036765 0 3.3107324708974227e-05 0.0045155310329960839 0 3.2411772022093496e-05 0.0046507560410318279 0 -6.4190245934470043e-06 0.0049907519868819927 0 -4.8307293897068244e-06 0.0049942008087507624 0 -6.6523167001698808e-06 0.0049923115330267331 0 3.2411772022093496e-05 0.0046507560410318279 0 2.3401003263485821e-05 0.0045148780875798591 0 -6.4190245934470043e-06 0.0049907519868819927 0 -4.8307293897068244e-06 0.0049942008087507624 0 -4.8845980851152468e-06 0.0049944231346796021 0 -4.8307293897068244e-06 0.0049942008087507624 0 -4.8845980851152468e-06 0.0049944231346796021 0 -1.2103237028697293e-06 0.0049970939886795395 0 3.2411772022093496e-05 0.0046507560410318279 0 -4.2952669183951529e-05 0.0050673397001323945 0 -4.8845980851152468e-06 0.0049944231346796021 0 -1.2103237028697293e-06 0.0049970939886795395 0 1.5082391047438318e-07 0.004997088484086129 0 1.5126681674633531e-09 0.004999974249215125 0 1.5082391047438318e-07 0.004997088484086129 0 5.751682153209864e-09 0.0050000120662910671 0 -1.2103237028697293e-06 0.0049970939886795395 0 1.5082391047438318e-07 0.004997088484086129 0 5.751682153209864e-09 0.0050000120662910671 0 1.5126681674633531e-09 0.004999974249215125 0 1.2531793918147678e-06 0.0049951185918485144 0 1.5082391047438318e-07 0.004997088484086129 0 1.2531793918147678e-06 0.0049951185918485144 0 -5.3660058487975044e-06 0.0049859761274468921 0 -1.3566406045351094e-06 0.00499347125144671 0 1.2531793918147678e-06 0.0049951185918485144 0 1.5082391047438318e-07 0.004997088484086129 0 -1.3566406045351094e-06 0.00499347125144671 0 -4.8845980851152468e-06 0.0049944231346796021 0 1.5082391047438318e-07 0.004997088484086129 0 -1.3566406045351094e-06 0.00499347125144671 0 -4.8845980851152468e-06 0.0049944231346796021 0 -5.3660058487975044e-06 0.0049859761274468921 0 -1.3566406045351094e-06 0.00499347125144671 0 -0.00013889833116839223 0.0041499546802325846 0 -7.6857944078339633e-05 0.0041322045838377095 0 -0.00015957375966766218 0.0040716402009506585 0 -0.00013889833116839223 0.0041499546802325846 0 -0.00011013047922234893 0.0042136522050457929 0 -7.6857944078339633e-05 0.0041322045838377095 0 -9.4701668406136795e-05 0.0037297910575046942 0 -8.9111612096716311e-05 0.0038244716722831847 0 -0.00015065519499824514 0.0038522669506618717 0 -0.00010062258938971783 0.003444544897921298 0 -0.00010473451079420784 0.0034790737678806589 0 -8.7124310813744237e-05 0.0034540622259712395 0 -0.00010062258938971783 0.003444544897921298 0 -0.00010662097374283051 0.0034432348306551613 0 -0.00010473451079420784 0.0034790737678806589 0 -0.00013889833116839223 0.0041499546802325846 0 -0.00020842901032033369 0.0041823716231554117 0 -0.00015957375966766218 0.0040716402009506585 0 -7.7184206251663397e-05 0.0037731358078919126 0 -0.00017511299248271532 0.0039991998577968641 0 -7.7184206251663397e-05 0.0037731358078919126 0 -0.00011631623635449876 0.0035928289725282716 0 -7.7184206251663397e-05 0.0037731358078919126 0 -4.3562107832672093e-05 0.0040083812942211527 0 1.2790347258808307e-05 0.0037722542337056911 0 1.8843541483473764e-05 0.0037767096288366833 0 1.2013235910702774e-05 0.0037847640189451839 0 1.3243415715742429e-05 0.0037713646442567778 0 1.8843541483473764e-05 0.0037767096288366833 0 2.4977806421042998e-05 0.0037770016535503058 0 -4.3376010999613322e-05 0.0036810056013851468 0 9.3305394065272271e-06 0.0036990896547869608 0 1.2790347258808307e-05 0.0037722542337056911 0 1.3243415715742429e-05 0.0037713646442567778 0 1.8843541483473764e-05 0.0037767096288366833 0 -0.00010062258938971783 0.003444544897921298 0 -0.00010519893190022962 0.0034399573825259992 0 -0.00010653969090493705 0.0034431824817289717 0 -0.00010262426687710556 0.003737292354648817 0 -7.7184206251663397e-05 0.0037731358078919126 0 -4.3376010999613322e-05 0.0036810056013851468 0 -7.7184206251663397e-05 0.0037731358078919126 0 1.8843541483473764e-05 0.0037767096288366833 0 2.248297696200849e-05 0.0037796560205487911 0 1.9121512353598213e-05 0.0037827675957451648 0 -0.00013889833116839223 0.0041499546802325846 0 -0.00020842901032033369 0.0041823716231554117 0 -0.00011013047922234893 0.0042136522050457929 0 1.8843541483473764e-05 0.0037767096288366833 0 2.248297696200849e-05 0.0037796560205487911 0 2.4977806421042998e-05 0.0037770016535503058 0 2.248297696200849e-05 0.0037796560205487911 0 2.4977806421042998e-05 0.0037770016535503058 0 2.6769239965575806e-05 0.0037819904640784114 0 3.8393298290122803e-05 0.004004741868884349 0 4.8254888041585372e-05 0.003776867804100146 0 -0.00011013047922234893 0.0042136522050457929 0 -8.3953934557850003e-06 0.0042458337982900912 0 -7.6857944078339633e-05 0.0041322045838377095 0 2.4977806421042998e-05 0.0037770016535503058 0 3.4096993540601285e-05 0.0037828269276680227 0 2.6769239965575806e-05 0.0037819904640784114 0 -4.3562107832672093e-05 0.0040083812942211527 0 3.8393298290122803e-05 0.004004741868884349 0 0.00011166270132259207 0.0042199751399107236 0 -8.3953934557850003e-06 0.0042458337982900912 0 1.8808850632480757e-05 0.004154672344052401 0 3.7973688651901607e-05 0.0043688325578512266 0 3.6461608140485129e-05 0.0043653057227387151 0 3.8118279800535588e-05 0.0043697270992148433 0 3.2411772022093496e-05 0.0046507560410318279 0 3.8393298290122803e-05 0.004004741868884349 0 9.3015041642201301e-05 0.0040866386205235129 0 0.00011166270132259207 0.0042199751399107236 0 1.8808850632480757e-05 0.004154672344052401 0 9.3015041642201301e-05 0.0040866386205235129 0 1.8808850632480757e-05 0.004154672344052401 0 -2.4707542933592479e-05 0.0040871629975586053 0 1.8808850632480757e-05 0.004154672344052401 0 -7.6857944078339633e-05 0.0041322045838377095 0 -2.4707542933592479e-05 0.0040871629975586053 0 -8.3953934557850003e-06 0.0042458337982900912 0 1.8808850632480757e-05 0.004154672344052401 0 -7.6857944078339633e-05 0.0041322045838377095 0 -7.6857944078339633e-05 0.0041322045838377095 0 -2.4707542933592479e-05 0.0040871629975586053 0 -7.4131427844946468e-05 0.0040320630483089946 0 -2.4707542933592479e-05 0.0040871629975586053 0 -7.4131427844946468e-05 0.0040320630483089946 0 8.0844174051056252e-07 0.0040052214725747482 0 9.3015041642201301e-05 0.0040866386205235129 0 -2.4707542933592479e-05 0.0040871629975586053 0 8.0844174051056252e-07 0.0040052214725747482 0 8.0844174051056252e-07 0.0040052214725747482 0 7.4251303440694098e-05 0.0039477747777620035 0 -1.0558607090364543e-05 0.0039046906854229291 0 9.3015041642201301e-05 0.0040866386205235129 0 8.0844174051056252e-07 0.0040052214725747482 0 7.4251303440694098e-05 0.0039477747777620035 0 8.0844174051056252e-07 0.0040052214725747482 0 -5.5993268319910423e-05 0.0039680517667212509 0 -1.0558607090364543e-05 0.0039046906854229291 0 -7.4131427844946468e-05 0.0040320630483089946 0 8.0844174051056252e-07 0.0040052214725747482 0 -5.5993268319910423e-05 0.0039680517667212509 0 -0.0001182928772710009 0.0039217203978103203 0 -0.00011954364861007453 0.0039002326676030904 0 -9.5237785614431903e-05 0.0038980815979612294 0 -0.00012560970813062312 0.0039537373389907458 0 -9.9698259144851811e-05 0.0039036472651591842 0 -5.5993268319910423e-05 0.0039680517667212509 0 -0.00013508115369974028 0.0039886428208085693 0 -9.5237785614431903e-05 0.0038980815979612294 0 -0.0001182928772710009 0.0039217203978103203 0 -0.00013662015295582029 0.0039100288005075277 0 -0.00011954364861007453 0.0039002326676030904 0 -7.4131427844946468e-05 0.0040320630483089946 0 -5.5993268319910423e-05 0.0039680517667212509 0 -0.00013508115369974028 0.0039886428208085693 0 -7.6857944078339633e-05 0.0041322045838377095 0 -7.4131427844946468e-05 0.0040320630483089946 0 -0.00015957375966766218 0.0040716402009506585 0 -7.4131427844946468e-05 0.0040320630483089946 0 -0.00013508115369974028 0.0039886428208085693 0 -0.00017424462434792503 0.0040754616105295894 0 -8.8000921876474068e-05 0.0040435570317285422 0 -0.00017511299248271532 0.0039991998577968641 0 -0.0001182928772710009 0.0039217203978103203 0 -0.00013320375529281395 0.0039464168214011722 0 -0.0001401267971780655 0.0039287122141187817 0 -0.00012560970813062312 0.0039537373389907458 0 -0.00017511299248271532 0.0039991998577968641 0 -0.00015139069407385026 0.0039536413776873058 0 -0.0001401267971780655 0.0039287122141187817 0 -0.00015834814341225367 0.0039075051002156157 0 -0.00015139069407385026 0.0039536413776873058 0 -0.00013320375529281395 0.0039464168214011722 0 -0.0001401267971780655 0.0039287122141187817 0 -0.00011631623635449876 0.0035928289725282716 0 -0.0001908066734210142 0.0036070759263002929 0 -0.00011631623635449876 0.0035928289725282716 0 -0.00017511299248271532 0.0039991998577968641 0 -0.0001182928772710009 0.0039217203978103203 0 -0.0001401267971780655 0.0039287122141187817 0 -0.00013662015295582029 0.0039100288005075277 0 -0.0001401267971780655 0.0039287122141187817 0 -0.00013662015295582029 0.0039100288005075277 0 -0.00015834814341225367 0.0039075051002156157 0 -0.00013662015295582029 0.0039100288005075277 0 -0.00015834814341225367 0.0039075051002156157 0 -0.00015035547482477644 0.0038846482592330301 0 -0.00015834814341225367 0.0039075051002156157 0 -0.00015035547482477644 0.0038846482592330301 0 -0.00016513663711985655 0.0038324279754823197 0 -0.00015035547482477644 0.0038846482592330301 0 -8.8613375963616359e-05 0.0038668097914309973 0 -0.00016513663711985655 0.0038324279754823197 0 -0.0001908066734210142 0.0036070759263002929 0 -0.00023534670525618735 0.0035541666553134056 0 -0.00013662015295582029 0.0039100288005075277 0 -0.00015035547482477644 0.0038846482592330301 0 -0.00011954364861007453 0.0039002326676030904 0 -0.00015035547482477644 0.0038846482592330301 0 -0.00011954364861007453 0.0039002326676030904 0 -9.4399034053446181e-05 0.0038720096157109168 0 -0.00013644253994567651 0.0038631882975748068 0 -0.00010179222905423271 0.0039731353968660591 0 -0.00011954364861007453 0.0039002326676030904 0 -9.5237785614431903e-05 0.0038980815979612294 0 -9.4399034053446181e-05 0.0038720096157109168 0 -9.7332052386810258e-05 0.0038631008869906358 0 -0.00012908903302888834 0.0036481414729198389 0 -0.00030231371456196284 0.0036297752604934163 0 -0.00010179222905423271 0.0039731353968660591 0 -0.00023534670525618735 0.0035541666553134056 0 -9.7332052386810258e-05 0.0038631008869906358 0 -0.00042396014477347936 0.0037145783602203978 0 -0.00030231371456196284 0.0036297752604934163 0 -0.00021937250131578043 0.0034056124550547384 0 -0.00022359238252237662 0.0032451496338445004 0 -0.00027980047344359051 0.0033784748769985469 0 3.7257404263383002e-05 0.0046220673253674757 0 7.1298309057721168e-05 0.0045380537235622928 0 -1.0066848023198589e-05 0.0049842914926507024 0 -1.3557023547951008e-05 0.0049860264609010337 0 -1.3876141150578099e-05 0.0049804669609421776 0 0.00011815813248458984 0.0043200918747535507 0 0.00010709322914343356 0.0042476614605869017 0 -7.0392494027249439e-06 0.004261807623853444 0 -6.1496180370607124e-06 0.0044715836206481287 0 3.7257404263383002e-05 0.0046220673253674757 0 -6.1496180370607124e-06 0.0044715836206481287 0 -1.3474245544010328e-05 0.0040835190626593255 0 0.00010709322914343356 0.0042476614605869017 0 -7.0392494027249439e-06 0.004261807623853444 0 -3.3211767511789413e-06 0.004168339060980005 0 0.00010524871212234377 0.0044581968685769623 0 -4.4321677273786763e-06 0.0043796528694883055 0 8.8977254333025654e-05 0.004353605400641382 0 3.7257404263383002e-05 0.0046220673253674757 0 5.122173998717313e-05 0.0040621463968351619 0 -9.5237785614431903e-05 0.0038980815979612294 0 -9.4399034053446181e-05 0.0038720096157109168 0 -1.0558607090364543e-05 0.0039046906854229291 0 -0.00013165661905175014 0.0042039363311804781 0 -7.0392494027249439e-06 0.004261807623853444 0 -3.3211767511789413e-06 0.004168339060980005 0 -0.00010179222905423271 0.0039731353968660591 0 5.122173998717313e-05 0.0040621463968351619 0 -5.5993268319910423e-05 0.0039680517667212509 0 -9.5237785614431903e-05 0.0038980815979612294 0 -1.0558607090364543e-05 0.0039046906854229291 0 -0.00010179222905423271 0.0039731353968660591 0 -1.3474245544010328e-05 0.0040835190626593255 0 -0.00013579333971740459 0.0036286600544015355 0 5.122173998717313e-05 0.0040621463968351619 0 -9.7332052386810258e-05 0.0038631008869906358 0 -0.00012908903302888834 0.0036481414729198389 0 9.5920743575529102e-05 0.0038081822663238842 0 -0.00012583405171196207 0.0036667271636643935 0 0.00011189389515557387 0.0038440196729272987 0 6.4775961029568427e-05 0.0036407942706494843 0 0.00011189389515557387 0.0038440196729272987 0 0.00017176514273645102 0.003757056448435631 0 6.4775961029568427e-05 0.0036407942706494843 0 0.00011189389515557387 0.0038440196729272987 0 0.00017176514273645102 0.003757056448435631 0 0.00026362509665896666 0.003802386745106114 0 5.122173998717313e-05 0.0040621463968351619 0 7.1298309057721168e-05 0.0045380537235622928 0 0.00017176514273645102 0.003757056448435631 0 0.0001610745941489526 0.003671164046797491 0 6.4775961029568427e-05 0.0036407942706494843 0 0.00017176514273645102 0.003757056448435631 0 0.0001610745941489526 0.003671164046797491 0 0.00025567231853866346 0.0037131582127048583 0 -6.0725252495404541e-05 0.0049488572949683163 0 -5.7831855993449715e-05 0.0049593071160839493 0 -5.8735046982398216e-05 0.0049619324174907144 0 6.5643103535414666e-05 0.0045474602647171203 0 7.2459717727908415e-05 0.0047833845438763605 0 0.00017176514273645102 0.003757056448435631 0 0.00025567231853866346 0.0037131582127048583 0 0.00026362509665896666 0.003802386745106114 0 6.5643103535414666e-05 0.0045474602647171203 0 7.1298309057721168e-05 0.0045380537235622928 0 -4.6680556654746129e-05 0.0049435007059314296 0 -6.0108307952027364e-05 0.0049520831500092155 0 -5.7831855993449715e-05 0.0049593071160839493 0 0.0001610745941489526 0.003671164046797491 0 0.00025567231853866346 0.0037131582127048583 0 0.00019480916464430142 0.0034696282730952797 0 -4.6680556654746129e-05 0.0049435007059314296 0 -6.0108307952027364e-05 0.0049520831500092155 0 -6.9988113866116793e-05 0.0049132343403965927 0 6.5643103535414666e-05 0.0045474602647171203 0 -5.285645540581512e-05 0.0037808586308306453 0 0.0001610745941489526 0.003671164046797491 0 0.00019480916464430142 0.0034696282730952797 0 6.4775961029568427e-05 0.0036407942706494843 0 0.00019480916464430142 0.0034696282730952797 0 6.4775961029568427e-05 0.0036407942706494843 0 -0.00012579872238080444 0.0034008129397156707 0 -0.00012583405171196207 0.0036667271636643935 0 6.4775961029568427e-05 0.0036407942706494843 0 -0.00012579872238080444 0.0034008129397156707 0 -5.285645540581512e-05 0.0037808586308306453 0 -0.00016016511673454584 0.0029024110580783934 0 -0.00023692490279067155 0.0025872717038352678 0 -0.00024630873250375068 0.0025363536571743335 0 -0.00016886450984694411 0.0025331131352002044 0 -0.00018615432650369366 0.0040508394103062262 0 -0.00013173065491743017 0.0042744209756986323 0 -3.9012697492487892e-05 0.0041354273475492156 0 0.00010360081631313388 0.0043258585738029324 0 -0.00013173065491743017 0.0042744209756986323 0 -3.9012697492487892e-05 0.0041354273475492156 0 -0.00022871022627274476 0.0032611900443140127 0 -5.285645540581512e-05 0.0037808586308306453 0 -0.00041154502891148923 0.0035070909752680443 0 -0.00042977942859265028 0.0035265510506480471 0 -0.0004358737540855216 0.0033339079348135262 0 -0.00041154502891148923 0.0035070909752680443 0 -0.00042977942859265028 0.0035265510506480471 0 -0.0004287627229388163 0.0035484796077290513 0 -0.00028473550364180382 0.0033481140690935145 0 -0.00021971781211304041 0.0032157352082157406 0 -0.00017472687231567555 0.002952101480396695 0 -0.00021971781211304041 0.0032157352082157406 0 -0.00041154502891148923 0.0035070909752680443 0 -0.00037013309735197379 0.0035590086249313274 0 -0.00042880457434736944 0.0035491258825695311 0 -0.00035527706638090764 0.0034897951414384959 0 -0.00041154502891148923 0.0035070909752680443 0 -0.00037013309735197379 0.0035590086249313274 0 -0.00042396014477347936 0.0037145783602203978 0 -0.00037013309735197379 0.0035590086249313274 0 -0.00042880457434736944 0.0035491258825695311 0 -0.00023534670525618735 0.0035541666553134056 0 -0.00021971781211304041 0.0032157352082157406 0 -0.00042396014477347936 0.0037145783602203978 0 -0.00037013309735197379 0.0035590086249313274 0 -0.00030231371456196284 0.0036297752604934163 0 -0.00035527706638090764 0.0034897951414384959 0 -0.00037013309735197379 0.0035590086249313274 0 -0.00030231371456196284 0.0036297752604934163 0 -0.00012583405171196207 0.0036667271636643935 0 -0.00035527706638090764 0.0034897951414384959 0 -0.00012579872238080444 0.0034008129397156707 0 -0.00012908903302888834 0.0036481414729198389 0 -0.00035527706638090764 0.0034897951414384959 0 -0.00030231371456196284 0.0036297752604934163 0 -0.00013579333971740459 0.0036286600544015355 0 -0.00033385464394322764 0.0035104292802264447 0 -0.00014466447444273878 0.0025846148333116383 0 -0.00011069967261517857 0.0025637088022524733 0 -0.00016886450984694411 0.0025331131352002044 0 -0.00016016511673454584 0.0029024110580783934 0 -0.00021741547399765091 0.0027249937087459562 0 -0.00035527706638090764 0.0034897951414384959 0 -0.00012579872238080444 0.0034008129397156707 0 -0.0004358737540855216 0.0033339079348135262 0 -0.00011069967261517857 0.0025637088022524733 0 -0.00016886450984694411 0.0025331131352002044 0 -8.4252178161547099e-05 0.0025386840775371397 0 -0.00035527706638090764 0.0034897951414384959 0 -0.00041154502891148923 0.0035070909752680443 0 -0.0004358737540855216 0.0033339079348135262 0 -0.00017472687231567555 0.002952101480396695 0 -0.00021741547399765091 0.0027249937087459562 0 -0.00014164185092368161 0.002360961700195278 0 -0.00013646454899034671 0.0023812224300969326 0 -0.00013691551657320369 0.0023215158639855586 0 -0.00021741547399765091 0.0027249937087459562 0 -0.00016185104755774148 0.0023420887140152453 0 -0.00013691551657320369 0.0023215158639855586 0 -0.00017316471692886497 0.0023253944147092623 0 -0.00021130796733033195 0.0023048607404214283 0 -8.259696276473578e-05 0.0026018990676591244 0 -5.4020484710536486e-05 0.0026015887130418215 0 -1.7728354850312234e-05 0.0026291340620841594 0 -8.259696276473578e-05 0.0026018990676591244 0 -1.7728354850312234e-05 0.0026291340620841594 0 -0.00014864238771360074 0.002621329383961226 0 -0.00018907861568249923 0.0023264198963171222 0 -0.00017316471692886497 0.0023253944147092623 0 -0.00019837991238796359 0.0023206245352480571 0 -0.0001850768527289354 0.0023334948307918144 0 -0.00018907861568249923 0.0023264198963171222 0 -0.00017316471692886497 0.0023253944147092623 0 -0.0001850768527289354 0.0023334948307918144 0 -0.00018907861568249923 0.0023264198963171222 0 -0.0001968619979384284 0.0023333405866628521 0 -0.00017316471692886497 0.0023253944147092623 0 -0.0001741514846185705 0.0023417880985620925 0 -0.00015436157839699287 0.0023394448327987609 0 -0.0001850768527289354 0.0023334948307918144 0 -0.00017316471692886497 0.0023253944147092623 0 -0.0001741514846185705 0.0023417880985620925 0 -0.0001741514846185705 0.0023417880985620925 0 -0.00018871687925547001 0.0023436541423989387 0 -0.00018004547941400493 0.0023547847269016504 0 -0.0001850768527289354 0.0023334948307918144 0 -0.0001741514846185705 0.0023417880985620925 0 -0.00018871687925547001 0.0023436541423989387 0 -0.0001850768527289354 0.0023334948307918144 0 -0.00018871687925547001 0.0023436541423989387 0 -0.0001968619979384284 0.0023333405866628521 0 -0.00014164185092368161 0.002360961700195278 0 -0.00013691551657320369 0.0023215158639855586 0 -0.00015436157839699287 0.0023394448327987609 0 -0.00013691551657320369 0.0023215158639855586 0 -0.00017316471692886497 0.0023253944147092623 0 -0.00015436157839699287 0.0023394448327987609 0 -0.00014164185092368161 0.002360961700195278 0 -0.00015436157839699287 0.0023394448327987609 0 -0.00016529223502698796 0.0023543313717760855 0 -0.0001741514846185705 0.0023417880985620925 0 -0.00015436157839699287 0.0023394448327987609 0 -0.00016529223502698796 0.0023543313717760855 0 -0.00014164185092368161 0.002360961700195278 0 -0.00013646454899034671 0.0023812224300969326 0 -0.00024437973985621229 0.0024467366429839622 0 -0.00014164185092368161 0.002360961700195278 0 -0.00016529223502698796 0.0023543313717760855 0 -0.00017813275549354729 0.0023708517068001277 0 -0.00014602991528959414 0.0023637903329239867 0 -0.00022273028727290694 0.0024292532031096026 0 -0.00014164185092368161 0.002360961700195278 0 -0.00017813275549354729 0.0023708517068001277 0 -0.00020165080912932913 0.0024116396124274184 0 -0.00016529223502698796 0.0023543313717760855 0 -0.00018004547941400493 0.0023547847269016504 0 -0.00017813275549354729 0.0023708517068001277 0 -0.0001741514846185705 0.0023417880985620925 0 -0.00016529223502698796 0.0023543313717760855 0 -0.00018004547941400493 0.0023547847269016504 0 -0.00018871687925547001 0.0023436541423989387 0 -0.00018004547941400493 0.0023547847269016504 0 -0.00019176700379275609 0.0023606608595417738 0 -0.00017813275549354729 0.0023708517068001277 0 -0.0001958412919343919 0.0023808356148063725 0 -0.00019176700379275609 0.0023606608595417738 0 -0.00018004547941400493 0.0023547847269016504 0 -0.00017813275549354729 0.0023708517068001277 0 -0.00019176700379275609 0.0023606608595417738 0 -9.5873737869971065e-05 0.0030348507190208424 0 -9.5718004804619356e-05 0.0030391513031363684 0 -0.0001092540608953142 0.0030637066201091904 0 -0.00021971781211304041 0.0032157352082157406 0 -0.00018953096634542483 0.0032789895508385804 0 -0.00021959002074272132 0.0023824393959573421 0 -0.00023959545314158884 0.0023735547240362888 0 -0.00023126881431557723 0.0024000205044887135 0 -0.00021959002074272132 0.0023824393959573421 0 -0.00020533570625220403 0.0023714336732489189 0 -0.00022194960240361846 0.0023627340782506668 0 -0.00021959002074272132 0.0023824393959573421 0 -0.00022194960240361846 0.0023627340782506668 0 -0.00023959545314158884 0.0023735547240362888 0 -0.00021959002074272132 0.0023824393959573421 0 -0.00021416000857331556 0.0023967959840890327 0 -0.00023126881431557723 0.0024000205044887135 0 -0.00017813275549354729 0.0023708517068001277 0 -0.0001958412919343919 0.0023808356148063725 0 -0.00020165080912932913 0.0024116396124274184 0 -0.00021959002074272132 0.0023824393959573421 0 -0.00020565996396523795 0.0023890069220784756 0 -0.00021416000857331556 0.0023967959840890327 0 -0.00020565996396523795 0.0023890069220784756 0 -0.0001958412919343919 0.0023808356148063725 0 -0.00020165080912932913 0.0024116396124274184 0 -0.00021959002074272132 0.0023824393959573421 0 -0.00020565996396523795 0.0023890069220784756 0 -0.00020533570625220403 0.0023714336732489189 0 -0.00020565996396523795 0.0023890069220784756 0 -0.0001958412919343919 0.0023808356148063725 0 -0.00020533570625220403 0.0023714336732489189 0 -0.00020533570625220403 0.0023714336732489189 0 -0.00020771820469313735 0.0023552260325193173 0 -0.00022194960240361846 0.0023627340782506668 0 -0.0001958412919343919 0.0023808356148063725 0 -0.00020533570625220403 0.0023714336732489189 0 -0.00019176700379275609 0.0023606608595417738 0 -0.00020533570625220403 0.0023714336732489189 0 -0.00019176700379275609 0.0023606608595417738 0 -0.00020771820469313735 0.0023552260325193173 0 -0.00018871687925547001 0.0023436541423989387 0 -0.00019176700379275609 0.0023606608595417738 0 -0.00019922643599022645 0.0023476609868358458 0 -0.00019176700379275609 0.0023606608595417738 0 -0.00019922643599022645 0.0023476609868358458 0 -0.00020771820469313735 0.0023552260325193173 0 -0.00020771820469313735 0.0023552260325193173 0 -0.00022194960240361846 0.0023627340782506668 0 -0.00022069330593898223 0.0023438524653651488 0 -0.00022194960240361846 0.0023627340782506668 0 -0.00023757972022006303 0.0023512907896832613 0 -0.00023959545314158884 0.0023735547240362888 0 -0.00022194960240361846 0.0023627340782506668 0 -0.00023757972022006303 0.0023512907896832613 0 -0.00022069330593898223 0.0023438524653651488 0 -0.00023757972022006303 0.0023512907896832613 0 -0.00023129076332405689 0.002332658609386857 0 -0.00022069330593898223 0.0023438524653651488 0 -0.00023129076332405689 0.002332658609386857 0 -0.00022069330593898223 0.0023438524653651488 0 -0.00021804347162757343 0.0023322141638990566 0 -0.00022069330593898223 0.0023438524653651488 0 -0.00021804347162757343 0.0023322141638990566 0 -0.0002078925772577953 0.0023379748983153501 0 -0.00023129076332405689 0.002332658609386857 0 -0.00021804347162757343 0.0023322141638990566 0 -0.0002210349612762068 0.0023228552312867792 0 -0.00021804347162757343 0.0023322141638990566 0 -0.0002210349612762068 0.0023228552312867792 0 -0.00020956780423846423 0.0023237839875156221 0 -0.00023129076332405689 0.002332658609386857 0 -0.0002210349612762068 0.0023228552312867792 0 -0.00023387438169590548 0.0023174768039095528 0 -0.00019922643599022645 0.0023476609868358458 0 -0.0002078925772577953 0.0023379748983153501 0 -0.0001968619979384284 0.0023333405866628521 0 -0.00018871687925547001 0.0023436541423989387 0 -0.00019922643599022645 0.0023476609868358458 0 -0.0001968619979384284 0.0023333405866628521 0 -0.00020771820469313735 0.0023552260325193173 0 -0.00022069330593898223 0.0023438524653651488 0 -0.0002078925772577953 0.0023379748983153501 0 -0.00019922643599022645 0.0023476609868358458 0 -0.00020771820469313735 0.0023552260325193173 0 -0.0002078925772577953 0.0023379748983153501 0 -0.0002078925772577953 0.0023379748983153501 0 -0.00020956780423846423 0.0023237839875156221 0 -0.0001968619979384284 0.0023333405866628521 0 -0.00021804347162757343 0.0023322141638990566 0 -0.0002078925772577953 0.0023379748983153501 0 -0.00020956780423846423 0.0023237839875156221 0 -0.00018907861568249923 0.0023264198963171222 0 -0.0001968619979384284 0.0023333405866628521 0 -0.00019837991238796359 0.0023206245352480571 0 -0.00020956780423846423 0.0023237839875156221 0 -0.0001968619979384284 0.0023333405866628521 0 -0.00019837991238796359 0.0023206245352480571 0 -0.00017316471692886497 0.0023253944147092623 0 -0.00019837991238796359 0.0023206245352480571 0 -0.00020621363603884753 0.0023095678413409767 0 -0.00017316471692886497 0.0023253944147092623 0 -0.00021130796733033195 0.0023048607404214283 0 -0.00020621363603884753 0.0023095678413409767 0 -0.00019837991238796359 0.0023206245352480571 0 -0.00020754364857097517 0.0023168836894313098 0 -0.00020621363603884753 0.0023095678413409767 0 -0.00020956780423846423 0.0023237839875156221 0 -0.00019837991238796359 0.0023206245352480571 0 -0.00020754364857097517 0.0023168836894313098 0 -0.00020956780423846423 0.0023237839875156221 0 -0.00020754364857097517 0.0023168836894313098 0 -0.00021516798245910205 0.0023152536921416315 0 -0.00021067631170409689 0.0023036209403162933 0 -0.00020621363603884753 0.0023095678413409767 0 -0.00021516798245910205 0.0023152536921416315 0 -0.00020754364857097517 0.0023168836894313098 0 -0.00020621363603884753 0.0023095678413409767 0 -0.00021516798245910205 0.0023152536921416315 0 -0.00016185104755774148 0.0023420887140152453 0 -0.00016949939690207079 0.0023354801374228626 0 -0.00021067631170409689 0.0023036209403162933 0 -0.00023387438169590548 0.0023174768039095528 0 -0.00025232221281637225 0.0023065636779621181 0 -0.0002210349612762068 0.0023228552312867792 0 -0.00023387438169590548 0.0023174768039095528 0 -0.00021516798245910205 0.0023152536921416315 0 -0.00021067631170409689 0.0023036209403162933 0 -0.00023387438169590548 0.0023174768039095528 0 -0.00021516798245910205 0.0023152536921416315 0 -0.0002210349612762068 0.0023228552312867792 0 -0.00020956780423846423 0.0023237839875156221 0 -0.00021516798245910205 0.0023152536921416315 0 -0.00029353576618133391 0.0022767063718960034 0 -0.00021067631170409689 0.0023036209403162933 0 -0.00025232221281637225 0.0023065636779621181 0 -0.00029353576618133391 0.0022767063718960034 0 -0.00025232221281637225 0.0023065636779621181 0 -0.00028284001998255502 0.0023155924999892258 0 -0.00028284001998255502 0.0023155924999892258 0 -0.00025682529420999927 0.0023330420147313854 0 -0.00029718962022285067 0.00234820404805093 0 -0.00023757972022006303 0.0023512907896832613 0 -0.00023129076332405689 0.002332658609386857 0 -0.00025682529420999927 0.0023330420147313854 0 -0.00025232221281637225 0.0023065636779621181 0 -0.00028284001998255502 0.0023155924999892258 0 -0.00025682529420999927 0.0023330420147313854 0 -0.00023129076332405689 0.002332658609386857 0 -0.00023387438169590548 0.0023174768039095528 0 -0.00025682529420999927 0.0023330420147313854 0 -0.00023387438169590548 0.0023174768039095528 0 -0.00025232221281637225 0.0023065636779621181 0 -0.00025682529420999927 0.0023330420147313854 0 -0.00033486086671864621 0.0023082832774499714 0 -0.00029718962022285067 0.00234820404805093 0 -0.00035162367633194462 0.0023485823028351013 0 -0.00029353576618133391 0.0022767063718960034 0 -0.00028284001998255502 0.0023155924999892258 0 -0.00033486086671864621 0.0023082832774499714 0 -0.00028284001998255502 0.0023155924999892258 0 -0.00033486086671864621 0.0023082832774499714 0 -0.00029718962022285067 0.00234820404805093 0 -0.00029718962022285067 0.00234820404805093 0 -0.00031532984921396178 0.0023926279732626888 0 -0.00035162367633194462 0.0023485823028351013 0 -0.00031532984921396178 0.0023926279732626888 0 -0.00028299932562832674 0.0023781236260009488 0 -0.00028311136147072538 0.0024040600868579704 0 -0.00029718962022285067 0.00234820404805093 0 -0.00031532984921396178 0.0023926279732626888 0 -0.00028299932562832674 0.0023781236260009488 0 -0.00023757972022006303 0.0023512907896832613 0 -0.00025682529420999927 0.0023330420147313854 0 -0.00026206859661782032 0.0023620743607495631 0 -0.00023757972022006303 0.0023512907896832613 0 -0.00026206859661782032 0.0023620743607495631 0 -0.00023959545314158884 0.0023735547240362888 0 -0.00029718962022285067 0.00234820404805093 0 -0.00026206859661782032 0.0023620743607495631 0 -0.00028299932562832674 0.0023781236260009488 0 -0.00025682529420999927 0.0023330420147313854 0 -0.00029718962022285067 0.00234820404805093 0 -0.00026206859661782032 0.0023620743607495631 0 -0.00026206859661782032 0.0023620743607495631 0 -0.00028299932562832674 0.0023781236260009488 0 -0.00025830762398828513 0.0023894846963280459 0 -0.00028299932562832674 0.0023781236260009488 0 -0.00025830762398828513 0.0023894846963280459 0 -0.00028311136147072538 0.0024040600868579704 0 -0.00025830762398828513 0.0023894846963280459 0 -0.00023959545314158884 0.0023735547240362888 0 -0.00023126881431557723 0.0024000205044887135 0 -0.00026206859661782032 0.0023620743607495631 0 -0.00025830762398828513 0.0023894846963280459 0 -0.00023959545314158884 0.0023735547240362888 0 -0.0002558620651641559 0.0024165085130906164 0 -0.00026283691380986216 0.0024440041199126445 0 -0.00020165080912932913 0.0024116396124274184 0 -0.00026283691380986216 0.0024440041199126445 0 -0.00026702629981523537 0.0024813565405875961 0 -0.00020165080912932913 0.0024116396124274184 0 -0.00025830762398828513 0.0023894846963280459 0 -0.0002558620651641559 0.0024165085130906164 0 -0.00023126881431557723 0.0024000205044887135 0 -0.00025830762398828513 0.0023894846963280459 0 -0.0002558620651641559 0.0024165085130906164 0 -0.00028311136147072538 0.0024040600868579704 0 -0.0002558620651641559 0.0024165085130906164 0 -0.00028311136147072538 0.0024040600868579704 0 -0.00029538388591791615 0.0024345755024346299 0 -0.0002558620651641559 0.0024165085130906164 0 -0.00026283691380986216 0.0024440041199126445 0 -0.00029538388591791615 0.0024345755024346299 0 -0.00026283691380986216 0.0024440041199126445 0 -0.00029538388591791615 0.0024345755024346299 0 -0.00029890505523729708 0.0024659067144228788 0 -0.00031532984921396178 0.0023926279732626888 0 -0.00029538388591791615 0.0024345755024346299 0 -0.00034689105383780915 0.0024486094443900196 0 -0.00031532984921396178 0.0023926279732626888 0 -0.00028311136147072538 0.0024040600868579704 0 -0.00029538388591791615 0.0024345755024346299 0 -0.00029538388591791615 0.0024345755024346299 0 -0.00034689105383780915 0.0024486094443900196 0 -0.00029890505523729708 0.0024659067144228788 0 -0.00034689105383780915 0.0024486094443900196 0 -0.00029890505523729708 0.0024659067144228788 0 -0.00032418838595242312 0.0025020575903409894 0 -0.00029890505523729708 0.0024659067144228788 0 -0.00032418838595242312 0.0025020575903409894 0 -0.00026702629981523537 0.0024813565405875961 0 -0.00034689105383780915 0.0024486094443900196 0 -0.00032418838595242312 0.0025020575903409894 0 -0.00038017909163198408 0.0025057741086272007 0 -0.00026283691380986216 0.0024440041199126445 0 -0.00029890505523729708 0.0024659067144228788 0 -0.00026702629981523537 0.0024813565405875961 0 -0.00029967437414601738 0.0025363276340391039 0 -0.00033398064325019833 0.0025190270532377797 0 -0.00024437973985621229 0.0024467366429839622 0 -0.00018063498516903686 0.0031273754970400415 0 -0.00012134256684585312 0.0031132684047655902 0 -0.00014176683968066054 0.0031682956432332182 0 -0.00024460644618705233 0.0028490035413918603 0 -0.0001548792094875121 0.002725790435613374 0 -0.00018063498516903686 0.0031273754970400415 0 -0.00012134256684585312 0.0031132684047655902 0 -0.00013348080723441224 0.0030771148461586715 0 -0.00021817548381264151 0.0032896537638440831 0 -0.00021779908504555927 0.0033564792791367119 0 -0.00018636410849477182 0.0033151313100479073 0 -0.00014842563148491933 0.0032015529440000681 0 -0.00018953096634542483 0.0032789895508385804 0 -9.5873737869971065e-05 0.0030348507190208424 0 -0.00013348080723441224 0.0030771148461586715 0 -0.0001092540608953142 0.0030637066201091904 0 -0.00017472687231567555 0.002952101480396695 0 -0.0001548792094875121 0.002725790435613374 0 -0.00021779908504555927 0.0033564792791367119 0 -0.00018636410849477182 0.0033151313100479073 0 -0.00020508084843085924 0.0033618848064489708 0 -0.00012134256684585312 0.0031132684047655902 0 -0.00013348080723441224 0.0030771148461586715 0 -0.00010553015527694658 0.0030652908850867335 0 -0.00013646454899034671 0.0023812224300969326 0 -0.0002224264608075199 0.0024665623304327409 0 -0.00024437973985621229 0.0024467366429839622 0 -0.00013348080723441224 0.0030771148461586715 0 -0.00010553015527694658 0.0030652908850867335 0 -0.0001092540608953142 0.0030637066201091904 0 -9.5718004804619356e-05 0.0030391513031363684 0 -0.0001058882965381371 0.0030653735928855546 0 -0.0001092540608953142 0.0030637066201091904 0 -0.00023534670525618735 0.0035541666553134056 0 -0.00018953096634542483 0.0032789895508385804 0 -0.00018953096634542483 0.0032789895508385804 0 -0.00018817107260551321 0.0032727065280760076 0 -0.00029783349251100659 0.0025003842900671201 0 -0.00022273028727290694 0.0024292532031096026 0 -0.00029967437414601738 0.0025363276340391039 0 -0.0002224264608075199 0.0024665623304327409 0 -0.00024437973985621229 0.0024467366429839622 0 -0.0002558620651641559 0.0024165085130906164 0 -0.00020165080912932913 0.0024116396124274184 0 -0.00023126881431557723 0.0024000205044887135 0 -0.00020565996396523795 0.0023890069220784756 0 -0.00020165080912932913 0.0024116396124274184 0 -0.00021416000857331556 0.0023967959840890327 0 -0.00020165080912932913 0.0024116396124274184 0 -0.00021416000857331556 0.0023967959840890327 0 -0.00023126881431557723 0.0024000205044887135 0 -0.00052009585315088635 0.0023782843025918635 0 -0.00054608412672364011 0.0024268086824471543 0 -0.00057468673347841443 0.0024150772818785533 0 -0.00053921320120324566 0.0023399263891211849 0 -0.00055430592739997328 0.0022616885831857332 0 -0.00048526044166370355 0.0022990701878955327 0 -0.00053921320120324566 0.0023399263891211849 0 -0.00055430592739997328 0.0022616885831857332 0 -0.00062615925653289632 0.0023164767171785388 0 -0.00053921320120324566 0.0023399263891211849 0 -0.00048526044166370355 0.0022990701878955327 0 -0.0004459833144704061 0.0023694363118932651 0 -0.00052701014387058597 0.002359180400791386 0 -0.00044943514236771753 0.0023688856649013291 0 -0.00052009585315088635 0.0023782843025918635 0 -0.0004459833144704061 0.0023694363118932651 0 -0.00050986555612850628 0.0024541814692253558 0 -0.0004459833144704061 0.0023694363118932651 0 -0.00040616946556349878 0.0023107246370032623 0 -0.00038898251693319868 0.0023967843583645068 0 -0.00047783225017024056 0.0022167984701012213 0 -0.00048526044166370355 0.0022990701878955327 0 -0.00040616946556349878 0.0023107246370032623 0 -0.00048526044166370355 0.0022990701878955327 0 -0.0004459833144704061 0.0023694363118932651 0 -0.00040616946556349878 0.0023107246370032623 0 -0.00038209960755834251 0.0022480792268044737 0 -0.00033486086671864621 0.0023082832774499714 0 -0.00040616946556349878 0.0023107246370032623 0 -0.00033486086671864621 0.0023082832774499714 0 -0.00040616946556349878 0.0023107246370032623 0 -0.00035162367633194462 0.0023485823028351013 0 -0.00040616946556349878 0.0023107246370032623 0 -0.00035162367633194462 0.0023485823028351013 0 -0.00038898251693319868 0.0023967843583645068 0 -0.00031532984921396178 0.0023926279732626888 0 -0.00035162367633194462 0.0023485823028351013 0 -0.00038898251693319868 0.0023967843583645068 0 -0.00031532984921396178 0.0023926279732626888 0 -0.00034689105383780915 0.0024486094443900196 0 -0.00038898251693319868 0.0023967843583645068 0 -0.00034689105383780915 0.0024486094443900196 0 -0.00038898251693319868 0.0023967843583645068 0 -0.00042945490505317917 0.0024486457165207708 0 -0.00035303308684787274 0.0024484893783823145 0 -0.00043910196110785347 0.0024472808592220494 0 -0.00034689105383780915 0.0024486094443900196 0 -0.00038017909163198408 0.0025057741086272007 0 -0.00045131360700751018 0.0024452080515801338 0 -0.00032418838595242312 0.0025020575903409894 0 -0.00038017909163198408 0.0025057741086272007 0 -0.00035431503485243752 0.0025256302420720964 0 -0.00045131360700751018 0.0024452080515801338 0 -0.0005075077471539737 0.0025189972150314746 0 -0.00044598387701213685 0.0025124405734182108 0 -0.00038017909163198408 0.0025057741086272007 0 -0.00045131360700751018 0.0024452080515801338 0 -0.00044598387701213685 0.0025124405734182108 0 -0.0004459833144704061 0.0023694363118932651 0 -0.00038898251693319868 0.0023967843583645068 0 -0.00042945490505317917 0.0024486457165207708 0 -0.00043910196110785347 0.0024472808592220494 0 -0.00053256352271146353 0.0024499431542902312 0 -0.0004459833144704061 0.0023694363118932651 0 -0.00042945490505317917 0.0024486457165207708 0 -0.00050986555612850628 0.0024541814692253558 0 -0.00045131360700751018 0.0024452080515801338 0 -0.00055274969272996221 0.0024444394520113581 0 -0.0005075077471539737 0.0025189972150314746 0 -0.00055274969272996221 0.0024444394520113581 0 -0.0005679042680476772 0.0025265500717349576 0 -0.0005075077471539737 0.0025189972150314746 0 -0.00060249034254591157 0.0024728076106183983 0 -0.00055274969272996221 0.0024444394520113581 0 -0.0005679042680476772 0.0025265500717349576 0 -0.00060249034254591157 0.0024728076106183983 0 -0.00055274969272996221 0.0024444394520113581 0 -0.00065039917144905956 0.0024443809693696552 0 -0.00052009585315088635 0.0023782843025918635 0 -0.00050986555612850628 0.0024541814692253558 0 -0.00054608412672364011 0.0024268086824471543 0 -0.00053256352271146353 0.0024499431542902312 0 -0.00061582139248393306 0.0024542745555002567 0 -0.00050986555612850628 0.0024541814692253558 0 -0.00054608412672364011 0.0024268086824471543 0 -0.00058520116699725287 0.0024686073050063212 0 -0.00096573050556133838 0.0026545006020889973 0 -0.00085993529541263612 0.0026779734013704926 0 -0.00094883064948962572 0.0027145933370780924 0 -0.00096573050556133838 0.0026545006020889973 0 -0.00094883064948962572 0.0027145933370780924 0 -0.00098405504546271016 0.0027017816803672529 0 -0.00071029528149520876 0.0026119881936948201 0 -0.00069777231995855633 0.0025854025342162911 0 -0.00065101748114466018 0.002607223784603352 0 -0.00071029528149520876 0.0026119881936948201 0 -0.00069777231995855633 0.0025854025342162911 0 -0.00073573479342376466 0.0025931844602551527 0 -0.0006151481866477303 0.002558905651547701 0 -0.0006457454906271912 0.0025970292504219625 0 -0.00084650232345196232 0.0026336193594405722 0 -0.0006457454906271912 0.0025970292504219625 0 -0.0005679042680476772 0.0025265500717349576 0 -0.0005075077471539737 0.0025189972150314746 0 -0.00047530624525439318 0.0025707937762586178 0 -0.0005075077471539737 0.0025189972150314746 0 -0.00047530624525439318 0.0025707937762586178 0 -0.00047325813583273455 0.0025356497725192492 0 -0.00085993529541263612 0.0026779734013704926 0 -0.00081039310068459507 0.0027572724902403148 0 -0.00094883064948962572 0.0027145933370780924 0 -0.00096573050556133838 0.0026545006020889973 0 -0.00085993529541263612 0.0026779734013704926 0 -0.00075724815981411417 0.0025901903863466318 0 -0.00085993529541263612 0.0026779734013704926 0 -0.00077195988943710319 0.0026784937433669814 0 -0.00075724815981411417 0.0025901903863466318 0 -0.00085993529541263612 0.0026779734013704926 0 -0.00077195988943710319 0.0026784937433669814 0 -0.00081039310068459507 0.0027572724902403148 0 -0.00077195988943710319 0.0026784937433669814 0 -0.0006915024000850278 0.0027278520689256285 0 -0.00067749010776853866 0.0026182378191423991 0 -0.00077195988943710319 0.0026784937433669814 0 -0.0006915024000850278 0.0027278520689256285 0 -0.00081039310068459507 0.0027572724902403148 0 -0.0006915024000850278 0.0027278520689256285 0 -0.00067749010776853866 0.0026182378191423991 0 -0.00059412755170918188 0.0026790625541336524 0 -0.0006915024000850278 0.0027278520689256285 0 -0.00059412755170918188 0.0026790625541336524 0 -0.00058469071891355695 0.0027767318115662341 0 -0.00067749010776853866 0.0026182378191423991 0 -0.00060070484045771793 0.0025692699251779194 0 -0.00059412755170918188 0.0026790625541336524 0 -0.00077195988943710319 0.0026784937433669814 0 -0.00067749010776853866 0.0026182378191423991 0 -0.00075724815981411417 0.0025901903863466318 0 -0.00069669735242316566 0.0025926243521350438 0 -0.0006457454906271912 0.0025970292504219625 0 -0.0006457454906271912 0.0025970292504219625 0 -0.00049748485614206671 0.002567818661202031 0 -0.00067749010776853866 0.0026182378191423991 0 -0.00075678409350122774 0.0025810569196278487 0 -0.00060070484045771793 0.0025692699251779194 0 -0.00047530624525439318 0.0025707937762586178 0 -0.0004438633506865337 0.0025426939067585844 0 -0.00040952980032237267 0.0025658918091583855 0 -0.00047530624525439318 0.0025707937762586178 0 -0.00047325813583273455 0.0025356497725192492 0 -0.0004438633506865337 0.0025426939067585844 0 -0.0005075077471539737 0.0025189972150314746 0 -0.00047325813583273455 0.0025356497725192492 0 -0.00044598387701213685 0.0025124405734182108 0 -0.00047325813583273455 0.0025356497725192492 0 -0.00044598387701213685 0.0025124405734182108 0 -0.0004438633506865337 0.0025426939067585844 0 -0.00044598387701213685 0.0025124405734182108 0 -0.0004438633506865337 0.0025426939067585844 0 -0.00041158816050067265 0.0025327143351403167 0 -0.0004438633506865337 0.0025426939067585844 0 -0.00040952980032237267 0.0025658918091583855 0 -0.00041158816050067265 0.0025327143351403167 0 -0.00040952980032237267 0.0025658918091583855 0 -0.0003787375297839754 0.0025369126690118343 0 -0.00034458389692524445 0.0025595426932770162 0 -0.00049748485614206671 0.002567818661202031 0 -0.00041062078111122144 0.0025677203347256984 0 -0.00040952980032237267 0.0025658918091583855 0 -0.00041158816050067265 0.0025327143351403167 0 -0.0003787375297839754 0.0025369126690118343 0 -0.00038017909163198408 0.0025057741086272007 0 -0.00044598387701213685 0.0025124405734182108 0 -0.00041158816050067265 0.0025327143351403167 0 -0.00060070484045771793 0.0025692699251779194 0 -0.00049966669112104631 0.0026126124577189832 0 -0.00044051240050876043 0.0025580725959373626 0 -0.00038017909163198408 0.0025057741086272007 0 -0.00041158816050067265 0.0025327143351403167 0 -0.0003787375297839754 0.0025369126690118343 0 -0.00035431503485243752 0.0025256302420720964 0 -0.0003787375297839754 0.0025369126690118343 0 -0.00034458389692524445 0.0025595426932770162 0 -0.00038017909163198408 0.0025057741086272007 0 -0.00035431503485243752 0.0025256302420720964 0 -0.0003787375297839754 0.0025369126690118343 0 -0.00046900413598863775 0.002606769226166926 0 -0.00041062078111122144 0.0025677203347256984 0 -0.00046838518518609523 0.0026525045482995117 0 -0.00049966669112104631 0.0026126124577189832 0 -0.00043568078156927786 0.0026148845395743319 0 -0.00046838518518609523 0.0026525045482995117 0 -0.00052662058446495635 0.0026643857125434041 0 -0.00049966669112104631 0.0026126124577189832 0 -0.00060070484045771793 0.0025692699251779194 0 -0.00052662058446495635 0.0026643857125434041 0 -0.00049966669112104631 0.0026126124577189832 0 -0.00060070484045771793 0.0025692699251779194 0 -0.00052662058446495635 0.0026643857125434041 0 -0.00059412755170918188 0.0026790625541336524 0 -0.00059412755170918188 0.0026790625541336524 0 -0.00048729283297719022 0.0027161960677868908 0 -0.00058469071891355695 0.0027767318115662341 0 -0.00052662058446495635 0.0026643857125434041 0 -0.00059412755170918188 0.0026790625541336524 0 -0.00048729283297719022 0.0027161960677868908 0 -0.00046838518518609523 0.0026525045482995117 0 -0.00052662058446495635 0.0026643857125434041 0 -0.00048729283297719022 0.0027161960677868908 0 -0.00047873980532616372 0.0027917755944486676 0 -0.00058469071891355695 0.0027767318115662341 0 -0.00051942422825708716 0.0028676352487492563 0 -0.00048729283297719022 0.0027161960677868908 0 -0.00047873980532616372 0.0027917755944486676 0 -0.00058469071891355695 0.0027767318115662341 0 -0.00058469071891355695 0.0027767318115662341 0 -0.00059893065529802712 0.0028626651054866042 0 -0.00051942422825708716 0.0028676352487492563 0 -0.00047873980532616372 0.0027917755944486676 0 -0.00051942422825708716 0.0028676352487492563 0 -0.00040217919531309557 0.0028485938300300872 0 -0.00051942422825708716 0.0028676352487492563 0 -0.00059632006822025411 0.0029580325224621649 0 -0.00046195147532075107 0.0029734654516993596 0 -0.00059632006822025411 0.0029580325224621649 0 -0.00046195147532075107 0.0029734654516993596 0 -0.0005359693247120337 0.0031141850075816855 0 -0.00059893065529802712 0.0028626651054866042 0 -0.00051942422825708716 0.0028676352487492563 0 -0.00059632006822025411 0.0029580325224621649 0 -0.00059893065529802712 0.0028626651054866042 0 -0.00059632006822025411 0.0029580325224621649 0 -0.00069453889962789103 0.0028509565439340133 0 -0.00059632006822025411 0.0029580325224621649 0 -0.00072294994240607415 0.0029851865993974279 0 -0.00069453889962789103 0.0028509565439340133 0 -0.00072294994240607415 0.0029851865993974279 0 -0.00069453889962789103 0.0028509565439340133 0 -0.00085251894646581081 0.0028743075932573816 0 -0.00059632006822025411 0.0029580325224621649 0 -0.00072294994240607415 0.0029851865993974279 0 -0.00064047695263073532 0.0030733769257111415 0 -0.00058469071891355695 0.0027767318115662341 0 -0.00059893065529802712 0.0028626651054866042 0 -0.00069453889962789103 0.0028509565439340133 0 -0.0006915024000850278 0.0027278520689256285 0 -0.00058469071891355695 0.0027767318115662341 0 -0.00069453889962789103 0.0028509565439340133 0 -0.0006915024000850278 0.0027278520689256285 0 -0.00069453889962789103 0.0028509565439340133 0 -0.00081039310068459507 0.0027572724902403148 0 -0.00069453889962789103 0.0028509565439340133 0 -0.00081039310068459507 0.0027572724902403148 0 -0.00085251894646581081 0.0028743075932573816 0 -0.00081039310068459507 0.0027572724902403148 0 -0.00085251894646581081 0.0028743075932573816 0 -0.00094883064948962572 0.0027145933370780924 0 -0.00072294994240607415 0.0029851865993974279 0 -0.00085251894646581081 0.0028743075932573816 0 -0.00081760147743958303 0.0030997790622099937 0 -0.00085251894646581081 0.0028743075932573816 0 -0.00096269851717609026 0.003051211239908788 0 -0.00081760147743958303 0.0030997790622099937 0 -0.0010109586516933019 0.0027671272829571038 0 -0.00096269851717609026 0.003051211239908788 0 -0.0011284031067814579 0.003097325037000324 0 -0.00085251894646581081 0.0028743075932573816 0 -0.0010109586516933019 0.0027671272829571038 0 -0.00096269851717609026 0.003051211239908788 0 -0.00085251894646581081 0.0028743075932573816 0 -0.0010109586516933019 0.0027671272829571038 0 -0.00094883064948962572 0.0027145933370780924 0 -0.0010109586516933019 0.0027671272829571038 0 -0.00094883064948962572 0.0027145933370780924 0 -0.00098405504546271016 0.0027017816803672529 0 -0.00016914808207813979 0.0032264840573290039 0 -0.00014176683968066054 0.0031682956432332182 0 -0.00018328561033207065 0.0031867401286800518 0 -0.00016914808207813979 0.0032264840573290039 0 -0.00018344960223800775 0.0032430871589076669 0 -0.00017180869037822195 0.003270360183919047 0 -0.00016639855104365198 0.0032261658254756059 0 -0.00015938354626400625 0.0032224354142401609 0 -0.00016914808207813979 0.0032264840573290039 0 -0.00018344960223800775 0.0032430871589076669 0 -0.00018302993973576926 0.0032238551469690548 0 -0.00021405119264510314 0.0032342583149644146 0 -0.00018344960223800775 0.0032430871589076669 0 -0.0001957963062547696 0.0032689058648208771 0 -0.00021405119264510314 0.0032342583149644146 0 -0.00018344960223800775 0.0032430871589076669 0 -0.00018302993973576926 0.0032238551469690548 0 -0.00021817548381264151 0.0032896537638440831 0 -0.00018636410849477182 0.0033151313100479073 0 -0.0001957963062547696 0.0032689058648208771 0 -0.00018636410849477182 0.0033151313100479073 0 -0.0001957963062547696 0.0032689058648208771 0 -0.00017180869037822195 0.003270360183919047 0 -0.00018344960223800775 0.0032430871589076669 0 -0.0001957963062547696 0.0032689058648208771 0 -0.00017180869037822195 0.003270360183919047 0 -0.00014842563148491933 0.0032015529440000681 0 -0.00015938354626400625 0.0032224354142401609 0 -0.00021405119264510314 0.0032342583149644146 0 -0.00021817548381264151 0.0032896537638440831 0 -0.0001957963062547696 0.0032689058648208771 0 -0.00018063498516903686 0.0031273754970400415 0 -0.00014176683968066054 0.0031682956432332182 0 -0.00018328561033207065 0.0031867401286800518 0 -0.00029967437414601738 0.0025363276340391039 0 -0.0003748148587817283 0.0026031680516968411 0 -0.0003848685290870769 0.0025888337808369411 0 -0.00029967437414601738 0.0025363276340391039 0 -0.00033398064325019833 0.0025190270532377797 0 -0.0003848685290870769 0.0025888337808369411 0 -0.00018063498516903686 0.0031273754970400415 0 -0.00022945374715780116 0.0031818708212976877 0 -0.00018328561033207065 0.0031867401286800518 0 -0.00024460644618705233 0.0028490035413918603 0 -0.00032922295039456112 0.0028282957265719131 0 -0.00033398064325019833 0.0025190270532377797 0 -0.0003848685290870769 0.0025888337808369411 0 -0.00039640401095523465 0.0025834769782320526 0 -0.00033398064325019833 0.0025190270532377797 0 -0.0004168547485590505 0.0025837133041030115 0 -0.00042918041551710914 0.0025836405493643425 0 -0.00032418838595242312 0.0025020575903409894 0 -0.00026702629981523537 0.0024813565405875961 0 -0.00034458389692524445 0.0025595426932770162 0 -0.00033398064325019833 0.0025190270532377797 0 -0.00039640401095523465 0.0025834769782320526 0 -0.0004168547485590505 0.0025837133041030115 0 -0.00029783349251100659 0.0025003842900671201 0 -0.00041062078111122144 0.0025677203347256984 0 -0.00032418838595242312 0.0025020575903409894 0 -0.00035431503485243752 0.0025256302420720964 0 -0.00034458389692524445 0.0025595426932770162 0 -0.00032922295039456112 0.0028282957265719131 0 -0.00037863314131235187 0.0027336084294978225 0 -0.00036682370959731451 0.0026074510691432694 0 -0.0003848685290870769 0.0025888337808369411 0 -0.00040043216952485221 0.0026061148931120289 0 -0.0003848685290870769 0.0025888337808369411 0 -0.00039640401095523465 0.0025834769782320526 0 -0.00040043216952485221 0.0026061148931120289 0 -0.00040043216952485221 0.0026061148931120289 0 -0.0004168547485590505 0.0025837133041030115 0 -0.00043568078156927786 0.0026148845395743319 0 -0.00039640401095523465 0.0025834769782320526 0 -0.00040043216952485221 0.0026061148931120289 0 -0.0004168547485590505 0.0025837133041030115 0 -0.00041467315094122448 0.0025691161338342013 0 -0.00041062078111122144 0.0025677203347256984 0 -0.00049966669112104631 0.0026126124577189832 0 -0.00044182710741470202 0.0025798088543689153 0 -0.00043568078156927786 0.0026148845395743319 0 -0.0004168547485590505 0.0025837133041030115 0 -0.00044182710741470202 0.0025798088543689153 0 -0.00043568078156927786 0.0026148845395743319 0 -0.00046838518518609523 0.0026525045482995117 0 -0.00043568078156927786 0.0026148845395743319 0 -0.00039854466625072004 0.0026563840755348647 0 -0.00040043216952485221 0.0026061148931120289 0 -0.00043568078156927786 0.0026148845395743319 0 -0.00039854466625072004 0.0026563840755348647 0 -0.0003320763855562699 0.0025856140386416805 0 -0.00039854466625072004 0.0026563840755348647 0 -0.00033559415653861317 0.0027030024146106847 0 -0.00032922295039456112 0.0028282957265719131 0 -0.00032456635444523676 0.0026831635288650161 0 -0.00036682370959731451 0.0026074510691432694 0 -0.00040043216952485221 0.0026061148931120289 0 -0.00039854466625072004 0.0026563840755348647 0 -0.00039854466625072004 0.0026563840755348647 0 -0.00033559415653861317 0.0027030024146106847 0 -0.0003999085637269863 0.0027511577856227827 0 -0.00046838518518609523 0.0026525045482995117 0 -0.00048729283297719022 0.0027161960677868908 0 -0.00039854466625072004 0.0026563840755348647 0 -0.00048729283297719022 0.0027161960677868908 0 -0.00039854466625072004 0.0026563840755348647 0 -0.0003999085637269863 0.0027511577856227827 0 -0.00022945374715780116 0.0031818708212976877 0 -0.00018328561033207065 0.0031867401286800518 0 -0.00019362360163207977 0.0032246444741618543 0 -0.00032922295039456112 0.0028282957265719131 0 -0.00020779803545050923 0.0029767473053595893 0 -0.0003320763855562699 0.0025856140386416805 0 -0.00033559415653861317 0.0027030024146106847 0 -0.00022347004781956263 0.0027309064880825648 0 -0.00033559415653861317 0.0027030024146106847 0 -0.00022347004781956263 0.0027309064880825648 0 -0.00033284747701538199 0.0027805201200526144 0 -0.00016914808207813979 0.0032264840573290039 0 -0.00018328561033207065 0.0031867401286800518 0 -0.00019362360163207977 0.0032246444741618543 0 -0.00020779803545050923 0.0029767473053595893 0 -0.00013530267003403722 0.0031293521273196316 0 -0.00022347004781956263 0.0027309064880825648 0 -0.00030176264012164424 0.0028689577847882584 0 -0.00021081152132086659 0.0029190832593805663 0 -0.00022347004781956263 0.0027309064880825648 0 -0.00021081152132086659 0.0029190832593805663 0 -0.00011518106702568851 0.0028774197496765101 0 -0.00022347004781956263 0.0027309064880825648 0 -0.00030176264012164424 0.0028689577847882584 0 -0.00033284747701538199 0.0027805201200526144 0 -0.00013902204601978782 0.0029756216071408861 0 -0.00013530267003403722 0.0031293521273196316 0 -0.00048729283297719022 0.0027161960677868908 0 -0.00047873980532616372 0.0027917755944486676 0 -0.0003999085637269863 0.0027511577856227827 0 -0.00047873980532616372 0.0027917755944486676 0 -0.0003999085637269863 0.0027511577856227827 0 -0.00040217919531309557 0.0028485938300300872 0 -0.00033559415653861317 0.0027030024146106847 0 -0.0003999085637269863 0.0027511577856227827 0 -0.00033284747701538199 0.0027805201200526144 0 -0.0003999085637269863 0.0027511577856227827 0 -0.00033284747701538199 0.0027805201200526144 0 -0.00040217919531309557 0.0028485938300300872 0 -0.00030176264012164424 0.0028689577847882584 0 -0.00033284747701538199 0.0027805201200526144 0 -0.00040217919531309557 0.0028485938300300872 0 -0.00030176264012164424 0.0028689577847882584 0 -0.00040217919531309557 0.0028485938300300872 0 -0.00033563542202083005 0.0029638018939732208 0 -0.00040217919531309557 0.0028485938300300872 0 -0.00033563542202083005 0.0029638018939732208 0 -0.00046195147532075107 0.0029734654516993596 0 -0.00051942422825708716 0.0028676352487492563 0 -0.00040217919531309557 0.0028485938300300872 0 -0.00046195147532075107 0.0029734654516993596 0 -0.00033563542202083005 0.0029638018939732208 0 -0.00023056068916710068 0.0030869002591995746 0 -0.00038895586566401006 0.0031019296802362417 0 -0.00033563542202083005 0.0029638018939732208 0 -0.00046195147532075107 0.0029734654516993596 0 -0.00038895586566401006 0.0031019296802362417 0 -0.00033563542202083005 0.0029638018939732208 0 -0.00021081152132086659 0.0029190832593805663 0 -0.00023056068916710068 0.0030869002591995746 0 -0.00021081152132086659 0.0029190832593805663 0 -0.00012993701726689215 0.0030059321400630616 0 -0.00023056068916710068 0.0030869002591995746 0 -0.00021081152132086659 0.0029190832593805663 0 -0.00012993701726689215 0.0030059321400630616 0 -0.00010634629860713633 0.0028740361167556711 0 -0.00030176264012164424 0.0028689577847882584 0 -0.00033563542202083005 0.0029638018939732208 0 -0.00021081152132086659 0.0029190832593805663 0 -0.00012993701726689215 0.0030059321400630616 0 8.7050003612919922e-06 0.0030334695877025893 0 -9.716876589398658e-05 0.0031105423731888561 0 -6.1762747564209791e-05 0.0034185450034790363 0 -4.1584714534740289e-05 0.003446370802026498 0 -7.8413476771628304e-05 0.0034365457430585054 0 -2.5005538771360383e-05 0.0032261559712351193 0 -0.00013530267003403722 0.0031293521273196316 0 -0.00012993701726689215 0.0030059321400630616 0 8.7050003612919922e-06 0.0030334695877025893 0 -0.00010634629860713633 0.0028740361167556711 0 -0.00013530267003403722 0.0031293521273196316 0 -0.0001294313739484738 0.0033444718055281493 0 -4.1584714534740289e-05 0.003446370802026498 0 -7.2570448442302977e-05 0.0034627298869962819 0 -7.8413476771628304e-05 0.0034365457430585054 0 -0.00016914808207813979 0.0032264840573290039 0 -0.0001726242633392757 0.0032299984325855949 0 -0.00018302993973576926 0.0032238551469690548 0 -0.00016914808207813979 0.0032264840573290039 0 -0.00019362360163207977 0.0032246444741618543 0 -0.0001726242633392757 0.0032299984325855949 0 -0.00010473451079420784 0.0034790737678806589 0 -7.2570448442302977e-05 0.0034627298869962819 0 -8.7124310813744237e-05 0.0034540622259712395 0 -0.00011631623635449876 0.0035928289725282716 0 -0.0001294313739484738 0.0033444718055281493 0 -7.2570448442302977e-05 0.0034627298869962819 0 -8.7124310813744237e-05 0.0034540622259712395 0 -7.8413476771628304e-05 0.0034365457430585054 0 -0.00010062258938971783 0.003444544897921298 0 -8.7124310813744237e-05 0.0034540622259712395 0 -7.8413476771628304e-05 0.0034365457430585054 0 -0.00010519893190022962 0.0034399573825259992 0 -7.8413476771628304e-05 0.0034365457430585054 0 -8.2103589057562124e-05 0.0033891256603654474 0 -4.3376010999613322e-05 0.0036810056013851468 0 1.9484865470125818e-05 0.0033589697092835311 0 -6.1762747564209791e-05 0.0034185450034790363 0 -7.8413476771628304e-05 0.0034365457430585054 0 -8.2103589057562124e-05 0.0033891256603654474 0 -0.00010062258938971783 0.003444544897921298 0 -0.00010519893190022962 0.0034399573825259992 0 -7.8413476771628304e-05 0.0034365457430585054 0 -2.5005538771360383e-05 0.0032261559712351193 0 1.9484865470125818e-05 0.0033589697092835311 0 8.7050003612919922e-06 0.0030334695877025893 0 0.00012207068517076187 0.0031942912974882625 0 -1.3344705502646302e-06 0.0031826796812303528 0 0.00012207068517076187 0.0031942912974882625 0 0.00010146118687679602 0.0032395576479362204 0 -1.3344705502646302e-06 0.0031826796812303528 0 0.00010146118687679602 0.0032395576479362204 0 5.2348917811620825e-06 0.0032812663639852054 0 -1.3344705502646302e-06 0.0031826796812303528 0 1.9484865470125818e-05 0.0033589697092835311 0 5.9053441247910455e-05 0.0032827836346919063 0 1.9484865470125818e-05 0.0033589697092835311 0 6.1381727723850026e-05 0.0036499901110840782 0 0.00012103377571906383 0.0031960347840962718 0 0.00010146118687679602 0.0032395576479362204 0 0.00024666558074154711 0.0033750253960084485 0 0.00010146118687679602 0.0032395576479362204 0 9.7307943257465051e-05 0.0033802325736831608 0 5.2348917811620825e-06 0.0032812663639852054 0 0.00010146118687679602 0.0032395576479362204 0 9.7307943257465051e-05 0.0033802325736831608 0 0.00024666558074154711 0.0033750253960084485 0 -3.2695878270850568e-05 0.0033818432913086264 0 -0.00013173069727427398 0.0032436770018941944 0 -0.00019885779207388259 0.0034767173212360406 0 9.7307943257465051e-05 0.0033802325736831608 0 -3.2695878270850568e-05 0.0033818432913086264 0 5.2348917811620825e-06 0.0032812663639852054 0 -3.2695878270850568e-05 0.0033818432913086264 0 5.2348917811620825e-06 0.0032812663639852054 0 -0.00013173069727427398 0.0032436770018941944 0 5.2348917811620825e-06 0.0032812663639852054 0 -0.00013173069727427398 0.0032436770018941944 0 -1.3344705502646302e-06 0.0031826796812303528 0 -0.00013173069727427398 0.0032436770018941944 0 -1.3344705502646302e-06 0.0031826796812303528 0 -9.716876589398658e-05 0.0031105423731888561 0 8.7050003612919922e-06 0.0030334695877025893 0 -1.3344705502646302e-06 0.0031826796812303528 0 -9.716876589398658e-05 0.0031105423731888561 0 -0.00012993701726689215 0.0030059321400630616 0 -9.716876589398658e-05 0.0031105423731888561 0 -0.00023056068916710068 0.0030869002591995746 0 -0.00013173069727427398 0.0032436770018941944 0 -9.716876589398658e-05 0.0031105423731888561 0 -0.00023056068916710068 0.0030869002591995746 0 -0.00013173069727427398 0.0032436770018941944 0 -0.00023056068916710068 0.0030869002591995746 0 -0.00031582709698326384 0.003266093860835058 0 -0.00038895586566401006 0.0031019296802362417 0 -0.00031582709698326384 0.003266093860835058 0 -0.00049382592207216768 0.0032509396737148543 0 -0.00023056068916710068 0.0030869002591995746 0 -0.00038895586566401006 0.0031019296802362417 0 -0.00031582709698326384 0.003266093860835058 0 -0.00046195147532075107 0.0029734654516993596 0 -0.00038895586566401006 0.0031019296802362417 0 -0.0005359693247120337 0.0031141850075816855 0 -0.00031582709698326384 0.003266093860835058 0 -0.00046246254253765176 0.0034215060367497577 0 -0.00049382592207216768 0.0032509396737148543 0 -0.00031582709698326384 0.003266093860835058 0 -0.00019885779207388259 0.0034767173212360406 0 -0.00046246254253765176 0.0034215060367497577 0 -0.00013173069727427398 0.0032436770018941944 0 -0.00031582709698326384 0.003266093860835058 0 -0.00019885779207388259 0.0034767173212360406 0 -0.00027076230333101061 0.0035605637597996161 0 -0.00040135597348920629 0.0035618918843516121 0 -0.00032183565300060636 0.0036923140304914058 0 -0.00040135597348920629 0.0035618918843516121 0 -0.00046246254253765176 0.0034215060367497577 0 -0.0005725867601149748 0.0035801998303930725 0 -0.00024275142854457933 0.0035156255814960857 0 -0.00045418791420248611 0.0034315934536520913 0 -0.00027076230333101061 0.0035605637597996161 0 -0.00040135597348920629 0.0035618918843516121 0 -0.00046246254253765176 0.0034215060367497577 0 -0.00081793050226191633 0.0035494254100925846 0 -0.00097739654060773908 0.0035039520299709006 0 -0.00095976736864225684 0.0035688523733623705 0 -0.00056930436235343867 0.0036242341133892043 0 -0.00077333303481569163 0.0035375667693326291 0 -0.00040135597348920629 0.0035618918843516121 0 -0.00032183565300060636 0.0036923140304914058 0 -0.0005725867601149748 0.0035801998303930725 0 -0.00027076230333101061 0.0035605637597996161 0 -0.00032183565300060636 0.0036923140304914058 0 -0.00021657824164257136 0.0036793735588948342 0 -0.00032183565300060636 0.0036923140304914058 0 -0.00021657824164257136 0.0036793735588948342 0 -0.00015144445696185912 0.0037904924349609747 0 -0.00021657824164257136 0.0036793735588948342 0 -0.00013303908297386844 0.0036707379660193837 0 -0.00015144445696185912 0.0037904924349609747 0 -0.00056930436235343867 0.0036242341133892043 0 -0.00036081856206896662 0.0037347528652647093 0 -8.8519781332682755e-05 0.0037594847816682835 0 -0.00013303908297386844 0.0036707379660193837 0 -5.1764829219284676e-05 0.0037466143015598072 0 -8.8519781332682755e-05 0.0037594847816682835 0 -0.00013303908297386844 0.0036707379660193837 0 -0.00015144445696185912 0.0037904924349609747 0 -8.8519781332682755e-05 0.0037594847816682835 0 -0.00015144445696185912 0.0037904924349609747 0 -5.4596296980633082e-05 0.003805754136615476 0 -4.4064019687509602e-05 0.0036028906099190663 0 9.7548792343630155e-05 0.0036903357233711341 0 5.3012761344376771e-05 0.0035386948375083931 0 0.00016200954914992693 0.0034694945380314714 0 0.00024937222173623445 0.0035892331399380271 0 9.7307943257465051e-05 0.0033802325736831608 0 0.00016200954914992693 0.0034694945380314714 0 0.00024666558074154711 0.0033750253960084485 0 9.7307943257465051e-05 0.0033802325736831608 0 -3.2695878270850568e-05 0.0033818432913086264 0 5.3012761344376771e-05 0.0035386948375083931 0 9.7307943257465051e-05 0.0033802325736831608 0 5.3012761344376771e-05 0.0035386948375083931 0 0.00016200954914992693 0.0034694945380314714 0 -0.00024275142854457933 0.0035156255814960857 0 -4.4064019687509602e-05 0.0036028906099190663 0 -0.00027076230333101061 0.0035605637597996161 0 -0.00021657824164257136 0.0036793735588948342 0 -0.00013303908297386844 0.0036707379660193837 0 -3.2695878270850568e-05 0.0033818432913086264 0 -0.00019885779207388259 0.0034767173212360406 0 5.3012761344376771e-05 0.0035386948375083931 0 -0.00098222652739851321 0.0033371223774550166 0 -0.00094664434164014571 0.0032032909396796389 0 -0.00084249288934606491 0.0032809012987879442 0 -0.00098222652739851321 0.0033371223774550166 0 -0.00094664434164014571 0.0032032909396796389 0 -0.0010651370968766047 0.0032194718381114893 0 -0.00096269851717609026 0.003051211239908788 0 -0.00094664434164014571 0.0032032909396796389 0 -0.0010651370968766047 0.0032194718381114893 0 -0.00096269851717609026 0.003051211239908788 0 -0.00094664434164014571 0.0032032909396796389 0 -0.00081760147743958303 0.0030997790622099937 0 -0.00094664434164014571 0.0032032909396796389 0 -0.00081760147743958303 0.0030997790622099937 0 -0.00084249288934606491 0.0032809012987879442 0 -0.00098222652739851321 0.0033371223774550166 0 -0.00084249288934606491 0.0032809012987879442 0 -0.00089604823627506254 0.0034468086317706011 0 -0.00084249288934606491 0.0032809012987879442 0 -0.00064181373908547606 0.0033789770233556764 0 -0.00089604823627506254 0.0034468086317706011 0 -0.00084249288934606491 0.0032809012987879442 0 -0.00064181373908547606 0.0033789770233556764 0 -0.00065897560141240361 0.0032177485851140777 0 -0.00072294994240607415 0.0029851865993974279 0 -0.00081760147743958303 0.0030997790622099937 0 -0.00064047695263073532 0.0030733769257111415 0 -0.00081760147743958303 0.0030997790622099937 0 -0.00084249288934606491 0.0032809012987879442 0 -0.00065897560141240361 0.0032177485851140777 0 -0.00081760147743958303 0.0030997790622099937 0 -0.00065897560141240361 0.0032177485851140777 0 -0.00064047695263073532 0.0030733769257111415 0 -0.00065897560141240361 0.0032177485851140777 0 -0.0005359693247120337 0.0031141850075816855 0 -0.00049382592207216768 0.0032509396737148543 0 -0.00065897560141240361 0.0032177485851140777 0 -0.00064047695263073532 0.0030733769257111415 0 -0.0005359693247120337 0.0031141850075816855 0 -0.00059632006822025411 0.0029580325224621649 0 -0.00064047695263073532 0.0030733769257111415 0 -0.0005359693247120337 0.0031141850075816855 0 -0.00038895586566401006 0.0031019296802362417 0 -0.0005359693247120337 0.0031141850075816855 0 -0.00049382592207216768 0.0032509396737148543 0 -0.00046246254253765176 0.0034215060367497577 0 -0.00064181373908547606 0.0033789770233556764 0 -0.00049382592207216768 0.0032509396737148543 0 -0.00064181373908547606 0.0033789770233556764 0 -0.00065897560141240361 0.0032177485851140777 0 -0.00049382592207216768 0.0032509396737148543 0 -0.00046246254253765176 0.0034215060367497577 0 -0.00064181373908547606 0.0033789770233556764 0 -0.0005725867601149748 0.0035801998303930725 0 -0.00097739654060773908 0.0035039520299709006 0 -0.00098638533358098661 0.0035219841577870652 0 -0.00095976736864225684 0.0035688523733623705 0 -0.00097739654060773908 0.0035039520299709006 0 -0.00098638533358098661 0.0035219841577870652 0 -0.00089604823627506254 0.0034468086317706011 0 -0.00064181373908547606 0.0033789770233556764 0 -0.0005725867601149748 0.0035801998303930725 0 -0.00089604823627506254 0.0034468086317706011 0 -0.00077333303481569163 0.0035375667693326291 0 -0.00089599269265620265 0.0034568552001308047 0 -0.00089604823627506254 0.0034468086317706011 0 -0.00095673116402020405 0.0034953722168250124 0 -0.00095963221994021597 0.0034767832378566114 0 -0.00095673116402020405 0.0034953722168250124 0 -0.00095963221994021597 0.0034767832378566114 0 -0.00096308020420138557 0.0034770788201705532 0 -0.00098638533358098661 0.0035219841577870652 0 -0.00089604823627506254 0.0034468086317706011 0 -0.00095673116402020405 0.0034953722168250124 0 -0.00095963221994021597 0.0034767832378566114 0 -0.00096308020420138557 0.0034770788201705532 0 -0.0009798362118911344 0.0034674952477435133 0 -0.00097092203880517678 0.0034337462046672581 0 -0.0010051733001174607 0.0034134353791483232 0 -0.0009798362118911344 0.0034674952477435133 0 -0.00095963221994021597 0.0034767832378566114 0 -0.00097092203880517678 0.0034337462046672581 0 -0.0009798362118911344 0.0034674952477435133 0 -0.00089604823627506254 0.0034468086317706011 0 -0.00095963221994021597 0.0034767832378566114 0 -0.00097092203880517678 0.0034337462046672581 0 -0.00098222652739851321 0.0033371223774550166 0 -0.00089604823627506254 0.0034468086317706011 0 -0.00097092203880517678 0.0034337462046672581 0 -0.00098222652739851321 0.0033371223774550166 0 -0.00097092203880517678 0.0034337462046672581 0 -0.0010051733001174607 0.0034134353791483232 0 -0.00096326936362592277 0.0034456050806346444 0 -0.00095651680889927387 0.0034583207830411978 0 -0.00094518879832633691 0.0034313798128724794 0 -0.00096326936362592277 0.0034456050806346444 0 -0.00095651680889927387 0.0034583207830411978 0 -0.00096308020420138557 0.0034770788201705532 0 -0.00096326936362592277 0.0034456050806346444 0 -0.00095199339932033498 0.0033997769994946092 0 -0.00094518879832633691 0.0034313798128724794 0 -0.00095651680889927387 0.0034583207830411978 0 -0.00096308020420138557 0.0034770788201705532 0 -0.00096502904564551423 0.0034703823583472145 0 -0.00096308020420138557 0.0034770788201705532 0 -0.00096502904564551423 0.0034703823583472145 0 -0.0009798362118911344 0.0034674952477435133 0 -0.00095673116402020405 0.0034953722168250124 0 -0.00096308020420138557 0.0034770788201705532 0 -0.00097769628833732723 0.0034948443258099411 0 -0.00096326936362592277 0.0034456050806346444 0 -0.00096308020420138557 0.0034770788201705532 0 -0.00097769628833732723 0.0034948443258099411 0 -0.00096326936362592277 0.0034456050806346444 0 -0.00097769628833732723 0.0034948443258099411 0 -0.00098225958683876148 0.0034320430448456008 0 -0.00097769628833732723 0.0034948443258099411 0 -0.0010124538436473698 0.0034778175446561906 0 -0.0010301836549558678 0.0035863247171035312 0 -0.00097769628833732723 0.0034948443258099411 0 -0.0010124538436473698 0.0034778175446561906 0 -0.00098225958683876148 0.0034320430448456008 0 -0.00098638533358098661 0.0035219841577870652 0 -0.00095673116402020405 0.0034953722168250124 0 -0.00097769628833732723 0.0034948443258099411 0 -0.00098638533358098661 0.0035219841577870652 0 -0.00097769628833732723 0.0034948443258099411 0 -0.0010301836549558678 0.0035863247171035312 0 -0.00098638533358098661 0.0035219841577870652 0 -0.00095976736864225684 0.0035688523733623705 0 -0.0010301836549558678 0.0035863247171035312 0 -0.00095976736864225684 0.0035688523733623705 0 -0.0010301836549558678 0.0035863247171035312 0 -0.00087042520348280209 0.0037396104899935483 0 -0.0010301836549558678 0.0035863247171035312 0 -0.0010342624160226362 0.003916737895965949 0 -0.00087042520348280209 0.0037396104899935483 0 -0.0010124538436473698 0.0034778175446561906 0 -0.0010301836549558678 0.0035863247171035312 0 -0.0010880533467275911 0.0034302767017263293 0 -0.001039401713222788 0.0036009503426753303 0 -0.0010542532916866815 0.0036719780727403717 0 -0.0010542532916866815 0.0036719780727403717 0 -0.0010386249489522661 0.0037769023823835892 0 -0.0010880533467275911 0.0034302767017263293 0 -0.0010528507396290021 0.0033752143606523496 0 -0.0010947971102765403 0.0033453385420665538 0 -0.0010880533467275911 0.0034302767017263293 0 -0.0010528507396290021 0.0033752143606523496 0 -0.0010082269109324498 0.003405114045369341 0 -0.0010441024340902064 0.0033290103270768282 0 -0.0010947971102765403 0.0033453385420665538 0 -0.0010700094691466263 0.0033138424225959548 0 -0.0010441024340902064 0.0033290103270768282 0 -0.0010528507396290021 0.0033752143606523496 0 -0.0010947971102765403 0.0033453385420665538 0 -0.0010441024340902064 0.0033290103270768282 0 -0.0010528507396290021 0.0033752143606523496 0 -0.001017050753894986 0.0033586964527895333 0 -0.0010441024340902064 0.0033290103270768282 0 -0.001017050753894986 0.0033586964527895333 0 -0.00099915762224626566 0.0033242569593763664 0 -0.001017050753894986 0.0033586964527895333 0 -0.0010082269109324498 0.003405114045369341 0 -0.00098146785282118084 0.0033607054667659916 0 -0.0010124538436473698 0.0034778175446561906 0 -0.0010082269109324498 0.003405114045369341 0 -0.00098225958683876148 0.0034320430448456008 0 -0.0010124538436473698 0.0034778175446561906 0 -0.0010880533467275911 0.0034302767017263293 0 -0.0010082269109324498 0.003405114045369341 0 -0.0010528507396290021 0.0033752143606523496 0 -0.001017050753894986 0.0033586964527895333 0 -0.0010082269109324498 0.003405114045369341 0 -0.00098225958683876148 0.0034320430448456008 0 -0.00098146785282118084 0.0033607054667659916 0 -0.00096727657418764067 0.0034012803466658349 0 -0.0010082269109324498 0.003405114045369341 0 -0.00098225958683876148 0.0034320430448456008 0 -0.00098146785282118084 0.0033607054667659916 0 -0.00096326936362592277 0.0034456050806346444 0 -0.00098225958683876148 0.0034320430448456008 0 -0.00096727657418764067 0.0034012803466658349 0 -0.001017050753894986 0.0033586964527895333 0 -0.00099915762224626566 0.0033242569593763664 0 -0.00098146785282118084 0.0033607054667659916 0 -0.00099915762224626566 0.0033242569593763664 0 -0.00098146785282118084 0.0033607054667659916 0 -0.00097753852811315045 0.0033111276648923878 0 -0.00098146785282118084 0.0033607054667659916 0 -0.00095642526278917953 0.0033111417188816561 0 -0.00097753852811315045 0.0033111276648923878 0 -0.00098146785282118084 0.0033607054667659916 0 -0.00095832743359651267 0.0033571218149994505 0 -0.00095642526278917953 0.0033111417188816561 0 -0.00095832743359651267 0.0033571218149994505 0 -0.00095642526278917953 0.0033111417188816561 0 -0.00093040489944438932 0.0033014963234066709 0 -0.00095832743359651267 0.0033571218149994505 0 -0.00093913265773396914 0.003357643238695425 0 -0.00093040489944438932 0.0033014963234066709 0 -0.00095832743359651267 0.0033571218149994505 0 -0.00095199339932033498 0.0033997769994946092 0 -0.00093913265773396914 0.003357643238695425 0 -0.00098146785282118084 0.0033607054667659916 0 -0.00095832743359651267 0.0033571218149994505 0 -0.00096727657418764067 0.0034012803466658349 0 -0.00095832743359651267 0.0033571218149994505 0 -0.00096727657418764067 0.0034012803466658349 0 -0.00095199339932033498 0.0033997769994946092 0 -0.00096326936362592277 0.0034456050806346444 0 -0.00096727657418764067 0.0034012803466658349 0 -0.00095199339932033498 0.0033997769994946092 0 -0.00055849075843366648 0.0038410405041435281 0 -0.00071344588338172687 0.0037491654940197254 0 -0.0007009933680582227 0.0039448118263194776 0 -0.00055849075843366648 0.0038410405041435281 0 -0.0007009933680582227 0.0039448118263194776 0 -0.00048452671283116713 0.0040109675729084844 0 -0.00055849075843366648 0.0038410405041435281 0 -0.00048452671283116713 0.0040109675729084844 0 -0.00033665555699558398 0.0038217999983032221 0 -0.00036081856206896662 0.0037347528652647093 0 -0.0001864019131572351 0.0038450181708442176 0 -0.00055849075843366648 0.0038410405041435281 0 -0.00056701004643283073 0.0036795006910332858 0 -0.00033665555699558398 0.0038217999983032221 0 -0.00081793050226191633 0.0035494254100925846 0 -0.00056701004643283073 0.0036795006910332858 0 -0.00071344588338172687 0.0037491654940197254 0 -0.00055849075843366648 0.0038410405041435281 0 -0.00056701004643283073 0.0036795006910332858 0 -0.00071344588338172687 0.0037491654940197254 0 -0.00081793050226191633 0.0035494254100925846 0 -0.00071344588338172687 0.0037491654940197254 0 -0.00087042520348280209 0.0037396104899935483 0 -0.00081793050226191633 0.0035494254100925846 0 -0.00095976736864225684 0.0035688523733623705 0 -0.00087042520348280209 0.0037396104899935483 0 -0.0010342624160226362 0.003916737895965949 0 -0.00087042520348280209 0.0037396104899935483 0 -0.00084323851432900306 0.0040293428000323763 0 -0.00071344588338172687 0.0037491654940197254 0 -0.00087042520348280209 0.0037396104899935483 0 -0.0007009933680582227 0.0039448118263194776 0 -0.00087042520348280209 0.0037396104899935483 0 -0.0007009933680582227 0.0039448118263194776 0 -0.00084323851432900306 0.0040293428000323763 0 -0.0007009933680582227 0.0039448118263194776 0 -0.00084323851432900306 0.0040293428000323763 0 -0.00065143079937910397 0.0041437464277083724 0 -0.0010342624160226362 0.003916737895965949 0 -0.00084323851432900306 0.0040293428000323763 0 -0.000981726031062144 0.0041795074199228914 0 -0.00084323851432900306 0.0040293428000323763 0 -0.000981726031062144 0.0041795074199228914 0 -0.0007772460477144049 0.0042490510305067744 0 -0.00084323851432900306 0.0040293428000323763 0 -0.0007772460477144049 0.0042490510305067744 0 -0.00065143079937910397 0.0041437464277083724 0 -0.0007772460477144049 0.0042490510305067744 0 -0.00065143079937910397 0.0041437464277083724 0 -0.00059574747207266317 0.0043273666617869412 0 -0.00065143079937910397 0.0041437464277083724 0 -0.00050236743353511784 0.0042162148320287534 0 -0.00059574747207266317 0.0043273666617869412 0 -0.0007009933680582227 0.0039448118263194776 0 -0.00065143079937910397 0.0041437464277083724 0 -0.00048452671283116713 0.0040109675729084844 0 -0.00065143079937910397 0.0041437464277083724 0 -0.00048452671283116713 0.0040109675729084844 0 -0.00050236743353511784 0.0042162148320287534 0 -0.00048452671283116713 0.0040109675729084844 0 -0.00050236743353511784 0.0042162148320287534 0 -0.00036230791560961734 0.0041959224347093479 0 -0.00050236743353511784 0.0042162148320287534 0 -0.00036230791560961734 0.0041959224347093479 0 -0.00041763865677414452 0.0043930485186267345 0 -0.00036230791560961734 0.0041959224347093479 0 -0.00041763865677414452 0.0043930485186267345 0 -0.00028320509596018644 0.0043568926020503759 0 -0.00024547983578811634 0.0042270155273450944 0 -0.00018213170864224271 0.0043353183194734194 0 -0.00028320509596018644 0.0043568926020503759 0 -0.00036230791560961734 0.0041959224347093479 0 -0.00024547983578811634 0.0042270155273450944 0 -0.00028320509596018644 0.0043568926020503759 0 -0.00036230791560961734 0.0041959224347093479 0 -0.00024547983578811634 0.0042270155273450944 0 -0.00025615323234396575 0.0040427658225126138 0 -0.00024547983578811634 0.0042270155273450944 0 -0.00025615323234396575 0.0040427658225126138 0 -0.00014300193027219662 0.0042045409118711616 0 -0.00048452671283116713 0.0040109675729084844 0 -0.00036230791560961734 0.0041959224347093479 0 -0.00025615323234396575 0.0040427658225126138 0 -0.00048452671283116713 0.0040109675729084844 0 -0.00025615323234396575 0.0040427658225126138 0 -0.00033665555699558398 0.0038217999983032221 0 -0.00025615323234396575 0.0040427658225126138 0 -0.00033665555699558398 0.0038217999983032221 0 -0.00012496405685689105 0.0039451388555792099 0 -3.2045320197867463e-05 0.0038705484180427373 0 3.9476259772027734e-05 0.0039383892925436677 0 -1.0305806556969228e-06 0.0038386187991773695 0 -0.0001864019131572351 0.0038450181708442176 0 -3.9780946122403975e-05 0.0039433415348597636 0 -3.2045320197867463e-05 0.0038705484180427373 0 -5.4596296980633082e-05 0.003805754136615476 0 -1.0305806556969228e-06 0.0038386187991773695 0 -0.00015144445696185912 0.0037904924349609747 0 -3.2045320197867463e-05 0.0038705484180427373 0 -5.4596296980633082e-05 0.003805754136615476 0 3.9476259772027734e-05 0.0039383892925436677 0 0.00011641736356381021 0.0039339527571490137 0 8.4846435369902734e-05 0.0038791772469117048 0 3.9476259772027734e-05 0.0039383892925436677 0 -1.0305806556969228e-06 0.0038386187991773695 0 4.1925024502613977e-05 0.0038488177887883827 0 3.9476259772027734e-05 0.0039383892925436677 0 4.1925024502613977e-05 0.0038488177887883827 0 8.4846435369902734e-05 0.0038791772469117048 0 3.9476259772027734e-05 0.0039383892925436677 0 0.0001112519797977248 0.0040359768262463128 0 0.00011641736356381021 0.0039339527571490137 0 -0.00012496405685689105 0.0039451388555792099 0 -2.3234659438647068e-05 0.0041300475336549809 0 0.0001112519797977248 0.0040359768262463128 0 -3.9780946122403975e-05 0.0039433415348597636 0 0.0001080814395560953 0.0040278643419161255 0 -2.3234659438647068e-05 0.0041300475336549809 0 5.7542617222744268e-05 0.0042716849924905233 0 0.00011367971310787579 0.0041569470678234528 0 -2.3234659438647068e-05 0.0041300475336549809 0 -0.00014300193027219662 0.0042045409118711616 0 -3.7582073964322033e-05 0.0042586329156339099 0 -2.3234659438647068e-05 0.0041300475336549809 0 -3.7582073964322033e-05 0.0042586329156339099 0 5.7542617222744268e-05 0.0042716849924905233 0 -0.00012496405685689105 0.0039451388555792099 0 -2.3234659438647068e-05 0.0041300475336549809 0 -0.00014300193027219662 0.0042045409118711616 0 -0.00025615323234396575 0.0040427658225126138 0 -0.00012496405685689105 0.0039451388555792099 0 -0.00014300193027219662 0.0042045409118711616 0 -0.00024547983578811634 0.0042270155273450944 0 -0.00014300193027219662 0.0042045409118711616 0 -0.00018213170864224271 0.0043353183194734194 0 -0.00014300193027219662 0.0042045409118711616 0 -9.0477898227631903e-05 0.0043632316047215172 0 -3.7582073964322033e-05 0.0042586329156339099 0 -0.00014300193027219662 0.0042045409118711616 0 -9.0477898227631903e-05 0.0043632316047215172 0 -0.00018213170864224271 0.0043353183194734194 0 -9.0477898227631903e-05 0.0043632316047215172 0 -3.7582073964322033e-05 0.0042586329156339099 0 1.4206587020150134e-05 0.0044144624949604312 0 -3.7582073964322033e-05 0.0042586329156339099 0 5.7542617222744268e-05 0.0042716849924905233 0 1.4206587020150134e-05 0.0044144624949604312 0 5.7542617222744268e-05 0.0042716849924905233 0 0.00010847064266656535 0.0043811573161228641 0 1.4206587020150134e-05 0.0044144624949604312 0 5.7542617222744268e-05 0.0042716849924905233 0 0.00016355181569871027 0.0042680114456462573 0 0.00011367971310787579 0.0041569470678234528 0 5.7542617222744268e-05 0.0042716849924905233 0 0.00016355181569871027 0.0042680114456462573 0 0.00010847064266656535 0.0043811573161228641 0 0.00016355181569871027 0.0042680114456462573 0 0.00010847064266656535 0.0043811573161228641 0 0.00017578556082203079 0.0043710142540410342 0 0.00010847064266656535 0.0043811573161228641 0 0.00017578556082203079 0.0043710142540410342 0 0.00014532616371724843 0.0044455579094250658 0 0.00011262920805972159 0.0050431573306459459 0 9.2129449725794716e-05 0.0050610774380227689 0 9.3991749317260233e-05 0.0051349340328130507 0 0.00016355181569871027 0.0042680114456462573 0 0.00017578556082203079 0.0043710142540410342 0 0.00026422757320939777 0.004379514357450015 0 0.00016355181569871027 0.0042680114456462573 0 0.00026422757320939777 0.004379514357450015 0 0.00025153191699338659 0.0040859580263306952 0 0.00017578556082203079 0.0043710142540410342 0 0.00026422757320939777 0.004379514357450015 0 0.00014532616371724843 0.0044455579094250658 0 3.6175159452443469e-05 0.0049922795540244371 0 1.6827516434761004e-05 0.0049989600114632169 0 1.6485684638799428e-05 0.0049980586280466014 0 6.4599798807026096e-05 0.0050971162130182841 0 0.00010070853671544098 0.0047139631922122798 0 0.0001883400925649164 0.0046845331044108648 0 0.00010070853671544098 0.0047139631922122798 0 0.00016355181569871027 0.0042680114456462573 0 0.00025153191699338659 0.0040859580263306952 0 0.00011367971310787579 0.0041569470678234528 0 0.00025153191699338659 0.0040859580263306952 0 0.00011367971310787579 0.0041569470678234528 0 0.0001112519797977248 0.0040359768262463128 0 -2.3234659438647068e-05 0.0041300475336549809 0 0.00011367971310787579 0.0041569470678234528 0 0.0001112519797977248 0.0040359768262463128 0 -1.1232699411423184e-08 0.0049999863666878915 0 1.6507074232406463e-05 0.0049906012053754726 0 1.1370074351637289e-05 0.0049725283312776021 0 -1.1232699411423184e-08 0.0049999863666878915 0 1.6507074232406463e-05 0.0049906012053754726 0 7.9625603942772888e-06 0.0049982839003726203 0 3.6175159452443469e-05 0.0049922795540244371 0 1.6507074232406463e-05 0.0049906012053754726 0 2.316910686171682e-05 0.004971212180970355 0 1.6507074232406463e-05 0.0049906012053754726 0 1.1370074351637289e-05 0.0049725283312776021 0 2.316910686171682e-05 0.004971212180970355 0 3.6175159452443469e-05 0.0049922795540244371 0 1.6507074232406463e-05 0.0049906012053754726 0 1.6485684638799428e-05 0.0049980586280466014 0 1.6827516434761004e-05 0.0049989600114632169 0 1.6485684638799428e-05 0.0049980586280466014 0 8.6421450877691453e-06 0.005000562132400424 0 1.6485684638799428e-05 0.0049980586280466014 0 7.9625603942772888e-06 0.0049982839003726203 0 8.6421450877691453e-06 0.005000562132400424 0 1.6507074232406463e-05 0.0049906012053754726 0 1.6485684638799428e-05 0.0049980586280466014 0 7.9625603942772888e-06 0.0049982839003726203 0 -1.1232699411423184e-08 0.0049999863666878915 0 7.9625603942772888e-06 0.0049982839003726203 0 1.1320617595013886e-08 0.0050000022465754683 0 7.9625603942772888e-06 0.0049982839003726203 0 1.1320617595013886e-08 0.0050000022465754683 0 8.6421450877691453e-06 0.005000562132400424 0 1.1320617595013886e-08 0.0050000022465754683 0 8.6421450877691453e-06 0.005000562132400424 0 2.1104037389536175e-09 0.0050000017544998667 0 8.6421450877691453e-06 0.005000562132400424 0 6.876534224733787e-06 0.0050008561882436712 0 1.1159598096166251e-05 0.0050003098780533493 0 8.6421450877691453e-06 0.005000562132400424 0 6.876534224733787e-06 0.0050008561882436712 0 2.1104037389536175e-09 0.0050000017544998667 0 0.0001112519797977248 0.0040359768262463128 0 0.00019564801110535899 0.0039340663766582488 0 0.00011641736356381021 0.0039339527571490137 0 0.00025153191699338659 0.0040859580263306952 0 0.0001112519797977248 0.0040359768262463128 0 0.00019564801110535899 0.0039340663766582488 0 0.00010070853671544098 0.0047139631922122798 0 1.5567030582921688e-05 0.0049180099119220302 0 0.00010070853671544098 0.0047139631922122798 0 0.00011942186367157596 0.0043054006004378028 0 1.6827516434761004e-05 0.0049989600114632169 0 8.6421450877691453e-06 0.005000562132400424 0 1.1159598096166251e-05 0.0050003098780533493 0 3.3374440788438846e-05 0.0046660245911711393 0 4.8708680646527166e-05 0.0048114043767882135 0 2.5562301386968866e-05 0.0047885734113112836 0 1.5567030582921688e-05 0.0049180099119220302 0 1.845490077251573e-05 0.0049438030645757251 0 6.876534224733787e-06 0.0050008561882436712 0 1.1159598096166251e-05 0.0050003098780533493 0 9.2816915154274851e-06 0.005001848351507643 0 4.8708680646527166e-05 0.0048114043767882135 0 2.5562301386968866e-05 0.0047885734113112836 0 1.5743148777741325e-05 0.0049060763988271897 0 4.8708680646527166e-05 0.0048114043767882135 0 4.1918211986872915e-05 0.0048917391399414195 0 1.5743148777741325e-05 0.0049060763988271897 0 0.00019564801110535899 0.0039340663766582488 0 0.00011641736356381021 0.0039339527571490137 0 0.00015515735394266918 0.0038548456693924208 0 0.00011641736356381021 0.0039339527571490137 0 0.00015515735394266918 0.0038548456693924208 0 8.4846435369902734e-05 0.0038791772469117048 0 0.00015515735394266918 0.0038548456693924208 0 8.4846435369902734e-05 0.0038791772469117048 0 0.000103746057598504 0.0038431880179701301 0 3.1649012001058243e-05 0.0049371281780954289 0 3.1677403875028671e-05 0.0049475347321316573 0 7.8590917746723585e-06 0.0049657238897748797 0 4.8708680646527166e-05 0.0048114043767882135 0 4.1918211986872915e-05 0.0048917391399414195 0 5.3503757344181738e-05 0.0049480324369875041 0 4.1918211986872915e-05 0.0048917391399414195 0 2.3839356597149395e-05 0.0049089320481520201 0 5.3503757344181738e-05 0.0049480324369875041 0 0.00011942186367157596 0.0043054006004378028 0 0.00010660243906044125 0.0044195971422484161 0 3.4633458802762274e-05 0.0049273706151414919 0 1.845490077251573e-05 0.0049438030645757251 0 1.845490077251573e-05 0.0049438030645757251 0 2.3022906630191184e-05 0.0049386437415149271 0 2.3839356597149395e-05 0.0049089320481520201 0 3.1677403875028671e-05 0.0049475347321316573 0 5.3503757344181738e-05 0.0049480324369875041 0 5.3503757344181738e-05 0.0049480324369875041 0 2.4114373813782469e-05 0.004978007909757355 0 4.729089031006767e-05 0.0049814739324506767 0 3.1677403875028671e-05 0.0049475347321316573 0 5.3503757344181738e-05 0.0049480324369875041 0 2.4114373813782469e-05 0.004978007909757355 0 0.00015515735394266918 0.0038548456693924208 0 0.00012922923873063207 0.0038137593755243914 0 0.000103746057598504 0.0038431880179701301 0 0.00010660243906044125 0.0044195971422484161 0 9.1995570316259783e-05 0.0043708680005355187 0 2.1104037389536175e-09 0.0050000017544998667 0 4.4489046004054413e-06 0.0050022544196131509 0 2.0227796776635996e-09 0.0050000054920956091 0 6.876534224733787e-06 0.0050008561882436712 0 2.1104037389536175e-09 0.0050000017544998667 0 4.4489046004054413e-06 0.0050022544196131509 0 1.845490077251573e-05 0.0049438030645757251 0 7.303703071391075e-06 0.0049860253284298587 0 6.876534224733787e-06 0.0050008561882436712 0 9.2816915154274851e-06 0.005001848351507643 0 4.4489046004054413e-06 0.0050022544196131509 0 3.1677403875028671e-05 0.0049475347321316573 0 2.4114373813782469e-05 0.004978007909757355 0 7.8590917746723585e-06 0.0049657238897748797 0 2.4114373813782469e-05 0.004978007909757355 0 7.8590917746723585e-06 0.0049657238897748797 0 7.5457601222547128e-06 0.0049882760390935581 0 7.8590917746723585e-06 0.0049657238897748797 0 -1.3400814795791334e-08 0.004999948835469426 0 7.5457601222547128e-06 0.0049882760390935581 0 7.303703071391075e-06 0.0049860253284298587 0 6.5914842315979286e-09 0.0049999899608514703 0 -1.3400814795791334e-08 0.004999948835469426 0 5.751682153209864e-09 0.0050000120662910671 0 1.5545411629288552e-06 0.0049987514237311449 0 -1.3400814795791334e-08 0.004999948835469426 0 7.5457601222547128e-06 0.0049882760390935581 0 1.5545411629288552e-06 0.0049987514237311449 0 2.4114373813782469e-05 0.004978007909757355 0 1.4356938017913753e-05 0.0049926315361756594 0 2.5220251235780883e-05 0.0050025986564554903 0 7.5457601222547128e-06 0.0049882760390935581 0 1.4356938017913753e-05 0.0049926315361756594 0 1.5545411629288552e-06 0.0049987514237311449 0 2.4114373813782469e-05 0.004978007909757355 0 7.5457601222547128e-06 0.0049882760390935581 0 1.4356938017913753e-05 0.0049926315361756594 0 1.4356938017913753e-05 0.0049926315361756594 0 1.5545411629288552e-06 0.0049987514237311449 0 2.5220251235780883e-05 0.0050025986564554903 0 -1.2103237028697293e-06 0.0049970939886795395 0 1.5545411629288552e-06 0.0049987514237311449 0 -3.2337390434308868e-06 0.0049973873226439045 0 -6.5387017136259323e-06 0.0049919330991801385 0 2.7940017615229466e-05 0.0050366087426783864 0 -1.2103237028697293e-06 0.0049970939886795395 0 5.751682153209864e-09 0.0050000120662910671 0 1.5545411629288552e-06 0.0049987514237311449 0 0.00012922923873063207 0.0038137593755243914 0 0.00011741694638878131 0.0037804431052167187 0 9.1992538543454321e-05 0.0038016066216294258 0 2.4114373813782469e-05 0.004978007909757355 0 4.729089031006767e-05 0.0049814739324506767 0 2.5220251235780883e-05 0.0050025986564554903 0 -4.8307293897068244e-06 0.0049942008087507624 0 -3.2337390434308868e-06 0.0049973873226439045 0 -6.6523167001698808e-06 0.0049923115330267331 0 -4.8307293897068244e-06 0.0049942008087507624 0 -1.2103237028697293e-06 0.0049970939886795395 0 -3.2337390434308868e-06 0.0049973873226439045 0 4.729089031006767e-05 0.0049814739324506767 0 2.5220251235780883e-05 0.0050025986564554903 0 4.8038833150204063e-05 0.0050025241159742349 0 2.7940017615229466e-05 0.0050366087426783864 0 2.3401003263485821e-05 0.0045148780875798591 0 9.1995570316259783e-05 0.0043708680005355187 0 2.3401003263485821e-05 0.0045148780875798591 0 3.8393298290122803e-05 0.004004741868884349 0 2.3401003263485821e-05 0.0045148780875798591 0 8.6006644932281383e-05 0.0037846790639329379 0 9.1992538543454321e-05 0.0038016066216294258 0 6.1249825916596503e-05 0.0037908048224694207 0 7.2407727321843702e-05 0.0037660403800632526 0 0.00011741694638878131 0.0037804431052167187 0 8.6006644932281383e-05 0.0037846790639329379 0 0.00011741694638878131 0.0037804431052167187 0 8.6006644932281383e-05 0.0037846790639329379 0 9.1992538543454321e-05 0.0038016066216294258 0 0.00012922923873063207 0.0038137593755243914 0 9.1992538543454321e-05 0.0038016066216294258 0 8.3244963934689723e-05 0.0038220533295068109 0 9.1992538543454321e-05 0.0038016066216294258 0 6.3225636702835602e-05 0.003812417942001386 0 8.3244963934689723e-05 0.0038220533295068109 0 9.1992538543454321e-05 0.0038016066216294258 0 6.3225636702835602e-05 0.003812417942001386 0 6.1249825916596503e-05 0.0037908048224694207 0 6.3225636702835602e-05 0.003812417942001386 0 6.1249825916596503e-05 0.0037908048224694207 0 4.5394813987890152e-05 0.0038108179885588101 0 6.1249825916596503e-05 0.0037908048224694207 0 3.8561545638192735e-05 0.0037970326626679627 0 4.5394813987890152e-05 0.0038108179885588101 0 6.1249825916596503e-05 0.0037908048224694207 0 4.547728599413362e-05 0.0037868560092965109 0 3.8561545638192735e-05 0.0037970326626679627 0 7.2407727321843702e-05 0.0037660403800632526 0 6.1249825916596503e-05 0.0037908048224694207 0 4.4660054455355206e-05 0.0037728838913588425 0 6.1249825916596503e-05 0.0037908048224694207 0 4.4660054455355206e-05 0.0037728838913588425 0 4.547728599413362e-05 0.0037868560092965109 0 7.2407727321843702e-05 0.0037660403800632526 0 8.6006644932281383e-05 0.0037846790639329379 0 6.1249825916596503e-05 0.0037908048224694207 0 4.4660054455355206e-05 0.0037728838913588425 0 3.4315798479600398e-05 0.00378714523284833 0 1.9121512353598213e-05 0.0037827675957451648 0 2.248297696200849e-05 0.0037796560205487911 0 2.6769239965575806e-05 0.0037819904640784114 0 1.9121512353598213e-05 0.0037827675957451648 0 4.4660054455355206e-05 0.0037728838913588425 0 3.4315798479600398e-05 0.00378714523284833 0 4.547728599413362e-05 0.0037868560092965109 0 4.8254888041585372e-05 0.003776867804100146 0 1.7573153465510827e-05 0.0037828608221816911 0 3.4315798479600398e-05 0.00378714523284833 0 1.9121512353598213e-05 0.0037827675957451648 0 2.3328383868578499e-05 0.0037951461750430995 0 3.4315798479600398e-05 0.00378714523284833 0 2.3328383868578499e-05 0.0037951461750430995 0 3.8561545638192735e-05 0.0037970326626679627 0 3.4315798479600398e-05 0.00378714523284833 0 4.547728599413362e-05 0.0037868560092965109 0 3.8561545638192735e-05 0.0037970326626679627 0 6.1110818303023605e-06 0.0036218335287917921 0 2.2555901041906885e-05 0.0035856539195265164 0 6.2130334597446106e-06 0.0035917205859681877 0 1.8843541483473764e-05 0.0037767096288366833 0 1.9121512353598213e-05 0.0037827675957451648 0 1.2013235910702774e-05 0.0037847640189451839 0 1.9121512353598213e-05 0.0037827675957451648 0 2.3328383868578499e-05 0.0037951461750430995 0 1.2013235910702774e-05 0.0037847640189451839 0 9.3305394065272271e-06 0.0036990896547869608 0 6.1381727723850026e-05 0.0036499901110840782 0 2.2555901041906885e-05 0.0035856539195265164 0 6.2130334597446106e-06 0.0035917205859681877 0 6.7043903357527505e-06 0.0035639759776755664 0 2.3328383868578499e-05 0.0037951461750430995 0 1.2013235910702774e-05 0.0037847640189451839 0 1.1265019873058753e-05 0.003812532660560591 0 2.3328383868578499e-05 0.0037951461750430995 0 1.1265019873058753e-05 0.003812532660560591 0 3.0036180967582203e-05 0.0038078607913233538 0 1.1265019873058753e-05 0.003812532660560591 0 3.0036180967582203e-05 0.0038078607913233538 0 3.4168829045184386e-05 0.0038231817366115115 0 3.8561545638192735e-05 0.0037970326626679627 0 3.0036180967582203e-05 0.0038078607913233538 0 4.5394813987890152e-05 0.0038108179885588101 0 2.3328383868578499e-05 0.0037951461750430995 0 3.8561545638192735e-05 0.0037970326626679627 0 3.0036180967582203e-05 0.0038078607913233538 0 3.0036180967582203e-05 0.0038078607913233538 0 4.5394813987890152e-05 0.0038108179885588101 0 3.4168829045184386e-05 0.0038231817366115115 0 4.5394813987890152e-05 0.0038108179885588101 0 3.4168829045184386e-05 0.0038231817366115115 0 5.1419951265683917e-05 0.003832660519512276 0 1.1265019873058753e-05 0.003812532660560591 0 3.4168829045184386e-05 0.0038231817366115115 0 3.0621038722147901e-05 0.0038408431996215867 0 3.4168829045184386e-05 0.0038231817366115115 0 3.8795030500413654e-05 0.0038345801301342521 0 5.1419951265683917e-05 0.003832660519512276 0 3.4168829045184386e-05 0.0038231817366115115 0 3.8795030500413654e-05 0.0038345801301342521 0 3.0621038722147901e-05 0.0038408431996215867 0 6.1381727723850026e-05 0.0036499901110840782 0 2.9794695768208587e-05 0.0038929438113556804 0 6.1381727723850026e-05 0.0036499901110840782 0 9.7548792343630155e-05 0.0036903357233711341 0 1.5832307553997671e-05 0.0038106573776962144 0 2.135674685749018e-05 0.003839439749336886 0 3.0621038722147901e-05 0.0038408431996215867 0 0.00016200954914992693 0.0034694945380314714 0 0.00024666558074154711 0.0033750253960084485 0 0.00024937222173623445 0.0035892331399380271 0 1.5832307553997671e-05 0.0038106573776962144 0 1.5055245174623983e-05 0.003837395960302224 0 2.135674685749018e-05 0.003839439749336886 0 -8.8519781332682755e-05 0.0037594847816682835 0 -5.1764829219284676e-05 0.0037466143015598072 0 -3.1640534340433867e-05 0.0037658046616370288 0 9.7548792343630155e-05 0.0036903357233711341 0 1.603424656043555e-05 0.0037556067264504062 0 -3.1640534340433867e-05 0.0037658046616370288 0 -5.4596296980633082e-05 0.003805754136615476 0 -1.0305806556969228e-06 0.0038386187991773695 0 -8.8519781332682755e-05 0.0037594847816682835 0 -3.1640534340433867e-05 0.0037658046616370288 0 -5.4596296980633082e-05 0.003805754136615476 0 2.135674685749018e-05 0.003839439749336886 0 3.0621038722147901e-05 0.0038408431996215867 0 4.1925024502613977e-05 0.0038488177887883827 0 1.603424656043555e-05 0.0037556067264504062 0 3.0124427593624779e-05 0.0038499046329224409 0 -3.1640534340433867e-05 0.0037658046616370288 0 -1.0305806556969228e-06 0.0038386187991773695 0 4.1925024502613977e-05 0.0038488177887883827 0 3.8795030500413654e-05 0.0038345801301342521 0 3.0621038722147901e-05 0.0038408431996215867 0 4.1925024502613977e-05 0.0038488177887883827 0 4.1925024502613977e-05 0.0038488177887883827 0 8.4846435369902734e-05 0.0038791772469117048 0 7.0969166149610174e-05 0.0038443656001661357 0 3.8795030500413654e-05 0.0038345801301342521 0 4.1925024502613977e-05 0.0038488177887883827 0 5.1419951265683917e-05 0.003832660519512276 0 4.1925024502613977e-05 0.0038488177887883827 0 7.0969166149610174e-05 0.0038443656001661357 0 5.1419951265683917e-05 0.003832660519512276 0 8.4846435369902734e-05 0.0038791772469117048 0 7.0969166149610174e-05 0.0038443656001661357 0 0.000103746057598504 0.0038431880179701301 0 7.0969166149610174e-05 0.0038443656001661357 0 0.000103746057598504 0.0038431880179701301 0 8.3244963934689723e-05 0.0038220533295068109 0 0.00012922923873063207 0.0038137593755243914 0 0.000103746057598504 0.0038431880179701301 0 8.3244963934689723e-05 0.0038220533295068109 0 6.3225636702835602e-05 0.003812417942001386 0 8.3244963934689723e-05 0.0038220533295068109 0 5.1419951265683917e-05 0.003832660519512276 0 6.3225636702835602e-05 0.003812417942001386 0 4.5394813987890152e-05 0.0038108179885588101 0 5.1419951265683917e-05 0.003832660519512276 0 7.0969166149610174e-05 0.0038443656001661357 0 8.3244963934689723e-05 0.0038220533295068109 0 5.1419951265683917e-05 0.003832660519512276 0 -0.0005065134551728174 0.0022774208737023432 0 -0.00039025957268904588 0.0022302346918239655 0 -0.00050523229467888664 0.0023900403122709768 0 -0.0005065134551728174 0.0022774208737023432 0 -0.00041166795822578724 0.0022060736266272655 0 -0.0005937738397632145 0.0022148255000267111 0 -0.0005065134551728174 0.0022774208737023432 0 -0.00041166795822578724 0.0022060736266272655 0 -0.00039025957268904588 0.0022302346918239655 0 -0.0002947289367758539 0.00051273777838584708 0 -0.00032324449825859252 0.00055537379547725488 0 -0.00048317536353570503 0.00055344860330834578 0 -0.0002947289367758539 0.00051273777838584708 0 -0.00048123694748239789 0.0002736873284509812 0 -0.00048317536353570503 0.00055344860330834578 0 -0.00039653443688222433 0.0012918505814998248 0 -0.00049331276266200385 0.0002482083688696317 0 -0.00029260495200466669 0.0017658661736191885 0 -0.00039653443688222433 0.0012918505814998248 0 -0.00046250176853241705 0.0014436648354793427 0 -0.0004203631647617878 0.0014953617602226109 0 -0.00038488921004888082 0.0014424450080180414 0 -0.00043845582642503792 0.0010777646923280859 0 -0.00039653443688222433 0.0012918505814998248 0 -0.00029260495200466669 0.0017658661736191885 0 -0.00043845582642503792 0.0010777646923280859 0 -0.00023902523823186332 0.0021963169612664668 0 -0.00025707196592254821 0.0021041467584533343 0 -0.00013495068583773583 0.0020429853325598319 0 -0.00029932348716685795 0.0021974098368969866 0 -0.00023902523823186332 0.0021963169612664668 0 -0.00025707196592254821 0.0021041467584533343 0 -0.00033997997620577596 0.00085086408100768201 0 -0.00039489276451709285 0.00093347780556960944 0 -0.0004261241531257039 0.00084868266576436846 0 -0.00039653443688222433 0.0012918505814998248 0 -0.00032030558088851329 0.0010618524659873453 0 -0.00013495068583773583 0.0020429853325598319 0 -0.00022313380776229968 0.0020241899700413468 0 -0.00016055800400344896 0.0019699505471522101 0 -0.00032030558088851329 0.0010618524659873453 0 -0.0001071623822265189 0.0018093514536883938 0 -0.00025707196592254821 0.0021041467584533343 0 -0.00013495068583773583 0.0020429853325598319 0 -0.00022313380776229968 0.0020241899700413468 0 -0.00025707196592254821 0.0021041467584533343 0 -0.00022313380776229968 0.0020241899700413468 0 -0.00029583712466373611 0.0020406225805419736 0 -0.00025707196592254821 0.0021041467584533343 0 -0.00029583712466373611 0.0020406225805419736 0 -0.0003697546560936233 0.0021171375484874636 0 -0.00030210283447837947 0.0021984292719318065 0 -0.0003697546560936233 0.0021171375484874636 0 -0.0005937738397632145 0.0022148255000267111 0 -0.00029583712466373611 0.0020406225805419736 0 -0.0003697546560936233 0.0021171375484874636 0 -0.00038717055695289623 0.0019939538225398333 0 -0.00029260495200466669 0.0017658661736191885 0 -0.00024750206724118189 0.0021015989221032263 0 -0.00029932348716685795 0.0021974098368969866 0 -0.00025707196592254821 0.0021041467584533343 0 -0.0003697546560936233 0.0021171375484874636 0 -0.0003697546560936233 0.0021171375484874636 0 -0.00048500487830884371 0.0020614020699799549 0 -0.00038717055695289623 0.0019939538225398333 0 -0.0003697546560936233 0.0021171375484874636 0 -0.00048500487830884371 0.0020614020699799549 0 -0.0005937738397632145 0.0022148255000267111 0 -0.00048500487830884371 0.0020614020699799549 0 -0.0005937738397632145 0.0022148255000267111 0 -0.00057763199287894757 0.0019829540710168481 0 -0.00070364524393772389 0.0022205820720788997 0 -0.00057763199287894757 0.0019829540710168481 0 -0.00076264049581920381 0.0021020145240205467 0 -0.00070364524393772389 0.0022205820720788997 0 -0.0005937738397632145 0.0022148255000267111 0 -0.00057763199287894757 0.0019829540710168481 0 -0.00070364524393772389 0.0022205820720788997 0 -0.0006608008911575448 0.0023528120357465283 0 -0.00075493015511603971 0.0023517852639031861 0 -0.00070364524393772389 0.0022205820720788997 0 -0.0005937738397632145 0.0022148255000267111 0 -0.0006608008911575448 0.0023528120357465283 0 -0.0005065134551728174 0.0022774208737023432 0 -0.0005937738397632145 0.0022148255000267111 0 -0.0006608008911575448 0.0023528120357465283 0 -0.00029260495200466669 0.0017658661736191885 0 -0.00061182714584129348 0.0023276061265714307 0 -0.0006608008911575448 0.0023528120357465283 0 -0.00068536745655879846 0.0024608967087180258 0 -0.00050523229467888664 0.0023900403122709768 0 -0.0005065134551728174 0.0022774208737023432 0 -0.0006608008911575448 0.0023528120357465283 0 -0.00050523229467888664 0.0023900403122709768 0 -0.0006608008911575448 0.0023528120357465283 0 -0.00068536745655879846 0.0024608967087180258 0 -0.00076531621564978225 0.0024438656167782252 0 -0.00043021398792908851 4.5958254840998777e-05 0 -0.00043912795558431809 7.6357144923089602e-05 0 -0.00048578879614625804 6.7346748824923173e-05 0 -0.00068536745655879846 0.0024608967087180258 0 -0.00050523229467888664 0.0023900403122709768 0 -0.00063067989754773447 0.002515183539368518 0 -0.00046596131195388046 0.0012268649823969492 0 -0.00055995584229474524 0.0012898113400281325 0 -0.00043021398792908851 4.5958254840998777e-05 0 -0.00040600884732364275 4.9770071705783814e-05 0 -0.00041212539406651315 7.0046030120840338e-05 0 -0.00043021398792908851 4.5958254840998777e-05 0 -0.00041212539406651315 7.0046030120840338e-05 0 -0.00043912795558431809 7.6357144923089602e-05 0 -0.00043021398792908851 4.5958254840998777e-05 0 -0.00041005606185888879 4.4540550010138281e-05 0 -0.00040600884732364275 4.9770071705783814e-05 0 -0.00043845582642503792 0.0010777646923280859 0 -0.00046596131195388046 0.0012268649823969492 0 -0.00041107718806616012 4.2716722047104204e-05 0 -0.00043021398792908851 4.5958254840998777e-05 0 -0.00041005606185888879 4.4540550010138281e-05 0 -0.00043845582642503792 0.0010777646923280859 0 -0.00047468506337575725 1.4046735373259328e-05 0 -0.00041107718806616012 4.2716722047104204e-05 0 -0.00041005606185888879 4.4540550010138281e-05 0 -0.00039524566755345144 4.1852231566843641e-05 0 -0.00041005606185888879 4.4540550010138281e-05 0 -0.00040600884732364275 4.9770071705783814e-05 0 -0.00039524566755345144 4.1852231566843641e-05 0 -0.00040600884732364275 4.9770071705783814e-05 0 -0.00041212539406651315 7.0046030120840338e-05 0 -0.00038715607014181888 5.3473743930562133e-05 0 -0.00040600884732364275 4.9770071705783814e-05 0 -0.00039524566755345144 4.1852231566843641e-05 0 -0.00038715607014181888 5.3473743930562133e-05 0 -0.00046332690199506768 0.00014569172146160998 0 -0.00042144347034018322 5.9151744019614801e-05 0 -0.00057366088746970171 0.00029484554240074711 0 -0.00048123694748239789 0.0002736873284509812 0 -0.00065978947367820011 4.3968422267375739e-05 0 -0.00047468506337575725 1.4046735373259328e-05 0 -0.00042144347034018322 5.9151744019614801e-05 0 -0.00039524566755345144 4.1852231566843641e-05 0 -0.00036550160170176731 4.5667923910475498e-05 0 -0.00038715607014181888 5.3473743930562133e-05 0 -0.00035928469538076287 -5.0686990494922224e-06 0 -0.00035107599801215969 4.2240902347266237e-07 0 -0.00035265064471504023 -1.4717327447858516e-05 0 -0.00035928469538076287 -5.0686990494922224e-06 0 -0.00036149047778094795 -1.381628449352096e-05 0 -0.00035265064471504023 -1.4717327447858516e-05 0 -0.00035928469538076287 -5.0686990494922224e-06 0 -0.00036075080954981717 3.2051348596439462e-06 0 -0.00035107599801215969 4.2240902347266237e-07 0 -0.00057366088746970171 0.00029484554240074711 0 -0.00048123694748239789 0.0002736873284509812 0 -0.00048317536353570503 0.00055344860330834578 0 -0.0004310175513697372 -0.00014705920800697685 0 -0.000437524109644604 -0.0001496253147583752 0 -0.00036950169004022201 -1.3568899217925879e-05 0 -0.00037173380132058808 -7.5875684009303881e-07 0 -0.00038635293192799226 -1.2604921389916512e-05 0 -0.0004850121172997038 -0.00030015585104936187 0 -0.00049544831585147074 -0.00028675782364502979 0 -0.00047833072753010317 -0.00030290347464023931 0 -0.00036950169004022201 -1.3568899217925879e-05 0 -0.00036149047778094795 -1.381628449352096e-05 0 -0.00037173380132058808 -7.5875684009303881e-07 0 -0.00035928469538076287 -5.0686990494922224e-06 0 -0.00036149047778094795 -1.381628449352096e-05 0 -0.00037173380132058808 -7.5875684009303881e-07 0 -0.00035928469538076287 -5.0686990494922224e-06 0 -0.00036075080954981717 3.2051348596439462e-06 0 -0.00037173380132058808 -7.5875684009303881e-07 0 -0.0004850121172997038 -0.00030015585104936187 0 -0.00048731173804213477 -0.0002943295331610114 0 -0.00049418579484440445 -0.00028863316653587298 0 -0.0004850121172997038 -0.00030015585104936187 0 -0.00048731173804213477 -0.0002943295331610114 0 -0.00048203871512396884 -0.0002987397364042334 0 -0.0004850121172997038 -0.00030015585104936187 0 -0.00048203871512396884 -0.0002987397364042334 0 -0.00047833072753010317 -0.00030290347464023931 0 -0.0004850121172997038 -0.00030015585104936187 0 -0.00049418579484440445 -0.00028863316653587298 0 -0.00049705548426283127 -0.00028236695661203198 0 -0.00049583393234080438 -0.00028860253122521036 0 -0.00049297459890840201 -0.00029152957434142133 0 -0.00048972631801045771 -0.00029153044354075937 0 -0.00049418579484440445 -0.00028863316653587298 0 -0.00049583393234080438 -0.00028860253122521036 0 -0.00048972631801045771 -0.00029153044354075937 0 -0.00048731173804213477 -0.0002943295331610114 0 -0.00049418579484440445 -0.00028863316653587298 0 -0.00048972631801045771 -0.00029153044354075937 0 -0.00049418579484440445 -0.00028863316653587298 0 -0.00049785029644724792 -0.00028552603439459717 0 -0.00049583393234080438 -0.00028860253122521036 0 -0.00049418579484440445 -0.00028863316653587298 0 -0.00049785029644724792 -0.00028552603439459717 0 -0.00049859746246064848 -0.00028212733513830997 0 -0.00036075080954981717 3.2051348596439462e-06 0 -0.00037173380132058808 -7.5875684009303881e-07 0 -0.0003666317539656671 1.012020506051766e-05 0 -0.0004310175513697372 -0.00014705920800697685 0 -0.00042430306830308281 -0.00015282168476985942 0 -0.00049418579484440445 -0.00028863316653587298 0 -0.00049859746246064848 -0.00028212733513830997 0 -0.00049705548426283127 -0.00028236695661203198 0 -0.00049785029644724792 -0.00028552603439459717 0 -0.00049859746246064848 -0.00028212733513830997 0 -0.00050038515454351698 -0.00028320649604732999 0 -0.00049859746246064848 -0.00028212733513830997 0 -0.00050448494396413551 -0.00027969486451058956 0 -0.00050038515454351698 -0.00028320649604732999 0 -0.00049859746246064848 -0.00028212733513830997 0 -0.00050952049005764145 -0.00027469264732110009 0 -0.00050448494396413551 -0.00027969486451058956 0 -0.00045551050151898265 -0.00016873549240942057 0 -0.00042430306830308281 -0.00015282168476985942 0 -0.00050952049005764145 -0.00027469264732110009 0 -0.00051749440480831476 -0.00028161471594213546 0 -0.00051166365461156969 -0.00028110398656867305 0 -0.00050952049005764145 -0.00027469264732110009 0 -0.00051749440480831476 -0.00028161471594213546 0 -0.00053084213527139815 -0.00027605839140022476 0 -0.00051749440480831476 -0.00028161471594213546 0 -0.00051169449285534967 -0.00028467512311229805 0 -0.00051166365461156969 -0.00028110398656867305 0 -0.00051749440480831476 -0.00028161471594213546 0 -0.00052281985022240149 -0.00028721874206159273 0 -0.00053084213527139815 -0.00027605839140022476 0 -0.00052281985022240149 -0.00028721874206159273 0 -0.00051443198003833367 -0.0002880011191848906 0 -0.00051662760292907946 -0.00029278085605830728 0 -0.00051749440480831476 -0.00028161471594213546 0 -0.00051443198003833367 -0.0002880011191848906 0 -0.00051169449285534967 -0.00028467512311229805 0 -0.00051749440480831476 -0.00028161471594213546 0 -0.00052281985022240149 -0.00028721874206159273 0 -0.00051443198003833367 -0.0002880011191848906 0 -0.00051443198003833367 -0.0002880011191848906 0 -0.00050953296952362451 -0.00028803499861332924 0 -0.00051169449285534967 -0.00028467512311229805 0 -0.00050953296952362451 -0.00028803499861332924 0 -0.00050682217023050567 -0.00028568987980859555 0 -0.00051169449285534967 -0.00028467512311229805 0 -0.00051443198003833367 -0.0002880011191848906 0 -0.00050978088323094632 -0.00029192746975826352 0 -0.00050953296952362451 -0.00028803499861332924 0 -0.00051443198003833367 -0.0002880011191848906 0 -0.00050978088323094632 -0.00029192746975826352 0 -0.00051662760292907946 -0.00029278085605830728 0 -0.00050978088323094632 -0.00029192746975826352 0 -0.00050953296952362451 -0.00028803499861332924 0 -0.0005055848689373947 -0.00028971838051506564 0 -0.00050682217023050567 -0.00028568987980859555 0 -0.00050249404160112741 -0.00028751366127372977 0 -0.0005055848689373947 -0.00028971838051506564 0 -0.00050953296952362451 -0.00028803499861332924 0 -0.00050682217023050567 -0.00028568987980859555 0 -0.0005055848689373947 -0.00028971838051506564 0 -0.00050276467544156113 -0.00028494725505447566 0 -0.00050682217023050567 -0.00028568987980859555 0 -0.00050249404160112741 -0.00028751366127372977 0 -0.00050276467544156113 -0.00028494725505447566 0 -0.00050682217023050567 -0.00028568987980859555 0 -0.00050531342431332847 -0.00028258688447456871 0 -0.00050682217023050567 -0.00028568987980859555 0 -0.00051169449285534967 -0.00028467512311229805 0 -0.00050909450164385826 -0.00028331342601161763 0 -0.00051169449285534967 -0.00028467512311229805 0 -0.00051166365461156969 -0.00028110398656867305 0 -0.00050909450164385826 -0.00028331342601161763 0 -0.00051166365461156969 -0.00028110398656867305 0 -0.00050909450164385826 -0.00028331342601161763 0 -0.00050790592012587503 -0.00028085907820727372 0 -0.00050682217023050567 -0.00028568987980859555 0 -0.00050909450164385826 -0.00028331342601161763 0 -0.00050531342431332847 -0.00028258688447456871 0 -0.00050952049005764145 -0.00027469264732110009 0 -0.00051166365461156969 -0.00028110398656867305 0 -0.00050790592012587503 -0.00028085907820727372 0 -0.00050909450164385826 -0.00028331342601161763 0 -0.00050790592012587503 -0.00028085907820727372 0 -0.00050531342431332847 -0.00028258688447456871 0 -0.00050790592012587503 -0.00028085907820727372 0 -0.00050448494396413551 -0.00027969486451058956 0 -0.00050531342431332847 -0.00028258688447456871 0 -0.00050952049005764145 -0.00027469264732110009 0 -0.00050790592012587503 -0.00028085907820727372 0 -0.00050448494396413551 -0.00027969486451058956 0 -0.00050448494396413551 -0.00027969486451058956 0 -0.00050038515454351698 -0.00028320649604732999 0 -0.00050531342431332847 -0.00028258688447456871 0 -0.00050276467544156113 -0.00028494725505447566 0 -0.00050038515454351698 -0.00028320649604732999 0 -0.00050531342431332847 -0.00028258688447456871 0 -0.00050276467544156113 -0.00028494725505447566 0 -0.00050038515454351698 -0.00028320649604732999 0 -0.00049956531874859446 -0.00028611653995192426 0 -0.00049785029644724792 -0.00028552603439459717 0 -0.00050038515454351698 -0.00028320649604732999 0 -0.00049956531874859446 -0.00028611653995192426 0 -0.00049956531874859446 -0.00028611653995192426 0 -0.00049914227942037556 -0.00028868556753343545 0 -0.00049583393234080438 -0.00028860253122521036 0 -0.00049785029644724792 -0.00028552603439459717 0 -0.00049956531874859446 -0.00028611653995192426 0 -0.00049583393234080438 -0.00028860253122521036 0 -0.00049914227942037556 -0.00028868556753343545 0 -0.00050152613695337352 -0.00029047184555704896 0 -0.00049743261290771841 -0.00029188271851423447 0 -0.00049914227942037556 -0.00028868556753343545 0 -0.00050249404160112741 -0.00028751366127372977 0 -0.00050152613695337352 -0.00029047184555704896 0 -0.00049956531874859446 -0.00028611653995192426 0 -0.00049914227942037556 -0.00028868556753343545 0 -0.00050249404160112741 -0.00028751366127372977 0 -0.00050276467544156113 -0.00028494725505447566 0 -0.00049956531874859446 -0.00028611653995192426 0 -0.00050249404160112741 -0.00028751366127372977 0 -0.00050249404160112741 -0.00028751366127372977 0 -0.0005055848689373947 -0.00028971838051506564 0 -0.00050152613695337352 -0.00029047184555704896 0 -0.0005055848689373947 -0.00028971838051506564 0 -0.00050368283406646344 -0.00029455088396797784 0 -0.00050152613695337352 -0.00029047184555704896 0 -0.00050978088323094632 -0.00029192746975826352 0 -0.0005055848689373947 -0.00028971838051506564 0 -0.00050368283406646344 -0.00029455088396797784 0 -0.00050368283406646344 -0.00029455088396797784 0 -0.00050152613695337352 -0.00029047184555704896 0 -0.00049743261290771841 -0.00029188271851423447 0 -0.00050368283406646344 -0.00029455088396797784 0 -0.00049743261290771841 -0.00029188271851423447 0 -0.0004963763307971234 -0.00029805939987970881 0 -0.00049743261290771841 -0.00029188271851423447 0 -0.00049312664142168343 -0.00029422530576605355 0 -0.0004963763307971234 -0.00029805939987970881 0 -0.00049743261290771841 -0.00029188271851423447 0 -0.00049297459890840201 -0.00029152957434142133 0 -0.00049312664142168343 -0.00029422530576605355 0 -0.00049743261290771841 -0.00029188271851423447 0 -0.00049583393234080438 -0.00028860253122521036 0 -0.00049297459890840201 -0.00029152957434142133 0 -0.00049914227942037556 -0.00028868556753343545 0 -0.00049743261290771841 -0.00029188271851423447 0 -0.00049583393234080438 -0.00028860253122521036 0 -0.00049331276266200385 0.0002482083688696317 0 -0.00044286068228238201 -0.00013509375111272993 0 -0.00035107599801215969 4.2240902347266237e-07 0 -0.00034901381148000192 1.2697726049269758e-05 0 -0.00035746666413625751 1.1222348318700335e-05 0 -0.00046332690199506768 0.00014569172146160998 0 -0.00049331276266200385 0.0002482083688696317 0 -0.00036075080954981717 3.2051348596439462e-06 0 -0.0003666317539656671 1.012020506051766e-05 0 -0.00035746666413625751 1.1222348318700335e-05 0 -0.00042430306830308281 -0.00015282168476985942 0 -0.00044286068228238201 -0.00013509375111272993 0 -0.00036075080954981717 3.2051348596439462e-06 0 -0.00035107599801215969 4.2240902347266237e-07 0 -0.00035746666413625751 1.1222348318700335e-05 0 -0.00053084213527139815 -0.00027605839140022476 0 -0.00055096423037396603 -0.00026997139731636197 0 -0.00054178758131518832 -0.00028461639724863228 0 -0.00050952049005764145 -0.00027469264732110009 0 -0.00053680129787267146 -0.00026274710478717809 0 -0.00053084213527139815 -0.00027605839140022476 0 -0.00053680129787267146 -0.00026274710478717809 0 -0.00053084213527139815 -0.00027605839140022476 0 -0.00055096423037396603 -0.00026997139731636197 0 -0.00053084213527139815 -0.00027605839140022476 0 -0.00054178758131518832 -0.00028461639724863228 0 -0.00053154372872533235 -0.00028939560123921593 0 -0.00052281985022240149 -0.00028721874206159273 0 -0.00053084213527139815 -0.00027605839140022476 0 -0.00053154372872533235 -0.00028939560123921593 0 -0.00055835125385917154 -0.00025505247869858611 0 -0.00053680129787267146 -0.00026274710478717809 0 -0.00055096423037396603 -0.00026997139731636197 0 -0.00032030558088851329 0.0010618524659873453 0 -0.00049331276266200385 0.0002482083688696317 0 -0.00056401434051379972 -0.00026804139222299757 0 -0.00055835125385917154 -0.00025505247869858611 0 -0.00055096423037396603 -0.00026997139731636197 0 -0.00013396136628667979 0.0020416143418303854 0 1.5676352969958214e-05 0.001817537536839494 0 -0.00016055800400344896 0.0019699505471522101 0 -0.00056401434051379972 -0.00026804139222299757 0 -0.00055096423037396603 -0.00026997139731636197 0 -0.00055099521495005101 -0.00029448639609241332 0 -0.00032030558088851329 0.0010618524659873453 0 -0.0002435922191277232 0.00070135164955130805 0 -0.00055096423037396603 -0.00026997139731636197 0 -0.00055099521495005101 -0.00029448639609241332 0 -0.00054178758131518832 -0.00028461639724863228 0 1.5676352969958214e-05 0.001817537536839494 0 -0.00016055800400344896 0.0019699505471522101 0 -0.00011005665025266682 0.0018477343386147981 0 -0.00054178758131518832 -0.00028461639724863228 0 -0.00053154372872533235 -0.00028939560123921593 0 -0.00053949017424530427 -0.00029556012568428882 0 -0.00053154372872533235 -0.00028939560123921593 0 -0.00053050164802462209 -0.00029791809428903366 0 -0.00052430486018489116 -0.00029343196816317894 0 -0.00053154372872533235 -0.00028939560123921593 0 -0.00053050164802462209 -0.00029791809428903366 0 -0.00053949017424530427 -0.00029556012568428882 0 -0.00053050164802462209 -0.00029791809428903366 0 -0.00053949017424530427 -0.00029556012568428882 0 -0.00053496450974266645 -0.00030388112372013119 0 -0.00055099521495005101 -0.00029448639609241332 0 -0.00054178758131518832 -0.00028461639724863228 0 -0.00053949017424530427 -0.00029556012568428882 0 -0.00055099521495005101 -0.00029448639609241332 0 -0.00054200357120626566 -0.00030368361051324506 0 -0.0005438083528352621 -0.00031570830255940618 0 -0.0002435922191277232 0.00070135164955130805 0 -0.00026404748346021251 0.00080379962717807088 0 -0.00055099521495005101 -0.00029448639609241332 0 -0.00053949017424530427 -0.00029556012568428882 0 -0.00054200357120626566 -0.00030368361051324506 0 -0.00053949017424530427 -0.00029556012568428882 0 -0.00054200357120626566 -0.00030368361051324506 0 -0.00053496450974266645 -0.00030388112372013119 0 -0.00054200357120626566 -0.00030368361051324506 0 -0.00053496450974266645 -0.00030388112372013119 0 -0.00053884326763550588 -0.00031036029827802286 0 -0.00053496450974266645 -0.00030388112372013119 0 -0.00053884326763550588 -0.00031036029827802286 0 -0.00053306636592609076 -0.00031137297323823818 0 -0.00054200357120626566 -0.00030368361051324506 0 -0.00053884326763550588 -0.00031036029827802286 0 -0.0005438083528352621 -0.00031570830255940618 0 -0.00053884326763550588 -0.00031036029827802286 0 -0.00053899282744664871 -0.00031579969752925855 0 -0.0005438083528352621 -0.00031570830255940618 0 -0.00053884326763550588 -0.00031036029827802286 0 -0.00053899282744664871 -0.00031579969752925855 0 -0.00053306636592609076 -0.00031137297323823818 0 1.5676352969958214e-05 0.001817537536839494 0 -0.00010130182902080347 0.0017081960011465917 0 0.00016678815269218628 0.0015739760066866412 0 -0.00027001120268799883 0.0017909555704238899 0 -0.00026404748346021251 0.00080379962717807088 0 1.5676352969958214e-05 0.001817537536839494 0 -0.00010130182902080347 0.0017081960011465917 0 -0.00011005665025266682 0.0018477343386147981 0 -0.00050393955446973555 -0.00030529044454015301 0 -0.00050594019978860458 -0.00031322643938582904 0 -0.00049658813289238802 -0.00031105507067002584 0 -0.00050393955446973555 -0.00030529044454015301 0 -0.00051027942925079711 -0.00030801545578307862 0 -0.00050594019978860458 -0.00031322643938582904 0 -0.00050393955446973555 -0.00030529044454015301 0 -0.00050160105483157478 -0.00030036494014155354 0 -0.00049758981730419307 -0.000303442764766002 0 -0.00050160105483157478 -0.00030036494014155354 0 -0.0004963763307971234 -0.00029805939987970881 0 -0.00049758981730419307 -0.000303442764766002 0 -0.00050368283406646344 -0.00029455088396797784 0 -0.00050160105483157478 -0.00030036494014155354 0 -0.0004963763307971234 -0.00029805939987970881 0 -0.00050393955446973555 -0.00030529044454015301 0 -0.00050160105483157478 -0.00030036494014155354 0 -0.00050603857618581043 -0.00029919407996155362 0 -0.00050368283406646344 -0.00029455088396797784 0 -0.00050160105483157478 -0.00030036494014155354 0 -0.00050603857618581043 -0.00029919407996155362 0 -0.00050368283406646344 -0.00029455088396797784 0 -0.00050603857618581043 -0.00029919407996155362 0 -0.00051070400123609722 -0.00029654013827728386 0 -0.00050978088323094632 -0.00029192746975826352 0 -0.00050368283406646344 -0.00029455088396797784 0 -0.00051070400123609722 -0.00029654013827728386 0 -0.00050603857618581043 -0.00029919407996155362 0 -0.00051070400123609722 -0.00029654013827728386 0 -0.00051117300646122681 -0.00030227445891226832 0 -0.00050393955446973555 -0.00030529044454015301 0 -0.00050603857618581043 -0.00029919407996155362 0 -0.00051117300646122681 -0.00030227445891226832 0 -0.00050393955446973555 -0.00030529044454015301 0 -0.00051117300646122681 -0.00030227445891226832 0 -0.00051027942925079711 -0.00030801545578307862 0 -0.00051117300646122681 -0.00030227445891226832 0 -0.00051027942925079711 -0.00030801545578307862 0 -0.00051769894757564179 -0.00030604944536625399 0 -0.00051769894757564179 -0.00030604944536625399 0 -0.00051901861936634705 -0.00029882228483111298 0 -0.00052617253183659006 -0.00030466729997379667 0 -0.00051117300646122681 -0.00030227445891226832 0 -0.00051769894757564179 -0.00030604944536625399 0 -0.00051901861936634705 -0.00029882228483111298 0 -0.00051070400123609722 -0.00029654013827728386 0 -0.00051117300646122681 -0.00030227445891226832 0 -0.00051901861936634705 -0.00029882228483111298 0 -0.00050978088323094632 -0.00029192746975826352 0 -0.00051070400123609722 -0.00029654013827728386 0 -0.00051662760292907946 -0.00029278085605830728 0 -0.00051070400123609722 -0.00029654013827728386 0 -0.00051901861936634705 -0.00029882228483111298 0 -0.00051662760292907946 -0.00029278085605830728 0 -0.00051901861936634705 -0.00029882228483111298 0 -0.00051662760292907946 -0.00029278085605830728 0 -0.00052430486018489116 -0.00029343196816317894 0 -0.00052281985022240149 -0.00028721874206159273 0 -0.00051662760292907946 -0.00029278085605830728 0 -0.00052430486018489116 -0.00029343196816317894 0 -0.00052281985022240149 -0.00028721874206159273 0 -0.00053154372872533235 -0.00028939560123921593 0 -0.00052430486018489116 -0.00029343196816317894 0 -0.00053050164802462209 -0.00029791809428903366 0 -0.00051901861936634705 -0.00029882228483111298 0 -0.00052617253183659006 -0.00030466729997379667 0 -0.00053050164802462209 -0.00029791809428903366 0 -0.00053496450974266645 -0.00030388112372013119 0 -0.00052617253183659006 -0.00030466729997379667 0 -0.00053050164802462209 -0.00029791809428903366 0 -0.00051901861936634705 -0.00029882228483111298 0 -0.00052430486018489116 -0.00029343196816317894 0 -0.00053496450974266645 -0.00030388112372013119 0 -0.00052617253183659006 -0.00030466729997379667 0 -0.00053306636592609076 -0.00031137297323823818 0 -0.00052617253183659006 -0.00030466729997379667 0 -0.00053306636592609076 -0.00031137297323823818 0 -0.00052256063787424185 -0.00031206244686863394 0 -0.00053306636592609076 -0.00031137297323823818 0 -0.0005286606018874055 -0.00031652356234038105 0 -0.00052256063787424185 -0.00031206244686863394 0 -0.00053306636592609076 -0.00031137297323823818 0 -0.0005286606018874055 -0.00031652356234038105 0 -0.00053446491564983916 -0.00032077507133047509 0 -0.00053899282744664871 -0.00031579969752925855 0 -0.00053306636592609076 -0.00031137297323823818 0 -0.00053446491564983916 -0.00032077507133047509 0 -0.0005286606018874055 -0.00031652356234038105 0 -0.00052256063787424185 -0.00031206244686863394 0 -0.00052491899343712952 -0.00032224318342577457 0 -0.00052256063787424185 -0.00031206244686863394 0 -0.00051728549597230167 -0.00032093429672742989 0 -0.00052491899343712952 -0.00032224318342577457 0 -0.0005286606018874055 -0.00031652356234038105 0 -0.00052491899343712952 -0.00032224318342577457 0 -0.00053446491564983916 -0.00032077507133047509 0 -0.00051769894757564179 -0.00030604944536625399 0 -0.00052256063787424185 -0.00031206244686863394 0 -0.00051465310539479327 -0.00031385447679053822 0 -0.00051769894757564179 -0.00030604944536625399 0 -0.00052617253183659006 -0.00030466729997379667 0 -0.00052256063787424185 -0.00031206244686863394 0 -0.00051027942925079711 -0.00030801545578307862 0 -0.00051769894757564179 -0.00030604944536625399 0 -0.00051465310539479327 -0.00031385447679053822 0 -0.00051027942925079711 -0.00030801545578307862 0 -0.00051465310539479327 -0.00031385447679053822 0 -0.00050594019978860458 -0.00031322643938582904 0 -0.00052256063787424185 -0.00031206244686863394 0 -0.00051465310539479327 -0.00031385447679053822 0 -0.00051728549597230167 -0.00032093429672742989 0 -0.00051728549597230167 -0.00032093429672742989 0 -0.00051013821325825864 -0.00032187546993272799 0 -0.0005186807497101672 -0.00032920751845598272 0 -0.00051465310539479327 -0.00031385447679053822 0 -0.00051728549597230167 -0.00032093429672742989 0 -0.00051013821325825864 -0.00032187546993272799 0 -0.00051013821325825864 -0.00032187546993272799 0 -0.00050747209754163842 -0.00033525861633758493 0 -0.00050009890910068507 -0.00032054732496961618 0 -0.00051013821325825864 -0.00032187546993272799 0 -0.00050594019978860458 -0.00031322643938582904 0 -0.00050009890910068507 -0.00032054732496961618 0 -0.00051465310539479327 -0.00031385447679053822 0 -0.00051013821325825864 -0.00032187546993272799 0 -0.00050594019978860458 -0.00031322643938582904 0 -0.00050747209754163842 -0.00033525861633758493 0 -0.0005257492128575771 -0.00034592112351948718 0 -0.00051377229889282272 -0.00036081231423699001 0 -0.00050747209754163842 -0.00033525861633758493 0 -0.0005186807497101672 -0.00032920751845598272 0 -0.0005257492128575771 -0.00034592112351948718 0 -0.00051013821325825864 -0.00032187546993272799 0 -0.00050747209754163842 -0.00033525861633758493 0 -0.0005186807497101672 -0.00032920751845598272 0 -0.00051728549597230167 -0.00032093429672742989 0 -0.0005186807497101672 -0.00032920751845598272 0 -0.00052491899343712952 -0.00032224318342577457 0 -0.0005186807497101672 -0.00032920751845598272 0 -0.00053164814986378535 -0.00033221763813334851 0 -0.0005257492128575771 -0.00034592112351948718 0 -0.00053164814986378535 -0.00033221763813334851 0 -0.0005458458313012533 -0.00034544105107839833 0 -0.0005257492128575771 -0.00034592112351948718 0 -0.0005186807497101672 -0.00032920751845598272 0 -0.00053164814986378535 -0.00033221763813334851 0 -0.00052491899343712952 -0.00032224318342577457 0 -0.00053164814986378535 -0.00033221763813334851 0 -0.00052491899343712952 -0.00032224318342577457 0 -0.00053446491564983916 -0.00032077507133047509 0 -0.00053894042280885088 -0.00032079900600041683 0 -0.00053825633955917676 -0.00032851351412747622 0 -0.00054343554031204813 -0.00031877776108113601 0 -0.00053164814986378535 -0.00033221763813334851 0 -0.00053446491564983916 -0.00032077507133047509 0 -0.00053825633955917676 -0.00032851351412747622 0 -0.00053899282744664871 -0.00031579969752925855 0 -0.00053446491564983916 -0.00032077507133047509 0 -0.00053894042280885088 -0.00032079900600041683 0 -0.00053446491564983916 -0.00032077507133047509 0 -0.00053894042280885088 -0.00032079900600041683 0 -0.00053825633955917676 -0.00032851351412747622 0 -0.00053164814986378535 -0.00033221763813334851 0 -0.00053825633955917676 -0.00032851351412747622 0 -0.0005458458313012533 -0.00034544105107839833 0 -0.00053825633955917676 -0.00032851351412747622 0 -0.0005458458313012533 -0.00034544105107839833 0 -0.00054343554031204813 -0.00031877776108113601 0 -0.00039259439189717971 0.00056501959865054097 0 -0.00032787633207585954 0.00047275029009656659 0 -0.0005458458313012533 -0.00034544105107839833 0 -0.0005257492128575771 -0.00034592112351948718 0 -0.0005418672561999918 -0.00038462487140625344 0 -0.00022276482792543952 0.0014915148083552271 0 -0.0001571155812483902 0.0013778853048541536 0 -0.00031703540377344016 0.0013957451904849285 0 -0.0005257492128575771 -0.00034592112351948718 0 -0.00051377229889282272 -0.00036081231423699001 0 -0.0005418672561999918 -0.00038462487140625344 0 -0.00045220686006785523 0.0017053102369120018 0 -0.00040337732454865988 0.0015732441068122657 0 -0.00049823571696506032 0.0015665626446527349 0 -0.00045220686006785523 0.0017053102369120018 0 -0.00040337732454865988 0.0015732441068122657 0 -0.00029260960825970052 0.0016174195969947628 0 -0.00040337732454865988 0.0015732441068122657 0 -0.00044546615766911766 0.001473870388571799 0 -0.00049823571696506032 0.0015665626446527349 0 -0.00022276482792543952 0.0014915148083552271 0 -0.00029260960825970052 0.0016174195969947628 0 -0.00033281792669688769 0.0015067605020003406 0 -0.00040337732454865988 0.0015732441068122657 0 -0.00029260960825970052 0.0016174195969947628 0 -0.00033281792669688769 0.0015067605020003406 0 -0.0005458458313012533 -0.00034544105107839833 0 -0.00054655710596627366 -0.00031321454859496614 0 -0.00054343554031204813 -0.00031877776108113601 0 -0.00039259439189717971 0.00056501959865054097 0 -0.00026404748346021251 0.00080379962717807088 0 -0.00053899282744664871 -0.00031579969752925855 0 -0.00053894042280885088 -0.00032079900600041683 0 -0.00054343554031204813 -0.00031877776108113601 0 -0.00053899282744664871 -0.00031579969752925855 0 -0.0005438083528352621 -0.00031570830255940618 0 -0.00054343554031204813 -0.00031877776108113601 0 -0.00026404748346021251 0.00080379962717807088 0 -0.00025579605780212249 0.00055359341713740742 0 -0.00022276482792543952 0.0014915148083552271 0 -0.00033281792669688769 0.0015067605020003406 0 -0.00031703540377344016 0.0013957451904849285 0 -0.00040337732454865988 0.0015732441068122657 0 -0.00033281792669688769 0.0015067605020003406 0 -0.00044546615766911766 0.001473870388571799 0 -0.00048172985288372412 0.001578178277354065 0 -0.0003155527822022481 0.0013713269136456016 0 -0.00044546615766911766 0.001473870388571799 0 -0.00048305434075595569 0.0014678881698166422 0 -0.00031703540377344016 0.0013957451904849285 0 -0.00033281792669688769 0.0015067605020003406 0 -0.00044546615766911766 0.001473870388571799 0 -0.00031703540377344016 0.0013957451904849285 0 -0.00055632630515956916 0.0014986784697184072 0 -0.00063132938637313772 0.0015333522737066281 0 -0.00049823571696506032 0.0015665626446527349 0 -0.00047329291503652555 0.0015521230107532096 0 -0.00048172985288372412 0.001578178277354065 0 -0.00048172985288372412 0.001578178277354065 0 -0.00065675882024546965 0.0018153996999450443 0 -0.0005307298452472618 0.0017038591733490036 0 -0.00064358121047059934 0.0016869225935404032 0 -0.00063965883673595188 0.0017533004605976513 0 -0.00065675882024546965 0.0018153996999450443 0 -0.00065754827510839579 0.0017982668685933927 0 -0.00048172985288372412 0.001578178277354065 0 -0.00065754827510839579 0.0017982668685933927 0 -0.00048696527040428491 0.001467600280450228 0 -0.00055632630515956916 0.0014986784697184072 0 -0.00049823571696506032 0.0015665626446527349 0 -0.00044546615766911766 0.001473870388571799 0 -0.00048696527040428491 0.001467600280450228 0 -0.00049823571696506032 0.0015665626446527349 0 -0.00074983196140315388 0.0021399359304992305 0 -0.00070859453348680551 0.0021344482136878441 0 -0.00069163664002356304 0.0021566837892715248 0 -0.00065675882024546965 0.0018153996999450443 0 -0.00080846019928402341 0.0020793299256650515 0 -0.00074983196140315388 0.0021399359304992305 0 -0.00073030252213012738 0.0021212941250307207 0 -0.00070859453348680551 0.0021344482136878441 0 -0.00074983196140315388 0.0021399359304992305 0 -0.00075014530333278133 0.0021286651920672944 0 -0.00073030252213012738 0.0021212941250307207 0 -0.00065754827510839579 0.0017982668685933927 0 -0.00067027236978865149 0.0018147382785144151 0 -0.00073030252213012738 0.0021212941250307207 0 -0.00070859453348680551 0.0021344482136878441 0 -0.00070009131110648141 0.0021235974256019335 0 -0.00063132938637313772 0.0015333522737066281 0 -0.00069699662503545055 0.0016822249286930662 0 -0.00077992006316468738 0.0016031555884319394 0 -0.00063132938637313772 0.0015333522737066281 0 -0.0005801372396274933 0.0016559406778290187 0 -0.00069699662503545055 0.0016822249286930662 0 -0.00045220686006785523 0.0017053102369120018 0 -0.0005801372396274933 0.0016559406778290187 0 -0.00049823571696506032 0.0015665626446527349 0 -0.00063132938637313772 0.0015333522737066281 0 -0.0005801372396274933 0.0016559406778290187 0 -0.00049823571696506032 0.0015665626446527349 0 -0.00010130182902080347 0.0017081960011465917 0 -0.00035131413385294433 0.0018442427412917431 0 -0.00019797179166510613 0.0018673156498503075 0 -0.00027001120268799883 0.0017909555704238899 0 -0.00048562450502864752 0.0018113780375893136 0 -0.00045220686006785523 0.0017053102369120018 0 -0.0005801372396274933 0.0016559406778290187 0 -0.00062505696590373766 0.0017934001130252115 0 -0.00010130182902080347 0.0017081960011465917 0 -0.00011005665025266682 0.0018477343386147981 0 -0.00019797179166510613 0.0018673156498503075 0 -0.0005801372396274933 0.0016559406778290187 0 -0.00069699662503545055 0.0016822249286930662 0 -0.00062505696590373766 0.0017934001130252115 0 -0.00069699662503545055 0.0016822249286930662 0 -0.00062505696590373766 0.0017934001130252115 0 -0.00072697177888421361 0.0017693730206054888 0 -0.00035131413385294433 0.0018442427412917431 0 -0.00038717055695289623 0.0019939538225398333 0 -0.00057763199287894757 0.0019829540710168481 0 -0.00035131413385294433 0.0018442427412917431 0 -0.00038717055695289623 0.0019939538225398333 0 -0.00026527826001248602 0.0019615493375354856 0 -0.00029583712466373611 0.0020406225805419736 0 -0.00038717055695289623 0.0019939538225398333 0 -0.00026527826001248602 0.0019615493375354856 0 -0.00022313380776229968 0.0020241899700413468 0 -0.00029583712466373611 0.0020406225805419736 0 -0.00026527826001248602 0.0019615493375354856 0 -0.00026527826001248602 0.0019615493375354856 0 -0.00016055800400344896 0.0019699505471522101 0 -0.00019797179166510613 0.0018673156498503075 0 -0.00022313380776229968 0.0020241899700413468 0 -0.00026527826001248602 0.0019615493375354856 0 -0.00016055800400344896 0.0019699505471522101 0 -0.00016055800400344896 0.0019699505471522101 0 -0.00011005665025266682 0.0018477343386147981 0 -0.00019797179166510613 0.0018673156498503075 0 -0.00035131413385294433 0.0018442427412917431 0 -0.00026527826001248602 0.0019615493375354856 0 -0.00019797179166510613 0.0018673156498503075 0 -0.00080087414196853733 0.0018766140808404771 0 -0.00089961546174043309 0.0017903444983810746 0 -0.00097884219529229596 0.0019588438730141181 0 -0.00068643319341586879 0.001909452265787462 0 -0.00083773011173592354 0.0022152403526622031 0 -0.00085605375254083202 0.0020844195747160691 0 -0.00083773011173592354 0.0022152403526622031 0 -0.00080087414196853733 0.0018766140808404771 0 -0.00078506181119251874 0.0017255805175399827 0 -0.00089961546174043309 0.0017903444983810746 0 -0.00062505696590373766 0.0017934001130252115 0 -0.00080087414196853733 0.0018766140808404771 0 -0.00072697177888421361 0.0017693730206054888 0 -0.00048500487830884371 0.0020614020699799549 0 -0.00038717055695289623 0.0019939538225398333 0 -0.00057763199287894757 0.0019829540710168481 0 -0.00048562450502864752 0.0018113780375893136 0 -0.00068643319341586879 0.001909452265787462 0 -0.00080087414196853733 0.0018766140808404771 0 -0.00072697177888421361 0.0017693730206054888 0 -0.00078506181119251874 0.0017255805175399827 0 -0.00069699662503545055 0.0016822249286930662 0 -0.00072697177888421361 0.0017693730206054888 0 -0.00078506181119251874 0.0017255805175399827 0 -0.00069699662503545055 0.0016822249286930662 0 -0.00078506181119251874 0.0017255805175399827 0 -0.0007777825152257235 0.0016087910763217389 0 -0.00078360000874731588 0.002474339058257669 0 -0.00091493390136721735 0.0025486305356614853 0 -0.00068155938423365247 0.0024875634154340729 0 -0.00078506181119251874 0.0017255805175399827 0 -0.00089961546174043309 0.0017903444983810746 0 -0.00082016724724021356 0.0016282344435993175 0 -0.00085605375254083202 0.0020844195747160691 0 -0.00085076280537433853 0.0022402391806586545 0 -0.00080851301788227093 0.0024270521645400104 0 -0.00078360000874731588 0.002474339058257669 0 -0.00091493390136721735 0.0025486305356614853 0 -0.00080851301788227093 0.0024270521645400104 0 -0.00078360000874731588 0.002474339058257669 0 -0.00078740742678424776 0.0024372572589308264 0 -0.00097270527340391467 0.0026226435620878563 0 -0.00076827360817647238 0.0026194938892088095 0 -0.00068155938423365247 0.0024875634154340729 0 -0.00084406022518288373 0.0026835234895412501 0 -0.00097270527340391467 0.0026226435620878563 0 -0.00076827360817647238 0.0026194938892088095 0 -0.00085076280537433853 0.0022402391806586545 0 -0.00075218651474656185 0.0025929209068312376 0 -0.00084406022518288373 0.0026835234895412501 0 -0.0010024272899563204 0.0026830520106756249 0 -0.00085966778798613733 0.002826836620750867 0 -0.00084406022518288373 0.0026835234895412501 0 -0.00097270527340391467 0.0026226435620878563 0 -0.0010024272899563204 0.0026830520106756249 0 -0.00067027236978865149 0.0018147382785144151 0 -0.00076067785223979726 0.0019556395613284905 0 -0.00073030252213012738 0.0021212941250307207 0 -0.00069061851445894956 0.0021047707162200487 0 -0.00070009131110648141 0.0021235974256019335 0 -0.00078111467440158608 0.0016447045249575979 0 -0.00076067785223979726 0.0019556395613284905 0 -0.00078506181119251874 0.0017255805175399827 0 -0.00082016724724021356 0.0016282344435993175 0 -0.0007777825152257235 0.0016087910763217389 0 -0.00085076280537433853 0.0022402391806586545 0 -0.00076067785223979726 0.0019556395613284905 0 -0.00068712132310464044 0.0021173945963552003 0 -0.00069061851445894956 0.0021047707162200487 0 -0.00070009131110648141 0.0021235974256019335 0 -0.00085076280537433853 0.0022402391806586545 0 -0.00074148967562470789 0.0022404133296110751 0 -0.0008216223806770701 0.0021421362143646018 0 -0.00077689626557747148 0.002050502991424953 0 -0.00072684664202326665 0.0020991960579506571 0 -0.00074148967562470789 0.0022404133296110751 0 -0.00072249082586278517 0.0022002024597436143 0 -0.00068428286473838954 0.0021111207291395423 0 -0.00068712132310464044 0.0021173945963552003 0 -0.00069061851445894956 0.0021047707162200487 0 -0.00074148967562470789 0.0022404133296110751 0 -0.00076067785223979726 0.0019556395613284905 0 -0.00070859453348680551 0.0021344482136878441 0 -0.00070009131110648141 0.0021235974256019335 0 -0.00068864557227458828 0.0021365078349879635 0 -0.00068712132310464044 0.0021173945963552003 0 -0.00068864557227458828 0.0021365078349879635 0 -0.00065270462270886152 0.0021409864233473712 0 -0.00068712132310464044 0.0021173945963552003 0 -0.00070009131110648141 0.0021235974256019335 0 -0.00068864557227458828 0.0021365078349879635 0 -0.00068864557227458828 0.0021365078349879635 0 -0.00069163664002356304 0.0021566837892715248 0 -0.00065270462270886152 0.0021409864233473712 0 -0.00070859453348680551 0.0021344482136878441 0 -0.00068864557227458828 0.0021365078349879635 0 -0.00069163664002356304 0.0021566837892715248 0 -0.00069163664002356304 0.0021566837892715248 0 -0.00065270462270886152 0.0021409864233473712 0 -0.00062096310698257935 0.0021758758647862811 0 -0.00084406022518288373 0.0026835234895412501 0 -0.00085966778798613733 0.002826836620750867 0 -0.00070982978259410653 0.0028190388892061695 0 -0.00068370433430592684 0.0021104206253846455 0 -0.00068712132310464044 0.0021173945963552003 0 -0.00065270462270886152 0.0021409864233473712 0 -0.00074148967562470789 0.0022404133296110751 0 -0.00075176087193083957 0.0024873015421615643 0 -0.00075176087193083957 0.0024873015421615643 0 -0.00060334791765926841 0.0025211722090877371 0 -0.00059102703187077332 0.0028681607613836634 0 -0.00048320763513278397 0.0029098339487472853 0 -0.00071031620348993183 0.0029765970494571715 0 -0.00085966778798613733 0.002826836620750867 0 -0.00070982978259410653 0.0028190388892061695 0 -0.00071031620348993183 0.0029765970494571715 0 -0.00059102703187077332 0.0028681607613836634 0 -0.00070982978259410653 0.0028190388892061695 0 -0.00071031620348993183 0.0029765970494571715 0 -0.00059426292792542337 0.0027752099116496718 0 -0.00070982978259410653 0.0028190388892061695 0 -0.00069233626964862601 0.0027019674188491212 0 -0.00059102703187077332 0.0028681607613836634 0 -0.00059426292792542337 0.0027752099116496718 0 -0.00070982978259410653 0.0028190388892061695 0 -0.00084406022518288373 0.0026835234895412501 0 -0.00069233626964862601 0.0027019674188491212 0 -0.00076827360817647238 0.0026194938892088095 0 -0.00084406022518288373 0.0026835234895412501 0 -0.00070982978259410653 0.0028190388892061695 0 -0.00069233626964862601 0.0027019674188491212 0 -0.00069233626964862601 0.0027019674188491212 0 -0.00064871241989020829 0.0026027628484885179 0 -0.00058320719987645282 0.0026850095098263165 0 -0.00059426292792542337 0.0027752099116496718 0 -0.00069233626964862601 0.0027019674188491212 0 -0.00058320719987645282 0.0026850095098263165 0 -0.00064871241989020829 0.0026027628484885179 0 -0.00056593907004469379 0.0026005479012430133 0 -0.00060041047498086075 0.00252958488566507 0 -0.00069233626964862601 0.0027019674188491212 0 -0.00064871241989020829 0.0026027628484885179 0 -0.00076827360817647238 0.0026194938892088095 0 -0.00064871241989020829 0.0026027628484885179 0 -0.00076827360817647238 0.0026194938892088095 0 -0.00068155938423365247 0.0024875634154340729 0 -0.00047943478008645219 0.002650439474916342 0 -0.00037098553762925595 0.0025990754728621814 0 -0.00049664657991133683 0.0025382181501283881 0 -0.00047943478008645219 0.002650439474916342 0 -0.00056593907004469379 0.0026005479012430133 0 -0.00049664657991133683 0.0025382181501283881 0 -0.00047943478008645219 0.002650439474916342 0 -0.00056593907004469379 0.0026005479012430133 0 -0.00058320719987645282 0.0026850095098263165 0 -0.00064871241989020829 0.0026027628484885179 0 -0.00056593907004469379 0.0026005479012430133 0 -0.00058320719987645282 0.0026850095098263165 0 -0.00059426292792542337 0.0027752099116496718 0 -0.00058320719987645282 0.0026850095098263165 0 -0.00049879365106986619 0.0027449144886063427 0 -0.00047943478008645219 0.002650439474916342 0 -0.00058320719987645282 0.0026850095098263165 0 -0.00049879365106986619 0.0027449144886063427 0 -0.00047943478008645219 0.002650439474916342 0 -0.00049879365106986619 0.0027449144886063427 0 -0.00039524155794392636 0.0027607887337534388 0 -0.00049879365106986619 0.0027449144886063427 0 -0.00049560057197773006 0.0028345574966343887 0 -0.00039524155794392636 0.0027607887337534388 0 -0.00049560057197773006 0.0028345574966343887 0 -0.00041238313529392726 0.0028732380587573655 0 -0.00039524155794392636 0.0027607887337534388 0 -0.00059426292792542337 0.0027752099116496718 0 -0.00049879365106986619 0.0027449144886063427 0 -0.00049560057197773006 0.0028345574966343887 0 -0.00059102703187077332 0.0028681607613836634 0 -0.00059426292792542337 0.0027752099116496718 0 -0.00049560057197773006 0.0028345574966343887 0 -0.00059102703187077332 0.0028681607613836634 0 -0.00049560057197773006 0.0028345574966343887 0 -0.00048320763513278397 0.0029098339487472853 0 -0.00048320763513278397 0.0029098339487472853 0 -0.00041238313529392726 0.0028732380587573655 0 -0.00038305686601851216 0.0029363249391211915 0 -0.00049560057197773006 0.0028345574966343887 0 -0.00048320763513278397 0.0029098339487472853 0 -0.00041238313529392726 0.0028732380587573655 0 -0.00041238313529392726 0.0028732380587573655 0 -0.00036044447453522163 0.0028794634094137048 0 -0.00038305686601851216 0.0029363249391211915 0 -0.00036044447453522163 0.0028794634094137048 0 -0.00038305686601851216 0.0029363249391211915 0 -0.00034361207075244283 0.0029970412942515235 0 -0.00036044447453522163 0.0028794634094137048 0 -0.0002669215044917601 0.0028043011526059981 0 -0.00034361207075244283 0.0029970412942515235 0 -0.00036044447453522163 0.0028794634094137048 0 -0.0002669215044917601 0.0028043011526059981 0 -0.00039524155794392636 0.0027607887337534388 0 -0.00041238313529392726 0.0028732380587573655 0 -0.00036044447453522163 0.0028794634094137048 0 -0.00039524155794392636 0.0027607887337534388 0 -0.00054854983765205087 0.0030057963114390848 0 -0.00026002681097394474 0.0029828194649430388 0 -0.00056472800919310875 0.0032590783429121851 0 -0.00047918688778162658 0.0030634765015057804 0 -0.00055840139604390127 0.0030552190142728655 0 -0.0002669215044917601 0.0028043011526059981 0 -7.0424147679163483e-05 0.0027595390923562941 0 -0.00034361207075244283 0.0029970412942515235 0 -0.00056472800919310875 0.0032590783429121851 0 -0.00034361207075244283 0.0029970412942515235 0 -0.00047918688778162658 0.0030634765015057804 0 -7.0424147679163483e-05 0.0027595390923562941 0 -0.00022141467179530552 0.0025775917181583021 0 -0.00029604050193135257 0.0026833431510946142 0 -0.0002669215044917601 0.0028043011526059981 0 -7.0424147679163483e-05 0.0027595390923562941 0 -0.00029604050193135257 0.0026833431510946142 0 -0.00073678499492547467 0.0028740044078446603 0 -0.00071623808106244171 0.0028971861750202292 0 -0.00074264807787061625 0.0029042036787711224 0 -0.00054854983765205087 0.0030057963114390848 0 -0.0004486009643138175 0.0027429489917367954 0 -0.00039524155794392636 0.0027607887337534388 0 -0.00029604050193135257 0.0026833431510946142 0 -0.00037098553762925595 0.0025990754728621814 0 -0.00047943478008645219 0.002650439474916342 0 -0.00039524155794392636 0.0027607887337534388 0 -0.00037098553762925595 0.0025990754728621814 0 -0.0002669215044917601 0.0028043011526059981 0 -0.00039524155794392636 0.0027607887337534388 0 -0.00029604050193135257 0.0026833431510946142 0 -0.00022141467179530552 0.0025775917181583021 0 -0.00029604050193135257 0.0026833431510946142 0 -0.00037098553762925595 0.0025990754728621814 0 -0.00022141467179530552 0.0025775917181583021 0 -0.00037098553762925595 0.0025990754728621814 0 -0.00036607434070202413 0.0024000290669906475 0 -0.00037098553762925595 0.0025990754728621814 0 -0.00036607434070202413 0.0024000290669906475 0 -0.00049664657991133683 0.0025382181501283881 0 -0.0004486009643138175 0.0027429489917367954 0 -0.00067829109218853212 0.002592153348417487 0 -0.00071623808106244171 0.0028971861750202292 0 -0.00069547094334544137 0.0029201250781031992 0 -0.00073914620542912953 0.0029338238644971639 0 -0.00071623808106244171 0.0028971861750202292 0 -0.00073914620542912953 0.0029338238644971639 0 -0.00074264807787061625 0.0029042036787711224 0 -0.00085841387628926504 0.0024086609217798733 0 -0.00082659364680134375 0.0024234780719575911 0 -0.0008476817519737673 0.0024408025698147897 0 -0.0008147165691146179 0.0024017966096466403 0 -0.00085841387628926504 0.0024086609217798733 0 -0.00082659364680134375 0.0024234780719575911 0 -0.00067829109218853212 0.002592153348417487 0 -0.00080335211465215085 0.0026434610437211879 0 -0.0008147165691146179 0.0024017966096466403 0 -0.00082659364680134375 0.0024234780719575911 0 -0.00079847835252063457 0.0024262160245610499 0 -0.00067829109218853212 0.002592153348417487 0 -0.0008424607050614148 0.0023716935196008079 0 -0.00079847835252063457 0.0024262160245610499 0 -0.00079164012794802514 0.0024302346526219776 0 -0.00078781476520661667 0.0024337711839253129 0 -0.00079133385565389406 0.0024310309438262236 0 -0.00079847835252063457 0.0024262160245610499 0 -0.00078781476520661667 0.0024337711839253129 0 -0.00079847835252063457 0.0024262160245610499 0 -0.00079469133062543039 0.0024285346041878603 0 -0.00079164012794802514 0.0024302346526219776 0 -0.00079469133062543039 0.0024285346041878603 0 -0.00079207233158940004 0.002428798955402882 0 -0.00079164012794802514 0.0024302346526219776 0 -0.00079469133062543039 0.0024285346041878603 0 -0.00079207233158940004 0.002428798955402882 0 -0.00079082071555314605 0.0024271091505816103 0 -0.00080851301788227093 0.0024270521645400104 0 -0.00079207233158940004 0.002428798955402882 0 -0.00079082071555314605 0.0024271091505816103 0 -0.00080851301788227093 0.0024270521645400104 0 -0.00079207233158940004 0.002428798955402882 0 -0.00078740742678424776 0.0024372572589308264 0 -0.00079164012794802514 0.0024302346526219776 0 -0.00078740742678424776 0.0024372572589308264 0 -0.00078781476520661667 0.0024337711839253129 0 -0.00079207233158940004 0.002428798955402882 0 -0.00079164012794802514 0.0024302346526219776 0 -0.00078740742678424776 0.0024372572589308264 0 -0.00078360000874731588 0.002474339058257669 0 -0.00068155938423365247 0.0024875634154340729 0 -0.00058705067193154988 0.0024515442680818947 0 -0.00078912235152531153 0.002473708402960473 0 -0.00066551035570664829 0.0024328123198414583 0 -0.00078360000874731588 0.002474339058257669 0 -0.00078740742678424776 0.0024372572589308264 0 -0.00078781476520661667 0.0024337711839253129 0 -0.00064871241989020829 0.0026027628484885179 0 -0.00068155938423365247 0.0024875634154340729 0 -0.00060041047498086075 0.00252958488566507 0 -0.00068155938423365247 0.0024875634154340729 0 -0.00060041047498086075 0.00252958488566507 0 -0.00058705067193154988 0.0024515442680818947 0 -0.00067829109218853212 0.002592153348417487 0 -0.00066551035570664829 0.0024328123198414583 0 -0.00056593907004469379 0.0026005479012430133 0 -0.00060041047498086075 0.00252958488566507 0 -0.00049664657991133683 0.0025382181501283881 0 -0.00036607434070202413 0.0024000290669906475 0 -0.00049664657991133683 0.0025382181501283881 0 -0.00058705067193154988 0.0024515442680818947 0 -0.00060041047498086075 0.00252958488566507 0 -0.00049664657991133683 0.0025382181501283881 0 -0.00058705067193154988 0.0024515442680818947 0 -0.00095199339932033498 0.0033997769994946092 0 -0.0009284180477848095 0.0033853191999177511 0 -0.00094518879832633691 0.0034313798128724794 0 -0.0009284180477848095 0.0033853191999177511 0 -0.00093913265773396914 0.003357643238695425 0 -0.00091683474226512463 0.003333185198359347 0 -0.00095199339932033498 0.0033997769994946092 0 -0.0009284180477848095 0.0033853191999177511 0 -0.00093913265773396914 0.003357643238695425 0 -0.00093913265773396914 0.003357643238695425 0 -0.00093040489944438932 0.0033014963234066709 0 -0.00091683474226512463 0.003333185198359347 0 -0.00093040489944438932 0.0033014963234066709 0 -0.00090632173821380147 0.0032907390673935183 0 -0.00090498946592986991 0.0032453081326751535 0 -0.00093040489944438932 0.0033014963234066709 0 -0.00091683474226512463 0.003333185198359347 0 -0.00090632173821380147 0.0032907390673935183 0 -0.00091683474226512463 0.003333185198359347 0 -0.00090632173821380147 0.0032907390673935183 0 -0.00086270795782406777 0.0033614421509166651 0 -0.00089339171417534614 0.0032423756009664901 0 -0.00086270795782406777 0.0033614421509166651 0 -0.00088513440113426717 0.0031902224848850574 0 -0.00090144557272834919 0.0033124745410765136 0 -0.00088400573865133887 0.0032028311081635803 0 -0.00090632173821380147 0.0032907390673935183 0 -0.00089339171417534614 0.0032423756009664901 0 -0.00086270795782406777 0.0033614421509166651 0 -0.00090632173821380147 0.0032907390673935183 0 -0.00089339171417534614 0.0032423756009664901 0 -0.00090498946592986991 0.0032453081326751535 0 -0.0009284180477848095 0.0033853191999177511 0 -0.00086270795782406777 0.0033614421509166651 0 -0.00091757290073913168 0.0034170902883765126 0 -0.00093070432299680603 0.0032650105080049082 0 -0.00091615437516926368 0.0032961182083340295 0 -0.00094675385871084391 0.0033193065458594971 0 -0.0009284180477848095 0.0033853191999177511 0 -0.00091683474226512463 0.003333185198359347 0 -0.00086270795782406777 0.0033614421509166651 0 -0.00093070432299680603 0.0032650105080049082 0 -0.00088692956178950918 0.0032822721484972251 0 -0.000852550686930737 0.0032513474542541321 0 -0.00093070432299680603 0.0032650105080049082 0 -0.00091615437516926368 0.0032961182083340295 0 -0.00088692956178950918 0.0032822721484972251 0 -0.00088692956178950918 0.0032822721484972251 0 -0.00082970722277899453 0.0032833810135751837 0 -0.0008951928261013637 0.0033224485881234527 0 -0.00088692956178950918 0.0032822721484972251 0 -0.000852550686930737 0.0032513474542541321 0 -0.00082970722277899453 0.0032833810135751837 0 -0.00093070432299680603 0.0032650105080049082 0 -0.00087383077777555026 0.0032198706106133499 0 -0.000852550686930737 0.0032513474542541321 0 -0.00093070432299680603 0.0032650105080049082 0 -0.00087383077777555026 0.0032198706106133499 0 -0.00088513440113426717 0.0031902224848850574 0 -0.00087383077777555026 0.0032198706106133499 0 -0.000852550686930737 0.0032513474542541321 0 -0.00080898150551564428 0.0032119570899938037 0 -0.00056472800919310875 0.0032590783429121851 0 -0.00069844522519695452 0.003107861980096726 0 -0.00055840139604390127 0.0030552190142728655 0 -0.000852550686930737 0.0032513474542541321 0 -0.00080898150551564428 0.0032119570899938037 0 -0.00080507397779050189 0.0032459682416696692 0 -0.00054854983765205087 0.0030057963114390848 0 -0.00075325524285008161 0.0031728386923634277 0 -0.00079625183567513325 0.0032487835924317073 0 -0.00080898150551564428 0.0032119570899938037 0 -0.00080507397779050189 0.0032459682416696692 0 -0.00079625183567513325 0.0032487835924317073 0 -0.00080507397779050189 0.0032459682416696692 0 -0.00081274456399705404 0.003259262671918014 0 -0.00073678499492547467 0.0028740044078446603 0 -0.00075596329711430344 0.0028903505179629333 0 -0.00074264807787061625 0.0029042036787711224 0 -0.00054854983765205087 0.0030057963114390848 0 -0.00083541639855429033 0.0031741165529779315 0 -0.00082824798145092829 0.0032591653941469317 0 -0.00083541639855429033 0.0031741165529779315 0 -0.000852550686930737 0.0032513474542541321 0 -0.00080507397779050189 0.0032459682416696692 0 -0.00082970722277899453 0.0032833810135751837 0 -0.00083541639855429033 0.0031741165529779315 0 -0.00086760087070038966 0.0031228938739265373 0 -0.00073914620542912953 0.0029338238644971639 0 -0.00074264807787061625 0.0029042036787711224 0 -0.00077102137015488069 0.0029177985443924761 0 -0.00075596329711430344 0.0028903505179629333 0 -0.00074264807787061625 0.0029042036787711224 0 -0.00077102137015488069 0.0029177985443924761 0 -0.00080335211465215085 0.0026434610437211879 0 -0.00087945697828324676 0.0029914439309556549 0 -0.00085841387628926504 0.0024086609217798733 0 -0.00091017204695793429 0.0024192623954095091 0 -0.0008784252773833002 0.0024348437759989456 0 -0.00073914620542912953 0.0029338238644971639 0 -0.0007861518896829584 0.0029473779100011172 0 -0.00077102137015488069 0.0029177985443924761 0 -0.00097606436874729616 0.0033407479225258255 0 -0.00097689568825037334 0.0033246291331953553 0 -0.00095700814908235342 0.0033123845760825764 0 -0.00087945697828324676 0.0029914439309556549 0 -0.00086760087070038966 0.0031228938739265373 0 -0.00087945697828324676 0.0029914439309556549 0 -0.0010524744432539625 0.0032470557890018829 0 -0.00097606436874729616 0.0033407479225258255 0 -0.00098759670894319807 0.0033334975293335704 0 -0.0010066288785988934 0.0033355142335885404 0 -0.00097606436874729616 0.0033407479225258255 0 -0.00098759670894319807 0.0033334975293335704 0 -0.00097689568825037334 0.0033246291331953553 0 -0.00098759670894319807 0.0033334975293335704 0 -0.00097689568825037334 0.0033246291331953553 0 -0.00098582923781981129 0.0033357040841623968 0 -0.0008951928261013637 0.0033224485881234527 0 -0.00094675385871084391 0.0033193065458594971 0 -0.00098582923781981129 0.0033357040841623968 0 -0.00093089452751202585 0.0032620682177557049 0 -0.00095700814908235342 0.0033123845760825764 0 -0.00097256138002765186 0.0033023522260609917 0 -0.00094627641340800425 0.0033226101070327838 0 -0.00096938738528694432 0.0033281500897175439 0 -0.00097689568825037334 0.0033246291331953553 0 -0.00097256138002765186 0.0033023522260609917 0 -0.00098582923781981129 0.0033357040841623968 0 -0.00097689568825037334 0.0033246291331953553 0 -0.00095700814908235342 0.0033123845760825764 0 -0.00097256138002765186 0.0033023522260609917 0 -0.00083541639855429033 0.0031741165529779315 0 -0.00094627641340800425 0.0033226101070327838 0 -0.00091615437516926368 0.0032961182083340295 0 -0.0008951928261013637 0.0033224485881234527 0 -0.00094675385871084391 0.0033193065458594971 0 -0.00091615437516926368 0.0032961182083340295 0 -0.00088692956178950918 0.0032822721484972251 0 -0.0008951928261013637 0.0033224485881234527 0 -0.00090144557272834919 0.0033124745410765136 0 -0.00095346885629950403 0.0033945385019199968 0 -0.00093070432299680603 0.0032650105080049082 0 -0.00098562957733218642 0.0033349060557310564 0 -0.00094675385871084391 0.0033193065458594971 0 -0.00086270795782406777 0.0033614421509166651 0 -0.00091861670042341277 0.0034592382205570799 0 -0.00091757290073913168 0.0034170902883765126 0 -0.00091861670042341277 0.0034592382205570799 0 -0.00093255321713190504 0.0034450384973016613 0 -0.00091757290073913168 0.0034170902883765126 0 -0.00098562957733218642 0.0033349060557310564 0 -0.00094675385871084391 0.0033193065458594971 0 -0.00098582923781981129 0.0033357040841623968 0 -0.00095346885629950403 0.0033945385019199968 0 -0.0010205297870384982 0.0033941636181227266 0 -0.00091861670042341277 0.0034592382205570799 0 -0.0009513985998716774 0.003464452714110812 0 -0.0010102520532954534 0.003467830046118555 0 -0.00098562957733218642 0.0033349060557310564 0 -0.00098582923781981129 0.0033357040841623968 0 -0.0010066288785988934 0.0033355142335885404 0 -0.00098562957733218642 0.0033349060557310564 0 -0.0010066288785988934 0.0033355142335885404 0 -0.0010296089591934417 0.0033319816324370389 0 -0.00098759670894319807 0.0033334975293335704 0 -0.00098582923781981129 0.0033357040841623968 0 -0.0010066288785988934 0.0033355142335885404 0 -0.00091861670042341277 0.0034592382205570799 0 -0.0009513985998716774 0.003464452714110812 0 -0.00093255321713190504 0.0034450384973016613 0 -0.0009513985998716774 0.003464452714110812 0 -0.00096502904564551423 0.0034703823583472145 0 -0.00094797192480504204 0.0034544376447847931 0 -0.0009513985998716774 0.003464452714110812 0 -0.00096502904564551423 0.0034703823583472145 0 -0.0010102520532954534 0.003467830046118555 0 -0.00095651680889927387 0.0034583207830411978 0 -0.00096502904564551423 0.0034703823583472145 0 -0.00094797192480504204 0.0034544376447847931 0 -0.00095651680889927387 0.0034583207830411978 0 -0.00094797192480504204 0.0034544376447847931 0 -0.00094518879832633691 0.0034313798128724794 0 -0.00093255321713190504 0.0034450384973016613 0 -0.00094797192480504204 0.0034544376447847931 0 -0.00094518879832633691 0.0034313798128724794 0 -0.0009513985998716774 0.003464452714110812 0 -0.00093255321713190504 0.0034450384973016613 0 -0.00094797192480504204 0.0034544376447847931 0 -0.0009284180477848095 0.0033853191999177511 0 -0.00091757290073913168 0.0034170902883765126 0 -0.00094518879832633691 0.0034313798128724794 0 -0.00093255321713190504 0.0034450384973016613 0 -0.00091757290073913168 0.0034170902883765126 0 -0.00094518879832633691 0.0034313798128724794 0 -0.0010051733001174607 0.0034134353791483232 0 -0.0010102520532954534 0.003467830046118555 0 -0.0010744214527704111 0.0033157186204904837 0 -0.00098222652739851321 0.0033371223774550166 0 -0.0010051733001174607 0.0034134353791483232 0 -0.0010744214527704111 0.0033157186204904837 0 -0.0010205297870384982 0.0033941636181227266 0 -0.0010621812541860031 0.003321165288738792 0 -0.0010051733001174607 0.0034134353791483232 0 -0.0009798362118911344 0.0034674952477435133 0 -0.0010102520532954534 0.003467830046118555 0 -0.00096502904564551423 0.0034703823583472145 0 -0.0009798362118911344 0.0034674952477435133 0 -0.0010102520532954534 0.003467830046118555 0 -0.0010066288785988934 0.0033355142335885404 0 -0.0010296089591934417 0.0033319816324370389 0 -0.0010367040029685257 0.0033294729152144949 0 -0.0010057957458896245 0.0033341363222888095 0 -0.0010066288785988934 0.0033355142335885404 0 -0.0010367040029685257 0.0033294729152144949 0 -0.00093574312214154108 0.0024594236358869664 0 -0.00093462644809860578 0.0025011531092452642 0 -0.00096795633309537351 0.0025131098729928203 0 -0.0010296089591934417 0.0033319816324370389 0 -0.0010367040029685257 0.0033294729152144949 0 -0.0010744214527704111 0.0033157186204904837 0 -0.0010367040029685257 0.0033294729152144949 0 -0.0010980673347724421 0.0033072138288019041 0 -0.0010744214527704111 0.0033157186204904837 0 -0.00098998176852272942 0.0028748570381826534 0 -0.0010325592073984287 0.0029054150802545853 0 -0.00093574312214154108 0.0024594236358869664 0 -0.00091714337215494178 0.0024762776700824134 0 -0.00093462644809860578 0.0025011531092452642 0 -0.00091714337215494178 0.0024762776700824134 0 -0.00090727495144023119 0.0025001886427009441 0 -0.00093462644809860578 0.0025011531092452642 0 -0.00089712293096576952 0.0024734787107655479 0 -0.00088071470113134211 0.0024886000295277857 0 -0.00090727495144023119 0.0025001886427009441 0 -0.00091714337215494178 0.0024762776700824134 0 -0.00089712293096576952 0.0024734787107655479 0 -0.00090727495144023119 0.0025001886427009441 0 -0.00091714337215494178 0.0024762776700824134 0 -0.00089712293096576952 0.0024734787107655479 0 -0.00090313564993327517 0.002448775181703357 0 -0.00093574312214154108 0.0024594236358869664 0 -0.00091714337215494178 0.0024762776700824134 0 -0.00090313564993327517 0.002448775181703357 0 -0.00091017204695793429 0.0024192623954095091 0 -0.00090313564993327517 0.002448775181703357 0 -0.0008784252773833002 0.0024348437759989456 0 -0.00087945697828324676 0.0029914439309556549 0 -0.00098998176852272942 0.0028748570381826534 0 -0.00091017204695793429 0.0024192623954095091 0 -0.00093574312214154108 0.0024594236358869664 0 -0.00090313564993327517 0.002448775181703357 0 -0.00085841387628926504 0.0024086609217798733 0 -0.0008784252773833002 0.0024348437759989456 0 -0.0008476817519737673 0.0024408025698147897 0 -0.0008784252773833002 0.0024348437759989456 0 -0.00087560231456320443 0.0024574936160572827 0 -0.0008476817519737673 0.0024408025698147897 0 -0.00090313564993327517 0.002448775181703357 0 -0.0008784252773833002 0.0024348437759989456 0 -0.00087560231456320443 0.0024574936160572827 0 -0.00089712293096576952 0.0024734787107655479 0 -0.00090313564993327517 0.002448775181703357 0 -0.00087560231456320443 0.0024574936160572827 0 -0.00089712293096576952 0.0024734787107655479 0 -0.00087560231456320443 0.0024574936160572827 0 -0.00088071470113134211 0.0024886000295277857 0 -0.00087560231456320443 0.0024574936160572827 0 -0.00088071470113134211 0.0024886000295277857 0 -0.00085473631247753358 0.0024697360240323457 0 -0.00088071470113134211 0.0024886000295277857 0 -0.00086326192116724257 0.0025093699514679791 0 -0.00085473631247753358 0.0024697360240323457 0 -0.00088071470113134211 0.0024886000295277857 0 -0.00089139189821415882 0.0025252929811179596 0 -0.00086326192116724257 0.0025093699514679791 0 -0.00089139189821415882 0.0025252929811179596 0 -0.00086326192116724257 0.0025093699514679791 0 -0.00087632113059204109 0.0025573588348074047 0 -0.00089139189821415882 0.0025252929811179596 0 -0.00091062698960933219 0.0025773635839544434 0 -0.0009264513599691759 0.0025349688289165368 0 -0.00089139189821415882 0.0025252929811179596 0 -0.00087632113059204109 0.0025573588348074047 0 -0.00091062698960933219 0.0025773635839544434 0 -0.00089139189821415882 0.0025252929811179596 0 -0.0009264513599691759 0.0025349688289165368 0 -0.00090727495144023119 0.0025001886427009441 0 -0.00088071470113134211 0.0024886000295277857 0 -0.00089139189821415882 0.0025252929811179596 0 -0.00090727495144023119 0.0025001886427009441 0 -0.0009264513599691759 0.0025349688289165368 0 -0.00090727495144023119 0.0025001886427009441 0 -0.00093462644809860578 0.0025011531092452642 0 -0.0009264513599691759 0.0025349688289165368 0 -0.00096795633309537351 0.0025131098729928203 0 -0.00094940209088672102 0.0025774838853179619 0 -0.0009264513599691759 0.0025349688289165368 0 -0.00093462644809860578 0.0025011531092452642 0 -0.00096795633309537351 0.0025131098729928203 0 -0.00091062698960933219 0.0025773635839544434 0 -0.0009264513599691759 0.0025349688289165368 0 -0.00094940209088672102 0.0025774838853179619 0 -0.00096795633309537351 0.0025131098729928203 0 -0.00094940209088672102 0.0025774838853179619 0 -0.00099720258251134947 0.0026004087832078942 0 -0.00096269851717609026 0.003051211239908788 0 -0.0011284031067814579 0.003097325037000324 0 -0.0010651370968766047 0.0032194718381114893 0 -0.0010980673347724421 0.0033072138288019041 0 -0.0011284031067814579 0.003097325037000324 0 -0.0010651370968766047 0.0032194718381114893 0 -0.0010325592073984287 0.0029054150802545853 0 -0.0010515553161727521 0.0028431294787964537 0 -0.00098222652739851321 0.0033371223774550166 0 -0.0010651370968766047 0.0032194718381114893 0 -0.0010744214527704111 0.0033157186204904837 0 -0.0010980673347724421 0.0033072138288019041 0 -0.0010651370968766047 0.0032194718381114893 0 -0.0010744214527704111 0.0033157186204904837 0 -0.00080943674935824621 0.0024405867746059746 0 -0.00080893347960236364 0.0024352038042301728 0 -0.00080346115519552212 0.0024365240939904086 0 -0.00080943674935824621 0.0024405867746059746 0 -0.00080893347960236364 0.0024352038042301728 0 -0.00081088259545331726 0.0024183666807990004 0 -0.00080449804053210876 0.0022553852900727999 0 -0.00081088259545331726 0.0024183666807990004 0 -0.00075493015511603971 0.0023517852639031861 0 -0.00080500667507205493 0.002347782651535187 0 -0.00081267480077243663 0.0024009417639969128 0 -0.00070364524393772389 0.0022205820720788997 0 -0.00080449804053210876 0.0022553852900727999 0 -0.00075493015511603971 0.0023517852639031861 0 -0.00080893347960236364 0.0024352038042301728 0 -0.00080963031317784595 0.0024369979684605888 0 -0.00080346115519552212 0.0024365240939904086 0 -0.00080500667507205493 0.002347782651535187 0 -0.00083773011173592354 0.0022152403526622031 0 -0.00070364524393772389 0.0022205820720788997 0 -0.00080449804053210876 0.0022553852900727999 0 -0.00076264049581920381 0.0021020145240205467 0 -0.00079469133062543039 0.0024285346041878603 0 -0.00079082071555314605 0.0024271091505816103 0 -0.00080346115519552212 0.0024365240939904086 0 -0.00083773011173592354 0.0022152403526622031 0 -0.00081765520045372179 0.0024477550115914229 0 -0.00079847835252063457 0.0024262160245610499 0 -0.00080346115519552212 0.0024365240939904086 0 -0.00081691155847485471 0.0024378515333039288 0 -0.00079847835252063457 0.0024262160245610499 0 -0.00079469133062543039 0.0024285346041878603 0 -0.00080346115519552212 0.0024365240939904086 0 -0.00080943674935824621 0.0024405867746059746 0 -0.00080346115519552212 0.0024365240939904086 0 -0.00081691155847485471 0.0024378515333039288 0 -0.00081691155847485471 0.0024378515333039288 0 -0.0008476817519737673 0.0024408025698147897 0 -0.00082947934588302984 0.0024548072167566389 0 -0.00082659364680134375 0.0024234780719575911 0 -0.00081691155847485471 0.0024378515333039288 0 -0.0008476817519737673 0.0024408025698147897 0 -0.00082659364680134375 0.0024234780719575911 0 -0.00079847835252063457 0.0024262160245610499 0 -0.00081691155847485471 0.0024378515333039288 0 -0.00087560231456320443 0.0024574936160572827 0 -0.0008476817519737673 0.0024408025698147897 0 -0.00085473631247753358 0.0024697360240323457 0 -0.0008476817519737673 0.0024408025698147897 0 -0.00085473631247753358 0.0024697360240323457 0 -0.00082947934588302984 0.0024548072167566389 0 -0.00085473631247753358 0.0024697360240323457 0 -0.00082947934588302984 0.0024548072167566389 0 -0.00083981194251378413 0.0024784617323124676 0 -0.00080943674935824621 0.0024405867746059746 0 -0.00081691155847485471 0.0024378515333039288 0 -0.00082947934588302984 0.0024548072167566389 0 -0.00080943674935824621 0.0024405867746059746 0 -0.00082947934588302984 0.0024548072167566389 0 -0.00081942893402479162 0.0024544281902160133 0 -0.00082947934588302984 0.0024548072167566389 0 -0.00081942893402479162 0.0024544281902160133 0 -0.00083981194251378413 0.0024784617323124676 0 -0.00081942893402479162 0.0024544281902160133 0 -0.00083981194251378413 0.0024784617323124676 0 -0.00082806168184105719 0.0024893655828308468 0 -0.00081942893402479162 0.0024544281902160133 0 -0.00082806168184105719 0.0024893655828308468 0 -0.00080727519078340208 0.0024733905015639364 0 -0.00086326192116724257 0.0025093699514679791 0 -0.00085473631247753358 0.0024697360240323457 0 -0.00083981194251378413 0.0024784617323124676 0 -0.00086326192116724257 0.0025093699514679791 0 -0.00087632113059204109 0.0025573588348074047 0 -0.00084781282983503584 0.0025320480299389431 0 -0.00086326192116724257 0.0025093699514679791 0 -0.00083981194251378413 0.0024784617323124676 0 -0.00084781282983503584 0.0025320480299389431 0 -0.00083981194251378413 0.0024784617323124676 0 -0.00084781282983503584 0.0025320480299389431 0 -0.00082806168184105719 0.0024893655828308468 0 -0.00084781282983503584 0.0025320480299389431 0 -0.00082806168184105719 0.0024893655828308468 0 -0.00082523291578741017 0.0025233292273725881 0 -0.00082806168184105719 0.0024893655828308468 0 -0.00080727519078340208 0.0024733905015639364 0 -0.00082523291578741017 0.0025233292273725881 0 -0.00080727519078340208 0.0024733905015639364 0 -0.00079748318655039024 0.0025199026458570723 0 -0.00082523291578741017 0.0025233292273725881 0 -0.00080727519078340208 0.0024733905015639364 0 -0.00075926727315089578 0.0024979485796107277 0 -0.00079748318655039024 0.0025199026458570723 0 -0.00081942893402479162 0.0024544281902160133 0 -0.00080727519078340208 0.0024733905015639364 0 -0.00081088259545331726 0.0024183666807990004 0 -0.00080727519078340208 0.0024733905015639364 0 -0.00081088259545331726 0.0024183666807990004 0 -0.00076531621564978225 0.0024438656167782252 0 -0.00080943674935824621 0.0024405867746059746 0 -0.00081942893402479162 0.0024544281902160133 0 -0.00081088259545331726 0.0024183666807990004 0 -0.0006608008911575448 0.0023528120357465283 0 -0.00075493015511603971 0.0023517852639031861 0 -0.00076531621564978225 0.0024438656167782252 0 -0.00081088259545331726 0.0024183666807990004 0 -0.00075493015511603971 0.0023517852639031861 0 -0.00076531621564978225 0.0024438656167782252 0 -0.00068536745655879846 0.0024608967087180258 0 -0.00076531621564978225 0.0024438656167782252 0 -0.00075926727315089578 0.0024979485796107277 0 -0.00068536745655879846 0.0024608967087180258 0 -0.00075926727315089578 0.0024979485796107277 0 -0.00072166482940732159 0.0025235900290955845 0 -0.00080727519078340208 0.0024733905015639364 0 -0.00076531621564978225 0.0024438656167782252 0 -0.00075926727315089578 0.0024979485796107277 0 -0.00075926727315089578 0.0024979485796107277 0 -0.0007797926463604945 0.0025475941193245626 0 -0.00079748318655039024 0.0025199026458570723 0 -0.00075926727315089578 0.0024979485796107277 0 -0.0007797926463604945 0.0025475941193245626 0 -0.00072166482940732159 0.0025235900290955845 0 -0.0007797926463604945 0.0025475941193245626 0 -0.00072166482940732159 0.0025235900290955845 0 -0.00073718257384932458 0.0025734821881299237 0 -0.0007797926463604945 0.0025475941193245626 0 -0.00081137452720969735 0.0025785273860804707 0 -0.00073718257384932458 0.0025734821881299237 0 -0.0007797926463604945 0.0025475941193245626 0 -0.00081992918209004785 0.0025584960250121238 0 -0.00081137452720969735 0.0025785273860804707 0 -0.00079748318655039024 0.0025199026458570723 0 -0.00082523291578741017 0.0025233292273725881 0 -0.00081992918209004785 0.0025584960250121238 0 -0.0007797926463604945 0.0025475941193245626 0 -0.00079748318655039024 0.0025199026458570723 0 -0.00081992918209004785 0.0025584960250121238 0 -0.00082523291578741017 0.0025233292273725881 0 -0.0008404652122204672 0.0025618973106459864 0 -0.00081992918209004785 0.0025584960250121238 0 -0.00084781282983503584 0.0025320480299389431 0 -0.00082523291578741017 0.0025233292273725881 0 -0.0008404652122204672 0.0025618973106459864 0 -0.00087632113059204109 0.0025573588348074047 0 -0.00084781282983503584 0.0025320480299389431 0 -0.00085972956046595321 0.0025860108311558474 0 -0.00084781282983503584 0.0025320480299389431 0 -0.0008404652122204672 0.0025618973106459864 0 -0.00085972956046595321 0.0025860108311558474 0 -0.0008404652122204672 0.0025618973106459864 0 -0.00085972956046595321 0.0025860108311558474 0 -0.00084294881941075544 0.0025937904418356717 0 -0.00085972956046595321 0.0025860108311558474 0 -0.00084294881941075544 0.0025937904418356717 0 -0.00085166781078102583 0.0026275003013757547 0 -0.00081992918209004785 0.0025584960250121238 0 -0.00084294881941075544 0.0025937904418356717 0 -0.00081137452720969735 0.0025785273860804707 0 -0.0008404652122204672 0.0025618973106459864 0 -0.00081992918209004785 0.0025584960250121238 0 -0.00084294881941075544 0.0025937904418356717 0 -0.00084294881941075544 0.0025937904418356717 0 -0.00083654949328508413 0.0025863291142749385 0 -0.00081137452720969735 0.0025785273860804707 0 -0.00084294881941075544 0.0025937904418356717 0 -0.00084776729814695626 0.0025850969466426261 0 -0.00083654949328508413 0.0025863291142749385 0 -0.00084294881941075544 0.0025937904418356717 0 -0.00084776729814695626 0.0025850969466426261 0 -0.00085166781078102583 0.0026275003013757547 0 -0.00084776729814695626 0.0025850969466426261 0 -0.00083654949328508413 0.0025863291142749385 0 -0.00085796898315620203 0.0025598861668877653 0 -0.00083654949328508413 0.0025863291142749385 0 -0.00081016173459679127 0.002588136390634716 0 -0.00085796898315620203 0.0025598861668877653 0 -0.00080593453889298515 0.0015213499512705044 0 -0.00090748402577294071 0.0015930559878042918 0 -0.00080319951611415076 0.00044918966297040076 0 -0.00060519719788266308 0.00039108647913220295 0 -0.00063903915495681592 0.00021963799199889932 0 -0.00081016173459679127 0.002588136390634716 0 -0.00081137452720969735 0.0025785273860804707 0 -0.00073718257384932458 0.0025734821881299237 0 -0.00080593453889298515 0.0015213499512705044 0 -0.00068570870029856506 0.001395769966791925 0 -0.00083654949328508413 0.0025863291142749385 0 -0.00081016173459679127 0.002588136390634716 0 -0.00081137452720969735 0.0025785273860804707 0 -0.0010109586516933019 0.0027671272829571038 0 -0.00098405504546271016 0.0027017816803672529 0 -0.0009504155054785733 0.0026611478383354536 0 -0.0010109586516933019 0.0027671272829571038 0 -0.00099720258251134947 0.0026004087832078942 0 -0.0009504155054785733 0.0026611478383354536 0 -0.0010159869444409774 0.0027684435826673967 0 -0.0010515553161727521 0.0028431294787964537 0 -0.00091062698960933219 0.0025773635839544434 0 -0.00094940209088672102 0.0025774838853179619 0 -0.0009504155054785733 0.0026611478383354536 0 -0.00094940209088672102 0.0025774838853179619 0 -0.00099720258251134947 0.0026004087832078942 0 -0.0009504155054785733 0.0026611478383354536 0 -0.0009504155054785733 0.0026611478383354536 0 -0.00091407512910526454 0.0026455790387039367 0 -0.00095785126405117742 0.0026895333195285074 0 -0.00098405504546271016 0.0027017816803672529 0 -0.0009504155054785733 0.0026611478383354536 0 -0.00095785126405117742 0.0026895333195285074 0 -0.00089191588210351769 0.0026107413400805091 0 -0.00091407512910526454 0.0026455790387039367 0 -0.00085166781078102583 0.0026275003013757547 0 -0.0009504155054785733 0.0026611478383354536 0 -0.00089191588210351769 0.0026107413400805091 0 -0.00091407512910526454 0.0026455790387039367 0 -0.00087632113059204109 0.0025573588348074047 0 -0.00091062698960933219 0.0025773635839544434 0 -0.00089191588210351769 0.0026107413400805091 0 -0.00091062698960933219 0.0025773635839544434 0 -0.0009504155054785733 0.0026611478383354536 0 -0.00089191588210351769 0.0026107413400805091 0 -0.00087632113059204109 0.0025573588348074047 0 -0.00085972956046595321 0.0025860108311558474 0 -0.00089191588210351769 0.0026107413400805091 0 -0.00085972956046595321 0.0025860108311558474 0 -0.00089191588210351769 0.0026107413400805091 0 -0.00085166781078102583 0.0026275003013757547 0 -0.00084776729814695626 0.0025850969466426261 0 -0.00085166781078102583 0.0026275003013757547 0 -0.00081969324555999327 0.002579482516194912 0 -0.00081969324555999327 0.002579482516194912 0 -0.00076985849336079514 0.00261886471972873 0 -0.00078030961358771555 0.0025737078917974095 0 -0.00085166781078102583 0.0026275003013757547 0 -0.00081969324555999327 0.002579482516194912 0 -0.00076985849336079514 0.00261886471972873 0 -0.00085684833563948095 0.0026329348443283186 0 -0.0008609564820849186 0.0026498966141582591 0 -0.00091407512910526454 0.0026455790387039367 0 -0.00085166781078102583 0.0026275003013757547 0 -0.00095785126405117742 0.0026895333195285074 0 -0.00076985849336079514 0.00261886471972873 0 -0.00075771743517112254 0.0025866963650623114 0 -0.00073573479342376466 0.0025931844602551527 0 -0.00076985849336079514 0.00261886471972873 0 -0.00075771743517112254 0.0025866963650623114 0 -0.00078030961358771555 0.0025737078917974095 0 -0.00071029528149520876 0.0026119881936948201 0 -0.00076985849336079514 0.00261886471972873 0 -0.00073573479342376466 0.0025931844602551527 0 -0.00069777231995855633 0.0025854025342162911 0 -0.00073573479342376466 0.0025931844602551527 0 -0.00074554471111743274 0.0025619822997802418 0 -0.00075771743517112254 0.0025866963650623114 0 -0.00073573479342376466 0.0025931844602551527 0 -0.00074554471111743274 0.0025619822997802418 0 -0.00084650232345196232 0.0026336193594405722 0 -0.0008609564820849186 0.0026498966141582591 0 -0.00096573050556133838 0.0026545006020889973 0 -0.00098405504546271016 0.0027017816803672529 0 -0.00095785126405117742 0.0026895333195285074 0 -0.00058520116699725287 0.0024686073050063212 0 -0.00063280042245818344 0.0024279653076099252 0 -0.00057468673347841443 0.0024150772818785533 0 -0.00054608412672364011 0.0024268086824471543 0 -0.00058520116699725287 0.0024686073050063212 0 -0.00057468673347841443 0.0024150772818785533 0 -0.0006151481866477303 0.002558905651547701 0 -0.00071285001484324882 0.0025202242327606629 0 -0.00060249034254591157 0.0024728076106183983 0 -0.0005679042680476772 0.0025265500717349576 0 -0.00065763695000740029 0.0024835163603537471 0 -0.00060249034254591157 0.0024728076106183983 0 -0.00065039917144905956 0.0024443809693696552 0 -0.00065763695000740029 0.0024835163603537471 0 -0.00075771743517112254 0.0025866963650623114 0 -0.00074554471111743274 0.0025619822997802418 0 -0.00078030961358771555 0.0025737078917974095 0 -0.00071285001484324882 0.0025202242327606629 0 -0.000728096736032914 0.002492862684431101 0 -0.00065039917144905956 0.0024443809693696552 0 -0.00065763695000740029 0.0024835163603537471 0 -0.00074390329208549974 0.0024435984711559861 0 -0.00074554471111743274 0.0025619822997802418 0 -0.00078030961358771555 0.0025737078917974095 0 -0.00079399378127361481 0.0025408772500615925 0 -0.00061582139248393306 0.0024542745555002567 0 -0.000728096736032914 0.002492862684431101 0 -0.00058520116699725287 0.0024686073050063212 0 -0.00063280042245818344 0.0024279653076099252 0 -0.0006797575793831953 0.0024918348161102185 0 -0.00063280042245818344 0.0024279653076099252 0 -0.00068302080659102856 0.0024375151132582178 0 -0.0006797575793831953 0.0024918348161102185 0 -0.00068302080659102856 0.0024375151132582178 0 -0.00072828672429975914 0.0024890065666316307 0 -0.00072982104345266569 0.0024303331475076075 0 -0.00068302080659102856 0.0024375151132582178 0 -0.00072828672429975914 0.0024890065666316307 0 -0.0006797575793831953 0.0024918348161102185 0 -0.00070886517254496154 0.0024964309035228442 0 -0.000728096736032914 0.002492862684431101 0 -0.00081969324555999327 0.002579482516194912 0 -0.00078030961358771555 0.0025737078917974095 0 -0.00080014094296560758 0.0025603370480172687 0 -0.00078030961358771555 0.0025737078917974095 0 -0.00079399378127361481 0.0025408772500615925 0 -0.00080014094296560758 0.0025603370480172687 0 -0.00081969324555999327 0.002579482516194912 0 -0.00080014094296560758 0.0025603370480172687 0 -0.00081189291971537269 0.0025540552144930214 0 -0.00079399378127361481 0.0025408772500615925 0 -0.00080014094296560758 0.0025603370480172687 0 -0.00081189291971537269 0.0025540552144930214 0 -0.00084776729814695626 0.0025850969466426261 0 -0.00081969324555999327 0.002579482516194912 0 -0.00082940328938854843 0.0025598437942219391 0 -0.00079399378127361481 0.0025408772500615925 0 -0.00081189291971537269 0.0025540552144930214 0 -0.00082255777479760804 0.0025315248920090849 0 -0.00081969324555999327 0.002579482516194912 0 -0.00081189291971537269 0.0025540552144930214 0 -0.00082940328938854843 0.0025598437942219391 0 -0.00081189291971537269 0.0025540552144930214 0 -0.00082940328938854843 0.0025598437942219391 0 -0.00082255777479760804 0.0025315248920090849 0 -0.000728096736032914 0.002492862684431101 0 -0.00081800663874487874 0.0025368706362051438 0 -0.00072828672429975914 0.0024890065666316307 0 -0.00065962153494509678 0.0025149360772478806 0 -0.00082255777479760804 0.0025315248920090849 0 -0.00072828672429975914 0.0024890065666316307 0 -0.00082255777479760804 0.0025315248920090849 0 -0.00078404166910273282 0.0024744756569067684 0 -0.00072828672429975914 0.0024890065666316307 0 -0.00078404166910273282 0.0024744756569067684 0 -0.00072982104345266569 0.0024303331475076075 0 -0.00078404166910273282 0.0024744756569067684 0 -0.00082297877685324171 0.0024302203950811053 0 -0.00084785041529778307 0.0024937815205352287 0 -0.00082255777479760804 0.0025315248920090849 0 -0.00078404166910273282 0.0024744756569067684 0 -0.00084785041529778307 0.0024937815205352287 0 -0.00077726175686855861 0.0024027140856763838 0 -0.00068744133158759279 0.0023582469215378916 0 -0.00083361674581410071 0.0023110035486883854 0 -0.00078404166910273282 0.0024744756569067684 0 -0.00082297877685324171 0.0024302203950811053 0 -0.00077726175686855861 0.0024027140856763838 0 -0.00082297877685324171 0.0024302203950811053 0 -0.00077726175686855861 0.0024027140856763838 0 -0.00083569273361375109 0.0023775532365282893 0 -0.00078404166910273282 0.0024744756569067684 0 -0.00077726175686855861 0.0024027140856763838 0 -0.00072982104345266569 0.0024303331475076075 0 -0.00077726175686855861 0.0024027140856763838 0 -0.00083569273361375109 0.0023775532365282893 0 -0.00083361674581410071 0.0023110035486883854 0 -0.00078083561911055212 0.0022469668521273925 0 -0.00083361674581410071 0.0023110035486883854 0 -0.00088047423094667749 0.0022908019181516557 0 -0.00070535216627672375 0.0023289878897019651 0 -0.00082778158386502174 0.0023122611494831367 0 -0.00078083561911055212 0.0022469668521273925 0 -0.00088047423094667749 0.0022908019181516557 0 -0.00079050510666321802 0.0021622773729586611 0 -0.00078083561911055212 0.0022469668521273925 0 -0.00071383054429453971 0.0023000409039669492 0 -0.00083361674581410071 0.0023110035486883854 0 -0.00078083561911055212 0.0022469668521273925 0 -0.00073016040166892792 0.0022480961718609441 0 -0.00075731884864243344 0.0021892806849888053 0 -0.00078083561911055212 0.0022469668521273925 0 -0.00073016040166892792 0.0022480961718609441 0 -0.00071383054429453971 0.0023000409039669492 0 -0.00073016040166892792 0.0022480961718609441 0 -0.00071383054429453971 0.0023000409039669492 0 -0.00068258123727086434 0.0022379095552169008 0 -0.00068302080659102856 0.0024375151132582178 0 -0.00068744133158759279 0.0023582469215378916 0 -0.00072982104345266569 0.0024303331475076075 0 -0.00063280042245818344 0.0024279653076099252 0 -0.00068302080659102856 0.0024375151132582178 0 -0.00068744133158759279 0.0023582469215378916 0 -0.00077726175686855861 0.0024027140856763838 0 -0.00068744133158759279 0.0023582469215378916 0 -0.00072982104345266569 0.0024303331475076075 0 -0.00063280042245818344 0.0024279653076099252 0 -0.00068744133158759279 0.0023582469215378916 0 -0.00059565224470661685 0.0023762339186147439 0 -0.00063280042245818344 0.0024279653076099252 0 -0.00059565224470661685 0.0023762339186147439 0 -0.00057468673347841443 0.0024150772818785533 0 -0.00070535216627672375 0.0023289878897019651 0 -0.00061002557261646308 0.0023460828091108267 0 -0.00068258123727086434 0.0022379095552169008 0 -0.00062615925653289632 0.0023164767171785388 0 -0.0006204436567001047 0.0022313470478568759 0 -0.00071383054429453971 0.0023000409039669492 0 -0.00068258123727086434 0.0022379095552169008 0 -0.00062615925653289632 0.0023164767171785388 0 -0.00055430592739997328 0.0022616885831857332 0 -0.00062615925653289632 0.0023164767171785388 0 -0.0006204436567001047 0.0022313470478568759 0 -0.00052701014387058597 0.002359180400791386 0 -0.00061002557261646308 0.0023460828091108267 0 -0.00052009585315088635 0.0023782843025918635 0 -0.00059565224470661685 0.0023762339186147439 0 -0.00057468673347841443 0.0024150772818785533 0 -0.00092406845053746953 0.00085673650825727316 0 -0.00076695989963771849 0.00072642566268616706 0 -0.00095799918880986636 0.00068422140262784723 0 -0.00076695989963771849 0.00072642566268616706 0 -0.00067921919028673125 0.0008837003688512145 0 -0.00059211839120528408 0.00062010909024726992 0 -0.00092406845053746953 0.00085673650825727316 0 -0.00076695989963771849 0.00072642566268616706 0 -0.00067921919028673125 0.0008837003688512145 0 -0.00080319951611415076 0.00044918966297040076 0 -0.00076695989963771849 0.00072642566268616706 0 -0.00059211839120528408 0.00062010909024726992 0 -0.00080319951611415076 0.00044918966297040076 0 -0.00076695989963771849 0.00072642566268616706 0 -0.00095799918880986636 0.00068422140262784723 0 -0.00084776729814695626 0.0025850969466426261 0 -0.00085796898315620203 0.0025598861668877653 0 -0.000851047857994668 0.0025417461150168347 0 -0.00084776729814695626 0.0025850969466426261 0 -0.00082940328938854843 0.0025598437942219391 0 -0.000851047857994668 0.0025417461150168347 0 -0.00082940328938854843 0.0025598437942219391 0 -0.00082255777479760804 0.0025315248920090849 0 -0.000851047857994668 0.0025417461150168347 0 -0.000851047857994668 0.0025417461150168347 0 -0.00084785041529778307 0.0024937815205352287 0 -0.00086502581266004511 0.0025003887970180632 0 -0.00082255777479760804 0.0025315248920090849 0 -0.000851047857994668 0.0025417461150168347 0 -0.00084785041529778307 0.0024937815205352287 0 -0.00077898495427400837 0.0025060159410537162 0 -0.00093197176575858195 0.0018602367849930794 0 -0.00092406845053746953 0.00085673650825727316 0 -0.00095799918880986636 0.00068422140262784723 0 -0.0011090259154143511 0.00092122624273074396 0 -0.00090748402577294071 0.0015930559878042918 0 -0.00093197176575858195 0.0018602367849930794 0 -0.00085796898315620203 0.0025598861668877653 0 -0.000851047857994668 0.0025417461150168347 0 -0.00086502581266004511 0.0025003887970180632 0 -0.00071059476796491588 0.002003602712864603 0 -0.00075454107201253381 0.0020537968287274088 0 -0.0006969688712012823 0.0020464061970498376 0 -0.00071059476796491588 0.002003602712864603 0 -0.0006969688712012823 0.0020464061970498376 0 -0.00066401147926232454 0.0020357989036073878 0 -0.00093197176575858195 0.0018602367849930794 0 -0.00082886498707591082 0.0022294769936959608 0 -0.00098113728260034068 0.0024339697943614952 0 -0.00089055627801624927 0.0023885891261114689 0 -0.00088047423094667749 0.0022908019181516557 0 -0.00082297877685324171 0.0024302203950811053 0 -0.00084785041529778307 0.0024937815205352287 0 -0.00089055627801624927 0.0023885891261114689 0 -0.00082297877685324171 0.0024302203950811053 0 -0.00089055627801624927 0.0023885891261114689 0 -0.00083569273361375109 0.0023775532365282893 0 -0.00084785041529778307 0.0024937815205352287 0 -0.00098113728260034068 0.0024339697943614952 0 -0.00089055627801624927 0.0023885891261114689 0 -0.00089055627801624927 0.0023885891261114689 0 -0.0008601528048402862 0.002341836074726272 0 -0.00088047423094667749 0.0022908019181516557 0 -0.0008601528048402862 0.002341836074726272 0 -0.00083569273361375109 0.0023775532365282893 0 -0.00083361674581410071 0.0023110035486883854 0 -0.00089055627801624927 0.0023885891261114689 0 -0.0008601528048402862 0.002341836074726272 0 -0.00083569273361375109 0.0023775532365282893 0 -0.00075454107201253381 0.0020537968287274088 0 -0.0006969688712012823 0.0020464061970498376 0 -0.00072293826921489171 0.0020774531079422727 0 -0.00082886498707591082 0.0022294769936959608 0 -0.00078456315858842327 0.0021403527058981697 0 -0.0008601528048402862 0.002341836074726272 0 -0.00083361674581410071 0.0023110035486883854 0 -0.00088047423094667749 0.0022908019181516557 0 -0.00075454107201253381 0.0020537968287274088 0 -0.0007447335395568942 0.0020963286331386654 0 -0.00072293826921489171 0.0020774531079422727 0 -0.00075454107201253381 0.0020537968287274088 0 -0.0007447335395568942 0.0020963286331386654 0 -0.00076010669208844393 0.0021262359675379683 0 -0.0006969688712012823 0.0020464061970498376 0 -0.00072293826921489171 0.0020774531079422727 0 -0.0007052892000486209 0.0020968758836368818 0 -0.0006969688712012823 0.0020464061970498376 0 -0.0007052892000486209 0.0020968758836368818 0 -0.00066288923745278319 0.0020643834237166802 0 -0.00066401147926232454 0.0020357989036073878 0 -0.00066909564247767195 0.0020418488806653676 0 -0.00066288923745278319 0.0020643834237166802 0 -0.0006969688712012823 0.0020464061970498376 0 -0.00066401147926232454 0.0020357989036073878 0 -0.00066288923745278319 0.0020643834237166802 0 -0.00093197176575858195 0.0018602367849930794 0 -0.00080425211469342889 0.001534694089076931 0 -0.00092406845053746953 0.00085673650825727316 0 -0.0011090259154143511 0.00092122624273074396 0 -0.00085815319584720343 0.0010137111316276988 0 -0.00085815319584720343 0.0010137111316276988 0 -0.00067921919028673125 0.0008837003688512145 0 -0.00060564038658901228 0.0011100606279963712 0 -0.00092406845053746953 0.00085673650825727316 0 -0.00085815319584720343 0.0010137111316276988 0 -0.00067921919028673125 0.0008837003688512145 0 -0.00066401147926232454 0.0020357989036073878 0 -0.00066909564247767195 0.0020418488806653676 0 -0.00067089231511192069 0.0020370665947312991 0 -0.00080425211469342889 0.001534694089076931 0 -0.00038708134160279944 0.001041994668825015 0 -0.00018497815782249165 0.00035807147867502942 0 -0.00017154981757741089 0.00036099641537923072 0 -0.00015606850866776704 0.00032207472923628116 0 -0.00038708134160279944 0.001041994668825015 0 -0.00030558203316862593 0.00067114762496463991 0 -0.00018871924018084126 0.00035686761205542975 0 -0.00017154981757741089 0.00036099641537923072 0 -0.00018273151474740781 0.00038804123782508584 0 -0.00015437109177700905 0.00036637652378392017 0 -0.0001505403343505491 0.00033776554182607529 0 -0.00013870293268292215 0.00036783227728755442 0 -0.00017154981757741089 0.00036099641537923072 0 -0.00015437109177700905 0.00036637652378392017 0 -0.0001505403343505491 0.00033776554182607529 0 -0.00017154981757741089 0.00036099641537923072 0 -0.0001505403343505491 0.00033776554182607529 0 -0.00015606850866776704 0.00032207472923628116 0 -0.00038708134160279944 0.001041994668825015 0 -0.00028820403684338703 0.00053617637485935544 0 -0.00067921919028673125 0.0008837003688512145 0 -0.00060564038658901228 0.0011100606279963712 0 -0.00044364559286412183 0.00086876181913532154 0 -0.0001505403343505491 0.00033776554182607529 0 -0.00013365040648449729 0.00032094623237664772 0 -0.00013870293268292215 0.00036783227728755442 0 -0.0001505403343505491 0.00033776554182607529 0 -0.00013365040648449729 0.00032094623237664772 0 -0.00014709227881658699 0.00031593110197289853 0 -0.0001505403343505491 0.00033776554182607529 0 -0.00014709227881658699 0.00031593110197289853 0 -0.00015606850866776704 0.00032207472923628116 0 -0.00013365040648449729 0.00032094623237664772 0 -0.00014709227881658699 0.00031593110197289853 0 -0.0001554778550802546 0.00030987829453390533 0 -0.00014709227881658699 0.00031593110197289853 0 -0.00014749613691064853 0.00032460931198773253 0 -0.00017146541716677455 0.00031739460416582146 0 -0.00022683092922777491 0.0004841057710474876 0 -0.00028820403684338703 0.00053617637485935544 0 -0.00014709227881658699 0.00031593110197289853 0 -0.00014749613691064853 0.00032460931198773253 0 -0.00015606850866776704 0.00032207472923628116 0 -0.00014749613691064853 0.00032460931198773253 0 -0.00017014677968983104 0.00034073984076059716 0 -0.00017146541716677455 0.00031739460416582146 0 -0.00067921919028673125 0.0008837003688512145 0 -0.00044364559286412183 0.00086876181913532154 0 -0.00059211839120528408 0.00062010909024726992 0 -0.00028908271366076234 0.00061904392957502492 0 -0.00044364559286412183 0.00086876181913532154 0 -0.00059211839120528408 0.00062010909024726992 0 -0.00028908271366076234 0.00061904392957502492 0 -0.00059211839120528408 0.00062010909024726992 0 -0.00045200941320399382 0.00042424607760006822 0 -0.00059211839120528408 0.00062010909024726992 0 -0.00060519719788266308 0.00039108647913220295 0 -0.00045200941320399382 0.00042424607760006822 0 -0.00080319951611415076 0.00044918966297040076 0 -0.00059211839120528408 0.00062010909024726992 0 -0.00060519719788266308 0.00039108647913220295 0 -0.00060519719788266308 0.00039108647913220295 0 -0.00051489773996650566 0.00028060684465398687 0 -0.00045200941320399382 0.00042424607760006822 0 -0.00060519719788266308 0.00039108647913220295 0 -0.00051489773996650566 0.00028060684465398687 0 -0.00063903915495681592 0.00021963799199889932 0 -0.00039422312490408704 0.00030100608252697021 0 -0.00045200941320399382 0.00042424607760006822 0 -0.00030485942571125183 0.00038759810855941169 0 -0.00039422312490408704 0.00030100608252697021 0 -0.00051489773996650566 0.00028060684465398687 0 -0.00045200941320399382 0.00042424607760006822 0 -0.00028908271366076234 0.00061904392957502492 0 -0.00018412863817546154 0.00036169169907387092 0 -0.00030485942571125183 0.00038759810855941169 0 -0.00028908271366076234 0.00061904392957502492 0 -0.00045200941320399382 0.00042424607760006822 0 -0.00030485942571125183 0.00038759810855941169 0 -0.00022683092922777491 0.0004841057710474876 0 -0.00018063716823354947 0.0003663848232022571 0 -0.00014749613691064853 0.00032460931198773253 0 -0.00017014677968983104 0.00034073984076059716 0 -0.00018412863817546154 0.00036169169907387092 0 -0.00017014677968983104 0.00034073984076059716 0 -0.00018412863817546154 0.00036169169907387092 0 -0.00015921698749160552 0.00036812648316831897 0 -0.00040084272164174858 9.7655589335702959e-05 0 -0.00041890479772625067 0.00010336980172706229 0 -0.00040475242645994069 0.00014114085561232992 0 -0.00018412863817546154 0.00036169169907387092 0 -0.00024163206612930557 0.00029045765261758393 0 -0.00015921698749160552 0.00036812648316831897 0 -0.00033717449463444634 0.0001979009537485666 0 -0.00027835600619522272 0.00025407843323982843 0 -0.00018412863817546154 0.00036169169907387092 0 -0.00030485942571125183 0.00038759810855941169 0 -0.00024163206612930557 0.00029045765261758393 0 -0.00039422312490408704 0.00030100608252697021 0 -0.00030485942571125183 0.00038759810855941169 0 -0.00024163206612930557 0.00029045765261758393 0 -0.00041890479772625067 0.00010336980172706229 0 -0.00042561263580286778 9.8458268058782499e-05 0 -0.00040789009843972973 8.6811068724053676e-05 0 -0.00041890479772625067 0.00010336980172706229 0 -0.00042561263580286778 9.8458268058782499e-05 0 -0.00046107354965504213 0.00013609791357483274 0 -0.00039422312490408704 0.00030100608252697021 0 -0.00024163206612930557 0.00029045765261758393 0 -0.00046107354965504213 0.00013609791357483274 0 -0.00033717449463444634 0.0001979009537485666 0 -0.00045359365041002783 0.0001349966359442709 0 -0.00040084272164174858 9.7655589335702959e-05 0 -0.00040789009843972973 8.6811068724053676e-05 0 -0.00038258541483691689 7.4223517931099075e-05 0 -0.00040084272164174858 9.7655589335702959e-05 0 -0.00041890479772625067 0.00010336980172706229 0 -0.00040789009843972973 8.6811068724053676e-05 0 -0.00040789009843972973 8.6811068724053676e-05 0 -0.00039086182855813058 6.6322622842124372e-05 0 -0.00038258541483691689 7.4223517931099075e-05 0 -0.00039086182855813058 6.6322622842124372e-05 0 -0.00041212539406651315 7.0046030120840338e-05 0 -0.00038715607014181888 5.3473743930562133e-05 0 -0.00040789009843972973 8.6811068724053676e-05 0 -0.00039086182855813058 6.6322622842124372e-05 0 -0.00041212539406651315 7.0046030120840338e-05 0 -0.00042561263580286778 9.8458268058782499e-05 0 -0.00043912795558431809 7.6357144923089602e-05 0 -0.00046107354965504213 0.00013609791357483274 0 -0.00042561263580286778 9.8458268058782499e-05 0 -0.00041212539406651315 7.0046030120840338e-05 0 -0.00043912795558431809 7.6357144923089602e-05 0 -0.00042561263580286778 9.8458268058782499e-05 0 -0.00040789009843972973 8.6811068724053676e-05 0 -0.00041212539406651315 7.0046030120840338e-05 0 -0.00043912795558431809 7.6357144923089602e-05 0 -0.00048578879614625804 6.7346748824923173e-05 0 -0.00046107354965504213 0.00013609791357483274 0 -0.00068536745655879846 0.0024608967087180258 0 -0.00063067989754773447 0.002515183539368518 0 -0.00072166482940732159 0.0025235900290955845 0 -0.00063067989754773447 0.002515183539368518 0 -0.00072166482940732159 0.0025235900290955845 0 -0.00073718257384932458 0.0025734821881299237 0 -0.00051489773996650566 0.00028060684465398687 0 -0.00063903915495681592 0.00021963799199889932 0 -0.00046107354965504213 0.00013609791357483274 0 -0.00048578879614625804 6.7346748824923173e-05 0 -0.00063903915495681592 0.00021963799199889932 0 -0.00046107354965504213 0.00013609791357483274 0 -0.00055995584229474524 0.0012898113400281325 0 -0.00068570870029856506 0.001395769966791925 0 -0.00039422312490408704 0.00030100608252697021 0 -0.00051489773996650566 0.00028060684465398687 0 -0.00046107354965504213 0.00013609791357483274 0 -0.0003562448675351284 -2.8192197376642452e-05 0 -0.00034964305740520885 -1.3015166070341188e-05 0 -0.00037305883114029348 -5.4850888147198613e-05 0 -0.00035116638147662685 -7.7777036345229771e-06 0 -0.0003368742566594164 2.1675255673681836e-05 0 -0.0003562448675351284 -2.8192197376642452e-05 0 -0.00034964305740520885 -1.3015166070341188e-05 0 -0.00035927823156482752 -2.6547264353376749e-05 0 -0.00034964305740520885 -1.3015166070341188e-05 0 -0.00032688028191534978 5.8588745571045774e-05 0 -0.00031940011407032774 3.2263811865357574e-05 0 -0.00034964305740520885 -1.3015166070341188e-05 0 -0.00031940011407032774 3.2263811865357574e-05 0 -0.0003045894309077894 8.8849038575314566e-06 0 -0.00037305883114029348 -5.4850888147198613e-05 0 -0.00038635293192799226 -1.2604921389916512e-05 0 -0.00041460981987239038 -0.00012120510015573745 0 -0.00034964305740520885 -1.3015166070341188e-05 0 -0.00037305883114029348 -5.4850888147198613e-05 0 -0.00038445264257149924 -7.2926051081366133e-05 0 -0.00037305883114029348 -5.4850888147198613e-05 0 -0.00038445264257149924 -7.2926051081366133e-05 0 -0.00041460981987239038 -0.00012120510015573745 0 -0.0003562448675351284 -2.8192197376642452e-05 0 -0.00037305883114029348 -5.4850888147198613e-05 0 -0.00036579818654445027 -2.6493358341119902e-05 0 -0.00037305883114029348 -5.4850888147198613e-05 0 -0.00036579818654445027 -2.6493358341119902e-05 0 -0.00038635293192799226 -1.2604921389916512e-05 0 -0.00036950169004022201 -1.3568899217925879e-05 0 -0.00036579818654445027 -2.6493358341119902e-05 0 -0.00038635293192799226 -1.2604921389916512e-05 0 -0.00036950169004022201 -1.3568899217925879e-05 0 -0.00036149047778094795 -1.381628449352096e-05 0 -0.00036129716110532641 -2.2730162558918899e-05 0 -0.00036950169004022201 -1.3568899217925879e-05 0 -0.00036579818654445027 -2.6493358341119902e-05 0 -0.00036129716110532641 -2.2730162558918899e-05 0 -0.00036149047778094795 -1.381628449352096e-05 0 -0.00036129716110532641 -2.2730162558918899e-05 0 -0.00035927823156482752 -2.6547264353376749e-05 0 -0.0003562448675351284 -2.8192197376642452e-05 0 -0.00036579818654445027 -2.6493358341119902e-05 0 -0.00036129716110532641 -2.2730162558918899e-05 0 -0.0003562448675351284 -2.8192197376642452e-05 0 -0.00036129716110532641 -2.2730162558918899e-05 0 -0.00035927823156482752 -2.6547264353376749e-05 0 -0.00042144347034018322 5.9151744019614801e-05 0 -0.0003368742566594164 2.1675255673681836e-05 0 -0.00042144347034018322 5.9151744019614801e-05 0 -0.00030256564886668697 4.9356220009834142e-05 0 -0.00036550160170176731 4.5667923910475498e-05 0 -0.00036164439433577936 4.9881408054296576e-05 0 -0.00031940011407032774 3.2263811865357574e-05 0 -0.00036149047778094795 -1.381628449352096e-05 0 -0.00035265064471504023 -1.4717327447858516e-05 0 -0.00035927823156482752 -2.6547264353376749e-05 0 -0.00030018695931725847 9.4609133902583345e-05 0 -0.00032688028191534978 5.8588745571045774e-05 0 -0.00031940011407032774 3.2263811865357574e-05 0 -0.00036550160170176731 4.5667923910475498e-05 0 -0.00038715607014181888 5.3473743930562133e-05 0 -0.00036164439433577936 4.9881408054296576e-05 0 -0.00039086182855813058 6.6322622842124372e-05 0 -0.00038715607014181888 5.3473743930562133e-05 0 -0.00036164439433577936 4.9881408054296576e-05 0 -0.00039086182855813058 6.6322622842124372e-05 0 -0.00036164439433577936 4.9881408054296576e-05 0 -0.00038258541483691689 7.4223517931099075e-05 0 -0.00036164439433577936 4.9881408054296576e-05 0 -0.00038258541483691689 7.4223517931099075e-05 0 -0.00034893213439924937 5.658611414007136e-05 0 -0.00038258541483691689 7.4223517931099075e-05 0 -0.00034893213439924937 5.658611414007136e-05 0 -0.00038211697843378869 9.754154427328869e-05 0 -0.00036164439433577936 4.9881408054296576e-05 0 -0.00031940011407032774 3.2263811865357574e-05 0 -0.00034893213439924937 5.658611414007136e-05 0 -0.00031940011407032774 3.2263811865357574e-05 0 -0.00034893213439924937 5.658611414007136e-05 0 -0.00032286842052994732 4.9484836901758441e-05 0 -0.00031940011407032774 3.2263811865357574e-05 0 -0.00032286842052994732 4.9484836901758441e-05 0 -0.0003045894309077894 8.8849038575314566e-06 0 -0.00032286842052994732 4.9484836901758441e-05 0 -0.00028868302577822149 0.00013030958670895432 0 -0.0003045894309077894 8.8849038575314566e-06 0 -0.00034893213439924937 5.658611414007136e-05 0 -0.00032286842052994732 4.9484836901758441e-05 0 -0.00034601987250450027 9.0339490684499994e-05 0 -0.00032286842052994732 4.9484836901758441e-05 0 -0.00034601987250450027 9.0339490684499994e-05 0 -0.00028868302577822149 0.00013030958670895432 0 -0.00034601987250450027 9.0339490684499994e-05 0 -0.00028868302577822149 0.00013030958670895432 0 -0.00032978149210287583 0.00014755635094729726 0 -0.00040084272164174858 9.7655589335702959e-05 0 -0.00038211697843378869 9.754154427328869e-05 0 -0.00040475242645994069 0.00014114085561232992 0 -0.00040084272164174858 9.7655589335702959e-05 0 -0.00038258541483691689 7.4223517931099075e-05 0 -0.00038211697843378869 9.754154427328869e-05 0 -0.00034893213439924937 5.658611414007136e-05 0 -0.00034601987250450027 9.0339490684499994e-05 0 -0.00038211697843378869 9.754154427328869e-05 0 -0.00034601987250450027 9.0339490684499994e-05 0 -0.00038211697843378869 9.754154427328869e-05 0 -0.00036892853240410233 0.00011738094681626213 0 -0.00036892853240410233 0.00011738094681626213 0 -0.00040475242645994069 0.00014114085561232992 0 -0.00032978149210287583 0.00014755635094729726 0 -0.00034601987250450027 9.0339490684499994e-05 0 -0.00036892853240410233 0.00011738094681626213 0 -0.00032978149210287583 0.00014755635094729726 0 -0.00038211697843378869 9.754154427328869e-05 0 -0.00036892853240410233 0.00011738094681626213 0 -0.00040475242645994069 0.00014114085561232992 0 -0.00015921698749160552 0.00036812648316831897 0 -0.00018334296428747102 0.00032000285240331509 0 -0.0002345147340202448 0.00028600383859765676 0 -0.00017014677968983104 0.00034073984076059716 0 -0.00015921698749160552 0.00036812648316831897 0 -0.00018334296428747102 0.00032000285240331509 0 -0.00027835600619522272 0.00025407843323982843 0 -0.00023543990941302285 0.00028624113537672341 0 -0.00040475242645994069 0.00014114085561232992 0 -0.00032978149210287583 0.00014755635094729726 0 -0.0002345147340202448 0.00028600383859765676 0 -0.00028868302577822149 0.00013030958670895432 0 -0.00032978149210287583 0.00014755635094729726 0 -0.0002345147340202448 0.00028600383859765676 0 -0.00028868302577822149 0.00013030958670895432 0 -0.00017521726311715401 0.00022059659818673556 0 -0.0002345147340202448 0.00028600383859765676 0 -0.00037947031204429223 -8.8674973360805204e-05 0 -0.00037393665656319607 -5.7831928470074305e-05 0 -0.0003045894309077894 8.8849038575314566e-06 0 -0.00028868302577822149 0.00013030958670895432 0 -0.00017521726311715401 0.00022059659818673556 0 -0.0003045894309077894 8.8849038575314566e-06 0 -0.00028102721463906313 6.8935631499962989e-05 0 -0.00029935263975616955 1.706812769470362e-05 0 -0.00034964305740520885 -1.3015166070341188e-05 0 -0.00037393665656319607 -5.7831928470074305e-05 0 -0.0003045894309077894 8.8849038575314566e-06 0 -0.00037393665656319607 -5.7831928470074305e-05 0 -0.00038445264257149924 -7.2926051081366133e-05 0 -0.00039099772064137521 -8.8360755241331728e-05 0 -0.00034964305740520885 -1.3015166070341188e-05 0 -0.00037393665656319607 -5.7831928470074305e-05 0 -0.00038445264257149924 -7.2926051081366133e-05 0 -0.00037947031204429223 -8.8674973360805204e-05 0 -0.00038358395458551171 -6.6279247989906476e-05 0 -0.00039099772064137521 -8.8360755241331728e-05 0 -0.00037947031204429223 -8.8674973360805204e-05 0 -0.00037393665656319607 -5.7831928470074305e-05 0 -0.00039099772064137521 -8.8360755241331728e-05 0 -0.00037947031204429223 -8.8674973360805204e-05 0 -0.00038358395458551171 -6.6279247989906476e-05 0 -0.00040540808949550661 -4.1705757435871749e-05 0 -0.00038358395458551171 -6.6279247989906476e-05 0 -0.00040540808949550661 -4.1705757435871749e-05 0 -0.00036276013608215829 -1.9098458443313245e-05 0 -0.00017521726311715401 0.00022059659818673556 0 -0.00017287284855451766 0.00030547223819520314 0 -0.0002345147340202448 0.00028600383859765676 0 -0.00028102721463906313 6.8935631499962989e-05 0 -0.00028680712433323255 0.00013121963210363164 0 -0.00017287284855451766 0.00030547223819520314 0 -0.0002345147340202448 0.00028600383859765676 0 -0.00019699926324706881 0.00030573333620316251 0 -0.00017287284855451766 0.00030547223819520314 0 -0.00019699926324706881 0.00030573333620316251 0 -0.00018163589285812731 0.00030672765562472196 0 -0.00040540808949550661 -4.1705757435871749e-05 0 -0.00039932657274988759 3.2019869932750964e-05 0 -0.00036276013608215829 -1.9098458443313245e-05 0 -0.00017287284855451766 0.00030547223819520314 0 -0.0001852984042981368 0.00030289091244205485 0 -0.00018163589285812731 0.00030672765562472196 0 -0.00028680712433323255 0.00013121963210363164 0 -0.00029419506839518066 0.00016583203963663849 0 -0.00017146541716677455 0.00031739460416582146 0 -0.00018334296428747102 0.00032000285240331509 0 -0.00019939010244726904 0.00030322736753516711 0 -0.00017014677968983104 0.00034073984076059716 0 -0.00017146541716677455 0.00031739460416582146 0 -0.00018334296428747102 0.00032000285240331509 0 -0.00018334296428747102 0.00032000285240331509 0 -0.0002345147340202448 0.00028600383859765676 0 -0.00019939010244726904 0.00030322736753516711 0 -0.0002345147340202448 0.00028600383859765676 0 -0.00019939010244726904 0.00030322736753516711 0 -0.00019699926324706881 0.00030573333620316251 0 -0.00019939010244726904 0.00030322736753516711 0 -0.00019699926324706881 0.00030573333620316251 0 -0.00017872996199812987 0.00030778485922779185 0 -0.00019699926324706881 0.00030573333620316251 0 -0.00017872996199812987 0.00030778485922779185 0 -0.00018163589285812731 0.00030672765562472196 0 -0.00014709227881658699 0.00031593110197289853 0 -0.00017146541716677455 0.00031739460416582146 0 -0.00017872996199812987 0.00030778485922779185 0 -0.00017146541716677455 0.00031739460416582146 0 -0.00019939010244726904 0.00030322736753516711 0 -0.00017872996199812987 0.00030778485922779185 0 -0.00017872996199812987 0.00030778485922779185 0 -0.0001554778550802546 0.00030987829453390533 0 -0.00016686015832206429 0.00030049553540618132 0 -0.00014709227881658699 0.00031593110197289853 0 -0.00017872996199812987 0.00030778485922779185 0 -0.0001554778550802546 0.00030987829453390533 0 -0.00017872996199812987 0.00030778485922779185 0 -0.00016686015832206429 0.00030049553540618132 0 -0.00018163589285812731 0.00030672765562472196 0 -0.00016686015832206429 0.00030049553540618132 0 -0.00018163589285812731 0.00030672765562472196 0 -0.00017020330567985481 0.00029048886067779432 0 -0.00016686015832206429 0.00030049553540618132 0 -0.00016107330517808389 0.00028500411992655946 0 -0.00015531887916699443 0.00028945996658052053 0 -0.00016686015832206429 0.00030049553540618132 0 -0.00017020330567985481 0.00029048886067779432 0 -0.00016107330517808389 0.00028500411992655946 0 -0.0001554778550802546 0.00030987829453390533 0 -0.00016686015832206429 0.00030049553540618132 0 -0.00015531887916699443 0.00028945996658052053 0 -0.00013365040648449729 0.00032094623237664772 0 -0.0001554778550802546 0.00030987829453390533 0 -0.00015531887916699443 0.00028945996658052053 0 -0.0001852984042981368 0.00030289091244205485 0 -0.00018163589285812731 0.00030672765562472196 0 -0.00018106291687219195 0.0002990702275265477 0 -0.00018163589285812731 0.00030672765562472196 0 -0.00018106291687219195 0.0002990702275265477 0 -0.00017020330567985481 0.00029048886067779432 0 -0.00017020330567985481 0.00029048886067779432 0 -0.00017033231708307964 0.00027922778821966944 0 -0.00016481203479779829 0.0002743271986550941 0 -0.00018106291687219195 0.0002990702275265477 0 -0.00017020330567985481 0.00029048886067779432 0 -0.00018391799429658514 0.00028979087132123912 0 -0.00017373748520428951 0.00028783295995365516 0 -0.00016272846101054281 0.00028450779189800071 0 -0.0001852984042981368 0.00030289091244205485 0 -0.00018391799429658514 0.00028979087132123912 0 -0.00019418232562969697 0.00028728626071718735 0 -0.0001852984042981368 0.00030289091244205485 0 -0.00018106291687219195 0.0002990702275265477 0 -0.00018391799429658514 0.00028979087132123912 0 -0.00029419506839518066 0.00016583203963663849 0 -0.00026409647964520085 0.00020600436853396149 0 -0.00017033231708307964 0.00027922778821966944 0 -0.00017481041554201704 0.00027059169278829769 0 -0.0001822645907391684 0.00026858187404700561 0 -0.00016272846101054281 0.00028450779189800071 0 -0.00026409647964520085 0.00020600436853396149 0 -0.00017481041554201704 0.00027059169278829769 0 -0.00018008016851145731 0.00026102520809860049 0 -0.00017986578276911412 0.00026713739642185376 0 -0.00017481041554201704 0.00027059169278829769 0 -0.00017986578276911412 0.00026713739642185376 0 -0.0001822645907391684 0.00026858187404700561 0 -0.00017481041554201704 0.00027059169278829769 0 -0.00017110783622023988 0.00026540750741881324 0 -0.00018008016851145731 0.00026102520809860049 0 -0.00017033231708307964 0.00027922778821966944 0 -0.00017481041554201704 0.00027059169278829769 0 -0.00016481203479779829 0.0002743271986550941 0 -0.00017481041554201704 0.00027059169278829769 0 -0.00017110783622023988 0.00026540750741881324 0 -0.00016481203479779829 0.0002743271986550941 0 -0.00017110783622023988 0.00026540750741881324 0 -0.00016481203479779829 0.0002743271986550941 0 -0.00016717531394475001 0.00026097220593322153 0 -0.00017110783622023988 0.00026540750741881324 0 -0.00018008016851145731 0.00026102520809860049 0 -0.00018190017296218641 0.0002524682980805315 0 -0.00016481203479779829 0.0002743271986550941 0 -0.00015326659783569536 0.00027582594203646896 0 -0.00016107330517808389 0.00028500411992655946 0 -0.00017020330567985481 0.00029048886067779432 0 -0.00016481203479779829 0.0002743271986550941 0 -0.00016107330517808389 0.00028500411992655946 0 -0.00015462507846245312 0.00026817120852035061 0 -0.00016717531394475001 0.00026097220593322153 0 -0.00015328557133036639 0.00025754590190804659 0 -0.00016481203479779829 0.0002743271986550941 0 -0.00015462507846245312 0.00026817120852035061 0 -0.00015326659783569536 0.00027582594203646896 0 -0.00016481203479779829 0.0002743271986550941 0 -0.00015462507846245312 0.00026817120852035061 0 -0.00016717531394475001 0.00026097220593322153 0 -0.00015462507846245312 0.00026817120852035061 0 -0.00013990260408671125 0.00027491841500082648 0 -0.00015326659783569536 0.00027582594203646896 0 -0.00016717531394475001 0.00026097220593322153 0 -0.00015328557133036639 0.00025754590190804659 0 -0.0001792952471365221 0.00024719066140219126 0 -0.00017110783622023988 0.00026540750741881324 0 -0.00016717531394475001 0.00026097220593322153 0 -0.00018190017296218641 0.0002524682980805315 0 -0.00016717531394475001 0.00026097220593322153 0 -0.0001792952471365221 0.00024719066140219126 0 -0.00018190017296218641 0.0002524682980805315 0 -0.00015328557133036639 0.00025754590190804659 0 -0.0001792952471365221 0.00024719066140219126 0 -0.00017008479883954866 0.00022782156345850583 0 -0.00015462507846245312 0.00026817120852035061 0 -0.00015328557133036639 0.00025754590190804659 0 -0.00013990260408671125 0.00027491841500082648 0 -0.00015328557133036639 0.00025754590190804659 0 -0.00013547100561608422 0.0002793305717137009 0 -0.00013990260408671125 0.00027491841500082648 0 -0.00015328557133036639 0.00025754590190804659 0 -0.00013547100561608422 0.0002793305717137009 0 -0.00015166646899593224 0.00025377866226807195 0 -0.00013547100561608422 0.0002793305717137009 0 -0.00015166646899593224 0.00025377866226807195 0 -0.00014281389330828167 0.00025901485059951119 0 -0.00015328557133036639 0.00025754590190804659 0 -0.00015166646899593224 0.00025377866226807195 0 -0.00017008479883954866 0.00022782156345850583 0 -0.00015920569828193853 0.00024104271050443267 0 -0.00016438430513638719 0.00022409686835222277 0 -0.00017008479883954866 0.00022782156345850583 0 -0.00015166646899593224 0.00025377866226807195 0 -0.00015920569828193853 0.00024104271050443267 0 -0.00017008479883954866 0.00022782156345850583 0 -0.00011859956029480019 0.00036909226123046462 0 -0.00011044972946270621 0.00037354267302253699 0 -0.00011976640835464707 0.00031056217271513962 0 -0.00014939748420327722 0.00028515616595217041 0 -0.0001076590565264541 0.00037474371751331507 0 -0.00011976640835464707 0.00031056217271513962 0 -0.00013797645486033445 0.00028401562993246842 0 -0.00014939748420327722 0.00028515616595217041 0 -0.00013547100561608422 0.0002793305717137009 0 -0.00011976640835464707 0.00031056217271513962 0 -0.00013990260408671125 0.00027491841500082648 0 -0.00011976640835464707 0.00031056217271513962 0 -0.00013990260408671125 0.00027491841500082648 0 -0.00013797645486033445 0.00028401562993246842 0 -0.00013990260408671125 0.00027491841500082648 0 -0.00013797645486033445 0.00028401562993246842 0 -0.00014504521131482675 0.00027719954934858913 0 -0.00013797645486033445 0.00028401562993246842 0 -0.00014504521131482675 0.00027719954934858913 0 -0.00014939748420327722 0.00028515616595217041 0 -0.00014504521131482675 0.00027719954934858913 0 -0.00014086534767011237 0.00028023649030771083 0 -0.00014939748420327722 0.00028515616595217041 0 -0.00013990260408671125 0.00027491841500082648 0 -0.00014504521131482675 0.00027719954934858913 0 -0.00015326659783569536 0.00027582594203646896 0 -0.00014504521131482675 0.00027719954934858913 0 -0.00015326659783569536 0.00027582594203646896 0 -0.00015531887916699443 0.00028945996658052053 0 -0.00015326659783569536 0.00027582594203646896 0 -0.00016107330517808389 0.00028500411992655946 0 -0.00015531887916699443 0.00028945996658052053 0 -0.00014504521131482675 0.00027719954934858913 0 -0.00015531887916699443 0.00028945996658052053 0 -0.00014086534767011237 0.00028023649030771083 0 -0.00013027837450169425 0.00032305193432467897 0 -0.00011816767255210705 0.00034168933353290209 0 -0.00013365040648449729 0.00032094623237664772 0 -9.0528470299569184e-05 0.00040065079371166915 0 -0.00013870293268292215 0.00036783227728755442 0 -0.00013365040648449729 0.00032094623237664772 0 -0.00015531887916699443 0.00028945996658052053 0 -0.00014086534767011237 0.00028023649030771083 0 -9.0528470299569184e-05 0.00040065079371166915 0 -0.00013870293268292215 0.00036783227728755442 0 -0.00010902855774987027 0.0004298826591927126 0 -0.00010902855774987027 0.0004298826591927126 0 -0.00013947313853668355 0.00041795851937217738 0 -0.00013202655619934143 0.00045547620618865438 0 -0.00013870293268292215 0.00036783227728755442 0 -0.00010902855774987027 0.0004298826591927126 0 -0.00013947313853668355 0.00041795851937217738 0 -0.00011816767255210705 0.00034168933353290209 0 -0.00011859956029480019 0.00036909226123046462 0 -9.0528470299569184e-05 0.00040065079371166915 0 -0.00010902855774987027 0.0004298826591927126 0 -9.2161804474304732e-05 0.00045642439701243701 0 -0.00018871924018084126 0.00035686761205542975 0 -0.00018273151474740781 0.00038804123782508584 0 -0.00022402819520247092 0.00040737451782257606 0 -0.00018273151474740781 0.00038804123782508584 0 -0.00017074654088180386 0.00042583018472895542 0 -0.00022402819520247092 0.00040737451782257606 0 -0.00018273151474740781 0.00038804123782508584 0 -0.00015906774318751805 0.00038994750737138213 0 -0.00017074654088180386 0.00042583018472895542 0 -0.00017154981757741089 0.00036099641537923072 0 -0.00018273151474740781 0.00038804123782508584 0 -0.00015906774318751805 0.00038994750737138213 0 -0.00013870293268292215 0.00036783227728755442 0 -0.00015906774318751805 0.00038994750737138213 0 -0.00013947313853668355 0.00041795851937217738 0 -0.00015437109177700905 0.00036637652378392017 0 -0.00013870293268292215 0.00036783227728755442 0 -0.00015906774318751805 0.00038994750737138213 0 -0.00017154981757741089 0.00036099641537923072 0 -0.00015437109177700905 0.00036637652378392017 0 -0.00015906774318751805 0.00038994750737138213 0 -0.00015906774318751805 0.00038994750737138213 0 -0.00013947313853668355 0.00041795851937217738 0 -0.00017074654088180386 0.00042583018472895542 0 -0.00013947313853668355 0.00041795851937217738 0 -0.00017074654088180386 0.00042583018472895542 0 -0.00013202655619934143 0.00045547620618865438 0 -0.00017074654088180386 0.00042583018472895542 0 -0.00022402819520247092 0.00040737451782257606 0 -0.00019857460245325831 0.00044586386949003342 0 -0.00017283188266654993 0.0004794782062383365 0 -0.00013202655619934143 0.00045547620618865438 0 -0.00014944742881186105 0.00050240941982410744 0 -0.00017074654088180386 0.00042583018472895542 0 -0.00017283188266654993 0.0004794782062383365 0 -0.00013202655619934143 0.00045547620618865438 0 -0.00017074654088180386 0.00042583018472895542 0 -0.00017283188266654993 0.0004794782062383365 0 -0.00019857460245325831 0.00044586386949003342 0 -0.00013202655619934143 0.00045547620618865438 0 -0.0001124858550440898 0.00047840998741828825 0 -0.00010036292305445837 0.00045469625922048274 0 -0.00013202655619934143 0.00045547620618865438 0 -0.0001124858550440898 0.00047840998741828825 0 -0.00014944742881186105 0.00050240941982410744 0 -0.0001124858550440898 0.00047840998741828825 0 -0.00014944742881186105 0.00050240941982410744 0 -0.00012563752250635497 0.00051077730154049268 0 -0.00014944742881186105 0.00050240941982410744 0 -0.00016304454026126261 0.00055489632790405919 0 -0.000186483127031164 0.00052324408191179849 0 -0.00017283188266654993 0.0004794782062383365 0 -0.00014944742881186105 0.00050240941982410744 0 -0.000186483127031164 0.00052324408191179849 0 -0.00010902855774987027 0.0004298826591927126 0 -9.2161804474304732e-05 0.00045642439701243701 0 -0.00010036292305445837 0.00045469625922048274 0 -0.00010902855774987027 0.0004298826591927126 0 -0.00013202655619934143 0.00045547620618865438 0 -0.00010036292305445837 0.00045469625922048274 0 -0.0001124858550440898 0.00047840998741828825 0 -0.00010036292305445837 0.00045469625922048274 0 -9.2730813019561073e-05 0.00046197503442789884 0 -0.00010036292305445837 0.00045469625922048274 0 -9.2730813019561073e-05 0.00046197503442789884 0 -8.7642196620601188e-05 0.00044430992734851486 0 -9.2161804474304732e-05 0.00045642439701243701 0 -8.9667536059851287e-05 0.00041530899140849732 0 -0.0001076590565264541 0.00037474371751331507 0 -9.2161804474304732e-05 0.00045642439701243701 0 -8.7642196620601188e-05 0.00044430992734851486 0 -8.9667536059851287e-05 0.00041530899140849732 0 -9.2161804474304732e-05 0.00045642439701243701 0 -0.00010036292305445837 0.00045469625922048274 0 -8.7642196620601188e-05 0.00044430992734851486 0 -8.9667536059851287e-05 0.00041530899140849732 0 -9.3522234261579729e-05 0.0003894169142211118 0 -0.0001076590565264541 0.00037474371751331507 0 -8.9667536059851287e-05 0.00041530899140849732 0 -9.3522234261579729e-05 0.0003894169142211118 0 -8.4529441444385458e-05 0.00041347498296737117 0 -9.3522234261579729e-05 0.0003894169142211118 0 -8.4529441444385458e-05 0.00041347498296737117 0 -8.5854766281203104e-05 0.00038856820487366935 0 -8.9667536059851287e-05 0.00041530899140849732 0 -8.4529441444385458e-05 0.00041347498296737117 0 -8.1760242841918249e-05 0.00044327103168503591 0 -8.7642196620601188e-05 0.00044430992734851486 0 -8.9667536059851287e-05 0.00041530899140849732 0 -8.1760242841918249e-05 0.00044327103168503591 0 -9.2730813019561073e-05 0.00046197503442789884 0 -8.7642196620601188e-05 0.00044430992734851486 0 -8.1760242841918249e-05 0.00044327103168503591 0 -0.0001124858550440898 0.00047840998741828825 0 -9.2730813019561073e-05 0.00046197503442789884 0 -9.1918625260522621e-05 0.00048424049507982115 0 -9.2730813019561073e-05 0.00046197503442789884 0 -8.1760242841918249e-05 0.00044327103168503591 0 -9.1918625260522621e-05 0.00048424049507982115 0 -8.1760242841918249e-05 0.00044327103168503591 0 -9.1918625260522621e-05 0.00048424049507982115 0 -7.0452642946547398e-05 0.00044641003921086893 0 -8.4529441444385458e-05 0.00041347498296737117 0 -8.1760242841918249e-05 0.00044327103168503591 0 -7.0452642946547398e-05 0.00044641003921086893 0 -7.0452642946547398e-05 0.00044641003921086893 0 -7.5555452395722979e-05 0.00040430518178938372 0 -6.0581543887989952e-05 0.00038866217931659999 0 -7.0452642946547398e-05 0.00044641003921086893 0 -3.8581134704453072e-05 0.00041558129063998933 0 -6.0581543887989952e-05 0.00038866217931659999 0 -7.0452642946547398e-05 0.00044641003921086893 0 -9.3859893208769383e-05 0.00054826814562869007 0 -9.4854515603341445e-05 0.00053361230240410256 0 -9.1918625260522621e-05 0.00048424049507982115 0 -7.0452642946547398e-05 0.00044641003921086893 0 -9.4854515603341445e-05 0.00053361230240410256 0 -7.554839970623121e-05 0.00051108538322305864 0 0.00011862680281116676 0.00066817056459632265 0 -7.5555452395722979e-05 0.00040430518178938372 0 -7.2745886257574336e-05 0.00038980608127088756 0 -8.5854766281203104e-05 0.00038856820487366935 0 -9.3522234261579729e-05 0.0003894169142211118 0 -8.5854766281203104e-05 0.00038856820487366935 0 -9.4544074845305675e-05 0.00037099456232333534 0 -8.4529441444385458e-05 0.00041347498296737117 0 -7.0452642946547398e-05 0.00044641003921086893 0 -7.5555452395722979e-05 0.00040430518178938372 0 -8.4529441444385458e-05 0.00041347498296737117 0 -7.5555452395722979e-05 0.00040430518178938372 0 -8.5854766281203104e-05 0.00038856820487366935 0 -0.00014944742881186105 0.00050240941982410744 0 -0.00016304454026126261 0.00055489632790405919 0 -0.00012563752250635497 0.00051077730154049268 0 -0.00016304454026126261 0.00055489632790405919 0 -0.00011964019901751513 0.00053904911849952518 0 -0.00014575963207200078 0.00057843987823429153 0 -0.00016304454026126261 0.00055489632790405919 0 -0.00012563752250635497 0.00051077730154049268 0 -0.00011964019901751513 0.00053904911849952518 0 -0.0001124858550440898 0.00047840998741828825 0 -9.1918625260522621e-05 0.00048424049507982115 0 -0.00012563752250635497 0.00051077730154049268 0 -9.1918625260522621e-05 0.00048424049507982115 0 -9.4854515603341445e-05 0.00053361230240410256 0 -0.00011964019901751513 0.00053904911849952518 0 -9.1918625260522621e-05 0.00048424049507982115 0 -0.00012563752250635497 0.00051077730154049268 0 -0.00011964019901751513 0.00053904911849952518 0 -9.5782049987384294e-05 0.00055152774672444043 0 -0.00014575963207200078 0.00057843987823429153 0 -0.00016567870096510711 0.00064758378620382814 0 0.00011862680281116676 0.00066817056459632265 0 -6.1257339339290066e-05 0.00087017202733447106 0 -9.5782049987384294e-05 0.00055152774672444043 0 -0.00011964019901751513 0.00053904911849952518 0 -0.00014575963207200078 0.00057843987823429153 0 -9.5782049987384294e-05 0.00055152774672444043 0 -9.4854515603341445e-05 0.00053361230240410256 0 -0.00011964019901751513 0.00053904911849952518 0 0.00011862680281116676 0.00066817056459632265 0 0.00010785305185796607 0.00064432408082317979 0 -0.00014575963207200078 0.00057843987823429153 0 -0.00016567870096510711 0.00064758378620382814 0 -0.00020797285081447734 0.00062871509155680355 0 -0.00016304454026126261 0.00055489632790405919 0 -0.00014575963207200078 0.00057843987823429153 0 -0.00020797285081447734 0.00062871509155680355 0 8.2222881089835315e-05 0.0011195890152810499 0 0.00036952745474913492 0.0013809482696292355 0 0.00010832965538596696 0.0013602237329169871 0 0.00011862680281116676 0.00066817056459632265 0 0.00015758481451179051 0.00088288749312113817 0 0.00040257238700923214 0.0009539721437531798 0 8.2222881089835315e-05 0.0011195890152810499 0 0.00036952745474913492 0.0013809482696292355 0 0.00036952745474913492 0.0013809482696292355 0 0.00010832965538596696 0.0013602237329169871 0 0.00020177704607917326 0.0015766874849332928 0 0.00010832965538596696 0.0013602237329169871 0 -1.6972334864020034e-05 0.0015432394220044516 0 0.00020177704607917326 0.0015766874849332928 0 -7.5555452395722979e-05 0.00040430518178938372 0 -5.5216253750038249e-05 0.00037753317561915582 0 -6.0581543887989952e-05 0.00038866217931659999 0 -5.5216253750038249e-05 0.00037753317561915582 0 -6.0581543887989952e-05 0.00038866217931659999 0 -5.3907754054232592e-05 0.00037661514577198808 0 -7.5555452395722979e-05 0.00040430518178938372 0 -7.2745886257574336e-05 0.00038980608127088756 0 -5.5216253750038249e-05 0.00037753317561915582 0 -7.2745886257574336e-05 0.00038980608127088756 0 -5.5216253750038249e-05 0.00037753317561915582 0 -5.200891975364779e-05 0.00037923870432497991 0 -3.8581134704453072e-05 0.00041558129063998933 0 -6.8761228737735581e-05 0.00037483293489205149 0 -6.0581543887989952e-05 0.00038866217931659999 0 -6.8761228737735581e-05 0.00037483293489205149 0 -6.0581543887989952e-05 0.00038866217931659999 0 -5.3907754054232592e-05 0.00037661514577198808 0 -6.8761228737735581e-05 0.00037483293489205149 0 -5.3907754054232592e-05 0.00037661514577198808 0 -6.0072081447003056e-05 0.00039683033598464243 0 -5.3907754054232592e-05 0.00037661514577198808 0 -1.546868812448043e-05 0.00036917852651955843 0 -6.0072081447003056e-05 0.00039683033598464243 0 -5.5216253750038249e-05 0.00037753317561915582 0 -5.3907754054232592e-05 0.00037661514577198808 0 -1.546868812448043e-05 0.00036917852651955843 0 -5.5216253750038249e-05 0.00037753317561915582 0 -2.1019063647293737e-05 0.00036418394703438735 0 -1.546868812448043e-05 0.00036917852651955843 0 -2.1019063647293737e-05 0.00036418394703438735 0 -5.200891975364779e-05 0.00037923870432497991 0 -4.126768656734819e-05 0.00037913789493065051 0 -5.5216253750038249e-05 0.00037753317561915582 0 -2.1019063647293737e-05 0.00036418394703438735 0 -5.200891975364779e-05 0.00037923870432497991 0 -5.200891975364779e-05 0.00037923870432497991 0 -4.126768656734819e-05 0.00037913789493065051 0 -6.636278802464742e-05 0.00038281750519407508 0 -2.6847372975033961e-05 0.00036935808752733875 0 -1.6457906148809411e-05 0.00035728412798109261 0 -3.0554606850483872e-05 0.0003763051573075915 0 -2.1019063647293737e-05 0.00036418394703438735 0 -4.126768656734819e-05 0.00037913789493065051 0 -2.6847372975033961e-05 0.00036935808752733875 0 -4.126768656734819e-05 0.00037913789493065051 0 -2.6847372975033961e-05 0.00036935808752733875 0 -3.0554606850483872e-05 0.0003763051573075915 0 -2.1019063647293737e-05 0.00036418394703438735 0 -2.6847372975033961e-05 0.00036935808752733875 0 -1.6457906148809411e-05 0.00035728412798109261 0 -2.1019063647293737e-05 0.00036418394703438735 0 -1.6457906148809411e-05 0.00035728412798109261 0 1.4512648373318572e-05 0.00032372551535288924 0 -1.6457906148809411e-05 0.00035728412798109261 0 -3.2486288195894429e-05 0.0003650905070328308 0 -4.1862257209219996e-06 0.00032882340167222533 0 -6.1296838787966497e-05 0.00034665368592473334 0 -3.2486288195894429e-05 0.0003650905070328308 0 -4.1862257209219996e-06 0.00032882340167222533 0 -6.1296838787966497e-05 0.00034665368592473334 0 -5.3562486765905462e-05 0.00037426622881069933 0 -3.2486288195894429e-05 0.0003650905070328308 0 -5.3562486765905462e-05 0.00037426622881069933 0 -3.8275684339626479e-05 0.00037776314740015679 0 -4.6941550546439306e-05 0.0003830227589657531 0 -5.3562486765905462e-05 0.00037426622881069933 0 -3.2486288195894429e-05 0.0003650905070328308 0 -3.8275684339626479e-05 0.00037776314740015679 0 -5.3562486765905462e-05 0.00037426622881069933 0 -4.6941550546439306e-05 0.0003830227589657531 0 -6.91999672132577e-05 0.00038848536978081994 0 -1.6457906148809411e-05 0.00035728412798109261 0 -3.2486288195894429e-05 0.0003650905070328308 0 -3.0554606850483872e-05 0.0003763051573075915 0 -3.2486288195894429e-05 0.0003650905070328308 0 -3.8275684339626479e-05 0.00037776314740015679 0 -3.0554606850483872e-05 0.0003763051573075915 0 -3.0554606850483872e-05 0.0003763051573075915 0 -3.743905443784846e-05 0.00038063324184022716 0 -3.5555021748313587e-05 0.00037291593320477922 0 -3.743905443784846e-05 0.00038063324184022716 0 -4.271501968619009e-05 0.00038890261605533733 0 -3.5555021748313587e-05 0.00037291593320477922 0 -3.8275684339626479e-05 0.00037776314740015679 0 -3.0554606850483872e-05 0.0003763051573075915 0 -3.743905443784846e-05 0.00038063324184022716 0 -3.8275684339626479e-05 0.00037776314740015679 0 -3.743905443784846e-05 0.00038063324184022716 0 -4.6941550546439306e-05 0.0003830227589657531 0 -7.5835107156285277e-05 0.00019613835950285438 0 -4.0576240299948396e-05 0.0001706080840327209 0 -4.6941550546439306e-05 0.0003830227589657531 0 -4.271501968619009e-05 0.00038890261605533733 0 -6.91999672132577e-05 0.00038848536978081994 0 -3.743905443784846e-05 0.00038063324184022716 0 -4.6941550546439306e-05 0.0003830227589657531 0 -4.271501968619009e-05 0.00038890261605533733 0 -0.00015526251196944528 0.00023435309408150785 0 -0.00016426837977829089 0.00022980825525942961 0 -0.00016886541931351246 0.00022452301679598284 0 -7.5835107156285277e-05 0.00019613835950285438 0 -9.2093349778510112e-05 8.673145208865386e-05 0 -0.00015526251196944528 0.00023435309408150785 0 -0.00015920569828193853 0.00024104271050443267 0 -0.00016426837977829089 0.00022980825525942961 0 -7.5835107156285277e-05 0.00019613835950285438 0 -0.00011692569084420629 0.0002265047661068093 0 -0.00015526251196944528 0.00023435309408150785 0 -0.00015920569828193853 0.00024104271050443267 0 -0.00014281389330828167 0.00025901485059951119 0 -0.00015166646899593224 0.00025377866226807195 0 -0.00015920569828193853 0.00024104271050443267 0 -0.00014281389330828167 0.00025901485059951119 0 -0.00015920569828193853 0.00024104271050443267 0 -0.00016438430513638719 0.00022409686835222277 0 -0.00016426837977829089 0.00022980825525942961 0 -7.5835107156285277e-05 0.00019613835950285438 0 -9.0819979185898758e-05 0.0003491936600887459 0 -0.00013547100561608422 0.0002793305717137009 0 -0.00014281389330828167 0.00025901485059951119 0 -0.0001265495672779921 0.00029380587540910356 0 -0.00014521096836369289 0.00025310994846181202 0 -0.00014281389330828167 0.00025901485059951119 0 -0.0001265495672779921 0.00029380587540910356 0 -0.00011976640835464707 0.00031056217271513962 0 -0.0001265495672779921 0.00029380587540910356 0 -0.0001076590565264541 0.00037474371751331507 0 -0.00013547100561608422 0.0002793305717137009 0 -0.00011976640835464707 0.00031056217271513962 0 -0.0001265495672779921 0.00029380587540910356 0 -9.0819979185898758e-05 0.0003491936600887459 0 -9.5792641815583976e-05 0.00036043650015583385 0 -0.0001265495672779921 0.00029380587540910356 0 -0.0001076590565264541 0.00037474371751331507 0 -9.4544074845305675e-05 0.00037099456232333534 0 -9.3522234261579729e-05 0.0003894169142211118 0 -0.0001076590565264541 0.00037474371751331507 0 -9.4544074845305675e-05 0.00037099456232333534 0 -3.5555021748313587e-05 0.00037291593320477922 0 -9.4544074845305675e-05 0.00037099456232333534 0 -6.636278802464742e-05 0.00038281750519407508 0 -8.5854766281203104e-05 0.00038856820487366935 0 -9.4544074845305675e-05 0.00037099456232333534 0 -6.636278802464742e-05 0.00038281750519407508 0 -7.2745886257574336e-05 0.00038980608127088756 0 -8.5854766281203104e-05 0.00038856820487366935 0 -6.636278802464742e-05 0.00038281750519407508 0 -7.2745886257574336e-05 0.00038980608127088756 0 -5.200891975364779e-05 0.00037923870432497991 0 -6.636278802464742e-05 0.00038281750519407508 0 -4.126768656734819e-05 0.00037913789493065051 0 -3.0554606850483872e-05 0.0003763051573075915 0 -3.5555021748313587e-05 0.00037291593320477922 0 -4.126768656734819e-05 0.00037913789493065051 0 -3.5555021748313587e-05 0.00037291593320477922 0 -6.636278802464742e-05 0.00038281750519407508 0 -0.00048717823795524124 0.0016489712575878761 0 -0.00045956835661714449 0.0016831755643202037 0 -0.00048298626393710533 0.0016785963952136854 0 -0.00048717823795524124 0.0016489712575878761 0 -0.00052177605428195561 0.0016681890738440759 0 -0.00048298626393710533 0.0016785963952136854 0 -0.00049384648080967673 0.0016321945408441895 0 -0.0006029767448782773 0.0014472199469926074 0 -0.00048717823795524124 0.0016489712575878761 0 -0.00074455374498127037 0.0015305685068054615 0 -0.00067791197486862214 0.0012268730802611062 0 -0.00048717823795524124 0.0016489712575878761 0 -0.00068187044198273969 0.0017153438141308348 0 -0.00044982857858299818 0.0017291339380033739 0 -0.00048717823795524124 0.0016489712575878761 0 -0.00068187044198273969 0.0017153438141308348 0 -0.00074455374498127037 0.0015305685068054615 0 -0.00068187044198273969 0.0017153438141308348 0 -0.00044982857858299818 0.0017291339380033739 0 -0.00063735260268848049 0.0018855012469990197 0 -0.00048717823795524124 0.0016489712575878761 0 -0.00045956835661714449 0.0016831755643202037 0 -0.00044982857858299818 0.0017291339380033739 0 -0.00076485281244812375 0.0020634757108166468 0 -0.00079359979212646607 0.0019781289223438046 0 -0.00087725056674475474 0.0020393073432580641 0 -0.00068145063566042751 0.0021282407339398065 0 -0.00071110579670203428 0.0020598711476036645 0 -0.00062936390660453631 0.0018450482247822358 0 -0.00071110579670203428 0.0020598711476036645 0 -0.00057287197601643865 0.0021860714711890326 0 -0.0006204436567001047 0.0022313470478568759 0 -0.00066553265838745982 0.0021554360824939276 0 -0.00057287197601643865 0.0021860714711890326 0 -0.00055430592739997328 0.0022616885831857332 0 -0.0006204436567001047 0.0022313470478568759 0 -0.00068258123727086434 0.0022379095552169008 0 -0.0006204436567001047 0.0022313470478568759 0 -0.00066553265838745982 0.0021554360824939276 0 -0.00072927065207888868 0.0021566013969640339 0 -0.00077320610853774121 0.0021577767690322573 0 -0.0007729967254700539 0.0021640312972345884 0 -0.00071110579670203428 0.0020598711476036645 0 -0.00090576867881748241 0.0020300197836816492 0 -0.00068187044198273969 0.0017153438141308348 0 -0.00063735260268848049 0.0018855012469990197 0 -0.00093280163061510866 0.0018388647001967334 0 -0.00072927065207888868 0.0021566013969640339 0 -0.00075731884864243344 0.0021892806849888053 0 -0.0007729967254700539 0.0021640312972345884 0 -0.00073016040166892792 0.0022480961718609441 0 -0.00068258123727086434 0.0022379095552169008 0 -0.00075731884864243344 0.0021892806849888053 0 -0.00068258123727086434 0.0022379095552169008 0 -0.00066553265838745982 0.0021554360824939276 0 -0.00075731884864243344 0.0021892806849888053 0 -0.00071110579670203428 0.0020598711476036645 0 -0.0007590153977852181 0.0022176794338041156 0 -0.00079050510666321802 0.0021622773729586611 0 -0.0007729967254700539 0.0021640312972345884 0 -0.00076371493857192003 0.0021599825697103622 0 -0.00078083561911055212 0.0022469668521273925 0 -0.00079050510666321802 0.0021622773729586611 0 -0.00075731884864243344 0.0021892806849888053 0 -0.00079050510666321802 0.0021622773729586611 0 -0.00075731884864243344 0.0021892806849888053 0 -0.0007729967254700539 0.0021640312972345884 0 -0.00077320610853774121 0.0021577767690322573 0 -0.0007729967254700539 0.0021640312972345884 0 -0.00076371493857192003 0.0021599825697103622 0 -0.00093280163061510866 0.0018388647001967334 0 -0.00090324663396515632 0.0016219243323916202 0 -0.0010980502263520508 0.0015575271843363873 0 -0.00068187044198273969 0.0017153438141308348 0 -0.00093280163061510866 0.0018388647001967334 0 -0.00090324663396515632 0.0016219243323916202 0 -0.00068187044198273969 0.0017153438141308348 0 -0.00090324663396515632 0.0016219243323916202 0 -0.00074455374498127037 0.0015305685068054615 0 -0.00090324663396515632 0.0016219243323916202 0 -0.00074455374498127037 0.0015305685068054615 0 -0.00094916318456881742 0.0013174784602016469 0 -0.00051304619907277548 0.00052999286788524508 0 -0.00049569867622705432 0.00075964817854996835 0 -0.00068404194555139568 0.00074070388774086574 0 -0.00079083999284660722 0.00097380865046995237 0 -0.00081070136444194747 0.0010492505443341802 0 -0.00090324663396515632 0.0016219243323916202 0 -0.0010980502263520508 0.0015575271843363873 0 -0.00094916318456881742 0.0013174784602016469 0 -0.00051304619907277548 0.00052999286788524508 0 -0.00038265489753454382 0.00061387488644891073 0 -0.00049569867622705432 0.00075964817854996835 0 -0.00051304619907277548 0.00052999286788524508 0 -0.00038265489753454382 0.00061387488644891073 0 -0.00037154362933720741 0.00050808707598597137 0 -0.00038265489753454382 0.00061387488644891073 0 -0.0002820085403417409 0.00055148853757176774 0 -0.00029762913032107407 0.00073737768723210553 0 -0.00038265489753454382 0.00061387488644891073 0 -0.0002820085403417409 0.00055148853757176774 0 -0.00037154362933720741 0.00050808707598597137 0 -0.00037154362933720741 0.00050808707598597137 0 -0.00039772791355556004 0.00040629676690318674 0 -0.00020818811402418679 0.00044701712311119763 0 -0.0002820085403417409 0.00055148853757176774 0 -0.00037154362933720741 0.00050808707598597137 0 -0.00020818811402418679 0.00044701712311119763 0 -0.00067198357726619634 0.0016084546674092833 0 -0.00041224148022565816 0.00083227945102051868 0 -0.00051304619907277548 0.00052999286788524508 0 -0.00037154362933720741 0.00050808707598597137 0 -0.00039772791355556004 0.00040629676690318674 0 -0.00093280163061510866 0.0018388647001967334 0 -0.0010980502263520508 0.0015575271843363873 0 -0.0012410499913569912 0.0017745668442130306 0 -0.00079083999284660722 0.00097380865046995237 0 -0.00067198357726619634 0.0016084546674092833 0 -0.00090576867881748241 0.0020300197836816492 0 -0.00067198357726619634 0.0016084546674092833 0 -0.00077320610853774121 0.0021577767690322573 0 -0.00074678272637279436 0.0021804562580677793 0 -0.00076371493857192003 0.0021599825697103622 0 -0.00074678272637279436 0.0021804562580677793 0 -0.00076371493857192003 0.0021599825697103622 0 -0.00070663509236343564 0.0021491980049237838 0 -0.00079050510666321802 0.0021622773729586611 0 -0.00076371493857192003 0.0021599825697103622 0 -0.00076010669208844393 0.0021262359675379683 0 -0.00075454107201253381 0.0020537968287274088 0 -0.00079050510666321802 0.0021622773729586611 0 -0.00076010669208844393 0.0021262359675379683 0 -0.00076371493857192003 0.0021599825697103622 0 -0.00073754005650783006 0.0021192701974595777 0 -0.00070663509236343564 0.0021491980049237838 0 -0.00076371493857192003 0.0021599825697103622 0 -0.00073754005650783006 0.0021192701974595777 0 -0.00076010669208844393 0.0021262359675379683 0 -0.0007447335395568942 0.0020963286331386654 0 -0.00072293826921489171 0.0020774531079422727 0 -0.00073754005650783006 0.0021192701974595777 0 -0.0007447335395568942 0.0020963286331386654 0 -0.00073754005650783006 0.0021192701974595777 0 -0.00076010669208844393 0.0021262359675379683 0 -0.0007052892000486209 0.0020968758836368818 0 -0.00070663509236343564 0.0021491980049237838 0 -0.00066288923745278319 0.0020643834237166802 0 -0.00072293826921489171 0.0020774531079422727 0 -0.00073754005650783006 0.0021192701974595777 0 -0.0007052892000486209 0.0020968758836368818 0 -0.00073754005650783006 0.0021192701974595777 0 -0.0007052892000486209 0.0020968758836368818 0 -0.00070663509236343564 0.0021491980049237838 0 -0.00069871173312575376 0.0021402952313426017 0 -0.00064709353754589588 0.0020480403449299367 0 -0.00058348994946072095 0.0019675916858600145 0 -0.00061563555902304293 0.0020167847187556316 0 -0.00065756935215084613 0.001956501680620774 0 -0.00067198357726619634 0.0016084546674092833 0 -0.00069871173312575376 0.0021402952313426017 0 -0.00061563555902304293 0.0020167847187556316 0 -0.00065659342113347837 0.0020132388672493623 0 -0.00065756935215084613 0.001956501680620774 0 -0.00048876059965669038 0.0013170025556376358 0 -0.00041224148022565816 0.00083227945102051868 0 -0.00065659342113347837 0.0020132388672493623 0 -0.00068021077041187177 0.0020246172487691431 0 -0.00065756935215084613 0.001956501680620774 0 -0.00065659342113347837 0.0020132388672493623 0 -0.00066288923745278319 0.0020643834237166802 0 -0.00068021077041187177 0.0020246172487691431 0 -0.00061563555902304293 0.0020167847187556316 0 -0.00065659342113347837 0.0020132388672493623 0 -0.00066288923745278319 0.0020643834237166802 0 -0.00066909564247767195 0.0020418488806653676 0 -0.00066288923745278319 0.0020643834237166802 0 -0.00068021077041187177 0.0020246172487691431 0 -0.00038708134160279944 0.001041994668825015 0 -0.00048876059965669038 0.0013170025556376358 0 -0.00066909564247767195 0.0020418488806653676 0 -0.00067089231511192069 0.0020370665947312991 0 -0.00068021077041187177 0.0020246172487691431 0 -0.00022402819520247092 0.00040737451782257606 0 -0.00022581565591322963 0.00047558046755476717 0 -0.00027055964275492846 0.00047125703951462496 0 -0.00022402819520247092 0.00040737451782257606 0 -0.00019857460245325831 0.00044586386949003342 0 -0.00022581565591322963 0.00047558046755476717 0 -0.00017283188266654993 0.0004794782062383365 0 -0.00019857460245325831 0.00044586386949003342 0 -0.00022581565591322963 0.00047558046755476717 0 -0.00017283188266654993 0.0004794782062383365 0 -0.00020285835690988187 0.0004919735631413654 0 -0.000186483127031164 0.00052324408191179849 0 -0.00018214479886996817 0.0004839526190584634 0 -0.00020377301623453425 0.00050184173645851 0 -0.00020285835690988187 0.0004919735631413654 0 -0.00022477703517600087 0.00052688086428041468 0 -0.000186483127031164 0.00052324408191179849 0 -0.00020377301623453425 0.00050184173645851 0 -0.00041224148022565816 0.00083227945102051868 0 -0.0002820085403417409 0.00055148853757176774 0 -0.00024928826881487825 0.00048859524828526516 0 -0.00022477703517600087 0.00052688086428041468 0 -0.00019796713942809988 0.00042802338608876066 0 -0.00041224148022565816 0.00083227945102051868 0 -0.00020285835690988187 0.0004919735631413654 0 -0.00024928826881487825 0.00048859524828526516 0 -0.00022477703517600087 0.00052688086428041468 0 -0.0002820085403417409 0.00055148853757176774 0 -0.00021484629276822043 0.00058061862925938405 0 -0.00024835185112446285 0.00065722747106487789 0 -0.0002820085403417409 0.00055148853757176774 0 -0.00022477703517600087 0.00052688086428041468 0 -0.00021484629276822043 0.00058061862925938405 0 -0.00022477703517600087 0.00052688086428041468 0 -0.000186483127031164 0.00052324408191179849 0 -0.00021484629276822043 0.00058061862925938405 0 -0.00016304454026126261 0.00055489632790405919 0 -0.00021484629276822043 0.00058061862925938405 0 -0.00020797285081447734 0.00062871509155680355 0 -0.00016304454026126261 0.00055489632790405919 0 -0.000186483127031164 0.00052324408191179849 0 -0.00021484629276822043 0.00058061862925938405 0 -0.00021484629276822043 0.00058061862925938405 0 -0.00024835185112446285 0.00065722747106487789 0 -0.00020797285081447734 0.00062871509155680355 0 -0.00024835185112446285 0.00065722747106487789 0 -0.00025248344005650747 0.00067066972569865269 0 -0.00020797285081447734 0.00062871509155680355 0 -0.00016567870096510711 0.00064758378620382814 0 -0.00020797285081447734 0.00062871509155680355 0 -0.00022147900499689451 0.00069475317131171763 0 8.2222881089835315e-05 0.0011195890152810499 0 0.00010832965538596696 0.0013602237329169871 0 -0.00023531532236252084 0.001281063384029149 0 -6.1257339339290066e-05 0.00087017202733447106 0 -6.9427752779625227e-05 0.0012156706892526921 0 0.00010832965538596696 0.0013602237329169871 0 -0.00023531532236252084 0.001281063384029149 0 -1.6972334864020034e-05 0.0015432394220044516 0 -6.9427752779625227e-05 0.0012156706892526921 0 8.3923452308077158e-05 0.0016395257560772559 0 5.6995366487193131e-05 0.0014971070142281283 0 3.9779611479608708e-05 0.0016887529304792897 0 0.00016843882275529602 0.0016836545795314022 0 5.6995366487193131e-05 0.0014971070142281283 0 -0.00010211765683371465 0.0015516721969612299 0 3.9779611479608708e-05 0.0016887529304792897 0 -6.9427752779625227e-05 0.0012156706892526921 0 -6.6677821622459046e-05 0.0015036246411967199 0 -0.00010211765683371465 0.0015516721969612299 0 -0.00011607238998733165 0.0016918356967618815 0 3.9779611479608708e-05 0.0016887529304792897 0 -0.00014790637818583421 0.00082868022031583853 0 -6.9427752779625227e-05 0.0012156706892526921 0 -1.7101965653488542e-05 0.0010393759355706812 0 0.0002197266715731389 0.0013246876674538779 0 -4.8412794455356675e-05 0.001462110634569896 0 -0.00025248344005650747 0.00067066972569865269 0 -0.00020797285081447734 0.00062871509155680355 0 -0.00022147900499689451 0.00069475317131171763 0 -0.00023995535479212263 0.0011816663353529271 0 -4.8412794455356675e-05 0.001462110634569896 0 -0.00028453974802478301 0.0014059112698639493 0 -1.7101965653488542e-05 0.0010393759355706812 0 -0.00023995535479212263 0.0011816663353529271 0 -4.8412794455356675e-05 0.001462110634569896 0 -6.6677821622459046e-05 0.0015036246411967199 0 -0.00029076954192586401 0.0015977842853192763 0 -0.00010211765683371465 0.0015516721969612299 0 -0.00030987679741433671 0.0015995919633558136 0 -0.00011607238998733165 0.0016918356967618815 0 -4.8412794455356675e-05 0.001462110634569896 0 -0.00028453974802478301 0.0014059112698639493 0 -0.00030987679741433671 0.0015995919633558136 0 -0.00030987679741433671 0.0015995919633558136 0 -0.00043904964793514147 0.001487551894533648 0 -0.00061396241213862196 0.0015383939095874079 0 -0.00028453974802478301 0.0014059112698639493 0 -0.00030987679741433671 0.0015995919633558136 0 -0.00043904964793514147 0.001487551894533648 0 -0.00028453974802478301 0.0014059112698639493 0 -0.00043904964793514147 0.001487551894533648 0 -0.00038079674276477387 0.0013006483411250338 0 -0.00043904964793514147 0.001487551894533648 0 -0.00050776385012006662 0.0013185799442912596 0 -0.00058456760861917473 0.0014905928929273111 0 -0.00043904964793514147 0.001487551894533648 0 -0.00050776385012006662 0.0013185799442912596 0 -0.00038079674276477387 0.0013006483411250338 0 -0.00050776385012006662 0.0013185799442912596 0 -0.00038079674276477387 0.0013006483411250338 0 -0.00047848650779193927 0.0010863946023545864 0 -0.00023995535479212263 0.0011816663353529271 0 -0.00028453974802478301 0.0014059112698639493 0 -0.00038079674276477387 0.0013006483411250338 0 -0.00023995535479212263 0.0011816663353529271 0 -0.00038079674276477387 0.0013006483411250338 0 -0.00047848650779193927 0.0010863946023545864 0 -0.00050776385012006662 0.0013185799442912596 0 -0.00047848650779193927 0.0010863946023545864 0 -0.00060695022720696026 0.0011976820571408477 0 -0.00047848650779193927 0.0010863946023545864 0 -0.00029762913032107407 0.00073737768723210553 0 -0.00049569867622705432 0.00075964817854996835 0 -0.00023995535479212263 0.0011816663353529271 0 -0.00047848650779193927 0.0010863946023545864 0 -0.00029762913032107407 0.00073737768723210553 0 -0.00014790637818583421 0.00082868022031583853 0 -0.00027587907759395381 0.00074646416178638991 0 -1.7101965653488542e-05 0.0010393759355706812 0 -0.00023995535479212263 0.0011816663353529271 0 -0.00029762913032107407 0.00073737768723210553 0 -0.00024835185112446285 0.00065722747106487789 0 -0.00025248344005650747 0.00067066972569865269 0 -0.00029762913032107407 0.00073737768723210553 0 -0.0002820085403417409 0.00055148853757176774 0 -0.00024835185112446285 0.00065722747106487789 0 -0.00029762913032107407 0.00073737768723210553 0 -0.00038265489753454382 0.00061387488644891073 0 -0.00029762913032107407 0.00073737768723210553 0 -0.00049569867622705432 0.00075964817854996835 0 -0.00068404194555139568 0.00074070388774086574 0 -0.00076459587593661271 0.0011078651880723574 0 -0.00065158750248845993 0.00096167423675807629 0 -0.00049569867622705432 0.00075964817854996835 0 -0.00068404194555139568 0.00074070388774086574 0 -0.00065158750248845993 0.00096167423675807629 0 -0.00081070136444194747 0.0010492505443341802 0 -0.00077460698375878369 0.0010804513323689198 0 -0.00094916318456881742 0.0013174784602016469 0 -0.00076459587593661271 0.0011078651880723574 0 -0.00067791197486862214 0.0012268730802611062 0 -0.00074455374498127037 0.0015305685068054615 0 -0.00094916318456881742 0.0013174784602016469 0 -0.00067791197486862214 0.0012268730802611062 0 -0.00068660764497940332 0.0013267276617787483 0 -0.0006029767448782773 0.0014472199469926074 0 -0.00058918974232437173 0.0015857690541328324 0 -0.00052984805364030799 0.0015941941555560747 0 -0.00052177605428195561 0.0016681890738440759 0 -0.00076459587593661271 0.0011078651880723574 0 -0.00080006235874659887 0.001043277088897541 0 -0.00067791197486862214 0.0012268730802611062 0 -0.00076459587593661271 0.0011078651880723574 0 -0.00080006235874659887 0.001043277088897541 0 -0.00065158750248845993 0.00096167423675807629 0 -0.00080006235874659887 0.001043277088897541 0 -0.00065840315073452177 0.0010620620439226395 0 -0.00065158750248845993 0.00096167423675807629 0 -0.00047848650779193927 0.0010863946023545864 0 -0.00049569867622705432 0.00075964817854996835 0 -0.00065158750248845993 0.00096167423675807629 0 -0.00047848650779193927 0.0010863946023545864 0 -0.00065840315073452177 0.0010620620439226395 0 -0.00065158750248845993 0.00096167423675807629 0 -0.00080006235874659887 0.001043277088897541 0 -0.00060695022720696026 0.0011976820571408477 0 -0.00058456760861917473 0.0014905928929273111 0 -0.00050776385012006662 0.0013185799442912596 0 -0.00060695022720696026 0.0011976820571408477 0 -0.00058456760861917473 0.0014905928929273111 0 -0.00058918974232437173 0.0015857690541328324 0 -0.00058456760861917473 0.0014905928929273111 0 -0.00058370282754199485 0.0015333126874632489 0 -0.00068660764497940332 0.0013267276617787483 0 -0.00058767071627092711 0.0014835826892638413 0 -0.00047848650779193927 0.0010863946023545864 0 -0.00065840315073452177 0.0010620620439226395 0 -0.00060695022720696026 0.0011976820571408477 0 -0.00080006235874659887 0.001043277088897541 0 -0.00065840315073452177 0.0010620620439226395 0 -0.00060695022720696026 0.0011976820571408477 0 -0.00058456760861917473 0.0014905928929273111 0 -0.00061396241213862196 0.0015383939095874079 0 -0.00058370282754199485 0.0015333126874632489 0 -0.00043904964793514147 0.001487551894533648 0 -0.00058456760861917473 0.0014905928929273111 0 -0.00061396241213862196 0.0015383939095874079 0 1.8672069555770764e-05 0.0019294257765020983 0 3.0347602064899816e-07 0.0018997223899084653 0 -7.9142982168128984e-06 0.0019373815236267515 0 -0.00061396241213862196 0.0015383939095874079 0 -0.00058370282754199485 0.0015333126874632489 0 -0.00054911396973384872 0.0015301207530214751 0 4.0599882255886995e-05 0.0019317371712040663 0 1.8672069555770764e-05 0.0019294257765020983 0 3.0347602064899816e-07 0.0018997223899084653 0 -0.00027950052777771093 0.0017384430644398026 0 -0.00027911846214609588 0.0017181597923495409 0 -0.00054911396973384872 0.0015301207530214751 0 -0.00056543088304834073 0.0015583142158926673 0 -0.00052984805364030799 0.0015941941555560747 0 -0.00058918974232437173 0.0015857690541328324 0 -0.00056543088304834073 0.0015583142158926673 0 -0.00052984805364030799 0.0015941941555560747 0 -0.00058370282754199485 0.0015333126874632489 0 -0.00054911396973384872 0.0015301207530214751 0 -0.00056543088304834073 0.0015583142158926673 0 -0.00058918974232437173 0.0015857690541328324 0 -0.00058370282754199485 0.0015333126874632489 0 -0.00056543088304834073 0.0015583142158926673 0 -0.00054911396973384872 0.0015301207530214751 0 -0.00047530618765009652 0.0015806230975496589 0 -0.00052984805364030799 0.0015941941555560747 0 -0.00027911846214609588 0.0017181597923495409 0 -0.00025391930872315139 0.0017107809055669299 0 3.0347602064899816e-07 0.0018997223899084653 0 -4.9313957836656568e-05 0.0019299564801773614 0 -7.9142982168128984e-06 0.0019373815236267515 0 3.0347602064899816e-07 0.0018997223899084653 0 -4.9313957836656568e-05 0.0019299564801773614 0 -6.206437023525594e-05 0.0018694533699783124 0 -9.8175689746499758e-05 0.0019144791312558686 0 -4.9313957836656568e-05 0.0019299564801773614 0 -6.206437023525594e-05 0.0018694533699783124 0 -0.00045582275937426691 0.0016591633078969104 0 -0.00047530618765009652 0.0015806230975496589 0 -0.00049265734647983036 0.0016393109690681022 0 -0.00047530618765009652 0.0015806230975496589 0 -0.00049265734647983036 0.0016393109690681022 0 -0.00052984805364030799 0.0015941941555560747 0 -0.00049265734647983036 0.0016393109690681022 0 -0.00052984805364030799 0.0015941941555560747 0 -0.00052177605428195561 0.0016681890738440759 0 -0.00049265734647983036 0.0016393109690681022 0 -0.00052177605428195561 0.0016681890738440759 0 -0.00048298626393710533 0.0016785963952136854 0 -0.00045582275937426691 0.0016591633078969104 0 -0.00049265734647983036 0.0016393109690681022 0 -0.00048298626393710533 0.0016785963952136854 0 7.4805918072148333e-05 0.0020619253591861834 0 4.3894913427102162e-05 0.0020504780438806757 0 3.6714528481843744e-05 0.00210016943646544 0 7.4805918072148333e-05 0.0020619253591861834 0 4.3894913427102162e-05 0.0020504780438806757 0 7.029946559482406e-05 0.0021043414889305237 0 4.3894913427102162e-05 0.0020504780438806757 0 1.3587400664816988e-05 0.0020516901747573272 0 4.0123193727997893e-05 0.0020065649379093038 0 4.3894913427102162e-05 0.0020504780438806757 0 1.3587400664816988e-05 0.0020516901747573272 0 7.029946559482406e-05 0.0021043414889305237 0 1.3645848251739488e-05 0.0020637076916537132 0 4.0085979976825633e-05 0.0021227967646012297 0 1.3587400664816988e-05 0.0020516901747573272 0 7.029946559482406e-05 0.0021043414889305237 0 0.00012437223452032041 0.0022442707243951979 0 1.3587400664816988e-05 0.0020516901747573272 0 -9.776232777049312e-06 0.0019963493398689968 0 2.8660927167815647e-05 0.0019918465310881693 0 0.00010525200223294488 0.002317586118444852 0 0.00012079040352082445 0.0022641519528564542 0 7.4805918072148333e-05 0.0020619253591861834 0 7.029946559482406e-05 0.0021043414889305237 0 0.00012336957329560534 0.0022493794409518958 0 8.426326435965468e-05 0.0022450708901644895 0 0.00012336957329560534 0.0022493794409518958 0 0.00012437223452032041 0.0022442707243951979 0 7.029946559482406e-05 0.0021043414889305237 0 0.00012336957329560534 0.0022493794409518958 0 0.00012437223452032041 0.0022442707243951979 0 -9.8675604882223763e-05 0.0019610192982661401 0 -5.5340448552499352e-05 0.0019959531660482303 0 -5.801660874729012e-05 0.0019644145467834968 0 -1.6849846420369606e-05 0.0020585779273041447 0 4.0085979976825633e-05 0.0021227967646012297 0 -5.5340448552499352e-05 0.0019959531660482303 0 -4.1385103352102299e-05 0.0019783999929090558 0 -9.776232777049312e-06 0.0019963493398689968 0 -5.5340448552499352e-05 0.0019959531660482303 0 -4.1385103352102299e-05 0.0019783999929090558 0 -5.801660874729012e-05 0.0019644145467834968 0 -4.1385103352102299e-05 0.0019783999929090558 0 -5.801660874729012e-05 0.0019644145467834968 0 -2.3849460546442804e-05 0.0019676478063818809 0 -4.9313957836656568e-05 0.0019299564801773614 0 -5.801660874729012e-05 0.0019644145467834968 0 -2.3849460546442804e-05 0.0019676478063818809 0 -9.8675604882223763e-05 0.0019610192982661401 0 -4.9313957836656568e-05 0.0019299564801773614 0 -5.801660874729012e-05 0.0019644145467834968 0 -4.9313957836656568e-05 0.0019299564801773614 0 -7.9142982168128984e-06 0.0019373815236267515 0 -2.3849460546442804e-05 0.0019676478063818809 0 -7.9142982168128984e-06 0.0019373815236267515 0 -2.3849460546442804e-05 0.0019676478063818809 0 8.6305626180810523e-06 0.0019604042712192773 0 1.3587400664816988e-05 0.0020516901747573272 0 -5.5340448552499352e-05 0.0019959531660482303 0 -9.776232777049312e-06 0.0019963493398689968 0 -2.3849460546442804e-05 0.0019676478063818809 0 -9.776232777049312e-06 0.0019963493398689968 0 8.6305626180810523e-06 0.0019604042712192773 0 -4.1385103352102299e-05 0.0019783999929090558 0 -2.3849460546442804e-05 0.0019676478063818809 0 -9.776232777049312e-06 0.0019963493398689968 0 -9.776232777049312e-06 0.0019963493398689968 0 2.8660927167815647e-05 0.0019918465310881693 0 8.6305626180810523e-06 0.0019604042712192773 0 2.8660927167815647e-05 0.0019918465310881693 0 8.6305626180810523e-06 0.0019604042712192773 0 3.3960392634788181e-05 0.0019520935020904521 0 1.8672069555770764e-05 0.0019294257765020983 0 8.6305626180810523e-06 0.0019604042712192773 0 3.3960392634788181e-05 0.0019520935020904521 0 1.8672069555770764e-05 0.0019294257765020983 0 3.5221951215206862e-05 0.0019383166962291395 0 3.3960392634788181e-05 0.0019520935020904521 0 1.8672069555770764e-05 0.0019294257765020983 0 -7.9142982168128984e-06 0.0019373815236267515 0 8.6305626180810523e-06 0.0019604042712192773 0 4.0599882255886995e-05 0.0019317371712040663 0 4.1304081130185235e-05 0.0019382379248980034 0 3.5221951215206862e-05 0.0019383166962291395 0 4.0599882255886995e-05 0.0019317371712040663 0 1.8672069555770764e-05 0.0019294257765020983 0 3.5221951215206862e-05 0.0019383166962291395 0 4.1304081130185235e-05 0.0019382379248980034 0 3.5221951215206862e-05 0.0019383166962291395 0 3.3960392634788181e-05 0.0019520935020904521 0 4.1304081130185235e-05 0.0019382379248980034 0 3.3960392634788181e-05 0.0019520935020904521 0 4.3250574414261132e-05 0.0019433678421330064 0 2.8660927167815647e-05 0.0019918465310881693 0 3.3960392634788181e-05 0.0019520935020904521 0 4.0588260629626156e-05 0.0019665186709199511 0 3.3960392634788181e-05 0.0019520935020904521 0 4.0588260629626156e-05 0.0019665186709199511 0 4.3250574414261132e-05 0.0019433678421330064 0 4.0588260629626156e-05 0.0019665186709199511 0 4.0123193727997893e-05 0.0020065649379093038 0 4.2167183462459483e-05 0.0019648777332114549 0 2.8660927167815647e-05 0.0019918465310881693 0 4.0588260629626156e-05 0.0019665186709199511 0 4.0123193727997893e-05 0.0020065649379093038 0 1.3587400664816988e-05 0.0020516901747573272 0 2.8660927167815647e-05 0.0019918465310881693 0 4.0123193727997893e-05 0.0020065649379093038 0 4.3894913427102162e-05 0.0020504780438806757 0 4.0123193727997893e-05 0.0020065649379093038 0 5.1507970405372696e-05 0.0020193819273805159 0 4.0123193727997893e-05 0.0020065649379093038 0 4.2167183462459483e-05 0.0019648777332114549 0 4.8555103244699667e-05 0.0019500509789786057 0 4.0123193727997893e-05 0.0020065649379093038 0 4.8555103244699667e-05 0.0019500509789786057 0 5.1507970405372696e-05 0.0020193819273805159 0 4.2494735669700061e-05 0.0019567713066291547 0 4.2167183462459483e-05 0.0019648777332114549 0 4.8555103244699667e-05 0.0019500509789786057 0 4.2494735669700061e-05 0.0019567713066291547 0 7.7016464198252424e-05 0.0019450400945037441 0 5.0495123810442689e-05 0.0019774930912507924 0 4.2494735669700061e-05 0.0019567713066291547 0 4.3013436032277345e-05 0.001932196666148958 0 7.7016464198252424e-05 0.0019450400945037441 0 4.0588260629626156e-05 0.0019665186709199511 0 4.2167183462459483e-05 0.0019648777332114549 0 4.3460352373369077e-05 0.0019341887676147488 0 4.3013436032277345e-05 0.001932196666148958 0 4.2167183462459483e-05 0.0019648777332114549 0 4.3460352373369077e-05 0.0019341887676147488 0 4.2494735669700061e-05 0.0019567713066291547 0 4.3013436032277345e-05 0.001932196666148958 0 4.2167183462459483e-05 0.0019648777332114549 0 4.0588260629626156e-05 0.0019665186709199511 0 4.3460352373369077e-05 0.0019341887676147488 0 4.3250574414261132e-05 0.0019433678421330064 0 4.3460352373369077e-05 0.0019341887676147488 0 4.3250574414261132e-05 0.0019433678421330064 0 4.4901667033353292e-05 0.0019291809280435621 0 4.1304081130185235e-05 0.0019382379248980034 0 4.3250574414261132e-05 0.0019433678421330064 0 4.4901667033353292e-05 0.0019291809280435621 0 -0.00030987679741433671 0.0015995919633558136 0 -0.00061396241213862196 0.0015383939095874079 0 -0.00027192628102569878 0.0017474209408549835 0 4.0599882255886995e-05 0.0019317371712040663 0 4.1304081130185235e-05 0.0019382379248980034 0 4.4901667033353292e-05 0.0019291809280435621 0 -0.00027950052777771093 0.0017384430644398026 0 -0.0001096569068667978 0.0018326711364763354 0 -0.0001096569068667978 0.0018326711364763354 0 3.2435504853278801e-05 0.0018678852093280598 0 -0.00011607238998733165 0.0016918356967618815 0 -0.00027192628102569878 0.0017474209408549835 0 4.1467051242621963e-05 0.001862059839179162 0 -0.00030987679741433671 0.0015995919633558136 0 -0.00011607238998733165 0.0016918356967618815 0 -0.00027192628102569878 0.0017474209408549835 0 4.3013436032277345e-05 0.001932196666148958 0 4.3460352373369077e-05 0.0019341887676147488 0 4.1467051242621963e-05 0.001862059839179162 0 4.3460352373369077e-05 0.0019341887676147488 0 4.4901667033353292e-05 0.0019291809280435621 0 4.1467051242621963e-05 0.001862059839179162 0 -0.00011607238998733165 0.0016918356967618815 0 4.1467051242621963e-05 0.001862059839179162 0 3.9779611479608708e-05 0.0016887529304792897 0 4.1467051242621963e-05 0.001862059839179162 0 3.9779611479608708e-05 0.0016887529304792897 0 0.00013802297670788499 0.0018092374678671688 0 3.9779611479608708e-05 0.0016887529304792897 0 0.00016843882275529602 0.0016836545795314022 0 0.00013802297670788499 0.0018092374678671688 0 4.1467051242621963e-05 0.001862059839179162 0 0.00013802297670788499 0.0018092374678671688 0 0.00013406104143743691 0.0018990170996430998 0 0.00013802297670788499 0.0018092374678671688 0 0.00013406104143743691 0.0018990170996430998 0 0.00017186916253868756 0.0018449764326172577 0 4.1467051242621963e-05 0.001862059839179162 0 0.00013406104143743691 0.0018990170996430998 0 7.7016464198252424e-05 0.0019450400945037441 0 4.3013436032277345e-05 0.001932196666148958 0 4.1467051242621963e-05 0.001862059839179162 0 7.7016464198252424e-05 0.0019450400945037441 0 7.7016464198252424e-05 0.0019450400945037441 0 0.00011981984128662176 0.0020064146166171798 0 0.00016651783028547037 0.0019627819186832599 0 0.00013406104143743691 0.0018990170996430998 0 7.7016464198252424e-05 0.0019450400945037441 0 0.00016651783028547037 0.0019627819186832599 0 9.8454203330446165e-05 0.0019064587738023236 0 4.3585798085936629e-05 0.0018925773332970494 0 7.7016464198252424e-05 0.0019450400945037441 0 0.00011981984128662176 0.0020064146166171798 0 5.0495123810442689e-05 0.0019774930912507924 0 -1.8351143923958025e-06 0.0017141897739817702 0 3.34528820550284e-05 0.0016673693150911759 0 4.1132447909674667e-05 0.0018130553921980618 0 -1.8351143923958025e-06 0.0017141897739817702 0 -4.7814184199475788e-06 0.0016023081120654346 0 3.34528820550284e-05 0.0016673693150911759 0 -1.8351143923958025e-06 0.0017141897739817702 0 -4.7814184199475788e-06 0.0016023081120654346 0 -5.7022548053464987e-05 0.00162172438938546 0 -4.7814184199475788e-06 0.0016023081120654346 0 -3.9364366128169433e-06 0.0014380945103718674 0 3.34528820550284e-05 0.0016673693150911759 0 -3.9364366128169433e-06 0.0014380945103718674 0 1.0847085348421516e-07 0.0013756657106025728 0 3.34528820550284e-05 0.0016673693150911759 0 -4.7814184199475788e-06 0.0016023081120654346 0 -3.9364366128169433e-06 0.0014380945103718674 0 -4.3035669757085008e-05 0.0015128739103409505 0 -3.9364366128169433e-06 0.0014380945103718674 0 1.0847085348421516e-07 0.0013756657106025728 0 -1.1951080409320371e-05 0.0012901437307682869 0 1.0847085348421516e-07 0.0013756657106025728 0 3.34528820550284e-05 0.0016673693150911759 0 4.7732437017637136e-08 0.0016664687000672385 0 3.34528820550284e-05 0.0016673693150911759 0 4.7732437017637136e-08 0.0016664687000672385 0 4.2814485200080912e-05 0.0018319400336504145 0 4.7732437017637136e-08 0.0016664687000672385 0 4.2814485200080912e-05 0.0018319400336504145 0 8.8616452849976575e-08 0.001957375633702239 0 3.34528820550284e-05 0.0016673693150911759 0 4.2814485200080912e-05 0.0018319400336504145 0 4.1132447909674667e-05 0.0018130553921980618 0 4.2494735669700061e-05 0.0019567713066291547 0 5.0495123810442689e-05 0.0019774930912507924 0 4.8555103244699667e-05 0.0019500509789786057 0 4.3585798085936629e-05 0.0018925773332970494 0 6.0907499682537153e-05 0.0019429893456984336 0 4.2814485200080912e-05 0.0018319400336504145 0 4.1132447909674667e-05 0.0018130553921980618 0 4.8555103244699667e-05 0.0019500509789786057 0 4.8555103244699667e-05 0.0019500509789786057 0 5.1507970405372696e-05 0.0020193819273805159 0 5.1625609827803836e-05 0.0020025138971507843 0 5.1625609827803836e-05 0.0020025138971507843 0 3.2287557499411725e-05 0.0021423868571379527 0 5.2017949832080298e-05 0.0020809566310311866 0 5.1507970405372696e-05 0.0020193819273805159 0 5.1625609827803836e-05 0.0020025138971507843 0 5.2017949832080298e-05 0.0020809566310311866 0 4.2814485200080912e-05 0.0018319400336504145 0 4.8555103244699667e-05 0.0019500509789786057 0 5.1625609827803836e-05 0.0020025138971507843 0 4.2814485200080912e-05 0.0018319400336504145 0 8.8616452849976575e-08 0.001957375633702239 0 5.1625609827803836e-05 0.0020025138971507843 0 8.8616452849976575e-08 0.001957375633702239 0 5.1625609827803836e-05 0.0020025138971507843 0 6.3593517499612327e-08 0.0022482196580775682 0 5.1625609827803836e-05 0.0020025138971507843 0 3.2287557499411725e-05 0.0021423868571379527 0 6.3593517499612327e-08 0.0022482196580775682 0 3.2287557499411725e-05 0.0021423868571379527 0 3.0094579649479552e-05 0.0022471170531650894 0 5.2017949832080298e-05 0.0020809566310311866 0 3.2287557499411725e-05 0.0021423868571379527 0 6.3593517499612327e-08 0.0022482196580775682 0 3.0094579649479552e-05 0.0022471170531650894 0 1.4063463085773338e-07 0.0025392468066751639 0 6.3593517499612327e-08 0.0022482196580775682 0 3.0094579649479552e-05 0.0022471170531650894 0 3.0094579649479552e-05 0.0022471170531650894 0 5.2017949832080298e-05 0.0020809566310311866 0 3.6714528481843744e-05 0.00210016943646544 0 4.3894913427102162e-05 0.0020504780438806757 0 5.1507970405372696e-05 0.0020193819273805159 0 5.2017949832080298e-05 0.0020809566310311866 0 4.3894913427102162e-05 0.0020504780438806757 0 5.2017949832080298e-05 0.0020809566310311866 0 3.6714528481843744e-05 0.00210016943646544 0 2.7005918454828277e-05 0.0004162992783235765 0 8.9605842133681088e-05 0.00042348711904852728 0 1.8668491116083336e-05 0.00033603142084814885 0 6.471113328135405e-05 0.00012974562078600351 0 5.343018153312866e-05 0.00041638178306343317 0 -1.2512876338069082e-05 0.00037591938095800885 0 2.7005918454828277e-05 0.0004162992783235765 0 1.8668491116083336e-05 0.00033603142084814885 0 -1.2512876338069082e-05 0.00037591938095800885 0 1.2481578269119556e-06 0.00044782323766522477 0 2.7005918454828277e-05 0.0004162992783235765 0 -1.2512876338069082e-05 0.00037591938095800885 0 1.2481578269119556e-06 0.00044782323766522477 0 -4.1502656960665823e-05 0.00041752914639718553 0 1.2481578269119556e-06 0.00044782323766522477 0 -4.1502656960665823e-05 0.00041752914639718553 0 -3.1060088146005906e-05 0.00048289206832748447 0 1.2481578269119556e-06 0.00044782323766522477 0 3.9637242843299411e-05 0.00046815654593116205 0 2.4815535455787198e-05 0.0005124876432833509 0 2.7005918454828277e-05 0.0004162992783235765 0 3.9637242843299411e-05 0.00046815654593116205 0 8.9605842133681088e-05 0.00042348711904852728 0 1.2481578269119556e-06 0.00044782323766522477 0 2.7005918454828277e-05 0.0004162992783235765 0 3.9637242843299411e-05 0.00046815654593116205 0 3.9637242843299411e-05 0.00046815654593116205 0 8.9605842133681088e-05 0.00042348711904852728 0 4.9583137853865106e-05 0.00051886020283188063 0 -4.1457309909815299e-05 -0.00020939622761655217 0 -1.3112232505722407e-06 -0.00017857693925603363 0 -4.6374203215857899e-05 -0.00015847454317060073 0 6.471113328135405e-05 0.00012974562078600351 0 -6.7700094785510088e-06 0.0001718717408823127 0 0.00018303778050200625 -7.47229358293994e-05 0 5.4891920682275088e-05 -0.00015088560744201391 0 6.172016846356833e-05 -0.00029579538265503739 0 6.471113328135405e-05 0.00012974562078600351 0 1.3056766132164586e-05 -0.00027980898060645887 0 5.4891920682275088e-05 -0.00015088560744201391 0 6.172016846356833e-05 -0.00029579538265503739 0 4.1477451296422897e-05 -0.00023783370557896519 0 5.4891920682275088e-05 -0.00015088560744201391 0 4.1477451296422897e-05 -0.00023783370557896519 0 3.6219911268483009e-05 -0.00020081407252469128 0 5.4891920682275088e-05 -0.00015088560744201391 0 1.8567195963935736e-05 0.00011485547659257722 0 -0.0001253519211066462 0.00015736261013333792 0 4.9306918876000664e-05 -0.00014253424277194503 0 -3.6967743084016777e-05 -2.3855590235137148e-05 0 0.00018303778050200625 -7.47229358293994e-05 0 5.4891920682275088e-05 -0.00015088560744201391 0 1.8567195963935736e-05 0.00011485547659257722 0 0.00018303778050200625 -7.47229358293994e-05 0 1.8567195963935736e-05 0.00011485547659257722 0 7.8162837116969576e-05 0.00026813938295577872 0 6.471113328135405e-05 0.00012974562078600351 0 9.9577769923298699e-05 0.00025168867509815877 0 8.0831882806007264e-05 0.00035239037457227208 0 7.8162837116969576e-05 0.00026813938295577872 0 1.8668491116083336e-05 0.00033603142084814885 0 7.8162837116969576e-05 0.00026813938295577872 0 -4.7557067993164564e-05 0.00023235605339863626 0 -4.9114254469093554e-05 0.00029849093357224127 0 1.8567195963935736e-05 0.00011485547659257722 0 7.8162837116969576e-05 0.00026813938295577872 0 -4.7557067993164564e-05 0.00023235605339863626 0 1.8567195963935736e-05 0.00011485547659257722 0 -4.7557067993164564e-05 0.00023235605339863626 0 -0.0001253519211066462 0.00015736261013333792 0 -6.1296838787966497e-05 0.00034665368592473334 0 -4.9114254469093554e-05 0.00029849093357224127 0 -4.1862257209219996e-06 0.00032882340167222533 0 7.8162837116969576e-05 0.00026813938295577872 0 -4.9114254469093554e-05 0.00029849093357224127 0 -4.1862257209219996e-06 0.00032882340167222533 0 7.8162837116969576e-05 0.00026813938295577872 0 -4.1862257209219996e-06 0.00032882340167222533 0 1.4512648373318572e-05 0.00032372551535288924 0 -1.6457906148809411e-05 0.00035728412798109261 0 -4.1862257209219996e-06 0.00032882340167222533 0 1.4512648373318572e-05 0.00032372551535288924 0 -2.1019063647293737e-05 0.00036418394703438735 0 1.4512648373318572e-05 0.00032372551535288924 0 -7.6413035085868173e-06 0.00034253027771732208 0 1.4512648373318572e-05 0.00032372551535288924 0 1.8668491116083336e-05 0.00033603142084814885 0 -7.6413035085868173e-06 0.00034253027771732208 0 7.8162837116969576e-05 0.00026813938295577872 0 1.4512648373318572e-05 0.00032372551535288924 0 1.8668491116083336e-05 0.00033603142084814885 0 -1.2512876338069082e-05 0.00037591938095800885 0 1.8668491116083336e-05 0.00033603142084814885 0 -7.6413035085868173e-06 0.00034253027771732208 0 -7.6413035085868173e-06 0.00034253027771732208 0 -1.546868812448043e-05 0.00036917852651955843 0 -4.7491250733699119e-05 0.00035837091133539793 0 -1.2512876338069082e-05 0.00037591938095800885 0 -7.6413035085868173e-06 0.00034253027771732208 0 -4.7491250733699119e-05 0.00035837091133539793 0 -2.1019063647293737e-05 0.00036418394703438735 0 -7.6413035085868173e-06 0.00034253027771732208 0 -1.546868812448043e-05 0.00036917852651955843 0 -1.546868812448043e-05 0.00036917852651955843 0 -6.0072081447003056e-05 0.00039683033598464243 0 -6.8907682293328467e-06 0.00048475993927298158 0 -6.0072081447003056e-05 0.00039683033598464243 0 -6.6558144565549427e-05 0.00045968024466633983 0 -0.00012081443956658369 0.00044431517606703137 0 -6.6558144565549427e-05 0.00045968024466633983 0 -6.8907682293328467e-06 0.00048475993927298158 0 -7.8926936321973727e-05 0.00051865965048590525 0 -6.0072081447003056e-05 0.00039683033598464243 0 -6.6558144565549427e-05 0.00045968024466633983 0 -6.8907682293328467e-06 0.00048475993927298158 0 -6.6558144565549427e-05 0.00045968024466633983 0 -0.00012081443956658369 0.00044431517606703137 0 -7.8926936321973727e-05 0.00051865965048590525 0 -1.4958930226556777e-05 0.00037090397636891325 0 -3.1981338763688411e-05 0.00043697871948039679 0 -1.6972334864020034e-05 0.0015432394220044516 0 0.00020177704607917326 0.0015766874849332928 0 0.00021575154115734157 0.0017924075689453483 0 8.3923452308077158e-05 0.0016395257560772559 0 0.00019998715932813429 0.0017682069917491802 0 0.00016843882275529602 0.0016836545795314022 0 0.00013802297670788499 0.0018092374678671688 0 0.00021575154115734157 0.0017924075689453483 0 0.00036952745474913492 0.0013809482696292355 0 0.00020177704607917326 0.0015766874849332928 0 0.00030428773261975992 0.0017888886627925576 0 0.00015758481451179051 0.00088288749312113817 0 8.733886272048031e-05 0.0011191081547032218 0 0.00020177704607917326 0.0015766874849332928 0 0.00030428773261975992 0.0017888886627925576 0 0.00021575154115734157 0.0017924075689453483 0 -6.8761228737735581e-05 0.00037483293489205149 0 -6.0072081447003056e-05 0.00039683033598464243 0 -0.00012081443956658369 0.00044431517606703137 0 0.00030428773261975992 0.0017888886627925576 0 0.00021575154115734157 0.0017924075689453483 0 0.00020413617308819785 0.0018788001286577012 0 0.00013802297670788499 0.0018092374678671688 0 0.00021575154115734157 0.0017924075689453483 0 0.00017186916253868756 0.0018449764326172577 0 0.00021575154115734157 0.0017924075689453483 0 0.00017186916253868756 0.0018449764326172577 0 0.00020413617308819785 0.0018788001286577012 0 0.00020413617308819785 0.0018788001286577012 0 0.00023217699050268577 0.0019314399043353111 0 0.00016651783028547037 0.0019627819186832599 0 0.00013406104143743691 0.0018990170996430998 0 0.00020413617308819785 0.0018788001286577012 0 0.00016651783028547037 0.0019627819186832599 0 0.00013406104143743691 0.0018990170996430998 0 0.00017186916253868756 0.0018449764326172577 0 0.00020413617308819785 0.0018788001286577012 0 -0.00012081443956658369 0.00044431517606703137 0 -0.0001614430222226258 0.00060036660521906916 0 -7.8926936321973727e-05 0.00051865965048590525 0 0.00030428773261975992 0.0017888886627925576 0 0.00020413617308819785 0.0018788001286577012 0 0.00023217699050268577 0.0019314399043353111 0 8.733886272048031e-05 0.0011191081547032218 0 5.8044778974686887e-05 0.0012387276173998932 0 5.8044778974686887e-05 0.0012387276173998932 0 -0.00012641169031263493 0.0015191256012939544 0 -0.0001614430222226258 0.00060036660521906916 0 -0.00018468247435666181 0.00079409869252549574 0 -0.0001139337020807635 0.00070773043482664046 0 0.00023217699050268577 0.0019314399043353111 0 0.00016651783028547037 0.0019627819186832599 0 0.00020730805148475614 0.002020044593857523 0 -3.1981338763688411e-05 0.00043697871948039679 0 -5.7830200620965831e-05 0.00048814656786216935 0 -1.2512876338069082e-05 0.00037591938095800885 0 -4.7491250733699119e-05 0.00035837091133539793 0 -4.1502656960665823e-05 0.00041752914639718553 0 -4.7491250733699119e-05 0.00035837091133539793 0 -0.00010009943113478571 0.00043869299476257707 0 -4.1502656960665823e-05 0.00041752914639718553 0 -0.0001614430222226258 0.00060036660521906916 0 -7.8926936321973727e-05 0.00051865965048590525 0 -2.9519321299601003e-05 0.00063476398214225879 0 -6.8907682293328467e-06 0.00048475993927298158 0 -7.8926936321973727e-05 0.00051865965048590525 0 -2.9519321299601003e-05 0.00063476398214225879 0 -0.0001614430222226258 0.00060036660521906916 0 -2.9519321299601003e-05 0.00063476398214225879 0 -0.0001139337020807635 0.00070773043482664046 0 -0.00010009943113478571 0.00043869299476257707 0 -4.1502656960665823e-05 0.00041752914639718553 0 -3.1060088146005906e-05 0.00048289206832748447 0 -0.00010009943113478571 0.00043869299476257707 0 -6.593196455687105e-05 0.00054782670542860177 0 -3.1060088146005906e-05 0.00048289206832748447 0 -2.9519321299601003e-05 0.00063476398214225879 0 -8.0904999918707821e-05 0.00080579528299735991 0 -0.0001139337020807635 0.00070773043482664046 0 -5.7830200620965831e-05 0.00048814656786216935 0 -0.00010517507418401525 0.00091306143157677123 0 -0.00010009943113478571 0.00043869299476257707 0 -0.00013876333807610617 0.00053980495328580041 0 -6.593196455687105e-05 0.00054782670542860177 0 -3.8090186997711698e-05 0.00058669726198695964 0 -1.0163295082560634e-05 0.00065489121401966191 0 2.5244593857088621e-05 0.00059306216117581509 0 -3.8090186997711698e-05 0.00058669726198695964 0 -1.0163295082560634e-05 0.00065489121401966191 0 -8.4603420202094328e-05 0.00070226164063821753 0 -0.00010517507418401525 0.00091306143157677123 0 -2.4496842112757182e-05 0.00055837750588790631 0 -1.0163295082560634e-05 0.00065489121401966191 0 2.5244593857088621e-05 0.00059306216117581509 0 2.583163326539699e-05 0.00068348019678363288 0 -1.8351143923958025e-06 0.0017141897739817702 0 -0.00015555006222959698 0.0016813209768444407 0 -5.7022548053464987e-05 0.00162172438938546 0 0.00011981984128662176 0.0020064146166171798 0 0.00016651783028547037 0.0019627819186832599 0 0.00020730805148475614 0.002020044593857523 0 9.8454203330446165e-05 0.0019064587738023236 0 -0.00012641169031263493 0.0015191256012939544 0 -8.0904999918707821e-05 0.00080579528299735991 0 -0.00018468247435666181 0.00079409869252549574 0 -0.0001139337020807635 0.00070773043482664046 0 -0.00010517507418401525 0.00091306143157677123 0 -0.00012641169031263493 0.0015191256012939544 0 -0.00037338993832602659 0.0017559640199578746 0 -0.00025224925869181018 0.0016438167174571965 0 -0.00029131140350581718 0.001485034594093469 0 -0.00012641169031263493 0.0015191256012939544 0 -0.00015424401273816244 0.0016084539052972524 0 -0.00018051540044597425 0.0017877704666324793 0 -0.00025224925869181018 0.0016438167174571965 0 -0.00014108735954297929 0.0015093071898983925 0 -0.00010517507418401525 0.00091306143157677123 0 -0.0001905604510368905 0.0011526237178610137 0 -0.00037338993832602659 0.0017559640199578746 0 -0.00018051540044597425 0.0017877704666324793 0 -0.00025224925869181018 0.0016438167174571965 0 -0.00015555006222959698 0.0016813209768444407 0 -5.7022548053464987e-05 0.00162172438938546 0 -0.00014108735954297929 0.0015093071898983925 0 -5.7022548053464987e-05 0.00162172438938546 0 -4.3035669757085008e-05 0.0015128739103409505 0 -0.00014108735954297929 0.0015093071898983925 0 -4.7814184199475788e-06 0.0016023081120654346 0 -5.7022548053464987e-05 0.00162172438938546 0 -4.3035669757085008e-05 0.0015128739103409505 0 -3.9364366128169433e-06 0.0014380945103718674 0 -4.3035669757085008e-05 0.0015128739103409505 0 -6.595669716563817e-05 0.0013880357673511426 0 -3.9364366128169433e-06 0.0014380945103718674 0 -6.595669716563817e-05 0.0013880357673511426 0 -1.1951080409320371e-05 0.0012901437307682869 0 -4.3035669757085008e-05 0.0015128739103409505 0 -6.595669716563817e-05 0.0013880357673511426 0 -0.00014108735954297929 0.0015093071898983925 0 -0.00011906787888167037 0.0013177849484410928 0 -0.00014452398466251952 0.0014228674002478754 0 -0.00029131140350581718 0.001485034594093469 0 -6.595669716563817e-05 0.0013880357673511426 0 -0.00014452398466251952 0.0014228674002478754 0 -0.00014108735954297929 0.0015093071898983925 0 -6.595669716563817e-05 0.0013880357673511426 0 -0.00011906787888167037 0.0013177849484410928 0 -0.00014452398466251952 0.0014228674002478754 0 -0.00014452398466251952 0.0014228674002478754 0 -0.00014108735954297929 0.0015093071898983925 0 -0.00029131140350581718 0.001485034594093469 0 -0.00025224925869181018 0.0016438167174571965 0 -0.00014108735954297929 0.0015093071898983925 0 -0.00029131140350581718 0.001485034594093469 0 -8.4603420202094328e-05 0.00070226164063821753 0 -4.1262237403207457e-05 0.0010681993034621583 0 -9.4153718438412445e-06 0.00083602801179111837 0 -4.1262237403207457e-05 0.0010681993034621583 0 -3.2310107958721816e-07 0.0010845992559481846 0 6.2159594645592834e-08 0.00079355126699704663 0 -0.00011906787888167037 0.0013177849484410928 0 -0.00029131140350581718 0.001485034594093469 0 -4.1262237403207457e-05 0.0010681993034621583 0 -0.0001905604510368905 0.0011526237178610137 0 -6.3416391006736961e-05 0.0010352837513955104 0 -4.1262237403207457e-05 0.0010681993034621583 0 -3.2310107958721816e-07 0.0010845992559481846 0 -4.1790746822343901e-05 0.0012156660527802327 0 -0.00011906787888167037 0.0013177849484410928 0 -4.1262237403207457e-05 0.0010681993034621583 0 -4.1790746822343901e-05 0.0012156660527802327 0 1.0847085348421516e-07 0.0013756657106025728 0 -3.2310107958721816e-07 0.0010845992559481846 0 -1.1951080409320371e-05 0.0012901437307682869 0 -6.595669716563817e-05 0.0013880357673511426 0 -0.00011906787888167037 0.0013177849484410928 0 -4.1790746822343901e-05 0.0012156660527802327 0 -6.595669716563817e-05 0.0013880357673511426 0 -4.1790746822343901e-05 0.0012156660527802327 0 -1.1951080409320371e-05 0.0012901437307682869 0 -3.2310107958721816e-07 0.0010845992559481846 0 -4.1790746822343901e-05 0.0012156660527802327 0 -1.1951080409320371e-05 0.0012901437307682869 0 2.5244593857088621e-05 0.00059306216117581509 0 2.583163326539699e-05 0.00068348019678363288 0 2.6701572358550851e-05 0.00059034355900666128 0 -1.0163295082560634e-05 0.00065489121401966191 0 2.583163326539699e-05 0.00068348019678363288 0 -1.0847548126501725e-05 0.00071742436886117471 0 -1.0163295082560634e-05 0.00065489121401966191 0 -8.4603420202094328e-05 0.00070226164063821753 0 -1.0847548126501725e-05 0.00071742436886117471 0 -8.4603420202094328e-05 0.00070226164063821753 0 -1.0847548126501725e-05 0.00071742436886117471 0 -9.4153718438412445e-06 0.00083602801179111837 0 2.583163326539699e-05 0.00068348019678363288 0 -1.0847548126501725e-05 0.00071742436886117471 0 -9.4153718438412445e-06 0.00083602801179111837 0 -4.1262237403207457e-05 0.0010681993034621583 0 6.2159594645592834e-08 0.00079355126699704663 0 -9.4153718438412445e-06 0.00083602801179111837 0 2.583163326539699e-05 0.00068348019678363288 0 6.2159594645592834e-08 0.00079355126699704663 0 -9.4153718438412445e-06 0.00083602801179111837 0 2.583163326539699e-05 0.00068348019678363288 0 6.2159594645592834e-08 0.00079355126699704663 0 1.5378201061983944e-07 0.00050262644369403187 0 2.583163326539699e-05 0.00068348019678363288 0 1.5378201061983944e-07 0.00050262644369403187 0 2.6701572358550851e-05 0.00059034355900666128 0 1.5378201061983944e-07 0.00050262644369403187 0 3.3278518165368342e-05 0.00051678404275531736 0 -1.9544858161222812e-07 0.00021227063712788433 0 3.3278518165368342e-05 0.00051678404275531736 0 2.3555861693436396e-05 0.00053442517235256001 0 -3.0330449695159053e-05 0.0005056948451486467 0 3.3278518165368342e-05 0.00051678404275531736 0 2.6701572358550851e-05 0.00059034355900666128 0 1.7080423015677156e-05 0.00055816674973661038 0 1.5378201061983944e-07 0.00050262644369403187 0 3.3278518165368342e-05 0.00051678404275531736 0 2.6701572358550851e-05 0.00059034355900666128 0 -2.4496842112757182e-05 0.00055837750588790631 0 1.7873127985664655e-05 0.00056404473669159486 0 2.5244593857088621e-05 0.00059306216117581509 0 2.6701572358550851e-05 0.00059034355900666128 0 1.7080423015677156e-05 0.00055816674973661038 0 1.7080423015677156e-05 0.00055816674973661038 0 2.3555861693436396e-05 0.00053442517235256001 0 2.4815535455787198e-05 0.0005124876432833509 0 3.3278518165368342e-05 0.00051678404275531736 0 1.7080423015677156e-05 0.00055816674973661038 0 2.3555861693436396e-05 0.00053442517235256001 0 3.9637242843299411e-05 0.00046815654593116205 0 2.4815535455787198e-05 0.0005124876432833509 0 4.9583137853865106e-05 0.00051886020283188063 0 2.3555861693436396e-05 0.00053442517235256001 0 2.4815535455787198e-05 0.0005124876432833509 0 4.9583137853865106e-05 0.00051886020283188063 0 -6.593196455687105e-05 0.00054782670542860177 0 1.7080423015677156e-05 0.00055816674973661038 0 -3.1060088146005906e-05 0.00048289206832748447 0 1.2481578269119556e-06 0.00044782323766522477 0 2.4815535455787198e-05 0.0005124876432833509 0 -3.1060088146005906e-05 0.00048289206832748447 0 1.7080423015677156e-05 0.00055816674973661038 0 2.4815535455787198e-05 0.0005124876432833509 0 -3.1060088146005906e-05 0.00048289206832748447 0 -1.3112232505722407e-06 -0.00017857693925603363 0 -4.6374203215857899e-05 -0.00015847454317060073 0 -1.8554878533395191e-06 -0.00013521641386995923 0 -6.7700094785510088e-06 0.0001718717408823127 0 -3.9228923800219221e-05 0.00021794622297896608 0 -4.6374203215857899e-05 -0.00015847454317060073 0 -1.8554878533395191e-06 -0.00013521641386995923 0 -6.8362461804184906e-05 -6.4721205044790912e-05 0 2.3555861693436396e-05 0.00053442517235256001 0 4.9583137853865106e-05 0.00051886020283188063 0 -3.0330449695159053e-05 0.0005056948451486467 0 -1.8554878533395191e-06 -0.00013521641386995923 0 2.8127927331706867e-05 -0.00010589415597844289 0 -6.8362461804184906e-05 -6.4721205044790912e-05 0 2.8127927331706867e-05 -0.00010589415597844289 0 -6.8362461804184906e-05 -6.4721205044790912e-05 0 -2.2126418239087965e-07 0.00021114549668153519 0 3.3278518165368342e-05 0.00051678404275531736 0 -3.0330449695159053e-05 0.0005056948451486467 0 -1.9544858161222812e-07 0.00021227063712788433 0 -3.9228923800219221e-05 0.00021794622297896608 0 -2.4312006928770659e-08 0.00021174397255450744 0 2.8127927331706867e-05 -0.00010589415597844289 0 -2.2126418239087965e-07 0.00021114549668153519 0 1.4789337793354805e-07 -6.961816208754221e-05 0 2.8127927331706867e-05 -0.00010589415597844289 0 1.4789337793354805e-07 -6.961816208754221e-05 0 3.1978591069290129e-05 -0.00016313947144568869 0 1.9697397143653448e-05 -0.00021662360607285907 0 3.1978591069290129e-05 -0.00016313947144568869 0 -4.4638666904575814e-06 -0.00023000783880861473 0 1.4789337793354805e-07 -6.961816208754221e-05 0 1.9697397143653448e-05 -0.00021662360607285907 0 3.1978591069290129e-05 -0.00016313947144568869 0 1.4789337793354805e-07 -6.961816208754221e-05 0 1.9697397143653448e-05 -0.00021662360607285907 0 3.9346090378195892e-08 -0.00035133346203370872 0 3.1978591069290129e-05 -0.00016313947144568869 0 1.4864752749861735e-05 -0.0001628912270332062 0 -4.4638666904575814e-06 -0.00023000783880861473 0 3.1978591069290129e-05 -0.00016313947144568869 0 1.4864752749861735e-05 -0.0001628912270332062 0 3.0682770094266678e-05 -0.00014103837364849776 0 2.8127927331706867e-05 -0.00010589415597844289 0 3.1978591069290129e-05 -0.00016313947144568869 0 3.0682770094266678e-05 -0.00014103837364849776 0 -2.2801468138721839e-05 -0.00036362643467683633 0 3.9346090378195892e-08 -0.00035133346203370872 0 -1.5044700260427434e-07 -0.00063254930168857467 0 5.8810300356919479e-05 -0.00063763956974297281 0 1.8175456755218959e-05 -0.00062992870275801896 0 3.3429415543827505e-05 -0.00070253015110095969 0 2.2010680180277335e-07 -0.00046893549855539371 0 1.4413589503579172e-05 -0.0006733734310120506 0 1.0769179066119501e-05 -0.00062223109126379557 0 2.2193878799155533e-07 -0.00062857790107652043 0 3.5807239814988285e-09 -0.00063304182653278458 0 2.2010680180277335e-07 -0.00046893549855539371 0 4.7778565681697e-09 -0.00063277351039139884 0 -2.2801468138721839e-05 -0.00036362643467683633 0 3.9346090378195892e-08 -0.00035133346203370872 0 -4.4638666904575814e-06 -0.00023000783880861473 0 1.9697397143653448e-05 -0.00021662360607285907 0 3.9346090378195892e-08 -0.00035133346203370872 0 -4.4638666904575814e-06 -0.00023000783880861473 0 6.1364906058093994e-05 -0.00053088688925418987 0 5.8810300356919479e-05 -0.00063763956974297281 0 4.3441171619517378e-05 -0.00056572728907709063 0 1.4864752749861735e-05 -0.0001628912270332062 0 -7.3192867754592777e-05 -0.00027305906978180227 0 -4.4638666904575814e-06 -0.00023000783880861473 0 3.2884741784234554e-05 -0.00035111984813512138 0 2.2010680180277335e-07 -0.00046893549855539371 0 2.2010680180277335e-07 -0.00046893549855539371 0 1.9518451422613542e-05 -0.0002708368634754295 0 5.8810300356919479e-05 -0.00063763956974297281 0 4.3441171619517378e-05 -0.00056572728907709063 0 1.8175456755218959e-05 -0.00062992870275801896 0 4.3441171619517378e-05 -0.00056572728907709063 0 2.2120073880678229e-05 -0.00054912791389910001 0 1.8175456755218959e-05 -0.00062992870275801896 0 2.2120073880678229e-05 -0.00054912791389910001 0 3.6815372635212725e-05 -0.0004906119514856437 0 1.7490225806400827e-05 -0.00049218818340369778 0 4.3441171619517378e-05 -0.00056572728907709063 0 2.2120073880678229e-05 -0.00054912791389910001 0 3.6815372635212725e-05 -0.0004906119514856437 0 6.1364906058093994e-05 -0.00053088688925418987 0 3.6815372635212725e-05 -0.0004906119514856437 0 3.4606743448465781e-05 -0.00045638834703286838 0 6.1364906058093994e-05 -0.00053088688925418987 0 4.3441171619517378e-05 -0.00056572728907709063 0 3.6815372635212725e-05 -0.0004906119514856437 0 3.6815372635212725e-05 -0.0004906119514856437 0 3.3612946087229415e-05 -0.0004489463617333988 0 3.4606743448465781e-05 -0.00045638834703286838 0 3.6815372635212725e-05 -0.0004906119514856437 0 3.3612946087229415e-05 -0.0004489463617333988 0 3.2663177942671295e-05 -0.00046401642746794812 0 3.2663177942671295e-05 -0.00046401642746794812 0 1.7490225806400827e-05 -0.00049218818340369778 0 1.6285661868278196e-05 -0.00045510175107735961 0 1.7490225806400827e-05 -0.00049218818340369778 0 1.6285661868278196e-05 -0.00045510175107735961 0 -9.5031757260999043e-06 -0.00048484765102050785 0 3.6815372635212725e-05 -0.0004906119514856437 0 3.2663177942671295e-05 -0.00046401642746794812 0 1.7490225806400827e-05 -0.00049218818340369778 0 -1.8554878533395191e-06 -0.00013521641386995923 0 2.8127927331706867e-05 -0.00010589415597844289 0 3.5983520257953259e-05 -0.00014057752654909704 0 2.8127927331706867e-05 -0.00010589415597844289 0 3.0682770094266678e-05 -0.00014103837364849776 0 3.5983520257953259e-05 -0.00014057752654909704 0 1.4864752749861735e-05 -0.0001628912270332062 0 3.0682770094266678e-05 -0.00014103837364849776 0 3.5983520257953259e-05 -0.00014057752654909704 0 6.1364906058093994e-05 -0.00053088688925418987 0 4.5582697481290082e-05 -0.00043599913986434641 0 3.4606743448465781e-05 -0.00045638834703286838 0 3.2884741784234554e-05 -0.00035111984813512138 0 4.1486325696496895e-05 -0.0002846361428056917 0 4.5582697481290082e-05 -0.00043599913986434641 0 3.4606743448465781e-05 -0.00045638834703286838 0 1.2587320580381006e-05 -0.00040591761941501797 0 3.3612946087229415e-05 -0.0004489463617333988 0 1.2587320580381006e-05 -0.00040591761941501797 0 3.9725135547778307e-05 -0.00045812359774803293 0 3.3612946087229415e-05 -0.0004489463617333988 0 3.4606743448465781e-05 -0.00045638834703286838 0 1.2587320580381006e-05 -0.00040591761941501797 0 1.2587320580381006e-05 -0.00040591761941501797 0 3.2924889752804683e-05 -0.0003275106234936792 0 -5.5181867873469595e-06 -0.00029723793150604179 0 6.172016846356833e-05 -0.00029579538265503739 0 4.5582697481290082e-05 -0.00043599913986434641 0 3.2924889752804683e-05 -0.0003275106234936792 0 1.3056766132164586e-05 -0.00027980898060645887 0 4.1486325696496895e-05 -0.0002846361428056917 0 -1.3112232505722407e-06 -0.00017857693925603363 0 -1.8554878533395191e-06 -0.00013521641386995923 0 3.5983520257953259e-05 -0.00014057752654909704 0 4.5582697481290082e-05 -0.00043599913986434641 0 1.2587320580381006e-05 -0.00040591761941501797 0 3.2924889752804683e-05 -0.0003275106234936792 0 6.172016846356833e-05 -0.00029579538265503739 0 3.2924889752804683e-05 -0.0003275106234936792 0 4.1477451296422897e-05 -0.00023783370557896519 0 3.2924889752804683e-05 -0.0003275106234936792 0 4.1477451296422897e-05 -0.00023783370557896519 0 2.3807981636910945e-05 -0.00025608023416842218 0 3.2924889752804683e-05 -0.0003275106234936792 0 2.3807981636910945e-05 -0.00025608023416842218 0 -5.5181867873469595e-06 -0.00029723793150604179 0 2.3807981636910945e-05 -0.00025608023416842218 0 3.6219911268483009e-05 -0.00020081407252469128 0 2.0111128622468614e-05 -0.00020549663229481264 0 2.3807981636910945e-05 -0.00025608023416842218 0 2.0111128622468614e-05 -0.00020549663229481264 0 -2.3566839110143092e-05 -0.0002337257180394339 0 4.1477451296422897e-05 -0.00023783370557896519 0 2.3807981636910945e-05 -0.00025608023416842218 0 3.6219911268483009e-05 -0.00020081407252469128 0 5.4891920682275088e-05 -0.00015088560744201391 0 3.6219911268483009e-05 -0.00020081407252469128 0 3.004342172422276e-05 -0.00018647382139549775 0 3.6219911268483009e-05 -0.00020081407252469128 0 2.0111128622468614e-05 -0.00020549663229481264 0 3.004342172422276e-05 -0.00018647382139549775 0 2.0111128622468614e-05 -0.00020549663229481264 0 3.004342172422276e-05 -0.00018647382139549775 0 7.2848207028091986e-06 -0.00018494321964587467 0 7.2848207028091986e-06 -0.00018494321964587467 0 -2.3566839110143092e-05 -0.0002337257180394339 0 -9.9617997611193028e-05 -0.00017254780124534747 0 6.616674374742067e-06 -0.00018361679802155953 0 -7.1984653880461923e-05 -0.00017680547785263912 0 7.2848207028091986e-06 -0.00018494321964587467 0 -9.2405067697735937e-06 -0.00018468237736890387 0 -2.860317824886931e-06 -0.00017113813552250382 0 2.0111128622468614e-05 -0.00020549663229481264 0 7.2848207028091986e-06 -0.00018494321964587467 0 -2.3566839110143092e-05 -0.0002337257180394339 0 1.2587320580381006e-05 -0.00040591761941501797 0 -5.5181867873469595e-06 -0.00029723793150604179 0 -0.00011540335231717536 -0.00026256588914108821 0 -2.3566839110143092e-05 -0.0002337257180394339 0 -5.5181867873469595e-06 -0.00029723793150604179 0 -0.00011540335231717536 -0.00026256588914108821 0 1.3514058438724666e-05 -0.00040712391759739982 0 -4.693311686486769e-05 -0.0003563161497350106 0 2.3807981636910945e-05 -0.00025608023416842218 0 -2.3566839110143092e-05 -0.0002337257180394339 0 -5.5181867873469595e-06 -0.00029723793150604179 0 3.2663177942671295e-05 -0.00046401642746794812 0 3.9725135547778307e-05 -0.00045812359774803293 0 1.6285661868278196e-05 -0.00045510175107735961 0 3.3612946087229415e-05 -0.0004489463617333988 0 3.2663177942671295e-05 -0.00046401642746794812 0 3.9725135547778307e-05 -0.00045812359774803293 0 3.9725135547778307e-05 -0.00045812359774803293 0 1.6285661868278196e-05 -0.00045510175107735961 0 2.0006672982569877e-05 -0.00041552755912172457 0 1.6285661868278196e-05 -0.00045510175107735961 0 2.0006672982569877e-05 -0.00041552755912172457 0 -1.0153953384301628e-05 -0.00042812435443382609 0 -0.00011540335231717536 -0.00026256588914108821 0 -0.00019575694190493523 -0.00017130016447458409 0 -9.9617997611193028e-05 -0.00017254780124534747 0 -2.3566839110143092e-05 -0.0002337257180394339 0 -0.00011540335231717536 -0.00026256588914108821 0 -9.9617997611193028e-05 -0.00017254780124534747 0 -1.7674909760176522e-05 -0.00028676935864700801 0 -7.1984653880461923e-05 -0.00017680547785263912 0 -4.693311686486769e-05 -0.0003563161497350106 0 -1.7674909760176522e-05 -0.00028676935864700801 0 -9.2405067697735937e-06 -0.00018468237736890387 0 -1.6928131272882495e-05 -0.00016829023249337896 0 -2.860317824886931e-06 -0.00017113813552250382 0 -3.0157579111643045e-05 -0.0001876125580187027 0 -9.2405067697735937e-06 -0.00018468237736890387 0 -1.6928131272882495e-05 -0.00016829023249337896 0 -1.6928131272882495e-05 -0.00016829023249337896 0 -4.3099725484356258e-06 -0.0001571529124905275 0 -2.860317824886931e-06 -0.00017113813552250382 0 -1.7674909760176522e-05 -0.00028676935864700801 0 -1.4900630114739926e-05 -0.00021766799819785272 0 -3.0157579111643045e-05 -0.0001876125580187027 0 -3.4668627866097561e-05 -0.00016677191423456635 0 -5.2317417783922292e-05 -0.00017138723855109051 0 -3.0157579111643045e-05 -0.0001876125580187027 0 -1.6928131272882495e-05 -0.00016829023249337896 0 -3.4668627866097561e-05 -0.00016677191423456635 0 -3.4668627866097561e-05 -0.00016677191423456635 0 -2.1311558523183371e-05 -0.00015243550794793756 0 -3.8576617355100632e-05 -0.0001425134716722521 0 -1.6928131272882495e-05 -0.00016829023249337896 0 -3.4668627866097561e-05 -0.00016677191423456635 0 -2.1311558523183371e-05 -0.00015243550794793756 0 -2.1311558523183371e-05 -0.00015243550794793756 0 -1.6296072180051945e-05 -0.0001311080834473303 0 -3.8576617355100632e-05 -0.0001425134716722521 0 -4.3099725484356258e-06 -0.0001571529124905275 0 -1.1765360222736815e-05 -0.00015586004257768567 0 -4.9497032157533584e-06 -0.00014515409899393966 0 -1.6928131272882495e-05 -0.00016829023249337896 0 -2.1311558523183371e-05 -0.00015243550794793756 0 -1.1765360222736815e-05 -0.00015586004257768567 0 -1.6928131272882495e-05 -0.00016829023249337896 0 -4.3099725484356258e-06 -0.0001571529124905275 0 -1.1765360222736815e-05 -0.00015586004257768567 0 -2.1311558523183371e-05 -0.00015243550794793756 0 -1.1765360222736815e-05 -0.00015586004257768567 0 -4.9497032157533584e-06 -0.00014515409899393966 0 -2.1311558523183371e-05 -0.00015243550794793756 0 -4.9497032157533584e-06 -0.00014515409899393966 0 -1.6296072180051945e-05 -0.0001311080834473303 0 -4.3099725484356258e-06 -0.0001571529124905275 0 -4.9497032157533584e-06 -0.00014515409899393966 0 -2.2284794227189751e-06 -0.00014105063639010989 0 -6.17150575080199e-05 -3.8974131975432979e-05 0 -4.1121974276383882e-05 3.7482022363470198e-05 0 -4.3099725484356258e-06 -0.0001571529124905275 0 7.9799738419901156e-06 -0.00016008976239132236 0 -2.2284794227189751e-06 -0.00014105063639010989 0 -7.969763720082511e-05 6.4020029463508212e-05 0 -4.1121974276383882e-05 3.7482022363470198e-05 0 -0.00011115626417226493 0.00032447093990726794 0 -0.00014737763543391333 0.00027013310867335589 0 -0.00017100335076590013 0.0003255383383020745 0 -6.1296838787966497e-05 0.00034665368592473334 0 -4.9114254469093554e-05 0.00029849093357224127 0 -0.00011115626417226493 0.00032447093990726794 0 -4.9114254469093554e-05 0.00029849093357224127 0 -0.00011115626417226493 0.00032447093990726794 0 -0.00014737763543391333 0.00027013310867335589 0 -4.7557067993164564e-05 0.00023235605339863626 0 -0.0001253519211066462 0.00015736261013333792 0 -0.00014737763543391333 0.00027013310867335589 0 -3.6967743084016777e-05 -2.3855590235137148e-05 0 -7.969763720082511e-05 6.4020029463508212e-05 0 -4.7557067993164564e-05 0.00023235605339863626 0 -4.9114254469093554e-05 0.00029849093357224127 0 -0.00014737763543391333 0.00027013310867335589 0 3.004342172422276e-05 -0.00018647382139549775 0 7.2848207028091986e-06 -0.00018494321964587467 0 7.9799738419901156e-06 -0.00016008976239132236 0 7.2848207028091986e-06 -0.00018494321964587467 0 -2.860317824886931e-06 -0.00017113813552250382 0 7.9799738419901156e-06 -0.00016008976239132236 0 -4.3099725484356258e-06 -0.0001571529124905275 0 -2.860317824886931e-06 -0.00017113813552250382 0 7.9799738419901156e-06 -0.00016008976239132236 0 -0.00011191214666937772 -0.00033699987788960898 0 -5.3279261220932881e-05 -0.00035709942576640698 0 -0.00013471076850774268 -0.00038891526845487491 0 -0.00011191214666937772 -0.00033699987788960898 0 -0.00013471076850774268 -0.00038891526845487491 0 -0.00018656891349960413 -0.00036251037690788204 0 -0.0001263217625964503 -0.00028627219060225914 0 -0.0002002396991429567 -0.00024881324726115303 0 -0.00011191214666937772 -0.00033699987788960898 0 -0.00018656891349960413 -0.00036251037690788204 0 -0.00018271799879946142 -0.00031235076915961889 0 -0.00014843174386753596 -0.00023406749671081727 0 -0.00013405621187945598 -0.00016867277403332588 0 -0.00022009647698946125 -0.00017340933682725697 0 -0.00014843174386753596 -0.00023406749671081727 0 -0.00013405621187945598 -0.00016867277403332588 0 -7.6061346726668131e-05 -0.00023743365829037393 0 -0.00013405621187945598 -0.00016867277403332588 0 -8.1669291410935849e-05 -0.00016287551815888691 0 -7.6061346726668131e-05 -0.00023743365829037393 0 -8.1669291410935849e-05 -0.00016287551815888691 0 1.3643317484726651e-05 -0.00026260910580532551 0 -7.6061346726668131e-05 -0.00023743365829037393 0 -3.4668627866097561e-05 -0.00016677191423456635 0 -5.7541742259354028e-05 -0.00015578064321249144 0 -3.8576617355100632e-05 -0.0001425134716722521 0 -7.8804804010851169e-05 -0.00016419081529868922 0 -1.4900630114739926e-05 -0.00021766799819785272 0 -8.1669291410935849e-05 -0.00016287551815888691 0 -5.7541742259354028e-05 -0.00015578064321249144 0 -5.2317417783922292e-05 -0.00017138723855109051 0 -3.4668627866097561e-05 -0.00016677191423456635 0 -5.7541742259354028e-05 -0.00015578064321249144 0 -5.2317417783922292e-05 -0.00017138723855109051 0 -3.3900403115877488e-05 -0.00033468530071200514 0 1.3643317484726651e-05 -0.00026260910580532551 0 -7.6061346726668131e-05 -0.00023743365829037393 0 9.9037765761320274e-05 -0.00035981334133580105 0 -3.3900403115877488e-05 -0.00033468530071200514 0 1.3643317484726651e-05 -0.00026260910580532551 0 -0.00011191214666937772 -0.00033699987788960898 0 -3.3900403115877488e-05 -0.00033468530071200514 0 -5.3279261220932881e-05 -0.00035709942576640698 0 -0.00014843174386753596 -0.00023406749671081727 0 -3.3900403115877488e-05 -0.00033468530071200514 0 -7.6061346726668131e-05 -0.00023743365829037393 0 -0.0001263217625964503 -0.00028627219060225914 0 -3.5996968509118098e-05 -0.00033424395011539469 0 -4.6472643330182757e-05 -0.00040064690376657135 0 -7.0329394443512314e-05 -0.00043288326280370199 0 -3.4094578234060733e-05 -0.00043093527067583311 0 9.9037765761320274e-05 -0.00035981334133580105 0 -3.3900403115877488e-05 -0.00033468530071200514 0 -5.3279261220932881e-05 -0.00035709942576640698 0 -1.7674909760176522e-05 -0.00028676935864700801 0 -3.2975648438845474e-05 -0.00039425698198135414 0 2.0006672982569877e-05 -0.00041552755912172457 0 -4.6472643330182757e-05 -0.00040064690376657135 0 -1.0153953384301628e-05 -0.00042812435443382609 0 -4.6472643330182757e-05 -0.00040064690376657135 0 -3.4094578234060733e-05 -0.00043093527067583311 0 -1.0153953384301628e-05 -0.00042812435443382609 0 1.6285661868278196e-05 -0.00045510175107735961 0 -1.0153953384301628e-05 -0.00042812435443382609 0 -8.2414712427189424e-06 -0.00045223641219406128 0 -3.4094578234060733e-05 -0.00043093527067583311 0 -1.0153953384301628e-05 -0.00042812435443382609 0 -8.2414712427189424e-06 -0.00045223641219406128 0 -3.4094578234060733e-05 -0.00043093527067583311 0 -8.2414712427189424e-06 -0.00045223641219406128 0 -3.7605271056254878e-05 -0.00045208502844231455 0 -8.2414712427189424e-06 -0.00045223641219406128 0 -3.7605271056254878e-05 -0.00045208502844231455 0 -9.5031757260999043e-06 -0.00048484765102050785 0 1.6285661868278196e-05 -0.00045510175107735961 0 -8.2414712427189424e-06 -0.00045223641219406128 0 -9.5031757260999043e-06 -0.00048484765102050785 0 -3.7605271056254878e-05 -0.00045208502844231455 0 -7.2171926307509671e-05 -0.0004776595626806896 0 -9.5031757260999043e-06 -0.00048484765102050785 0 -7.0329394443512314e-05 -0.00043288326280370199 0 -3.7605271056254878e-05 -0.00045208502844231455 0 -7.2171926307509671e-05 -0.0004776595626806896 0 -7.0329394443512314e-05 -0.00043288326280370199 0 -7.2171926307509671e-05 -0.0004776595626806896 0 -0.00010402248650106613 -0.00044817056595678411 0 -7.0329394443512314e-05 -0.00043288326280370199 0 -3.4094578234060733e-05 -0.00043093527067583311 0 -3.7605271056254878e-05 -0.00045208502844231455 0 -7.2171926307509671e-05 -0.0004776595626806896 0 -0.00010402248650106613 -0.00044817056595678411 0 -0.00011408059409295738 -0.00049887021353898977 0 -0.00010402248650106613 -0.00044817056595678411 0 -0.00014671697683457587 -0.00045260078066430078 0 -0.00011408059409295738 -0.00049887021353898977 0 -7.0329394443512314e-05 -0.00043288326280370199 0 -0.00010402248650106613 -0.00044817056595678411 0 -0.00013471076850774268 -0.00038891526845487491 0 -0.00010402248650106613 -0.00044817056595678411 0 -0.00013471076850774268 -0.00038891526845487491 0 -0.00014671697683457587 -0.00045260078066430078 0 -4.6472643330182757e-05 -0.00040064690376657135 0 -7.0329394443512314e-05 -0.00043288326280370199 0 -0.00013471076850774268 -0.00038891526845487491 0 -3.2975648438845474e-05 -0.00039425698198135414 0 -0.0001408926560551162 -0.00038287713222842282 0 -0.00013471076850774268 -0.00038891526845487491 0 -0.00014671697683457587 -0.00045260078066430078 0 -0.00018689277978728338 -0.00041373992053450365 0 -0.00013471076850774268 -0.00038891526845487491 0 -0.00018689277978728338 -0.00041373992053450365 0 -0.00018656891349960413 -0.00036251037690788204 0 -0.00014671697683457587 -0.00045260078066430078 0 -0.00018689277978728338 -0.00041373992053450365 0 -0.00018672492731319732 -0.00046503026252521387 0 -0.00014671697683457587 -0.00045260078066430078 0 -0.00015549992089021892 -0.00049750200847516451 0 -0.00011408059409295738 -0.00049887021353898977 0 -0.00014671697683457587 -0.00045260078066430078 0 -0.00015549992089021892 -0.00049750200847516451 0 -0.00018672492731319732 -0.00046503026252521387 0 -0.00015549992089021892 -0.00049750200847516451 0 -0.00014865132399425072 -0.00055537401794004645 0 -0.0001870402037348412 -0.0005294052722511391 0 -0.00015549992089021892 -0.00049750200847516451 0 -0.0001870402037348412 -0.0005294052722511391 0 -0.00018672492731319732 -0.00046503026252521387 0 -0.00015549992089021892 -0.00049750200847516451 0 -0.00011408059409295738 -0.00049887021353898977 0 -0.00014865132399425072 -0.00055537401794004645 0 -0.00011408059409295738 -0.00049887021353898977 0 -0.0001133847264214221 -0.00058770688351293861 0 -0.00014865132399425072 -0.00055537401794004645 0 -0.00011579000209971848 -0.00052255925723390022 0 -0.00013749159657329112 -0.00054593656450271466 0 -0.00011408059409295738 -0.00049887021353898977 0 -0.00014573043373820933 -0.0005834615972235425 0 -6.2903021775432278e-05 -0.00052812197047314758 0 -0.00014865132399425072 -0.00055537401794004645 0 -0.0001870402037348412 -0.0005294052722511391 0 -0.00017980206125951535 -0.00060592234562875527 0 -0.0001133847264214221 -0.00058770688351293861 0 -0.00014865132399425072 -0.00055537401794004645 0 -0.00015068259963067966 -0.00060718601453699564 0 -0.00014865132399425072 -0.00055537401794004645 0 -0.00015068259963067966 -0.00060718601453699564 0 -0.00017980206125951535 -0.00060592234562875527 0 -9.5031757260999043e-06 -0.00048484765102050785 0 -6.2903021775432278e-05 -0.00052812197047314758 0 -1.0742210913609618e-05 -0.00053145438341355665 0 1.7490225806400827e-05 -0.00049218818340369778 0 -9.5031757260999043e-06 -0.00048484765102050785 0 -1.0742210913609618e-05 -0.00053145438341355665 0 -7.2171926307509671e-05 -0.0004776595626806896 0 -0.00011408059409295738 -0.00049887021353898977 0 -6.2903021775432278e-05 -0.00052812197047314758 0 -7.2171926307509671e-05 -0.0004776595626806896 0 -9.5031757260999043e-06 -0.00048484765102050785 0 -6.2903021775432278e-05 -0.00052812197047314758 0 -0.00014573043373820933 -0.0005834615972235425 0 -6.2903021775432278e-05 -0.00052812197047314758 0 -3.2283622853966329e-05 -0.00064176118776612949 0 -6.2903021775432278e-05 -0.00052812197047314758 0 -1.0742210913609618e-05 -0.00053145438341355665 0 -3.2283622853966329e-05 -0.00064176118776612949 0 2.2120073880678229e-05 -0.00054912791389910001 0 -1.0742210913609618e-05 -0.00053145438341355665 0 1.8175456755218959e-05 -0.00062992870275801896 0 2.2120073880678229e-05 -0.00054912791389910001 0 1.7490225806400827e-05 -0.00049218818340369778 0 -1.0742210913609618e-05 -0.00053145438341355665 0 -1.0742210913609618e-05 -0.00053145438341355665 0 1.8175456755218959e-05 -0.00062992870275801896 0 -3.2283622853966329e-05 -0.00064176118776612949 0 1.8175456755218959e-05 -0.00062992870275801896 0 -3.2283622853966329e-05 -0.00064176118776612949 0 5.3607637009285019e-06 -0.00070534411625632792 0 -3.2283622853966329e-05 -0.00064176118776612949 0 -6.7396208219409188e-06 -0.00074971164875410775 0 -9.3695559577462563e-05 -0.00068988276576285596 0 -2.910748258109647e-07 -0.0008856054525974951 0 -6.7396208219409188e-06 -0.00074971164875410775 0 -9.3695559577462563e-05 -0.00068988276576285596 0 -6.7396208219409188e-06 -0.00074971164875410775 0 5.3607637009285019e-06 -0.00070534411625632792 0 1.9705131207473221e-07 -0.00077129812761161866 0 -2.910748258109647e-07 -0.0008856054525974951 0 -6.7396208219409188e-06 -0.00074971164875410775 0 1.9705131207473221e-07 -0.00077129812761161866 0 -3.2283622853966329e-05 -0.00064176118776612949 0 -6.7396208219409188e-06 -0.00074971164875410775 0 5.3607637009285019e-06 -0.00070534411625632792 0 1.8175456755218959e-05 -0.00062992870275801896 0 5.3607637009285019e-06 -0.00070534411625632792 0 3.3429415543827505e-05 -0.00070253015110095969 0 5.3607637009285019e-06 -0.00070534411625632792 0 1.9705131207473221e-07 -0.00077129812761161866 0 3.3429415543827505e-05 -0.00070253015110095969 0 1.5948955007306058e-08 -0.00077094336456505334 0 1.4413589503579172e-05 -0.0006733734310120506 0 -3.2154092500291568e-09 -0.00077082079236973869 0 2.2193878799155533e-07 -0.00062857790107652043 0 3.5807239814988285e-09 -0.00063304182653278458 0 -0.00015068259963067966 -0.00060718601453699564 0 -0.00012167221893612446 -0.00066406067440138517 0 -0.00017934593339566528 -0.00061649513790278717 0 -6.4733085925362628e-05 -0.00090078294710208451 0 -8.0076929836061036e-05 -0.0010185376589440076 0 -0.00015068259963067966 -0.00060718601453699564 0 -0.00017934593339566528 -0.00061649513790278717 0 -0.00017980206125951535 -0.00060592234562875527 0 -0.0001133847264214221 -0.00058770688351293861 0 -0.00015068259963067966 -0.00060718601453699564 0 -0.00012167221893612446 -0.00066406067440138517 0 -0.00014573043373820933 -0.0005834615972235425 0 -3.2283622853966329e-05 -0.00064176118776612949 0 -9.3695559577462563e-05 -0.00068988276576285596 0 -0.00013749159657329112 -0.00054593656450271466 0 -6.4733085925362628e-05 -0.00090078294710208451 0 -0.00014573043373820933 -0.0005834615972235425 0 -9.3695559577462563e-05 -0.00068988276576285596 0 -0.00019423372815676493 -0.00075030730184418427 0 -2.910748258109647e-07 -0.0008856054525974951 0 -9.3695559577462563e-05 -0.00068988276576285596 0 -0.00019423372815676493 -0.00075030730184418427 0 -2.2249368852116562e-08 -0.00088607413431810106 0 -6.4733085925362628e-05 -0.00090078294710208451 0 1.5251321796006406e-09 -0.00088636557167335662 0 -2.5801925866521742e-07 -0.0010642552087429425 0 -2.1249893121597985e-09 -0.0010733161668751978 0 -6.4733085925362628e-05 -0.00090078294710208451 0 -5.9985183247240202e-08 -0.0010737452057747383 0 -5.6523931868332513e-05 -0.0012367957586980165 0 5.9476436452423762e-06 -0.0013050499186956269 0 6.097679332477697e-06 -0.0014091107969502654 0 -5.6523931868332513e-05 -0.0012367957586980165 0 -2.271744964939013e-07 -0.0010740097635483315 0 5.9476436452423762e-06 -0.0013050499186956269 0 -2.271744964939013e-07 -0.0010740097635483315 0 5.9476436452423762e-06 -0.0013050499186956269 0 9.8059267634310543e-08 -0.0013416424279683575 0 5.9476436452423762e-06 -0.0013050499186956269 0 9.8059267634310543e-08 -0.0013416424279683575 0 3.1596913006878624e-05 -0.0014494471483507355 0 6.097679332477697e-06 -0.0014091107969502654 0 3.1596913006878624e-05 -0.0014494471483507355 0 3.9062609841394173e-05 -0.0014947360619966923 0 5.9476436452423762e-06 -0.0013050499186956269 0 6.097679332477697e-06 -0.0014091107969502654 0 3.1596913006878624e-05 -0.0014494471483507355 0 -0.00017934593339566528 -0.00061649513790278717 0 -0.00017980206125951535 -0.00060592234562875527 0 -0.00015415961299383981 -0.00061999291798103199 0 -8.0076929836061036e-05 -0.0010185376589440076 0 -5.5981791151857471e-05 -0.0010564664669648768 0 3.1596913006878624e-05 -0.0014494471483507355 0 2.6653170575048664e-05 -0.0015285270272929331 0 3.9062609841394173e-05 -0.0014947360619966923 0 9.8059267634310543e-08 -0.0013416424279683575 0 3.1596913006878624e-05 -0.0014494471483507355 0 1.5842607555121127e-07 -0.001609701538189614 0 3.1596913006878624e-05 -0.0014494471483507355 0 1.5842607555121127e-07 -0.001609701538189614 0 2.6653170575048664e-05 -0.0015285270272929331 0 1.5842607555121127e-07 -0.001609701538189614 0 1.1184332587203043e-05 -0.0016030416800067652 0 2.6653170575048664e-05 -0.0015285270272929331 0 1.5842607555121127e-07 -0.001609701538189614 0 -2.0945067719643272e-06 -0.0017075147079200304 0 1.1184332587203043e-05 -0.0016030416800067652 0 1.5842607555121127e-07 -0.001609701538189614 0 -2.0945067719643272e-06 -0.0017075147079200304 0 -2.9433720855167707e-07 -0.0018772661988799666 0 -2.0945067719643272e-06 -0.0017075147079200304 0 -4.6346047823602744e-05 -0.0015899773764584775 0 -0.00010338264753824107 -0.0016269261471109128 0 -2.0945067719643272e-06 -0.0017075147079200304 0 -4.6346047823602744e-05 -0.0015899773764584775 0 1.1184332587203043e-05 -0.0016030416800067652 0 -4.6346047823602744e-05 -0.0015899773764584775 0 1.1184332587203043e-05 -0.0016030416800067652 0 -2.2330605099171715e-05 -0.0015611837369922767 0 -2.2330605099171715e-05 -0.0015611837369922767 0 1.9673888978247602e-05 -0.0015255995937635731 0 -3.6485057943123878e-06 -0.0015115376370580949 0 1.1184332587203043e-05 -0.0016030416800067652 0 -2.2330605099171715e-05 -0.0015611837369922767 0 1.9673888978247602e-05 -0.0015255995937635731 0 -4.6346047823602744e-05 -0.0015899773764584775 0 -2.2330605099171715e-05 -0.0015611837369922767 0 -5.2578811008137251e-05 -0.0015248002747277679 0 -5.348938293802036e-05 -0.0015667595977126613 0 -6.4790218580195659e-05 -0.0015492251247194617 0 -4.0264525324399045e-05 -0.0015578114245554855 0 -6.4790218580195659e-05 -0.0015492251247194617 0 2.6653170575048664e-05 -0.0015285270272929331 0 1.9673888978247602e-05 -0.0015255995937635731 0 3.9062609841394173e-05 -0.0014947360619966923 0 1.1184332587203043e-05 -0.0016030416800067652 0 2.6653170575048664e-05 -0.0015285270272929331 0 1.9673888978247602e-05 -0.0015255995937635731 0 1.9673888978247602e-05 -0.0015255995937635731 0 1.7590578418817349e-05 -0.0014818986754934391 0 3.9062609841394173e-05 -0.0014947360619966923 0 1.9673888978247602e-05 -0.0015255995937635731 0 1.7590578418817349e-05 -0.0014818986754934391 0 -3.6485057943123878e-06 -0.0015115376370580949 0 1.7590578418817349e-05 -0.0014818986754934391 0 -3.6485057943123878e-06 -0.0015115376370580949 0 -4.8723404084626065e-05 -0.0014343358496116958 0 -6.4790218580195659e-05 -0.0015492251247194617 0 -0.00010606551272377473 -0.0011930987776456311 0 -4.7807434740480463e-05 -0.0015276426496143372 0 -3.6485057943123878e-06 -0.0015115376370580949 0 -4.8723404084626065e-05 -0.0014343358496116958 0 -2.2330605099171715e-05 -0.0015611837369922767 0 -4.7807434740480463e-05 -0.0015276426496143372 0 -3.6485057943123878e-06 -0.0015115376370580949 0 -4.2871472847613728e-05 -0.0010533792197268842 0 -0.00010606551272377473 -0.0011930987776456311 0 -0.00010552046701354716 -0.00065167413357010721 0 -5.5507137039878505e-05 -0.0006860679691760485 0 -0.00010573798480261785 -0.00071507800302463031 0 -0.00010552046701354716 -0.00065167413357010721 0 -0.0001553512914252326 -0.00065925948530831148 0 -0.00010573798480261785 -0.00071507800302463031 0 -0.00019650475616645005 -0.00059900984123247925 0 -0.00021558170798878946 -0.00055679241636797988 0 -0.0002494869901854158 -0.00052419994322127868 0 -0.00021789258315161309 -0.00049433269669879295 0 -0.00024670388581908917 -0.00046080277138680606 0 -0.00021789258315161309 -0.00049433269669879295 0 -0.0001870402037348412 -0.0005294052722511391 0 -0.00018672492731319732 -0.00046503026252521387 0 -0.0002494869901854158 -0.00052419994322127868 0 -0.00021789258315161309 -0.00049433269669879295 0 -0.0001870402037348412 -0.0005294052722511391 0 -0.0002494869901854158 -0.00052419994322127868 0 -0.0001870402037348412 -0.0005294052722511391 0 -0.00017980206125951535 -0.00060592234562875527 0 -0.0001553512914252326 -0.00065925948530831148 0 -0.00017980206125951535 -0.00060592234562875527 0 -0.00015415961299383981 -0.00061999291798103199 0 -0.00019650475616645005 -0.00059900984123247925 0 -0.00018246101633022897 -0.00060417328043450272 0 -0.00010552046701354716 -0.00065167413357010721 0 -0.0001553512914252326 -0.00065925948530831148 0 -0.00015415961299383981 -0.00061999291798103199 0 -4.2871472847613728e-05 -0.0010533792197268842 0 -5.5981791151857471e-05 -0.0010564664669648768 0 -7.8322258181326314e-06 -0.0023055702738841643 0 1.4722526306668761e-05 -0.0022812630702356883 0 -6.6144998653092108e-07 -0.0023012142898096678 0 -7.8322258181326314e-06 -0.0023055702738841643 0 -1.2336096593178521e-05 -0.0023218164827061372 0 1.4722526306668761e-05 -0.0022812630702356883 0 -7.8322258181326314e-06 -0.0023055702738841643 0 -1.2336096593178521e-05 -0.0023218164827061372 0 -2.3789740755174057e-05 -0.0023217394807232635 0 -5.1389466251478597e-08 -0.0023573684611043091 0 8.547609156539026e-08 -0.0022617309500547458 0 1.5039940216857479e-08 -0.0025612712819602858 0 1.4538478695128276e-05 -0.0023957265026409605 0 -4.1511809472131285e-06 -0.0024520588563795485 0 -1.2336096593178521e-05 -0.0023218164827061372 0 -5.1389466251478597e-08 -0.0023573684611043091 0 1.4722526306668761e-05 -0.0022812630702356883 0 -1.2336096593178521e-05 -0.0023218164827061372 0 -5.1389466251478597e-08 -0.0023573684611043091 0 -3.3528039220841061e-05 -0.0023332480104162009 0 8.547609156539026e-08 -0.0022617309500547458 0 1.4722526306668761e-05 -0.0022812630702356883 0 7.6846181064075536e-06 -0.0021966074873975535 0 -5.1389466251478597e-08 -0.0023573684611043091 0 8.547609156539026e-08 -0.0022617309500547458 0 1.4722526306668761e-05 -0.0022812630702356883 0 1.4722526306668761e-05 -0.0022812630702356883 0 -2.5113316740876022e-05 -0.0022574693462106398 0 -6.2637942613853503e-06 -0.0023029677405086236 0 1.4722526306668761e-05 -0.0022812630702356883 0 -2.5113316740876022e-05 -0.0022574693462106398 0 7.6846181064075536e-06 -0.0021966074873975535 0 -2.5113316740876022e-05 -0.0022574693462106398 0 7.6846181064075536e-06 -0.0021966074873975535 0 -1.5658786737717508e-07 -0.0019629308666470331 0 8.547609156539026e-08 -0.0022617309500547458 0 7.6846181064075536e-06 -0.0021966074873975535 0 -1.5658786737717508e-07 -0.0019629308666470331 0 2.8534139666217046e-05 -0.0021811940242189632 0 -1.1667996912908105e-08 -0.001962569617849299 0 5.1571834581050527e-05 -0.0020638923240154381 0 1.2301659985156838e-07 -0.0019620578655168883 0 -1.2588490907184117e-05 -0.0020324959810965279 0 -7.911738487432095e-09 -0.0019404165080210366 0 -5.3732388717365093e-05 -0.0018605335598986569 0 -5.4114188864922512e-08 -0.0018776102458679933 0 -5.3732388717365093e-05 -0.0018605335598986569 0 1.2301659985156838e-07 -0.0019620578655168883 0 -1.2904883318980699e-07 -0.0019407688522562621 0 -1.2588490907184117e-05 -0.0020324959810965279 0 -5.5799318025240192e-09 -0.0019398440151490153 0 5.1993485540832317e-09 -0.0018781495798658758 0 -6.7747617092336155e-07 -0.0019396303213975892 0 -2.0945067719643272e-06 -0.0017075147079200304 0 -0.00014192733251568236 -0.0016477622901281868 0 -0.00010338264753824107 -0.0016269261471109128 0 -2.0945067719643272e-06 -0.0017075147079200304 0 -2.9433720855167707e-07 -0.0018772661988799666 0 -0.00014192733251568236 -0.0016477622901281868 0 -0.00012043639601209208 -0.0015955617769390364 0 -0.00010494703054986518 -0.0016539611816191306 0 -4.6346047823602744e-05 -0.0015899773764584775 0 -0.00010338264753824107 -0.0016269261471109128 0 -0.0001297441552397341 -0.0015473396141687521 0 -5.3732388717365093e-05 -0.0018605335598986569 0 -0.00010494703054986518 -0.0016539611816191306 0 -0.00014192733251568236 -0.0016477622901281868 0 -0.00010338264753824107 -0.0016269261471109128 0 -0.00014177907867544655 -0.001529905039661899 0 -9.2184995795064229e-05 -0.0017796669533637745 0 -9.031743397330286e-05 -0.001853762721475725 0 -3.7098015452393098e-05 -0.0019086946412828923 0 -5.3732388717365093e-05 -0.0018605335598986569 0 -6.4712929114714166e-06 -0.0020335750435247382 0 5.1571834581050527e-05 -0.0020638923240154381 0 -1.2588490907184117e-05 -0.0020324959810965279 0 1.8989617153383306e-05 -0.002141277948542665 0 -4.6346047823602744e-05 -0.0015899773764584775 0 -5.1519094596076075e-05 -0.0015024650775522274 0 -0.0001297441552397341 -0.0015473396141687521 0 -0.00010668960259118059 -0.0016265445829609679 0 -6.3514601780416475e-05 -0.0017316166674216414 0 -0.00010379906424720638 -0.0017369150666858373 0 -0.00010494703054986518 -0.0016539611816191306 0 -0.00011427729339073054 -0.001540777223939293 0 -9.031743397330286e-05 -0.001853762721475725 0 -4.4281326633483619e-05 -0.0019681926825970762 0 -3.7098015452393098e-05 -0.0019086946412828923 0 -5.1519094596076075e-05 -0.0015024650775522274 0 -0.0001297441552397341 -0.0015473396141687521 0 -0.00013097473954550595 -0.0014081320980709282 0 -0.00010494703054986518 -0.0016539611816191306 0 -4.3981445450478754e-05 -0.0018768948825345843 0 -7.2879102344737006e-05 -0.0015140316277771097 0 -7.5832574830662658e-05 -0.0013796321967469302 0 -0.00012565790886015407 -0.0014499290094175331 0 -6.4790218580195659e-05 -0.0015492251247194617 0 -0.00011427729339073054 -0.001540777223939293 0 -7.5832574830662658e-05 -0.0013796321967469302 0 -0.00012565790886015407 -0.0014499290094175331 0 -0.00012747554893081554 -0.0013490886248077167 0 -0.00011015103302624344 -0.0015493890438111741 0 -2.1108445651040801e-05 -0.0016572621121937867 0 -0.00010717373335784354 -0.0016774053531855421 0 -0.00011427729339073054 -0.001540777223939293 0 -2.2331725361322883e-05 -0.0018787228278996789 0 -6.3514601780416475e-05 -0.0017316166674216414 0 -0.00010379906424720638 -0.0017369150666858373 0 -2.0170042534175504e-05 -0.0018381605231261478 0 -0.00011427729339073054 -0.001540777223939293 0 -8.7145441437891402e-05 -0.0014429637214343374 0 -0.00010606551272377473 -0.0011930987776456311 0 -8.7145441437891402e-05 -0.0014429637214343374 0 -4.4281326633483619e-05 -0.0019681926825970762 0 1.8239217917848188e-05 -0.0020394705808021584 0 1.8771216011086552e-06 -0.0020843122466968375 0 -4.3981445450478754e-05 -0.0018768948825345843 0 -2.2331725361322883e-05 -0.0018787228278996789 0 6.2750768797084947e-05 -0.0022683380843405514 0 0.00012042913294559387 -0.0021951137601026282 0 0.00012229727148723135 -0.0023147409034969895 0 -4.4281326633483619e-05 -0.0019681926825970762 0 -3.7098015452393098e-05 -0.0019086946412828923 0 1.8239217917848188e-05 -0.0020394705808021584 0 1.8989617153383306e-05 -0.002141277948542665 0 6.2750768797084947e-05 -0.0022683380843405514 0 0.00012042913294559387 -0.0021951137601026282 0 2.8534139666217046e-05 -0.0021811940242189632 0 4.3036438541519023e-05 -0.00213577062544295 0 5.1571834581050527e-05 -0.0020638923240154381 0 1.8989617153383306e-05 -0.002141277948542665 0 0.00012042913294559387 -0.0021951137601026282 0 -6.4712929114714166e-06 -0.0020335750435247382 0 4.5409039143051673e-05 -0.0021552205704499956 0 1.4722526306668761e-05 -0.0022812630702356883 0 -6.2637942613853503e-06 -0.0023029677405086236 0 -6.6144998653092108e-07 -0.0023012142898096678 0 0.00012042913294559387 -0.0021951137601026282 0 0.00012229727148723135 -0.0023147409034969895 0 0.0001972372167397833 -0.002344315980009672 0 -6.2637942613853503e-06 -0.0023029677405086236 0 -6.6144998653092108e-07 -0.0023012142898096678 0 -2.426692776778713e-06 -0.0023121777820060033 0 4.3036438541519023e-05 -0.00213577062544295 0 -3.6505202102905385e-05 -0.0029570715340626044 0 -3.6505202102905385e-05 -0.0029570715340626044 0 -6.4878148140620388e-05 -0.0032489906677457092 0 -6.6144998653092108e-07 -0.0023012142898096678 0 -2.426692776778713e-06 -0.0023121777820060033 0 -1.0774723845680563e-05 -0.0023015348435591128 0 -4.4527493335081732e-05 -0.0040385720845373561 0 -7.5637446700541975e-05 -0.0040670478510786631 0 -6.8302481848187826e-05 -0.004043635329369917 0 -6.6144998653092108e-07 -0.0023012142898096678 0 -9.8835362803938752e-06 -0.0023056364780625026 0 -1.0774723845680563e-05 -0.0023015348435591128 0 -7.8322258181326314e-06 -0.0023055702738841643 0 -6.6144998653092108e-07 -0.0023012142898096678 0 -9.8835362803938752e-06 -0.0023056364780625026 0 3.396045890986026e-05 -0.0029388257973039407 0 -4.9995198345955649e-06 -0.00300273855881975 0 1.7577702679963567e-05 -0.0029941706039407472 0 5.6612593288609041e-06 -0.0035559161650650095 0 -3.6505202102905385e-05 -0.0029570715340626044 0 -5.399378564952172e-05 -0.0040187176042723594 0 -4.4527493335081732e-05 -0.0040385720845373561 0 -6.8302481848187826e-05 -0.004043635329369917 0 3.396045890986026e-05 -0.0029388257973039407 0 -5.0223248468245256e-05 -0.0027776429587169191 0 -0.00013698337476481746 -0.0028374490004535783 0 -3.6505202102905385e-05 -0.0029570715340626044 0 2.8766554455354989e-05 -0.0022924490416528741 0 0.00012229727148723135 -0.0023147409034969895 0 0.0001972372167397833 -0.002344315980009672 0 0.0001148215044855264 -0.0024020869736607405 0 2.8766554455354989e-05 -0.0022924490416528741 0 -1.161156950113252e-06 -0.0021712739233453468 0 3.396045890986026e-05 -0.0029388257973039407 0 -0.00013698337476481746 -0.0028374490004535783 0 -4.9995198345955649e-06 -0.00300273855881975 0 2.6875834083182719e-05 -0.0020655618534135708 0 3.0394991123327372e-05 -0.0019784366080066122 0 6.5156862754803767e-05 -0.0020645619854407758 0 4.0293083650051955e-05 -0.002097974891100628 0 2.6875834083182719e-05 -0.0020655618534135708 0 -8.4481785840966782e-05 -0.0019456684208064062 0 2.6875834083182719e-05 -0.0020655618534135708 0 3.0394991123327372e-05 -0.0019784366080066122 0 -8.4481785840966782e-05 -0.0019456684208064062 0 2.8766554455354989e-05 -0.0022924490416528741 0 1.5566807836782694e-05 -0.0025433805047934441 0 8.3283162999973825e-05 -0.0019725155716128228 0 6.0237787346739719e-05 -0.0020500333302915469 0 0.00017861718228576474 -0.0019430565598266536 0 6.1485282609766235e-05 -0.001944543193116832 0 -4.1455215719915084e-05 -0.0014104581478658813 0 3.0394991123327372e-05 -0.0019784366080066122 0 8.3283162999973825e-05 -0.0019725155716128228 0 4.4980614529434724e-05 -0.0019401532961342359 0 3.0394991123327372e-05 -0.0019784366080066122 0 8.3283162999973825e-05 -0.0019725155716128228 0 6.0237787346739719e-05 -0.0020500333302915469 0 5.281341922605985e-05 -0.0020120766880327339 0 6.1485282609766235e-05 -0.001944543193116832 0 1.8239217917848188e-05 -0.0020394705808021584 0 1.8771216011086552e-06 -0.0020843122466968375 0 7.4520145384193099e-05 -0.0021731105195070314 0 -3.1780795369309248e-06 -0.0018047923902216709 0 -8.7145441437891402e-05 -0.0014429637214343374 0 4.0888546845336976e-05 -0.00209948688799767 0 2.6875834083182719e-05 -0.0020655618534135708 0 6.5156862754803767e-05 -0.0020645619854407758 0 6.2750768797084947e-05 -0.0022683380843405514 0 0.00012229727148723135 -0.0023147409034969895 0 0.0001148215044855264 -0.0024020869736607405 0 6.064284366694805e-05 -0.0020365929221211813 0 2.7496074966630098e-05 -0.0020835671972444024 0 1.4203872521684731e-05 -0.0020512974483652105 0 2.8766554455354989e-05 -0.0022924490416528741 0 6.1485282609766235e-05 -0.001944543193116832 0 -2.1108445651040801e-05 -0.0016572621121937867 0 1.7383047288861347e-05 -0.0017528549537087934 0 -0.00010717373335784354 -0.0016774053531855421 0 -4.5035884764570376e-05 -0.0015516990391420851 0 -4.462990183667755e-05 -0.0015523769599019254 0 -3.9969454426586939e-05 -0.0015493601660775548 0 4.5409039143051673e-05 -0.0021552205704499956 0 2.8766554455354989e-05 -0.0022924490416528741 0 6.1485282609766235e-05 -0.001944543193116832 0 -3.1780795369309248e-06 -0.0018047923902216709 0 -4.2606326486099127e-05 -0.0019122294931334016 0 6.064284366694805e-05 -0.0020365929221211813 0 1.4203872521684731e-05 -0.0020512974483652105 0 -2.2331725361322883e-05 -0.0018787228278996789 0 2.8766554455354989e-05 -0.0022924490416528741 0 -2.2331725361322883e-05 -0.0018787228278996789 0 -3.1780795369309248e-06 -0.0018047923902216709 0 -8.7443550740999812e-05 -0.00122585730738456 0 -0.00011955672897233197 -0.0012069293252496122 0 -8.8596405498266153e-05 -0.0011735374604871771 0 -0.00011955672897233197 -0.0012069293252496122 0 -0.00012013453200078095 -0.0011558971673905577 0 -8.8596405498266153e-05 -0.0011735374604871771 0 -4.462990183667755e-05 -0.0015523769599019254 0 -4.035534975607751e-05 -0.0015528932290864873 0 -3.9969454426586939e-05 -0.0015493601660775548 0 -8.7145441437891402e-05 -0.0014429637214343374 0 -7.9519098238649578e-05 -0.001330370617376202 0 -4.5035884764570376e-05 -0.0015516990391420851 0 -3.9969454426586939e-05 -0.0015493601660775548 0 -3.9789968409820035e-05 -0.0015442373567093554 0 -7.9519098238649578e-05 -0.001330370617376202 0 -4.1455215719915084e-05 -0.0014104581478658813 0 -0.00012013453200078095 -0.0011558971673905577 0 -8.8596405498266153e-05 -0.0011735374604871771 0 -9.0131567481947265e-05 -0.001122918590489226 0 -0.00012013453200078095 -0.0011558971673905577 0 -0.00012035181854050286 -0.0011073171440636662 0 -9.0131567481947265e-05 -0.001122918590489226 0 -4.6460292231913546e-05 -0.001177378685477914 0 -0.0001827140978319284 -0.00076075789828284246 0 -0.00011365162724369198 -0.0011013955098305691 0 -0.00012035181854050286 -0.0011073171440636662 0 -9.0131567481947265e-05 -0.001122918590489226 0 -0.00016582870982467091 -0.00086408272469607947 0 -0.00015285960620598372 -0.00087634679230625312 0 -0.00015297915309304982 -0.00085192804870521202 0 -3.3161219524670567e-05 -0.0010496669517344604 0 -5.856628979673758e-05 -0.001025273695506361 0 5.0517448274973075e-05 -0.0009751576569027936 0 -4.6460292231913546e-05 -0.001177378685477914 0 4.7806418597669252e-05 -0.001356674600912483 0 -4.6460292231913546e-05 -0.001177378685477914 0 -0.00018944539287058727 -0.00063449341426342193 0 -4.6460292231913546e-05 -0.001177378685477914 0 -4.1455215719915084e-05 -0.0014104581478658813 0 1.9792329464938627e-05 -0.0012584265546097388 0 1.5715027031685177e-05 -0.0012620591474777768 0 1.5876173612651119e-05 -0.0012545924234578108 0 -4.1455215719915084e-05 -0.0014104581478658813 0 4.7806418597669252e-05 -0.001356674600912483 0 0.00017861718228576474 -0.0019430565598266536 0 0.00017816732446544455 -0.0019175889405540431 0 0.00012866488958934895 -0.0019278262731915038 0 7.8232496293705045e-05 -0.0013156081290018942 0 7.6877699407548806e-05 -0.0012374258239347339 0 2.1268549375271231e-05 -0.0012607867586009677 0 4.7806418597669252e-05 -0.001356674600912483 0 8.5348030743366969e-05 -0.00098895357529554351 0 4.7806418597669252e-05 -0.001356674600912483 0 8.6915027820949338e-05 -0.0014330869676721443 0 0.00017816732446544455 -0.0019175889405540431 0 0.00011647893928270894 -0.0018579709194895869 0 0.00012866488958934895 -0.0019278262731915038 0 -5.856628979673758e-05 -0.001025273695506361 0 -6.1445069252150894e-05 -0.00087052794502834926 0 5.0517448274973075e-05 -0.0009751576569027936 0 8.5348030743366969e-05 -0.00098895357529554351 0 -3.9774269842549891e-05 -0.00071713122215335829 0 -6.1445069252150894e-05 -0.00087052794502834926 0 5.0517448274973075e-05 -0.0009751576569027936 0 4.7229363203241196e-05 -0.0008237704460449573 0 6.5029627887798887e-05 -0.00084631180889661482 0 6.528645018023395e-05 -0.00080100427076007562 0 2.7824863602909511e-05 -0.00081567260794879789 0 6.5029627887798887e-05 -0.00084631180889661482 0 6.528645018023395e-05 -0.00080100427076007562 0 0.00010306833159048852 -0.0008296466676555648 0 6.528645018023395e-05 -0.00080100427076007562 0 0.00010306833159048852 -0.0008296466676555648 0 0.00010449505186553045 -0.00078666664706382753 0 8.5348030743366969e-05 -0.00098895357529554351 0 8.6915027820949338e-05 -0.0014330869676721443 0 0.00010306833159048852 -0.0008296466676555648 0 0.00010449505186553045 -0.00078666664706382753 0 0.00017319050509590161 -0.00084926130614866179 0 8.6915027820949338e-05 -0.0014330869676721443 0 0.00012272740842258464 -0.0012828722346397447 0 0.00010306833159048852 -0.0008296466676555648 0 0.00017319050509590161 -0.00084926130614866179 0 0.0001086060178975759 -0.00086536373229267861 0 6.3897088255595691e-05 -0.0017293575742091034 0 8.5056356621780385e-05 -0.0017234451212292691 0 8.2575256763742769e-05 -0.0017482334688474575 0 6.5029627887798887e-05 -0.00084631180889661482 0 0.00010306833159048852 -0.0008296466676555648 0 0.0001086060178975759 -0.00086536373229267861 0 0.00011647893928270894 -0.0018579709194895869 0 8.0792343652634867e-05 -0.001923450113131073 0 -1.1178014751152944e-06 -0.0019103663178153532 0 8.6915027820949338e-05 -0.0014330869676721443 0 1.1500067690019253e-05 -0.0020880719003244057 0 0.00011647893928270894 -0.0018579709194895869 0 0.00012866488958934895 -0.0019278262731915038 0 8.0792343652634867e-05 -0.001923450113131073 0 8.3283162999973825e-05 -0.0019725155716128228 0 0.00017861718228576474 -0.0019430565598266536 0 0.00012866488958934895 -0.0019278262731915038 0 8.3283162999973825e-05 -0.0019725155716128228 0 0.00012866488958934895 -0.0019278262731915038 0 8.0792343652634867e-05 -0.001923450113131073 0 8.3283162999973825e-05 -0.0019725155716128228 0 4.4980614529434724e-05 -0.0019401532961342359 0 8.0792343652634867e-05 -0.001923450113131073 0 4.4980614529434724e-05 -0.0019401532961342359 0 8.0792343652634867e-05 -0.001923450113131073 0 -1.1178014751152944e-06 -0.0019103663178153532 0 1.8986951963239307e-05 -0.0024619435235360195 0 4.6673346546604677e-05 -0.0025113794601335608 0 5.1488606672681173e-05 -0.0024505894750152853 0 3.0394991123327372e-05 -0.0019784366080066122 0 7.6726044166234289e-06 -0.0019264707101611966 0 -8.4481785840966782e-05 -0.0019456684208064062 0 3.0394991123327372e-05 -0.0019784366080066122 0 4.4980614529434724e-05 -0.0019401532961342359 0 7.6726044166234289e-06 -0.0019264707101611966 0 -3.0915472489296761e-06 -0.0020495616670765694 0 1.1500067690019253e-05 -0.0020880719003244057 0 4.4980614529434724e-05 -0.0019401532961342359 0 7.6726044166234289e-06 -0.0019264707101611966 0 -1.1178014751152944e-06 -0.0019103663178153532 0 1.1500067690019253e-05 -0.0020880719003244057 0 1.5566807836782694e-05 -0.0025433805047934441 0 7.6726044166234289e-06 -0.0019264707101611966 0 -1.685405177299294e-06 -0.0019100807034810234 0 -8.4481785840966782e-05 -0.0019456684208064062 0 1.1500067690019253e-05 -0.0020880719003244057 0 7.1739334051422048e-05 -0.0021201717530214101 0 8.5056356621780385e-05 -0.0017234451212292691 0 8.2575256763742769e-05 -0.0017482334688474575 0 9.8053178809023135e-05 -0.0017439773862757088 0 4.6673346546604677e-05 -0.0025113794601335608 0 8.8249187760046743e-05 -0.0024996318581963417 0 8.9503104618150311e-05 -0.0025333303821635121 0 4.6673346546604677e-05 -0.0025113794601335608 0 5.1488606672681173e-05 -0.0024505894750152853 0 8.8249187760046743e-05 -0.0024996318581963417 0 -5.3299928024060741e-06 -0.003002989645447846 0 1.7577702679963567e-05 -0.0029941706039407472 0 9.787393019948332e-05 -0.0031337692690831063 0 1.7577702679963567e-05 -0.0029941706039407472 0 9.787393019948332e-05 -0.0031337692690831063 0 0.00011758519201653736 -0.0031014375264126373 0 1.5566807836782694e-05 -0.0025433805047934441 0 9.3425916259811263e-05 -0.0027799762842824131 0 5.6612593288609041e-06 -0.0035559161650650095 0 3.7807162565608706e-05 -0.0035702148642273641 0 3.396045890986026e-05 -0.0029388257973039407 0 1.7577702679963567e-05 -0.0029941706039407472 0 0.00011758519201653736 -0.0031014375264126373 0 1.5566807836782694e-05 -0.0025433805047934441 0 -2.5944883680485229e-05 -0.0026095512510809927 0 -0.00023346127776931484 -0.00039868184624906888 0 -0.00024670388581908917 -0.00046080277138680606 0 -0.0002732216490268347 -0.00041876868322224893 0 -0.00023346127776931484 -0.00039868184624906888 0 -0.0002732216490268347 -0.00041876868322224893 0 -0.00026809313131460953 -0.00037949066154766394 0 -0.00023346127776931484 -0.00039868184624906888 0 -0.00018689277978728338 -0.00041373992053450365 0 -0.00024670388581908917 -0.00046080277138680606 0 -0.00023346127776931484 -0.00039868184624906888 0 -0.00018689277978728338 -0.00041373992053450365 0 -0.00018656891349960413 -0.00036251037690788204 0 -0.00018689277978728338 -0.00041373992053450365 0 -0.00018672492731319732 -0.00046503026252521387 0 -0.00024670388581908917 -0.00046080277138680606 0 -0.00021789258315161309 -0.00049433269669879295 0 -0.00018672492731319732 -0.00046503026252521387 0 -0.00024670388581908917 -0.00046080277138680606 0 -0.0002494869901854158 -0.00052419994322127868 0 -0.00024670388581908917 -0.00046080277138680606 0 -0.00030120208205930329 -0.00046122880902662499 0 -0.00024670388581908917 -0.00046080277138680606 0 -0.00030120208205930329 -0.00046122880902662499 0 -0.0002732216490268347 -0.00041876868322224893 0 -0.00010573798480261785 -0.00071507800302463031 0 -5.580256950102428e-05 -0.00072557749811100886 0 -5.5829122100099532e-05 -0.00076562915110424152 0 -5.5507137039878505e-05 -0.0006860679691760485 0 -0.00010573798480261785 -0.00071507800302463031 0 -5.580256950102428e-05 -0.00072557749811100886 0 -0.00010606551272377473 -0.0011930987776456311 0 -7.677539994155143e-05 -0.00094194630279873968 0 -7.677539994155143e-05 -0.00094194630279873968 0 -0.0001827140978319284 -0.00076075789828284246 0 -0.00021558170798878946 -0.00055679241636797988 0 -0.0001827140978319284 -0.00076075789828284246 0 -0.0003517526959134151 -0.000408310675628056 0 -0.00030720791975074674 -0.00041292224158867189 0 -0.00032146402166655823 -0.00037969460968994667 0 -0.00030120208205930329 -0.00046122880902662499 0 -0.0003517526959134151 -0.000408310675628056 0 -0.00030720791975074674 -0.00041292224158867189 0 -0.00030120208205930329 -0.00046122880902662499 0 -0.0002732216490268347 -0.00041876868322224893 0 -0.00030720791975074674 -0.00041292224158867189 0 -0.0002732216490268347 -0.00041876868322224893 0 -0.00030720791975074674 -0.00041292224158867189 0 -0.00029352954818218357 -0.00039199073737425128 0 -0.0002732216490268347 -0.00041876868322224893 0 -0.00029352954818218357 -0.00039199073737425128 0 -0.00026809313131460953 -0.00037949066154766394 0 -0.00029352954818218357 -0.00039199073737425128 0 -0.00028803016595718456 -0.00035369929684058235 0 -0.00026809313131460953 -0.00037949066154766394 0 -0.00030720791975074674 -0.00041292224158867189 0 -0.00029352954818218357 -0.00039199073737425128 0 -0.00032146402166655823 -0.00037969460968994667 0 -0.00029352954818218357 -0.00039199073737425128 0 -0.00028803016595718456 -0.00035369929684058235 0 -0.00032146402166655823 -0.00037969460968994667 0 -0.00028803016595718456 -0.00035369929684058235 0 -0.00032146402166655823 -0.00037969460968994667 0 -0.00032638619818088768 -0.0003469444318394138 0 -0.0003517526959134151 -0.000408310675628056 0 -0.00032146402166655823 -0.00037969460968994667 0 -0.00035224976406502903 -0.00037049272886764505 0 -0.0001827140978319284 -0.00076075789828284246 0 -0.00018944539287058727 -0.00063449341426342193 0 -0.00032146402166655823 -0.00037969460968994667 0 -0.00035224976406502903 -0.00037049272886764505 0 -0.00032638619818088768 -0.0003469444318394138 0 -0.00018944539287058727 -0.00063449341426342193 0 -0.00027610676723928862 -0.00039873555919690492 0 -0.00035136448244232785 -0.00033490478163247626 0 -0.00030372792736217902 -0.00033143485920952858 0 -0.00028921831145346208 -0.00030407072376754116 0 -0.00035136448244232785 -0.00033490478163247626 0 -0.00032638619818088768 -0.0003469444318394138 0 -0.00030372792736217902 -0.00033143485920952858 0 -3.9774269842549891e-05 -0.00071713122215335829 0 -0.00027814342837768739 -0.00042913028228087246 0 -0.00018944539287058727 -0.00063449341426342193 0 -3.9774269842549891e-05 -0.00071713122215335829 0 -0.00035037732186843698 -0.00037172489635503076 0 -0.00035136448244232785 -0.00033490478163247626 0 -0.00032638619818088768 -0.0003469444318394138 0 -0.00028803016595718456 -0.00035369929684058235 0 -0.00030372792736217902 -0.00033143485920952858 0 -0.00026239207089819163 -0.00031693533815662495 0 -0.00028803016595718456 -0.00035369929684058235 0 -0.00032638619818088768 -0.0003469444318394138 0 -0.00030372792736217902 -0.00033143485920952858 0 -0.00030372792736217902 -0.00033143485920952858 0 -0.00026239207089819163 -0.00031693533815662495 0 -0.00028921831145346208 -0.00030407072376754116 0 -0.00029519186808682447 -0.00033161009770529495 0 -0.00027814342837768739 -0.00042913028228087246 0 -0.00028803016595718456 -0.00035369929684058235 0 -0.00026239207089819163 -0.00031693533815662495 0 -0.00024411350330194796 -0.00035617856334445042 0 -0.00026239207089819163 -0.00031693533815662495 0 -0.00022971754900604421 -0.00031021575704218444 0 -0.00022312371768137154 -0.00033025616388214295 0 -0.00026239207089819163 -0.00031693533815662495 0 -0.00022971754900604421 -0.00031021575704218444 0 -0.00025070427083898647 -0.00028137109715404288 0 -0.00026239207089819163 -0.00031693533815662495 0 -0.00024411350330194796 -0.00035617856334445042 0 -0.00022312371768137154 -0.00033025616388214295 0 -0.00028803016595718456 -0.00035369929684058235 0 -0.00024411350330194796 -0.00035617856334445042 0 -0.00026809313131460953 -0.00037949066154766394 0 -0.00023346127776931484 -0.00039868184624906888 0 -0.00024411350330194796 -0.00035617856334445042 0 -0.00026809313131460953 -0.00037949066154766394 0 -0.00023346127776931484 -0.00039868184624906888 0 -0.00024411350330194796 -0.00035617856334445042 0 -0.00018656891349960413 -0.00036251037690788204 0 -0.00024411350330194796 -0.00035617856334445042 0 -0.00018656891349960413 -0.00036251037690788204 0 -0.00022312371768137154 -0.00033025616388214295 0 -0.00022971754900604421 -0.00031021575704218444 0 -0.00018271799879946142 -0.00031235076915961889 0 -0.00025070427083898647 -0.00028137109715404288 0 -0.00018656891349960413 -0.00036251037690788204 0 -0.00018271799879946142 -0.00031235076915961889 0 -0.00022312371768137154 -0.00033025616388214295 0 -0.00022971754900604421 -0.00031021575704218444 0 -0.00018271799879946142 -0.00031235076915961889 0 -0.00022312371768137154 -0.00033025616388214295 0 -0.0002002396991429567 -0.00024881324726115303 0 -0.00026195133438426904 -0.00016451350175976311 0 -0.00022009647698946125 -0.00017340933682725697 0 -0.00027311321254717269 -0.00012207466023193096 0 -0.00028431369793290896 -0.00012621434707953073 0 -0.00022009647698946125 -0.00017340933682725697 0 -0.00022584651764228405 -0.00010891210867432639 0 -0.00027311321254717269 -0.00012207466023193096 0 -0.00022584651764228405 -0.00010891210867432639 0 -0.00026026639732280816 -9.8425734450213368e-05 0 -0.00027311321254717269 -0.00012207466023193096 0 -0.00022584651764228405 -0.00010891210867432639 0 -0.00025191988146578938 -6.0745269162259777e-05 0 -0.00019049100094008773 -7.5409500125723762e-05 0 -0.00022584651764228405 -0.00010891210867432639 0 -0.00026026639732280816 -9.8425734450213368e-05 0 -0.00025191988146578938 -6.0745269162259777e-05 0 -0.00012793478419265822 1.815368965788789e-05 0 -0.00010860714542371044 5.6080775609979405e-05 0 -0.00025191988146578938 -6.0745269162259777e-05 0 -0.00028205403528855811 -0.00010404196943166704 0 -0.00029580866613725896 -9.688265566286318e-05 0 -3.4673919197436052e-06 0.00010420254996817901 0 7.3284043951119259e-05 0.00013940885645783167 0 5.7238663209204368e-05 9.5664271003741567e-05 0 -0.00026026639732280816 -9.8425734450213368e-05 0 -0.00025191988146578938 -6.0745269162259777e-05 0 -0.00028205403528855811 -0.00010404196943166704 0 -0.00028205403528855811 -0.00010404196943166704 0 -0.00029632573049305294 -0.00010893799973268001 0 -0.00029580866613725896 -9.688265566286318e-05 0 -0.00028205403528855811 -0.00010404196943166704 0 -0.00027954547994875361 -0.00011304357087745227 0 -0.00029632573049305294 -0.00010893799973268001 0 -0.00026195133438426904 -0.00016451350175976311 0 -0.00030402420544237022 -0.00011477625614575013 0 -0.00027954547994875361 -0.00011304357087745227 0 -0.00028004245244080567 -0.00012250451198506787 0 -0.00029632573049305294 -0.00010893799973268001 0 -0.00026026639732280816 -9.8425734450213368e-05 0 -0.00027954547994875361 -0.00011304357087745227 0 -0.00027311321254717269 -0.00012207466023193096 0 -0.00026026639732280816 -9.8425734450213368e-05 0 -0.00028205403528855811 -0.00010404196943166704 0 -0.00027954547994875361 -0.00011304357087745227 0 -0.00027954547994875361 -0.00011304357087745227 0 -0.00027311321254717269 -0.00012207466023193096 0 -0.00028004245244080567 -0.00012250451198506787 0 -0.00026316244257349949 -0.00015732570937793784 0 -0.00026195133438426904 -0.00016451350175976311 0 -0.00026239207089819163 -0.00031693533815662495 0 -0.00025070427083898647 -0.00028137109715404288 0 -0.00029191461391058518 -0.0002993538672741572 0 -0.00026195133438426904 -0.00016451350175976311 0 -0.00027814342837768739 -0.00042913028228087246 0 -0.00028480176122179534 -0.00011549815403080737 0 -0.00029876456342918935 -0.00012116946369123742 0 -0.00029632573049305294 -0.00010893799973268001 0 -0.00027814342837768739 -0.00042913028228087246 0 -1.5206811584256727e-05 -0.00028952712526302243 0 -0.00029876456342918935 -0.00012116946369123742 0 -0.00029632573049305294 -0.00010893799973268001 0 -0.00031231151508249121 -0.00011276517283852039 0 -0.00029632573049305294 -0.00010893799973268001 0 -0.00031231151508249121 -0.00011276517283852039 0 -0.00029580866613725896 -9.688265566286318e-05 0 -3.9774269842549891e-05 -0.00071713122215335829 0 2.8933281656768237e-05 -0.00089503905846769719 0 2.1114059448648991e-05 -0.0007294074205565496 0 -0.00016895352758769481 -0.00080470744316843055 0 2.4313186883107831e-05 -0.00088502655346030354 0 -0.00016895352758769481 -0.00080470744316843055 0 -2.8713488548826361e-05 -0.00089245611285939709 0 2.4313186883107831e-05 -0.00088502655346030354 0 -1.5206811584256727e-05 -0.00028952712526302243 0 7.5613971645910129e-05 -0.00035136646421461427 0 -2.8713488548826361e-05 -0.00089245611285939709 0 5.7681137553379567e-06 -0.00090457366393841075 0 2.4313186883107831e-05 -0.00088502655346030354 0 0.00016052594348690022 0.0001778714790963563 0 0.00017624250473927044 0.00016978264308793492 0 0.00015251339177741434 0.00014207139166756485 0 0.00017624250473927044 0.00016978264308793492 0 0.00015251339177741434 0.00014207139166756485 0 0.00017452253242180172 0.00011147464141688126 0 0.00016052594348690022 0.0001778714790963563 0 0.00015251339177741434 0.00014207139166756485 0 0.00012069641338680689 0.00013747774096772587 0 0.00015251339177741434 0.00014207139166756485 0 0.00017452253242180172 0.00011147464141688126 0 0.00012492152679815399 0.00011095399797619687 0 0.00015251339177741434 0.00014207139166756485 0 0.00012069641338680689 0.00013747774096772587 0 0.00012492152679815399 0.00011095399797619687 0 0.00016052594348690022 0.0001778714790963563 0 7.3284043951119259e-05 0.00013940885645783167 0 0.00012069641338680689 0.00013747774096772587 0 -1.5206811584256727e-05 -0.00028952712526302243 0 -0.00010860714542371044 5.6080775609979405e-05 0 7.3284043951119259e-05 0.00013940885645783167 0 0.00012069641338680689 0.00013747774096772587 0 9.5127700616599051e-05 0.00011800009545988043 0 0.00012069641338680689 0.00013747774096772587 0 0.00012492152679815399 0.00011095399797619687 0 9.5127700616599051e-05 0.00011800009545988043 0 0.00012492152679815399 0.00011095399797619687 0 9.5127700616599051e-05 0.00011800009545988043 0 9.5469118726001039e-05 9.1938143088734979e-05 0 7.3284043951119259e-05 0.00013940885645783167 0 9.5127700616599051e-05 0.00011800009545988043 0 5.7238663209204368e-05 9.5664271003741567e-05 0 9.5469118726001039e-05 9.1938143088734979e-05 0 7.1225374168734323e-05 5.7543891476431217e-05 0 5.7238663209204368e-05 9.5664271003741567e-05 0 9.5127700616599051e-05 0.00011800009545988043 0 9.5469118726001039e-05 9.1938143088734979e-05 0 5.7238663209204368e-05 9.5664271003741567e-05 0 9.5469118726001039e-05 9.1938143088734979e-05 0 7.1225374168734323e-05 5.7543891476431217e-05 0 0.00013088750187130124 6.2120806737062985e-05 0 0.00012492152679815399 0.00011095399797619687 0 9.5469118726001039e-05 9.1938143088734979e-05 0 0.00013088750187130124 6.2120806737062985e-05 0 0.00017452253242180172 0.00011147464141688126 0 0.00013088750187130124 6.2120806737062985e-05 0 0.00020031074488993978 6.3768473075264255e-05 0 0.00013088750187130124 6.2120806737062985e-05 0 0.00016544644268304216 1.3549440985560833e-05 0 0.00020031074488993978 6.3768473075264255e-05 0 0.00017452253242180172 0.00011147464141688126 0 0.00012492152679815399 0.00011095399797619687 0 0.00013088750187130124 6.2120806737062985e-05 0 0.00016544644268304216 1.3549440985560833e-05 0 0.0002170900449252676 -5.9062686904053736e-05 0 0.00016348774104924538 -3.0089592600795173e-05 0 0.00013088750187130124 6.2120806737062985e-05 0 0.00016544644268304216 1.3549440985560833e-05 0 0.00010474638262298254 -9.1814340306528342e-07 0 0.00016544644268304216 1.3549440985560833e-05 0 0.00010474638262298254 -9.1814340306528342e-07 0 0.00016348774104924538 -3.0089592600795173e-05 0 7.1225374168734323e-05 5.7543891476431217e-05 0 0.00013088750187130124 6.2120806737062985e-05 0 0.00010474638262298254 -9.1814340306528342e-07 0 7.1225374168734323e-05 5.7543891476431217e-05 0 0.00010474638262298254 -9.1814340306528342e-07 0 3.6138864636802713e-05 2.3707290864445473e-05 0 7.1225374168734323e-05 5.7543891476431217e-05 0 3.6138864636802713e-05 2.3707290864445473e-05 0 2.525368141482931e-05 6.5538908532504256e-05 0 3.6138864636802713e-05 2.3707290864445473e-05 0 -1.5392858959884781e-05 4.8669339231993574e-05 0 2.525368141482931e-05 6.5538908532504256e-05 0 3.6138864636802713e-05 2.3707290864445473e-05 0 -1.5392858959884781e-05 4.8669339231993574e-05 0 -1.9987863114860098e-05 1.2982450884480743e-05 0 -1.5392858959884781e-05 4.8669339231993574e-05 0 -1.9987863114860098e-05 1.2982450884480743e-05 0 -4.9747889574982853e-05 3.406373084308191e-05 0 -3.4673919197436052e-06 0.00010420254996817901 0 -1.5392858959884781e-05 4.8669339231993574e-05 0 2.525368141482931e-05 6.5538908532504256e-05 0 -0.00012793478419265822 1.815368965788789e-05 0 -0.00012038835958356488 2.6796514486939046e-05 0 -3.4673919197436052e-06 0.00010420254996817901 0 -1.5392858959884781e-05 4.8669339231993574e-05 0 -6.6039234512693657e-05 6.85501497488378e-05 0 -3.4673919197436052e-06 0.00010420254996817901 0 5.7238663209204368e-05 9.5664271003741567e-05 0 2.525368141482931e-05 6.5538908532504256e-05 0 7.1225374168734323e-05 5.7543891476431217e-05 0 5.7238663209204368e-05 9.5664271003741567e-05 0 2.525368141482931e-05 6.5538908532504256e-05 0 0.00024267817658274847 -0.0009165970260016995 0 0.00018839744062219995 -0.0010149342747352707 0 0.00025760538609965116 -0.0010114536590745122 0 0.00011356117371764414 -0.0017669681866874802 0 0.00010453401080765251 -0.0017696314827342324 0 0.00013102822738473736 -0.0017929694354308183 0 0.00015706715120498464 -0.0012907855929632384 0 0.00017732891856150795 -0.0018039961745022128 0 0.00024267817658274847 -0.0009165970260016995 0 0.00025760538609965116 -0.0010114536590745122 0 0.00031072062757701185 -0.00098481931646499728 0 9.8053178809023135e-05 -0.0017439773862757088 0 0.00011356117371764414 -0.0017669681866874802 0 0.00010453401080765251 -0.0017696314827342324 0 4.6673346546604677e-05 -0.0025113794601335608 0 7.38289764061317e-05 -0.0025531814888070273 0 8.9503104618150311e-05 -0.0025333303821635121 0 7.1739334051422048e-05 -0.0021201717530214101 0 0.00010984417027619424 -0.0022189365303897281 0 0.00012272740842258464 -0.0012828722346397447 0 0.00015706715120498464 -0.0012907855929632384 0 8.2575256763742769e-05 -0.0017482334688474575 0 9.8053178809023135e-05 -0.0017439773862757088 0 0.00010453401080765251 -0.0017696314827342324 0 0.00017319050509590161 -0.00084926130614866179 0 0.00024267817658274847 -0.0009165970260016995 0 0.00014732393883464724 -0.00091600868225355818 0 0.00024267817658274847 -0.0009165970260016995 0 0.00014732393883464724 -0.00091600868225355818 0 0.00018839744062219995 -0.0010149342747352707 0 0.00014732393883464724 -0.00091600868225355818 0 0.00010084402354409144 -0.00095980083026002785 0 0.00018839744062219995 -0.0010149342747352707 0 0.00014732393883464724 -0.00091600868225355818 0 0.00010084402354409144 -0.00095980083026002785 0 6.9449900950895504e-05 -0.00088896427895320982 0 0.00017319050509590161 -0.00084926130614866179 0 0.00014732393883464724 -0.00091600868225355818 0 0.0001086060178975759 -0.00086536373229267861 0 0.00014732393883464724 -0.00091600868225355818 0 0.0001086060178975759 -0.00086536373229267861 0 6.9449900950895504e-05 -0.00088896427895320982 0 6.5029627887798887e-05 -0.00084631180889661482 0 2.7824863602909511e-05 -0.00081567260794879789 0 2.4313186883107831e-05 -0.00088502655346030354 0 6.5029627887798887e-05 -0.00084631180889661482 0 0.0001086060178975759 -0.00086536373229267861 0 6.9449900950895504e-05 -0.00088896427895320982 0 6.5029627887798887e-05 -0.00084631180889661482 0 2.4313186883107831e-05 -0.00088502655346030354 0 6.9449900950895504e-05 -0.00088896427895320982 0 5.7681137553379567e-06 -0.00090457366393841075 0 2.4313186883107831e-05 -0.00088502655346030354 0 6.9449900950895504e-05 -0.00088896427895320982 0 5.7681137553379567e-06 -0.00090457366393841075 0 0.00010084402354409144 -0.00095980083026002785 0 6.9449900950895504e-05 -0.00088896427895320982 0 7.5613971645910129e-05 -0.00035136646421461427 0 0.00019299318144771663 -0.00042306205021734892 0 0.00017624250473927044 0.00016978264308793492 0 0.00017452253242180172 0.00011147464141688126 0 0.00027222483098708416 0.00012285820784466281 0 0.00027222483098708416 0.00012285820784466281 0 0.00020031074488993978 6.3768473075264255e-05 0 0.00025800900133906857 2.5253095887870506e-05 0 0.00017452253242180172 0.00011147464141688126 0 0.00027222483098708416 0.00012285820784466281 0 0.00020031074488993978 6.3768473075264255e-05 0 0.00016544644268304216 1.3549440985560833e-05 0 0.00020031074488993978 6.3768473075264255e-05 0 0.00025800900133906857 2.5253095887870506e-05 0 0.00016544644268304216 1.3549440985560833e-05 0 0.00025800900133906857 2.5253095887870506e-05 0 0.0002170900449252676 -5.9062686904053736e-05 0 0.00025800900133906857 2.5253095887870506e-05 0 0.00033960510777585219 -5.0148256651990176e-05 0 0.0002170900449252676 -5.9062686904053736e-05 0 0.00025800900133906857 2.5253095887870506e-05 0 0.00033960510777585219 -5.0148256651990176e-05 0 0.00039464392641378111 6.2197851855832673e-05 0 0.00019299318144771663 -0.00042306205021734892 0 0.00028110890372119095 -0.00047124971226699037 0 0.00027222483098708416 0.00012285820784466281 0 0.00025800900133906857 2.5253095887870506e-05 0 0.00039464392641378111 6.2197851855832673e-05 0 0.00039464392641378111 6.2197851855832673e-05 0 0.00042917538305443643 -3.3303126703227231e-05 0 0.00052285047170612668 -2.3865453444905352e-05 0 0.00033960510777585219 -5.0148256651990176e-05 0 0.00039464392641378111 6.2197851855832673e-05 0 0.00042917538305443643 -3.3303126703227231e-05 0 0.00033960510777585219 -5.0148256651990176e-05 0 0.00042917538305443643 -3.3303126703227231e-05 0 0.00041468188660661698 -0.00010431825636467988 0 0.00042917538305443643 -3.3303126703227231e-05 0 0.00048141695351357514 -5.9591049297215201e-05 0 0.00041468188660661698 -0.00010431825636467988 0 0.00039464392641378111 6.2197851855832673e-05 0 0.00053539035735475848 -1.8320818706274691e-05 0 0.00052285047170612668 -2.3865453444905352e-05 0 0.00048141695351357514 -5.9591049297215201e-05 0 0.00054648140213923774 -2.5928866381549683e-05 0 0.00049004653640858048 -0.00011171898948946236 0 0.00042917538305443643 -3.3303126703227231e-05 0 0.00048141695351357514 -5.9591049297215201e-05 0 0.00052285047170612668 -2.3865453444905352e-05 0 0.00048141695351357514 -5.9591049297215201e-05 0 0.00054648140213923774 -2.5928866381549683e-05 0 0.00052285047170612668 -2.3865453444905352e-05 0 0.00049638107606791526 -0.00053129583261326662 0 0.00052076691255948195 -0.00010051086559699572 0 0.00049105783860297573 -0.00068445929236221419 0 0.00050654825705971802 -0.00069381590633583524 0 0.00047314168864831101 -0.00071001768780042096 0 0.00045508428823553095 -0.00056432042247479375 0 0.00038375431880560565 -0.00088461770750720926 0 0.00027570155415690986 -0.0010685665169718238 0 0.00029249187692901549 -0.0010283645768110301 0 0.00029164920374782048 -0.0010615276038909568 0 0.00054648140213923774 -2.5928866381549683e-05 0 0.00053469209558758095 -1.8811902796929011e-05 0 0.00052285047170612668 -2.3865453444905352e-05 0 0.00049638107606791526 -0.00053129583261326662 0 0.00045508428823553095 -0.00056432042247479375 0 0.00049638107606791526 -0.00053129583261326662 0 0.00038375431880560565 -0.00088461770750720926 0 0.00045508428823553095 -0.00056432042247479375 0 0.00048879244275296227 -0.00052683004541195929 0 0.00027570155415690986 -0.0010685665169718238 0 0.00025760538609965116 -0.0010114536590745122 0 0.00029249187692901549 -0.0010283645768110301 0 0.00018839744062219995 -0.0010149342747352707 0 0.00027570155415690986 -0.0010685665169718238 0 0.00025760538609965116 -0.0010114536590745122 0 0.00028110890372119095 -0.00047124971226699037 0 0.00045508428823553095 -0.00056432042247479375 0 0.00025760538609965116 -0.0010114536590745122 0 0.00031072062757701185 -0.00098481931646499728 0 0.00029249187692901549 -0.0010283645768110301 0 0.00050755221182553203 -0.0002729883201207622 0 0.00050811262550255081 -0.00022081374989940615 0 0.00042665639325499186 -0.00021875249562861626 0 0.00050755221182553203 -0.0002729883201207622 0 0.00042665639325499186 -0.00021875249562861626 0 0.00042462092584660209 -0.00029993965333718897 0 0.00050811262550255081 -0.00022081374989940615 0 0.00047639984059683087 -0.00018644543379889549 0 0.00042665639325499186 -0.00021875249562861626 0 0.00050811262550255081 -0.00022081374989940615 0 0.00052067961932175308 -0.00018747034582502245 0 0.00047639984059683087 -0.00018644543379889549 0 0.00051631150502546674 -0.00013860177682783971 0 0.00052067961932175308 -0.00018747034582502245 0 0.00047639984059683087 -0.00018644543379889549 0 0.00048141695351357514 -5.9591049297215201e-05 0 0.00049004653640858048 -0.00011171898948946236 0 0.00041468188660661698 -0.00010431825636467988 0 0.00049004653640858048 -0.00011171898948946236 0 0.00041468188660661698 -0.00010431825636467988 0 0.00042665639325499186 -0.00021875249562861626 0 0.00052076691255948195 -0.00010051086559699572 0 0.00042133551655561377 -0.00022983827803280669 0 0.00033960510777585219 -5.0148256651990176e-05 0 0.00041468188660661698 -0.00010431825636467988 0 0.00032580523459336218 -0.00017152119608554095 0 0.00041468188660661698 -0.00010431825636467988 0 0.00042665639325499186 -0.00021875249562861626 0 0.00032580523459336218 -0.00017152119608554095 0 0.00042665639325499186 -0.00021875249562861626 0 0.00032580523459336218 -0.00017152119608554095 0 0.00033640736341435676 -0.00029856168559123399 0 0.00042665639325499186 -0.00021875249562861626 0 0.00042462092584660209 -0.00029993965333718897 0 0.00033640736341435676 -0.00029856168559123399 0 0.00032580523459336218 -0.00017152119608554095 0 0.00022168910035748468 -0.00023980881264501356 0 0.00033640736341435676 -0.00029856168559123399 0 0.00033960510777585219 -5.0148256651990176e-05 0 0.00032580523459336218 -0.00017152119608554095 0 0.0002170900449252676 -5.9062686904053736e-05 0 0.00032580523459336218 -0.00017152119608554095 0 0.0002170900449252676 -5.9062686904053736e-05 0 0.00022168910035748468 -0.00023980881264501356 0 0.00022052752964799995 -9.5709824728932392e-05 0 0.00023391340197923054 -0.00010688856151023204 0 0.0002170900449252676 -5.9062686904053736e-05 0 0.00024198844990499973 -0.00010394641611078111 0 0.00016271177691175667 -6.9311116711082165e-05 0 0.00011558600206160485 -0.00060415002877210625 0 0.00024593380793865938 -0.00011850493462818904 0 0.00024198844990499973 -0.00010394641611078111 0 0.00025475326765191526 -0.00015927776802417978 0 0.00021815048557241159 -0.00014140902059639549 0 0.00023391340197923054 -0.00010688856151023204 0 0.00011558600206160485 -0.00060415002877210625 0 0.00037022641743279084 -0.00018745780798619366 0 0.00033323042820299949 -0.00022997621630608425 0 0.00021815048557241159 -0.00014140902059639549 0 0.00028611854595908634 -0.00026217639184697563 0 0.00038386734288833332 -0.00025773633828440575 0 0.00030040492519615894 -0.00043961778780205244 0 0.00028611854595908634 -0.00026217639184697563 0 0.00033323042820299949 -0.00022997621630608425 0 0.00021815048557241159 -0.00014140902059639549 0 0.00028611854595908634 -0.00026217639184697563 0 0.00033323042820299949 -0.00022997621630608425 0 0.00038386734288833332 -0.00025773633828440575 0 0.00037022641743279084 -0.00018745780798619366 0 0.00033323042820299949 -0.00022997621630608425 0 0.00038386734288833332 -0.00025773633828440575 0 -0.0001364943457802381 -0.0017792902908916417 0 -0.0001105107188618069 -0.0018359705848744292 0 -0.00012511047837078951 -0.0018581957993737154 0 0.00011558600206160485 -0.00060415002877210625 0 0.0001644929953949744 -0.001141812484197283 0 0.00011558600206160485 -0.00060415002877210625 0 0.00016383075174488293 -0.001055572243419063 0 -0.0001364943457802381 -0.0017792902908916417 0 -0.0001105107188618069 -0.0018359705848744292 0 -1.0771977895959114e-05 -0.001848729795883234 0 -0.0001105107188618069 -0.0018359705848744292 0 -0.00012471838416924696 -0.0018621119183810507 0 -7.5608852873231509e-05 -0.0018648976305809461 0 2.5540304241608387e-05 -0.0013080536793598327 0 0.00016383075174488293 -0.001055572243419063 0 -0.00012471838416924696 -0.0018621119183810507 0 -5.7768492417449623e-05 -0.0019132190647169474 0 -7.5608852873231509e-05 -0.0018648976305809461 0 -5.7768492417449623e-05 -0.0019132190647169474 0 -7.5608852873231509e-05 -0.0018648976305809461 0 -1.0771977895959114e-05 -0.001848729795883234 0 -5.7768492417449623e-05 -0.0019132190647169474 0 -1.0771977895959114e-05 -0.001848729795883234 0 -1.1462643542835224e-05 -0.0019129954516211337 0 -0.0001105107188618069 -0.0018359705848744292 0 -7.5608852873231509e-05 -0.0018648976305809461 0 -1.0771977895959114e-05 -0.001848729795883234 0 0.00022168910035748468 -0.00023980881264501356 0 0.00024553275086704787 -0.00039129278292556423 0 0.00033640736341435676 -0.00029856168559123399 0 0.00024553275086704787 -0.00039129278292556423 0 0.00032971453379467599 -0.00037258071039179011 0 0.00035580158196112528 -0.00043476181895755447 0 0.00024553275086704787 -0.00039129278292556423 0 0.00032971453379467599 -0.00037258071039179011 0 0.00033640736341435676 -0.00029856168559123399 0 0.00032971453379467599 -0.00037258071039179011 0 0.00033640736341435676 -0.00029856168559123399 0 0.00037971298579548136 -0.00036498487847779452 0 0.00042462092584660209 -0.00029993965333718897 0 0.00033640736341435676 -0.00029856168559123399 0 0.00037971298579548136 -0.00036498487847779452 0 0.00042462092584660209 -0.00029993965333718897 0 0.00042895325700996413 -0.00039006917425465768 0 0.00037971298579548136 -0.00036498487847779452 0 0.00032971453379467599 -0.00037258071039179011 0 0.00037971298579548136 -0.00036498487847779452 0 0.00035580158196112528 -0.00043476181895755447 0 0.00042895325700996413 -0.00039006917425465768 0 0.00037971298579548136 -0.00036498487847779452 0 0.00035580158196112528 -0.00043476181895755447 0 -1.0771977895959114e-05 -0.001848729795883234 0 2.6689399279337384e-05 -0.0019138105930202245 0 9.8324569086215153e-05 -0.0019171709562370034 0 0.0001644929953949744 -0.001141812484197283 0 0.00031285301430131397 -0.0015189199486316377 0 0.00042895325700996413 -0.00039006917425465768 0 0.00035580158196112528 -0.00043476181895755447 0 0.00045520010217475927 -0.00047733601300790798 0 -1.0771977895959114e-05 -0.001848729795883234 0 -1.1462643542835224e-05 -0.0019129954516211337 0 2.6689399279337384e-05 -0.0019138105930202245 0 2.6689399279337384e-05 -0.0019138105930202245 0 6.7863400968797997e-05 -0.0019311804206798332 0 9.8324569086215153e-05 -0.0019171709562370034 0 0.00031285301430131397 -0.0015189199486316377 0 0.00036718195189249344 -0.0011021156084660927 0 0.00013419905508950527 -0.001962214615851215 0 0.000186083651101602 -0.0018891668997050766 0 0.000196311955838247 -0.0019491683321923828 0 0.00013419905508950527 -0.001962214615851215 0 0.000196311955838247 -0.0019491683321923828 0 0.00022367001115512894 -0.0020039632993118827 0 0.00042895325700996413 -0.00039006917425465768 0 0.00045520010217475927 -0.00047733601300790798 0 0.00052388851969620363 -0.00037619596317903367 0 0.00042462092584660209 -0.00029993965333718897 0 0.00042895325700996413 -0.00039006917425465768 0 0.00052388851969620363 -0.00037619596317903367 0 0.00050755221182553203 -0.0002729883201207622 0 0.00042462092584660209 -0.00029993965333718897 0 0.00052388851969620363 -0.00037619596317903367 0 2.3863697896928143e-05 -8.9882714762993507e-05 0 5.2393908542600133e-05 -2.8919542310422161e-05 0 0.00010237865231114447 -9.0214373835261643e-05 0 2.3863697896928143e-05 -8.9882714762993507e-05 0 -3.9794508653577041e-05 -2.1729181109940916e-05 0 5.2393908542600133e-05 -2.8919542310422161e-05 0 2.3863697896928143e-05 -8.9882714762993507e-05 0 -3.9794508653577041e-05 -2.1729181109940916e-05 0 -3.7467830034486129e-05 -9.3962314284813783e-05 0 -3.9794508653577041e-05 -2.1729181109940916e-05 0 -1.9987863114860098e-05 1.2982450884480743e-05 0 5.2393908542600133e-05 -2.8919542310422161e-05 0 3.6138864636802713e-05 2.3707290864445473e-05 0 -1.9987863114860098e-05 1.2982450884480743e-05 0 5.2393908542600133e-05 -2.8919542310422161e-05 0 0.00010474638262298254 -9.1814340306528342e-07 0 3.6138864636802713e-05 2.3707290864445473e-05 0 5.2393908542600133e-05 -2.8919542310422161e-05 0 0.00010474638262298254 -9.1814340306528342e-07 0 5.2393908542600133e-05 -2.8919542310422161e-05 0 0.00016271177691175667 -6.9311116711082165e-05 0 0.00010474638262298254 -9.1814340306528342e-07 0 0.00016348774104924538 -3.0089592600795173e-05 0 0.00016271177691175667 -6.9311116711082165e-05 0 0.0002170900449252676 -5.9062686904053736e-05 0 0.00016348774104924538 -3.0089592600795173e-05 0 0.00016271177691175667 -6.9311116711082165e-05 0 0.00016271177691175667 -6.9311116711082165e-05 0 0.00015276231489570004 -0.00011385580024163049 0 0.00021815048557241159 -0.00014140902059639549 0 0.00024198844990499973 -0.00010394641611078111 0 0.00016271177691175667 -6.9311116711082165e-05 0 0.00021815048557241159 -0.00014140902059639549 0 5.2393908542600133e-05 -2.8919542310422161e-05 0 0.00016271177691175667 -6.9311116711082165e-05 0 0.00010237865231114447 -9.0214373835261643e-05 0 0.00016271177691175667 -6.9311116711082165e-05 0 0.00015276231489570004 -0.00011385580024163049 0 0.00010237865231114447 -9.0214373835261643e-05 0 0.00015276231489570004 -0.00011385580024163049 0 0.00010237865231114447 -9.0214373835261643e-05 0 0.00011248239774755711 -0.00016733633311192454 0 0.00015276231489570004 -0.00011385580024163049 0 0.00011248239774755711 -0.00016733633311192454 0 0.00021815048557241159 -0.00014140902059639549 0 0.00011248239774755711 -0.00016733633311192454 0 0.00021815048557241159 -0.00014140902059639549 0 0.00019636473502952358 -0.00027110315697041043 0 0.00028611854595908634 -0.00026217639184697563 0 0.00021815048557241159 -0.00014140902059639549 0 0.00019636473502952358 -0.00027110315697041043 0 0.00011248239774755711 -0.00016733633311192454 0 0.00019636473502952358 -0.00027110315697041043 0 0.00013707336076766971 -0.00030527698443675368 0 0.00011248239774755711 -0.00016733633311192454 0 5.8055884043244932e-05 -0.00026668494297143943 0 0.00013707336076766971 -0.00030527698443675368 0 0.00011248239774755711 -0.00016733633311192454 0 9.2814192612662598e-06 -0.00018107294092927544 0 5.8055884043244932e-05 -0.00026668494297143943 0 9.2814192612662598e-06 -0.00018107294092927544 0 5.8055884043244932e-05 -0.00026668494297143943 0 -8.7035308495938219e-06 -0.00028667409459215475 0 2.3863697896928143e-05 -8.9882714762993507e-05 0 0.00010237865231114447 -9.0214373835261643e-05 0 0.00011248239774755711 -0.00016733633311192454 0 2.3863697896928143e-05 -8.9882714762993507e-05 0 0.00011248239774755711 -0.00016733633311192454 0 9.2814192612662598e-06 -0.00018107294092927544 0 2.3863697896928143e-05 -8.9882714762993507e-05 0 9.2814192612662598e-06 -0.00018107294092927544 0 -3.7467830034486129e-05 -9.3962314284813783e-05 0 9.2814192612662598e-06 -0.00018107294092927544 0 -9.6650381445836605e-05 -0.00022246150406796773 0 -8.7035308495938219e-06 -0.00028667409459215475 0 9.2814192612662598e-06 -0.00018107294092927544 0 -3.7467830034486129e-05 -9.3962314284813783e-05 0 -9.6650381445836605e-05 -0.00022246150406796773 0 -6.231520973738851e-05 1.1577324578727769e-05 0 -7.6173308639792506e-05 1.2157053691711354e-05 0 -9.3503052715859702e-05 -1.493773361098384e-05 0 -9.171839030278604e-05 2.7738667152218433e-05 0 -9.2747961301426358e-05 6.3609369456731722e-05 0 -8.8766851795157693e-05 7.6018549183773683e-05 0 -9.1204633150031986e-05 2.9219648278177318e-05 0 -8.7014648450254014e-05 3.2994533313040048e-05 0 -7.6173308639792506e-05 1.2157053691711354e-05 0 -9.171839030278604e-05 2.7738667152218433e-05 0 -8.6268591614472901e-05 -7.3829373649454553e-06 0 -7.6173308639792506e-05 1.2157053691711354e-05 0 -9.171839030278604e-05 2.7738667152218433e-05 0 -9.3503052715859702e-05 -1.493773361098384e-05 0 -7.6298173460182179e-05 -0.00010822666285974159 0 -9.3343113135355987e-05 -2.5376004909840278e-05 0 -3.7467830034486129e-05 -9.3962314284813783e-05 0 -9.6650381445836605e-05 -0.00022246150406796773 0 -9.3503052715859702e-05 -1.493773361098384e-05 0 -3.9794508653577041e-05 -2.1729181109940916e-05 0 -9.3503052715859702e-05 -1.493773361098384e-05 0 -8.6667706387479071e-05 6.1614943918860387e-06 0 -3.9794508653577041e-05 -2.1729181109940916e-05 0 -3.7467830034486129e-05 -9.3962314284813783e-05 0 -9.3503052715859702e-05 -1.493773361098384e-05 0 -9.3503052715859702e-05 -1.493773361098384e-05 0 -9.2075986740769702e-05 2.786556182366323e-05 0 -8.6667706387479071e-05 6.1614943918860387e-06 0 -9.171839030278604e-05 2.7738667152218433e-05 0 -9.3503052715859702e-05 -1.493773361098384e-05 0 -9.2075986740769702e-05 2.786556182366323e-05 0 -9.2075986740769702e-05 2.786556182366323e-05 0 -8.6667706387479071e-05 6.1614943918860387e-06 0 -8.8629601603264609e-05 2.1832871169330461e-05 0 -8.6667706387479071e-05 6.1614943918860387e-06 0 -8.8629601603264609e-05 2.1832871169330461e-05 0 -7.2371060571223779e-05 1.7618794576645057e-05 0 -3.9794508653577041e-05 -2.1729181109940916e-05 0 -8.6667706387479071e-05 6.1614943918860387e-06 0 -7.2371060571223779e-05 1.7618794576645057e-05 0 -3.9794508653577041e-05 -2.1729181109940916e-05 0 -1.9987863114860098e-05 1.2982450884480743e-05 0 -7.2371060571223779e-05 1.7618794576645057e-05 0 -3.5121424382176351e-05 0.00015154261556996279 0 -9.3674978827838076e-05 0.00015345660009455782 0 -6.5422442738297627e-05 0.00017140458693261289 0 -5.6011502806551985e-05 0.00010231529409926424 0 -7.5024022788881329e-05 6.8239230687388959e-05 0 -3.5121424382176351e-05 0.00015154261556996279 0 -7.4320755985853338e-05 7.31972655976807e-05 0 -9.3674978827838076e-05 0.00015345660009455782 0 -9.2075986740769702e-05 2.786556182366323e-05 0 -8.8629601603264609e-05 2.1832871169330461e-05 0 -8.7513188811685945e-05 2.5562586986248873e-05 0 -9.2075986740769702e-05 2.786556182366323e-05 0 -8.7513188811685945e-05 2.5562586986248873e-05 0 -7.4320755985853338e-05 7.31972655976807e-05 0 -9.2075986740769702e-05 2.786556182366323e-05 0 -7.4320755985853338e-05 7.31972655976807e-05 0 -8.7064977202457996e-05 5.2563689604100892e-05 0 -7.4320755985853338e-05 7.31972655976807e-05 0 -9.0734581245035896e-05 6.9407384489217369e-05 0 -8.7064977202457996e-05 5.2563689604100892e-05 0 -7.4320755985853338e-05 7.31972655976807e-05 0 -9.0734581245035896e-05 6.9407384489217369e-05 0 -9.2971580722232117e-05 8.3080491885542928e-05 0 -9.171839030278604e-05 2.7738667152218433e-05 0 -9.2075986740769702e-05 2.786556182366323e-05 0 -8.7064977202457996e-05 5.2563689604100892e-05 0 -9.0734581245035896e-05 6.9407384489217369e-05 0 -8.7064977202457996e-05 5.2563689604100892e-05 0 -9.2747961301426358e-05 6.3609369456731722e-05 0 -9.171839030278604e-05 2.7738667152218433e-05 0 -8.7064977202457996e-05 5.2563689604100892e-05 0 -9.2747961301426358e-05 6.3609369456731722e-05 0 -9.2747961301426358e-05 6.3609369456731722e-05 0 -0.00010649454952086845 9.0710542071992684e-05 0 -8.8766851795157693e-05 7.6018549183773683e-05 0 -9.0734581245035896e-05 6.9407384489217369e-05 0 -0.00010649454952086845 9.0710542071992684e-05 0 -0.0001019670528738534 7.2226891335002845e-05 0 -9.0734581245035896e-05 6.9407384489217369e-05 0 -9.2747961301426358e-05 6.3609369456731722e-05 0 -0.00010649454952086845 9.0710542071992684e-05 0 -0.00010649454952086845 9.0710542071992684e-05 0 -0.00020310866254965364 0.00016302788154582177 0 -0.0001982062842135243 0.00021180849789586835 0 -0.00011006947334444206 9.6583673597859071e-05 0 -0.00015086982467926588 0.00014163932262382971 0 -0.00010649454952086845 9.0710542071992684e-05 0 -0.00020310866254965364 0.00016302788154582177 0 -0.00016492570006369799 9.2701752541126561e-05 0 -0.0002013861324214164 0.00017046568242089837 0 -0.00025182029386692871 0.00018113261253033806 0 -0.00020310866254965364 0.00016302788154582177 0 -0.00020640431590197177 0.00021925527674162917 0 -0.00020452622126885603 0.00023451761060956625 0 -0.00020310866254965364 0.00016302788154582177 0 -0.00020640431590197177 0.00021925527674162917 0 -0.0001982062842135243 0.00021180849789586835 0 -0.00020640431590197177 0.00021925527674162917 0 -0.0001982062842135243 0.00021180849789586835 0 -0.00020142231394715003 0.00023488849600457933 0 -0.00015086982467926588 0.00014163932262382971 0 -0.00017489826757047301 0.00018453723931716998 0 -0.0001019670528738534 7.2226891335002845e-05 0 -0.00015432777695236716 0.00013165842184604599 0 -0.0001090241111117234 0.0001171311281353254 0 -9.2971580722232117e-05 8.3080491885542928e-05 0 -0.0001019670528738534 7.2226891335002845e-05 0 -0.0001090241111117234 0.0001171311281353254 0 -9.0734581245035896e-05 6.9407384489217369e-05 0 -9.2971580722232117e-05 8.3080491885542928e-05 0 -0.0001019670528738534 7.2226891335002845e-05 0 -0.00019317690144577017 0.00024747790786240349 0 -0.00020452622126885603 0.00023451761060956625 0 -0.0001822645907391684 0.00026858187404700561 0 -0.00025182029386692871 0.00018113261253033806 0 -0.00026409647964520085 0.00020600436853396149 0 -0.00018008016851145731 0.00026102520809860049 0 -0.00019317690144577017 0.00024747790786240349 0 -0.00018190017296218641 0.0002524682980805315 0 -0.00018008016851145731 0.00026102520809860049 0 -0.00017986578276911412 0.00026713739642185376 0 -0.0001822645907391684 0.00026858187404700561 0 -0.00018008016851145731 0.00026102520809860049 0 -0.00019317690144577017 0.00024747790786240349 0 -0.0001822645907391684 0.00026858187404700561 0 -0.00019317690144577017 0.00024747790786240349 0 -0.00019705899069526425 0.00023759325333531272 0 -0.00018190017296218641 0.0002524682980805315 0 -0.00020640431590197177 0.00021925527674162917 0 -0.00020452622126885603 0.00023451761060956625 0 -0.00019705899069526425 0.00023759325333531272 0 -0.00019317690144577017 0.00024747790786240349 0 -0.00020452622126885603 0.00023451761060956625 0 -0.00019705899069526425 0.00023759325333531272 0 -0.00020640431590197177 0.00021925527674162917 0 -0.00019705899069526425 0.00023759325333531272 0 -0.00020142231394715003 0.00023488849600457933 0 -0.00019705899069526425 0.00023759325333531272 0 -0.0001792952471365221 0.00024719066140219126 0 -0.00020142231394715003 0.00023488849600457933 0 -0.00019705899069526425 0.00023759325333531272 0 -0.0001792952471365221 0.00024719066140219126 0 -0.00018190017296218641 0.0002524682980805315 0 -0.00015432777695236716 0.00013165842184604599 0 -0.00015426395085630645 0.00018097945261945708 0 -0.00017008479883954866 0.00022782156345850583 0 -0.0001792952471365221 0.00024719066140219126 0 -0.00020142231394715003 0.00023488849600457933 0 -0.00017008479883954866 0.00022782156345850583 0 -0.00017489826757047301 0.00018453723931716998 0 -0.00017089711850339223 0.00022017761513213666 0 -0.00015432777695236716 0.00013165842184604599 0 -0.00015426395085630645 0.00018097945261945708 0 -0.0001305916580763178 0.00015734477498789614 0 -0.00015426395085630645 0.00018097945261945708 0 -0.00014249892817843083 0.00018284907753248028 0 -0.00015965490224870707 0.0002070934541015249 0 -0.00014249892817843083 0.00018284907753248028 0 -0.00015965490224870707 0.0002070934541015249 0 -0.00015284691509326437 0.00020503506689477241 0 -0.00015426395085630645 0.00018097945261945708 0 -0.00014249892817843083 0.00018284907753248028 0 -0.0001305916580763178 0.00015734477498789614 0 -0.00015426395085630645 0.00018097945261945708 0 -0.00015965490224870707 0.0002070934541015249 0 -0.00017008479883954866 0.00022782156345850583 0 -0.00015965490224870707 0.0002070934541015249 0 -0.00016438430513638719 0.00022409686835222277 0 -0.00017008479883954866 0.00022782156345850583 0 -7.4320755985853338e-05 7.31972655976807e-05 0 -0.0001090241111117234 0.0001171311281353254 0 -9.3674978827838076e-05 0.00015345660009455782 0 -7.4320755985853338e-05 7.31972655976807e-05 0 -9.2971580722232117e-05 8.3080491885542928e-05 0 -0.0001090241111117234 0.0001171311281353254 0 -0.00015432777695236716 0.00013165842184604599 0 -0.0001090241111117234 0.0001171311281353254 0 -0.0001305916580763178 0.00015734477498789614 0 -0.00014249892817843083 0.00018284907753248028 0 -0.0001305916580763178 0.00015734477498789614 0 -0.00012573400554861399 0.00018175682497271106 0 -0.0001090241111117234 0.0001171311281353254 0 -0.0001305916580763178 0.00015734477498789614 0 -9.3674978827838076e-05 0.00015345660009455782 0 -0.0001305916580763178 0.00015734477498789614 0 -9.3674978827838076e-05 0.00015345660009455782 0 -0.00012573400554861399 0.00018175682497271106 0 -9.3674978827838076e-05 0.00015345660009455782 0 -0.00011360208234146955 0.00019997946290920509 0 -0.00012573400554861399 0.00018175682497271106 0 -9.3674978827838076e-05 0.00015345660009455782 0 -0.00011360208234146955 0.00019997946290920509 0 -6.5422442738297627e-05 0.00017140458693261289 0 -7.3399534270799456e-05 8.1014118060417922e-05 0 -5.7208112747194236e-05 8.4124879195880822e-05 0 -7.3399534270799456e-05 8.1014118060417922e-05 0 -9.3071299583411007e-05 0.00011099560317014448 0 -0.00011360208234146955 0.00019997946290920509 0 -0.00012573400554861399 0.00018175682497271106 0 -0.00014022204308675236 0.00020301172397493259 0 -0.00012573400554861399 0.00018175682497271106 0 -0.00014258876237207939 0.00019465718030474389 0 -0.00014022204308675236 0.00020301172397493259 0 -0.00014249892817843083 0.00018284907753248028 0 -0.00012573400554861399 0.00018175682497271106 0 -0.00014258876237207939 0.00019465718030474389 0 -0.00014258876237207939 0.00019465718030474389 0 -0.00014022204308675236 0.00020301172397493259 0 -0.00014638966775492356 0.00020374692750905717 0 -9.3071299583411007e-05 0.00011099560317014448 0 -0.00012275064739470588 0.00013824202387311107 0 -3.1273644652845608e-05 -4.0092554665072493e-05 0 -2.8426296109974236e-05 -4.7344876596814382e-05 0 -3.2162823906247339e-05 -4.9637120464097776e-05 0 -3.1273644652845608e-05 -4.0092554665072493e-05 0 -2.8426296109974236e-05 -4.7344876596814382e-05 0 -2.6136910481954108e-05 -4.3390849966268968e-05 0 -3.1273644652845608e-05 -4.0092554665072493e-05 0 -2.7452774694951087e-05 -3.9685748401481382e-05 0 -2.6136910481954108e-05 -4.3390849966268968e-05 0 -2.8426296109974236e-05 -4.7344876596814382e-05 0 -2.6136910481954108e-05 -4.3390849966268968e-05 0 -2.6176914775811461e-05 -4.7534749790128947e-05 0 -2.8426296109974236e-05 -4.7344876596814382e-05 0 -3.2162823906247339e-05 -4.9637120464097776e-05 0 -2.8912054226342086e-05 -4.9503561838228451e-05 0 -3.1273644652845608e-05 -4.0092554665072493e-05 0 -3.9266367689972104e-05 -5.6054471879575917e-05 0 -5.7777347985272101e-05 -3.5660933227894851e-05 0 -3.1273644652845608e-05 -4.0092554665072493e-05 0 -3.2162823906247339e-05 -4.9637120464097776e-05 0 -3.9266367689972104e-05 -5.6054471879575917e-05 0 -0.00018138174747244417 0.00024621584472487109 0 -0.00012275064739470588 0.00013824202387311107 0 -0.00016426837977829089 0.00022980825525942961 0 -0.00016886541931351246 0.00022452301679598284 0 -0.00017888043153590848 0.00021744795610901681 0 -0.00015965490224870707 0.0002070934541015249 0 -0.00016426837977829089 0.00022980825525942961 0 -0.00015284691509326437 0.00020503506689477241 0 -0.00015965490224870707 0.0002070934541015249 0 -0.00016438430513638719 0.00022409686835222277 0 -0.00016426837977829089 0.00022980825525942961 0 -9.2093349778510112e-05 8.673145208865386e-05 0 -0.00012275064739470588 0.00013824202387311107 0 -0.00016426837977829089 0.00022980825525942961 0 -0.00015284691509326437 0.00020503506689477241 0 -0.00014638966775492356 0.00020374692750905717 0 -2.0254925980539465e-05 -3.7059505527930869e-05 0 -2.6422083088215967e-05 -3.9252503055148498e-05 0 -2.389337953901423e-05 -4.0652019107455991e-05 0 -0.00014258876237207939 0.00019465718030474389 0 -0.00015284691509326437 0.00020503506689477241 0 -0.00014638966775492356 0.00020374692750905717 0 -0.00014249892817843083 0.00018284907753248028 0 -0.00014258876237207939 0.00019465718030474389 0 -0.00015284691509326437 0.00020503506689477241 0 -2.7452774694951087e-05 -3.9685748401481382e-05 0 -2.6422083088215967e-05 -3.9252503055148498e-05 0 -2.6136910481954108e-05 -4.3390849966268968e-05 0 -2.6422083088215967e-05 -3.9252503055148498e-05 0 -2.6136910481954108e-05 -4.3390849966268968e-05 0 -2.389337953901423e-05 -4.0652019107455991e-05 0 -2.6136910481954108e-05 -4.3390849966268968e-05 0 -2.331829892663987e-05 -4.404363091346083e-05 0 -2.389337953901423e-05 -4.0652019107455991e-05 0 -2.6136910481954108e-05 -4.3390849966268968e-05 0 -2.331829892663987e-05 -4.404363091346083e-05 0 -2.6176914775811461e-05 -4.7534749790128947e-05 0 -2.331829892663987e-05 -4.404363091346083e-05 0 -2.389337953901423e-05 -4.0652019107455991e-05 0 -2.1497822762100933e-05 -4.0860187912604515e-05 0 -1.2879872711195654e-05 -3.4788234650974303e-05 0 -2.0254925980539465e-05 -3.7059505527930869e-05 0 -1.7878453412245101e-05 -4.2961796372482124e-05 0 -2.331829892663987e-05 -4.404363091346083e-05 0 -2.1497822762100933e-05 -4.0860187912604515e-05 0 -1.7878453412245101e-05 -4.2961796372482124e-05 0 -2.0254925980539465e-05 -3.7059505527930869e-05 0 -2.1497822762100933e-05 -4.0860187912604515e-05 0 -1.7878453412245101e-05 -4.2961796372482124e-05 0 -2.0254925980539465e-05 -3.7059505527930869e-05 0 -2.389337953901423e-05 -4.0652019107455991e-05 0 -2.1497822762100933e-05 -4.0860187912604515e-05 0 -6.1296838787966497e-05 0.00034665368592473334 0 -5.3562486765905462e-05 0.00037426622881069933 0 -0.00011699121349225075 0.00036804654455273024 0 -5.3562486765905462e-05 0.00037426622881069933 0 -6.91999672132577e-05 0.00038848536978081994 0 -0.00011699121349225075 0.00036804654455273024 0 -2.331829892663987e-05 -4.404363091346083e-05 0 -1.7878453412245101e-05 -4.2961796372482124e-05 0 -2.3318638560847055e-05 -4.9761536720747334e-05 0 -4.0576240299948396e-05 0.0001706080840327209 0 -7.2271473399981135e-05 0.00016758632521870497 0 -2.331829892663987e-05 -4.404363091346083e-05 0 -2.3318638560847055e-05 -4.9761536720747334e-05 0 -2.6176914775811461e-05 -4.7534749790128947e-05 0 -2.3318638560847055e-05 -4.9761536720747334e-05 0 -2.6176914775811461e-05 -4.7534749790128947e-05 0 -2.7267760974781556e-05 -5.1040875900690905e-05 0 -0.00011115626417226493 0.00032447093990726794 0 -0.00011699121349225075 0.00036804654455273024 0 -0.00017100335076590013 0.0003255383383020745 0 -2.3318638560847055e-05 -4.9761536720747334e-05 0 -2.7267760974781556e-05 -5.1040875900690905e-05 0 -2.7453518845678098e-05 -5.3449860809772715e-05 0 -7.2271473399981135e-05 0.00016758632521870497 0 -4.1121974276383882e-05 3.7482022363470198e-05 0 -6.1296838787966497e-05 0.00034665368592473334 0 -0.00011115626417226493 0.00032447093990726794 0 -0.00011699121349225075 0.00036804654455273024 0 -4.4253508824968804e-05 -4.8778630862797677e-05 0 -1.0162463485418399e-05 -0.00010018469994415666 0 -3.2162823906247339e-05 -4.9637120464097776e-05 0 -3.9266367689972104e-05 -5.6054471879575917e-05 0 -3.0522438774227716e-05 -5.1904017441605773e-05 0 -3.9266367689972104e-05 -5.6054471879575917e-05 0 -1.2227054920302349e-05 -0.00010495233487013479 0 -4.4234323125268367e-05 -0.00010345026993746375 0 -3.2162823906247339e-05 -4.9637120464097776e-05 0 -2.8912054226342086e-05 -4.9503561838228451e-05 0 -3.0522438774227716e-05 -5.1904017441605773e-05 0 -2.8426296109974236e-05 -4.7344876596814382e-05 0 -2.6176914775811461e-05 -4.7534749790128947e-05 0 -2.8912054226342086e-05 -4.9503561838228451e-05 0 -2.6176914775811461e-05 -4.7534749790128947e-05 0 -2.8912054226342086e-05 -4.9503561838228451e-05 0 -2.7267760974781556e-05 -5.1040875900690905e-05 0 -2.8912054226342086e-05 -4.9503561838228451e-05 0 -2.7267760974781556e-05 -5.1040875900690905e-05 0 -3.0522438774227716e-05 -5.1904017441605773e-05 0 -1.2227054920302349e-05 -0.00010495233487013479 0 2.1050656381167051e-06 -0.00013866370031106478 0 -1.6296072180051945e-05 -0.0001311080834473303 0 -1.0162463485418399e-05 -0.00010018469994415666 0 -4.1121974276383882e-05 3.7482022363470198e-05 0 -2.7267760974781556e-05 -5.1040875900690905e-05 0 -3.0522438774227716e-05 -5.1904017441605773e-05 0 -2.7453518845678098e-05 -5.3449860809772715e-05 0 -4.9497032157533584e-06 -0.00014515409899393966 0 2.1050656381167051e-06 -0.00013866370031106478 0 -1.6296072180051945e-05 -0.0001311080834473303 0 -1.6296072180051945e-05 -0.0001311080834473303 0 -3.8576617355100632e-05 -0.0001425134716722521 0 -4.4234323125268367e-05 -0.00010345026993746375 0 -1.2227054920302349e-05 -0.00010495233487013479 0 -1.6296072180051945e-05 -0.0001311080834473303 0 -4.4234323125268367e-05 -0.00010345026993746375 0 -3.8576617355100632e-05 -0.0001425134716722521 0 -6.3853048574885271e-05 -0.00012796504139827471 0 -4.4234323125268367e-05 -0.00010345026993746375 0 -5.7541742259354028e-05 -0.00015578064321249144 0 -3.8576617355100632e-05 -0.0001425134716722521 0 -6.3853048574885271e-05 -0.00012796504139827471 0 -8.1669291410935849e-05 -0.00016287551815888691 0 -5.7541742259354028e-05 -0.00015578064321249144 0 -6.3853048574885271e-05 -0.00012796504139827471 0 -6.3853048574885271e-05 -0.00012796504139827471 0 -4.4234323125268367e-05 -0.00010345026993746375 0 -7.5693987684809219e-05 -8.4164871108988385e-05 0 -3.9266367689972104e-05 -5.6054471879575917e-05 0 -4.4234323125268367e-05 -0.00010345026993746375 0 -5.9669347753262094e-05 -6.4868428101888374e-05 0 -4.4234323125268367e-05 -0.00010345026993746375 0 -7.5693987684809219e-05 -8.4164871108988385e-05 0 -5.9669347753262094e-05 -6.4868428101888374e-05 0 -9.7507343729064905e-05 -7.2076116566828895e-05 0 -7.5693987684809219e-05 -8.4164871108988385e-05 0 -9.664894583309037e-05 -0.00011204897698189843 0 -9.7507343729064905e-05 -7.2076116566828895e-05 0 -9.664894583309037e-05 -0.00011204897698189843 0 -0.00012926123748216212 -7.7453930736737795e-05 0 -6.3853048574885271e-05 -0.00012796504139827471 0 -7.5693987684809219e-05 -8.4164871108988385e-05 0 -9.664894583309037e-05 -0.00011204897698189843 0 -9.7507343729064905e-05 -7.2076116566828895e-05 0 -7.5693987684809219e-05 -8.4164871108988385e-05 0 -7.9962205964955355e-05 -5.4231319095148115e-05 0 -0.00013405621187945598 -0.00016867277403332588 0 -8.1669291410935849e-05 -0.00016287551815888691 0 -9.664894583309037e-05 -0.00011204897698189843 0 -8.1669291410935849e-05 -0.00016287551815888691 0 -6.3853048574885271e-05 -0.00012796504139827471 0 -9.664894583309037e-05 -0.00011204897698189843 0 -0.00013405621187945598 -0.00016867277403332588 0 -9.664894583309037e-05 -0.00011204897698189843 0 -0.00015890362538224684 -0.00012825482411925364 0 -0.00013405621187945598 -0.00016867277403332588 0 -0.00022009647698946125 -0.00017340933682725697 0 -0.00015890362538224684 -0.00012825482411925364 0 -0.00022009647698946125 -0.00017340933682725697 0 -0.00022584651764228405 -0.00010891210867432639 0 -0.00015890362538224684 -0.00012825482411925364 0 -0.00019049100094008773 -7.5409500125723762e-05 0 -0.00012291020167826651 -6.1895187797720533e-05 0 -0.00018164882419471431 -1.6398260596516084e-05 0 -0.00022584651764228405 -0.00010891210867432639 0 -0.00015890362538224684 -0.00012825482411925364 0 -0.00019049100094008773 -7.5409500125723762e-05 0 -0.00025191988146578938 -6.0745269162259777e-05 0 -0.00019049100094008773 -7.5409500125723762e-05 0 -0.00018164882419471431 -1.6398260596516084e-05 0 -9.664894583309037e-05 -0.00011204897698189843 0 -0.00015890362538224684 -0.00012825482411925364 0 -0.00012926123748216212 -7.7453930736737795e-05 0 -0.00015890362538224684 -0.00012825482411925364 0 -0.00019049100094008773 -7.5409500125723762e-05 0 -0.00012291020167826651 -6.1895187797720533e-05 0 -0.00015297019962387417 -0.00011893608124442598 0 -0.00013168991933585372 -8.2589283050626738e-05 0 -0.00012291020167826651 -6.1895187797720533e-05 0 -9.9509390488411854e-05 1.9749176055986833e-05 0 -8.6152567267219768e-05 2.0957876767898937e-05 0 -0.00013168991933585372 -8.2589283050626738e-05 0 -8.7055574127004008e-05 5.9527555525138627e-05 0 -0.00012038835958356488 2.6796514486939046e-05 0 -9.4467626476515984e-05 3.3769547319438504e-05 0 -9.9509390488411854e-05 1.9749176055986833e-05 0 -0.00018164882419471431 -1.6398260596516084e-05 0 -9.3324459888476343e-05 3.2929398722141854e-05 0 -0.00012291020167826651 -6.1895187797720533e-05 0 -9.9509390488411854e-05 1.9749176055986833e-05 0 -0.00018164882419471431 -1.6398260596516084e-05 0 -6.6039234512693657e-05 6.85501497488378e-05 0 -4.9747889574982853e-05 3.406373084308191e-05 0 -7.7440645184870092e-05 3.4735112566431266e-05 0 -1.5392858959884781e-05 4.8669339231993574e-05 0 -6.6039234512693657e-05 6.85501497488378e-05 0 -4.9747889574982853e-05 3.406373084308191e-05 0 -1.9987863114860098e-05 1.2982450884480743e-05 0 -7.2371060571223779e-05 1.7618794576645057e-05 0 -4.9747889574982853e-05 3.406373084308191e-05 0 -7.2371060571223779e-05 1.7618794576645057e-05 0 -4.9747889574982853e-05 3.406373084308191e-05 0 -7.7440645184870092e-05 3.4735112566431266e-05 0 -8.8629601603264609e-05 2.1832871169330461e-05 0 -7.7440645184870092e-05 3.4735112566431266e-05 0 -9.3324459888476343e-05 3.2929398722141854e-05 0 -6.6039234512693657e-05 6.85501497488378e-05 0 -7.7440645184870092e-05 3.4735112566431266e-05 0 -9.3324459888476343e-05 3.2929398722141854e-05 0 -8.8629601603264609e-05 2.1832871169330461e-05 0 -7.2371060571223779e-05 1.7618794576645057e-05 0 -7.7440645184870092e-05 3.4735112566431266e-05 0 -8.8629601603264609e-05 2.1832871169330461e-05 0 -8.7513188811685945e-05 2.5562586986248873e-05 0 -9.3324459888476343e-05 3.2929398722141854e-05 0 -8.7513188811685945e-05 2.5562586986248873e-05 0 -9.3324459888476343e-05 3.2929398722141854e-05 0 -9.3094814597232631e-05 3.1956008129182356e-05 0 -3.5121424382176351e-05 0.00015154261556996279 0 -4.5175558822063961e-05 0.00018233061756339213 0 -1.3818520076952399e-05 0.00020468085984896243 0 -4.5175558822063961e-05 0.00018233061756339213 0 -6.579803162827168e-05 0.00020060229156699071 0 -1.3818520076952399e-05 0.00020468085984896243 0 -5.6011502806551985e-05 0.00010231529409926424 0 -8.7055574127004008e-05 5.9527555525138627e-05 0 -0.00011360208234146955 0.00019997946290920509 0 -6.5422442738297627e-05 0.00017140458693261289 0 -6.579803162827168e-05 0.00020060229156699071 0 -3.5121424382176351e-05 0.00015154261556996279 0 -4.5175558822063961e-05 0.00018233061756339213 0 -6.5422442738297627e-05 0.00017140458693261289 0 -4.5175558822063961e-05 0.00018233061756339213 0 -6.5422442738297627e-05 0.00017140458693261289 0 -6.579803162827168e-05 0.00020060229156699071 0 -5.7777347985272101e-05 -3.5660933227894851e-05 0 -5.9669347753262094e-05 -6.4868428101888374e-05 0 -7.9962205964955355e-05 -5.4231319095148115e-05 0 -3.9266367689972104e-05 -5.6054471879575917e-05 0 -5.7777347985272101e-05 -3.5660933227894851e-05 0 -5.9669347753262094e-05 -6.4868428101888374e-05 0 -7.5693987684809219e-05 -8.4164871108988385e-05 0 -5.9669347753262094e-05 -6.4868428101888374e-05 0 -7.9962205964955355e-05 -5.4231319095148115e-05 0 -5.7208112747194236e-05 8.4124879195880822e-05 0 -8.7055574127004008e-05 5.9527555525138627e-05 0 -5.7777347985272101e-05 -3.5660933227894851e-05 0 -7.9962205964955355e-05 -5.4231319095148115e-05 0 -0.00010601182872929198 -3.5175723906424423e-05 0 -9.7507343729064905e-05 -7.2076116566828895e-05 0 -0.00012926123748216212 -7.7453930736737795e-05 0 -0.00010601182872929198 -3.5175723906424423e-05 0 -9.7507343729064905e-05 -7.2076116566828895e-05 0 -7.9962205964955355e-05 -5.4231319095148115e-05 0 -0.00010601182872929198 -3.5175723906424423e-05 0 -9.1677421569426865e-05 5.6082230161909886e-05 0 -8.7055574127004008e-05 5.9527555525138627e-05 0 -9.9509390488411854e-05 1.9749176055986833e-05 0 -9.3324459888476343e-05 3.2929398722141854e-05 0 -9.3094814597232631e-05 3.1956008129182356e-05 0 7.8536046479549306e-06 -0.0049632312272013387 0 4.3690666551338575e-05 -0.0048927231470965527 0 1.7291258417366428e-05 -0.0049355944832356101 0 7.8536046479549306e-06 -0.0049632312272013387 0 9.7289026073333062e-09 -0.004999927135636688 0 3.7023853917495949e-06 -0.0049767497790998419 0 7.8536046479549306e-06 -0.0049632312272013387 0 -1.4577491927380956e-06 -0.0049888626879665294 0 1.1484356622342856e-08 -0.0049999875381920135 0 7.8536046479549306e-06 -0.0049632312272013387 0 9.7289026073333062e-09 -0.004999927135636688 0 1.1484356622342856e-08 -0.0049999875381920135 0 7.8536046479549306e-06 -0.0049632312272013387 0 -1.2447972579411412e-05 -0.0049752276962254519 0 -1.4577491927380956e-06 -0.0049888626879665294 0 7.8536046479549306e-06 -0.0049632312272013387 0 -1.2447972579411412e-05 -0.0049752276962254519 0 -1.4741490071296742e-05 -0.004962316483141928 0 -1.2447972579411412e-05 -0.0049752276962254519 0 -3.0155440965276757e-05 -0.00497176224162114 0 -1.4675899255885018e-05 -0.0049878745576667728 0 -9.3346503240433019e-05 -0.0047747141224222835 0 8.9240157630228124e-06 -0.0050135970167338884 0 -1.2447972579411412e-05 -0.0049752276962254519 0 -3.0155440965276757e-05 -0.00497176224162114 0 -2.821000901197149e-05 -0.0049631247701355085 0 -1.2447972579411412e-05 -0.0049752276962254519 0 -2.821000901197149e-05 -0.0049631247701355085 0 -1.4741490071296742e-05 -0.004962316483141928 0 -0.00027596709896523429 -0.0044229762647849174 0 -0.00029319869926648239 -0.0044035731460308333 0 -0.00020740714468943874 -0.0043677619383198909 0 -0.00027596709896523429 -0.0044229762647849174 0 -0.00023712021881145431 -0.0044736872881073909 0 -0.00021736743671587364 -0.0043727857300313536 0 -0.00028708266439790597 -0.004431893219666496 0 -0.00020018105888489101 -0.0042722490307118294 0 -9.3346503240433019e-05 -0.0047747141224222835 0 -9.8549013602738898e-05 -0.0049063785323482543 0 -9.3346503240433019e-05 -0.0047747141224222835 0 -7.4110580137725735e-05 -0.0046191122243760679 0 -2.821000901197149e-05 -0.0049631247701355085 0 -1.8671526406629805e-05 -0.004947924328207942 0 -5.7801613950253481e-05 -0.0049321169735840444 0 3.4096715655690809e-05 -0.0049469423128751973 0 -7.4110580137725735e-05 -0.0046191122243760679 0 -0.00027596709896523429 -0.0044229762647849174 0 -0.00029319869926648239 -0.0044035731460308333 0 -0.00023232254538485634 -0.0044957890002478244 0 -3.3195829653589925e-05 -0.004974601198144051 0 -2.821000901197149e-05 -0.0049631247701355085 0 -5.7801613950253481e-05 -0.0049321169735840444 0 -0.00027596709896523429 -0.0044229762647849174 0 -0.00023712021881145431 -0.0044736872881073909 0 -0.00023232254538485634 -0.0044957890002478244 0 4.3690666551338575e-05 -0.0048927231470965527 0 4.3521273468277732e-05 -0.004852415673534915 0 1.7683980908927875e-05 -0.0048464408839464894 0 7.8536046479549306e-06 -0.0049632312272013387 0 -1.4741490071296742e-05 -0.004962316483141928 0 -1.8671526406629805e-05 -0.004947924328207942 0 5.7629837245576115e-06 -0.0049491119153964053 0 3.4096715655690809e-05 -0.0049469423128751973 0 -2.821000901197149e-05 -0.0049631247701355085 0 -1.4741490071296742e-05 -0.004962316483141928 0 -1.8671526406629805e-05 -0.004947924328207942 0 4.325950562854574e-05 -0.0048718586871855018 0 3.8015576520231038e-05 -0.0049408484447232602 0 1.7291258417366428e-05 -0.0049355944832356101 0 4.3690666551338575e-05 -0.0048927231470965527 0 4.325950562854574e-05 -0.0048718586871855018 0 1.7291258417366428e-05 -0.0049355944832356101 0 4.3690666551338575e-05 -0.0048927231470965527 0 4.325950562854574e-05 -0.0048718586871855018 0 4.3521273468277732e-05 -0.004852415673534915 0 4.325950562854574e-05 -0.0048718586871855018 0 4.3521273468277732e-05 -0.004852415673534915 0 4.4981361304073298e-05 -0.0047615765637848062 0 4.325950562854574e-05 -0.0048718586871855018 0 4.4981361304073298e-05 -0.0047615765637848062 0 3.8015576520231038e-05 -0.0049408484447232602 0 4.3521273468277732e-05 -0.004852415673534915 0 4.4981361304073298e-05 -0.0047615765637848062 0 1.7683980908927875e-05 -0.0048464408839464894 0 3.7359245642322996e-05 -0.0047713420858689218 0 6.2468368091697177e-05 -0.0047713237636392326 0 4.4981361304073298e-05 -0.0047615765637848062 0 4.5802703010517333e-05 -0.004526124839516657 0 0.00010224597345541225 -0.0045884415985597699 0 3.8015576520231038e-05 -0.0049408484447232602 0 1.7291258417366428e-05 -0.0049355944832356101 0 8.7008269340651685e-06 -0.0049919204906213903 0 1.7291258417366428e-05 -0.0049355944832356101 0 3.7023853917495949e-06 -0.0049767497790998419 0 8.7008269340651685e-06 -0.0049919204906213903 0 7.8536046479549306e-06 -0.0049632312272013387 0 1.7291258417366428e-05 -0.0049355944832356101 0 3.7023853917495949e-06 -0.0049767497790998419 0 9.7289026073333062e-09 -0.004999927135636688 0 3.7023853917495949e-06 -0.0049767497790998419 0 -5.0608023531653849e-09 -0.0049999561475838903 0 3.7023853917495949e-06 -0.0049767497790998419 0 -5.0608023531653849e-09 -0.0049999561475838903 0 8.7008269340651685e-06 -0.0049919204906213903 0 3.0021792078010122e-08 -0.0049999264801517795 0 4.0166167165881921e-05 -0.0046790887144916998 0 2.0006114451722219e-07 -0.0041988560713026408 0 4.0752181104601068e-05 -0.0046963372709766015 0 -5.3467714813530909e-08 -0.0049991319510280475 0 4.0166167165881921e-05 -0.0046790887144916998 0 -5.0608023531653849e-09 -0.0049999561475838903 0 8.7008269340651685e-06 -0.0049919204906213903 0 7.3865236183727615e-09 -0.0050000189998605799 0 6.2468368091697177e-05 -0.0047713237636392326 0 3.6815604080038689e-05 -0.0048437557605616336 0 3.6815604080038689e-05 -0.0048437557605616336 0 2.2065001682032874e-08 -0.0049999241738547034 0 -5.3467714813530909e-08 -0.0049991319510280475 0 3.0021792078010122e-08 -0.0049999264801517795 0 4.0166167165881921e-05 -0.0046790887144916998 0 4.0166167165881921e-05 -0.0046790887144916998 0 3.0149661544587281e-05 -0.0043879877546059128 0 2.0006114451722219e-07 -0.0041988560713026408 0 4.0166167165881921e-05 -0.0046790887144916998 0 6.9585381850346609e-05 -0.0045731234000505197 0 3.0149661544587281e-05 -0.0043879877546059128 0 4.0752181104601068e-05 -0.0046963372709766015 0 4.0166167165881921e-05 -0.0046790887144916998 0 6.9585381850346609e-05 -0.0045731234000505197 0 0.00010224597345541225 -0.0045884415985597699 0 4.0752181104601068e-05 -0.0046963372709766015 0 6.9585381850346609e-05 -0.0045731234000505197 0 4.5802703010517333e-05 -0.004526124839516657 0 0.00010224597345541225 -0.0045884415985597699 0 6.9585381850346609e-05 -0.0045731234000505197 0 4.5802703010517333e-05 -0.004526124839516657 0 6.9585381850346609e-05 -0.0045731234000505197 0 3.0149661544587281e-05 -0.0043879877546059128 0 8.1490869492790936e-06 -0.0042948798899613075 0 3.0149661544587281e-05 -0.0043879877546059128 0 2.2172943545670019e-05 -0.0041248694696703076 0 4.5802703010517333e-05 -0.004526124839516657 0 3.0149661544587281e-05 -0.0043879877546059128 0 -3.291956410639132e-05 -0.004406490017528966 0 8.1490869492790936e-06 -0.0042948798899613075 0 4.4456897305306995e-06 -0.0042944501488047619 0 -3.291956410639132e-05 -0.004406490017528966 0 8.1490869492790936e-06 -0.0042948798899613075 0 3.0149661544587281e-05 -0.0043879877546059128 0 -3.291956410639132e-05 -0.004406490017528966 0 3.0149661544587281e-05 -0.0043879877546059128 0 2.0006114451722219e-07 -0.0041988560713026408 0 2.2172943545670019e-05 -0.0041248694696703076 0 2.0006114451722219e-07 -0.0041988560713026408 0 2.2172943545670019e-05 -0.0041248694696703076 0 -1.9133003551420602e-07 -0.0036105201953007884 0 2.2172943545670019e-05 -0.0041248694696703076 0 -9.8528452646959814e-07 -0.0039557837739675394 0 -1.9133003551420602e-07 -0.0036105201953007884 0 2.2172943545670019e-05 -0.0041248694696703076 0 9.0372351706018778e-06 -0.004181048911622221 0 -9.8528452646959814e-07 -0.0039557837739675394 0 8.1490869492790936e-06 -0.0042948798899613075 0 2.2172943545670019e-05 -0.0041248694696703076 0 9.0372351706018778e-06 -0.004181048911622221 0 8.1490869492790936e-06 -0.0042948798899613075 0 9.0372351706018778e-06 -0.004181048911622221 0 4.4456897305306995e-06 -0.0042944501488047619 0 9.0372351706018778e-06 -0.004181048911622221 0 -1.4684034176973846e-05 -0.0042174574259325201 0 4.4456897305306995e-06 -0.0042944501488047619 0 9.0372351706018778e-06 -0.004181048911622221 0 -1.4684034176973846e-05 -0.0042174574259325201 0 -4.5311190636269087e-05 -0.0041361675277740411 0 -1.4684034176973846e-05 -0.0042174574259325201 0 -9.7414351736676365e-06 -0.0042471679066355432 0 4.4456897305306995e-06 -0.0042944501488047619 0 -1.4684034176973846e-05 -0.0042174574259325201 0 -9.7414351736676365e-06 -0.0042471679066355432 0 -5.0272752599777219e-05 -0.0041997963300595565 0 -9.7414351736676365e-06 -0.0042471679066355432 0 -1.1336622736119811e-05 -0.0042548580819125265 0 -3.1510846611243846e-05 -0.0042379747387788587 0 -9.7414351736676365e-06 -0.0042471679066355432 0 -2.065393998997459e-06 -0.0042515449814882122 0 -1.1336622736119811e-05 -0.0042548580819125265 0 -1.0766780016510358e-05 -0.0042531689853588708 0 6.0507442647137142e-06 -0.0042576173427195073 0 -9.7414351736676365e-06 -0.0042471679066355432 0 4.4456897305306995e-06 -0.0042944501488047619 0 -4.4235202493102675e-06 -0.0042838803094920833 0 4.4456897305306995e-06 -0.0042944501488047619 0 -3.291956410639132e-05 -0.004406490017528966 0 -1.8929411587138261e-05 -0.004322240103393527 0 4.4456897305306995e-06 -0.0042944501488047619 0 -1.8929411587138261e-05 -0.004322240103393527 0 -4.4235202493102675e-06 -0.0042838803094920833 0 -3.291956410639132e-05 -0.004406490017528966 0 -1.8929411587138261e-05 -0.004322240103393527 0 -7.8022707695873779e-05 -0.0043054645356778391 0 4.4981361304073298e-05 -0.0047615765637848062 0 4.5802703010517333e-05 -0.004526124839516657 0 -3.7613836765500247e-05 -0.0046751195947770628 0 4.5802703010517333e-05 -0.004526124839516657 0 -3.291956410639132e-05 -0.004406490017528966 0 -3.7613836765500247e-05 -0.0046751195947770628 0 -3.9591517874480876e-05 -0.004435188394056603 0 -5.1708625364320624e-05 -0.0044847344438611082 0 -5.1708625364320624e-05 -0.0044847344438611082 0 -7.4110580137725735e-05 -0.0046191122243760679 0 -7.8022707695873779e-05 -0.0043054645356778391 0 -9.6675495083243219e-05 -0.0042701948362678065 0 -0.00010600576828289856 -0.0042583532338160649 0 -7.8022707695873779e-05 -0.0043054645356778391 0 -8.4576141900188903e-05 -0.0042626952748783409 0 -9.6675495083243219e-05 -0.0042701948362678065 0 4.4981361304073298e-05 -0.0047615765637848062 0 -3.7613836765500247e-05 -0.0046751195947770628 0 1.7683980908927875e-05 -0.0048464408839464894 0 -8.4815532096832626e-05 -0.0042644395253262192 0 -9.6675495083243219e-05 -0.0042701948362678065 0 -0.00010600576828289856 -0.0042583532338160649 0 -0.00010165228371539114 -0.0043572169256682744 0 -8.5002576770973006e-05 -0.0043338577470090796 0 -7.8022707695873779e-05 -0.0043054645356778391 0 -8.4576141900188903e-05 -0.0042626952748783409 0 -4.4235202493102675e-06 -0.0042838803094920833 0 -0.00010165228371539114 -0.0043572169256682744 0 6.0507442647137142e-06 -0.0042576173427195073 0 -1.8929411587138261e-05 -0.004322240103393527 0 -7.8022707695873779e-05 -0.0043054645356778391 0 -4.4235202493102675e-06 -0.0042838803094920833 0 -0.00019457982492989629 -0.0045072930396450397 0 -7.1782547053533642e-05 -0.0044405105669268483 0 -0.0001706624667408514 -0.0044294203686949581 0 -0.00010165228371539114 -0.0043572169256682744 0 -2.1698528208169174e-05 -0.0043549844281676655 0 -7.1782547053533642e-05 -0.0044405105669268483 0 -0.0001706624667408514 -0.0044294203686949581 0 -0.00011505247799343332 -0.0043881929347447494 0 4.9978599847373605e-06 -0.0042556374295869724 0 -2.065393998997459e-06 -0.0042515449814882122 0 -1.3453512425747472e-06 -0.0042597025145582681 0 -0.00023712021881145431 -0.0044736872881073909 0 -0.00023232254538485634 -0.0044957890002478244 0 -0.00020821053491150134 -0.0044785991917591604 0 -0.00019457982492989629 -0.0045072930396450397 0 -0.00023232254538485634 -0.0044957890002478244 0 -0.00020821053491150134 -0.0044785991917591604 0 -0.00010165228371539114 -0.0043572169256682744 0 -7.4110580137725735e-05 -0.0046191122243760679 0 -0.00019457982492989629 -0.0045072930396450397 0 -0.00020821053491150134 -0.0044785991917591604 0 -0.0001706624667408514 -0.0044294203686949581 0 -0.00023712021881145431 -0.0044736872881073909 0 -0.00020821053491150134 -0.0044785991917591604 0 -0.0001706624667408514 -0.0044294203686949581 0 -0.00023712021881145431 -0.0044736872881073909 0 -0.0001706624667408514 -0.0044294203686949581 0 -0.00021281309057211351 -0.0043437910625758747 0 -0.00024274567777470577 -0.0045005242099331374 0 -0.00020018105888489101 -0.0042722490307118294 0 -0.00015388087421935024 -0.0043739326085129749 0 -0.00021281309057211351 -0.0043437910625758747 0 -0.00011740164984368091 -0.0043346065746977594 0 -0.0001706624667408514 -0.0044294203686949581 0 -0.00015388087421935024 -0.0043739326085129749 0 -0.00021281309057211351 -0.0043437910625758747 0 -7.1782547053533642e-05 -0.0044405105669268483 0 -0.00011505247799343332 -0.0043881929347447494 0 -5.4304212624609224e-05 -0.0043707348400536042 0 -0.0001706624667408514 -0.0044294203686949581 0 -0.00015388087421935024 -0.0043739326085129749 0 -0.00011505247799343332 -0.0043881929347447494 0 -0.00015388087421935024 -0.0043739326085129749 0 -0.00011505247799343332 -0.0043881929347447494 0 -0.00011740164984368091 -0.0043346065746977594 0 -0.00011505247799343332 -0.0043881929347447494 0 -0.00011740164984368091 -0.0043346065746977594 0 -5.4304212624609224e-05 -0.0043707348400536042 0 -7.1782547053533642e-05 -0.0044405105669268483 0 -5.4304212624609224e-05 -0.0043707348400536042 0 4.812170836607002e-05 -0.0043759909759011071 0 -0.00011740164984368091 -0.0043346065746977594 0 -5.4304212624609224e-05 -0.0043707348400536042 0 -2.1831281607811721e-05 -0.0043097392452135126 0 -2.1698528208169174e-05 -0.0043549844281676655 0 -7.2206175903798925e-05 -0.0042855309550601196 0 -5.4304212624609224e-05 -0.0043707348400536042 0 4.812170836607002e-05 -0.0043759909759011071 0 -2.1831281607811721e-05 -0.0043097392452135126 0 -7.2206175903798925e-05 -0.0042855309550601196 0 -0.00015277225801977465 -0.0042607752522058531 0 -7.2206175903798925e-05 -0.0042855309550601196 0 -5.7704740834022365e-05 -0.0042423100588919131 0 -1.1336622736119811e-05 -0.0042548580819125265 0 -3.4117642611616987e-05 -0.0042614089847246512 0 -3.1510846611243846e-05 -0.0042379747387788587 0 -1.7197447146989264e-05 -0.0042724714185966598 0 -1.1336622736119811e-05 -0.0042548580819125265 0 -3.4117642611616987e-05 -0.0042614089847246512 0 -1.3453512425747472e-06 -0.0042597025145582681 0 -1.7197447146989264e-05 -0.0042724714185966598 0 -1.1336622736119811e-05 -0.0042548580819125265 0 -2.065393998997459e-06 -0.0042515449814882122 0 -1.3453512425747472e-06 -0.0042597025145582681 0 -1.1336622736119811e-05 -0.0042548580819125265 0 -7.8179679905918633e-05 -0.0042275236363848038 0 -9.0935621782621263e-05 -0.0042202370504905093 0 -8.9818587279632083e-05 -0.004230894038914277 0 -7.8179679905918633e-05 -0.0042275236363848038 0 -9.0935621782621263e-05 -0.0042202370504905093 0 -6.8549765672871172e-05 -0.0042242696968942707 0 -7.8179679905918633e-05 -0.0042275236363848038 0 -7.9329608315768701e-05 -0.0042296547649868354 0 -6.8549765672871172e-05 -0.0042242696968942707 0 -5.7704740834022365e-05 -0.0042423100588919131 0 -6.8226718814880306e-05 -0.0042278496843453518 0 -3.4117642611616987e-05 -0.0042614089847246512 0 -6.8549765672871172e-05 -0.0042242696968942707 0 -3.1510846611243846e-05 -0.0042379747387788587 0 -7.8179679905918633e-05 -0.0042275236363848038 0 -7.9329608315768701e-05 -0.0042296547649868354 0 -7.9713754913638682e-05 -0.0042308342619646081 0 -7.9329608315768701e-05 -0.0042296547649868354 0 -8.1786719466774845e-05 -0.0042311304592628383 0 -7.9713754913638682e-05 -0.0042308342619646081 0 -8.1786719466774845e-05 -0.0042311304592628383 0 -7.9330983111377043e-05 -0.0042327351715039079 0 -7.9713754913638682e-05 -0.0042308342619646081 0 -7.2206175903798925e-05 -0.0042855309550601196 0 -0.00011164266638248114 -0.0042290101419719724 0 -8.1798130877903843e-05 -0.004232046762496746 0 -8.1786719466774845e-05 -0.0042311304592628383 0 -8.7121075730287528e-05 -0.0042245967886666864 0 -0.00021039457998728764 -0.0042793836712783804 0 -8.7121075730287528e-05 -0.0042245967886666864 0 -0.00013660174884796883 -0.0042012798949375065 0 -8.1798130877903843e-05 -0.004232046762496746 0 -7.9329608315768701e-05 -0.0042296547649868354 0 -8.1786719466774845e-05 -0.0042311304592628383 0 -8.1786719466774845e-05 -0.0042311304592628383 0 -7.9330983111377043e-05 -0.0042327351715039079 0 -8.7121075730287528e-05 -0.0042245967886666864 0 -7.9330983111377043e-05 -0.0042327351715039079 0 -8.0066281722932325e-05 -0.0042328267154947505 0 -7.9713754913638682e-05 -0.0042308342619646081 0 -7.9330983111377043e-05 -0.0042327351715039079 0 -7.6286726285175197e-05 -0.0042336741022521553 0 -8.0066281722932325e-05 -0.0042328267154947505 0 -7.9330983111377043e-05 -0.0042327351715039079 0 -7.6286726285175197e-05 -0.0042336741022521553 0 -8.7121075730287528e-05 -0.0042245967886666864 0 -8.0066281722932325e-05 -0.0042328267154947505 0 -7.9713754913638682e-05 -0.0042308342619646081 0 -8.6760073391671893e-05 -0.0042351700440435491 0 -7.6286726285175197e-05 -0.0042336741022521553 0 -8.0066281722932325e-05 -0.0042328267154947505 0 -8.6760073391671893e-05 -0.0042351700440435491 0 -7.9713754913638682e-05 -0.0042308342619646081 0 -8.9818587279632083e-05 -0.004230894038914277 0 -8.6760073391671893e-05 -0.0042351700440435491 0 -7.8179679905918633e-05 -0.0042275236363848038 0 -7.9713754913638682e-05 -0.0042308342619646081 0 -8.9818587279632083e-05 -0.004230894038914277 0 -8.9818587279632083e-05 -0.004230894038914277 0 -8.6760073391671893e-05 -0.0042351700440435491 0 -0.00010025132404893086 -0.0042374937373682309 0 -0.00010025132404893086 -0.0042374937373682309 0 -0.00011037513726423321 -0.0042332973425723277 0 -0.00010190681804268308 -0.0042277425272234069 0 -8.9818587279632083e-05 -0.004230894038914277 0 -0.00010025132404893086 -0.0042374937373682309 0 -0.00010190681804268308 -0.0042277425272234069 0 -0.00010025132404893086 -0.0042374937373682309 0 -0.00011037513726423321 -0.0042332973425723277 0 -0.00011128003690324903 -0.00424438452373011 0 -6.4517076530089062e-05 -0.004193313821536958 0 -2.3441664256919643e-05 -0.0040428960417138613 0 -7.1274419873949881e-05 -0.0040084556873150176 0 -0.00013983800069755907 -0.0042722855189465461 0 -7.5473751419830439e-05 -0.0042020121806375594 0 -0.00014706712010462098 -0.0041225661567449133 0 -7.5473751419830439e-05 -0.0042020121806375594 0 -0.00015184709138022702 -0.0042765206194613388 0 -0.00018498721898467814 -0.0042408599712382604 0 -0.00017364495828482387 -0.0043376185494902238 0 -0.00014706712010462098 -0.0041225661567449133 0 -0.00010899681678613775 -0.0039929380613343895 0 -0.00015184709138022702 -0.0042765206194613388 0 -0.00018498721898467814 -0.0042408599712382604 0 -0.00011823517848955678 -0.0042082325662802442 0 -0.00014706712010462098 -0.0041225661567449133 0 -0.00016679212446938716 -0.0040239985946434473 0 -0.00017859666307138585 -0.0040141988193794905 0 -0.00015964394301345064 -0.0040660854753260551 0 -0.00014286725820479579 -0.0040306128578884333 0 -0.00013983800069755907 -0.0042722855189465461 0 -0.00011494236477002449 -0.00420417162481643 0 -0.00011037513726423321 -0.0042332973425723277 0 -0.00010190681804268308 -0.0042277425272234069 0 -0.00011823517848955678 -0.0042082325662802442 0 -9.0935621782621263e-05 -0.0042202370504905093 0 -8.9818587279632083e-05 -0.004230894038914277 0 -0.00010190681804268308 -0.0042277425272234069 0 -9.0935621782621263e-05 -0.0042202370504905093 0 -0.00010190681804268308 -0.0042277425272234069 0 -0.00011823517848955678 -0.0042082325662802442 0 -9.0935621782621263e-05 -0.0042202370504905093 0 -0.00011823517848955678 -0.0042082325662802442 0 -0.00010017931333538526 -0.0041766073706073345 0 -0.00011823517848955678 -0.0042082325662802442 0 -0.00010017931333538526 -0.0041766073706073345 0 -0.00016024941379412863 -0.0041199127208073182 0 -0.00018480119168709467 -0.0039987741476957984 0 -0.00015964394301345064 -0.0040660854753260551 0 -0.00016024941379412863 -0.0041199127208073182 0 -0.00018498721898467814 -0.0042408599712382604 0 -0.00011823517848955678 -0.0042082325662802442 0 -0.00016024941379412863 -0.0041199127208073182 0 -0.00014706712010462098 -0.0041225661567449133 0 -0.00017279238980051251 -0.0041158732034473049 0 -0.00015964394301345064 -0.0040660854753260551 0 -0.00016024941379412863 -0.0041199127208073182 0 -0.00014740446705989525 -0.0040828167038260837 0 -0.00016024941379412863 -0.0041199127208073182 0 -0.00015009031396885305 -0.0040921161952047012 0 -0.00014740446705989525 -0.0040828167038260837 0 -0.00016024941379412863 -0.0041199127208073182 0 -0.00014386186610811333 -0.004107250858927998 0 -0.00015009031396885305 -0.0040921161952047012 0 -0.00010017931333538526 -0.0041766073706073345 0 -0.00012959478990794246 -0.0041319962380524005 0 -0.00010866449576590895 -0.0041244963372565344 0 -0.00010017931333538526 -0.0041766073706073345 0 -0.00016024941379412863 -0.0041199127208073182 0 -0.00012959478990794246 -0.0041319962380524005 0 -0.00014386186610811333 -0.004107250858927998 0 -0.00012959478990794246 -0.0041319962380524005 0 -0.00010866449576590895 -0.0041244963372565344 0 -0.00016024941379412863 -0.0041199127208073182 0 -0.00014386186610811333 -0.004107250858927998 0 -0.00012959478990794246 -0.0041319962380524005 0 -0.00010017931333538526 -0.0041766073706073345 0 -5.0272752599777219e-05 -0.0041997963300595565 0 -0.00010866449576590895 -0.0041244963372565344 0 -9.0935621782621263e-05 -0.0042202370504905093 0 -0.00010017931333538526 -0.0041766073706073345 0 -6.8549765672871172e-05 -0.0042242696968942707 0 -0.00010017931333538526 -0.0041766073706073345 0 -6.8549765672871172e-05 -0.0042242696968942707 0 -5.0272752599777219e-05 -0.0041997963300595565 0 -9.7414351736676365e-06 -0.0042471679066355432 0 -3.1510846611243846e-05 -0.0042379747387788587 0 -5.0272752599777219e-05 -0.0041997963300595565 0 -6.8549765672871172e-05 -0.0042242696968942707 0 -3.1510846611243846e-05 -0.0042379747387788587 0 -5.0272752599777219e-05 -0.0041997963300595565 0 -1.4684034176973846e-05 -0.0042174574259325201 0 -5.0272752599777219e-05 -0.0041997963300595565 0 -4.5311190636269087e-05 -0.0041361675277740411 0 -4.5311190636269087e-05 -0.0041361675277740411 0 -0.00010866449576590895 -0.0041244963372565344 0 -9.7164390937124774e-05 -0.0040859355001003307 0 -5.0272752599777219e-05 -0.0041997963300595565 0 -4.5311190636269087e-05 -0.0041361675277740411 0 -0.00010866449576590895 -0.0041244963372565344 0 -0.00010866449576590895 -0.0041244963372565344 0 -9.7164390937124774e-05 -0.0040859355001003307 0 -0.00012969371083129636 -0.0040661012276832359 0 -4.5311190636269087e-05 -0.0041361675277740411 0 -9.7164390937124774e-05 -0.0040859355001003307 0 -9.3254723604563704e-05 -0.0039912257550313579 0 -9.7164390937124774e-05 -0.0040859355001003307 0 -9.3254723604563704e-05 -0.0039912257550313579 0 -0.00012969371083129636 -0.0040661012276832359 0 9.0372351706018778e-06 -0.004181048911622221 0 -4.5311190636269087e-05 -0.0041361675277740411 0 -9.8528452646959814e-07 -0.0039557837739675394 0 -4.5311190636269087e-05 -0.0041361675277740411 0 -9.3254723604563704e-05 -0.0039912257550313579 0 -9.8528452646959814e-07 -0.0039557837739675394 0 -9.3254723604563704e-05 -0.0039912257550313579 0 -9.8528452646959814e-07 -0.0039557837739675394 0 -5.1182550293362485e-05 -0.0035593931123472236 0 -9.3254723604563704e-05 -0.0039912257550313579 0 -5.1182550293362485e-05 -0.0035593931123472236 0 -0.00022851976194540114 -0.0037575831587345742 0 -9.8528452646959814e-07 -0.0039557837739675394 0 -5.1182550293362485e-05 -0.0035593931123472236 0 -1.9133003551420602e-07 -0.0036105201953007884 0 -5.1182550293362485e-05 -0.0035593931123472236 0 -1.9133003551420602e-07 -0.0036105201953007884 0 4.8907048051931548e-08 -0.0031778838610039546 0 4.8907048051931548e-08 -0.0031778838610039546 0 -7.8823757872978757e-06 -0.0032476951273613859 0 2.0739037472455608e-05 -0.0031071258655034303 0 -5.1182550293362485e-05 -0.0035593931123472236 0 4.8907048051931548e-08 -0.0031778838610039546 0 -7.8823757872978757e-06 -0.0032476951273613859 0 -4.7826660300157832e-05 -0.0035237743362566795 0 -0.00022182551777942709 -0.0034687416560002619 0 -5.1182550293362485e-05 -0.0035593931123472236 0 -0.00043662746512411487 -0.003692776419784642 0 -0.00022851976194540114 -0.0037575831587345742 0 -8.7904812145379651e-05 -0.0039894554001547299 0 -0.00030243428503825203 -0.0039823314477277034 0 -0.00043662746512411487 -0.003692776419784642 0 -0.00022851976194540114 -0.0037575831587345742 0 -0.0004038420445641955 -0.0038696591102129309 0 -9.3254723604563704e-05 -0.0039912257550313579 0 -0.00022851976194540114 -0.0037575831587345742 0 -0.0004038420445641955 -0.0038696591102129309 0 -0.00014645882560789783 -0.004046729966418759 0 -0.00014715089922815 -0.004067331654744104 0 -0.00014435813836347126 -0.0040724882014779732 0 -0.00030243428503825203 -0.0039823314477277034 0 -0.00022704295278535265 -0.003608001909258265 0 -0.00043662746512411487 -0.003692776419784642 0 -0.0004038420445641955 -0.0038696591102129309 0 -0.00073081969945856232 -0.0037860545057522075 0 -0.00022182551777942709 -0.0034687416560002619 0 -0.00022704295278535265 -0.003608001909258265 0 -0.00014715089922815 -0.004067331654744104 0 -0.00014768866109647502 -0.0040830764981970883 0 -0.00014478034235577598 -0.0040753524767345234 0 -0.00014715089922815 -0.004067331654744104 0 -0.00014428641259656296 -0.0040657538734937522 0 -0.00014768866109647502 -0.0040830764981970883 0 -0.00014645882560789783 -0.004046729966418759 0 -0.00014715089922815 -0.004067331654744104 0 -0.00014428641259656296 -0.0040657538734937522 0 -9.3254723604563704e-05 -0.0039912257550313579 0 -0.00014645882560789783 -0.004046729966418759 0 -0.00012969371083129636 -0.0040661012276832359 0 -0.00014645882560789783 -0.004046729966418759 0 -0.00014428641259656296 -0.0040657538734937522 0 -0.00012969371083129636 -0.0040661012276832359 0 -0.00014428641259656296 -0.0040657538734937522 0 -0.00012969371083129636 -0.0040661012276832359 0 -0.00014018762875508362 -0.004088806061740822 0 -0.00010866449576590895 -0.0041244963372565344 0 -0.00012969371083129636 -0.0040661012276832359 0 -0.00014018762875508362 -0.004088806061740822 0 -0.00014386186610811333 -0.004107250858927998 0 -0.00010866449576590895 -0.0041244963372565344 0 -0.00014018762875508362 -0.004088806061740822 0 -0.00014428641259656296 -0.0040657538734937522 0 -0.00014018762875508362 -0.004088806061740822 0 -0.00014768866109647502 -0.0040830764981970883 0 -0.00014386186610811333 -0.004107250858927998 0 -0.00014018762875508362 -0.004088806061740822 0 -0.00014768866109647502 -0.0040830764981970883 0 -0.00015009031396885305 -0.0040921161952047012 0 -0.00014768866109647502 -0.0040830764981970883 0 -0.00014379255539795493 -0.0040803522809822849 0 -0.00014386186610811333 -0.004107250858927998 0 -0.00015009031396885305 -0.0040921161952047012 0 -0.00014768866109647502 -0.0040830764981970883 0 -0.00014379255539795493 -0.0040803522809822849 0 -0.0001282805517029964 -0.0040720496083201637 0 -0.00013413635181137195 -0.0040736140537363267 0 -0.00014379255539795493 -0.0040803522809822849 0 -0.0001373791285103132 -0.0040751459598349447 0 -0.0001282805517029964 -0.0040720496083201637 0 -0.00014379255539795493 -0.0040803522809822849 0 -0.0001373791285103132 -0.0040751459598349447 0 -0.00014478034235577598 -0.0040753524767345234 0 -0.00014768866109647502 -0.0040830764981970883 0 -0.00014379255539795493 -0.0040803522809822849 0 -0.00014478034235577598 -0.0040753524767345234 0 -0.0001282805517029964 -0.0040720496083201637 0 -0.00011275016786943891 -0.0040631517971131282 0 -0.00013413635181137195 -0.0040736140537363267 0 -0.0001373791285103132 -0.0040751459598349447 0 -0.0001282805517029964 -0.0040720496083201637 0 -0.00011301536002338432 -0.0040721556005200357 0 -0.0001282805517029964 -0.0040720496083201637 0 -0.00011301536002338432 -0.0040721556005200357 0 -0.00011275016786943891 -0.0040631517971131282 0 -0.0001373791285103132 -0.0040751459598349447 0 -0.00013631366653284397 -0.0040745598514075878 0 -0.00011301536002338432 -0.0040721556005200357 0 -0.00013631366653284397 -0.0040745598514075878 0 -0.00012229635548591242 -0.0040783645150834855 0 -0.00011301536002338432 -0.0040721556005200357 0 -0.00014715089922815 -0.004067331654744104 0 -0.00014478034235577598 -0.0040753524767345234 0 -0.00013631366653284397 -0.0040745598514075878 0 -0.0001373791285103132 -0.0040751459598349447 0 -0.00014478034235577598 -0.0040753524767345234 0 -0.00013631366653284397 -0.0040745598514075878 0 4.8907048051931548e-08 -0.0031778838610039546 0 -1.3486189905111183e-07 -0.0028609150369075511 0 1.2290715640505307e-05 -0.0030361163211413767 0 -0.00014715089922815 -0.004067331654744104 0 -0.00013631366653284397 -0.0040745598514075878 0 -0.00014435813836347126 -0.0040724882014779732 0 -0.00022704295278535265 -0.003608001909258265 0 -5.0479227235682842e-05 -0.0027961029714164637 0 -0.00022704295278535265 -0.003608001909258265 0 -4.1047923473115138e-05 -0.0034729149956345662 0 -0.00015870595420749148 -0.0033264182420164523 0 -6.9373349152501847e-05 -0.003297443107688547 0 -7.651786048487682e-05 -0.0033418057620679172 0 -0.00013631366653284397 -0.0040745598514075878 0 -0.00014435813836347126 -0.0040724882014779732 0 -0.00012229635548591242 -0.0040783645150834855 0 -4.1047923473115138e-05 -0.0034729149956345662 0 -5.0479227235682842e-05 -0.0027961029714164637 0 -5.426196982614039e-05 -0.0030458318844801711 0 -1.3486189905111183e-07 -0.0028609150369075511 0 1.2290715640505307e-05 -0.0030361163211413767 0 -5.0479227235682842e-05 -0.0027961029714164637 0 -3.1502642943220737e-08 -0.0028605714083874607 0 2.0739037472455608e-05 -0.0031071258655034303 0 -5.426196982614039e-05 -0.0030458318844801711 0 1.2290715640505307e-05 -0.0030361163211413767 0 4.8907048051931548e-08 -0.0031778838610039546 0 2.0739037472455608e-05 -0.0031071258655034303 0 1.2290715640505307e-05 -0.0030361163211413767 0 -5.1389466251478597e-08 -0.0023573684611043091 0 8.8423120329022964e-06 -0.002639862765697153 0 1.5039940216857479e-08 -0.0025612712819602858 0 -1.2336096593178521e-05 -0.0023218164827061372 0 -3.3528039220841061e-05 -0.0023332480104162009 0 -2.3789740755174057e-05 -0.0023217394807232635 0 8.8423120329022964e-06 -0.002639862765697153 0 1.5039940216857479e-08 -0.0025612712819602858 0 7.4889542987366381e-06 -0.0027047090885999317 0 -4.743022013028436e-05 -0.0023340901538965058 0 -3.3528039220841061e-05 -0.0023332480104162009 0 -3.6904917673269118e-05 -0.0023282431719342926 0 -1.3575860654347677e-05 -0.0027200393044494171 0 8.8423120329022964e-06 -0.002639862765697153 0 7.4889542987366381e-06 -0.0027047090885999317 0 -5.4512519877597809e-08 -0.0028601767790828233 0 1.5039940216857479e-08 -0.0025612712819602858 0 7.4889542987366381e-06 -0.0027047090885999317 0 -5.0479227235682842e-05 -0.0027961029714164637 0 -4.1511809472131285e-06 -0.0024520588563795485 0 -1.3575860654347677e-05 -0.0027200393044494171 0 -5.4512519877597809e-08 -0.0028601767790828233 0 7.4889542987366381e-06 -0.0027047090885999317 0 -4.743022013028436e-05 -0.0023340901538965058 0 -3.6904917673269118e-05 -0.0023282431719342926 0 -4.5242275634605978e-05 -0.0023292063948595993 0 -4.1664510546617359e-05 -0.0023336350895182857 0 -4.5242275634605978e-05 -0.0023292063948595993 0 -5.5119960504344055e-05 -0.0023446364226029572 0 -4.1664510546617359e-05 -0.0023336350895182857 0 -4.743022013028436e-05 -0.0023340901538965058 0 -4.5242275634605978e-05 -0.0023292063948595993 0 -4.1047923473115138e-05 -0.0034729149956345662 0 -0.00011465030530995632 -0.0029023158055234612 0 -3.6904917673269118e-05 -0.0023282431719342926 0 -4.5242275634605978e-05 -0.0023292063948595993 0 -2.7545221819987147e-05 -0.002317416648946764 0 8.68878019349553e-05 -0.0023964992817766245 0 -0.00011465030530995632 -0.0029023158055234612 0 -4.5242275634605978e-05 -0.0023292063948595993 0 -2.7545221819987147e-05 -0.002317416648946764 0 -3.5319442069647915e-05 -0.0023136910837860377 0 -3.3528039220841061e-05 -0.0023332480104162009 0 -3.6904917673269118e-05 -0.0023282431719342926 0 -2.3789740755174057e-05 -0.0023217394807232635 0 -3.6904917673269118e-05 -0.0023282431719342926 0 -2.7545221819987147e-05 -0.002317416648946764 0 -2.3789740755174057e-05 -0.0023217394807232635 0 -7.8322258181326314e-06 -0.0023055702738841643 0 -2.7545221819987147e-05 -0.002317416648946764 0 -2.3789740755174057e-05 -0.0023217394807232635 0 -7.8322258181326314e-06 -0.0023055702738841643 0 -9.8835362803938752e-06 -0.0023056364780625026 0 -2.7545221819987147e-05 -0.002317416648946764 0 -9.8835362803938752e-06 -0.0023056364780625026 0 -2.7545221819987147e-05 -0.002317416648946764 0 -1.0774723845680563e-05 -0.0023015348435591128 0 -2.7545221819987147e-05 -0.002317416648946764 0 -1.0774723845680563e-05 -0.0023015348435591128 0 -3.5319442069647915e-05 -0.0023136910837860377 0 -6.4878148140620388e-05 -0.0032489906677457092 0 -0.00011465030530995632 -0.0029023158055234612 0 -7.5637446700541975e-05 -0.0040670478510786631 0 -9.767273580497047e-05 -0.0040781001532519505 0 -9.471335180922658e-05 -0.0040695711694480477 0 -0.0001095179691123092 -0.0040777324267781403 0 -9.767273580497047e-05 -0.0040781001532519505 0 -0.00011301536002338432 -0.0040721556005200357 0 -4.1047923473115138e-05 -0.0034729149956345662 0 -0.00014387926467262902 -0.004264571923790361 0 -9.767273580497047e-05 -0.0040781001532519505 0 -9.471335180922658e-05 -0.0040695711694480477 0 -0.00011301536002338432 -0.0040721556005200357 0 -0.00011301536002338432 -0.0040721556005200357 0 -9.2356176193932879e-05 -0.0040606520633678133 0 -0.00011275016786943891 -0.0040631517971131282 0 -9.471335180922658e-05 -0.0040695711694480477 0 -0.00011301536002338432 -0.0040721556005200357 0 -9.2356176193932879e-05 -0.0040606520633678133 0 -7.5637446700541975e-05 -0.0040670478510786631 0 -9.2356176193932879e-05 -0.0040606520633678133 0 -6.8302481848187826e-05 -0.004043635329369917 0 -7.5637446700541975e-05 -0.0040670478510786631 0 -9.471335180922658e-05 -0.0040695711694480477 0 -9.2356176193932879e-05 -0.0040606520633678133 0 -9.2356176193932879e-05 -0.0040606520633678133 0 -6.8302481848187826e-05 -0.004043635329369917 0 -9.0886930075736978e-05 -0.0040456531528183948 0 -5.399378564952172e-05 -0.0040187176042723594 0 -6.8302481848187826e-05 -0.004043635329369917 0 -9.0886930075736978e-05 -0.0040456531528183948 0 -5.399378564952172e-05 -0.0040187176042723594 0 -8.2458915571266659e-05 -0.0040178437575413301 0 -9.0886930075736978e-05 -0.0040456531528183948 0 -8.2458915571266659e-05 -0.0040178437575413301 0 -9.0886930075736978e-05 -0.0040456531528183948 0 -0.00011130703306323741 -0.0040483434036707577 0 -8.2458915571266659e-05 -0.0040178437575413301 0 -0.00011130703306323741 -0.0040483434036707577 0 -0.00011469313592803246 -0.0040234800283948458 0 -9.0886930075736978e-05 -0.0040456531528183948 0 -0.00011275016786943891 -0.0040631517971131282 0 -0.00011130703306323741 -0.0040483434036707577 0 -9.2356176193932879e-05 -0.0040606520633678133 0 -9.0886930075736978e-05 -0.0040456531528183948 0 -0.00011275016786943891 -0.0040631517971131282 0 -0.00013413635181137195 -0.0040736140537363267 0 -0.00013309418012968604 -0.0040560885189844346 0 -0.00011130703306323741 -0.0040483434036707577 0 -0.00011275016786943891 -0.0040631517971131282 0 -0.00013413635181137195 -0.0040736140537363267 0 -0.00011130703306323741 -0.0040483434036707577 0 -0.00013413635181137195 -0.0040736140537363267 0 -0.00014740446705989525 -0.0040828167038260837 0 -0.00013309418012968604 -0.0040560885189844346 0 -0.00015009031396885305 -0.0040921161952047012 0 -0.00014379255539795493 -0.0040803522809822849 0 -0.00013413635181137195 -0.0040736140537363267 0 -0.00015009031396885305 -0.0040921161952047012 0 -0.00013413635181137195 -0.0040736140537363267 0 -0.00014740446705989525 -0.0040828167038260837 0 -0.00015964394301345064 -0.0040660854753260551 0 -0.00013309418012968604 -0.0040560885189844346 0 -0.00014286725820479579 -0.0040306128578884333 0 -0.00015964394301345064 -0.0040660854753260551 0 -0.00014740446705989525 -0.0040828167038260837 0 -0.00013309418012968604 -0.0040560885189844346 0 -0.00013309418012968604 -0.0040560885189844346 0 -0.00011469313592803246 -0.0040234800283948458 0 -0.00014286725820479579 -0.0040306128578884333 0 -0.00013309418012968604 -0.0040560885189844346 0 -0.00011130703306323741 -0.0040483434036707577 0 -0.00011469313592803246 -0.0040234800283948458 0 -0.00011469313592803246 -0.0040234800283948458 0 -0.00013580436671544599 -0.0039863861010669081 0 -9.1699141892976499e-05 -0.0039840973620425936 0 -0.00011469313592803246 -0.0040234800283948458 0 -0.00014286725820479579 -0.0040306128578884333 0 -0.00013580436671544599 -0.0039863861010669081 0 -0.00017859666307138585 -0.0040141988193794905 0 -0.00014286725820479579 -0.0040306128578884333 0 -0.00013580436671544599 -0.0039863861010669081 0 -0.00017859666307138585 -0.0040141988193794905 0 -0.00013580436671544599 -0.0039863861010669081 0 -0.00017433144378749529 -0.0039446744286020527 0 -0.00013580436671544599 -0.0039863861010669081 0 -0.00017433144378749529 -0.0039446744286020527 0 -0.00013690887903403543 -0.0039275560065179221 0 -0.00013580436671544599 -0.0039863861010669081 0 -0.00010327712460524792 -0.0039435600950844824 0 -0.00013690887903403543 -0.0039275560065179221 0 -0.00013580436671544599 -0.0039863861010669081 0 -9.1699141892976499e-05 -0.0039840973620425936 0 -0.00010327712460524792 -0.0039435600950844824 0 -9.1699141892976499e-05 -0.0039840973620425936 0 -6.7641468899376085e-05 -0.003935582298137107 0 -0.00010327712460524792 -0.0039435600950844824 0 -9.1699141892976499e-05 -0.0039840973620425936 0 -5.7642074540277469e-05 -0.0039872445750147945 0 -6.7641468899376085e-05 -0.003935582298137107 0 3.7807162565608706e-05 -0.0035702148642273641 0 3.0790102015408973e-05 -0.0033793056455608266 0 9.787393019948332e-05 -0.0031337692690831063 0 0.00011758519201653736 -0.0031014375264126373 0 0.00019840544633182799 -0.0032632856764206854 0 9.3425916259811263e-05 -0.0027799762842824131 0 3.0790102015408973e-05 -0.0033793056455608266 0 8.8249187760046743e-05 -0.0024996318581963417 0 8.9503104618150311e-05 -0.0025333303821635121 0 0.00011688462373940548 -0.0025446783995340346 0 -5.399378564952172e-05 -0.0040187176042723594 0 -8.2458915571266659e-05 -0.0040178437575413301 0 -5.7642074540277469e-05 -0.0039872445750147945 0 -8.2458915571266659e-05 -0.0040178437575413301 0 -9.1699141892976499e-05 -0.0039840973620425936 0 -5.7642074540277469e-05 -0.0039872445750147945 0 -8.2458915571266659e-05 -0.0040178437575413301 0 -0.00011469313592803246 -0.0040234800283948458 0 -9.1699141892976499e-05 -0.0039840973620425936 0 0.00011913709908521 -0.0030968202097731621 0 0.00010960416501232645 -0.0029080955175383558 0 -7.8311085713045429e-05 -0.0027211240624653707 0 0.00011913709908521 -0.0030968202097731621 0 0.00021349447184094937 -0.00276898094450062 0 0.00039730590715791799 -0.002705078039496303 0 5.753638548952851e-06 -0.0033405928607469922 0 0.00022607217069120055 -0.0021243757126957674 0 5.753638548952851e-06 -0.0033405928607469922 0 0.00010518640419851342 -0.0032980854458754595 0 0.00011913709908521 -0.0030968202097731621 0 0.00010960416501232645 -0.0029080955175383558 0 0.00021349447184094937 -0.00276898094450062 0 9.630227426302142e-05 -0.0025835057249934757 0 0.00010323345723968347 -0.0025645441318837203 0 0.00010568695559689026 -0.0025918905077437992 0 0.0001265341828654803 -0.0025693320462083502 0 0.00010323345723968347 -0.0025645441318837203 0 0.00010568695559689026 -0.0025918905077437992 0 7.38289764061317e-05 -0.0025531814888070273 0 9.630227426302142e-05 -0.0025835057249934757 0 0.00010323345723968347 -0.0025645441318837203 0 0.00010984417027619424 -0.0022189365303897281 0 0.00017732891856150795 -0.0018039961745022128 0 0.00010323345723968347 -0.0025645441318837203 0 8.9503104618150311e-05 -0.0025333303821635121 0 0.00011688462373940548 -0.0025446783995340346 0 7.38289764061317e-05 -0.0025531814888070273 0 0.00010323345723968347 -0.0025645441318837203 0 8.9503104618150311e-05 -0.0025333303821635121 0 -8.0777749270765647e-05 -0.0039025450831368523 0 -8.123681150745167e-05 -0.0039119602028802603 0 -0.00010327712460524792 -0.0039435600950844824 0 -6.7641468899376085e-05 -0.003935582298137107 0 -8.123681150745167e-05 -0.0039119602028802603 0 -0.00010327712460524792 -0.0039435600950844824 0 5.753638548952851e-06 -0.0033405928607469922 0 -0.00018512946261481383 -0.0041045018187955877 0 5.753638548952851e-06 -0.0033405928607469922 0 3.0790102015408973e-05 -0.0033793056455608266 0 0.0001265341828654803 -0.0025693320462083502 0 0.00010323345723968347 -0.0025645441318837203 0 0.00011688462373940548 -0.0025446783995340346 0 3.0790102015408973e-05 -0.0033793056455608266 0 6.1279079403821511e-05 -0.0038715052794309744 0 -8.0777749270765647e-05 -0.0039025450831368523 0 -6.8816899644580159e-05 -0.0039241810180975943 0 -8.123681150745167e-05 -0.0039119602028802603 0 -5.2917579797045866e-05 -0.0038812334489093628 0 -0.00010327712460524792 -0.0039435600950844824 0 -0.00010883632705455899 -0.0038879661924479821 0 -0.00010327712460524792 -0.0039435600950844824 0 -0.00013690887903403543 -0.0039275560065179221 0 -0.00010883632705455899 -0.0038879661924479821 0 -0.00017433144378749529 -0.0039446744286020527 0 -0.00013690887903403543 -0.0039275560065179221 0 -0.00016247013496595051 -0.0038639359453769024 0 -0.00010899681678613775 -0.0039929380613343895 0 5.8873111206459098e-05 -0.003869815749085426 0 -0.00013690887903403543 -0.0039275560065179221 0 -0.00016247013496595051 -0.0038639359453769024 0 -0.00010883632705455899 -0.0038879661924479821 0 -2.3441664256919643e-05 -0.0040428960417138613 0 1.8478482136981918e-05 -0.0038886747389770887 0 -3.2497519029610399e-05 -0.0039124671660559609 0 0.00029769705504243934 -0.0037185552374090765 0 0.00029579101419781729 -0.0037254970577177324 0 0.00034721750918218386 -0.0036973433706388508 0 0.00029769705504243934 -0.0037185552374090765 0 0.00030538204651597329 -0.0036950845927389976 0 0.000276938674328948 -0.0037331619235057888 0 0.00029769705504243934 -0.0037185552374090765 0 0.00029562341905875727 -0.0037254233819287324 0 0.000276938674328948 -0.0037331619235057888 0 8.977986638836125e-05 -0.0038161476178736838 0 5.8873111206459098e-05 -0.003869815749085426 0 5.8873111206459098e-05 -0.003869815749085426 0 0.00017088713494713598 -0.0038427637483826951 0 -0.00016247013496595051 -0.0038639359453769024 0 -0.00010883632705455899 -0.0038879661924479821 0 -8.4333276210064458e-05 -0.003819438463313543 0 -5.2917579797045866e-05 -0.0038812334489093628 0 -0.00010883632705455899 -0.0038879661924479821 0 -8.4333276210064458e-05 -0.003819438463313543 0 5.8873111206459098e-05 -0.003869815749085426 0 0.00010518640419851342 -0.0032980854458754595 0 0.00034721750918218386 -0.0036973433706388508 0 0.0003268660608550624 -0.0036933994473023393 0 0.00032952780531436167 -0.0036598258801649667 0 0.00023730763428835214 -0.0029198328862227343 0 -5.9721996081559919e-05 -0.0023629999483048623 0 0.00029038100447282948 -0.0026123263504212045 0 0.00029769705504243934 -0.0037185552374090765 0 0.00034721750918218386 -0.0036973433706388508 0 0.0003268660608550624 -0.0036933994473023393 0 0.00010518640419851342 -0.0032980854458754595 0 0.00031504432367568744 -0.0028534104103419659 0 0.0003268660608550624 -0.0036933994473023393 0 0.00032124013302256733 -0.00367364888730539 0 0.00032952780531436167 -0.0036598258801649667 0 0.0003268660608550624 -0.0036933994473023393 0 0.00031658893556268274 -0.0036908195967912212 0 0.00032124013302256733 -0.00367364888730539 0 0.00034120940123344478 -0.0036327804505636488 0 0.00017088713494713598 -0.0038427637483826951 0 0.00030678806670932996 -0.0036720370645823932 0 0.00024649362255603632 -0.003683535914730118 0 0.00027066779625118862 -0.003772866329708763 0 0.00030538204651597329 -0.0036950845927389976 0 0.00030678806670932996 -0.0036720370645823932 0 0.000276938674328948 -0.0037331619235057888 0 0.00029769705504243934 -0.0037185552374090765 0 0.0003268660608550624 -0.0036933994473023393 0 0.00031658893556268274 -0.0036908195967912212 0 0.00029769705504243934 -0.0037185552374090765 0 0.00030538204651597329 -0.0036950845927389976 0 0.00031658893556268274 -0.0036908195967912212 0 0.00030538204651597329 -0.0036950845927389976 0 0.00031239607200717024 -0.0036829564473003415 0 0.00030678806670932996 -0.0036720370645823932 0 0.00030538204651597329 -0.0036950845927389976 0 0.00031658893556268274 -0.0036908195967912212 0 0.00031239607200717024 -0.0036829564473003415 0 0.00031658893556268274 -0.0036908195967912212 0 0.00031239607200717024 -0.0036829564473003415 0 0.00032124013302256733 -0.00367364888730539 0 0.00028919581832693861 -0.0036414099808508098 0 0.00030678806670932996 -0.0036720370645823932 0 0.00024649362255603632 -0.003683535914730118 0 0.00028919581832693861 -0.0036414099808508098 0 0.00030678806670932996 -0.0036720370645823932 0 0.0003357845636761517 -0.0036607724919661107 0 0.00031239607200717024 -0.0036829564473003415 0 0.00030678806670932996 -0.0036720370645823932 0 0.00032124013302256733 -0.00367364888730539 0 0.00031504432367568744 -0.0028534104103419659 0 0.00041792398298528551 -0.0015005776919685863 0 0.00022688621741507348 -0.0023711980965894696 0 -5.9721996081559919e-05 -0.0023629999483048623 0 0.00042384145827754248 -0.0017561870070273516 0 0.00022688621741507348 -0.0023711980965894696 0 -5.9721996081559919e-05 -0.0023629999483048623 0 0.00029038100447282948 -0.0026123263504212045 0 0.00030678806670932996 -0.0036720370645823932 0 0.00032124013302256733 -0.00367364888730539 0 0.0003357845636761517 -0.0036607724919661107 0 0.00013200974856151029 -0.0033715047236270576 0 0.00031504432367568744 -0.0028534104103419659 0 0.00022688621741507348 -0.0023711980965894696 0 0.00039856187225496533 -0.0023267518406449744 0 0.0005162780859691875 -0.0019799940312039163 0 0.00032127613558444813 -0.0022087151518942784 0 0.00037828041587311464 -0.0015350442233091279 0 0.00033386991076711834 -0.0018069041777160648 0 0.00043163905050307367 -0.001839953090012467 0 0.00033399221325725248 -0.0016606093482536728 0 0.00039856187225496533 -0.0023267518406449744 0 0.00051808075337763694 -0.0025025246045582788 0 0.0005162780859691875 -0.0019799940312039163 0 0.00034024347916140104 -0.0015940679790986832 0 0.00037828041587311464 -0.0015350442233091279 0 0.00022688621741507348 -0.0023711980965894696 0 0.00039856187225496533 -0.0023267518406449744 0 0.00035842311717252246 -0.0024775408044151173 0 0.00039856187225496533 -0.0023267518406449744 0 0.00051808075337763694 -0.0025025246045582788 0 0.00035842311717252246 -0.0024775408044151173 0 0.00022688621741507348 -0.0023711980965894696 0 0.00035842311717252246 -0.0024775408044151173 0 0.00029038100447282948 -0.0026123263504212045 0 0.00051808075337763694 -0.0025025246045582788 0 0.00035842311717252246 -0.0024775408044151173 0 0.00029038100447282948 -0.0026123263504212045 0 0.00023730763428835214 -0.0029198328862227343 0 0.00029038100447282948 -0.0026123263504212045 0 0.00051869212942661674 -0.0027870893666509305 0 0.00032127613558444813 -0.0022087151518942784 0 0.00020925021538115206 -0.0025809292187342178 0 0.00051808075337763694 -0.0025025246045582788 0 0.00029038100447282948 -0.0026123263504212045 0 0.00051869212942661674 -0.0027870893666509305 0 0.00032127613558444813 -0.0022087151518942784 0 0.0002934477092232537 -0.002095453181663768 0 0.00029680378797409461 -0.0022422385917892059 0 0.00029663378261469498 -0.0022813496961799347 0 0.00032367434295029482 -0.0022681631782251435 0 0.00033386991076711834 -0.0018069041777160648 0 0.00038922235753666992 -0.0018601383955138232 0 0.00043163905050307367 -0.001839953090012467 0 0.0002934477092232537 -0.002095453181663768 0 0.00034024347916140104 -0.0015940679790986832 0 0.00020925021538115206 -0.0025809292187342178 0 0.0002934477092232537 -0.002095453181663768 0 0.00010960416501232645 -0.0029080955175383558 0 0.00010648981208199692 -0.0026205339394336871 0 0.00021349447184094937 -0.00276898094450062 0 0.00024341208563140372 -0.0025560998090832223 0 0.00021349447184094937 -0.00276898094450062 0 0.00039730590715791799 -0.002705078039496303 0 0.00010648981208199692 -0.0026205339394336871 0 0.00024341208563140372 -0.0025560998090832223 0 0.00021349447184094937 -0.00276898094450062 0 0.00010518640419851342 -0.0032980854458754595 0 0.00020925021538115206 -0.0025809292187342178 0 0.00013277462980791304 -0.0028634450401048722 0 0.00020925021538115206 -0.0025809292187342178 0 0.00010960416501232645 -0.0029080955175383558 0 -7.8311085713045429e-05 -0.0027211240624653707 0 0.00010845757278489598 -0.002634524574881148 0 0.00031072062757701185 -0.00098481931646499728 0 0.00032680794141419668 -0.001015026530666007 0 0.00029249187692901549 -0.0010283645768110301 0 0.00017732891856150795 -0.0018039961745022128 0 0.0003082178130116818 -0.0016389156877410654 0 0.00017732891856150795 -0.0018039961745022128 0 0.00022607217069120055 -0.0021243757126957674 0 0.00015081159715264218 -0.0017935607627613294 0 0.00033189512634278749 -0.0019660007156279162 0 0.00028461161531661286 -0.0020324321633596182 0 0.00022607217069120055 -0.0021243757126957674 0 0.0003082178130116818 -0.0016389156877410654 0 0.00034712751114298273 -0.0019110891455111799 0 0.00021383884212936786 -0.0017835575574885387 0 0.00018527900416664148 -0.0018235495401632564 0 0.00034712751114298273 -0.0019110891455111799 0 0.00018527900416664148 -0.0018235495401632564 0 0.00025722696844896446 -0.0019524247947196342 0 0.00027548290789671946 -0.0015123096705076664 0 0.00018030947989482104 -0.0013406012096855188 0 0.00050472560110154249 -0.0011869840322849545 0 0.0003082178130116818 -0.0016389156877410654 0 0.00034024347916140104 -0.0015940679790986832 0 0.0002934477092232537 -0.002095453181663768 0 0.00022607217069120055 -0.0021243757126957674 0 0.0003082178130116818 -0.0016389156877410654 0 0.00038375431880560565 -0.00088461770750720926 0 0.00032680794141419668 -0.001015026530666007 0 0.00029249187692901549 -0.0010283645768110301 0 0.00029164920374782048 -0.0010615276038909568 0 0.00034024347916140104 -0.0015940679790986832 0 0.00038375431880560565 -0.00088461770750720926 0 0.00039685608016190908 -0.0011510854403808375 0 0.0003857783502598845 -0.0011534795655176319 0 0.00040702686914471779 -0.0011686535629297991 0 0.00038384315389228371 -0.0011555857632105184 0 0.0003857783502598845 -0.0011534795655176319 0 0.00040702686914471779 -0.0011686535629297991 0 0.00049638107606791526 -0.00053129583261326662 0 0.00035704957298194159 -0.0011283190943894344 0 0.00052067961932175308 -0.00018747034582502245 0 0.00056450346927049003 -0.00020185667246759483 0 0.0005447399255078736 -0.00021356264415172346 0 0.00056450346927049003 -0.00020185667246759483 0 0.00061958196946019237 -0.00022828249712223377 0 0.00055858934891516864 -0.00024084942002439101 0 0.00051631150502546674 -0.00013860177682783971 0 0.00056450346927049003 -0.00020185667246759483 0 0.00061930477493917543 -0.0002073138469332716 0 0.00051631150502546674 -0.00013860177682783971 0 0.00052067961932175308 -0.00018747034582502245 0 0.00056450346927049003 -0.00020185667246759483 0 0.00056450346927049003 -0.00020185667246759483 0 0.0005447399255078736 -0.00021356264415172346 0 0.00055858934891516864 -0.00024084942002439101 0 0.00050811262550255081 -0.00022081374989940615 0 0.00052067961932175308 -0.00018747034582502245 0 0.0005447399255078736 -0.00021356264415172346 0 0.00050811262550255081 -0.00022081374989940615 0 0.0005447399255078736 -0.00021356264415172346 0 0.00055858934891516864 -0.00024084942002439101 0 0.00022688621741507348 -0.0023711980965894696 0 0.0005162780859691875 -0.0019799940312039163 0 0.00042384145827754248 -0.0017561870070273516 0 0.00038384315389228371 -0.0011555857632105184 0 0.00040702686914471779 -0.0011686535629297991 0 0.00040704843849388597 -0.0011731618930207049 0 0.00037828041587311464 -0.0015350442233091279 0 0.00035704957298194159 -0.0011283190943894344 0 0.00037828041587311464 -0.0015350442233091279 0 0.00041792398298528551 -0.0015005776919685863 0 0.00034306138989236517 -0.0014328604716492583 0 0.00034336603912204025 -0.0013714358937248915 0 0.00031040732395280665 -0.0013509904251411439 0 0.00056450346927049003 -0.00020185667246759483 0 0.00061930477493917543 -0.0002073138469332716 0 0.00061958196946019237 -0.00022828249712223377 0 0.0003268735838786004 -0.0017670789607980312 0 0.00034561323715063435 -0.0017555620832335466 0 0.00037774229054262233 -0.0018153424070581651 0 0.00035704957298194159 -0.0011283190943894344 0 0.00044698684854373345 -0.0013203913563347089 0 0.00046241437334612249 -0.0014020005056288743 0 0.00042981905022055743 -0.0013822889477049267 0 0.00046245934044552537 -0.0013420245760046373 0 0.00033911674863797657 -0.0017513393656487578 0 0.0003268735838786004 -0.0017670789607980312 0 0.00034561323715063435 -0.0017555620832335466 0 0.00035704957298194159 -0.0011283190943894344 0 0.00041792398298528551 -0.0015005776919685863 0 0.00041792398298528551 -0.0015005776919685863 0 0.00044698684854373345 -0.0013203913563347089 0 0.00047555171491760493 -0.0016681523737586846 0 0.00045249432257235116 -0.001628609669400993 0 0.00041792398298528551 -0.0015005776919685863 0 0.00045249432257235116 -0.001628609669400993 0 0.00033567217211523094 -0.0016864707026113404 0 0.0002481617048468804 -0.0017980265380222876 0 0.00032333800540783786 -0.0018955240102786521 0 0.0003268735838786004 -0.0017670789607980312 0 0.00032333800540783786 -0.0018955240102786521 0 0.0003631711721650979 -0.0018609570495269031 0 0.0003268735838786004 -0.0017670789607980312 0 0.0003631711721650979 -0.0018609570495269031 0 0.00037774229054262233 -0.0018153424070581651 0 0.00044698684854373345 -0.0013203913563347089 0 0.00029212819573486663 -0.0020665544045524466 0 0.00044698684854373345 -0.0013203913563347089 0 0.00043671146516177173 -0.0010002335516002402 0 0.00061958196946019237 -0.00022828249712223377 0 0.00055858934891516864 -0.00024084942002439101 0 0.00057470644420241001 -0.00029098687211821838 0 0.00050755221182553203 -0.0002729883201207622 0 0.00055858934891516864 -0.00024084942002439101 0 0.00057470644420241001 -0.00029098687211821838 0 0.00050755221182553203 -0.0002729883201207622 0 0.00050811262550255081 -0.00022081374989940615 0 0.00055858934891516864 -0.00024084942002439101 0 0.00050755221182553203 -0.0002729883201207622 0 0.00052388851969620363 -0.00037619596317903367 0 0.00057470644420241001 -0.00029098687211821838 0 0.000186083651101602 -0.0018891668997050766 0 0.0002481617048468804 -0.0017980265380222876 0 0.0002506146777468058 -0.0019264996470763605 0 0.00036718195189249344 -0.0011021156084660927 0 0.00043671146516177173 -0.0010002335516002402 0 0.0002481617048468804 -0.0017980265380222876 0 0.00032333800540783786 -0.0018955240102786521 0 0.0002506146777468058 -0.0019264996470763605 0 0.00032333800540783786 -0.0018955240102786521 0 0.00031131282409210451 -0.0019734876074843865 0 0.00037933830077810512 -0.001939825372039758 0 0.00032333800540783786 -0.0018955240102786521 0 0.00031131282409210451 -0.0019734876074843865 0 0.0002506146777468058 -0.0019264996470763605 0 0.000196311955838247 -0.0019491683321923828 0 0.0002506146777468058 -0.0019264996470763605 0 0.00022367001115512894 -0.0020039632993118827 0 0.00031131282409210451 -0.0019734876074843865 0 0.0002506146777468058 -0.0019264996470763605 0 0.00022367001115512894 -0.0020039632993118827 0 0.000186083651101602 -0.0018891668997050766 0 0.000196311955838247 -0.0019491683321923828 0 0.0002506146777468058 -0.0019264996470763605 0 0.00031131282409210451 -0.0019734876074843865 0 0.00037933830077810512 -0.001939825372039758 0 0.00039651328862587058 -0.0020200581256524042 0 0.00045631614908510777 -0.0019731896124846136 0 0.00037933830077810512 -0.001939825372039758 0 0.00039651328862587058 -0.0020200581256524042 0 0.00045631614908510777 -0.0019731896124846136 0 0.00037933830077810512 -0.001939825372039758 0 0.00041461425028662817 -0.0018899035472147384 0 0.00037933830077810512 -0.001939825372039758 0 0.0003631711721650979 -0.0018609570495269031 0 0.00041461425028662817 -0.0018899035472147384 0 0.00032333800540783786 -0.0018955240102786521 0 0.00037933830077810512 -0.001939825372039758 0 0.0003631711721650979 -0.0018609570495269031 0 0.00041461425028662817 -0.0018899035472147384 0 0.00043044418701192877 -0.0018839431938016647 0 0.00050104029465336834 -0.0019202234785419743 0 0.00045631614908510777 -0.0019731896124846136 0 0.00041461425028662817 -0.0018899035472147384 0 0.00050104029465336834 -0.0019202234785419743 0 0.00038340731322431372 -0.0027139088802346349 0 0.00037644985432289167 -0.0026649098398647286 0 0.00043044418701192877 -0.0018839431938016647 0 0.00043417891138732684 -0.0018787753920781046 0 0.00050104029465336834 -0.0019202234785419743 0 0.00043044418701192877 -0.0018839431938016647 0 0.00043417891138732684 -0.0018787753920781046 0 0.00043337537031775341 -0.0018858811815565789 0 0.0003631711721650979 -0.0018609570495269031 0 0.00041461425028662817 -0.0018899035472147384 0 0.00037774229054262233 -0.0018153424070581651 0 0.00041344887718142002 -0.0018778316006406129 0 0.00042109145222013684 -0.0018673937611804752 0 0.00041461425028662817 -0.0018899035472147384 0 0.00043044418701192877 -0.0018839431938016647 0 0.00043134361211044186 -0.0018830823625924434 0 0.00043044418701192877 -0.0018839431938016647 0 0.00043134361211044186 -0.0018830823625924434 0 0.00043337537031775341 -0.0018858811815565789 0 0.00044062060460220659 -0.0018873361758559423 0 0.00043134361211044186 -0.0018830823625924434 0 0.00043337537031775341 -0.0018858811815565789 0 0.00045249432257235116 -0.001628609669400993 0 0.00042109145222013684 -0.0018673937611804752 0 0.00042974689157075229 -0.0019153735951068936 0 0.00044062060460220659 -0.0018873361758559423 0 0.00043337537031775341 -0.0018858811815565789 0 0.00042974689157075229 -0.0019153735951068936 0 0.00044544978500985004 -0.0018903437476090576 0 0.00044382108378288358 -0.0018893252766872036 0 0.00042974689157075229 -0.0019153735951068936 0 0.00044062060460220659 -0.0018873361758559423 0 0.00044382108378288358 -0.0018893252766872036 0 0.00042974689157075229 -0.0019153735951068936 0 0.00043417891138732684 -0.0018787753920781046 0 0.00043337537031775341 -0.0018858811815565789 0 0.00044062060460220659 -0.0018873361758559423 0 0.00044360696754808943 -0.0018875844279172794 0 0.00043134361211044186 -0.0018830823625924434 0 0.00028919581832693861 -0.0036414099808508098 0 0.00031541642281008962 -0.0035750331434756285 0 0.00023278075012519485 -0.0036029481274469405 0 0.00031504432367568744 -0.0028534104103419659 0 0.00038340731322431372 -0.0027139088802346349 0 0.00028919581832693861 -0.0036414099808508098 0 0.0003357845636761517 -0.0036607724919661107 0 0.00031541642281008962 -0.0035750331434756285 0 0.00011837331396376384 -0.0037299258344590221 0 0.00013847365840923874 -0.0036110263737246157 0 4.8232515382679813e-05 -0.003584816425349047 0 0.00023278075012519485 -0.0036029481274469405 0 0.00011837331396376384 -0.0037299258344590221 0 0.00013847365840923874 -0.0036110263737246157 0 0.00013847365840923874 -0.0036110263737246157 0 0.00013569989047902792 -0.0035003498721692173 0 4.8232515382679813e-05 -0.003584816425349047 0 0.00023278075012519485 -0.0036029481274469405 0 0.00013847365840923874 -0.0036110263737246157 0 0.00013569989047902792 -0.0035003498721692173 0 0.00013569989047902792 -0.0035003498721692173 0 4.0707801370789824e-05 -0.0034646804295511663 0 4.8232515382679813e-05 -0.003584816425349047 0 0.00031541642281008962 -0.0035750331434756285 0 0.00023278075012519485 -0.0036029481274469405 0 0.00024827550605791688 -0.0033907401816800835 0 0.00023278075012519485 -0.0036029481274469405 0 0.00013569989047902792 -0.0035003498721692173 0 0.00024827550605791688 -0.0033907401816800835 0 0.00013569989047902792 -0.0035003498721692173 0 9.3386454654710409e-05 -0.0033522564699548954 0 4.0707801370789824e-05 -0.0034646804295511663 0 0.00013569989047902792 -0.0035003498721692173 0 0.00024827550605791688 -0.0033907401816800835 0 9.3386454654710409e-05 -0.0033522564699548954 0 0.00024827550605791688 -0.0033907401816800835 0 9.3386454654710409e-05 -0.0033522564699548954 0 0.00014383367318437034 -0.0031821200446350679 0 9.3386454654710409e-05 -0.0033522564699548954 0 4.3015259572719202e-05 -0.0031711263219374153 0 0.00014383367318437034 -0.0031821200446350679 0 0.00045631614908510777 -0.0019731896124846136 0 0.00050104029465336834 -0.0019202234785419743 0 0.00057837144334600969 -0.0020343230406076377 0 0.00037644985432289167 -0.0026649098398647286 0 0.00034190746131906337 -0.0025840674182658306 0 -0.00013435065718849775 -0.003928799467060479 0 -0.00014239884633297868 -0.0039047356345376237 0 -0.00014629871000222132 -0.0039328992546002611 0 -0.00013695264197230919 -0.0039698684797441633 0 -0.00014847070821932338 -0.003965812187067058 0 -0.00013764858019001114 -0.0040106547451710627 0 -0.0001541207919683838 -0.0040264298371468369 0 -0.00015050643132592868 -0.0040185096920819282 0 -0.00013764858019001114 -0.0040106547451710627 0 -0.00014802226832878897 -0.0040124050827745599 0 -0.00015050643132592868 -0.0040185096920819282 0 -0.00013764858019001114 -0.0040106547451710627 0 -0.00014802226832878897 -0.0040124050827745599 0 -0.00014800556831079349 -0.0040049435771864735 0 9.9020885487296494e-06 -0.003316484018174646 0 4.3015259572719202e-05 -0.0031711263219374153 0 -3.3111007471067339e-05 -0.0032143359359589649 0 9.9020885487296494e-06 -0.003316484018174646 0 -7.4862125546410754e-05 -0.0034434912517193649 0 -3.3111007471067339e-05 -0.0032143359359589649 0 -0.0001031731773317342 -0.0036620221905832445 0 -0.00012481645258265284 -0.0036265421271956351 0 9.3386454654710409e-05 -0.0033522564699548954 0 9.9020885487296494e-06 -0.003316484018174646 0 4.3015259572719202e-05 -0.0031711263219374153 0 9.9020885487296494e-06 -0.003316484018174646 0 1.605693348918673e-05 -0.0033892674087550997 0 -7.4862125546410754e-05 -0.0034434912517193649 0 9.3386454654710409e-05 -0.0033522564699548954 0 9.9020885487296494e-06 -0.003316484018174646 0 1.605693348918673e-05 -0.0033892674087550997 0 9.3386454654710409e-05 -0.0033522564699548954 0 1.605693348918673e-05 -0.0033892674087550997 0 4.0707801370789824e-05 -0.0034646804295511663 0 1.605693348918673e-05 -0.0033892674087550997 0 4.0707801370789824e-05 -0.0034646804295511663 0 -7.4862125546410754e-05 -0.0034434912517193649 0 -0.00013435065718849775 -0.003928799467060479 0 -0.00014239884633297868 -0.0039047356345376237 0 -0.00014278876581829629 -0.003905123494371685 0 -0.00014847070821932338 -0.003965812187067058 0 -0.00016432079050157186 -0.0039727454027833741 0 -0.00014239884633297868 -0.0039047356345376237 0 -0.00014278876581829629 -0.003905123494371685 0 -0.00014336162973376521 -0.0039245491597236105 0 -0.0001031731773317342 -0.0036620221905832445 0 -0.00013300507344930179 -0.0038128329059553272 0 -7.4862125546410754e-05 -0.0034434912517193649 0 -4.6865754962891586e-05 -0.003608089721598472 0 -0.00012361864290446519 -0.0036898602220574528 0 -7.4862125546410754e-05 -0.0034434912517193649 0 -7.9858709519059198e-06 -0.0035251131734199536 0 -4.6865754962891586e-05 -0.003608089721598472 0 4.0707801370789824e-05 -0.0034646804295511663 0 -7.9858709519059198e-06 -0.0035251131734199536 0 4.8232515382679813e-05 -0.003584816425349047 0 4.0707801370789824e-05 -0.0034646804295511663 0 -7.4862125546410754e-05 -0.0034434912517193649 0 -7.9858709519059198e-06 -0.0035251131734199536 0 -7.9858709519059198e-06 -0.0035251131734199536 0 4.8232515382679813e-05 -0.003584816425349047 0 -4.6865754962891586e-05 -0.003608089721598472 0 0.00011837331396376384 -0.0037299258344590221 0 4.8232515382679813e-05 -0.003584816425349047 0 -6.6520825951808355e-06 -0.0037129882273474854 0 4.8232515382679813e-05 -0.003584816425349047 0 -4.6865754962891586e-05 -0.003608089721598472 0 -6.6520825951808355e-06 -0.0037129882273474854 0 -4.6865754962891586e-05 -0.003608089721598472 0 -6.6520825951808355e-06 -0.0037129882273474854 0 -0.00012361864290446519 -0.0036898602220574528 0 -6.6520825951808355e-06 -0.0037129882273474854 0 -0.00012361864290446519 -0.0036898602220574528 0 -6.466433981905922e-05 -0.0038188319921322223 0 -0.00014278876581829629 -0.003905123494371685 0 -0.00014336162973376521 -0.0039245491597236105 0 -0.00015743898014369473 -0.0039227645405983183 0 -0.00014336162973376521 -0.0039245491597236105 0 -0.00015285290439233335 -0.0039496420409955366 0 -0.00015743898014369473 -0.0039227645405983183 0 -0.00014336162973376521 -0.0039245491597236105 0 -0.00015285290439233335 -0.0039496420409955366 0 -0.00014375225457251208 -0.0039746801300536861 0 -0.00012361864290446519 -0.0036898602220574528 0 -0.00014375225457251208 -0.0039746801300536861 0 -6.466433981905922e-05 -0.0038188319921322223 0 -0.00013300507344930179 -0.0038128329059553272 0 -0.00014493113490164725 -0.0039639261184724345 0 -0.00015285290439233335 -0.0039496420409955366 0 -0.00015858036466163568 -0.0039705517892025931 0 -0.0001626859414775657 -0.0039590405253525553 0 -0.00015285290439233335 -0.0039496420409955366 0 -0.00015858036466163568 -0.0039705517892025931 0 -0.00014375225457251208 -0.0039746801300536861 0 -0.00015858036466163568 -0.0039705517892025931 0 -0.00016119003771463092 -0.0039918460751473192 0 -0.00014375225457251208 -0.0039746801300536861 0 -0.00014375225457251208 -0.0039746801300536861 0 -5.6510731891291001e-05 -0.0039285284326671006 0 -6.466433981905922e-05 -0.0038188319921322223 0 -8.7354725643577918e-05 -0.0040136609488796559 0 -0.00014375225457251208 -0.0039746801300536861 0 -5.6510731891291001e-05 -0.0039285284326671006 0 -8.7354725643577918e-05 -0.0040136609488796559 0 -0.00014331684042092214 -0.0040207861379802264 0 -0.00014375225457251208 -0.0039746801300536861 0 -0.00014331684042092214 -0.0040207861379802264 0 -0.00016119003771463092 -0.0039918460751473192 0 -0.00014375225457251208 -0.0039746801300536861 0 -1.3834033038136292e-05 -0.0039839817706569091 0 6.186367240927797e-05 -0.0039440532856716204 0 5.770968437580097e-05 -0.0040556007227852816 0 -8.7354725643577918e-05 -0.0040136609488796559 0 -1.3834033038136292e-05 -0.0039839817706569091 0 -5.6510731891291001e-05 -0.0039285284326671006 0 -1.3834033038136292e-05 -0.0039839817706569091 0 -5.6510731891291001e-05 -0.0039285284326671006 0 2.420143532733403e-05 -0.0038532048151197302 0 -1.3834033038136292e-05 -0.0039839817706569091 0 2.420143532733403e-05 -0.0038532048151197302 0 6.186367240927797e-05 -0.0039440532856716204 0 -5.6510731891291001e-05 -0.0039285284326671006 0 2.420143532733403e-05 -0.0038532048151197302 0 -6.466433981905922e-05 -0.0038188319921322223 0 -6.6520825951808355e-06 -0.0037129882273474854 0 2.420143532733403e-05 -0.0038532048151197302 0 -6.466433981905922e-05 -0.0038188319921322223 0 0.00011837331396376384 -0.0037299258344590221 0 -6.6520825951808355e-06 -0.0037129882273474854 0 2.420143532733403e-05 -0.0038532048151197302 0 0.00011837331396376384 -0.0037299258344590221 0 0.00025465955632727116 -0.0038743377678033901 0 0.00013151421528407692 -0.0038946496580004012 0 0.00011837331396376384 -0.0037299258344590221 0 2.420143532733403e-05 -0.0038532048151197302 0 0.00013151421528407692 -0.0038946496580004012 0 0.00028919581832693861 -0.0036414099808508098 0 0.00023278075012519485 -0.0036029481274469405 0 0.00024649362255603632 -0.003683535914730118 0 0.00022951220463203112 -0.0036183054343229032 0 0.0002703869511381562 -0.0037609265739280578 0 0.00023278075012519485 -0.0036029481274469405 0 0.00011837331396376384 -0.0037299258344590221 0 0.00025465955632727116 -0.0038743377678033901 0 0.00025465955632727116 -0.0038743377678033901 0 0.00018096572496707772 -0.0039498351287002766 0 0.00020397769581033409 -0.0040280686861254109 0 0.00025465955632727116 -0.0038743377678033901 0 0.00020397769581033409 -0.0040280686861254109 0 0.00025504918990001496 -0.0041092807377325373 0 0.0002703869511381562 -0.0037609265739280578 0 9.1599227355097085e-05 -0.0040157555836674921 0 2.420143532733403e-05 -0.0038532048151197302 0 6.186367240927797e-05 -0.0039440532856716204 0 0.00013151421528407692 -0.0038946496580004012 0 0.00025465955632727116 -0.0038743377678033901 0 0.00013151421528407692 -0.0038946496580004012 0 0.00018096572496707772 -0.0039498351287002766 0 0.00013151421528407692 -0.0038946496580004012 0 0.00018096572496707772 -0.0039498351287002766 0 0.00013392402445601333 -0.0040012081900392682 0 0.00018096572496707772 -0.0039498351287002766 0 0.00013392402445601333 -0.0040012081900392682 0 0.00020397769581033409 -0.0040280686861254109 0 6.186367240927797e-05 -0.0039440532856716204 0 0.00013392402445601333 -0.0040012081900392682 0 5.770968437580097e-05 -0.0040556007227852816 0 6.186367240927797e-05 -0.0039440532856716204 0 0.00013151421528407692 -0.0038946496580004012 0 0.00013392402445601333 -0.0040012081900392682 0 0.00014451437422974216 -0.0040808305407663203 0 0.00025504918990001496 -0.0041092807377325373 0 8.0662694940954359e-05 -0.0041809962895287493 0 0.00014451437422974216 -0.0040808305407663203 0 8.0662694940954359e-05 -0.0041809962895287493 0 5.770968437580097e-05 -0.0040556007227852816 0 0.00013392402445601333 -0.0040012081900392682 0 0.00014451437422974216 -0.0040808305407663203 0 5.770968437580097e-05 -0.0040556007227852816 0 0.00013392402445601333 -0.0040012081900392682 0 0.00014451437422974216 -0.0040808305407663203 0 0.00020397769581033409 -0.0040280686861254109 0 0.00024649362255603632 -0.003683535914730118 0 0.00024791719752399429 -0.0037838844538359783 0 0.00027066779625118862 -0.003772866329708763 0 0.00014451437422974216 -0.0040808305407663203 0 0.00020397769581033409 -0.0040280686861254109 0 0.00025504918990001496 -0.0041092807377325373 0 2.7332524497165842e-07 -0.0039616707929330478 0 0.0001189396140036609 -0.0039062383854170787 0 1.0548574584304481e-05 -0.0041789272263926822 0 9.1599227355097085e-05 -0.0040157555836674921 0 0.00017088713494713598 -0.0038427637483826951 0 -2.3441664256919643e-05 -0.0040428960417138613 0 -3.2497519029610399e-05 -0.0039124671660559609 0 -7.1274419873949881e-05 -0.0040084556873150176 0 -0.00010982724754758912 -0.0042503712649245799 0 -0.00011128003690324903 -0.00424438452373011 0 -9.6622023625336521e-05 -0.0042467716963465393 0 0.00017088713494713598 -0.0038427637483826951 0 -7.5473751419830439e-05 -0.0042020121806375594 0 9.1599227355097085e-05 -0.0040157555836674921 0 -7.5473751419830439e-05 -0.0042020121806375594 0 -0.00010025132404893086 -0.0042374937373682309 0 -0.00011128003690324903 -0.00424438452373011 0 -9.6622023625336521e-05 -0.0042467716963465393 0 9.1599227355097085e-05 -0.0040157555836674921 0 -1.9913720839340658e-05 -0.0042323209986046949 0 -8.6760073391671893e-05 -0.0042351700440435491 0 -0.00010025132404893086 -0.0042374937373682309 0 -9.6622023625336521e-05 -0.0042467716963465393 0 -7.6286726285175197e-05 -0.0042336741022521553 0 8.0662694940954359e-05 -0.0041809962895287493 0 -4.5383650985690317e-05 -0.0041749679526416434 0 -6.4253132575609355e-05 -0.0042283573715941577 0 -1.9913720839340658e-05 -0.0042323209986046949 0 8.0662694940954359e-05 -0.0041809962895287493 0 -4.5383650985690317e-05 -0.0041749679526416434 0 -3.6983108475523867e-05 -0.0040904636566141796 0 -7.6286726285175197e-05 -0.0042336741022521553 0 -8.6760073391671893e-05 -0.0042351700440435491 0 -9.6622023625336521e-05 -0.0042467716963465393 0 -7.6286726285175197e-05 -0.0042336741022521553 0 -4.5383650985690317e-05 -0.0041749679526416434 0 -7.4553597652462367e-05 -0.0042058749568486421 0 -7.6286726285175197e-05 -0.0042336741022521553 0 -8.7121075730287528e-05 -0.0042245967886666864 0 -7.4553597652462367e-05 -0.0042058749568486421 0 -8.7121075730287528e-05 -0.0042245967886666864 0 -8.805177477621763e-05 -0.0041878948702117587 0 -7.4553597652462367e-05 -0.0042058749568486421 0 -4.5383650985690317e-05 -0.0041749679526416434 0 -8.805177477621763e-05 -0.0041878948702117587 0 -7.4553597652462367e-05 -0.0042058749568486421 0 -8.7121075730287528e-05 -0.0042245967886666864 0 -8.805177477621763e-05 -0.0041878948702117587 0 -0.00013660174884796883 -0.0042012798949375065 0 -8.805177477621763e-05 -0.0041878948702117587 0 -0.00013660174884796883 -0.0042012798949375065 0 -0.00011101437463978571 -0.0041410844950554998 0 -0.00013660174884796883 -0.0042012798949375065 0 -0.00011101437463978571 -0.0041410844950554998 0 -0.00019213127541526948 -0.0041783188387112978 0 -4.5383650985690317e-05 -0.0041749679526416434 0 -0.00011101437463978571 -0.0041410844950554998 0 -3.6983108475523867e-05 -0.0040904636566141796 0 -4.5383650985690317e-05 -0.0041749679526416434 0 -8.805177477621763e-05 -0.0041878948702117587 0 -0.00011101437463978571 -0.0041410844950554998 0 -0.00011101437463978571 -0.0041410844950554998 0 -0.00011707707427810974 -0.0040705284355523228 0 -3.6983108475523867e-05 -0.0040904636566141796 0 -0.00011101437463978571 -0.0041410844950554998 0 -0.00011707707427810974 -0.0040705284355523228 0 -0.00016825499825397954 -0.0041040574731817268 0 -0.00011707707427810974 -0.0040705284355523228 0 -0.00016281351334223362 -0.0040606957777557457 0 -0.00016825499825397954 -0.0041040574731817268 0 -8.7354725643577918e-05 -0.0040136609488796559 0 -0.00014331684042092214 -0.0040207861379802264 0 -0.00011707707427810974 -0.0040705284355523228 0 -0.00014331684042092214 -0.0040207861379802264 0 -0.00011707707427810974 -0.0040705284355523228 0 -0.00016281351334223362 -0.0040606957777557457 0 -8.7354725643577918e-05 -0.0040136609488796559 0 -0.00011707707427810974 -0.0040705284355523228 0 -3.6983108475523867e-05 -0.0040904636566141796 0 8.0662694940954359e-05 -0.0041809962895287493 0 5.770968437580097e-05 -0.0040556007227852816 0 -3.6983108475523867e-05 -0.0040904636566141796 0 -8.7354725643577918e-05 -0.0040136609488796559 0 -1.3834033038136292e-05 -0.0039839817706569091 0 -3.6983108475523867e-05 -0.0040904636566141796 0 -1.3834033038136292e-05 -0.0039839817706569091 0 5.770968437580097e-05 -0.0040556007227852816 0 -3.6983108475523867e-05 -0.0040904636566141796 0 -0.00023102119460439633 -0.0040224850781278958 0 -0.00016529422919883579 -0.0040850521647253458 0 -0.00028401879362777529 -0.004112122741809286 0 -0.00027493796443361337 -0.0040397793575017446 0 -0.0003706314705021152 -0.0041199541355911064 0 -0.00016328819190088715 -0.0039954537050684085 0 -0.00015621400201552187 -0.0039987051943317078 0 -0.00015728688480094198 -0.0039997971357890513 0 -0.00028401879362777529 -0.004112122741809286 0 -0.00027493796443361337 -0.0040397793575017446 0 -0.00021880862270417514 -0.0040788945268926914 0 -0.00027493796443361337 -0.0040397793575017446 0 -0.00021880862270417514 -0.0040788945268926914 0 -0.0001847062105972769 -0.0040275148429055902 0 -0.00014331684042092214 -0.0040207861379802264 0 -0.00016281351334223362 -0.0040606957777557457 0 -0.0001847062105972769 -0.0040275148429055902 0 -0.00016281351334223362 -0.0040606957777557457 0 -0.00021880862270417514 -0.0040788945268926914 0 -0.0001847062105972769 -0.0040275148429055902 0 -0.00016281351334223362 -0.0040606957777557457 0 -0.00016825499825397954 -0.0041040574731817268 0 -0.00021880862270417514 -0.0040788945268926914 0 -0.00016825499825397954 -0.0041040574731817268 0 -0.00021880862270417514 -0.0040788945268926914 0 -0.00023465651891924725 -0.0041323069481098811 0 -0.00028401879362777529 -0.004112122741809286 0 -0.00021880862270417514 -0.0040788945268926914 0 -0.00023465651891924725 -0.0041323069481098811 0 -0.00021039457998728764 -0.0042793836712783804 0 -0.00019213127541526948 -0.0041783188387112978 0 -0.00029062334477737462 -0.0041985428214398367 0 -0.00023465651891924725 -0.0041323069481098811 0 -0.00019213127541526948 -0.0041783188387112978 0 -0.00029062334477737462 -0.0041985428214398367 0 -0.00021039457998728764 -0.0042793836712783804 0 -0.00013660174884796883 -0.0042012798949375065 0 -0.00019213127541526948 -0.0041783188387112978 0 -0.00016825499825397954 -0.0041040574731817268 0 -0.00023465651891924725 -0.0041323069481098811 0 -0.00019213127541526948 -0.0041783188387112978 0 -0.00011101437463978571 -0.0041410844950554998 0 -0.00016825499825397954 -0.0041040574731817268 0 -0.00019213127541526948 -0.0041783188387112978 0 -0.00028401879362777529 -0.004112122741809286 0 -0.00023465651891924725 -0.0041323069481098811 0 -0.00029062334477737462 -0.0041985428214398367 0 -0.00015277225801977465 -0.0042607752522058531 0 -0.00016529422919883579 -0.0040850521647253458 0 -0.00028401879362777529 -0.004112122741809286 0 -0.00029062334477737462 -0.0041985428214398367 0 -0.0003706314705021152 -0.0041199541355911064 0 -0.00020018105888489101 -0.0042722490307118294 0 -0.00016529422919883579 -0.0040850521647253458 0 -0.0001685327141917728 -0.0040278288455265435 0 -0.00014812291764291967 -0.0040068237135821357 0 -0.00015359581219748415 -0.0040012407419763099 0 -0.00011740164984368091 -0.0043346065746977594 0 -2.1831281607811721e-05 -0.0043097392452135126 0 -9.2936852495952282e-05 -0.0042414131885140293 0 -0.00021281309057211351 -0.0043437910625758747 0 -0.00011740164984368091 -0.0043346065746977594 0 -9.2936852495952282e-05 -0.0042414131885140293 0 -0.00020740714468943874 -0.0043677619383198909 0 -0.0001731157147195921 -0.0042033039573884119 0 -0.00024443618186546274 -0.0042595835708965565 0 -0.00020018105888489101 -0.0042722490307118294 0 -0.00016265043073389205 -0.0040833312614947746 0 -0.0001685327141917728 -0.0040278288455265435 0 -0.00015824157223857333 -0.0039987472434218898 0 -0.00015359581219748415 -0.0040012407419763099 0 -0.0001731157147195921 -0.0042033039573884119 0 -0.00019120995102404033 -0.0040919569302291202 0 -0.00024443618186546274 -0.0042595835708965565 0 -0.00010021942550689885 -0.0045489001317953141 0 -0.00012950563984501353 -0.0046043167528190083 0 -0.00015621400201552187 -0.0039987051943317078 0 -0.00015359581219748415 -0.0040012407419763099 0 -0.00015728688480094198 -0.0039997971357890513 0 -0.00016529422919883579 -0.0040850521647253458 0 -0.00017765868190352591 -0.0040362569354062622 0 -0.00015359581219748415 -0.0040012407419763099 0 -0.00015586763333895283 -0.0040004539675602361 0 -0.00015728688480094198 -0.0039997971357890513 0 -0.00015824157223857333 -0.0039987472434218898 0 -0.00015359581219748415 -0.0040012407419763099 0 -0.00015586763333895283 -0.0040004539675602361 0 -0.00015824157223857333 -0.0039987472434218898 0 -0.00015586763333895283 -0.0040004539675602361 0 -0.00015575061991769074 -0.0040040655106537773 0 -0.00015728688480094198 -0.0039997971357890513 0 -0.00015575061991769074 -0.0040040655106537773 0 -0.00015939855409286655 -0.0040005575019113919 0 -0.00015824157223857333 -0.0039987472434218898 0 -0.00015575061991769074 -0.0040040655106537773 0 -0.00014880717639212084 -0.0040177031711624896 0 -0.00015586763333895283 -0.0040004539675602361 0 -0.00015728688480094198 -0.0039997971357890513 0 -0.00015575061991769074 -0.0040040655106537773 0 -0.00015575061991769074 -0.0040040655106537773 0 -0.00015685751180381799 -0.004008802336944832 0 -0.00015939855409286655 -0.0040005575019113919 0 -0.00016265043073389205 -0.0040833312614947746 0 -0.00015125013681284335 -0.0040307134636710842 0 -0.0001731157147195921 -0.0042033039573884119 0 -0.00019120995102404033 -0.0040919569302291202 0 -0.00014880717639212084 -0.0040177031711624896 0 -1.7413449397733518e-07 -0.0049863281504274569 0 -3.4804528243577045e-06 -0.0049885034194331879 0 -6.3884569951377842e-06 -0.0049870453904391453 0 -1.7413449397733518e-07 -0.0049863281504274569 0 -2.4898196320612269e-06 -0.0049873409703871116 0 -3.4804528243577045e-06 -0.0049885034194331879 0 -1.7413449397733518e-07 -0.0049863281504274569 0 3.8842934740348224e-06 -0.004982051061832732 0 -2.4898196320612269e-06 -0.0049873409703871116 0 3.8842934740348224e-06 -0.004982051061832732 0 3.2906689795033797e-07 -0.004983084104233983 0 -2.4898196320612269e-06 -0.0049873409703871116 0 -0.00010021942550689885 -0.0045489001317953141 0 -0.00010144693513536922 -0.0044115545117147676 0 -0.00019120995102404033 -0.0040919569302291202 0 -0.00015462318291072346 -0.0040138124704496682 0 -0.00014880717639212084 -0.0040177031711624896 0 -0.00015575061991769074 -0.0040040655106537773 0 -0.00015685751180381799 -0.004008802336944832 0 -0.00014880717639212084 -0.0040177031711624896 0 -0.00014880717639212084 -0.0040177031711624896 0 -0.00015679632417528515 -0.004018375720429096 0 -0.00015460930894677457 -0.0040242123338806784 0 -0.00015462318291072346 -0.0040138124704496682 0 -0.00014880717639212084 -0.0040177031711624896 0 -0.00015460930894677457 -0.0040242123338806784 0 -0.00015685751180381799 -0.004008802336944832 0 -0.00015679632417528515 -0.004018375720429096 0 -0.00015881560136270958 -0.0040115324538108586 0 -0.00015685751180381799 -0.004008802336944832 0 -0.00014880717639212084 -0.0040177031711624896 0 -0.00015679632417528515 -0.004018375720429096 0 -0.00015679632417528515 -0.004018375720429096 0 -0.00015881560136270958 -0.0040115324538108586 0 -0.00016131045487894344 -0.004012642354311223 0 -0.00015881560136270958 -0.0040115324538108586 0 -0.00016131045487894344 -0.004012642354311223 0 -0.00016193845366433438 -0.0040051126557255267 0 -0.00016131045487894344 -0.004012642354311223 0 -0.00016360885607958221 -0.0040081758273142164 0 -0.00016560675987347667 -0.0040129506825336081 0 -0.00016131045487894344 -0.004012642354311223 0 -0.00016360885607958221 -0.0040081758273142164 0 -0.00016193845366433438 -0.0040051126557255267 0 -0.00016193845366433438 -0.0040051126557255267 0 -0.00016631604068239258 -0.0039933647424009967 0 -0.00016607018234085963 -0.0040023122355195779 0 -0.00016360885607958221 -0.0040081758273142164 0 -0.00016193845366433438 -0.0040051126557255267 0 -0.00016607018234085963 -0.0040023122355195779 0 -0.00015685751180381799 -0.004008802336944832 0 -0.00016193845366433438 -0.0040051126557255267 0 -0.00016220454460336991 -0.0039987470956684978 0 -0.00015685751180381799 -0.004008802336944832 0 -0.00015881560136270958 -0.0040115324538108586 0 -0.00016193845366433438 -0.0040051126557255267 0 -0.00015685751180381799 -0.004008802336944832 0 -0.00016220454460336991 -0.0039987470956684978 0 -0.00015939855409286655 -0.0040005575019113919 0 -0.00016328819190088715 -0.0039954537050684085 0 -0.00016220454460336991 -0.0039987470956684978 0 -0.00016631604068239258 -0.0039933647424009967 0 -0.00016193845366433438 -0.0040051126557255267 0 -0.00016220454460336991 -0.0039987470956684978 0 -0.00016631604068239258 -0.0039933647424009967 0 -0.00016328819190088715 -0.0039954537050684085 0 -0.00016220454460336991 -0.0039987470956684978 0 -0.00015939855409286655 -0.0040005575019113919 0 -0.00016328819190088715 -0.0039954537050684085 0 -0.00015728688480094198 -0.0039997971357890513 0 -0.00015939855409286655 -0.0040005575019113919 0 -0.00016119003771463092 -0.0039918460751473192 0 -0.0001847062105972769 -0.0040275148429055902 0 -0.00017748810094905907 -0.0039770966120648227 0 -0.00014331684042092214 -0.0040207861379802264 0 -0.00016119003771463092 -0.0039918460751473192 0 -0.0001847062105972769 -0.0040275148429055902 0 -0.00027493796443361337 -0.0040397793575017446 0 -0.0001847062105972769 -0.0040275148429055902 0 -0.00017748810094905907 -0.0039770966120648227 0 -0.00016328819190088715 -0.0039954537050684085 0 -0.00017748810094905907 -0.0039770966120648227 0 -0.00017629413954172604 -0.003980970105466595 0 -0.00016328819190088715 -0.0039954537050684085 0 -0.00016631604068239258 -0.0039933647424009967 0 -0.00017629413954172604 -0.003980970105466595 0 -0.00023102119460439633 -0.0040224850781278958 0 -0.00017934450276484864 -0.00398060657431461 0 -0.00017748810094905907 -0.0039770966120648227 0 -0.00017629413954172604 -0.003980970105466595 0 -0.00016921324809336135 -0.0039711074025145241 0 -0.00017629413954172604 -0.003980970105466595 0 -0.00016921324809336135 -0.0039711074025145241 0 -0.0001626859414775657 -0.0039590405253525553 0 -0.00015858036466163568 -0.0039705517892025931 0 -0.00016119003771463092 -0.0039918460751473192 0 -0.00017748810094905907 -0.0039770966120648227 0 -0.00015858036466163568 -0.0039705517892025931 0 -0.00016921324809336135 -0.0039711074025145241 0 -0.0001626859414775657 -0.0039590405253525553 0 -0.00015858036466163568 -0.0039705517892025931 0 -0.00017748810094905907 -0.0039770966120648227 0 -0.00016921324809336135 -0.0039711074025145241 0 -0.00017459888534483687 -0.0039805332473356915 0 -0.00016432079050157186 -0.0039727454027833741 0 -0.00017629413954172604 -0.003980970105466595 0 -0.0001689101214853304 -0.004002026760998801 0 -0.00017162393341454439 -0.0040232134450774925 0 -0.00015285290439233335 -0.0039496420409955366 0 -0.0001626859414775657 -0.0039590405253525553 0 -0.00015743898014369473 -0.0039227645405983183 0 -0.00017629413954172604 -0.003980970105466595 0 -0.0001626859414775657 -0.0039590405253525553 0 -0.00015743898014369473 -0.0039227645405983183 0 -0.00016631604068239258 -0.0039933647424009967 0 -0.00017629413954172604 -0.003980970105466595 0 -0.0001689101214853304 -0.004002026760998801 0 -0.00016631604068239258 -0.0039933647424009967 0 -0.0001689101214853304 -0.004002026760998801 0 -0.00016607018234085963 -0.0040023122355195779 0 -0.0001689101214853304 -0.004002026760998801 0 -0.00016607018234085963 -0.0040023122355195779 0 -0.00016560675987347667 -0.0040129506825336081 0 -0.0001689101214853304 -0.004002026760998801 0 -0.00016560675987347667 -0.0040129506825336081 0 -0.00017162393341454439 -0.0040232134450774925 0 -0.00016360885607958221 -0.0040081758273142164 0 -0.00016607018234085963 -0.0040023122355195779 0 -0.00016560675987347667 -0.0040129506825336081 0 -0.00016560675987347667 -0.0040129506825336081 0 -0.00017162393341454439 -0.0040232134450774925 0 -0.0001633361505245126 -0.0040214008885146304 0 -0.00017162393341454439 -0.0040232134450774925 0 -0.0001633361505245126 -0.0040214008885146304 0 -0.00016487664695039888 -0.004024245706262761 0 -0.0001633361505245126 -0.0040214008885146304 0 -0.00016487664695039888 -0.004024245706262761 0 -0.00016235566535181166 -0.0040251178962824362 0 -0.00017162393341454439 -0.0040232134450774925 0 -0.00016487664695039888 -0.004024245706262761 0 -0.00016211834134585986 -0.004025786912279024 0 -0.00015679632417528515 -0.004018375720429096 0 -0.00016093835115246562 -0.0040189672815576696 0 -0.00015953758707370591 -0.0040232043139938351 0 -0.00015679632417528515 -0.004018375720429096 0 -0.00016131045487894344 -0.004012642354311223 0 -0.00016093835115246562 -0.0040189672815576696 0 -0.00016131045487894344 -0.004012642354311223 0 -0.00016560675987347667 -0.0040129506825336081 0 -0.00016093835115246562 -0.0040189672815576696 0 -0.00016560675987347667 -0.0040129506825336081 0 -0.0001633361505245126 -0.0040214008885146304 0 -0.00016093835115246562 -0.0040189672815576696 0 -0.0001633361505245126 -0.0040214008885146304 0 -0.00015953758707370591 -0.0040232043139938351 0 -0.00016235566535181166 -0.0040251178962824362 0 -0.0001633361505245126 -0.0040214008885146304 0 -0.00016093835115246562 -0.0040189672815576696 0 -0.00015953758707370591 -0.0040232043139938351 0 -0.00015953758707370591 -0.0040232043139938351 0 -0.00016082222684551934 -0.0040263893522416551 0 -0.00015963069587647882 -0.004026120627495469 0 -0.00016235566535181166 -0.0040251178962824362 0 -0.00016082222684551934 -0.0040263893522416551 0 -0.00016085501329942239 -0.0040261286046631454 0 -0.00015953758707370591 -0.0040232043139938351 0 -0.00016235566535181166 -0.0040251178962824362 0 -0.00016082222684551934 -0.0040263893522416551 0 -0.00016082222684551934 -0.0040263893522416551 0 -0.00016085501329942239 -0.0040261286046631454 0 -0.00016042156013997984 -0.0040259092552967892 0 -0.00016082222684551934 -0.0040263893522416551 0 -0.00016087321252204189 -0.004026869551051724 0 -0.00015963069587647882 -0.004026120627495469 0 -0.00016082222684551934 -0.0040263893522416551 0 -0.00016042156013997984 -0.0040259092552967892 0 -0.00016087321252204189 -0.004026869551051724 0 -0.0001541207919683838 -0.0040264298371468369 0 -0.00017162393341454439 -0.0040232134450774925 0 -0.00016211834134585986 -0.004025786912279024 0 -0.00016487664695039888 -0.004024245706262761 0 -0.00016235566535181166 -0.0040251178962824362 0 -0.00016211834134585986 -0.004025786912279024 0 -0.00016235566535181166 -0.0040251178962824362 0 -0.00016211834134585986 -0.004025786912279024 0 -0.00016085501329942239 -0.0040261286046631454 0 -0.00016085501329942239 -0.0040261286046631454 0 -0.00015847351948109734 -0.0040254710589440927 0 -0.00016042156013997984 -0.0040259092552967892 0 -0.00016211834134585986 -0.004025786912279024 0 -0.00016085501329942239 -0.0040261286046631454 0 -0.00015847351948109734 -0.0040254710589440927 0 -0.0001541207919683838 -0.0040264298371468369 0 -0.00016211834134585986 -0.004025786912279024 0 -0.00015847351948109734 -0.0040254710589440927 0 -0.0001541207919683838 -0.0040264298371468369 0 -0.00015540689138841298 -0.0040232942294178781 0 -0.00015847351948109734 -0.0040254710589440927 0 -0.00015540689138841298 -0.0040232942294178781 0 -0.00015836788018533138 -0.0040223577100284144 0 -0.00015050643132592868 -0.0040185096920819282 0 -0.0001541207919683838 -0.0040264298371468369 0 -0.00015540689138841298 -0.0040232942294178781 0 -0.00015050643132592868 -0.0040185096920819282 0 -0.00015540689138841298 -0.0040232942294178781 0 -0.00015836788018533138 -0.0040223577100284144 0 -0.00015847351948109734 -0.0040254710589440927 0 -0.00015836788018533138 -0.0040223577100284144 0 -0.00015847351948109734 -0.0040254710589440927 0 -0.00016042156013997984 -0.0040259092552967892 0 -0.00015836788018533138 -0.0040223577100284144 0 -0.00016042156013997984 -0.0040259092552967892 0 -0.00016217968736930021 -0.0040251764973986111 0 -0.00015836788018533138 -0.0040223577100284144 0 -0.00016254182776199237 -0.0040188455988517608 0 -0.00016217968736930021 -0.0040251764973986111 0 -0.00016042156013997984 -0.0040259092552967892 0 -0.00016217968736930021 -0.0040251764973986111 0 -0.00016087321252204189 -0.004026869551051724 0 -0.00016254182776199237 -0.0040188455988517608 0 -0.00015439693066360708 -0.0040145130416107799 0 -0.00015710485155294196 -0.0040067360399314743 0 -0.00015836788018533138 -0.0040223577100284144 0 -0.00016254182776199237 -0.0040188455988517608 0 -0.00015439693066360708 -0.0040145130416107799 0 -0.00015439693066360708 -0.0040145130416107799 0 -0.00014802226832878897 -0.0040124050827745599 0 -0.00015050643132592868 -0.0040185096920819282 0 -0.00015439693066360708 -0.0040145130416107799 0 -0.00014802226832878897 -0.0040124050827745599 0 -0.00014800556831079349 -0.0040049435771864735 0 -0.00015836788018533138 -0.0040223577100284144 0 -0.00015439693066360708 -0.0040145130416107799 0 -0.00015050643132592868 -0.0040185096920819282 0 -3.6371475506300386e-05 -0.0049061782189221042 0 -4.7514516952574158e-05 -0.0049473680027822915 0 -1.9167380464527997e-05 -0.0049492322022278296 0 -3.6371475506300386e-05 -0.0049061782189221042 0 2.3929227626854675e-06 -0.0049145673455883972 0 -1.9167380464527997e-05 -0.0049492322022278296 0 -0.00016254182776199237 -0.0040188455988517608 0 -0.00016593852466149098 -0.0040266282093708011 0 -0.00016909026726464766 -0.0040113691247247209 0 -9.428183403782207e-05 -0.0044169127306801234 0 -0.0001253748868377033 -0.0044894387156492301 0 -0.00016254182776199237 -0.0040188455988517608 0 -0.00016593852466149098 -0.0040266282093708011 0 -0.00016217968736930021 -0.0040251764973986111 0 -0.00016593852466149098 -0.0040266282093708011 0 -0.00016217968736930021 -0.0040251764973986111 0 -0.00016208031236581252 -0.0040277994308367268 0 -0.00016217968736930021 -0.0040251764973986111 0 -0.00016208031236581252 -0.0040277994308367268 0 -0.00016087321252204189 -0.004026869551051724 0 -0.00016593852466149098 -0.0040266282093708011 0 -0.00016208031236581252 -0.0040277994308367268 0 -0.0001589019418900985 -0.004031337091558577 0 -2.5155290423218025e-05 -0.0047027990764378011 0 1.1864151397763197e-05 -0.0050021033942791466 0 -3.6371475506300386e-05 -0.0049061782189221042 0 -1.3330002575344476e-05 -0.0048531724057768516 0 2.3929227626854675e-06 -0.0049145673455883972 0 -9.428183403782207e-05 -0.0044169127306801234 0 -2.5155290423218025e-05 -0.0047027990764378011 0 -0.0001589019418900985 -0.004031337091558577 0 -0.00015987759632180343 -0.0040273576278588843 0 -0.00015788202339898425 -0.0040267610218562332 0 -0.00016208031236581252 -0.0040277994308367268 0 -0.0001589019418900985 -0.004031337091558577 0 -0.00015987759632180343 -0.0040273576278588843 0 -0.0001589019418900985 -0.004031337091558577 0 -0.00015788202339898425 -0.0040267610218562332 0 -0.00015769344692148046 -0.0040268194244547778 0 -2.5155290423218025e-05 -0.0047027990764378011 0 -8.2784133175691272e-05 -0.0044802212315391181 0 -0.00016087321252204189 -0.004026869551051724 0 -0.00015987759632180343 -0.0040273576278588843 0 -0.00015963069587647882 -0.004026120627495469 0 -0.00016208031236581252 -0.0040277994308367268 0 -0.00016087321252204189 -0.004026869551051724 0 -0.00015987759632180343 -0.0040273576278588843 0 -0.00015987759632180343 -0.0040273576278588843 0 -0.00015762467019100638 -0.0040251474535130437 0 -0.00015788202339898425 -0.0040267610218562332 0 -0.00015987759632180343 -0.0040273576278588843 0 -0.00015963069587647882 -0.004026120627495469 0 -0.00015762467019100638 -0.0040251474535130437 0 -0.00015953758707370591 -0.0040232043139938351 0 -0.00015963069587647882 -0.004026120627495469 0 -0.00015762467019100638 -0.0040251474535130437 0 -0.00015762467019100638 -0.0040251474535130437 0 -0.00015788202339898425 -0.0040267610218562332 0 -0.00015460930894677457 -0.0040242123338806784 0 -0.00010144693513536922 -0.0044115545117147676 0 -9.2009088089983854e-05 -0.0039618919754220083 0 -0.00015679632417528515 -0.004018375720429096 0 -0.00015953758707370591 -0.0040232043139938351 0 -0.00015762467019100638 -0.0040251474535130437 0 -0.00015679632417528515 -0.004018375720429096 0 -0.00015762467019100638 -0.0040251474535130437 0 -0.00015460930894677457 -0.0040242123338806784 0 -0.00010144693513536922 -0.0044115545117147676 0 -8.2784133175691272e-05 -0.0044802212315391181 0 3.8842934740348224e-06 -0.004982051061832732 0 3.2906689795033797e-07 -0.004983084104233983 0 5.5060817388523355e-06 -0.0049730929724865367 0 3.5164676120609599e-07 -0.0049549751383933032 0 5.5060817388523355e-06 -0.0049730929724865367 0 -4.1051190123445576e-06 -0.0049863898275543219 0 -0.0001567398941388453 -0.0040352011512307454 0 -0.00015460930894677457 -0.0040242123338806784 0 -0.00015769344692148046 -0.0040268194244547778 0 3.2906689795033797e-07 -0.004983084104233983 0 5.5060817388523355e-06 -0.0049730929724865367 0 -4.1051190123445576e-06 -0.0049863898275543219 0 -0.00015788202339898425 -0.0040267610218562332 0 -0.00015460930894677457 -0.0040242123338806784 0 -0.00015769344692148046 -0.0040268194244547778 0 -4.1051190123445576e-06 -0.0049863898275543219 0 -1.0901876248002271e-06 -0.0049923917939177168 0 -7.9217246981171473e-07 -0.0049923037353642166 0 -1.5972416261283733e-06 -0.0049920723985617654 0 -4.1051190123445576e-06 -0.0049863898275543219 0 -7.9217246981171473e-07 -0.0049923037353642166 0 -2.5155290423218025e-05 -0.0047027990764378011 0 -1.6950698762312927e-05 -0.0050881818960513067 0 -1.0901876248002271e-06 -0.0049923917939177168 0 -1.4885765630546466e-07 -0.0049947294420787996 0 -7.9217246981171473e-07 -0.0049923037353642166 0 -1.4885765630546466e-07 -0.0049947294420787996 0 -7.9217246981171473e-07 -0.0049923037353642166 0 8.8280536161717193e-07 -0.004993390465168117 0 -1.5972416261283733e-06 -0.0049920723985617654 0 -7.9217246981171473e-07 -0.0049923037353642166 0 8.8280536161717193e-07 -0.004993390465168117 0 8.8280536161717193e-07 -0.004993390465168117 0 4.642553265384348e-07 -0.0049932829871802142 0 4.7809591569055927e-06 -0.0049920910574831091 0 -1.5972416261283733e-06 -0.0049920723985617654 0 8.8280536161717193e-07 -0.004993390465168117 0 4.7809591569055927e-06 -0.0049920910574831091 0 -1.4885765630546466e-07 -0.0049947294420787996 0 8.8280536161717193e-07 -0.004993390465168117 0 4.642553265384348e-07 -0.0049932829871802142 0 -1.4885765630546466e-07 -0.0049947294420787996 0 4.642553265384348e-07 -0.0049932829871802142 0 -4.4543042704575222e-07 -0.0049964134554302585 0 4.642553265384348e-07 -0.0049932829871802142 0 1.1308032242972047e-06 -0.0049872053098123335 0 8.180035784382873e-08 -0.0049920410276505234 0 4.642553265384348e-07 -0.0049932829871802142 0 1.1308032242972047e-06 -0.0049872053098123335 0 4.7809591569055927e-06 -0.0049920910574831091 0 1.1308032242972047e-06 -0.0049872053098123335 0 4.7809591569055927e-06 -0.0049920910574831091 0 4.509158445733156e-06 -0.0049732654019386587 0 -2.423750282995858e-09 -0.0049999922249582829 0 -4.4543042704575222e-07 -0.0049964134554302585 0 -5.3023072169963595e-07 -0.0049939958126803312 0 4.642553265384348e-07 -0.0049932829871802142 0 8.180035784382873e-08 -0.0049920410276505234 0 -4.4543042704575222e-07 -0.0049964134554302585 0 8.180035784382873e-08 -0.0049920410276505234 0 -4.4543042704575222e-07 -0.0049964134554302585 0 -5.3023072169963595e-07 -0.0049939958126803312 0 -2.423750282995858e-09 -0.0049999922249582829 0 -4.4543042704575222e-07 -0.0049964134554302585 0 -7.5246773777358946e-11 -0.0049999954922089387 0 -4.4543042704575222e-07 -0.0049964134554302585 0 -7.5246773777358946e-11 -0.0049999954922089387 0 -3.1907198837783024e-07 -0.004996957213582837 0 -1.4885765630546466e-07 -0.0049947294420787996 0 -4.4543042704575222e-07 -0.0049964134554302585 0 -3.1907198837783024e-07 -0.004996957213582837 0 -1.0901876248002271e-06 -0.0049923917939177168 0 -3.1907198837783024e-07 -0.004996957213582837 0 -1.273589047212123e-06 -0.0049942825284362913 0 -1.0901876248002271e-06 -0.0049923917939177168 0 -1.4885765630546466e-07 -0.0049947294420787996 0 -3.1907198837783024e-07 -0.004996957213582837 0 -3.1907198837783024e-07 -0.004996957213582837 0 5.8436835154674328e-10 -0.0049999942690118543 0 -1.273589047212123e-06 -0.0049942825284362913 0 -7.5246773777358946e-11 -0.0049999954922089387 0 -3.1907198837783024e-07 -0.004996957213582837 0 5.8436835154674328e-10 -0.0049999942690118543 0 5.8436835154674328e-10 -0.0049999942690118543 0 -6.2252575404104574e-07 -0.0049972999165482264 0 -1.273589047212123e-06 -0.0049942825284362913 0 -3.7739773781227129e-09 -0.0049999942677247588 0 -6.2252575404104574e-07 -0.0049972999165482264 0 -7.7499242642248663e-07 -0.004995602844192897 0 5.8436835154674328e-10 -0.0049999942690118543 0 -3.7739773781227129e-09 -0.0049999942677247588 0 -6.2252575404104574e-07 -0.0049972999165482264 0 -6.2252575404104574e-07 -0.0049972999165482264 0 -1.273589047212123e-06 -0.0049942825284362913 0 -2.55253518140353e-06 -0.0049930663168115622 0 -6.2252575404104574e-07 -0.0049972999165482264 0 -2.55253518140353e-06 -0.0049930663168115622 0 -7.7499242642248663e-07 -0.004995602844192897 0 -1.273589047212123e-06 -0.0049942825284362913 0 -2.8757209157517087e-06 -0.0049903150473254998 0 -2.55253518140353e-06 -0.0049930663168115622 0 -4.1051190123445576e-06 -0.0049863898275543219 0 -1.0901876248002271e-06 -0.0049923917939177168 0 -2.8757209157517087e-06 -0.0049903150473254998 0 -1.0901876248002271e-06 -0.0049923917939177168 0 -1.273589047212123e-06 -0.0049942825284362913 0 -2.8757209157517087e-06 -0.0049903150473254998 0 -4.1051190123445576e-06 -0.0049863898275543219 0 -2.8757209157517087e-06 -0.0049903150473254998 0 -2.4898196320612269e-06 -0.0049873409703871116 0 3.2906689795033797e-07 -0.004983084104233983 0 -4.1051190123445576e-06 -0.0049863898275543219 0 -2.4898196320612269e-06 -0.0049873409703871116 0 -2.8757209157517087e-06 -0.0049903150473254998 0 -2.4898196320612269e-06 -0.0049873409703871116 0 -3.2729492246554945e-06 -0.0049901731380052432 0 -2.4898196320612269e-06 -0.0049873409703871116 0 -3.2729492246554945e-06 -0.0049901731380052432 0 -3.4804528243577045e-06 -0.0049885034194331879 0 -3.2729492246554945e-06 -0.0049901731380052432 0 -3.4804528243577045e-06 -0.0049885034194331879 0 -3.9592983043062034e-06 -0.0049896533307871235 0 -2.8757209157517087e-06 -0.0049903150473254998 0 -3.2729492246554945e-06 -0.0049901731380052432 0 -2.55253518140353e-06 -0.0049930663168115622 0 -3.2729492246554945e-06 -0.0049901731380052432 0 -2.55253518140353e-06 -0.0049930663168115622 0 -3.9592983043062034e-06 -0.0049896533307871235 0 -2.55253518140353e-06 -0.0049930663168115622 0 -3.787670583446659e-06 -0.0049921771371505023 0 -3.9592983043062034e-06 -0.0049896533307871235 0 -3.787670583446659e-06 -0.0049921771371505023 0 -3.9592983043062034e-06 -0.0049896533307871235 0 -4.5531418012099286e-06 -0.0049861437501015956 0 -3.4804528243577045e-06 -0.0049885034194331879 0 -3.9592983043062034e-06 -0.0049896533307871235 0 -6.3884569951377842e-06 -0.0049870453904391453 0 -3.9592983043062034e-06 -0.0049896533307871235 0 -6.3884569951377842e-06 -0.0049870453904391453 0 -4.5531418012099286e-06 -0.0049861437501015956 0 -0.00029319869926648239 -0.0044035731460308333 0 -0.00020740714468943874 -0.0043677619383198909 0 -0.00024443618186546274 -0.0042595835708965565 0 -7.0308101099774843e-06 -0.0049765696859193423 0 -6.3884569951377842e-06 -0.0049870453904391453 0 -4.5531418012099286e-06 -0.0049861437501015956 0 -7.0308101099774843e-06 -0.0049765696859193423 0 -4.5531418012099286e-06 -0.0049861437501015956 0 -2.7281554925706782e-06 -0.0049836884530576001 0 -9.3346503240433019e-05 -0.0047747141224222835 0 -0.00012950563984501353 -0.0046043167528190083 0 -3.787670583446659e-06 -0.0049921771371505023 0 -1.4675899255885018e-05 -0.0049878745576667728 0 -1.4577491927380956e-06 -0.0049888626879665294 0 -1.2447972579411412e-05 -0.0049752276962254519 0 -1.4675899255885018e-05 -0.0049878745576667728 0 -1.4577491927380956e-06 -0.0049888626879665294 0 -1.0468454234647609e-05 -0.0049816637184902611 0 8.9240157630228124e-06 -0.0050135970167338884 0 -3.787670583446659e-06 -0.0049921771371505023 0 -4.5531418012099286e-06 -0.0049861437501015956 0 -2.7281554925706782e-06 -0.0049836884530576001 0 -3.787670583446659e-06 -0.0049921771371505023 0 -1.4577491927380956e-06 -0.0049888626879665294 0 -7.7499242642248663e-07 -0.004995602844192897 0 -1.4577491927380956e-06 -0.0049888626879665294 0 1.1484356622342856e-08 -0.0049999875381920135 0 -7.7499242642248663e-07 -0.004995602844192897 0 -3.7739773781227129e-09 -0.0049999942677247588 0 1.1484356622342856e-08 -0.0049999875381920135 0 -7.7499242642248663e-07 -0.004995602844192897 0 -2.55253518140353e-06 -0.0049930663168115622 0 -3.787670583446659e-06 -0.0049921771371505023 0 -7.7499242642248663e-07 -0.004995602844192897 0 2.519541624183015e-06 -0.0049981111944236651 0 6.7838024242656044e-07 -0.0049980999658837382 0 7.7395176821583826e-07 -0.0049996036936509553 0 -1.2222817592319041e-05 -0.0047858091975714482 0 -1.2672347989427233e-05 -0.0048887638043413279 0 1.4245773749182355e-10 -0.0049999981103830728 0 6.7838024242656044e-07 -0.0049980999658837382 0 7.7395176821583826e-07 -0.0049996036936509553 0 1.4245773749182355e-10 -0.0049999981103830728 0 6.7838024242656044e-07 -0.0049980999658837382 0 5.6739379243002872e-10 -0.0049999950086549042 0 2.519541624183015e-06 -0.0049981111944236651 0 6.7838024242656044e-07 -0.0049980999658837382 0 2.6336667247235333e-06 -0.0049939616548257638 0 6.7838024242656044e-07 -0.0049980999658837382 0 2.6336667247235333e-06 -0.0049939616548257638 0 9.9106332059971146e-07 -0.0049972371497697815 0 -1.2222817592319041e-05 -0.0047858091975714482 0 2.2888686725300979e-06 -0.0050724241983028696 0 -1.9754183512395768e-05 -0.0044654233206611292 0 -5.1674669211467281e-05 -0.0045004686903712355 0 -6.0156004976396666e-05 -0.0044690347345961792 0 -1.2222817592319041e-05 -0.0047858091975714482 0 5.0772583742282581e-06 -0.0046695867279807858 0 3.1007776720187206e-06 -0.00498402582561654 0 -7.3881166480799244e-07 -0.0049910799524803869 0 2.6336667247235333e-06 -0.0049939616548257638 0 0.00010049570930623832 -0.0043398545748016635 0 8.8555065665795943e-05 -0.0042997343776336305 0 6.3080077407588815e-05 -0.0043271832497366446 0 5.0772583742282581e-06 -0.0046695867279807858 0 7.0137374222997665e-06 -0.0043483289082626936 0 -6.0156004976396666e-05 -0.0044690347345961792 0 -4.7061570572874642e-05 -0.0044498743153952173 0 -6.7322459755104528e-05 -0.0044381470487368131 0 8.8555065665795943e-05 -0.0042997343776336305 0 7.6550942603745197e-05 -0.00426338704073209 0 5.560040488184893e-05 -0.0042942564118901034 0 7.0137374222997665e-06 -0.0043483289082626936 0 -1.5468795700445713e-05 -0.0043264979750834388 0 -1.9754183512395768e-05 -0.0044654233206611292 0 -6.0156004976396666e-05 -0.0044690347345961792 0 -4.7061570572874642e-05 -0.0044498743153952173 0 -1.9754183512395768e-05 -0.0044654233206611292 0 -4.7061570572874642e-05 -0.0044498743153952173 0 -3.5705066324627971e-05 -0.0044417947118550868 0 -1.9754183512395768e-05 -0.0044654233206611292 0 -3.5705066324627971e-05 -0.0044417947118550868 0 -2.4331471513717439e-05 -0.0044248457155245382 0 -4.7061570572874642e-05 -0.0044498743153952173 0 -3.5705066324627971e-05 -0.0044417947118550868 0 -5.3344771844117729e-05 -0.0044353174894447792 0 -3.5705066324627971e-05 -0.0044417947118550868 0 -5.3344771844117729e-05 -0.0044353174894447792 0 -4.0712356851359734e-05 -0.004425136353765625 0 -3.5705066324627971e-05 -0.0044417947118550868 0 -4.0712356851359734e-05 -0.004425136353765625 0 -2.4331471513717439e-05 -0.0044248457155245382 0 -6.110227878456203e-05 -0.0044355960555054058 0 -5.3344771844117729e-05 -0.0044353174894447792 0 -5.0783188530828039e-05 -0.0044150384266499771 0 -1.5468795700445713e-05 -0.0043264979750834388 0 -6.5913451400283448e-05 -0.0043853228630141303 0 -4.7061570572874642e-05 -0.0044498743153952173 0 -6.7322459755104528e-05 -0.0044381470487368131 0 -5.3344771844117729e-05 -0.0044353174894447792 0 -5.3344771844117729e-05 -0.0044353174894447792 0 -5.0783188530828039e-05 -0.0044150384266499771 0 -4.0712356851359734e-05 -0.004425136353765625 0 -6.110227878456203e-05 -0.0044355960555054058 0 -5.0783188530828039e-05 -0.0044150384266499771 0 -6.0879319941640256e-05 -0.0044095799008276454 0 -5.0783188530828039e-05 -0.0044150384266499771 0 -5.1698382914028792e-05 -0.0043979745485522703 0 -6.0879319941640256e-05 -0.0044095799008276454 0 -5.0783188530828039e-05 -0.0044150384266499771 0 -3.8840392904396946e-05 -0.0044127086603949085 0 -4.9761363328940881e-05 -0.0044005186622702065 0 -4.0712356851359734e-05 -0.004425136353765625 0 -3.8840392904396946e-05 -0.0044127086603949085 0 -2.4331471513717439e-05 -0.0044248457155245382 0 -5.0783188530828039e-05 -0.0044150384266499771 0 -4.0712356851359734e-05 -0.004425136353765625 0 -3.8840392904396946e-05 -0.0044127086603949085 0 -3.8840392904396946e-05 -0.0044127086603949085 0 -2.4331471513717439e-05 -0.0044248457155245382 0 -2.7210097279212374e-05 -0.0043954596992475279 0 -1.3925843976212008e-05 -0.0047022878591965432 0 -3.2931086634704314e-05 -0.0047237610936623504 0 -2.3241147487838084e-05 -0.0046963275671696916 0 -1.3925843976212008e-05 -0.0047022878591965432 0 -3.2931086634704314e-05 -0.0047237610936623504 0 -9.4270466281593716e-06 -0.004722649535148931 0 -3.4783005915142937e-05 -0.0047728169364705964 0 -3.2931086634704314e-05 -0.0047237610936623504 0 -1.0349786080426824e-05 -0.0047484610498338634 0 -1.2222817592319041e-05 -0.0047858091975714482 0 -2.6526101748749044e-05 -0.0045439413944522227 0 -3.2931086634704314e-05 -0.0047237610936623504 0 -1.0349786080426824e-05 -0.0047484610498338634 0 -9.4270466281593716e-06 -0.004722649535148931 0 1.4245773749182355e-10 -0.0049999981103830728 0 7.7395176821583826e-07 -0.0049996036936509553 0 4.2402980215723608e-10 -0.0049999995234678843 0 -1.0349786080426824e-05 -0.0047484610498338634 0 1.3969947920776654e-05 -0.004724583299504888 0 -9.4270466281593716e-06 -0.004722649535148931 0 7.7395176821583826e-07 -0.0049996036936509553 0 4.2402980215723608e-10 -0.0049999995234678843 0 -1.3863094396721713e-08 -0.0049999539908584644 0 -1.2672347989427233e-05 -0.0048887638043413279 0 -1.008449243625193e-05 -0.004826356075328748 0 -3.0727794132049709e-10 -0.0049959616185304562 0 -1.1781426931922245e-10 -0.0049999982540993547 0 4.367751304248733e-07 -0.0049995166516575776 0 -1.3925843976212008e-05 -0.0047022878591965432 0 -9.4270466281593716e-06 -0.004722649535148931 0 7.4259555117839813e-06 -0.004695317793186533 0 1.3969947920776654e-05 -0.004724583299504888 0 -9.4270466281593716e-06 -0.004722649535148931 0 7.4259555117839813e-06 -0.004695317793186533 0 -1.008449243625193e-05 -0.004826356075328748 0 8.1775237847160918e-06 -0.0048661935680239547 0 1.2947739699906679e-06 -0.0049995256522975279 0 -1.008449243625193e-05 -0.004826356075328748 0 -1.1781426931922245e-10 -0.0049999982540993547 0 4.367751304248733e-07 -0.0049995166516575776 0 1.2097587172925423e-07 -0.0049993189130088664 0 7.4259555117839813e-06 -0.004695317793186533 0 -1.5225089428782483e-05 -0.0046834971305621887 0 7.0007891289845381e-07 -0.0046661299779791826 0 8.1775237847160918e-06 -0.0048661935680239547 0 4.72986444647372e-07 -0.0047517454423171134 0 -1.3925843976212008e-05 -0.0047022878591965432 0 7.4259555117839813e-06 -0.004695317793186533 0 -1.5225089428782483e-05 -0.0046834971305621887 0 -1.5225089428782483e-05 -0.0046834971305621887 0 -3.0910779031984145e-05 -0.0046757929592112328 0 7.0007891289845381e-07 -0.0046661299779791826 0 -3.2931086634704314e-05 -0.0047237610936623504 0 -2.3241147487838084e-05 -0.0046963275671696916 0 -3.0910779031984145e-05 -0.0046757929592112328 0 -2.6526101748749044e-05 -0.0045439413944522227 0 -5.5768178480798106e-05 -0.0045118791517114289 0 -1.3925843976212008e-05 -0.0047022878591965432 0 -2.3241147487838084e-05 -0.0046963275671696916 0 -1.5225089428782483e-05 -0.0046834971305621887 0 -2.3241147487838084e-05 -0.0046963275671696916 0 -1.5225089428782483e-05 -0.0046834971305621887 0 -3.0910779031984145e-05 -0.0046757929592112328 0 -5.5768178480798106e-05 -0.0045118791517114289 0 4.72986444647372e-07 -0.0047517454423171134 0 -7.108045802632923e-05 -0.0044161088517130952 0 -7.5168143242355595e-05 -0.0044249379565829321 0 -6.3590460973028161e-05 -0.0044138007504240864 0 -6.6843408067819603e-05 -0.0044059551775611615 0 -6.878441449010623e-05 -0.0044122219413751324 0 -7.7987197452937027e-05 -0.0044140263940475027 0 -6.450813744281875e-05 -0.0044102220141430844 0 -6.878441449010623e-05 -0.0044122219413751324 0 -6.3590460973028161e-05 -0.0044138007504240864 0 -6.6843408067819603e-05 -0.0044059551775611615 0 -6.450813744281875e-05 -0.0044102220141430844 0 -5.9978735138006656e-05 -0.0044082652175309323 0 -6.6843408067819603e-05 -0.0044059551775611615 0 -6.450813744281875e-05 -0.0044102220141430844 0 -6.878441449010623e-05 -0.0044122219413751324 0 -6.878441449010623e-05 -0.0044122219413751324 0 -7.108045802632923e-05 -0.0044161088517130952 0 -7.7987197452937027e-05 -0.0044140263940475027 0 -6.878441449010623e-05 -0.0044122219413751324 0 -7.108045802632923e-05 -0.0044161088517130952 0 -6.3590460973028161e-05 -0.0044138007504240864 0 -1.1781426931922245e-10 -0.0049999982540993547 0 2.6003366295635897e-10 -0.0049999986790683218 0 1.2097587172925423e-07 -0.0049993189130088664 0 4.72986444647372e-07 -0.0047517454423171134 0 -5.9118697481408972e-05 -0.0048225480621730491 0 -7.108045802632923e-05 -0.0044161088517130952 0 -7.7987197452937027e-05 -0.0044140263940475027 0 -7.5168143242355595e-05 -0.0044249379565829321 0 -2.9225067390200173e-07 -0.0049991952322066824 0 -2.3815907189046612e-07 -0.0049994986633553869 0 -6.8477933917145896e-07 -0.0049987587897313834 0 -5.6623506557191308e-08 -0.0049997920966360354 0 4.72986444647372e-07 -0.0047517454423171134 0 -2.4338383769948797e-10 -0.0049999986482511536 0 -2.9225067390200173e-07 -0.0049991952322066824 0 -2.3815907189046612e-07 -0.0049994986633553869 0 -2.4338383769948797e-10 -0.0049999986482511536 0 -2.3815907189046612e-07 -0.0049994986633553869 0 -4.9081493313301277e-10 -0.0049999978949555818 0 1.6117585795363857e-08 -0.004999918600649033 0 -5.9118697481408972e-05 -0.0048225480621730491 0 -2.3815907189046612e-07 -0.0049994986633553869 0 -4.9081493313301277e-10 -0.0049999978949555818 0 -6.8477933917145896e-07 -0.0049987587897313834 0 -1.5415570120044134e-06 -0.0049934563228166591 0 -1.7709943481750778e-06 -0.0049913154582935668 0 -5.3269632534831489e-07 -0.0049920195366622922 0 -4.9525701011569953e-10 -0.0049999834347263412 0 -1.5415570120044134e-06 -0.0049934563228166591 0 -1.6987054477546662e-06 -0.0049956076148220856 0 -2.904000839126965e-05 -0.004935153317050172 0 -5.9118697481408972e-05 -0.0048225480621730491 0 -7.5168143242355595e-05 -0.0044249379565829321 0 -5.8883542505895498e-05 -0.004417917999434872 0 -6.3590460973028161e-05 -0.0044138007504240864 0 -1.7709943481750778e-06 -0.0049913154582935668 0 1.808588936099061e-06 -0.0049875115126994177 0 6.092546564637729e-06 -0.0049810624631017155 0 -1.7709943481750778e-06 -0.0049913154582935668 0 -5.3269632534831489e-07 -0.0049920195366622922 0 1.808588936099061e-06 -0.0049875115126994177 0 -5.9118697481408972e-05 -0.0048225480621730491 0 -2.0411967481941086e-05 -0.0046802397223946867 0 8.180035784382873e-08 -0.0049920410276505234 0 1.808588936099061e-06 -0.0049875115126994177 0 -5.3023072169963595e-07 -0.0049939958126803312 0 -5.3269632534831489e-07 -0.0049920195366622922 0 1.808588936099061e-06 -0.0049875115126994177 0 -5.3023072169963595e-07 -0.0049939958126803312 0 -1.5415570120044134e-06 -0.0049934563228166591 0 -5.3269632534831489e-07 -0.0049920195366622922 0 -5.3023072169963595e-07 -0.0049939958126803312 0 -2.423750282995858e-09 -0.0049999922249582829 0 -1.5415570120044134e-06 -0.0049934563228166591 0 -5.3023072169963595e-07 -0.0049939958126803312 0 -2.423750282995858e-09 -0.0049999922249582829 0 -4.9525701011569953e-10 -0.0049999834347263412 0 -1.5415570120044134e-06 -0.0049934563228166591 0 1.1864151397763197e-05 -0.0050021033942791466 0 1.7683167760790002e-09 -0.0049504722905874361 0 2.3929227626854675e-06 -0.0049145673455883972 0 4.509158445733156e-06 -0.0049732654019386587 0 -1.9167380464527997e-05 -0.0049492322022278296 0 1.1308032242972047e-06 -0.0049872053098123335 0 1.808588936099061e-06 -0.0049875115126994177 0 4.509158445733156e-06 -0.0049732654019386587 0 1.1308032242972047e-06 -0.0049872053098123335 0 8.180035784382873e-08 -0.0049920410276505234 0 1.808588936099061e-06 -0.0049875115126994177 0 1.808588936099061e-06 -0.0049875115126994177 0 4.509158445733156e-06 -0.0049732654019386587 0 6.092546564637729e-06 -0.0049810624631017155 0 -5.8883542505895498e-05 -0.004417917999434872 0 -5.310242621187407e-05 -0.0044051974665909738 0 -4.510464222332005e-05 -0.0044223702534593708 0 -2.0411967481941086e-05 -0.0046802397223946867 0 -3.6488889293988167e-05 -0.0047315658326150941 0 4.509158445733156e-06 -0.0049732654019386587 0 6.092546564637729e-06 -0.0049810624631017155 0 -1.8449364518281698e-05 -0.0049796126330063084 0 -5.310242621187407e-05 -0.0044051974665909738 0 -5.5909768004787685e-05 -0.0044087117452817869 0 -4.9761363328940881e-05 -0.0044005186622702065 0 -5.8883542505895498e-05 -0.004417917999434872 0 -6.3590460973028161e-05 -0.0044138007504240864 0 -5.5909768004787685e-05 -0.0044087117452817869 0 -5.8883542505895498e-05 -0.004417917999434872 0 -5.310242621187407e-05 -0.0044051974665909738 0 -5.5909768004787685e-05 -0.0044087117452817869 0 -5.5909768004787685e-05 -0.0044087117452817869 0 -5.9978735138006656e-05 -0.0044082652175309323 0 -4.9761363328940881e-05 -0.0044005186622702065 0 -6.3590460973028161e-05 -0.0044138007504240864 0 -5.5909768004787685e-05 -0.0044087117452817869 0 -5.9978735138006656e-05 -0.0044082652175309323 0 -6.450813744281875e-05 -0.0044102220141430844 0 -6.3590460973028161e-05 -0.0044138007504240864 0 -5.9978735138006656e-05 -0.0044082652175309323 0 -6.6843408067819603e-05 -0.0044059551775611615 0 -5.9978735138006656e-05 -0.0044082652175309323 0 -4.9761363328940881e-05 -0.0044005186622702065 0 -3.8840392904396946e-05 -0.0044127086603949085 0 -2.7210097279212374e-05 -0.0043954596992475279 0 -4.9761363328940881e-05 -0.0044005186622702065 0 -5.5768178480798106e-05 -0.0045118791517114289 0 -3.9410510900668502e-05 -0.004391250856917924 0 -5.0783188530828039e-05 -0.0044150384266499771 0 -4.9761363328940881e-05 -0.0044005186622702065 0 -5.1698382914028792e-05 -0.0043979745485522703 0 -5.310242621187407e-05 -0.0044051974665909738 0 -4.9761363328940881e-05 -0.0044005186622702065 0 -5.1698382914028792e-05 -0.0043979745485522703 0 -5.1698382914028792e-05 -0.0043979745485522703 0 -4.5088049426057511e-05 -0.0043859158772985496 0 -6.0879319941640256e-05 -0.0044095799008276454 0 1.4305243899922044e-05 -0.0043266103876196185 0 -4.5088049426057511e-05 -0.0043859158772985496 0 -7.927981275985231e-05 -0.0042787745936616094 0 -4.7133914924835293e-05 -0.0043870028594937133 0 -7.5132358498141368e-05 -0.0043396669552467747 0 1.4305243899922044e-05 -0.0043266103876196185 0 2.4143911268593989e-05 -0.0043812095879501144 0 -4.5088049426057511e-05 -0.0043859158772985496 0 1.4305243899922044e-05 -0.0043266103876196185 0 2.4143911268593989e-05 -0.0043812095879501144 0 6.2911266985546336e-05 -0.0043427839146937455 0 -4.714771256460476e-06 -0.0044056603742304102 0 2.4143911268593989e-05 -0.0043812095879501144 0 5.1435789975081455e-05 -0.0044338077056443282 0 -4.714771256460476e-06 -0.0044056603742304102 0 2.4143911268593989e-05 -0.0043812095879501144 0 -4.5088049426057511e-05 -0.0043859158772985496 0 -5.310242621187407e-05 -0.0044051974665909738 0 -5.1698382914028792e-05 -0.0043979745485522703 0 -4.5088049426057511e-05 -0.0043859158772985496 0 -4.714771256460476e-06 -0.0044056603742304102 0 -4.5088049426057511e-05 -0.0043859158772985496 0 -4.510464222332005e-05 -0.0044223702534593708 0 -5.310242621187407e-05 -0.0044051974665909738 0 -4.5088049426057511e-05 -0.0043859158772985496 0 -4.510464222332005e-05 -0.0044223702534593708 0 -1.8449364518281698e-05 -0.0049796126330063084 0 -4.7514516952574158e-05 -0.0049473680027822915 0 -5.9684713315659306e-05 -0.0049734771047825225 0 -0.0001253748868377033 -0.0044894387156492301 0 1.5787002401512721e-05 -0.0045013919837074371 0 -4.714771256460476e-06 -0.0044056603742304102 0 -4.510464222332005e-05 -0.0044223702534593708 0 5.1435789975081455e-05 -0.0044338077056443282 0 -3.6488889293988167e-05 -0.0047315658326150941 0 1.5787002401512721e-05 -0.0045013919837074371 0 -1.8449364518281698e-05 -0.0049796126330063084 0 -4.7514516952574158e-05 -0.0049473680027822915 0 -1.9167380464527997e-05 -0.0049492322022278296 0 4.509158445733156e-06 -0.0049732654019386587 0 -1.8449364518281698e-05 -0.0049796126330063084 0 -1.9167380464527997e-05 -0.0049492322022278296 0 -0.00014958661544652401 -0.0039958028734179982 0 -0.00015710485155294196 -0.0040067360399314743 0 -0.00015599036092477678 -0.0039928720874733703 0 -0.00014958661544652401 -0.0039958028734179982 0 -0.00014800556831079349 -0.0040049435771864735 0 -0.00015710485155294196 -0.0040067360399314743 0 -0.00014958661544652401 -0.0039958028734179982 0 -0.00014800556831079349 -0.0040049435771864735 0 -0.00014124529142091414 -0.0039918466770212224 0 -0.00014958661544652401 -0.0039958028734179982 0 -0.00014414299869732622 -0.0039881871112385755 0 -0.00014124529142091414 -0.0039918466770212224 0 -0.00015439693066360708 -0.0040145130416107799 0 -0.00014800556831079349 -0.0040049435771864735 0 -0.00015710485155294196 -0.0040067360399314743 0 -0.00016254182776199237 -0.0040188455988517608 0 -0.00016909026726464766 -0.0040113691247247209 0 -0.00015710485155294196 -0.0040067360399314743 0 -0.00016909026726464766 -0.0040113691247247209 0 -0.00015710485155294196 -0.0040067360399314743 0 -0.00015599036092477678 -0.0039928720874733703 0 -0.00016909026726464766 -0.0040113691247247209 0 -0.00015599036092477678 -0.0039928720874733703 0 -0.00016320991715605256 -0.0039899357438472147 0 1.5787002401512721e-05 -0.0045013919837074371 0 -6.9306523457614768e-05 -0.0039707355186679658 0 -0.00015599036092477678 -0.0039928720874733703 0 -0.00014616701672953822 -0.0039842148429757697 0 -0.00014506821694216222 -0.0039812787488261048 0 -0.00015599036092477678 -0.0039928720874733703 0 -0.00016320991715605256 -0.0039899357438472147 0 -0.00014506821694216222 -0.0039812787488261048 0 -0.00014958661544652401 -0.0039958028734179982 0 -0.00015599036092477678 -0.0039928720874733703 0 -0.00014616701672953822 -0.0039842148429757697 0 -0.00014958661544652401 -0.0039958028734179982 0 -0.00014414299869732622 -0.0039881871112385755 0 -0.00014616701672953822 -0.0039842148429757697 0 -0.00014414299869732622 -0.0039881871112385755 0 -0.00014616701672953822 -0.0039842148429757697 0 -0.00014136341862249722 -0.0039827606765497634 0 -0.00014616701672953822 -0.0039842148429757697 0 -0.00014185743794421394 -0.0039784012752980009 0 -0.00014136341862249722 -0.0039827606765497634 0 -8.3100883529359877e-05 -0.0039820439819687123 0 -6.9306523457614768e-05 -0.0039707355186679658 0 0.00015091471328151367 -0.0044278299294356156 0 8.0211991148159716e-05 -0.0043876013441903521 0 0.00011340353574990491 -0.0043310720393770928 0 0.00015091471328151367 -0.0044278299294356156 0 0.00011340353574990491 -0.0043310720393770928 0 0.00017637471998494298 -0.0043394104907564009 0 -6.9306523457614768e-05 -0.0039707355186679658 0 0.0001317978957954383 -0.0039757965995057673 0 5.6777888778711559e-05 -0.0044338351984380261 0 0.00015091471328151367 -0.0044278299294356156 0 8.0211991148159716e-05 -0.0043876013441903521 0 2.4143911268593989e-05 -0.0043812095879501144 0 5.1435789975081455e-05 -0.0044338077056443282 0 8.0211991148159716e-05 -0.0043876013441903521 0 1.5787002401512721e-05 -0.0045013919837074371 0 8.0884532465545011e-05 -0.0043806342122136447 0 2.4143911268593989e-05 -0.0043812095879501144 0 8.0211991148159716e-05 -0.0043876013441903521 0 6.2911266985546336e-05 -0.0043427839146937455 0 8.0211991148159716e-05 -0.0043876013441903521 0 6.2911266985546336e-05 -0.0043427839146937455 0 0.00011340353574990491 -0.0043310720393770928 0 6.2911266985546336e-05 -0.0043427839146937455 0 0.00011340353574990491 -0.0043310720393770928 0 7.4247176026957207e-05 -0.0042824434055345247 0 1.4305243899922044e-05 -0.0043266103876196185 0 6.2911266985546336e-05 -0.0043427839146937455 0 7.4247176026957207e-05 -0.0042824434055345247 0 0.00011340353574990491 -0.0043310720393770928 0 0.00013719184216225456 -0.0042658041051823938 0 0.00017637471998494298 -0.0043394104907564009 0 0.00011340353574990491 -0.0043310720393770928 0 0.00013719184216225456 -0.0042658041051823938 0 7.4247176026957207e-05 -0.0042824434055345247 0 0.00013719184216225456 -0.0042658041051823938 0 0.00016804453680536679 -0.0041879835964973465 0 0.00020096145942852803 -0.0042477694948951936 0 0.00013719184216225456 -0.0042658041051823938 0 0.00016804453680536679 -0.0041879835964973465 0 9.022345059498543e-05 -0.0042069160436837292 0 0.00016804453680536679 -0.0041879835964973465 0 9.022345059498543e-05 -0.0042069160436837292 0 0.00013511880282410569 -0.0041267523320595656 0 0.00028952183313446972 -0.0038446939608783983 0 0.00014513256666855869 -0.0038718491209585254 0 9.022345059498543e-05 -0.0042069160436837292 0 1.5301494164172447e-05 -0.0041557360147558174 0 0.00013511880282410569 -0.0041267523320595656 0 9.022345059498543e-05 -0.0042069160436837292 0 9.8179089730350594e-06 -0.0042446502127770026 0 1.5301494164172447e-05 -0.0041557360147558174 0 0.00013719184216225456 -0.0042658041051823938 0 9.022345059498543e-05 -0.0042069160436837292 0 7.4247176026957207e-05 -0.0042824434055345247 0 9.022345059498543e-05 -0.0042069160436837292 0 7.4247176026957207e-05 -0.0042824434055345247 0 9.8179089730350594e-06 -0.0042446502127770026 0 1.4305243899922044e-05 -0.0043266103876196185 0 7.4247176026957207e-05 -0.0042824434055345247 0 9.8179089730350594e-06 -0.0042446502127770026 0 1.4305243899922044e-05 -0.0043266103876196185 0 9.8179089730350594e-06 -0.0042446502127770026 0 -7.927981275985231e-05 -0.0042787745936616094 0 -1.5468795700445713e-05 -0.0043264979750834388 0 -7.5132358498141368e-05 -0.0043396669552467747 0 9.8179089730350594e-06 -0.0042446502127770026 0 -7.927981275985231e-05 -0.0042787745936616094 0 -3.9971341124543462e-05 -0.0042154574684208131 0 -0.00010599497523749178 -0.0041832037269218438 0 -7.927981275985231e-05 -0.0042787745936616094 0 -3.9971341124543462e-05 -0.0042154574684208131 0 -1.5468795700445713e-05 -0.0043264979750834388 0 -2.6683843438742441e-06 -0.0042473653344552728 0 -0.00010599497523749178 -0.0041832037269218438 0 -3.9971341124543462e-05 -0.0042154574684208131 0 1.5301494164172447e-05 -0.0041557360147558174 0 9.8179089730350594e-06 -0.0042446502127770026 0 -3.9971341124543462e-05 -0.0042154574684208131 0 1.5301494164172447e-05 -0.0041557360147558174 0 2.3450063342129889e-05 -0.0042740406191365014 0 2.8584215189963036e-05 -0.0043095330797170619 0 5.8264641754917706e-06 -0.0042917202387750758 0 2.3450063342129889e-05 -0.0042740406191365014 0 5.560040488184893e-05 -0.0042942564118901034 0 2.8584215189963036e-05 -0.0043095330797170619 0 7.6550942603745197e-05 -0.00426338704073209 0 2.3450063342129889e-05 -0.0042740406191365014 0 5.560040488184893e-05 -0.0042942564118901034 0 8.8555065665795943e-05 -0.0042997343776336305 0 5.560040488184893e-05 -0.0042942564118901034 0 6.3080077407588815e-05 -0.0043271832497366446 0 6.3080077407588815e-05 -0.0043271832497366446 0 2.8584215189963036e-05 -0.0043095330797170619 0 3.6832429111767667e-05 -0.0043547549649784051 0 5.560040488184893e-05 -0.0042942564118901034 0 6.3080077407588815e-05 -0.0043271832497366446 0 2.8584215189963036e-05 -0.0043095330797170619 0 2.8584215189963036e-05 -0.0043095330797170619 0 -2.5054445780656262e-05 -0.004307993778971158 0 1.5156183890121751e-06 -0.0043618539401934393 0 2.8584215189963036e-05 -0.0043095330797170619 0 -8.1835395164648282e-06 -0.0043031768694131254 0 5.8264641754917706e-06 -0.0042917202387750758 0 -2.6177042873277465e-05 -0.0043564037090760522 0 0.00010950022371466485 -0.0040521932884992036 0 0.00010950022371466485 -0.0040521932884992036 0 0.00020167268777333074 -0.0037509992918266714 0 0.00021794787974726402 -0.003937807744371846 0 0.00013447085284115935 -0.003937046529539124 0 0.00018208632218366712 -0.004001806157952488 0 0.00013447085284115935 -0.003937046529539124 0 0.00011264524476732337 -0.0040080198561152228 0 0.00018208632218366712 -0.004001806157952488 0 0.00015690822734114703 -0.0035731793137834351 0 0.00021212226912569672 -0.00367413470060352 0 0.00028342072666337134 -0.0035670632297909533 0 0.00010950022371466485 -0.0040521932884992036 0 0.00014513256666855869 -0.0038718491209585254 0 -2.6683843438742441e-06 -0.0042473653344552728 0 0.00014513256666855869 -0.0038718491209585254 0 2.3450063342129889e-05 -0.0042740406191365014 0 -1.932554571883179e-05 -0.0042805705648314499 0 5.8264641754917706e-06 -0.0042917202387750758 0 -8.1835395164648282e-06 -0.0043031768694131254 0 -1.932554571883179e-05 -0.0042805705648314499 0 5.8264641754917706e-06 -0.0042917202387750758 0 0.00067117643065273071 -0.0025660470285786166 0 0.00069206211100185865 -0.0025758296642674735 0 0.00068354156491449351 -0.0025454388620871288 0 0.00067117643065273071 -0.0025660470285786166 0 0.00069206211100185865 -0.0025758296642674735 0 0.00064827882439525699 -0.0026103918031337046 0 0.00050856714781239798 -0.0030482485670926219 0 0.00059543378576395708 -0.0026561856487413464 0 0.00021212226912569672 -0.00367413470060352 0 0.00039304442267351419 -0.0036322652031693554 0 0.00028342072666337134 -0.0035670632297909533 0 0.00032559240587171041 -0.0033524605474748595 0 0.00043928628704955361 -0.0033243179658181301 0 0.00041845340288710128 -0.0034040146715278176 0 0.00050856714781239798 -0.0030482485670926219 0 0.00057382225796410254 -0.0028872282193944231 0 0.00014513256666855869 -0.0038718491209585254 0 0.00050856714781239798 -0.0030482485670926219 0 0.00013447085284115935 -0.003937046529539124 0 7.80891892459325e-05 -0.0039788955418550188 0 5.1264445043500142e-05 -0.0039342725841579884 0 0.00039304442267351419 -0.0036322652031693554 0 0.00028342072666337134 -0.0035670632297909533 0 0.00041110354755975682 -0.0035610056632205886 0 0.00020167268777333074 -0.0037509992918266714 0 0.00035119877108370562 -0.0032812920271418741 0 0.00013447085284115935 -0.003937046529539124 0 7.80891892459325e-05 -0.0039788955418550188 0 0.00011264524476732337 -0.0040080198561152228 0 0.00052717363288782085 -0.0027743542801107611 0 0.00051054281349059173 -0.0027803793495289426 0 0.00048785671771684857 -0.0027656808180108222 0 0.00052717363288782085 -0.0027743542801107611 0 0.00051054281349059173 -0.0027803793495289426 0 0.00052122466018456948 -0.0027992861552186181 0 0.00035119877108370562 -0.0032812920271418741 0 0.00055804020826073948 -0.0026821222415676564 0 7.80891892459325e-05 -0.0039788955418550188 0 5.1264445043500142e-05 -0.0039342725841579884 0 3.0719482439378338e-05 -0.0040119375669421461 0 0.00050906218094385833 -0.0027654656115170158 0 0.00050747011507270526 -0.0027716517308764561 0 0.00049350980367697116 -0.0027613978975498527 0 0.00035119877108370562 -0.0032812920271418741 0 0.00037798506950778213 -0.0034324669162397012 0 0.00050856714781239798 -0.0030482485670926219 0 0.00035119877108370562 -0.0032812920271418741 0 0.00051054281349059173 -0.0027803793495289426 0 0.00049520136698465243 -0.0027793766585595364 0 0.00048785671771684857 -0.0027656808180108222 0 0.00048785671771684857 -0.0027656808180108222 0 0.00045570427481797385 -0.0027483281389746698 0 0.00049350980367697116 -0.0027613978975498527 0 0.00051054281349059173 -0.0027803793495289426 0 0.00049520136698465243 -0.0027793766585595364 0 0.00049727099598642871 -0.0027934080087661426 0 0.00050747011507270526 -0.0027716517308764561 0 0.00048785671771684857 -0.0027656808180108222 0 0.00049350980367697116 -0.0027613978975498527 0 0.00049520136698465243 -0.0027793766585595364 0 0.00048524254452679316 -0.002778204742023704 0 0.00049727099598642871 -0.0027934080087661426 0 0.00049520136698465243 -0.0027793766585595364 0 0.00048524254452679316 -0.002778204742023704 0 0.00048785671771684857 -0.0027656808180108222 0 0.00048524254452679316 -0.002778204742023704 0 0.00048785671771684857 -0.0027656808180108222 0 0.00045570427481797385 -0.0027483281389746698 0 0.0004836440027526786 -0.002706666499809452 0 0.00059543378576395708 -0.0026561856487413464 0 0.00045570427481797385 -0.0027483281389746698 0 0.00042794569321392658 -0.0027621315131711121 0 0.0004721963053733608 -0.0027854358429286134 0 0.00048524254452679316 -0.002778204742023704 0 0.00045570427481797385 -0.0027483281389746698 0 0.0004721963053733608 -0.0027854358429286134 0 0.00053752189572182061 -0.0026583154511904713 0 0.00057944501519902644 -0.0025584373179393222 0 0.00064827882439525699 -0.0026103918031337046 0 0.00053752189572182061 -0.0026583154511904713 0 0.00057944501519902644 -0.0025584373179393222 0 0.00045429326918403404 -0.0026172856222604146 0 0.00057944501519902644 -0.0025584373179393222 0 0.00049749545463343109 -0.0024701657004942115 0 0.00045429326918403404 -0.0026172856222604146 0 0.00057944501519902644 -0.0025584373179393222 0 0.00064455746847819984 -0.0025653596080669984 0 0.00066575819587940354 -0.0025266663842157264 0 0.00067117643065273071 -0.0025660470285786166 0 0.00064827882439525699 -0.0026103918031337046 0 0.00064455746847819984 -0.0025653596080669984 0 0.00057944501519902644 -0.0025584373179393222 0 0.00064827882439525699 -0.0026103918031337046 0 0.00064455746847819984 -0.0025653596080669984 0 0.00067117643065273071 -0.0025660470285786166 0 0.00064455746847819984 -0.0025653596080669984 0 0.00066575819587940354 -0.0025266663842157264 0 0.00057944501519902644 -0.0025584373179393222 0 0.00066575819587940354 -0.0025266663842157264 0 0.00060022389582411767 -0.0024154891619513458 0 0.00057944501519902644 -0.0025584373179393222 0 0.00060022389582411767 -0.0024154891619513458 0 0.00049749545463343109 -0.0024701657004942115 0 0.00051408349740051328 -0.0023515631787302078 0 0.00060022389582411767 -0.0024154891619513458 0 0.00049749545463343109 -0.0024701657004942115 0 0.00051408349740051328 -0.0023515631787302078 0 0.00060022389582411767 -0.0024154891619513458 0 0.00059561988211295357 -0.0023233621497433226 0 0.00066575819587940354 -0.0025266663842157264 0 0.00060022389582411767 -0.0024154891619513458 0 0.00069860003337508618 -0.0023449799052976728 0 0.00060022389582411767 -0.0024154891619513458 0 0.00069860003337508618 -0.0023449799052976728 0 0.00059561988211295357 -0.0023233621497433226 0 0.0006586274988322567 -0.0025611845490041214 0 0.00071962375629692045 -0.0023629569947955739 0 0.00067385021361211685 -0.0025407692067694375 0 0.00068236666249798714 -0.0025534172686145838 0 0.00066705882154100991 -0.0025654843481488173 0 0.00066575819587940354 -0.0025266663842157264 0 0.00067385021361211685 -0.0025407692067694375 0 0.00068236666249798714 -0.0025534172686145838 0 0.00067117643065273071 -0.0025660470285786166 0 0.00066575819587940354 -0.0025266663842157264 0 0.00068354156491449351 -0.0025454388620871288 0 0.00066575819587940354 -0.0025266663842157264 0 0.00067385021361211685 -0.0025407692067694375 0 0.00068354156491449351 -0.0025454388620871288 0 0.00067385021361211685 -0.0025407692067694375 0 0.00068354156491449351 -0.0025454388620871288 0 0.00066705468412963851 -0.0025496281414017843 0 0.00036229127052149777 -0.0034173322280029402 0 0.00041845340288710128 -0.0034040146715278176 0 0.00039698230053551703 -0.0034817376695428399 0 0.00036229127052149777 -0.0034173322280029402 0 0.00032559240587171041 -0.0033524605474748595 0 0.00041845340288710128 -0.0034040146715278176 0 0.00057382225796410254 -0.0028872282193944231 0 0.00031934889900620868 -0.0034180268886323971 0 0.00013719184216225456 -0.0042658041051823938 0 0.00020096145942852803 -0.0042477694948951936 0 0.00017637471998494298 -0.0043394104907564009 0 0.00067385021361211685 -0.0025407692067694375 0 0.00066705468412963851 -0.0025496281414017843 0 0.00066705882154100991 -0.0025654843481488173 0 0.00028952183313446972 -0.0038446939608783983 0 0.00031934889900620868 -0.0034180268886323971 0 0.00031934889900620868 -0.0034180268886323971 0 0.0001317978957954383 -0.0039757965995057673 0 0.00013315364081163577 -0.0033751364266006827 0 0.00010789298747846016 -0.00346165074040229 0 0.00016974648656043379 -0.0034457026577919062 0 0.00031934889900620868 -0.0034180268886323971 0 0.0004111774066352734 -0.0029828078493146794 0 0.00010789298747846016 -0.00346165074040229 0 0.00016974648656043379 -0.0034457026577919062 0 0.00015484195896978381 -0.0035027460161114301 0 0.00071962375629692045 -0.0023629569947955739 0 0.00050163844605205369 -0.0027580911379045435 0 0.00068236666249798714 -0.0025534172686145838 0 0.00066705882154100991 -0.0025654843481488173 0 0.00067672470606545997 -0.0025897450084204202 0 0.00016974648656043379 -0.0034457026577919062 0 0.00020831474466710123 -0.0035162671163503113 0 0.00015484195896978381 -0.0035027460161114301 0 0.0004111774066352734 -0.0029828078493146794 0 0.00050163844605205369 -0.0027580911379045435 0 0.00020831474466710123 -0.0035162671163503113 0 0.00015484195896978381 -0.0035027460161114301 0 0.0002044812805670872 -0.0035395595256743012 0 0.00071885694791686407 -0.00219078513159033 0 0.00070206203598640552 -0.0021602314723993569 0 0.00066235317452106011 -0.0021969749071127581 0 0.00051262986063252262 -0.002887854735909186 0 0.0004601496409943279 -0.0027907985173410664 0 0.0005285869763372161 -0.0027884922949461739 0 0.00050163844605205369 -0.0027580911379045435 0 0.00016110628448613921 -0.0032588716564161467 0 0.00050163844605205369 -0.0027580911379045435 0 0.00043629750682225125 -0.0026676756676975643 0 8.3113125598794157e-05 -0.0035513878780454489 0 0.00010789298747846016 -0.00346165074040229 0 0.00015484195896978381 -0.0035027460161114301 0 8.3113125598794157e-05 -0.0035513878780454489 0 0.00015484195896978381 -0.0035027460161114301 0 0.0002044812805670872 -0.0035395595256743012 0 -0.00014185743794421394 -0.0039784012752980009 0 -0.00014136341862249722 -0.0039827606765497634 0 -0.00013480395957614927 -0.0039727414070118679 0 -0.00014185743794421394 -0.0039784012752980009 0 -0.00013480395957614927 -0.0039727414070118679 0 -0.0001359635506681029 -0.0039727032188782057 0 -6.9306523457614768e-05 -0.0039707355186679658 0 0.00016110628448613921 -0.0032588716564161467 0 -0.00014414299869732622 -0.0039881871112385755 0 -0.00014136341862249722 -0.0039827606765497634 0 -0.00014124529142091414 -0.0039918466770212224 0 -0.00014136341862249722 -0.0039827606765497634 0 -0.00013480395957614927 -0.0039727414070118679 0 -0.00014124529142091414 -0.0039918466770212224 0 0.00016110628448613921 -0.0032588716564161467 0 -0.00012481645258265284 -0.0036265421271956351 0 -0.00013480395957614927 -0.0039727414070118679 0 -0.0001359635506681029 -0.0039727032188782057 0 -0.00014629871000222132 -0.0039328992546002611 0 3.7796465866465707e-05 -0.002981311609284706 0 8.4064579758841656e-06 -0.0029829605343184855 0 4.3015259572719202e-05 -0.0031711263219374153 0 0.00043629750682225125 -0.0026676756676975643 0 0.00016110628448613921 -0.0032588716564161467 0 8.4064579758841656e-06 -0.0029829605343184855 0 4.3015259572719202e-05 -0.0031711263219374153 0 -3.3111007471067339e-05 -0.0032143359359589649 0 -0.00013764858019001114 -0.0040106547451710627 0 -0.00013480395957614927 -0.0039727414070118679 0 -0.00014124529142091414 -0.0039918466770212224 0 -0.00013695264197230919 -0.0039698684797441633 0 -0.0001349826411100585 -0.0039733116553794549 0 -0.00013435065718849775 -0.003928799467060479 0 -0.00013480395957614927 -0.0039727414070118679 0 -0.00014629871000222132 -0.0039328992546002611 0 -0.00013764858019001114 -0.0040106547451710627 0 -0.00014800556831079349 -0.0040049435771864735 0 -0.00014124529142091414 -0.0039918466770212224 0 0.00045631614908510777 -0.0019731896124846136 0 0.00057837144334600969 -0.0020343230406076377 0 0.00048494200359558589 -0.0020697546220949468 0 3.7796465866465707e-05 -0.002981311609284706 0 4.3015259572719202e-05 -0.0031711263219374153 0 0.00014383367318437034 -0.0031821200446350679 0 0.00043629750682225125 -0.0026676756676975643 0 0.0006229613671753897 -0.0021469707215059468 0 0.00043629750682225125 -0.0026676756676975643 0 0.00034190746131906337 -0.0025840674182658306 0 0.00064446370922611389 -0.002158191257430666 0 0.00057837144334600969 -0.0020343230406076377 0 0.00056068988468149512 -0.0021573908324974463 0 0.00057837144334600969 -0.0020343230406076377 0 0.00056068988468149512 -0.0021573908324974463 0 0.00048494200359558589 -0.0020697546220949468 0 0.00056068988468149512 -0.0021573908324974463 0 0.00048135128345087869 -0.0021607058994647221 0 0.00048494200359558589 -0.0020697546220949468 0 0.0006229613671753897 -0.0021469707215059468 0 0.00047436567658119952 -0.0021619205520044937 0 0.00059380642548849459 -0.0021598963753810237 0 0.00064056986978268285 -0.0022545401370301734 0 0.00054199565021621559 -0.0022530404749841284 0 0.00059380642548849459 -0.0021598963753810237 0 0.00054199565021621559 -0.0022530404749841284 0 0.00048135128345087869 -0.0021607058994647221 0 0.00070206203598640552 -0.0021602314723993569 0 0.00059380642548849459 -0.0021598963753810237 0 0.00066235317452106011 -0.0021969749071127581 0 0.00059380642548849459 -0.0021598963753810237 0 0.00066235317452106011 -0.0021969749071127581 0 0.00064056986978268285 -0.0022545401370301734 0 0.00071885694791686407 -0.00219078513159033 0 0.00066235317452106011 -0.0021969749071127581 0 0.00064056986978268285 -0.0022545401370301734 0 0.00069860003337508618 -0.0023449799052976728 0 0.00064056986978268285 -0.0022545401370301734 0 0.00059561988211295357 -0.0023233621497433226 0 0.00069860003337508618 -0.0023449799052976728 0 0.00071885694791686407 -0.00219078513159033 0 0.00064056986978268285 -0.0022545401370301734 0 0.00064056986978268285 -0.0022545401370301734 0 0.00059561988211295357 -0.0023233621497433226 0 0.00054199565021621559 -0.0022530404749841284 0 0.00051408349740051328 -0.0023515631787302078 0 0.00059561988211295357 -0.0023233621497433226 0 0.00054199565021621559 -0.0022530404749841284 0 0.00051408349740051328 -0.0023515631787302078 0 0.00054199565021621559 -0.0022530404749841284 0 0.00045181337564985824 -0.0022715759256547066 0 0.00051408349740051328 -0.0023515631787302078 0 0.00045181337564985824 -0.0022715759256547066 0 0.00042449384858239084 -0.0023803624767686962 0 0.00045181337564985824 -0.0022715759256547066 0 0.00035834897465214646 -0.0022903516227485302 0 0.00039549911063278343 -0.0021961144811535635 0 0.00045181337564985824 -0.0022715759256547066 0 0.00035834897465214646 -0.0022903516227485302 0 0.00042449384858239084 -0.0023803624767686962 0 0.00035834897465214646 -0.0022903516227485302 0 0.00039549911063278343 -0.0021961144811535635 0 0.0003212573443443417 -0.0022187658577696207 0 0.00039549911063278343 -0.0021961144811535635 0 0.0003386564233966172 -0.0021424112842241437 0 0.0003212573443443417 -0.0022187658577696207 0 0.00045181337564985824 -0.0022715759256547066 0 0.00039549911063278343 -0.0021961144811535635 0 0.00048135128345087869 -0.0021607058994647221 0 0.00054199565021621559 -0.0022530404749841284 0 0.00045181337564985824 -0.0022715759256547066 0 0.00048135128345087869 -0.0021607058994647221 0 0.00039549911063278343 -0.0021961144811535635 0 0.00048135128345087869 -0.0021607058994647221 0 0.00041507584115151654 -0.0021041978139893923 0 0.00048135128345087869 -0.0021607058994647221 0 0.00041507584115151654 -0.0021041978139893923 0 0.00048494200359558589 -0.0020697546220949468 0 0.00041507584115151654 -0.0021041978139893923 0 0.0003386564233966172 -0.0021424112842241437 0 0.00031128795601813238 -0.0020538942062971353 0 0.00039549911063278343 -0.0021961144811535635 0 0.00041507584115151654 -0.0021041978139893923 0 0.0003386564233966172 -0.0021424112842241437 0 0.00041507584115151654 -0.0021041978139893923 0 0.00039651328862587058 -0.0020200581256524042 0 0.00031128795601813238 -0.0020538942062971353 0 0.00041507584115151654 -0.0021041978139893923 0 0.00039651328862587058 -0.0020200581256524042 0 0.00048494200359558589 -0.0020697546220949468 0 0.00045631614908510777 -0.0019731896124846136 0 0.00039651328862587058 -0.0020200581256524042 0 0.00048494200359558589 -0.0020697546220949468 0 0.00022367001115512894 -0.0020039632993118827 0 0.00022559641996148966 -0.0021344118082171396 0 0.00014601461675899181 -0.0020037625276544779 0 0.00031131282409210451 -0.0019734876074843865 0 0.00022367001115512894 -0.0020039632993118827 0 0.00031128795601813238 -0.0020538942062971353 0 0.00031131282409210451 -0.0019734876074843865 0 0.00039651328862587058 -0.0020200581256524042 0 0.00031128795601813238 -0.0020538942062971353 0 0.0003386564233966172 -0.0021424112842241437 0 0.00031128795601813238 -0.0020538942062971353 0 0.00022559641996148966 -0.0021344118082171396 0 0.00022367001115512894 -0.0020039632993118827 0 0.00031128795601813238 -0.0020538942062971353 0 0.00022559641996148966 -0.0021344118082171396 0 0.00022559641996148966 -0.0021344118082171396 0 0.00016833523945256943 -0.0022158895356730254 0 0.00025722853263259496 -0.0022684174400241712 0 0.00022559641996148966 -0.0021344118082171396 0 0.0003212573443443417 -0.0022187658577696207 0 0.00025722853263259496 -0.0022684174400241712 0 0.0003386564233966172 -0.0021424112842241437 0 0.00022559641996148966 -0.0021344118082171396 0 0.0003212573443443417 -0.0022187658577696207 0 0.00035834897465214646 -0.0022903516227485302 0 0.00025722853263259496 -0.0022684174400241712 0 0.00030438099018531345 -0.0023984831919096439 0 0.00035834897465214646 -0.0022903516227485302 0 0.0003212573443443417 -0.0022187658577696207 0 0.00025722853263259496 -0.0022684174400241712 0 0.00025722853263259496 -0.0022684174400241712 0 0.00017033155758369129 -0.0023073540128647004 0 0.00022436618896500511 -0.0023610666318612823 0 0.00016833523945256943 -0.0022158895356730254 0 0.00025722853263259496 -0.0022684174400241712 0 0.00017033155758369129 -0.0023073540128647004 0 0.00017033155758369129 -0.0023073540128647004 0 0.00022436618896500511 -0.0023610666318612823 0 0.00016298309164252561 -0.0023968541252831817 0 0.00022436618896500511 -0.0023610666318612823 0 0.00016298309164252561 -0.0023968541252831817 0 0.00022692834310388601 -0.0024317516884555333 0 0.00016298309164252561 -0.0023968541252831817 0 0.00022692834310388601 -0.0024317516884555333 0 0.00016879484424655491 -0.0024654128157577263 0 0.00022692834310388601 -0.0024317516884555333 0 0.00016879484424655491 -0.0024654128157577263 0 0.00025832422231296533 -0.0025214335833934308 0 0.00022692834310388601 -0.0024317516884555333 0 0.00030438099018531345 -0.0023984831919096439 0 0.00025832422231296533 -0.0025214335833934308 0 0.00025722853263259496 -0.0022684174400241712 0 0.00022436618896500511 -0.0023610666318612823 0 0.00030438099018531345 -0.0023984831919096439 0 0.00022436618896500511 -0.0023610666318612823 0 0.00022692834310388601 -0.0024317516884555333 0 0.00030438099018531345 -0.0023984831919096439 0 0.00035834897465214646 -0.0022903516227485302 0 0.00030438099018531345 -0.0023984831919096439 0 0.00042449384858239084 -0.0023803624767686962 0 0.00051408349740051328 -0.0023515631787302078 0 0.00042449384858239084 -0.0023803624767686962 0 0.00049749545463343109 -0.0024701657004942115 0 0.00042449384858239084 -0.0023803624767686962 0 0.00049749545463343109 -0.0024701657004942115 0 0.00040795979148352168 -0.0025229524424193344 0 0.00030438099018531345 -0.0023984831919096439 0 0.00040795979148352168 -0.0025229524424193344 0 0.00025832422231296533 -0.0025214335833934308 0 0.00030438099018531345 -0.0023984831919096439 0 0.00042449384858239084 -0.0023803624767686962 0 0.00040795979148352168 -0.0025229524424193344 0 0.00040845887102400498 -0.0025056170973728319 0 0.00019367182184294734 -0.0025903291983351865 0 0.00032180983362686333 -0.0026229958744703303 0 0.00040795979148352168 -0.0025229524424193344 0 0.00016152817531994132 -0.0025469922086724019 0 0.00049749545463343109 -0.0024701657004942115 0 0.00045429326918403404 -0.0026172856222604146 0 0.00040795979148352168 -0.0025229524424193344 0 0.00032180983362686333 -0.0026229958744703303 0 0.00045429326918403404 -0.0026172856222604146 0 0.00040795979148352168 -0.0025229524424193344 0 0.00045570427481797385 -0.0027483281389746698 0 0.00042794569321392658 -0.0027621315131711121 0 0.00038590123473760855 -0.0027210493937936315 0 0.0004836440027526786 -0.002706666499809452 0 0.00039377583027801633 -0.0027205796688096941 0 0.00053752189572182061 -0.0026583154511904713 0 0.00045429326918403404 -0.0026172856222604146 0 0.00038590123473760855 -0.0027210493937936315 0 0.00042794569321392658 -0.0027621315131711121 0 0.00038590123473760855 -0.0027210493937936315 0 0.00036944393985402041 -0.0027694074834528908 0 0.00032180983362686333 -0.0026229958744703303 0 0.00038590123473760855 -0.0027210493937936315 0 0.00019026568359437946 -0.0027027544531824728 0 0.00014831734425984152 -0.003229204233513131 0 -0.00020345752021748456 -0.0030810736327487368 0 -3.2345304589912411e-05 -0.0032782449651001244 0 0.00032180983362686333 -0.0026229958744703303 0 0.00045429326918403404 -0.0026172856222604146 0 0.00038590123473760855 -0.0027210493937936315 0 0.00038590123473760855 -0.0027210493937936315 0 0.00036944393985402041 -0.0027694074834528908 0 0.00019026568359437946 -0.0027027544531824728 0 0.00024541465590850129 -0.0029934669039027488 0 1.3678708704174481e-05 -0.0029510033247620131 0 -0.00020345752021748456 -0.0030810736327487368 0 -0.00021150934266431798 -0.0033098431363668395 0 -3.2345304589912411e-05 -0.0032782449651001244 0 -0.00020345752021748456 -0.0030810736327487368 0 -0.00043668308150302974 -0.0031503991118000891 0 -0.00021150934266431798 -0.0033098431363668395 0 -0.00043668308150302974 -0.0031503991118000891 0 -0.00055547665765114779 -0.0029310181393356304 0 -0.00065493577284484209 -0.0032554608922934036 0 -0.00020345752021748456 -0.0030810736327487368 0 -0.00043668308150302974 -0.0031503991118000891 0 -0.00055547665765114779 -0.0029310181393356304 0 1.3678708704174481e-05 -0.0029510033247620131 0 -0.00025118924957765094 -0.0021983061663535895 0 0.00019367182184294734 -0.0025903291983351865 0 6.5406262467449864e-05 -0.0021748419985474542 0 0.00019026568359437946 -0.0027027544531824728 0 4.3595881040032956e-06 -0.0026239630118519452 0 0.00016152817531994132 -0.0025469922086724019 0 4.3595881040032956e-06 -0.0026239630118519452 0 0.00016152817531994132 -0.0025469922086724019 0 -8.6555665971685636e-05 -0.0025715517270711299 0 0.00016879484424655491 -0.0024654128157577263 0 0.00025832422231296533 -0.0025214335833934308 0 0.00010387371834047005 -0.0025314236414417353 0 0.00032180983362686333 -0.0026229958744703303 0 0.00019026568359437946 -0.0027027544531824728 0 0.00016152817531994132 -0.0025469922086724019 0 -0.00018049419865962782 -0.0035306838655635372 0 -0.00031936231897473807 -0.0036685924300933967 0 -0.00041891156676966506 -0.0034226619585551272 0 -0.00018049419865962782 -0.0035306838655635372 0 -0.0001401281895746039 -0.0037181254057662024 0 -2.5259709524230059e-05 -0.0036095411550170244 0 -0.00018049419865962782 -0.0035306838655635372 0 8.3277954942253032e-06 -0.0034292440526723787 0 -2.5259709524230059e-05 -0.0036095411550170244 0 -0.0001401281895746039 -0.0037181254057662024 0 -0.00031936231897473807 -0.0036685924300933967 0 -0.0002578476764794133 -0.0038564973712646331 0 -0.00018049419865962782 -0.0035306838655635372 0 -0.0001401281895746039 -0.0037181254057662024 0 -0.00031936231897473807 -0.0036685924300933967 0 -0.00031936231897473807 -0.0036685924300933967 0 -0.00050760259533531025 -0.0036635768616334143 0 -0.00042890532395101054 -0.0037969946347331273 0 -0.00050760259533531025 -0.0036635768616334143 0 -0.00041891156676966506 -0.0034226619585551272 0 -0.00074967727866081732 -0.0035793120709080211 0 -0.00031936231897473807 -0.0036685924300933967 0 -0.00050760259533531025 -0.0036635768616334143 0 -0.00041891156676966506 -0.0034226619585551272 0 -0.00043668308150302974 -0.0031503991118000891 0 -0.00041891156676966506 -0.0034226619585551272 0 -0.00021150934266431798 -0.0033098431363668395 0 -0.00043668308150302974 -0.0031503991118000891 0 -0.00041891156676966506 -0.0034226619585551272 0 -0.00065493577284484209 -0.0032554608922934036 0 -0.00018049419865962782 -0.0035306838655635372 0 -0.00041891156676966506 -0.0034226619585551272 0 -0.00021150934266431798 -0.0033098431363668395 0 -0.00018049419865962782 -0.0035306838655635372 0 -0.00021150934266431798 -0.0033098431363668395 0 8.3277954942253032e-06 -0.0034292440526723787 0 -0.00021150934266431798 -0.0033098431363668395 0 -3.2345304589912411e-05 -0.0032782449651001244 0 8.3277954942253032e-06 -0.0034292440526723787 0 -3.2345304589912411e-05 -0.0032782449651001244 0 9.6600036608980092e-05 -0.0033420678952824547 0 8.3277954942253032e-06 -0.0034292440526723787 0 0.00014831734425984152 -0.003229204233513131 0 -3.2345304589912411e-05 -0.0032782449651001244 0 9.6600036608980092e-05 -0.0033420678952824547 0 0.00014831734425984152 -0.003229204233513131 0 9.6600036608980092e-05 -0.0033420678952824547 0 0.00021288586506978171 -0.003417879144115336 0 8.3277954942253032e-06 -0.0034292440526723787 0 0.00021288586506978171 -0.003417879144115336 0 0.00015342017091154989 -0.0036018423565374299 0 9.6600036608980092e-05 -0.0033420678952824547 0 8.3277954942253032e-06 -0.0034292440526723787 0 0.00021288586506978171 -0.003417879144115336 0 0.00024541465590850129 -0.0029934669039027488 0 0.00050924331734623983 -0.0030597386705929529 0 0.00042794569321392658 -0.0027621315131711121 0 0.00036944393985402041 -0.0027694074834528908 0 0.00045080494905264031 -0.0028018286409818012 0 0.00021288586506978171 -0.003417879144115336 0 0.00033912351305370676 -0.0035709831806508912 0 0.00050051618443658471 -0.0033768952395639394 0 0.00014831734425984152 -0.003229204233513131 0 0.00021288586506978171 -0.003417879144115336 0 0.00050051618443658471 -0.0033768952395639394 0 0.00033912351305370676 -0.0035709831806508912 0 0.00024116268621743003 -0.0037680081070444221 0 0.0005708568662064474 -0.0037417953994803143 0 0.00021288586506978171 -0.003417879144115336 0 0.00033912351305370676 -0.0035709831806508912 0 0.00015342017091154989 -0.0036018423565374299 0 0.00033912351305370676 -0.0035709831806508912 0 0.00015342017091154989 -0.0036018423565374299 0 0.00024116268621743003 -0.0037680081070444221 0 8.3277954942253032e-06 -0.0034292440526723787 0 -2.5259709524230059e-05 -0.0036095411550170244 0 0.00015342017091154989 -0.0036018423565374299 0 0.00015342017091154989 -0.0036018423565374299 0 3.0964012581285105e-05 -0.0037682022308144535 0 0.00024116268621743003 -0.0037680081070444221 0 -0.0001401281895746039 -0.0037181254057662024 0 -2.5259709524230059e-05 -0.0036095411550170244 0 3.0964012581285105e-05 -0.0037682022308144535 0 -2.5259709524230059e-05 -0.0036095411550170244 0 0.00015342017091154989 -0.0036018423565374299 0 3.0964012581285105e-05 -0.0037682022308144535 0 -0.0001401281895746039 -0.0037181254057662024 0 3.0964012581285105e-05 -0.0037682022308144535 0 -7.9630590246034403e-05 -0.0038716048003105659 0 3.0964012581285105e-05 -0.0037682022308144535 0 5.0096384407324646e-05 -0.0039554338457555658 0 -7.9630590246034403e-05 -0.0038716048003105659 0 3.0964012581285105e-05 -0.0037682022308144535 0 5.0096384407324646e-05 -0.0039554338457555658 0 0.00024116268621743003 -0.0037680081070444221 0 5.0096384407324646e-05 -0.0039554338457555658 0 0.00024116268621743003 -0.0037680081070444221 0 0.00029003753925996431 -0.0039769319478940718 0 5.0096384407324646e-05 -0.0039554338457555658 0 -8.4353411737411727e-05 -0.0040649506088862933 0 -7.9630590246034403e-05 -0.0038716048003105659 0 0.00024116268621743003 -0.0037680081070444221 0 0.00029003753925996431 -0.0039769319478940718 0 0.0005708568662064474 -0.0037417953994803143 0 0.00014740921154857449 -0.0041115302005736267 0 0.00029476433882508673 -0.0040163093994672154 0 9.9960891551058804e-06 -0.0042589852854681134 0 1.591358889851666e-05 -0.0042875982590633022 0 3.8142427102871877e-05 -0.0042680698200338709 0 9.9960891551058804e-06 -0.0042589852854681134 0 1.591358889851666e-05 -0.0042875982590633022 0 1.0314659952744558e-06 -0.0042552740443083511 0 9.9960891551058804e-06 -0.0042589852854681134 0 1.0314659952744558e-06 -0.0042552740443083511 0 -1.9333737322719487e-05 -0.0042141214297415725 0 5.0096384407324646e-05 -0.0039554338457555658 0 0.00029003753925996431 -0.0039769319478940718 0 -1.9333737322719487e-05 -0.0042141214297415725 0 0.00014740921154857449 -0.0041115302005736267 0 -7.2525296448178958e-06 -0.0042145961991412826 0 5.0096384407324646e-05 -0.0039554338457555658 0 -1.9333737322719487e-05 -0.0042141214297415725 0 -8.4353411737411727e-05 -0.0040649506088862933 0 -1.9333737322719487e-05 -0.0042141214297415725 0 -8.7624765039680274e-05 -0.0041516767704562951 0 -9.770107805586546e-05 -0.0042231396528470888 0 -1.9333737322719487e-05 -0.0042141214297415725 0 -8.7624765039680274e-05 -0.0041516767704562951 0 -8.4353411737411727e-05 -0.0040649506088862933 0 -0.00010252939213419926 -0.0040611555268616172 0 -8.4353411737411727e-05 -0.0040649506088862933 0 -8.3078409218293088e-05 -0.0040511019692608631 0 -8.7624765039680274e-05 -0.0041516767704562951 0 -0.00010252939213419926 -0.0040611555268616172 0 -0.00016893232412040237 -0.004189189313452293 0 -8.7624765039680274e-05 -0.0041516767704562951 0 -0.00010252939213419926 -0.0040611555268616172 0 -8.4353411737411727e-05 -0.0040649506088862933 0 -8.4353411737411727e-05 -0.0040649506088862933 0 -0.0002578476764794133 -0.0038564973712646331 0 -0.00046766412566312413 -0.003963941485916298 0 -8.4353411737411727e-05 -0.0040649506088862933 0 -0.0002578476764794133 -0.0038564973712646331 0 -7.9630590246034403e-05 -0.0038716048003105659 0 -6.6931660194636061e-05 -0.004045487950452468 0 -0.00034536688527738119 -0.0040798134167843577 0 -0.0001401281895746039 -0.0037181254057662024 0 -0.0002578476764794133 -0.0038564973712646331 0 -7.9630590246034403e-05 -0.0038716048003105659 0 -0.00042890532395101054 -0.0037969946347331273 0 -0.00046766412566312413 -0.003963941485916298 0 -0.00063172798057326799 -0.0037822218574851351 0 -0.00050760259533531025 -0.0036635768616334143 0 -0.00042890532395101054 -0.0037969946347331273 0 -0.00063172798057326799 -0.0037822218574851351 0 -0.0002578476764794133 -0.0038564973712646331 0 -0.00042890532395101054 -0.0037969946347331273 0 -0.00046766412566312413 -0.003963941485916298 0 -0.00031936231897473807 -0.0036685924300933967 0 -0.0002578476764794133 -0.0038564973712646331 0 -0.00042890532395101054 -0.0037969946347331273 0 -8.2324621102885018e-05 -0.0039723775241418471 0 -0.0001157494752491773 -0.0038404783071806776 0 8.3183514837027427e-05 -0.0039135788682440704 0 -8.3078409218293088e-05 -0.0040511019692608631 0 -8.2324621102885018e-05 -0.0039723775241418471 0 8.3183514837027427e-05 -0.0039135788682440704 0 -0.00010252939213419926 -0.0040611555268616172 0 -8.3078409218293088e-05 -0.0040511019692608631 0 -8.2324621102885018e-05 -0.0039723775241418471 0 -0.00011398053109504301 -0.0040415341813635208 0 -0.00013380879210344554 -0.0040129377381100647 0 -0.00010252939213419926 -0.0040611555268616172 0 -8.2324621102885018e-05 -0.0039723775241418471 0 -0.0001157494752491773 -0.0038404783071806776 0 -0.00016893232412040237 -0.004189189313452293 0 -9.770107805586546e-05 -0.0042231396528470888 0 -0.00021177038884674326 -0.0042711733969091102 0 -2.1679794205149278e-05 -0.0043321538067302434 0 -9.6262234557643315e-06 -0.0043479437481637687 0 -2.5607055860957461e-06 -0.0043527027098991368 0 -0.0001157494752491773 -0.0038404783071806776 0 8.3183514837027427e-05 -0.0039135788682440704 0 3.0094367439799199e-05 -0.0037651145125751659 0 -8.4774625312005286e-05 -0.0043172730030983228 0 -4.5196466871848946e-05 -0.0039436640276191122 0 -0.0001157494752491773 -0.0038404783071806776 0 -2.6696909415769517e-05 -0.003587700979562727 0 3.0094367439799199e-05 -0.0037651145125751659 0 -0.00013380879210344554 -0.0040129377381100647 0 -4.5196466871848946e-05 -0.0039436640276191122 0 -8.7624765039680274e-05 -0.0041516767704562951 0 -0.00016893232412040237 -0.004189189313452293 0 -9.770107805586546e-05 -0.0042231396528470888 0 -2.1679794205149278e-05 -0.0043321538067302434 0 -1.0169158338318579e-05 -0.0043440178037351699 0 -6.2398754584411609e-06 -0.0043193697549861968 0 -2.1679794205149278e-05 -0.0043321538067302434 0 -1.0169158338318579e-05 -0.0043440178037351699 0 -9.6262234557643315e-06 -0.0043479437481637687 0 -1.0169158338318579e-05 -0.0043440178037351699 0 -9.6262234557643315e-06 -0.0043479437481637687 0 -3.9570587270399567e-06 -0.0043577050177143637 0 -1.0169158338318579e-05 -0.0043440178037351699 0 -3.9570587270399567e-06 -0.0043577050177143637 0 -4.7952616047775925e-07 -0.0043607911931948301 0 -9.6262234557643315e-06 -0.0043479437481637687 0 -2.5607055860957461e-06 -0.0043527027098991368 0 1.746570084916301e-06 -0.004353772878101814 0 -9.6262234557643315e-06 -0.0043479437481637687 0 1.746570084916301e-06 -0.004353772878101814 0 -3.9570587270399567e-06 -0.0043577050177143637 0 8.935449254366447e-06 -0.0043563850137051593 0 -3.9570587270399567e-06 -0.0043577050177143637 0 1.6760879093012253e-06 -0.0043609998743963478 0 1.746570084916301e-06 -0.004353772878101814 0 8.935449254366447e-06 -0.0043563850137051593 0 2.4841293418952663e-05 -0.0043528940351564719 0 1.746570084916301e-06 -0.004353772878101814 0 8.935449254366447e-06 -0.0043563850137051593 0 -3.9570587270399567e-06 -0.0043577050177143637 0 -3.9570587270399567e-06 -0.0043577050177143637 0 1.9942381034682048e-06 -0.004371316084298733 0 -4.7952616047775925e-07 -0.0043607911931948301 0 1.6760879093012253e-06 -0.0043609998743963478 0 1.9942381034682048e-06 -0.004371316084298733 0 -2.5625708305946611e-07 -0.0043581824368417238 0 -3.9570587270399567e-06 -0.0043577050177143637 0 1.6760879093012253e-06 -0.0043609998743963478 0 1.9942381034682048e-06 -0.004371316084298733 0 1.6760879093012253e-06 -0.0043609998743963478 0 2.9440089305373974e-05 -0.0043466239751139748 0 -2.5625708305946611e-07 -0.0043581824368417238 0 8.935449254366447e-06 -0.0043563850137051593 0 1.6760879093012253e-06 -0.0043609998743963478 0 2.9440089305373974e-05 -0.0043466239751139748 0 8.5372085068423949e-06 -0.0043899345831233377 0 1.9942381034682048e-06 -0.004371316084298733 0 9.2565275106677197e-06 -0.0043736600445563253 0 8.5372085068423949e-06 -0.0043899345831233377 0 1.9942381034682048e-06 -0.004371316084298733 0 6.9087672819589438e-06 -0.0043919993327792874 0 1.9942381034682048e-06 -0.004371316084298733 0 -4.7952616047775925e-07 -0.0043607911931948301 0 9.2565275106677197e-06 -0.0043736600445563253 0 -4.7952616047775925e-07 -0.0043607911931948301 0 9.2565275106677197e-06 -0.0043736600445563253 0 1.2355225086744368e-05 -0.004354918512233864 0 9.2565275106677197e-06 -0.0043736600445563253 0 1.2355225086744368e-05 -0.004354918512233864 0 2.1923119748027927e-05 -0.0043704251957858162 0 1.2355225086744368e-05 -0.004354918512233864 0 1.5871653975882103e-07 -0.0043404173472416339 0 1.0732722095253988e-05 -0.0043183121492552492 0 1.2355225086744368e-05 -0.004354918512233864 0 2.2750996668328266e-05 -0.0043411889469575611 0 2.1923119748027927e-05 -0.0043704251957858162 0 -4.7952616047775925e-07 -0.0043607911931948301 0 1.2355225086744368e-05 -0.004354918512233864 0 1.5871653975882103e-07 -0.0043404173472416339 0 -1.0169158338318579e-05 -0.0043440178037351699 0 -4.7952616047775925e-07 -0.0043607911931948301 0 1.5871653975882103e-07 -0.0043404173472416339 0 -1.0169158338318579e-05 -0.0043440178037351699 0 1.5871653975882103e-07 -0.0043404173472416339 0 -6.2398754584411609e-06 -0.0043193697549861968 0 1.0314659952744558e-06 -0.0042552740443083511 0 -1.9333737322719487e-05 -0.0042141214297415725 0 -9.770107805586546e-05 -0.0042231396528470888 0 1.0314659952744558e-06 -0.0042552740443083511 0 -2.1679794205149278e-05 -0.0043321538067302434 0 -6.2398754584411609e-06 -0.0043193697549861968 0 1.8104764193481195e-05 -0.0042414728098072304 0 -8.4774625312005286e-05 -0.0043172730030983228 0 1.5871653975882103e-07 -0.0043404173472416339 0 -6.2398754584411609e-06 -0.0043193697549861968 0 1.0732722095253988e-05 -0.0043183121492552492 0 1.0314659952744558e-06 -0.0042552740443083511 0 -6.2398754584411609e-06 -0.0043193697549861968 0 1.0732722095253988e-05 -0.0043183121492552492 0 1.2355225086744368e-05 -0.004354918512233864 0 1.0732722095253988e-05 -0.0043183121492552492 0 2.2750996668328266e-05 -0.0043411889469575611 0 1.591358889851666e-05 -0.0042875982590633022 0 1.0732722095253988e-05 -0.0043183121492552492 0 2.2750996668328266e-05 -0.0043411889469575611 0 1.591358889851666e-05 -0.0042875982590633022 0 1.0314659952744558e-06 -0.0042552740443083511 0 1.0732722095253988e-05 -0.0043183121492552492 0 1.591358889851666e-05 -0.0042875982590633022 0 2.2750996668328266e-05 -0.0043411889469575611 0 3.9458326050086778e-05 -0.004315319567332874 0 2.2750996668328266e-05 -0.0043411889469575611 0 3.5569896449293328e-05 -0.0043871432676658075 0 3.9458326050086778e-05 -0.004315319567332874 0 4.2815159493324685e-05 -0.0043675292174346044 0 4.5027199116298456e-05 -0.0044050388000159433 0 3.5569896449293328e-05 -0.0043871432676658075 0 -9.5637296952066094e-07 -0.0044205341327889841 0 1.2952749662049813e-05 -0.0044539871414069829 0 3.5569896449293328e-05 -0.0043871432676658075 0 1.9006541376424837e-05 -0.0043877289931522545 0 -7.3366596137414481e-06 -0.0044149311802038661 0 2.2750996668328266e-05 -0.0043411889469575611 0 3.5569896449293328e-05 -0.0043871432676658075 0 2.1923119748027927e-05 -0.0043704251957858162 0 3.5569896449293328e-05 -0.0043871432676658075 0 2.1923119748027927e-05 -0.0043704251957858162 0 1.9006541376424837e-05 -0.0043877289931522545 0 8.5372085068423949e-06 -0.0043899345831233377 0 9.2565275106677197e-06 -0.0043736600445563253 0 1.9006541376424837e-05 -0.0043877289931522545 0 9.2565275106677197e-06 -0.0043736600445563253 0 2.1923119748027927e-05 -0.0043704251957858162 0 1.9006541376424837e-05 -0.0043877289931522545 0 1.9006541376424837e-05 -0.0043877289931522545 0 3.7895944244105757e-06 -0.0043990346196974596 0 -7.3366596137414481e-06 -0.0044149311802038661 0 1.9006541376424837e-05 -0.0043877289931522545 0 3.7895944244105757e-06 -0.0043990346196974596 0 3.7979643667203973e-06 -0.0044024772741679064 0 8.5372085068423949e-06 -0.0043899345831233377 0 1.9006541376424837e-05 -0.0043877289931522545 0 3.7979643667203973e-06 -0.0044024772741679064 0 3.7895944244105757e-06 -0.0043990346196974596 0 -1.0802418341150588e-07 -0.0044045435163108486 0 -6.9160286517471273e-06 -0.0044189499202967244 0 3.7895944244105757e-06 -0.0043990346196974596 0 -1.0802418341150588e-07 -0.0044045435163108486 0 -7.3366596137414481e-06 -0.0044149311802038661 0 -1.9426506586345843e-05 -0.0044447428898906982 0 -9.7765903536999454e-06 -0.0044203644677730351 0 -4.2918604644642892e-05 -0.0044832202484844218 0 -2.4791521538099169e-05 -0.0044518761469566921 0 -7.3366596137414481e-06 -0.0044149311802038661 0 -7.3366596137414481e-06 -0.0044149311802038661 0 -9.5637296952066094e-07 -0.0044205341327889841 0 -2.2267565421709076e-05 -0.0044409213554878514 0 -2.4791521538099169e-05 -0.0044518761469566921 0 -7.3366596137414481e-06 -0.0044149311802038661 0 -2.2267565421709076e-05 -0.0044409213554878514 0 3.5569896449293328e-05 -0.0043871432676658075 0 -7.3366596137414481e-06 -0.0044149311802038661 0 -9.5637296952066094e-07 -0.0044205341327889841 0 -9.5637296952066094e-07 -0.0044205341327889841 0 -1.405362775736293e-05 -0.0044425635948489375 0 -2.2267565421709076e-05 -0.0044409213554878514 0 -1.405362775736293e-05 -0.0044425635948489375 0 -5.3785560651913496e-06 -0.0044600674537866843 0 -2.0821655264699135e-05 -0.0044543237355468479 0 -1.7987560696217587e-05 -0.0044633570349192934 0 -5.3785560651913496e-06 -0.0044600674537866843 0 -2.0821655264699135e-05 -0.0044543237355468479 0 -5.3785560651913496e-06 -0.0044600674537866843 0 1.2952749662049813e-05 -0.0044539871414069829 0 2.648435111855499e-06 -0.004472177988976523 0 4.5027199116298456e-05 -0.0044050388000159433 0 9.6259039920487991e-05 -0.0041658898678653845 0 -1.405362775736293e-05 -0.0044425635948489375 0 -5.3785560651913496e-06 -0.0044600674537866843 0 1.2952749662049813e-05 -0.0044539871414069829 0 -9.5637296952066094e-07 -0.0044205341327889841 0 -1.405362775736293e-05 -0.0044425635948489375 0 1.2952749662049813e-05 -0.0044539871414069829 0 9.7182024031357666e-05 -0.0042789305015192378 0 3.9458326050086778e-05 -0.004315319567332874 0 3.8142427102871877e-05 -0.0042680698200338709 0 3.5569896449293328e-05 -0.0043871432676658075 0 9.7182024031357666e-05 -0.0042789305015192378 0 3.9458326050086778e-05 -0.004315319567332874 0 1.591358889851666e-05 -0.0042875982590633022 0 3.9458326050086778e-05 -0.004315319567332874 0 3.8142427102871877e-05 -0.0042680698200338709 0 9.9960891551058804e-06 -0.0042589852854681134 0 3.8142427102871877e-05 -0.0042680698200338709 0 3.677085628340539e-05 -0.0042261165223069557 0 3.8142427102871877e-05 -0.0042680698200338709 0 7.3615196469900928e-05 -0.0042309300475181118 0 3.677085628340539e-05 -0.0042261165223069557 0 9.7182024031357666e-05 -0.0042789305015192378 0 3.8142427102871877e-05 -0.0042680698200338709 0 7.3615196469900928e-05 -0.0042309300475181118 0 9.7182024031357666e-05 -0.0042789305015192378 0 7.3615196469900928e-05 -0.0042309300475181118 0 0.00012320185202281057 -0.0041940869552690527 0 7.3615196469900928e-05 -0.0042309300475181118 0 8.8195931358303067e-05 -0.0041787401908283187 0 3.677085628340539e-05 -0.0042261165223069557 0 0.00041632267511472254 -0.0035627007372063414 0 0.00029476433882508673 -0.0040163093994672154 0 7.3615196469900928e-05 -0.0042309300475181118 0 8.8195931358303067e-05 -0.0041787401908283187 0 0.00012320185202281057 -0.0041940869552690527 0 0.00041632267511472254 -0.0035627007372063414 0 9.6259039920487991e-05 -0.0041658898678653845 0 0.00033912351305370676 -0.0035709831806508912 0 0.0005708568662064474 -0.0037417953994803143 0 0.00050051618443658471 -0.0033768952395639394 0 0.00084550931676172854 -0.0035194486279081149 0 0.0005708568662064474 -0.0037417953994803143 0 0.00050051618443658471 -0.0033768952395639394 0 0.00042794569321392658 -0.0027621315131711121 0 0.00045080494905264031 -0.0028018286409818012 0 0.0004721963053733608 -0.0027854358429286134 0 0.000494369776857725 -0.0028235062003734283 0 0.00045080494905264031 -0.0028018286409818012 0 0.0004721963053733608 -0.0027854358429286134 0 0.00041632267511472254 -0.0035627007372063414 0 0.00050924331734623983 -0.0030597386705929529 0 0.000494369776857725 -0.0028235062003734283 0 0.00049727099598642871 -0.0027934080087661426 0 0.00052122466018456948 -0.0027992861552186181 0 0.000494369776857725 -0.0028235062003734283 0 0.0004721963053733608 -0.0027854358429286134 0 0.00049727099598642871 -0.0027934080087661426 0 0.00048524254452679316 -0.002778204742023704 0 0.0004721963053733608 -0.0027854358429286134 0 0.00049727099598642871 -0.0027934080087661426 0 0.00018492522709166327 -0.0037269349859536199 0 0.00036480045267512056 -0.0035838383421507294 0 0.00031492528140058949 -0.0037798699581328976 0 0.00037798506950778213 -0.0034324669162397012 0 9.6259039920487991e-05 -0.0041658898678653845 0 0.00051054281349059173 -0.0027803793495289426 0 0.00049727099598642871 -0.0027934080087661426 0 0.00052122466018456948 -0.0027992861552186181 0 4.536917008441259e-05 -0.0040405680046228243 0 3.0719482439378338e-05 -0.0040119375669421461 0 8.4175324396158352e-06 -0.0041007182220827824 0 0.00041632267511472254 -0.0035627007372063414 0 0.00037798506950778213 -0.0034324669162397012 0 7.80891892459325e-05 -0.0039788955418550188 0 3.0719482439378338e-05 -0.0040119375669421461 0 7.110329277872848e-05 -0.0040213642868033297 0 4.536917008441259e-05 -0.0040405680046228243 0 3.0719482439378338e-05 -0.0040119375669421461 0 7.110329277872848e-05 -0.0040213642868033297 0 7.80891892459325e-05 -0.0039788955418550188 0 7.110329277872848e-05 -0.0040213642868033297 0 0.00011264524476732337 -0.0040080198561152228 0 0.00011264524476732337 -0.0040080198561152228 0 8.2805104913833579e-05 -0.0040716456496754008 0 0.00016837862465213512 -0.0040719626268218593 0 4.536917008441259e-05 -0.0040405680046228243 0 7.110329277872848e-05 -0.0040213642868033297 0 8.2805104913833579e-05 -0.0040716456496754008 0 7.110329277872848e-05 -0.0040213642868033297 0 0.00011264524476732337 -0.0040080198561152228 0 8.2805104913833579e-05 -0.0040716456496754008 0 4.1822027025006989e-05 -0.0043276833840143678 0 9.6259039920487991e-05 -0.0041658898678653845 0 -1.7987560696217587e-05 -0.0044633570349192934 0 -5.3785560651913496e-06 -0.0044600674537866843 0 2.648435111855499e-06 -0.004472177988976523 0 0.0001324862622723579 -0.0041547236109936133 0 8.2805104913833579e-05 -0.0040716456496754008 0 8.4175324396158352e-06 -0.0041007182220827824 0 0.0001324862622723579 -0.0041547236109936133 0 8.2805104913833579e-05 -0.0040716456496754008 0 0.00016837862465213512 -0.0040719626268218593 0 4.536917008441259e-05 -0.0040405680046228243 0 8.2805104913833579e-05 -0.0040716456496754008 0 8.4175324396158352e-06 -0.0041007182220827824 0 0.0002696651830798727 -0.0041335562169079925 0 0.00016837862465213512 -0.0040719626268218593 0 0.00027759953028511292 -0.004054690643399422 0 0.0001324862622723579 -0.0041547236109936133 0 0.0002696651830798727 -0.0041335562169079925 0 0.00016837862465213512 -0.0040719626268218593 0 0.00016837862465213512 -0.0040719626268218593 0 0.00018208632218366712 -0.004001806157952488 0 0.00027759953028511292 -0.004054690643399422 0 0.00011264524476732337 -0.0040080198561152228 0 0.00016837862465213512 -0.0040719626268218593 0 0.00018208632218366712 -0.004001806157952488 0 0.00021794787974726402 -0.003937807744371846 0 0.00018208632218366712 -0.004001806157952488 0 0.00027759953028511292 -0.004054690643399422 0 0.00010950022371466485 -0.0040521932884992036 0 0.00014378101236420075 -0.0041753664210236732 0 2.8584215189963036e-05 -0.0043095330797170619 0 1.5156183890121751e-06 -0.0043618539401934393 0 3.6832429111767667e-05 -0.0043547549649784051 0 6.3080077407588815e-05 -0.0043271832497366446 0 3.6832429111767667e-05 -0.0043547549649784051 0 6.530588962125264e-05 -0.0043764489693951525 0 8.1160328815095467e-07 -0.0049898641987501146 0 1.1998656075823731e-06 -0.0049874563789015867 0 7.1361664122168922e-07 -0.0049904433524687007 0 2.3033036023951218e-05 -0.0047046414026975939 0 7.7481499138965578e-05 -0.0045603883257440336 0 3.6832429111767667e-05 -0.0043547549649784051 0 6.530588962125264e-05 -0.0043764489693951525 0 2.8370621033753412e-05 -0.0044151469406109737 0 0.00014378101236420075 -0.0041753664210236732 0 7.7481499138965578e-05 -0.0045603883257440336 0 1.5156183890121751e-06 -0.0043618539401934393 0 3.6832429111767667e-05 -0.0043547549649784051 0 2.8370621033753412e-05 -0.0044151469406109737 0 0.0002696651830798727 -0.0041335562169079925 0 0.00027759953028511292 -0.004054690643399422 0 0.00033655918284729687 -0.0041749087237637518 0 7.7481499138965578e-05 -0.0045603883257440336 0 9.779493476898698e-05 -0.0046616939952547716 0 0.00033655918284729687 -0.0041749087237637518 0 0.00038179118139789538 -0.0042691722209995935 0 0.00025640870082478104 -0.0042109191709657819 0 9.779493476898698e-05 -0.0046616939952547716 0 0.00012924437222127912 -0.0042926789144102084 0 1.1998656075823731e-06 -0.0049874563789015867 0 7.1361664122168922e-07 -0.0049904433524687007 0 6.0070421425443161e-07 -0.0049896078899962218 0 5.1974248304420733e-06 -0.0044591857816428868 0 -8.2722011449172877e-06 -0.0044736024649017414 0 3.2507432073812986e-05 -0.0044965292441005123 0 9.779493476898698e-05 -0.0046616939952547716 0 -1.7727999065881739e-05 -0.0050242849877486524 0 -2.7119923321414886e-05 -0.0049625408983603432 0 -1.9191488285352659e-05 -0.0049815800029858357 0 -1.0518915942188294e-05 -0.004975510076640521 0 7.1361664122168922e-07 -0.0049904433524687007 0 6.0070421425443161e-07 -0.0049896078899962218 0 6.2174723772331548e-07 -0.0049943117386108734 0 -8.2722011449172877e-06 -0.0044736024649017414 0 -2.5790637533733564e-05 -0.0044525272398457574 0 -2.1425278996862819e-05 -0.0044750431175182492 0 5.1974248304420733e-06 -0.0044591857816428868 0 -8.2722011449172877e-06 -0.0044736024649017414 0 -2.5790637533733564e-05 -0.0044525272398457574 0 -2.5790637533733564e-05 -0.0044525272398457574 0 -2.7882733044989122e-05 -0.0044565355805348435 0 -2.1425278996862819e-05 -0.0044750431175182492 0 0.0002696651830798727 -0.0041335562169079925 0 0.00033655918284729687 -0.0041749087237637518 0 0.00025640870082478104 -0.0042109191709657819 0 0.0001324862622723579 -0.0041547236109936133 0 0.0002696651830798727 -0.0041335562169079925 0 0.00025640870082478104 -0.0042109191709657819 0 4.1822027025006989e-05 -0.0043276833840143678 0 0.00012924437222127912 -0.0042926789144102084 0 -1.7987560696217587e-05 -0.0044633570349192934 0 -2.5790637533733564e-05 -0.0044525272398457574 0 -2.0821655264699135e-05 -0.0044543237355468479 0 -2.5790637533733564e-05 -0.0044525272398457574 0 -2.0821655264699135e-05 -0.0044543237355468479 0 -2.7882733044989122e-05 -0.0044565355805348435 0 -1.405362775736293e-05 -0.0044425635948489375 0 -2.0821655264699135e-05 -0.0044543237355468479 0 -2.7882733044989122e-05 -0.0044565355805348435 0 -2.7882733044989122e-05 -0.0044565355805348435 0 -2.2267565421709076e-05 -0.0044409213554878514 0 -2.3569707864808162e-05 -0.0044505736414137929 0 -1.405362775736293e-05 -0.0044425635948489375 0 -2.7882733044989122e-05 -0.0044565355805348435 0 -2.2267565421709076e-05 -0.0044409213554878514 0 -2.7282613130495137e-05 -0.0044596886433163046 0 -2.1841295065008979e-05 -0.0044800264957480041 0 -2.7882733044989122e-05 -0.0044565355805348435 0 -2.1425278996862819e-05 -0.0044750431175182492 0 -2.6424027251989866e-05 -0.0045046482625814305 0 -2.7882733044989122e-05 -0.0044565355805348435 0 -1.7869988578117056e-05 -0.004454113773857858 0 -2.3569707864808162e-05 -0.0044505736414137929 0 -1.7869988578117056e-05 -0.004454113773857858 0 -2.4388418744242495e-05 -0.0044595714012701983 0 -2.1036021268695233e-05 -0.0044817316310571155 0 -1.7869988578117056e-05 -0.004454113773857858 0 -2.3569707864808162e-05 -0.0044505736414137929 0 -2.4388418744242495e-05 -0.0044595714012701983 0 -2.4791521538099169e-05 -0.0044518761469566921 0 -2.2267565421709076e-05 -0.0044409213554878514 0 -2.4388418744242495e-05 -0.0044595714012701983 0 -2.2267565421709076e-05 -0.0044409213554878514 0 -2.3569707864808162e-05 -0.0044505736414137929 0 -2.4388418744242495e-05 -0.0044595714012701983 0 -2.4791521538099169e-05 -0.0044518761469566921 0 -2.4388418744242495e-05 -0.0044595714012701983 0 -2.555478052043235e-05 -0.0044839882350921293 0 -4.2918604644642892e-05 -0.0044832202484844218 0 -2.4791521538099169e-05 -0.0044518761469566921 0 -2.555478052043235e-05 -0.0044839882350921293 0 -2.4388418744242495e-05 -0.0044595714012701983 0 -2.1036021268695233e-05 -0.0044817316310571155 0 -2.555478052043235e-05 -0.0044839882350921293 0 -2.1036021268695233e-05 -0.0044817316310571155 0 -2.6728063681564225e-05 -0.0045185170165440488 0 -2.555478052043235e-05 -0.0044839882350921293 0 -2.6728063681564225e-05 -0.0045185170165440488 0 -2.555478052043235e-05 -0.0044839882350921293 0 -3.1377688427181514e-05 -0.0045107499621989964 0 -4.2918604644642892e-05 -0.0044832202484844218 0 -2.555478052043235e-05 -0.0044839882350921293 0 -3.1377688427181514e-05 -0.0045107499621989964 0 -1.7486540700895287e-05 -0.0045139823633511709 0 -2.0189899405433234e-05 -0.0045461057585946011 0 -1.7088628982006479e-05 -0.00453907129281487 0 -2.1412081618632613e-05 -0.0045319224666795482 0 -2.2524437703286118e-05 -0.0045510231042454269 0 -2.1036021268695233e-05 -0.0044817316310571155 0 -2.6728063681564225e-05 -0.0045185170165440488 0 -1.0014915870722579e-05 -0.0044955689322101521 0 -2.6728063681564225e-05 -0.0045185170165440488 0 -1.0014915870722579e-05 -0.0044955689322101521 0 -2.2524437703286118e-05 -0.0045510231042454269 0 -2.1841295065008979e-05 -0.0044800264957480041 0 -1.7486540700895287e-05 -0.0045139823633511709 0 -1.7869988578117056e-05 -0.004454113773857858 0 -2.1036021268695233e-05 -0.0044817316310571155 0 -1.0014915870722579e-05 -0.0044955689322101521 0 -1.7088628982006479e-05 -0.00453907129281487 0 -2.1412081618632613e-05 -0.0045319224666795482 0 -1.1905924466107182e-05 -0.0045264088542766295 0 -2.1412081618632613e-05 -0.0045319224666795482 0 -1.7075030658876274e-05 -0.0045156825101023207 0 -1.1905924466107182e-05 -0.0045264088542766295 0 -1.7075030658876274e-05 -0.0045156825101023207 0 -1.2381523361941959e-05 -0.0044992453779558435 0 -1.1905924466107182e-05 -0.0045264088542766295 0 -9.1822110895166831e-06 -0.0045144258036126997 0 9.8723454885309026e-06 -0.0045088131300661839 0 -1.2381523361941959e-05 -0.0044992453779558435 0 3.2507432073812986e-05 -0.0044965292441005123 0 3.6597679363019049e-05 -0.0045607811261493322 0 -2.6424027251989866e-05 -0.0045046482625814305 0 -2.1412081618632613e-05 -0.0045319224666795482 0 -1.7075030658876274e-05 -0.0045156825101023207 0 -2.6424027251989866e-05 -0.0045046482625814305 0 -1.7075030658876274e-05 -0.0045156825101023207 0 -1.2381523361941959e-05 -0.0044992453779558435 0 -2.1425278996862819e-05 -0.0044750431175182492 0 -2.6424027251989866e-05 -0.0045046482625814305 0 -1.2381523361941959e-05 -0.0044992453779558435 0 -8.2722011449172877e-06 -0.0044736024649017414 0 -2.1425278996862819e-05 -0.0044750431175182492 0 -1.2381523361941959e-05 -0.0044992453779558435 0 9.779493476898698e-05 -0.0046616939952547716 0 -5.6111019236581876e-06 -0.0047418515528330069 0 -8.2722011449172877e-06 -0.0044736024649017414 0 -1.2381523361941959e-05 -0.0044992453779558435 0 3.2507432073812986e-05 -0.0044965292441005123 0 -1.9191488285352659e-05 -0.0049815800029858357 0 -8.3677875822624191e-06 -0.0049867568111649739 0 -1.0518915942188294e-05 -0.004975510076640521 0 3.3155283169634624e-07 -0.0049879298796511986 0 -1.7727999065881739e-05 -0.0050242849877486524 0 -8.3677875822624191e-06 -0.0049867568111649739 0 -1.5783592758725904e-06 -0.0049881437006446755 0 -1.0518915942188294e-05 -0.004975510076640521 0 -8.3677875822624191e-06 -0.0049867568111649739 0 -1.0866950621626199e-05 -0.0049928526350845335 0 -4.3434528922795977e-06 -0.0049941842270981723 0 -8.3677875822624191e-06 -0.0049867568111649739 0 -4.3434528922795977e-06 -0.0049941842270981723 0 -1.5783592758725904e-06 -0.0049881437006446755 0 -5.6111019236581876e-06 -0.0047418515528330069 0 3.4910667165940572e-05 -0.0047839972793531785 0 3.2507432073812986e-05 -0.0044965292441005123 0 3.6597679363019049e-05 -0.0045607811261493322 0 6.6962061020490324e-05 -0.0045579386701392749 0 -1.9191488285352659e-05 -0.0049815800029858357 0 -8.3677875822624191e-06 -0.0049867568111649739 0 -1.0866950621626199e-05 -0.0049928526350845335 0 3.6597679363019049e-05 -0.0045607811261493322 0 6.6962061020490324e-05 -0.0045579386701392749 0 0.00010196091527105043 -0.0046319677871511263 0 -1.7088628982006479e-05 -0.00453907129281487 0 -1.1905924466107182e-05 -0.0045264088542766295 0 -5.9946848164937943e-06 -0.0045468882694176919 0 9.8723454885309026e-06 -0.0045088131300661839 0 1.5757107090379433e-05 -0.0047749957719123333 0 -1.0866950621626199e-05 -0.0049928526350845335 0 -4.3434528922795977e-06 -0.0049941842270981723 0 -5.1737170738144219e-06 -0.0049972177768414054 0 -4.3434528922795977e-06 -0.0049941842270981723 0 -5.1737170738144219e-06 -0.0049972177768414054 0 -1.9026504218365539e-06 -0.0049976898509078178 0 3.4910667165940572e-05 -0.0047839972793531785 0 1.5757107090379433e-05 -0.0047749957719123333 0 1.5757107090379433e-05 -0.0047749957719123333 0 2.5207546143666676e-05 -0.0050359330670313486 0 -1.7088628982006479e-05 -0.00453907129281487 0 -5.9946848164937943e-06 -0.0045468882694176919 0 -2.2524437703286118e-05 -0.0045510231042454269 0 -1.105223367410963e-06 -0.0049985963904951641 0 -1.527645291775554e-09 -0.0049999988091712034 0 -5.2605593982652952e-10 -0.004999997910318482 0 -1.105223367410963e-06 -0.0049985963904951641 0 -1.9026504218365539e-06 -0.0049976898509078178 0 -1.527645291775554e-09 -0.0049999988091712034 0 -5.1737170738144219e-06 -0.0049972177768414054 0 -1.9026504218365539e-06 -0.0049976898509078178 0 -2.7187559258096871e-06 -0.0049969522533094566 0 -1.105223367410963e-06 -0.0049985963904951641 0 -1.9026504218365539e-06 -0.0049976898509078178 0 -2.7187559258096871e-06 -0.0049969522533094566 0 -4.3434528922795977e-06 -0.0049941842270981723 0 -1.9026504218365539e-06 -0.0049976898509078178 0 -7.884538783881298e-07 -0.004996857655547208 0 -1.527645291775554e-09 -0.0049999988091712034 0 3.0856936240017091e-09 -0.0049999841458297743 0 -7.884538783881298e-07 -0.004996857655547208 0 -1.9026504218365539e-06 -0.0049976898509078178 0 -1.527645291775554e-09 -0.0049999988091712034 0 -7.884538783881298e-07 -0.004996857655547208 0 3.0856936240017091e-09 -0.0049999841458297743 0 -7.884538783881298e-07 -0.004996857655547208 0 -1.5783592758725904e-06 -0.0049881437006446755 0 -4.3434528922795977e-06 -0.0049941842270981723 0 -7.884538783881298e-07 -0.004996857655547208 0 -1.5783592758725904e-06 -0.0049881437006446755 0 -6.7121510560416237e-11 -0.0049999990772493438 0 6.0984119299989264e-07 -0.0049978267586160323 0 7.0021173455500845e-10 -0.0049999967363439811 0 -8.7462260788040321e-10 -0.0049999999565250629 0 3.3155283169634624e-07 -0.0049879298796511986 0 6.0984119299989264e-07 -0.0049978267586160323 0 7.0021173455500845e-10 -0.0049999967363439811 0 6.3770615525691466e-07 -0.0049977063126591765 0 7.0021173455500845e-10 -0.0049999967363439811 0 6.3770615525691466e-07 -0.0049977063126591765 0 1.1355987300590313e-09 -0.0049999958844289781 0 1.0052830406455185e-06 -0.0049957474614146747 0 6.3770615525691466e-07 -0.0049977063126591765 0 1.1355987300590313e-09 -0.0049999958844289781 0 1.0052830406455185e-06 -0.0049957474614146747 0 6.3770615525691466e-07 -0.0049977063126591765 0 6.2174723772331548e-07 -0.0049943117386108734 0 6.0984119299989264e-07 -0.0049978267586160323 0 6.3770615525691466e-07 -0.0049977063126591765 0 6.2174723772331548e-07 -0.0049943117386108734 0 7.1361664122168922e-07 -0.0049904433524687007 0 6.2174723772331548e-07 -0.0049943117386108734 0 7.8501225152984957e-07 -0.0049924841362511338 0 1.0052830406455185e-06 -0.0049957474614146747 0 7.8501225152984957e-07 -0.0049924841362511338 0 1.0551611846940671e-06 -0.0049939203996771297 0 1.0052830406455185e-06 -0.0049957474614146747 0 6.2174723772331548e-07 -0.0049943117386108734 0 7.8501225152984957e-07 -0.0049924841362511338 0 7.8501225152984957e-07 -0.0049924841362511338 0 1.0551611846940671e-06 -0.0049939203996771297 0 8.7143257955487376e-07 -0.004992013026698181 0 1.0052830406455185e-06 -0.0049957474614146747 0 1.0551611846940671e-06 -0.0049939203996771297 0 1.4293988380420178e-06 -0.0049951788837899556 0 1.0551611846940671e-06 -0.0049939203996771297 0 8.7143257955487376e-07 -0.004992013026698181 0 1.4293988380420178e-06 -0.0049951788837899556 0 8.1160328815095467e-07 -0.0049898641987501146 0 7.1361664122168922e-07 -0.0049904433524687007 0 7.8501225152984957e-07 -0.0049924841362511338 0 8.1160328815095467e-07 -0.0049898641987501146 0 7.8501225152984957e-07 -0.0049924841362511338 0 8.7143257955487376e-07 -0.004992013026698181 0 7.5171469324550284e-07 -0.0049889428471909646 0 8.1160328815095467e-07 -0.0049898641987501146 0 8.7143257955487376e-07 -0.004992013026698181 0 5.0772583742282581e-06 -0.0046695867279807858 0 2.3033036023951218e-05 -0.0047046414026975939 0 0.00010049570930623832 -0.0043398545748016635 0 6.3080077407588815e-05 -0.0043271832497366446 0 6.530588962125264e-05 -0.0043764489693951525 0 5.0772583742282581e-06 -0.0046695867279807858 0 4.0099691706314185e-05 -0.0050425565053065545 0 -7.3881166480799244e-07 -0.0049910799524803869 0 8.7143257955487376e-07 -0.004992013026698181 0 2.6336667247235333e-06 -0.0049939616548257638 0 8.7143257955487376e-07 -0.004992013026698181 0 2.6336667247235333e-06 -0.0049939616548257638 0 1.4293988380420178e-06 -0.0049951788837899556 0 2.6336667247235333e-06 -0.0049939616548257638 0 9.9106332059971146e-07 -0.0049972371497697815 0 1.4293988380420178e-06 -0.0049951788837899556 0 5.6739379243002872e-10 -0.0049999950086549042 0 9.9106332059971146e-07 -0.0049972371497697815 0 1.1355987300590313e-09 -0.0049999958844289781 0 6.7838024242656044e-07 -0.0049980999658837382 0 5.6739379243002872e-10 -0.0049999950086549042 0 9.9106332059971146e-07 -0.0049972371497697815 0 9.9106332059971146e-07 -0.0049972371497697815 0 1.1355987300590313e-09 -0.0049999958844289781 0 1.4293988380420178e-06 -0.0049951788837899556 0 1.0052830406455185e-06 -0.0049957474614146747 0 1.1355987300590313e-09 -0.0049999958844289781 0 1.4293988380420178e-06 -0.0049951788837899556 0 -0.00015105707776312825 -0.00016371638571322685 0 -7.6534765853973632e-05 -0.0002144007373626818 0 -0.00015369828684516464 -0.00025091381219066413 0 -0.00015105707776312825 -0.00016371638571322685 0 -9.7116539047759469e-05 -0.0001045957501573704 0 -7.6534765853973632e-05 -0.0002144007373626818 0 -0.00015105707776312825 -0.00016371638571322685 0 -0.00019394454677925546 -8.931873534252968e-05 0 -0.0002459987772810854 -0.00017547873349161284 0 -0.00015105707776312825 -0.00016371638571322685 0 -0.00015369828684516464 -0.00025091381219066413 0 -0.0002459987772810854 -0.00017547873349161284 0 -0.00015105707776312825 -0.00016371638571322685 0 -0.00019394454677925546 -8.931873534252968e-05 0 -9.7116539047759469e-05 -0.0001045957501573704 0 -9.7116539047759469e-05 -0.0001045957501573704 0 -3.4590612833370441e-05 -0.00016044885802011619 0 -2.5847756440846263e-05 -0.00010887661999649142 0 -3.4590612833370441e-05 -0.00016044885802011619 0 -2.5847756440846263e-05 -0.00010887661999649142 0 2.7966377904808235e-05 -0.0001625275477499451 0 -3.4590612833370441e-05 -0.00016044885802011619 0 -7.6534765853973632e-05 -0.0002144007373626818 0 5.7825733566148898e-06 -0.00022554781273413245 0 -3.4590612833370441e-05 -0.00016044885802011619 0 5.7825733566148898e-06 -0.00022554781273413245 0 2.7966377904808235e-05 -0.0001625275477499451 0 -9.7116539047759469e-05 -0.0001045957501573704 0 -3.4590612833370441e-05 -0.00016044885802011619 0 -7.6534765853973632e-05 -0.0002144007373626818 0 -7.6534765853973632e-05 -0.0002144007373626818 0 -3.0915688135218266e-05 -0.00028509049726164727 0 -7.422250668528464e-05 -0.00032981669999991575 0 -7.6534765853973632e-05 -0.0002144007373626818 0 5.7825733566148898e-06 -0.00022554781273413245 0 -3.0915688135218266e-05 -0.00028509049726164727 0 5.7825733566148898e-06 -0.00022554781273413245 0 -3.0915688135218266e-05 -0.00028509049726164727 0 8.5538979947629129e-06 -0.00027417550168184031 0 -3.0915688135218266e-05 -0.00028509049726164727 0 8.5538979947629129e-06 -0.00027417550168184031 0 3.2707858794155395e-05 -0.00035650067132981665 0 5.7825733566148898e-06 -0.00022554781273413245 0 8.5538979947629129e-06 -0.00027417550168184031 0 5.2339489913033577e-05 -0.00030064200270321054 0 8.5538979947629129e-06 -0.00027417550168184031 0 5.2339489913033577e-05 -0.00030064200270321054 0 3.2707858794155395e-05 -0.00035650067132981665 0 -0.00010591261102805809 -0.0003930975239034977 0 2.9921164331483764e-05 -0.00035714985136113997 0 -0.00014981803974505701 -0.00045918435526361438 0 3.2707858794155395e-05 -0.00035650067132981665 0 -6.0456883985109015e-05 -0.00051262212015432259 0 -3.0915688135218266e-05 -0.00028509049726164727 0 -7.422250668528464e-05 -0.00032981669999991575 0 3.2707858794155395e-05 -0.00035650067132981665 0 -7.422250668528464e-05 -0.00032981669999991575 0 -0.00015369828684516464 -0.00025091381219066413 0 -0.00015985660112629224 -0.00034955440698133727 0 -7.6534765853973632e-05 -0.0002144007373626818 0 -7.422250668528464e-05 -0.00032981669999991575 0 -0.00015369828684516464 -0.00025091381219066413 0 -0.00015369828684516464 -0.00025091381219066413 0 -0.00024001856239504218 -0.00027957855526687821 0 -0.00015985660112629224 -0.00034955440698133727 0 -0.00024001856239504218 -0.00027957855526687821 0 -0.00015985660112629224 -0.00034955440698133727 0 -0.00025286537851623307 -0.00034383974785340569 0 -0.00024001856239504218 -0.00027957855526687821 0 -0.0003104043539506854 -0.00032714558915505486 0 -0.00025286537851623307 -0.00034383974785340569 0 -0.00024001856239504218 -0.00027957855526687821 0 -0.0003104043539506854 -0.00032714558915505486 0 -0.0003264708593668981 -0.0002504485398344533 0 -0.0003104043539506854 -0.00032714558915505486 0 -0.0003264708593668981 -0.0002504485398344533 0 -0.00036815622491834579 -0.0003270281223358933 0 -0.00024001856239504218 -0.00027957855526687821 0 -0.0003264708593668981 -0.0002504485398344533 0 -0.0002459987772810854 -0.00017547873349161284 0 -0.0003264708593668981 -0.0002504485398344533 0 -0.00035092643897819792 -0.00012917517577760946 0 -0.0002459987772810854 -0.00017547873349161284 0 -0.00015369828684516464 -0.00025091381219066413 0 -0.00024001856239504218 -0.00027957855526687821 0 -0.0002459987772810854 -0.00017547873349161284 0 -0.00049544831585147074 -0.00028675782364502979 0 -0.00039778000813095368 -0.00022739353800008559 0 -0.00041460981987239038 -0.00012120510015573745 0 -0.00049544831585147074 -0.00028675782364502979 0 -0.00039778000813095368 -0.00022739353800008559 0 -0.00045592469294528668 -0.00031100259410757119 0 -0.000437524109644604 -0.0001496253147583752 0 -0.00041846896159027672 -0.0001222235788106759 0 -0.00039778000813095368 -0.00022739353800008559 0 -0.00045592469294528668 -0.00031100259410757119 0 -0.00036815622491834579 -0.0003270281223358933 0 -0.0003264708593668981 -0.0002504485398344533 0 -0.00039778000813095368 -0.00022739353800008559 0 -0.00036815622491834579 -0.0003270281223358933 0 -0.00039778000813095368 -0.00022739353800008559 0 -0.00041460981987239038 -0.00012120510015573745 0 -0.00035092643897819792 -0.00012917517577760946 0 -0.0003264708593668981 -0.0002504485398344533 0 -0.00039778000813095368 -0.00022739353800008559 0 -0.00035092643897819792 -0.00012917517577760946 0 -0.00041460981987239038 -0.00012120510015573745 0 -0.00035092643897819792 -0.00012917517577760946 0 -0.00039099772064137521 -8.8360755241331728e-05 0 -0.00038445264257149924 -7.2926051081366133e-05 0 -0.00041460981987239038 -0.00012120510015573745 0 -0.00039099772064137521 -8.8360755241331728e-05 0 -0.00035092643897819792 -0.00012917517577760946 0 -0.00028058467148617781 -7.9126899881377708e-05 0 -0.00034514641521328466 -6.5099601318846869e-05 0 -0.00038358395458551171 -6.6279247989906476e-05 0 -0.00039099772064137521 -8.8360755241331728e-05 0 -0.00034514641521328466 -6.5099601318846869e-05 0 -0.00035092643897819792 -0.00012917517577760946 0 -0.00039099772064137521 -8.8360755241331728e-05 0 -0.00034514641521328466 -6.5099601318846869e-05 0 -0.00035092643897819792 -0.00012917517577760946 0 -0.0002459987772810854 -0.00017547873349161284 0 -0.00028058467148617781 -7.9126899881377708e-05 0 -0.00019394454677925546 -8.931873534252968e-05 0 -0.0002459987772810854 -0.00017547873349161284 0 -0.00028058467148617781 -7.9126899881377708e-05 0 -0.00019394454677925546 -8.931873534252968e-05 0 -0.00023018214603202173 -1.0945342083883419e-05 0 -0.00015997455591841201 -1.2201169566624079e-05 0 -0.00019394454677925546 -8.931873534252968e-05 0 -0.00028058467148617781 -7.9126899881377708e-05 0 -0.00023018214603202173 -1.0945342083883419e-05 0 -0.00028058467148617781 -7.9126899881377708e-05 0 -0.00023018214603202173 -1.0945342083883419e-05 0 -0.00030324410055101439 -9.8201679839677487e-06 0 -0.00023018214603202173 -1.0945342083883419e-05 0 -0.00030324410055101439 -9.8201679839677487e-06 0 -0.00025925683712006633 6.5962836554381705e-05 0 -0.00023018214603202173 -1.0945342083883419e-05 0 -0.00018363218360188701 4.6291670628472447e-05 0 -0.00015997455591841201 -1.2201169566624079e-05 0 -0.00038358395458551171 -6.6279247989906476e-05 0 -0.00034514641521328466 -6.5099601318846869e-05 0 -0.00036276013608215829 -1.9098458443313245e-05 0 -0.00028058467148617781 -7.9126899881377708e-05 0 -0.00034514641521328466 -6.5099601318846869e-05 0 -0.00030324410055101439 -9.8201679839677487e-06 0 -0.00034514641521328466 -6.5099601318846869e-05 0 -0.00030324410055101439 -9.8201679839677487e-06 0 -0.00036276013608215829 -1.9098458443313245e-05 0 -0.00030324410055101439 -9.8201679839677487e-06 0 -0.00036276013608215829 -1.9098458443313245e-05 0 -0.0003372830845669072 4.1296107954467257e-05 0 -0.00039932657274988759 3.2019869932750964e-05 0 -0.00036276013608215829 -1.9098458443313245e-05 0 -0.0003372830845669072 4.1296107954467257e-05 0 -0.00039932657274988759 3.2019869932750964e-05 0 -0.0003372830845669072 4.1296107954467257e-05 0 -0.00036273668884787621 6.9239368550784284e-05 0 -0.00030324410055101439 -9.8201679839677487e-06 0 -0.0003372830845669072 4.1296107954467257e-05 0 -0.00025925683712006633 6.5962836554381705e-05 0 -0.0003372830845669072 4.1296107954467257e-05 0 -0.00033382225972067287 9.1356145451100543e-05 0 -0.00025925683712006633 6.5962836554381705e-05 0 -0.00030173612296950072 0.00013481708894967927 0 -0.00033382225972067287 9.1356145451100543e-05 0 -0.00025925683712006633 6.5962836554381705e-05 0 -0.00030173612296950072 0.00013481708894967927 0 -0.00033382225972067287 9.1356145451100543e-05 0 -0.00037933502762056096 0.00011351590214949907 0 -0.00039932657274988759 3.2019869932750964e-05 0 -0.00037933502762056096 0.00011351590214949907 0 -0.00036273668884787621 6.9239368550784284e-05 0 -0.0003372830845669072 4.1296107954467257e-05 0 -0.00033382225972067287 9.1356145451100543e-05 0 -0.00036273668884787621 6.9239368550784284e-05 0 -0.00033382225972067287 9.1356145451100543e-05 0 -0.00037933502762056096 0.00011351590214949907 0 -0.00036273668884787621 6.9239368550784284e-05 0 -0.00023018214603202173 -1.0945342083883419e-05 0 -0.00018363218360188701 4.6291670628472447e-05 0 -0.00025925683712006633 6.5962836554381705e-05 0 -0.00020310866254965364 0.00016302788154582177 0 -0.00030173612296950072 0.00013481708894967927 0 -0.00025925683712006633 6.5962836554381705e-05 0 -0.00020310866254965364 0.00016302788154582177 0 -0.00025925683712006633 6.5962836554381705e-05 0 -0.00016492570006369799 9.2701752541126561e-05 0 -0.00018363218360188701 4.6291670628472447e-05 0 -0.00025925683712006633 6.5962836554381705e-05 0 -0.00016492570006369799 9.2701752541126561e-05 0 -0.00018363218360188701 4.6291670628472447e-05 0 -0.00016492570006369799 9.2701752541126561e-05 0 -0.00012592302601919608 5.4996646605114307e-05 0 -0.00010649454952086845 9.0710542071992684e-05 0 -0.00016492570006369799 9.2701752541126561e-05 0 -0.00012592302601919608 5.4996646605114307e-05 0 -0.00010649454952086845 9.0710542071992684e-05 0 -0.00012592302601919608 5.4996646605114307e-05 0 -8.8766851795157693e-05 7.6018549183773683e-05 0 -0.00012592302601919608 5.4996646605114307e-05 0 -0.00015997455591841201 -1.2201169566624079e-05 0 -8.2418002253806892e-05 3.0666462383611869e-06 0 -0.00012592302601919608 5.4996646605114307e-05 0 -8.2418002253806892e-05 3.0666462383611869e-06 0 -8.8766851795157693e-05 7.6018549183773683e-05 0 -0.00018363218360188701 4.6291670628472447e-05 0 -0.00012592302601919608 5.4996646605114307e-05 0 -0.00015997455591841201 -1.2201169566624079e-05 0 -9.7116539047759469e-05 -0.0001045957501573704 0 -0.00015997455591841201 -1.2201169566624079e-05 0 -8.2418002253806892e-05 3.0666462383611869e-06 0 -9.5496122749586098e-05 -0.0001007694416143521 0 -8.4890309725905332e-05 -2.4365727624941603e-05 0 -0.00019394454677925546 -8.931873534252968e-05 0 -9.7116539047759469e-05 -0.0001045957501573704 0 -0.00015997455591841201 -1.2201169566624079e-05 0 -2.5847756440846263e-05 -0.00010887661999649142 0 -2.9855874010758791e-05 -6.7460221748654711e-05 0 4.144775144007432e-06 -7.8164111621409943e-05 0 -2.5847756440846263e-05 -0.00010887661999649142 0 -5.5548326396865709e-05 -7.3609504183113207e-05 0 -2.9855874010758791e-05 -6.7460221748654711e-05 0 -9.7116539047759469e-05 -0.0001045957501573704 0 -2.5847756440846263e-05 -0.00010887661999649142 0 -5.5548326396865709e-05 -7.3609504183113207e-05 0 -9.7116539047759469e-05 -0.0001045957501573704 0 -8.4222297237953876e-05 -4.9137357012015342e-05 0 -5.5548326396865709e-05 -7.3609504183113207e-05 0 -8.4222297237953876e-05 -4.9137357012015342e-05 0 -5.5548326396865709e-05 -7.3609504183113207e-05 0 -5.7901636069939117e-05 -4.2959204690191344e-05 0 -5.5548326396865709e-05 -7.3609504183113207e-05 0 -5.7901636069939117e-05 -4.2959204690191344e-05 0 -2.9855874010758791e-05 -6.7460221748654711e-05 0 -2.9855874010758791e-05 -6.7460221748654711e-05 0 -2.6378955170065469e-05 -4.6821114943560771e-05 0 4.144775144007432e-06 -7.8164111621409943e-05 0 -5.7901636069939117e-05 -4.2959204690191344e-05 0 -2.9855874010758791e-05 -6.7460221748654711e-05 0 -2.6378955170065469e-05 -4.6821114943560771e-05 0 -5.7901636069939117e-05 -4.2959204690191344e-05 0 -2.6378955170065469e-05 -4.6821114943560771e-05 0 -5.4887392600701581e-05 -2.8582173395068904e-05 0 -3.6232417191861537e-05 -7.1662427926289624e-05 0 -5.0589386310935612e-05 -3.8873019351535489e-05 0 -8.4222297237953876e-05 -4.9137357012015342e-05 0 -5.7901636069939117e-05 -4.2959204690191344e-05 0 -8.6268591614472901e-05 -7.3829373649454553e-06 0 -8.4890309725905332e-05 -2.4365727624941603e-05 0 -8.7014648450254014e-05 3.2994533313040048e-05 0 -5.7901636069939117e-05 -4.2959204690191344e-05 0 -5.4887392600701581e-05 -2.8582173395068904e-05 0 -8.6268591614472901e-05 -7.3829373649454553e-06 0 -7.6173308639792506e-05 1.2157053691711354e-05 0 -5.4887392600701581e-05 -2.8582173395068904e-05 0 -8.6268591614472901e-05 -7.3829373649454553e-06 0 -6.231520973738851e-05 1.1577324578727769e-05 0 -5.4887392600701581e-05 -2.8582173395068904e-05 0 -6.97127177272339e-06 -3.752751588192194e-05 0 -6.231520973738851e-05 1.1577324578727769e-05 0 -7.6173308639792506e-05 1.2157053691711354e-05 0 -5.4887392600701581e-05 -2.8582173395068904e-05 0 -9.6650381445836605e-05 -0.00022246150406796773 0 -8.7035308495938219e-06 -0.00028667409459215475 0 -6.7636286862322498e-05 -0.00040571092097585384 0 -7.6298173460182179e-05 -0.00010822666285974159 0 -3.6786109904527987e-05 -0.00022595481448653917 0 -4.4290453307197813e-05 -0.00010580168148437868 0 -5.4887392600701581e-05 -2.8582173395068904e-05 0 -6.97127177272339e-06 -3.752751588192194e-05 0 -4.4290453307197813e-05 -0.00010580168148437868 0 -6.97127177272339e-06 -3.752751588192194e-05 0 -1.0800689129969792e-05 -0.00012833394545193693 0 -6.7636286862322498e-05 -0.00040571092097585384 0 5.6675022589319984e-05 -0.00047955724997822744 0 5.8937231052040302e-05 -0.00035623011780727112 0 -8.7035308495938219e-06 -0.00028667409459215475 0 -6.7636286862322498e-05 -0.00040571092097585384 0 5.8937231052040302e-05 -0.00035623011780727112 0 5.8055884043244932e-05 -0.00026668494297143943 0 -8.7035308495938219e-06 -0.00028667409459215475 0 5.8937231052040302e-05 -0.00035623011780727112 0 5.8055884043244932e-05 -0.00026668494297143943 0 5.8937231052040302e-05 -0.00035623011780727112 0 0.00013707336076766971 -0.00030527698443675368 0 0.00019636473502952358 -0.00027110315697041043 0 0.00013707336076766971 -0.00030527698443675368 0 0.00018404514371180312 -0.00040324526128954381 0 5.8937231052040302e-05 -0.00035623011780727112 0 0.00013707336076766971 -0.00030527698443675368 0 0.00018404514371180312 -0.00040324526128954381 0 0.00019636473502952358 -0.00027110315697041043 0 0.00012821575476595518 -0.00050555666469951342 0 0.00030040492519615894 -0.00043961778780205244 0 0.00028611854595908634 -0.00026217639184697563 0 0.00019636473502952358 -0.00027110315697041043 0 0.00030040492519615894 -0.00043961778780205244 0 0.00019592268099079813 -0.00028403280245788571 0 0.00015833677289817533 -0.00045307116820246334 0 0.00015540570753250302 -0.00086271532269541142 0 0.00018153126946392065 -0.00084352512078136443 0 0.0001842434374930347 -0.00086079224481097876 0 0.00012821575476595518 -0.00050555666469951342 0 0.00019474154153709079 -0.00066105462560132574 0 0.00030040492519615894 -0.00043961778780205244 0 0.00016036094594798763 -0.00078585851255811255 0 0.00028218671155503746 -0.0005401819639974404 0 5.6675022589319984e-05 -0.00047955724997822744 0 5.8937231052040302e-05 -0.00035623011780727112 0 0.00018404514371180312 -0.00040324526128954381 0 5.6675022589319984e-05 -0.00047955724997822744 0 0.00018404514371180312 -0.00040324526128954381 0 0.00015017516770693111 -0.00061005952231634895 0 0.00015833677289817533 -0.00045307116820246334 0 0.00012202151379271828 -0.00067388318731684662 0 9.9077362356957672e-05 -0.00073475434105135557 0 0.00019474154153709079 -0.00066105462560132574 0 0.00011739533249218873 -0.00083642805197824772 0 0.00012821575476595518 -0.00050555666469951342 0 9.9077362356957672e-05 -0.00073475434105135557 0 0.00019474154153709079 -0.00066105462560132574 0 0.00015540570753250302 -0.00086271532269541142 0 0.00014072641451409387 -0.00085481979438716438 0 0.000170215354341126 -0.00087881349493110683 0 0.00015540570753250302 -0.00086271532269541142 0 0.0001842434374930347 -0.00086079224481097876 0 0.000170215354341126 -0.00087881349493110683 0 0.00014072641451409387 -0.00085481979438716438 0 0.000170215354341126 -0.00087881349493110683 0 0.00015236344358598414 -0.00091864319059590366 0 0.00014451971138184798 -0.00086357124784732008 0 0.00016123083640734437 -0.000893213274675058 0 0.00014072641451409387 -0.00085481979438716438 0 0.00014689141136274016 -0.00086100205028120892 0 0.00017176620234639019 -0.00087330620566553041 0 9.9077362356957672e-05 -0.00073475434105135557 0 0.00011739533249218873 -0.00083642805197824772 0 7.3942706929659374e-05 -0.00087625091530893256 0 0.00015540570753250302 -0.00086271532269541142 0 0.00014072641451409387 -0.00085481979438716438 0 0.00011739533249218873 -0.00083642805197824772 0 0.00012202151379271828 -0.00067388318731684662 0 7.518161612824464e-05 -0.00086302834813959902 0 0.00016036094594798763 -0.00078585851255811255 0 0.00012473987506442873 -0.00082740834213867488 0 0.00014689141136274016 -0.00086100205028120892 0 0.00011739533249218873 -0.00083642805197824772 0 0.00014988456290861702 -0.00088943623323805253 0 0.00014072641451409387 -0.00085481979438716438 0 0.00014689141136274016 -0.00086100205028120892 0 0.00011739533249218873 -0.00083642805197824772 0 2.3672445540835962e-05 -0.00041359864326411384 0 0.00010255584371230192 -0.00063109938122289687 0 6.3833972650780566e-05 -0.0001814333568499525 0 6.9091993298405055e-05 -0.00028755001001373184 0 0.00012191376647891553 -0.00034424867850971268 0 6.3833972650780566e-05 -0.0001814333568499525 0 4.1044957175319374e-05 -0.00025793513717677172 0 6.9091993298405055e-05 -0.00028755001001373184 0 0.00015017516770693111 -0.00061005952231634895 0 -1.9044902776654399e-05 -0.00064036554771307016 0 7.3942706929659374e-05 -0.00087625091530893256 0 4.1044957175319374e-05 -0.00025793513717677172 0 -1.6277411543333141e-05 -0.00020232371310139314 0 4.9319228092289759e-05 -0.00035841012352235638 0 6.3833972650780566e-05 -0.0001814333568499525 0 4.1044957175319374e-05 -0.00025793513717677172 0 -1.6277411543333141e-05 -0.00020232371310139314 0 6.3833972650780566e-05 -0.0001814333568499525 0 -1.6277411543333141e-05 -0.00020232371310139314 0 -1.0800689129969792e-05 -0.00012833394545193693 0 -4.4290453307197813e-05 -0.00010580168148437868 0 -1.51048702009124e-05 -0.00019226740449174116 0 -1.0800689129969792e-05 -0.00012833394545193693 0 -3.6232417191861537e-05 -7.1662427926289624e-05 0 8.2004301706353484e-07 -0.00017554617582699516 0 -3.6786109904527987e-05 -0.00022595481448653917 0 2.3672445540835962e-05 -0.00041359864326411384 0 -6.97127177272339e-06 -3.752751588192194e-05 0 6.3833972650780566e-05 -0.0001814333568499525 0 -1.0800689129969792e-05 -0.00012833394545193693 0 8.2004301706353484e-07 -0.00017554617582699516 0 -8.5091232412453502e-06 -0.00014695655731320869 0 5.6675022589319984e-05 -0.00047955724997822744 0 0.00015017516770693111 -0.00061005952231634895 0 -1.9044902776654399e-05 -0.00064036554771307016 0 -6.7636286862322498e-05 -0.00040571092097585384 0 5.6675022589319984e-05 -0.00047955724997822744 0 -1.9044902776654399e-05 -0.00064036554771307016 0 0.00022559641996148966 -0.0021344118082171396 0 8.8822500596471879e-05 -0.0021136548643000347 0 0.00014601461675899181 -0.0020037625276544779 0 8.8822500596471879e-05 -0.0021136548643000347 0 0.00014601461675899181 -0.0020037625276544779 0 7.7911818850294056e-05 -0.0020211814920427164 0 9.8324569086215153e-05 -0.0019171709562370034 0 0.00022367001115512894 -0.0020039632993118827 0 0.00014601461675899181 -0.0020037625276544779 0 0.00031285301430131397 -0.0015189199486316377 0 0.00017825432817930614 -0.0020653206436154624 0 9.8324569086215153e-05 -0.0019171709562370034 0 0.00014601461675899181 -0.0020037625276544779 0 9.6359488093414363e-05 -0.0019707606380527632 0 0.00014601461675899181 -0.0020037625276544779 0 9.6359488093414363e-05 -0.0019707606380527632 0 7.7911818850294056e-05 -0.0020211814920427164 0 9.6359488093414363e-05 -0.0019707606380527632 0 7.7911818850294056e-05 -0.0020211814920427164 0 5.5565574494709509e-05 -0.001967783247985566 0 7.7911818850294056e-05 -0.0020211814920427164 0 5.5565574494709509e-05 -0.001967783247985566 0 -4.3444793675418231e-06 -0.0019738280650823132 0 6.7863400968797997e-05 -0.0019311804206798332 0 9.8324569086215153e-05 -0.0019171709562370034 0 5.5565574494709509e-05 -0.001967783247985566 0 9.8324569086215153e-05 -0.0019171709562370034 0 9.6359488093414363e-05 -0.0019707606380527632 0 5.5565574494709509e-05 -0.001967783247985566 0 2.6689399279337384e-05 -0.0019138105930202245 0 6.7863400968797997e-05 -0.0019311804206798332 0 5.5565574494709509e-05 -0.001967783247985566 0 -1.1462643542835224e-05 -0.0019129954516211337 0 2.6689399279337384e-05 -0.0019138105930202245 0 -4.3444793675418231e-06 -0.0019738280650823132 0 2.6689399279337384e-05 -0.0019138105930202245 0 5.5565574494709509e-05 -0.001967783247985566 0 -4.3444793675418231e-06 -0.0019738280650823132 0 7.7911818850294056e-05 -0.0020211814920427164 0 -4.3444793675418231e-06 -0.0019738280650823132 0 5.7987933991402328e-06 -0.0020708722298569734 0 8.8822500596471879e-05 -0.0021136548643000347 0 5.7987933991402328e-06 -0.0020708722298569734 0 -4.7536404249956372e-05 -0.00220220604541526 0 8.8822500596471879e-05 -0.0021136548643000347 0 7.7911818850294056e-05 -0.0020211814920427164 0 5.7987933991402328e-06 -0.0020708722298569734 0 0.00019876903196163116 -0.00084885063416407971 0 0.0001842434374930347 -0.00086079224481097876 0 0.00021785981742903748 -0.00087956887302034748 0 5.7987933991402328e-06 -0.0020708722298569734 0 -8.3364915299150908e-05 -0.0020489217216986219 0 -4.7536404249956372e-05 -0.00220220604541526 0 4.8518641036318854e-05 -0.0015101569070395209 0 8.5881123663968104e-05 -0.0015243138139529174 0 -5.7768492417449623e-05 -0.0019132190647169474 0 -4.3444793675418231e-06 -0.0019738280650823132 0 -8.3364915299150908e-05 -0.0020489217216986219 0 -0.00012471838416924696 -0.0018621119183810507 0 -5.7768492417449623e-05 -0.0019132190647169474 0 -8.3364915299150908e-05 -0.0020489217216986219 0 -4.3444793675418231e-06 -0.0019738280650823132 0 5.7987933991402328e-06 -0.0020708722298569734 0 -8.3364915299150908e-05 -0.0020489217216986219 0 0.00016383075174488293 -0.001055572243419063 0 4.8518641036318854e-05 -0.0015101569070395209 0 -5.7768492417449623e-05 -0.0019132190647169474 0 -1.1462643542835224e-05 -0.0019129954516211337 0 -4.3444793675418231e-06 -0.0019738280650823132 0 0.00016383075174488293 -0.001055572243419063 0 0.00028218671155503746 -0.0005401819639974404 0 0.00019288544370421563 -0.00083378453286653612 0 0.00019876903196163116 -0.00084885063416407971 0 0.00018153126946392065 -0.00084352512078136443 0 0.00019876903196163116 -0.00084885063416407971 0 0.00018153126946392065 -0.00084352512078136443 0 0.0001842434374930347 -0.00086079224481097876 0 0.0001842434374930347 -0.00086079224481097876 0 0.000170215354341126 -0.00087881349493110683 0 0.00021785981742903748 -0.00087956887302034748 0 0.0001954918001990673 -0.00092069939955468662 0 0.000170215354341126 -0.00087881349493110683 0 0.00015236344358598414 -0.00091864319059590366 0 0.0001954918001990673 -0.00092069939955468662 0 0.000170215354341126 -0.00087881349493110683 0 0.00021785981742903748 -0.00087956887302034748 0 8.5881123663968104e-05 -0.0015243138139529174 0 0.00010218912480923159 -0.0016674520562566211 0 0.0001954918001990673 -0.00092069939955468662 0 0.00021785981742903748 -0.00087956887302034748 0 0.00024323311263040463 -0.00094282402112948129 0 8.8822500596471879e-05 -0.0021136548643000347 0 -4.7536404249956372e-05 -0.00220220604541526 0 7.7001437620719099e-05 -0.0022564015633923886 0 -4.7536404249956372e-05 -0.00220220604541526 0 7.7001437620719099e-05 -0.0022564015633923886 0 -1.8480920344573192e-05 -0.0023435627193221409 0 7.7001437620719099e-05 -0.0022564015633923886 0 9.7462060200076555e-05 -0.0023484120035638816 0 -1.8480920344573192e-05 -0.0023435627193221409 0 0.00016833523945256943 -0.0022158895356730254 0 0.00017033155758369129 -0.0023073540128647004 0 7.7001437620719099e-05 -0.0022564015633923886 0 0.00017033155758369129 -0.0023073540128647004 0 7.7001437620719099e-05 -0.0022564015633923886 0 9.7462060200076555e-05 -0.0023484120035638816 0 0.00016833523945256943 -0.0022158895356730254 0 8.8822500596471879e-05 -0.0021136548643000347 0 7.7001437620719099e-05 -0.0022564015633923886 0 0.00022559641996148966 -0.0021344118082171396 0 0.00016833523945256943 -0.0022158895356730254 0 8.8822500596471879e-05 -0.0021136548643000347 0 0.00016879484424655491 -0.0024654128157577263 0 8.7416567106817159e-05 -0.0024387256340702929 0 0.00010387371834047005 -0.0025314236414417353 0 0.00016298309164252561 -0.0023968541252831817 0 0.00016879484424655491 -0.0024654128157577263 0 8.7416567106817159e-05 -0.0024387256340702929 0 0.00016298309164252561 -0.0023968541252831817 0 8.7416567106817159e-05 -0.0024387256340702929 0 9.7462060200076555e-05 -0.0023484120035638816 0 0.00017033155758369129 -0.0023073540128647004 0 0.00016298309164252561 -0.0023968541252831817 0 9.7462060200076555e-05 -0.0023484120035638816 0 8.7416567106817159e-05 -0.0024387256340702929 0 9.7462060200076555e-05 -0.0023484120035638816 0 -1.8480920344573192e-05 -0.0023435627193221409 0 8.7416567106817159e-05 -0.0024387256340702929 0 7.0700404911773879e-06 -0.00247939611874961 0 -1.8480920344573192e-05 -0.0023435627193221409 0 0.00023828020187999262 -0.0016488288316644016 0 0.00010218912480923159 -0.0016674520562566211 0 8.7416567106817159e-05 -0.0024387256340702929 0 7.0700404911773879e-06 -0.00247939611874961 0 0.00010387371834047005 -0.0025314236414417353 0 0.0002626782189205261 -0.0010297746934877466 0 0.00021458885687239269 -0.0009999916640806674 0 0.00024323311263040463 -0.00094282402112948129 0 0.00030262193913855592 -0.0011933008355402698 0 0.00019429258990653593 -0.0011375838507255288 0 0.00022918577637823511 -0.0012044425966430672 0 0.00023828020187999262 -0.0016488288316644016 0 0.00017160588328051117 -0.0010643126107442241 0 0.00019429258990653593 -0.0011375838507255288 0 0.00015659512948038032 -0.0011856073281975952 0 0.00022918577637823511 -0.0012044425966430672 0 0.0001954918001990673 -0.00092069939955468662 0 0.00024323311263040463 -0.00094282402112948129 0 0.00020667290811601099 -0.000958253314241986 0 0.00021458885687239269 -0.0009999916640806674 0 0.00024323311263040463 -0.00094282402112948129 0 0.00020667290811601099 -0.000958253314241986 0 0.0001954918001990673 -0.00092069939955468662 0 0.0001741654351313178 -0.00097042920797266413 0 0.00015236344358598414 -0.00091864319059590366 0 0.0001954918001990673 -0.00092069939955468662 0 0.00020667290811601099 -0.000958253314241986 0 0.0001741654351313178 -0.00097042920797266413 0 0.00016323419271542169 -0.00097796457951983534 0 0.00016123083640734437 -0.000893213274675058 0 0.00019017436692867341 -0.00094438008233179013 0 0.00018039960258374395 -0.00096192683185571484 0 0.00017180187616853133 -0.00095488355678603699 0 0.00021458885687239269 -0.0009999916640806674 0 0.00020667290811601099 -0.000958253314241986 0 0.0001741654351313178 -0.00097042920797266413 0 0.00019429258990653593 -0.0011375838507255288 0 8.5224049696075389e-05 -0.0010818033342868338 0 0.00015659512948038032 -0.0011856073281975952 0 0.00016323419271542169 -0.00097796457951983534 0 0.00017222411164061717 -0.0010777141143736299 0 0.00017160588328051117 -0.0010643126107442241 0 0.00016323419271542169 -0.00097796457951983534 0 0.00019017436692867341 -0.00094438008233179013 0 0.00017952636118104441 -0.0009663873999906634 0 0.00018039960258374395 -0.00096192683185571484 0 0.00018039960258374395 -0.00096192683185571484 0 0.00017640619758417373 -0.00096942445559097259 0 0.00017902129716261607 -0.0009736202690530418 0 0.00017952636118104441 -0.0009663873999906634 0 0.00018039960258374395 -0.00096192683185571484 0 0.00017640619758417373 -0.00096942445559097259 0 0.00017952636118104441 -0.0009663873999906634 0 0.00017640619758417373 -0.00096942445559097259 0 0.00016679444522042496 -0.00096933355642167519 0 0.00017640619758417373 -0.00096942445559097259 0 0.00017198723236537845 -0.0009727935131982286 0 0.00016679444522042496 -0.00096933355642167519 0 0.00017640619758417373 -0.00096942445559097259 0 0.00017198723236537845 -0.0009727935131982286 0 0.00017902129716261607 -0.0009736202690530418 0 0.00017198723236537845 -0.0009727935131982286 0 0.00018094621511215256 -0.00096848205690311254 0 0.00017902129716261607 -0.0009736202690530418 0 0.00017198723236537845 -0.0009727935131982286 0 0.00018094621511215256 -0.00096848205690311254 0 0.00015973992570202561 -0.00097559966517206094 0 0.00018094621511215256 -0.00096848205690311254 0 0.00015973992570202561 -0.00097559966517206094 0 0.00017943430594199411 -0.00094749967444154751 0 0.00015973992570202561 -0.00097559966517206094 0 0.00013591435571646759 -0.00097896623013843278 0 0.00017943430594199411 -0.00094749967444154751 0 0.00015973992570202561 -0.00097559966517206094 0 0.00015677672062486947 -0.00097668829493844137 0 0.00013591435571646759 -0.00097896623013843278 0 0.00015973992570202561 -0.00097559966517206094 0 0.00015677672062486947 -0.00097668829493844137 0 0.00016679444522042496 -0.00096933355642167519 0 0.00017198723236537845 -0.0009727935131982286 0 0.00015973992570202561 -0.00097559966517206094 0 0.00016679444522042496 -0.00096933355642167519 0 0.00016937183073254938 -0.0010008321918332792 0 0.00016847226123440409 -0.00095279102706296779 0 0.00021234929257900583 -0.0010518235078666365 0 0.00015677672062486947 -0.00097668829493844137 0 0.00016937183073254938 -0.0010008321918332792 0 0.00016847226123440409 -0.00095279102706296779 0 0.00015677672062486947 -0.00097668829493844137 0 0.00016937183073254938 -0.0010008321918332792 0 0.00013591435571646759 -0.00097896623013843278 0 0.00021857411833640743 -0.0010864256963497097 0 0.0002737938697488259 -0.0012908929658684784 0 0.00021857411833640743 -0.0010864256963497097 0 0.00017873530517948627 -0.0010295311310396594 0 0.00015677672062486947 -0.00097668829493844137 0 0.00016847226123440409 -0.00095279102706296779 0 0.00016679444522042496 -0.00096933355642167519 0 0.00015659512948038032 -0.0011856073281975952 0 0.00022784780869653464 -0.0012870862724943331 0 0.00022918577637823511 -0.0012044425966430672 0 0.00017952636118104441 -0.0009663873999906634 0 0.0001689054651136253 -0.00096960615718414181 0 0.00016679444522042496 -0.00096933355642167519 0 0.00017222411164061717 -0.0010777141143736299 0 0.00021857411833640743 -0.0010864256963497097 0 0.00022784780869653464 -0.0012870862724943331 0 0.00022918577637823511 -0.0012044425966430672 0 0.00031673516076217225 -0.0012757948641262445 0 0.00018078924414053024 -0.0017492355193629643 0 0.0001774936569380436 -0.0017297552916377469 0 0.00015290548924694981 -0.0017356123928738533 0 0.00023828020187999262 -0.0016488288316644016 0 6.5406262467449864e-05 -0.0021748419985474542 0 0.00018078924414053024 -0.0017492355193629643 0 0.00015290548924694981 -0.0017356123928738533 0 0.00014868843596143989 -0.0017365910273865767 0 0.00023828020187999262 -0.0016488288316644016 0 0.0002737938697488259 -0.0012908929658684784 0 0.00030262193913855592 -0.0011933008355402698 0 0.00022918577637823511 -0.0012044425966430672 0 0.00031673516076217225 -0.0012757948641262445 0 0.0002737938697488259 -0.0012908929658684784 0 0.00010447221157983552 -0.0020039834253237922 0 0.00021613514324906062 -0.0011345163206119074 0 0.00024546488445685799 -0.0011409766407646561 0 0.00020053847546776718 -0.0011493883953822945 0 0.00021613514324906062 -0.0011345163206119074 0 0.00024546488445685799 -0.0011409766407646561 0 0.00021872323154126751 -0.0011201162171410504 0 0.00021613514324906062 -0.0011345163206119074 0 0.00021872323154126751 -0.0011201162171410504 0 0.00020087377157974661 -0.0011288979530728602 0 0.0002737938697488259 -0.0012908929658684784 0 0.00021353000678012689 -0.001021549646390987 0 0.00028911451354564507 -0.0011495725061147234 0 0.00023863850061974022 -0.0011573522737824127 0 0.00022094769652355821 -0.0010702423845710073 0 0.00021857411833640743 -0.0010864256963497097 0 0.00021450459896589638 -0.0010373911823004804 0 0.00028911451354564507 -0.0011495725061147234 0 0.00021234929257900583 -0.0010518235078666365 0 0.00022094769652355821 -0.0010702423845710073 0 0.00024546488445685799 -0.0011409766407646561 0 0.00021872323154126751 -0.0011201162171410504 0 0.00022094769652355821 -0.0010702423845710073 0 0.00021093189988878147 -0.0010899521589567782 0 0.00020555102219611137 -0.0010675899531711137 0 0.00022094769652355821 -0.0010702423845710073 0 0.00021093189988878147 -0.0010899521589567782 0 0.00021872323154126751 -0.0011201162171410504 0 0.00022094769652355821 -0.0010702423845710073 0 0.00021872323154126751 -0.0011201162171410504 0 0.00019748748521542468 -0.0011033679335344557 0 0.00020087377157974661 -0.0011288979530728602 0 0.00015715006751861735 -0.0011338306890690025 0 0.00018302034448614251 -0.0011166517279719767 0 0.00019675268271025916 -0.0010728233767806463 0 -0.00025118924957765094 -0.0021983061663535895 0 -0.00022266331343527538 -0.0021547253144712456 0 0.00021093189988878147 -0.0010899521589567782 0 0.00021872323154126751 -0.0011201162171410504 0 0.00019748748521542468 -0.0011033679335344557 0 0.00019059233249842079 -0.0011237437493656769 0 0.00018302034448614251 -0.0011166517279719767 0 0.000186336724748589 -0.0011331422290778224 0 0.00019059233249842079 -0.0011237437493656769 0 0.00019748748521542468 -0.0011033679335344557 0 0.00018302034448614251 -0.0011166517279719767 0 0.00019059233249842079 -0.0011237437493656769 0 0.00019748748521542468 -0.0011033679335344557 0 0.00020087377157974661 -0.0011288979530728602 0 0.00021093189988878147 -0.0010899521589567782 0 0.00019748748521542468 -0.0011033679335344557 0 0.00020555102219611137 -0.0010675899531711137 0 0.00019748748521542468 -0.0011033679335344557 0 0.00019675268271025916 -0.0010728233767806463 0 0.00020555102219611137 -0.0010675899531711137 0 0.00019748748521542468 -0.0011033679335344557 0 0.00018302034448614251 -0.0011166517279719767 0 0.00019675268271025916 -0.0010728233767806463 0 0.00015715006751861735 -0.0011338306890690025 0 0.00018302034448614251 -0.0011166517279719767 0 0.000186336724748589 -0.0011331422290778224 0 -0.00025118924957765094 -0.0021983061663535895 0 0.00010447221157983552 -0.0020039834253237922 0 4.3595881040032956e-06 -0.0026239630118519452 0 -0.0001067738924327202 -0.0025735226952578031 0 -8.6555665971685636e-05 -0.0025715517270711299 0 0.00015715006751861735 -0.0011338306890690025 0 0.000186336724748589 -0.0011331422290778224 0 0.00020053847546776718 -0.0011493883953822945 0 0.00019059233249842079 -0.0011237437493656769 0 0.000186336724748589 -0.0011331422290778224 0 0.00020087377157974661 -0.0011288979530728602 0 0.000186336724748589 -0.0011331422290778224 0 0.00020087377157974661 -0.0011288979530728602 0 0.00020053847546776718 -0.0011493883953822945 0 0.00021613514324906062 -0.0011345163206119074 0 0.00020087377157974661 -0.0011288979530728602 0 0.00020053847546776718 -0.0011493883953822945 0 0.00010447221157983552 -0.0020039834253237922 0 6.5406262467449864e-05 -0.0021748419985474542 0 9.5334576342941937e-05 -0.0003867818446251876 0 4.9319228092289759e-05 -0.00035841012352235638 0 0.00010753053279470895 -0.00048085488391782133 0 6.0993754282597323e-05 -0.00037243063065358262 0 0.00010369642982206294 -0.00047022540288168743 0 6.9086699393422322e-05 -0.00036601693178894921 0 0.00010753053279470895 -0.00048085488391782133 0 6.900177363313001e-05 -0.00045649083109752635 0 9.5334576342941937e-05 -0.0003867818446251876 0 0.00012130125253871235 -0.00042000306688483872 0 0.00012191376647891553 -0.00034424867850971268 0 9.5334576342941937e-05 -0.0003867818446251876 0 0.00012130125253871235 -0.00042000306688483872 0 0.00010753053279470895 -0.00048085488391782133 0 4.3846656507361949e-05 -0.00043443484019008643 0 1.2838016584868369e-05 -0.00038172918652862607 0 3.846151650803448e-05 -0.0004744867851678295 0 5.1139500176700682e-05 -0.00041274386431708131 0 6.9086699393422322e-05 -0.00036601693178894921 0 6.900177363313001e-05 -0.00045649083109752635 0 5.1139500176700682e-05 -0.00041274386431708131 0 4.3846656507361949e-05 -0.00043443484019008643 0 6.900177363313001e-05 -0.00045649083109752635 0 5.1139500176700682e-05 -0.00041274386431708131 0 1.2838016584868369e-05 -0.00038172918652862607 0 6.9086699393422322e-05 -0.00036601693178894921 0 5.1139500176700682e-05 -0.00041274386431708131 0 4.3846656507361949e-05 -0.00043443484019008643 0 1.2838016584868369e-05 -0.00038172918652862607 0 1.8918448590939369e-05 -0.00023773743613558657 0 1.2838016584868369e-05 -0.00038172918652862607 0 6.9086699393422322e-05 -0.00036601693178894921 0 8.2004301706353484e-07 -0.00017554617582699516 0 2.2727903220098894e-05 -0.00026925992747980541 0 -2.5847756440846263e-05 -0.00010887661999649142 0 4.144775144007432e-06 -7.8164111621409943e-05 0 2.7966377904808235e-05 -0.0001625275477499451 0 8.2004301706353484e-07 -0.00017554617582699516 0 6.0993754282597323e-05 -0.00037243063065358262 0 -1.9044902776654399e-05 -0.00064036554771307016 0 8.1964519323634501e-05 -0.00092925941707175234 0 7.3942706929659374e-05 -0.00087625091530893256 0 4.1044957175319374e-05 -0.00025793513717677172 0 6.9091993298405055e-05 -0.00028755001001373184 0 4.9319228092289759e-05 -0.00035841012352235638 0 6.9091993298405055e-05 -0.00028755001001373184 0 8.4264685912213751e-05 -0.00034578740653373269 0 4.9319228092289759e-05 -0.00035841012352235638 0 9.5334576342941937e-05 -0.0003867818446251876 0 8.4264685912213751e-05 -0.00034578740653373269 0 4.9319228092289759e-05 -0.00035841012352235638 0 9.5334576342941937e-05 -0.0003867818446251876 0 8.4264685912213751e-05 -0.00034578740653373269 0 0.00012191376647891553 -0.00034424867850971268 0 6.9091993298405055e-05 -0.00028755001001373184 0 8.4264685912213751e-05 -0.00034578740653373269 0 0.00012191376647891553 -0.00034424867850971268 0 8.1964519323634501e-05 -0.00092925941707175234 0 7.3942706929659374e-05 -0.00087625091530893256 0 0.00010550713460629669 -0.00089578529589587699 0 0.00011739533249218873 -0.00083642805197824772 0 0.00012530832637572723 -0.00089544586140090842 0 0.00010550713460629669 -0.00089578529589587699 0 0.00011739533249218873 -0.00083642805197824772 0 7.3942706929659374e-05 -0.00087625091530893256 0 0.00010550713460629669 -0.00089578529589587699 0 0.00011739533249218873 -0.00083642805197824772 0 0.00012530832637572723 -0.00089544586140090842 0 0.00014988456290861702 -0.00088943623323805253 0 0.00012530832637572723 -0.00089544586140090842 0 0.00014377487607758599 -0.00092230734657916416 0 0.00012472402877782547 -0.00093500312138396116 0 0.00012530832637572723 -0.00089544586140090842 0 0.00014988456290861702 -0.00088943623323805253 0 0.00014377487607758599 -0.00092230734657916416 0 0.00012530832637572723 -0.00089544586140090842 0 0.00010550713460629669 -0.00089578529589587699 0 0.00012472402877782547 -0.00093500312138396116 0 8.1964519323634501e-05 -0.00092925941707175234 0 0.00010550713460629669 -0.00089578529589587699 0 0.00012472402877782547 -0.00093500312138396116 0 0.00019017436692867341 -0.00094438008233179013 0 0.00014988456290861702 -0.00088943623323805253 0 0.00016195233054093266 -0.00093203361301964598 0 0.00019431885700412291 -0.00090581800795902403 0 0.00014988456290861702 -0.00088943623323805253 0 0.00017176620234639019 -0.00087330620566553041 0 0.00016323419271542169 -0.00097796457951983534 0 0.00015534293348410365 -0.00088213232261353635 0 0.00014689141136274016 -0.00086100205028120892 0 0.00014988456290861702 -0.00088943623323805253 0 0.00017176620234639019 -0.00087330620566553041 0 0.00014988456290861702 -0.00088943623323805253 0 0.00014377487607758599 -0.00092230734657916416 0 0.00016195233054093266 -0.00093203361301964598 0 0.00019017436692867341 -0.00094438008233179013 0 0.00016195233054093266 -0.00093203361301964598 0 0.00017180187616853133 -0.00095488355678603699 0 0.00014377487607758599 -0.00092230734657916416 0 0.00016195233054093266 -0.00093203361301964598 0 0.00015232487318056362 -0.00094850274242983901 0 0.00016195233054093266 -0.00093203361301964598 0 0.00017180187616853133 -0.00095488355678603699 0 0.00015232487318056362 -0.00094850274242983901 0 0.00017180187616853133 -0.00095488355678603699 0 0.00015232487318056362 -0.00094850274242983901 0 0.00016659923391025975 -0.00096420321082411984 0 0.00018039960258374395 -0.00096192683185571484 0 0.00017180187616853133 -0.00095488355678603699 0 0.00017902129716261607 -0.0009736202690530418 0 8.1964519323634501e-05 -0.00092925941707175234 0 0.00012472402877782547 -0.00093500312138396116 0 0.00016114927925129082 -0.0009723817167330281 0 0.00012130125253871235 -0.00042000306688483872 0 0.00012191376647891553 -0.00034424867850971268 0 0.00016477734880065824 -0.00047057761420125975 0 0.00010255584371230192 -0.00063109938122289687 0 0.0001622258239948297 -0.00071905870663751951 0 0.00012472402877782547 -0.00093500312138396116 0 0.00015232487318056362 -0.00094850274242983901 0 0.00016114927925129082 -0.0009723817167330281 0 0.00014377487607758599 -0.00092230734657916416 0 0.00012472402877782547 -0.00093500312138396116 0 0.00015232487318056362 -0.00094850274242983901 0 0.00015232487318056362 -0.00094850274242983901 0 0.00016114927925129082 -0.0009723817167330281 0 0.00016659923391025975 -0.00096420321082411984 0 0.00016477734880065824 -0.00047057761420125975 0 0.00014069240893325929 -0.00054402997068042983 0 0.00010753053279470895 -0.00048085488391782133 0 0.00012130125253871235 -0.00042000306688483872 0 0.00016477734880065824 -0.00047057761420125975 0 0.00010753053279470895 -0.00048085488391782133 0 0.00016114927925129082 -0.0009723817167330281 0 0.00016659923391025975 -0.00096420321082411984 0 0.00017902129716261607 -0.0009736202690530418 0 0.00017180187616853133 -0.00095488355678603699 0 0.00016659923391025975 -0.00096420321082411984 0 0.00017902129716261607 -0.0009736202690530418 0 0.00016114927925129082 -0.0009723817167330281 0 0.00017902129716261607 -0.0009736202690530418 0 0.00022675744147630339 -0.00095719587243100308 0 0.00018094621511215256 -0.00096848205690311254 0 0.00022675744147630339 -0.00095719587243100308 0 0.00017943430594199411 -0.00094749967444154751 0 0.00018094621511215256 -0.00096848205690311254 0 0.00017902129716261607 -0.0009736202690530418 0 0.00022675744147630339 -0.00095719587243100308 0 0.00016477734880065824 -0.00047057761420125975 0 0.00014069240893325929 -0.00054402997068042983 0 0.00021111531455344739 -0.00058599749225127392 0 0.0001622258239948297 -0.00071905870663751951 0 0.00021745584303873244 -0.00076600502547575513 0 0.00014069240893325929 -0.00054402997068042983 0 9.101941992878912e-05 -0.00052790781742635695 0 8.1493442127913613e-05 -0.00057619847219893359 0 9.101941992878912e-05 -0.00052790781742635695 0 4.9788475415740167e-05 -0.0005385015336180724 0 8.1493442127913613e-05 -0.00057619847219893359 0 9.101941992878912e-05 -0.00052790781742635695 0 6.563501982562899e-05 -0.00050123121477723591 0 4.9788475415740167e-05 -0.0005385015336180724 0 0.00014069240893325929 -0.00054402997068042983 0 9.101941992878912e-05 -0.00052790781742635695 0 0.00010753053279470895 -0.00048085488391782133 0 0.00010753053279470895 -0.00048085488391782133 0 6.900177363313001e-05 -0.00045649083109752635 0 6.563501982562899e-05 -0.00050123121477723591 0 9.101941992878912e-05 -0.00052790781742635695 0 0.00010753053279470895 -0.00048085488391782133 0 6.563501982562899e-05 -0.00050123121477723591 0 1.2838016584868369e-05 -0.00038172918652862607 0 3.846151650803448e-05 -0.0004744867851678295 0 1.5848883957599468e-05 -0.00051078107135858026 0 5.7825733566148898e-06 -0.00022554781273413245 0 2.7966377904808235e-05 -0.0001625275477499451 0 5.2339489913033577e-05 -0.00030064200270321054 0 2.2727903220098894e-05 -0.00026925992747980541 0 3.1104028001154813e-05 -0.00040972169147830695 0 6.900177363313001e-05 -0.00045649083109752635 0 3.846151650803448e-05 -0.0004744867851678295 0 6.563501982562899e-05 -0.00050123121477723591 0 4.3846656507361949e-05 -0.00043443484019008643 0 6.900177363313001e-05 -0.00045649083109752635 0 3.846151650803448e-05 -0.0004744867851678295 0 3.846151650803448e-05 -0.0004744867851678295 0 6.563501982562899e-05 -0.00050123121477723591 0 4.2478253890270639e-05 -0.00050692466631378113 0 3.846151650803448e-05 -0.0004744867851678295 0 4.2478253890270639e-05 -0.00050692466631378113 0 1.5848883957599468e-05 -0.00051078107135858026 0 1.5848883957599468e-05 -0.00051078107135858026 0 4.9788475415740167e-05 -0.0005385015336180724 0 1.5459583319808918e-05 -0.00059287140563730318 0 5.2339489913033577e-05 -0.00030064200270321054 0 3.2707858794155395e-05 -0.00035650067132981665 0 1.5459583319808918e-05 -0.00059287140563730318 0 3.1104028001154813e-05 -0.00040972169147830695 0 1.809756622687407e-05 -0.00058176197724469194 0 6.563501982562899e-05 -0.00050123121477723591 0 4.2478253890270639e-05 -0.00050692466631378113 0 4.9788475415740167e-05 -0.0005385015336180724 0 4.2478253890270639e-05 -0.00050692466631378113 0 1.5848883957599468e-05 -0.00051078107135858026 0 4.9788475415740167e-05 -0.0005385015336180724 0 4.9788475415740167e-05 -0.0005385015336180724 0 1.5459583319808918e-05 -0.00059287140563730318 0 8.1493442127913613e-05 -0.00057619847219893359 0 1.5459583319808918e-05 -0.00059287140563730318 0 8.3208599659870554e-05 -0.00063830022321403369 0 8.1493442127913613e-05 -0.00057619847219893359 0 1.5459583319808918e-05 -0.00059287140563730318 0 5.2041140471374345e-05 -0.00067678277046698319 0 7.9831542624774136e-06 -0.0006999152675845634 0 1.5459583319808918e-05 -0.00059287140563730318 0 5.2041140471374345e-05 -0.00067678277046698319 0 8.3208599659870554e-05 -0.00063830022321403369 0 0.00010318188053552157 -0.0007077604002959807 0 8.3208599659870554e-05 -0.00063830022321403369 0 0.00015147749976208554 -0.00066063336535920154 0 5.2041140471374345e-05 -0.00067678277046698319 0 0.00010318188053552157 -0.0007077604002959807 0 8.3208599659870554e-05 -0.00063830022321403369 0 0.00014069240893325929 -0.00054402997068042983 0 8.1493442127913613e-05 -0.00057619847219893359 0 0.00015147749976208554 -0.00066063336535920154 0 8.3208599659870554e-05 -0.00063830022321403369 0 8.1493442127913613e-05 -0.00057619847219893359 0 0.00015147749976208554 -0.00066063336535920154 0 0.00014069240893325929 -0.00054402997068042983 0 0.00021111531455344739 -0.00058599749225127392 0 0.00015147749976208554 -0.00066063336535920154 0 0.00021111531455344739 -0.00058599749225127392 0 0.0002497307036966084 -0.00075855028790572366 0 0.00015147749976208554 -0.00066063336535920154 0 0.00022675744147630339 -0.00095719587243100308 0 0.0002497307036966084 -0.00075855028790572366 0 0.00018347280579211072 -0.00085857717925958874 0 0.00021745584303873244 -0.00076600502547575513 0 0.00024281300821222987 -0.00075580786082180321 0 0.00022675744147630339 -0.00095719587243100308 0 0.00017943430594199411 -0.00094749967444154751 0 0.00018347280579211072 -0.00085857717925958874 0 0.0002497307036966084 -0.00075855028790572366 0 0.00015147749976208554 -0.00066063336535920154 0 0.0001994557581847319 -0.00074584484487614068 0 0.0002497307036966084 -0.00075855028790572366 0 0.00023292329032733613 -0.00075262627127298091 0 0.0001994557581847319 -0.00074584484487614068 0 0.0002497307036966084 -0.00075855028790572366 0 0.00025605197235090068 -0.00074110661857805103 0 0.0002112441730799854 -0.00076572465749799156 0 0.00010318188053552157 -0.0007077604002959807 0 0.00015147749976208554 -0.00066063336535920154 0 0.00014797116635791293 -0.00074016164136236852 0 0.00015147749976208554 -0.00066063336535920154 0 0.00014797116635791293 -0.00074016164136236852 0 0.0001994557581847319 -0.00074584484487614068 0 0.00014797116635791293 -0.00074016164136236852 0 0.0001730340263312303 -0.00080911632206779184 0 0.0001994557581847319 -0.00074584484487614068 0 0.00014797116635791293 -0.00074016164136236852 0 0.0001730340263312303 -0.00080911632206779184 0 0.00011522880584061855 -0.00077582626665988316 0 0.0001730340263312303 -0.00080911632206779184 0 0.00012976435654570747 -0.00083653597378304987 0 0.00011522880584061855 -0.00077582626665988316 0 0.0002497307036966084 -0.00075855028790572366 0 0.00025605197235090068 -0.00074110661857805103 0 0.00023292329032733613 -0.00075262627127298091 0 0.00025605197235090068 -0.00074110661857805103 0 0.00023292329032733613 -0.00075262627127298091 0 0.00021661082814512076 -0.00078830552138842364 0 0.00023292329032733613 -0.00075262627127298091 0 0.0001994557581847319 -0.00074584484487614068 0 0.00021661082814512076 -0.00078830552138842364 0 0.0001730340263312303 -0.00080911632206779184 0 0.0001994557581847319 -0.00074584484487614068 0 0.00021661082814512076 -0.00078830552138842364 0 0.0001730340263312303 -0.00080911632206779184 0 0.00021661082814512076 -0.00078830552138842364 0 0.00021725892499967561 -0.00085575969460849484 0 0.00021661082814512076 -0.00078830552138842364 0 0.00029064675390128746 -0.0008507574286316348 0 0.00021725892499967561 -0.00085575969460849484 0 0.00025605197235090068 -0.00074110661857805103 0 0.00021661082814512076 -0.00078830552138842364 0 0.00029064675390128746 -0.0008507574286316348 0 0.00025689938839461925 -0.00097499348100434959 0 0.00017587777999766833 -0.0008711772898323093 0 0.00014748648218654281 -0.00089365851343666577 0 0.00024570200817155511 -0.00096503812767886464 0 5.6756759884553078e-05 -0.00096708787180263761 0 0.00029064675390128746 -0.0008507574286316348 0 0.00021725892499967561 -0.00085575969460849484 0 0.00025689938839461925 -0.00097499348100434959 0 0.0001730340263312303 -0.00080911632206779184 0 0.00021725892499967561 -0.00085575969460849484 0 0.00017587777999766833 -0.0008711772898323093 0 0.00021725892499967561 -0.00085575969460849484 0 0.00025689938839461925 -0.00097499348100434959 0 0.00017587777999766833 -0.0008711772898323093 0 0.0001730340263312303 -0.00080911632206779184 0 0.00012976435654570747 -0.00083653597378304987 0 0.00017587777999766833 -0.0008711772898323093 0 0.00012976435654570747 -0.00083653597378304987 0 0.00017587777999766833 -0.0008711772898323093 0 0.00014748648218654281 -0.00089365851343666577 0 0.00012976435654570747 -0.00083653597378304987 0 0.00014748648218654281 -0.00089365851343666577 0 9.9054037150375079e-05 -0.00084796314399554853 0 0.00014748648218654281 -0.00089365851343666577 0 9.9054037150375079e-05 -0.00084796314399554853 0 6.8340656976145686e-05 -0.00086793276754266373 0 0.00012976435654570747 -0.00083653597378304987 0 9.9054037150375079e-05 -0.00084796314399554853 0 8.3606250197985023e-05 -0.00080215892007361449 0 0.00012976435654570747 -0.00083653597378304987 0 8.3606250197985023e-05 -0.00080215892007361449 0 0.00011522880584061855 -0.00077582626665988316 0 9.9054037150375079e-05 -0.00084796314399554853 0 8.3606250197985023e-05 -0.00080215892007361449 0 6.7864429759027084e-05 -0.00082772749120091263 0 8.3606250197985023e-05 -0.00080215892007361449 0 6.7864429759027084e-05 -0.00082772749120091263 0 4.7345983473342337e-05 -0.0007923851839507671 0 6.7864429759027084e-05 -0.00082772749120091263 0 4.1140444324610046e-05 -0.00082285735549933968 0 6.8340656976145686e-05 -0.00086793276754266373 0 9.9054037150375079e-05 -0.00084796314399554853 0 6.7864429759027084e-05 -0.00082772749120091263 0 6.8340656976145686e-05 -0.00086793276754266373 0 4.1140444324610046e-05 -0.00082285735549933968 0 7.626820396699342e-06 -0.00082981354554849938 0 6.8340656976145686e-05 -0.00086793276754266373 0 4.1140444324610046e-05 -0.00082285735549933968 0 7.626820396699342e-06 -0.00082981354554849938 0 1.1935735222019662e-05 -0.00079005230601396619 0 7.626820396699342e-06 -0.00082981354554849938 0 1.1935735222019662e-05 -0.00079005230601396619 0 -1.8151214822051667e-05 -0.00079781100468361401 0 1.1935735222019662e-05 -0.00079005230601396619 0 4.7345983473342337e-05 -0.0007923851839507671 0 1.8618327075455201e-05 -0.00075431191566068965 0 4.1140444324610046e-05 -0.00082285735549933968 0 1.1935735222019662e-05 -0.00079005230601396619 0 4.7345983473342337e-05 -0.0007923851839507671 0 6.7864429759027084e-05 -0.00082772749120091263 0 4.1140444324610046e-05 -0.00082285735549933968 0 4.7345983473342337e-05 -0.0007923851839507671 0 4.7345983473342337e-05 -0.0007923851839507671 0 1.8618327075455201e-05 -0.00075431191566068965 0 6.030913540461281e-05 -0.00074446229567093477 0 1.8618327075455201e-05 -0.00075431191566068965 0 7.9831542624774136e-06 -0.0006999152675845634 0 -2.8384558156027478e-05 -0.00074785543870562431 0 1.1935735222019662e-05 -0.00079005230601396619 0 1.8618327075455201e-05 -0.00075431191566068965 0 -2.8384558156027478e-05 -0.00074785543870562431 0 5.2041140471374345e-05 -0.00067678277046698319 0 7.9831542624774136e-06 -0.0006999152675845634 0 6.030913540461281e-05 -0.00074446229567093477 0 1.8618327075455201e-05 -0.00075431191566068965 0 7.9831542624774136e-06 -0.0006999152675845634 0 6.030913540461281e-05 -0.00074446229567093477 0 5.2041140471374345e-05 -0.00067678277046698319 0 0.00010318188053552157 -0.0007077604002959807 0 6.030913540461281e-05 -0.00074446229567093477 0 0.00010318188053552157 -0.0007077604002959807 0 0.00014797116635791293 -0.00074016164136236852 0 0.00011522880584061855 -0.00077582626665988316 0 0.00010318188053552157 -0.0007077604002959807 0 6.030913540461281e-05 -0.00074446229567093477 0 0.00011522880584061855 -0.00077582626665988316 0 8.3606250197985023e-05 -0.00080215892007361449 0 6.030913540461281e-05 -0.00074446229567093477 0 0.00011522880584061855 -0.00077582626665988316 0 8.3606250197985023e-05 -0.00080215892007361449 0 4.7345983473342337e-05 -0.0007923851839507671 0 6.030913540461281e-05 -0.00074446229567093477 0 -0.00050760259533531025 -0.0036635768616334143 0 -0.00074967727866081732 -0.0035793120709080211 0 -0.00063172798057326799 -0.0037822218574851351 0 -0.00026218444386058473 -0.0022388904723726569 0 -0.00022266331343527538 -0.0021547253144712456 0 0.0002302360643754069 -0.0010995826339772886 0 0.00019675268271025916 -0.0010728233767806463 0 0.00020555102219611137 -0.0010675899531711137 0 0.0002302360643754069 -0.0010995826339772886 0 0.00020555102219611137 -0.0010675899531711137 0 0.00021234929257900583 -0.0010518235078666365 0 -0.00041891156676966506 -0.0034226619585551272 0 -0.00074967727866081732 -0.0035793120709080211 0 -0.00065493577284484209 -0.0032554608922934036 0 0.0002302360643754069 -0.0010995826339772886 0 0.00021234929257900583 -0.0010518235078666365 0 0.00019473046387887628 -0.00108519299588711 0 0.00020555102219611137 -0.0010675899531711137 0 0.00021234929257900583 -0.0010518235078666365 0 0.00022094769652355821 -0.0010702423845710073 0 0.00016937183073254938 -0.0010008321918332792 0 0.00021234929257900583 -0.0010518235078666365 0 0.00017290988270818187 -0.0010413344084549466 0 0.00021234929257900583 -0.0010518235078666365 0 0.00019473046387887628 -0.00108519299588711 0 0.00017290988270818187 -0.0010413344084549466 0 0.0002302360643754069 -0.0010995826339772886 0 0.00019036730466645918 -0.0011344721737056097 0 0.00022096809569375922 -0.00119310538301876 0 0.00019473046387887628 -0.00108519299588711 0 0.00019036730466645918 -0.0011344721737056097 0 0.00013741066985022867 -0.0010940276237491311 0 0.0002302360643754069 -0.0010995826339772886 0 0.00019473046387887628 -0.00108519299588711 0 0.00019036730466645918 -0.0011344721737056097 0 0.00019036730466645918 -0.0011344721737056097 0 0.00013741066985022867 -0.0010940276237491311 0 0.00015181625070500012 -0.0011757662604697597 0 8.3854876486572463e-05 -0.00083638610075646269 0 0.00015671076184933409 -0.00076368838267903765 0 4.5365220799190865e-05 -0.00070584674462106846 0 8.2642125700813933e-05 -0.00084336325398947764 0 0.00014777744527700277 -0.0015903362179304108 0 0.00019473046387887628 -0.00108519299588711 0 0.00013741066985022867 -0.0010940276237491311 0 0.00017290988270818187 -0.0010413344084549466 0 8.2642125700813933e-05 -0.00084336325398947764 0 0.0001432488368928068 -0.0010250774098863851 0 0.00013741066985022867 -0.0010940276237491311 0 0.00017290988270818187 -0.0010413344084549466 0 0.00013591435571646759 -0.00097896623013843278 0 0.00016937183073254938 -0.0010008321918332792 0 0.00017290988270818187 -0.0010413344084549466 0 0.00013591435571646759 -0.00097896623013843278 0 8.3854876486572463e-05 -0.00083638610075646269 0 0.00013591435571646759 -0.00097896623013843278 0 0.00018347280579211072 -0.00085857717925958874 0 0.00013591435571646759 -0.00097896623013843278 0 0.00017943430594199411 -0.00094749967444154751 0 0.00018347280579211072 -0.00085857717925958874 0 8.3854876486572463e-05 -0.00083638610075646269 0 0.00018347280579211072 -0.00085857717925958874 0 0.00015671076184933409 -0.00076368838267903765 0 0.0002497307036966084 -0.00075855028790572366 0 0.00018347280579211072 -0.00085857717925958874 0 0.0002112441730799854 -0.00076572465749799156 0 0.00025605197235090068 -0.00074110661857805103 0 0.00015671076184933409 -0.00076368838267903765 0 0.0002112441730799854 -0.00076572465749799156 0 0.00018347280579211072 -0.00085857717925958874 0 0.00015671076184933409 -0.00076368838267903765 0 0.0002112441730799854 -0.00076572465749799156 0 0.00025605197235090068 -0.00074110661857805103 0 0.00041934620942749745 -0.00083408224859836606 0 0.00061884059332603008 -0.00077372553698565392 0 0.00025605197235090068 -0.00074110661857805103 0 0.00015671076184933409 -0.00076368838267903765 0 4.5365220799190865e-05 -0.00070584674462106846 0 0.00032171104695469461 -0.00049752814708343182 0 0.00014777744527700277 -0.0015903362179304108 0 0.00025605197235090068 -0.00074110661857805103 0 0.00029064675390128746 -0.0008507574286316348 0 0.00041934620942749745 -0.00083408224859836606 0 0.00029064675390128746 -0.0008507574286316348 0 0.00025689938839461925 -0.00097499348100434959 0 0.00039900083689527801 -0.00094249539472376594 0 0.00029064675390128746 -0.0008507574286316348 0 0.00041934620942749745 -0.00083408224859836606 0 0.00039900083689527801 -0.00094249539472376594 0 0.00025689938839461925 -0.00097499348100434959 0 0.00039900083689527801 -0.00094249539472376594 0 0.00032596843725373267 -0.0011063861846855247 0 0.00039900083689527801 -0.00094249539472376594 0 0.00049974640857068306 -0.0010598326649653149 0 0.00032596843725373267 -0.0011063861846855247 0 0.00039900083689527801 -0.00094249539472376594 0 0.00053639063188768137 -0.00092795204415257982 0 0.00049974640857068306 -0.0010598326649653149 0 0.00041934620942749745 -0.00083408224859836606 0 0.00039900083689527801 -0.00094249539472376594 0 0.00053639063188768137 -0.00092795204415257982 0 0.00053639063188768137 -0.00092795204415257982 0 0.00049974640857068306 -0.0010598326649653149 0 0.00073711093303431726 -0.001136105006929409 0 0.00053639063188768137 -0.00092795204415257982 0 0.00061884059332603008 -0.00077372553698565392 0 0.00073711093303431726 -0.001136105006929409 0 0.00041934620942749745 -0.00083408224859836606 0 0.00053639063188768137 -0.00092795204415257982 0 0.00061884059332603008 -0.00077372553698565392 0 0.00019036730466645918 -0.0011344721737056097 0 0.00015181625070500012 -0.0011757662604697597 0 0.00022096809569375922 -0.00119310538301876 0 0.00014777744527700277 -0.0015903362179304108 0 8.5743318138046352e-05 -0.0032218872862551959 0 0.00010653231141162431 -0.0035855256427471381 0 0.00028443230138352089 -0.0036085546340529902 0 0.00021864224574683506 -0.0038411151507944576 0 -4.9038396625725908e-05 -0.0041007913396209168 0 0.00052422771041027861 -0.0029489289176569838 0 0.00014777744527700277 -0.0015903362179304108 0 0.00052422771041027861 -0.0029489289176569838 0 0.00010653231141162431 -0.0035855256427471381 0 0.00021864224574683506 -0.0038411151507944576 0 0.00022591247288695774 -0.0038460914060238515 0 0.00018653707272481211 -0.0040624208433298588 0 8.3183514837027427e-05 -0.0039135788682440704 0 0.00021864224574683506 -0.0038411151507944576 0 8.5743318138046352e-05 -0.0032218872862551959 0 0.00021402561962348667 -0.0040735859171552313 0 -8.3078409218293088e-05 -0.0040511019692608631 0 0.00018653707272481211 -0.0040624208433298588 0 8.3183514837027427e-05 -0.0039135788682440704 0 -0.00074967727866081732 -0.0035793120709080211 0 -0.00083733573663062079 -0.0038912764997043564 0 -0.00063172798057326799 -0.0037822218574851351 0 -0.00034536688527738119 -0.0040798134167843577 0 8.5743318138046352e-05 -0.0032218872862551959 0 -0.00026218444386058473 -0.0022388904723726569 0 8.5743318138046352e-05 -0.0032218872862551959 0 -0.00046766412566312413 -0.003963941485916298 0 -0.00083733573663062079 -0.0038912764997043564 0 -0.00063172798057326799 -0.0037822218574851351 0 -2.5607055860957461e-06 -0.0043527027098991368 0 1.746570084916301e-06 -0.004353772878101814 0 2.4841293418952663e-05 -0.0043528940351564719 0 -4.5196466871848946e-05 -0.0039436640276191122 0 2.5768248205821206e-05 -0.0039207335614023352 0 8.6203624954039268e-06 -0.0036098565681726377 0 0.0001027842612388552 -0.0034388172190938917 0 0.00012481433478859491 -0.0034974670913508754 0 8.6203624954039268e-06 -0.0036098565681726377 0 0.00015039157201248969 -0.0035378774237585851 0 0.00012481433478859491 -0.0034974670913508754 0 -4.5196466871848946e-05 -0.0039436640276191122 0 0.00024404123784709607 -0.0034432601339730415 0 -2.6696909415769517e-05 -0.003587700979562727 0 0.00025438754925443969 -0.0035290392476928709 0 0.00030060866042465681 -0.0034165569926850395 0 -2.6696909415769517e-05 -0.003587700979562727 0 0.00018482116340132253 -0.0037018593938531958 0 0.00025438754925443969 -0.0035290392476928709 0 8.3183514837027427e-05 -0.0039135788682440704 0 0.00018482116340132253 -0.0037018593938531958 0 0.00042294137632006113 -0.003769107825565261 0 -2.6696909415769517e-05 -0.003587700979562727 0 3.0094367439799199e-05 -0.0037651145125751659 0 0.00018482116340132253 -0.0037018593938531958 0 8.3183514837027427e-05 -0.0039135788682440704 0 3.0094367439799199e-05 -0.0037651145125751659 0 0.00018482116340132253 -0.0037018593938531958 0 0.00018482116340132253 -0.0037018593938531958 0 0.00029383935226149759 -0.0036050613401629539 0 0.00025438754925443969 -0.0035290392476928709 0 0.00029383935226149759 -0.0036050613401629539 0 0.00042294137632006113 -0.003769107825565261 0 0.00031179284883287229 -0.0034227978393013797 0 0.00018482116340132253 -0.0037018593938531958 0 0.00029383935226149759 -0.0036050613401629539 0 0.00042294137632006113 -0.003769107825565261 0 0.00052422771041027861 -0.0029489289176569838 0 0.00033883030033256343 -0.0036668161842104449 0 8.3183514837027427e-05 -0.0039135788682440704 0 0.00021864224574683506 -0.0038411151507944576 0 0.00022591247288695774 -0.0038460914060238515 0 0.00031179284883287229 -0.0034227978393013797 0 0.00030060866042465681 -0.0034165569926850395 0 0.00034926537483200801 -0.0033937219827125265 0 0.00032986869723344522 -0.003436652216610438 0 0.00031179284883287229 -0.0034227978393013797 0 0.00033919694764618082 -0.0034185050994843462 0 0.00031179284883287229 -0.0034227978393013797 0 0.00033919694764618082 -0.0034185050994843462 0 0.00034926537483200801 -0.0033937219827125265 0 0.00029383935226149759 -0.0036050613401629539 0 0.00025438754925443969 -0.0035290392476928709 0 0.00031179284883287229 -0.0034227978393013797 0 0.00015039157201248969 -0.0035378774237585851 0 0.00018120243608789831 -0.0034885814331079897 0 0.00012481433478859491 -0.0034974670913508754 0 0.00025438754925443969 -0.0035290392476928709 0 0.00031179284883287229 -0.0034227978393013797 0 0.00030060866042465681 -0.0034165569926850395 0 0.00033919694764618082 -0.0034185050994843462 0 0.00036444662798162995 -0.0034140629738858967 0 0.00034926537483200801 -0.0033937219827125265 0 0.00049974640857068306 -0.0010598326649653149 0 0.00073711093303431726 -0.001136105006929409 0 0.00042760687497353804 -0.001292268534985861 0 0.00052422771041027861 -0.0029489289176569838 0 0.00042613684124232621 -0.0022816806364680644 0 0.00032986869723344522 -0.003436652216610438 0 0.00033919694764618082 -0.0034185050994843462 0 0.00036444662798162995 -0.0034140629738858967 0 0.00049974640857068306 -0.0010598326649653149 0 0.00032596843725373267 -0.0011063861846855247 0 0.00042760687497353804 -0.001292268534985861 0 0.00032596843725373267 -0.0011063861846855247 0 0.00042760687497353804 -0.001292268534985861 0 0.00019852666296284432 -0.0012737343490998258 0 0.00036444662798162995 -0.0034140629738858967 0 0.00036842285759267594 -0.0033964122124454446 0 0.00038836397088026488 -0.0033908700319619377 0 0.00036444662798162995 -0.0034140629738858967 0 0.00036842285759267594 -0.0033964122124454446 0 0.00034926537483200801 -0.0033937219827125265 0 0.00036842285759267594 -0.0033964122124454446 0 0.00036939350383390323 -0.0033870099310968783 0 0.00034926537483200801 -0.0033937219827125265 0 0.00036939350383390323 -0.0033870099310968783 0 0.00031241265868111505 -0.0033839846967670104 0 0.00027256020929256172 -0.0034618194597570255 0 0.00036694309450378479 -0.0033909586899891586 0 0.0003040353485970492 -0.0034322836743088765 0 0.00032098974372583009 -0.0029312740335027065 0 0.0006058029279738254 -0.0031843737442046574 0 0.00037864386884280441 -0.003376620784898338 0 0.00031241265868111505 -0.0033839846967670104 0 0.00027275907907099673 -0.0033279812027157117 0 0.00052305553557365056 -0.0029196880588922241 0 0.0006058029279738254 -0.0031843737442046574 0 0.00042066583448874874 -0.0028202227924086602 0 0.00036447312022558413 -0.0029081759796011318 0 0.00068686630867916096 -0.0031645750654936558 0 0.00043056472255638076 -0.0030154276174826902 0 0.00071398341740372601 -0.0031423773479970591 0 0.00060759859596273824 -0.003243637074942522 0 0.00036939350383390323 -0.0033870099310968783 0 0.00037864386884280441 -0.003376620784898338 0 0.00031241265868111505 -0.0033839846967670104 0 0.00052305553557365056 -0.0029196880588922241 0 0.00046356406002461128 -0.0032833049225242951 0 0.00031241265868111505 -0.0033839846967670104 0 0.00027275907907099673 -0.0033279812027157117 0 0.00025774333541426966 -0.0033812435224754656 0 0.00027275907907099673 -0.0033279812027157117 0 0.00025774333541426966 -0.0033812435224754656 0 0.00022952509295231285 -0.0033476128725976732 0 0.00027275907907099673 -0.0033279812027157117 0 0.00022952509295231285 -0.0033476128725976732 0 0.00019105413312567673 -0.0032904294203534466 0 0.00025774333541426966 -0.0033812435224754656 0 0.00027256020929256172 -0.0034618194597570255 0 0.0001973697489581819 -0.0033906790695128887 0 0.00031241265868111505 -0.0033839846967670104 0 0.00025774333541426966 -0.0033812435224754656 0 0.00027256020929256172 -0.0034618194597570255 0 0.00024404123784709607 -0.0034432601339730415 0 0.0003040353485970492 -0.0034322836743088765 0 0.00015039157201248969 -0.0035378774237585851 0 0.00027256020929256172 -0.0034618194597570255 0 0.00018120243608789831 -0.0034885814331079897 0 0.00027256020929256172 -0.0034618194597570255 0 0.00018120243608789831 -0.0034885814331079897 0 0.00017425277398434505 -0.0034558487460338329 0 0.00027256020929256172 -0.0034618194597570255 0 0.00017425277398434505 -0.0034558487460338329 0 0.0001973697489581819 -0.0033906790695128887 0 0.00017425277398434505 -0.0034558487460338329 0 0.0001027842612388552 -0.0034388172190938917 0 0.00012481433478859491 -0.0034974670913508754 0 0.00018120243608789831 -0.0034885814331079897 0 0.00017425277398434505 -0.0034558487460338329 0 0.00012481433478859491 -0.0034974670913508754 0 0.00017425277398434505 -0.0034558487460338329 0 0.0001973697489581819 -0.0033906790695128887 0 0.0001027842612388552 -0.0034388172190938917 0 2.5768248205821206e-05 -0.0039207335614023352 0 0.00039236253550668218 -0.0037613264852594487 0 0.0001973697489581819 -0.0033906790695128887 0 0.0001027842612388552 -0.0034388172190938917 0 0.00019105413312567673 -0.0032904294203534466 0 0.0001973697489581819 -0.0033906790695128887 0 0.00022952509295231285 -0.0033476128725976732 0 0.00019105413312567673 -0.0032904294203534466 0 0.00025774333541426966 -0.0033812435224754656 0 0.0001973697489581819 -0.0033906790695128887 0 0.00022952509295231285 -0.0033476128725976732 0 8.935449254366447e-06 -0.0043563850137051593 0 2.9440089305373974e-05 -0.0043466239751139748 0 2.4841293418952663e-05 -0.0043528940351564719 0 2.9440089305373974e-05 -0.0043466239751139748 0 2.4841293418952663e-05 -0.0043528940351564719 0 4.6169634325193688e-05 -0.0043344660182663575 0 -0.00041090449515467895 -0.0016389586794941344 0 -0.00023528972403152648 -0.0011637639149288982 0 6.9696634936875895e-05 -0.0018861524060144088 0 -0.00038853637555930705 -0.0020741961919011113 0 -0.00050270745901641702 -0.0014274544488512703 0 -0.00030931880494407732 -0.0024623266901752394 0 -0.00054305290374550891 -0.0024798752007558593 0 -0.00058228662838096228 -0.0022436523307063729 0 -0.00030931880494407732 -0.0024623266901752394 0 -0.00054305290374550891 -0.0024798752007558593 0 -0.00043240945273921594 -0.0026031635481320332 0 -0.00040864166248054943 -0.0012465445452992266 0 -0.00019253275068675704 -0.00098444091545740612 0 -0.00041090449515467895 -0.0016389586794941344 0 -0.00087026141362598675 -0.0011662923891716053 0 -0.00045513733505132896 -0.0010929368490168124 0 -0.00041090449515467895 -0.0016389586794941344 0 -0.00090906019021525625 -0.0012208522197375208 0 -0.00087026141362598675 -0.0011662923891716053 0 7.626820396699342e-06 -0.00082981354554849938 0 -9.6964536423485896e-07 -0.00086449042160410394 0 6.8340656976145686e-05 -0.00086793276754266373 0 7.626820396699342e-06 -0.00082981354554849938 0 -1.6239227434159537e-05 -0.00086476669946488726 0 -1.6968766190282959e-05 -0.00084292052388566308 0 7.626820396699342e-06 -0.00082981354554849938 0 -9.6964536423485896e-07 -0.00086449042160410394 0 -1.6239227434159537e-05 -0.00086476669946488726 0 -0.00050270745901641702 -0.0014274544488512703 0 -0.00040864166248054943 -0.0012465445452992266 0 -0.00047541466245384483 -0.0011908973877020727 0 -0.00052406338244908722 -0.0012582353293600138 0 -0.00041310567510212452 -0.001239924084712988 0 -0.00040864166248054943 -0.0012465445452992266 0 -0.00035136838177187823 -0.0012459990326378284 0 -0.00041090449515467895 -0.0016389586794941344 0 -0.00045513733505132896 -0.0010929368490168124 0 -0.00023528972403152648 -0.0011637639149288982 0 5.6756759884553078e-05 -0.00096708787180263761 0 -0.00019253275068675704 -0.00098444091545740612 0 -4.6234944339108652e-05 -0.001036869620002199 0 -0.00045513733505132896 -0.0010929368490168124 0 -0.00023528972403152648 -0.0011637639149288982 0 -4.6234944339108652e-05 -0.001036869620002199 0 -0.00023528972403152648 -0.0011637639149288982 0 -3.7329702763384562e-05 -0.0011499123481902658 0 -4.6234944339108652e-05 -0.001036869620002199 0 -3.7329702763384562e-05 -0.0011499123481902658 0 0.0001206634434369377 -0.0011293631394919327 0 -3.7329702763384562e-05 -0.0011499123481902658 0 -6.3948450873209568e-06 -0.0012727758913060152 0 0.0001206634434369377 -0.0011293631394919327 0 -0.00023528972403152648 -0.0011637639149288982 0 -3.7329702763384562e-05 -0.0011499123481902658 0 -6.3948450873209568e-06 -0.0012727758913060152 0 0.00025689938839461925 -0.00097499348100434959 0 -4.6234944339108652e-05 -0.001036869620002199 0 0.0001206634434369377 -0.0011293631394919327 0 0.00025689938839461925 -0.00097499348100434959 0 0.00032596843725373267 -0.0011063861846855247 0 0.0001206634434369377 -0.0011293631394919327 0 -6.3948450873209568e-06 -0.0012727758913060152 0 0.0001206634434369377 -0.0011293631394919327 0 0.00019852666296284432 -0.0012737343490998258 0 0.00032596843725373267 -0.0011063861846855247 0 0.0001206634434369377 -0.0011293631394919327 0 0.00019852666296284432 -0.0012737343490998258 0 0.00042760687497353804 -0.001292268534985861 0 0.00019852666296284432 -0.0012737343490998258 0 7.2174470982571009e-05 -0.0014962384901680624 0 0.00042613684124232621 -0.0022816806364680644 0 0.00015773867912563449 -0.002253193410553449 0 -6.3948450873209568e-06 -0.0012727758913060152 0 0.00019852666296284432 -0.0012737343490998258 0 7.2174470982571009e-05 -0.0014962384901680624 0 -0.00026043743253807337 -0.00095054872010842412 0 0.00015773867912563449 -0.002253193410553449 0 -0.00023528972403152648 -0.0011637639149288982 0 0.00026646610971495021 -0.0017917202636774782 0 6.9696634936875895e-05 -0.0018861524060144088 0 -0.00023528972403152648 -0.0011637639149288982 0 -6.3948450873209568e-06 -0.0012727758913060152 0 7.2174470982571009e-05 -0.0014962384901680624 0 -0.00038853637555930705 -0.0020741961919011113 0 4.2409054639652374e-05 -0.0024915145959201338 0 -0.00041090449515467895 -0.0016389586794941344 0 6.9696634936875895e-05 -0.0018861524060144088 0 0.00013729792480883402 -0.0021036256887731692 0 -0.00030931880494407732 -0.0024623266901752394 0 -1.9332850211542029e-05 -0.002686595399854926 0 -7.5065551587096636e-05 -0.0026626440494003684 0 0.00027015365418658536 -0.0017889063421805164 0 6.9696634936875895e-05 -0.0018861524060144088 0 0.00013729792480883402 -0.0021036256887731692 0 0.00015773867912563449 -0.002253193410553449 0 0.00021696358525956561 -0.0020361504618735217 0 4.2409054639652374e-05 -0.0024915145959201338 0 2.0283226063962701e-05 -0.0025198883296106965 0 -7.5065551587096636e-05 -0.0026626440494003684 0 -0.00011292120756410716 -0.0028162411172783178 0 -0.00018645292244769688 -0.0027432624103045015 0 -1.5126069269343253e-05 -0.0026877765564697989 0 -7.5065551587096636e-05 -0.0026626440494003684 0 -0.00011292120756410716 -0.0028162411172783178 0 0.00036939350383390323 -0.0033870099310968783 0 0.00037864386884280441 -0.003376620784898338 0 0.00038836397088026488 -0.0033908700319619377 0 0.00036842285759267594 -0.0033964122124454446 0 0.00036939350383390323 -0.0033870099310968783 0 0.00038836397088026488 -0.0033908700319619377 0 0.00052305553557365056 -0.0029196880588922241 0 4.2409054639652374e-05 -0.0024915145959201338 0 0.0007159327023191943 -0.0023712388842228429 0 0.00027015365418658536 -0.0017889063421805164 0 0.00013729792480883402 -0.0021036256887731692 0 0.00052305553557365056 -0.0029196880588922241 0 0.00015773867912563449 -0.002253193410553449 0 -1.5126069269343253e-05 -0.0026877765564697989 0 0.00026248574371647915 -0.0029133522163469049 0 2.3179339953905476e-05 -0.0029541495007996839 0 0.00042066583448874874 -0.0028202227924086602 0 3.7658656264717392e-05 -0.0026477852683491976 0 0.00036447312022558413 -0.0029081759796011318 0 4.2409054639652374e-05 -0.0024915145959201338 0 0.00032098974372583009 -0.0029312740335027065 0 0.00026248574371647915 -0.0029133522163469049 0 2.3179339953905476e-05 -0.0029541495007996839 0 0.00030222790610759072 -0.0032259674781485699 0 -1.5126069269343253e-05 -0.0026877765564697989 0 -0.00011292120756410716 -0.0028162411172783178 0 2.3179339953905476e-05 -0.0029541495007996839 0 -0.00011292120756410716 -0.0028162411172783178 0 2.3179339953905476e-05 -0.0029541495007996839 0 -0.00019232078430825861 -0.0029646939627173685 0 -0.00019232078430825861 -0.0029646939627173685 0 -0.0002840644561286611 -0.0028556534724166402 0 -0.0004633998288382196 -0.0030565918021380218 0 -0.00011292120756410716 -0.0028162411172783178 0 -0.00019232078430825861 -0.0029646939627173685 0 -0.0002840644561286611 -0.0028556534724166402 0 -0.00011292120756410716 -0.0028162411172783178 0 -0.0002840644561286611 -0.0028556534724166402 0 -0.00018645292244769688 -0.0027432624103045015 0 -0.0002840644561286611 -0.0028556534724166402 0 -0.00018645292244769688 -0.0027432624103045015 0 -0.00028192665968728879 -0.0026639660611809117 0 -0.00030931880494407732 -0.0024623266901752394 0 -7.5065551587096636e-05 -0.0026626440494003684 0 -0.00028192665968728879 -0.0026639660611809117 0 -7.5065551587096636e-05 -0.0026626440494003684 0 -0.00018645292244769688 -0.0027432624103045015 0 -0.00028192665968728879 -0.0026639660611809117 0 -0.0002840644561286611 -0.0028556534724166402 0 -0.00028192665968728879 -0.0026639660611809117 0 -0.00041019056360361701 -0.002739287251575258 0 -0.00028192665968728879 -0.0026639660611809117 0 -0.00043240945273921594 -0.0026031635481320332 0 -0.00041019056360361701 -0.002739287251575258 0 -0.00030931880494407732 -0.0024623266901752394 0 -0.00028192665968728879 -0.0026639660611809117 0 -0.00043240945273921594 -0.0026031635481320332 0 -0.00054305290374550891 -0.0024798752007558593 0 -0.00043240945273921594 -0.0026031635481320332 0 -0.00057732543220026327 -0.0027156474262687584 0 -0.00043240945273921594 -0.0026031635481320332 0 -0.00041019056360361701 -0.002739287251575258 0 -0.00057732543220026327 -0.0027156474262687584 0 -0.0002840644561286611 -0.0028556534724166402 0 -0.00046610118880316854 -0.0028623787633255144 0 -0.0004633998288382196 -0.0030565918021380218 0 -0.00057732543220026327 -0.0027156474262687584 0 -0.00046610118880316854 -0.0028623787633255144 0 -0.00062415615676576915 -0.0029141459161740072 0 -0.0002840644561286611 -0.0028556534724166402 0 -0.00041019056360361701 -0.002739287251575258 0 -0.00046610118880316854 -0.0028623787633255144 0 -0.00041019056360361701 -0.002739287251575258 0 -0.00057732543220026327 -0.0027156474262687584 0 -0.00046610118880316854 -0.0028623787633255144 0 -0.00046610118880316854 -0.0028623787633255144 0 -0.00062415615676576915 -0.0029141459161740072 0 -0.0004633998288382196 -0.0030565918021380218 0 -0.00057732543220026327 -0.0027156474262687584 0 -0.00062415615676576915 -0.0029141459161740072 0 -0.00070597573132129179 -0.0028299473047859632 0 -0.00057732543220026327 -0.0027156474262687584 0 -0.00070597573132129179 -0.0028299473047859632 0 -0.00074500189766218104 -0.0027285485452200192 0 -0.00070597573132129179 -0.0028299473047859632 0 -0.00080932325344034545 -0.0028411476052717572 0 -0.00074500189766218104 -0.0027285485452200192 0 -0.00070597573132129179 -0.0028299473047859632 0 -0.00080932325344034545 -0.0028411476052717572 0 -0.00076909786239636336 -0.0029497650763222259 0 -0.00062415615676576915 -0.0029141459161740072 0 -0.00070597573132129179 -0.0028299473047859632 0 -0.00076909786239636336 -0.0029497650763222259 0 -0.00086611972469133281 -0.0028430977237360912 0 -0.00083311661312211315 -0.0028042055947016102 0 -0.00090765086034271458 -0.002823471556196948 0 -0.00080932325344034545 -0.0028411476052717572 0 -0.00082915708165869268 -0.0029510580852101348 0 -0.00090765086034271458 -0.002823471556196948 0 -0.00099409005941847122 -0.0028931055924018385 0 -0.00085568593927111023 -0.0028836422371779856 0 -0.00080932325344034545 -0.0028411476052717572 0 -0.00082915708165869268 -0.0029510580852101348 0 -0.00076909786239636336 -0.0029497650763222259 0 -0.00090765086034271458 -0.002823471556196948 0 -0.00094257038569451528 -0.0026850141054221709 0 -0.00097388884294532282 -0.0028135355516498172 0 -0.00090765086034271458 -0.002823471556196948 0 -0.00085325364806522962 -0.0027358783472757157 0 -0.00094257038569451528 -0.0026850141054221709 0 -0.00080932325344034545 -0.0028411476052717572 0 -0.00085325364806522962 -0.0027358783472757157 0 -0.00074500189766218104 -0.0027285485452200192 0 -0.00090765086034271458 -0.002823471556196948 0 -0.00080932325344034545 -0.0028411476052717572 0 -0.00085325364806522962 -0.0027358783472757157 0 -0.0008285916865801076 -0.0021670411298544017 0 -0.00065706356599708757 -0.0019581942282397352 0 -0.00085325364806522962 -0.0027358783472757157 0 -0.00074500189766218104 -0.0027285485452200192 0 -0.00077499058315210476 -0.002469177770050708 0 -0.00085325364806522962 -0.0027358783472757157 0 -0.00094257038569451528 -0.0026850141054221709 0 -0.00077499058315210476 -0.002469177770050708 0 -0.00057732543220026327 -0.0027156474262687584 0 -0.00074500189766218104 -0.0027285485452200192 0 -0.00077499058315210476 -0.002469177770050708 0 -0.00042809099576507332 -0.00037532566522804125 0 -0.00042211590272606825 -0.00038294865100972397 0 -0.00042781346033851197 -0.00037056224183210686 0 -0.00062781795418670526 -0.0015226263462227918 0 -0.000568070222955994 -0.00080158770968213552 0 -0.00042958759342485287 -0.0003776635426662117 0 -0.0004395888279967149 -0.00037419954690117661 0 -0.00042428943819349327 -0.00038858682804476249 0 -0.00042958759342485287 -0.0003776635426662117 0 -0.00042809099576507332 -0.00037532566522804125 0 -0.00043414282486283498 -0.0003692792008525931 0 -0.00042958759342485287 -0.0003776635426662117 0 -0.00042211590272606825 -0.00038294865100972397 0 -0.00042428943819349327 -0.00038858682804476249 0 -0.00062781795418670526 -0.0015226263462227918 0 -0.00026077787507639049 -0.00084870354317867068 0 -0.00042958759342485287 -0.0003776635426662117 0 -0.00042809099576507332 -0.00037532566522804125 0 -0.00042211590272606825 -0.00038294865100972397 0 -0.00094257038569451528 -0.0026850141054221709 0 -0.0010512792837575613 -0.002835272117682237 0 -0.00097388884294532282 -0.0028135355516498172 0 -0.0008285916865801076 -0.0021670411298544017 0 -0.00062781795418670526 -0.0015226263462227918 0 -0.0010512792837575613 -0.002835272117682237 0 -0.00097388884294532282 -0.0028135355516498172 0 -0.00099409005941847122 -0.0028931055924018385 0 -0.00062781795418670526 -0.0015226263462227918 0 -0.00026604668142872804 -0.0015041018150192334 0 -0.00090765086034271458 -0.002823471556196948 0 -0.00097388884294532282 -0.0028135355516498172 0 -0.00099409005941847122 -0.0028931055924018385 0 -0.0005875839094361924 -0.0014502372868331977 0 -0.00067159815813678842 -0.001426395689764303 0 -0.00061627643921168245 -0.0013829199322495842 0 -0.0005875839094361924 -0.0014502372868331977 0 -0.00065001004839479069 -0.0015175912814660325 0 -0.00067159815813678842 -0.001426395689764303 0 -0.00042211590272606825 -0.00038294865100972397 0 -0.00042781346033851197 -0.00037056224183210686 0 -0.00043390343447847714 -0.00037740227350575601 0 -0.00042781346033851197 -0.00037056224183210686 0 -0.00043390343447847714 -0.00037740227350575601 0 -0.00041762139934142025 -0.00040909279935317085 0 -0.00042781346033851197 -0.00037056224183210686 0 -0.00043414282486283498 -0.0003692792008525931 0 -0.00043650565127405206 -0.0003587545007737149 0 -0.00042809099576507332 -0.00037532566522804125 0 -0.00042781346033851197 -0.00037056224183210686 0 -0.00043414282486283498 -0.0003692792008525931 0 -0.00043390343447847714 -0.00037740227350575601 0 -0.00041762139934142025 -0.00040909279935317085 0 -0.00042400852629986667 -0.00045320774711848835 0 -0.000568070222955994 -0.00080158770968213552 0 -0.00046538932697549955 -0.00086835918408517969 0 -0.00042781346033851197 -0.00037056224183210686 0 -0.00040411656608463397 -0.00042054736837921468 0 -0.00041762139934142025 -0.00040909279935317085 0 -0.00067159815813678842 -0.001426395689764303 0 -0.00061627643921168245 -0.0013829199322495842 0 -0.00069160841583171197 -0.0013354350954727218 0 -0.00042781346033851197 -0.00037056224183210686 0 -0.00040411656608463397 -0.00042054736837921468 0 -0.00037230710380997098 -0.00044132708117933071 0 -0.00042918680551808146 -0.0003610558351640958 0 -0.00040281856928879437 -0.00042126825037769631 0 -0.00040992370316147937 -0.00043094950587833285 0 -0.00041762139934142025 -0.00040909279935317085 0 -0.00042400852629986667 -0.00045320774711848835 0 -0.00040409424769352755 -0.00043767453096575691 0 -0.00041078412672820337 -0.00044482409317660973 0 -0.00040992370316147937 -0.00043094950587833285 0 -0.00040409424769352755 -0.00043767453096575691 0 -0.00040690228444150892 -0.00044972879494949332 0 -0.00041078412672820337 -0.00044482409317660973 0 -0.00040409424769352755 -0.00043767453096575691 0 -0.00040690228444150892 -0.00044972879494949332 0 -0.00039507408366111328 -0.00043784682247773353 0 -0.00035468109710304417 -0.00060839112079624671 0 -0.00036472917251646617 -0.00059175770623598142 0 -0.00040670616834256483 -0.00045055937656609879 0 -0.00041078412672820337 -0.00044482409317660973 0 -0.00042400852629986667 -0.00045320774711848835 0 -0.00035468109710304417 -0.00060839112079624671 0 -0.00046538932697549955 -0.00086835918408517969 0 -0.00041078412672820337 -0.00044482409317660973 0 -0.00040992370316147937 -0.00043094950587833285 0 -0.00042400852629986667 -0.00045320774711848835 0 -0.00040409424769352755 -0.00043767453096575691 0 -0.00040992370316147937 -0.00043094950587833285 0 -0.00040411656608463397 -0.00042054736837921468 0 -0.00040409424769352755 -0.00043767453096575691 0 -0.00040411656608463397 -0.00042054736837921468 0 -0.00039507408366111328 -0.00043784682247773353 0 -0.00040992370316147937 -0.00043094950587833285 0 -0.00040411656608463397 -0.00042054736837921468 0 -0.00041762139934142025 -0.00040909279935317085 0 -0.00061627643921168245 -0.0013829199322495842 0 -0.00069160841583171197 -0.0013354350954727218 0 -0.00058008932257183729 -0.0013222058608864519 0 -0.00028074564947320237 -0.00089570160832324935 0 -0.00013929994224801248 -0.00087420900900581208 0 -0.00021703523112432091 -0.00079795010495736719 0 -0.00046538932697549955 -0.00086835918408517969 0 -0.00034227055164747188 -0.0011081804345582245 0 -0.00013929994224801248 -0.00087420900900581208 0 -0.00015799683809967219 -0.00080464448347073488 0 -0.00021703523112432091 -0.00079795010495736719 0 -0.00027448266838376814 -0.00061386316517393126 0 -0.00026096689959833393 -0.00061196504098291282 0 -0.00027483764916790845 -0.00054842793690335263 0 -0.00028074564947320237 -0.00089570160832324935 0 -0.00021703523112432091 -0.00079795010495736719 0 -0.00030770968270547134 -0.00078290604061832813 0 -0.00046538932697549955 -0.00086835918408517969 0 -0.00028166067019685855 -0.0006500714914365733 0 -0.00054305290374550891 -0.0024798752007558593 0 -0.00057732543220026327 -0.0027156474262687584 0 -0.00077499058315210476 -0.002469177770050708 0 -0.00054305290374550891 -0.0024798752007558593 0 -0.00058228662838096228 -0.0022436523307063729 0 -0.00077499058315210476 -0.002469177770050708 0 -0.00050270745901641702 -0.0014274544488512703 0 -0.00065706356599708757 -0.0019581942282397352 0 -0.0005875839094361924 -0.0014502372868331977 0 -0.00061627643921168245 -0.0013829199322495842 0 -0.00052416107035782784 -0.0013821495080480414 0 -0.00061627643921168245 -0.0013829199322495842 0 -0.00052416107035782784 -0.0013821495080480414 0 -0.00058008932257183729 -0.0013222058608864519 0 -0.00013929994224801248 -0.00087420900900581208 0 -6.4522321202910532e-05 -0.00082488262249977523 0 -0.00011351933638537318 -0.00079099477547783131 0 -0.00013929994224801248 -0.00087420900900581208 0 -0.00011351933638537318 -0.00079099477547783131 0 -0.00015799683809967219 -0.00080464448347073488 0 -0.00052416107035782784 -0.0013821495080480414 0 -0.00058008932257183729 -0.0013222058608864519 0 -0.00046864034305702879 -0.0013065668347316179 0 -0.00034227055164747188 -0.0011081804345582245 0 -0.00035136838177187823 -0.0012459990326378284 0 -0.00013929994224801248 -0.00087420900900581208 0 -1.5574983302525203e-05 -0.00086465766869605145 0 -2.4086652245203072e-05 -0.0008570122118874557 0 -0.00046029203965310383 -0.0013134795412253122 0 -0.00052416107035782784 -0.0013821495080480414 0 -0.00046864034305702879 -0.0013065668347316179 0 -0.00013929994224801248 -0.00087420900900581208 0 -2.4086652245203072e-05 -0.0008570122118874557 0 -6.4522321202910532e-05 -0.00082488262249977523 0 -1.6239227434159537e-05 -0.00086476669946488726 0 -2.4086652245203072e-05 -0.0008570122118874557 0 -1.6968766190282959e-05 -0.00084292052388566308 0 -2.4086652245203072e-05 -0.0008570122118874557 0 -3.2982939642738052e-05 -0.00083644730286476369 0 -6.4522321202910532e-05 -0.00082488262249977523 0 -0.00050270745901641702 -0.0014274544488512703 0 -0.00035136838177187823 -0.0012459990326378284 0 -0.00035136838177187823 -0.0012459990326378284 0 -0.00033029856566266008 -0.0012259003811658901 0 -2.4086652245203072e-05 -0.0008570122118874557 0 -3.2982939642738052e-05 -0.00083644730286476369 0 -1.6968766190282959e-05 -0.00084292052388566308 0 7.626820396699342e-06 -0.00082981354554849938 0 -2.6597303666001981e-05 -0.00082087074593444737 0 -1.8151214822051667e-05 -0.00079781100468361401 0 -3.2982939642738052e-05 -0.00083644730286476369 0 -1.6968766190282959e-05 -0.00084292052388566308 0 -2.6597303666001981e-05 -0.00082087074593444737 0 -3.2982939642738052e-05 -0.00083644730286476369 0 -2.6597303666001981e-05 -0.00082087074593444737 0 -6.4522321202910532e-05 -0.00082488262249977523 0 7.626820396699342e-06 -0.00082981354554849938 0 -1.6968766190282959e-05 -0.00084292052388566308 0 -2.6597303666001981e-05 -0.00082087074593444737 0 -2.6597303666001981e-05 -0.00082087074593444737 0 -4.9159544940004438e-05 -0.00078843496076256691 0 -1.8151214822051667e-05 -0.00079781100468361401 0 -6.4522321202910532e-05 -0.00082488262249977523 0 -7.522227877690078e-05 -0.00079123097552072331 0 -4.9159544940004438e-05 -0.00078843496076256691 0 -2.6597303666001981e-05 -0.00082087074593444737 0 -6.4522321202910532e-05 -0.00082488262249977523 0 -4.9159544940004438e-05 -0.00078843496076256691 0 -4.9159544940004438e-05 -0.00078843496076256691 0 -7.553484384057352e-05 -0.00075854977770426022 0 -2.8384558156027478e-05 -0.00074785543870562431 0 -7.522227877690078e-05 -0.00079123097552072331 0 -4.9159544940004438e-05 -0.00078843496076256691 0 -7.553484384057352e-05 -0.00075854977770426022 0 -4.9159544940004438e-05 -0.00078843496076256691 0 -1.8151214822051667e-05 -0.00079781100468361401 0 -2.8384558156027478e-05 -0.00074785543870562431 0 1.1935735222019662e-05 -0.00079005230601396619 0 -1.8151214822051667e-05 -0.00079781100468361401 0 -2.8384558156027478e-05 -0.00074785543870562431 0 -7.553484384057352e-05 -0.00075854977770426022 0 -2.8384558156027478e-05 -0.00074785543870562431 0 -8.6740259647625733e-05 -0.00069523715951702895 0 -2.8384558156027478e-05 -0.00074785543870562431 0 -8.6740259647625733e-05 -0.00069523715951702895 0 -4.5492690487505352e-05 -0.00067063728247603158 0 7.9831542624774136e-06 -0.0006999152675845634 0 -2.8384558156027478e-05 -0.00074785543870562431 0 -4.5492690487505352e-05 -0.00067063728247603158 0 -0.0001440160584508069 -0.00065434685990683626 0 -8.6740259647625733e-05 -0.00069523715951702895 0 -0.0001240033228432137 -0.00072815037565185587 0 -7.553484384057352e-05 -0.00075854977770426022 0 -8.6740259647625733e-05 -0.00069523715951702895 0 -0.0001240033228432137 -0.00072815037565185587 0 -0.0001440160584508069 -0.00065434685990683626 0 -0.0001240033228432137 -0.00072815037565185587 0 -0.00017549142279057065 -0.00069552780826139752 0 -0.0001240033228432137 -0.00072815037565185587 0 -0.00011351933638537318 -0.00079099477547783131 0 -0.00016377264928914468 -0.00075334515560128944 0 -7.522227877690078e-05 -0.00079123097552072331 0 -7.553484384057352e-05 -0.00075854977770426022 0 -0.00011351933638537318 -0.00079099477547783131 0 -7.553484384057352e-05 -0.00075854977770426022 0 -0.0001240033228432137 -0.00072815037565185587 0 -0.00011351933638537318 -0.00079099477547783131 0 -6.4522321202910532e-05 -0.00082488262249977523 0 -7.522227877690078e-05 -0.00079123097552072331 0 -0.00011351933638537318 -0.00079099477547783131 0 -0.00011351933638537318 -0.00079099477547783131 0 -0.00015799683809967219 -0.00080464448347073488 0 -0.00016377264928914468 -0.00075334515560128944 0 -0.00015799683809967219 -0.00080464448347073488 0 -0.00021703523112432091 -0.00079795010495736719 0 -0.00016377264928914468 -0.00075334515560128944 0 -0.00021703523112432091 -0.00079795010495736719 0 -0.00025349895000372451 -0.00074905257451724991 0 -0.00022189598925865452 -0.00071024911797993033 0 -0.00021703523112432091 -0.00079795010495736719 0 -0.00016377264928914468 -0.00075334515560128944 0 -0.00022189598925865452 -0.00071024911797993033 0 -0.00021703523112432091 -0.00079795010495736719 0 -0.00030770968270547134 -0.00078290604061832813 0 -0.00025349895000372451 -0.00074905257451724991 0 -0.00025349895000372451 -0.00074905257451724991 0 -0.0002740183439198692 -0.00070715097765044609 0 -0.00022189598925865452 -0.00071024911797993033 0 -0.00030770968270547134 -0.00078290604061832813 0 -0.00025349895000372451 -0.00074905257451724991 0 -0.0002740183439198692 -0.00070715097765044609 0 -0.00030770968270547134 -0.00078290604061832813 0 -0.0002740183439198692 -0.00070715097765044609 0 -0.00032986414807731687 -0.00064957686175996451 0 -0.0002740183439198692 -0.00070715097765044609 0 -0.00025689751675186961 -0.00063728137215059795 0 -0.00022189598925865452 -0.00071024911797993033 0 -0.00025689751675186961 -0.00063728137215059795 0 -0.00022189598925865452 -0.00071024911797993033 0 -0.00020447563159673449 -0.00063469560925701204 0 -0.00025689751675186961 -0.00063728137215059795 0 -0.00028042236330356888 -0.00056510940770474849 0 -0.00032986414807731687 -0.00064957686175996451 0 -0.0002740183439198692 -0.00070715097765044609 0 -0.00025689751675186961 -0.00063728137215059795 0 -0.00032986414807731687 -0.00064957686175996451 0 -0.00016377264928914468 -0.00075334515560128944 0 -0.00017549142279057065 -0.00069552780826139752 0 -0.00022189598925865452 -0.00071024911797993033 0 -0.0001240033228432137 -0.00072815037565185587 0 -0.00016377264928914468 -0.00075334515560128944 0 -0.00017549142279057065 -0.00069552780826139752 0 -0.00017549142279057065 -0.00069552780826139752 0 -0.00022189598925865452 -0.00071024911797993033 0 -0.00020447563159673449 -0.00063469560925701204 0 -0.0001440160584508069 -0.00065434685990683626 0 -0.00017549142279057065 -0.00069552780826139752 0 -0.00020447563159673449 -0.00063469560925701204 0 -0.0001440160584508069 -0.00065434685990683626 0 -0.00020447563159673449 -0.00063469560925701204 0 -0.00018869036938314645 -0.00056313555019818886 0 -0.00020447563159673449 -0.00063469560925701204 0 -0.00018869036938314645 -0.00056313555019818886 0 -0.00024306807491425404 -0.00055864588532254528 0 -0.00025689751675186961 -0.00063728137215059795 0 -0.00028042236330356888 -0.00056510940770474849 0 -0.00024306807491425404 -0.00055864588532254528 0 -0.00025689751675186961 -0.00063728137215059795 0 -0.00020447563159673449 -0.00063469560925701204 0 -0.00024306807491425404 -0.00055864588532254528 0 -0.00028042236330356888 -0.00056510940770474849 0 -0.00024306807491425404 -0.00055864588532254528 0 -0.00026898293488132515 -0.0005181596508868786 0 -0.00018869036938314645 -0.00056313555019818886 0 -0.00024306807491425404 -0.00055864588532254528 0 -0.00025646713224565472 -0.00048791734891478035 0 -0.00026898293488132515 -0.0005181596508868786 0 -0.00025646713224565472 -0.00048791734891478035 0 -0.00029725664979281068 -0.00047600449017211246 0 -0.00024306807491425404 -0.00055864588532254528 0 -0.00026898293488132515 -0.0005181596508868786 0 -0.00025646713224565472 -0.00048791734891478035 0 -0.00014981803974505701 -0.00045918435526361438 0 -0.00018869036938314645 -0.00056313555019818886 0 -0.00025646713224565472 -0.00048791734891478035 0 -0.00010591261102805809 -0.0003930975239034977 0 -0.00021289942082577807 -0.00041781155600527587 0 -0.00014981803974505701 -0.00045918435526361438 0 -0.00018869036938314645 -0.00056313555019818886 0 -0.00010989849485335963 -0.00060297143605157429 0 -0.00014981803974505701 -0.00045918435526361438 0 -6.0456883985109015e-05 -0.00051262212015432259 0 -0.00010989849485335963 -0.00060297143605157429 0 3.2707858794155395e-05 -0.00035650067132981665 0 1.5459583319808918e-05 -0.00059287140563730318 0 -6.0456883985109015e-05 -0.00051262212015432259 0 1.5459583319808918e-05 -0.00059287140563730318 0 -6.0456883985109015e-05 -0.00051262212015432259 0 -0.00010989849485335963 -0.00060297143605157429 0 1.5459583319808918e-05 -0.00059287140563730318 0 -4.5492690487505352e-05 -0.00067063728247603158 0 -0.00010989849485335963 -0.00060297143605157429 0 1.5459583319808918e-05 -0.00059287140563730318 0 7.9831542624774136e-06 -0.0006999152675845634 0 -4.5492690487505352e-05 -0.00067063728247603158 0 -0.0001440160584508069 -0.00065434685990683626 0 -8.6740259647625733e-05 -0.00069523715951702895 0 -0.00010989849485335963 -0.00060297143605157429 0 -0.0001440160584508069 -0.00065434685990683626 0 -0.00018869036938314645 -0.00056313555019818886 0 -0.00010989849485335963 -0.00060297143605157429 0 -8.6740259647625733e-05 -0.00069523715951702895 0 -4.5492690487505352e-05 -0.00067063728247603158 0 -0.00010989849485335963 -0.00060297143605157429 0 -0.00048387362768347248 -0.00029555763001883284 0 -0.00048221507905256964 -0.00029413292778665605 0 -0.00047939006346733144 -0.00029540064136658367 0 -0.00048387362768347248 -0.00029555763001883284 0 -0.00047610069699634473 -0.00029920788041981654 0 -0.00048221507905256964 -0.00029413292778665605 0 -0.00048321943246508215 -0.00029499786485071261 0 -0.00047610069699634473 -0.00029920788041981654 0 -0.00048221507905256964 -0.00029413292778665605 0 -0.00048731173804213477 -0.0002943295331610114 0 -0.00048321943246508215 -0.00029499786485071261 0 -0.00048203871512396884 -0.0002987397364042334 0 -0.00048321943246508215 -0.00029499786485071261 0 -0.00048203871512396884 -0.0002987397364042334 0 -0.00047610069699634473 -0.00029920788041981654 0 -0.00048203871512396884 -0.0002987397364042334 0 -0.00047610069699634473 -0.00029920788041981654 0 -0.00047833072753010317 -0.00030290347464023931 0 -0.00047610069699634473 -0.00029920788041981654 0 -0.00047833072753010317 -0.00030290347464023931 0 -0.00045592469294528668 -0.00031100259410757119 0 -0.00048387362768347248 -0.00029555763001883284 0 -0.00047610069699634473 -0.00029920788041981654 0 -0.00045592469294528668 -0.00031100259410757119 0 -0.00049544831585147074 -0.00028675782364502979 0 -0.00047833072753010317 -0.00030290347464023931 0 -0.00045592469294528668 -0.00031100259410757119 0 -0.000431808653460207 -0.00037412989159193045 0 -0.00045716441632442142 -0.00031803490835856688 0 -0.00038627837659300612 -0.00045640250353104928 0 -0.00036815622491834579 -0.0003270281223358933 0 -0.00033371605054536072 -0.00041040994246612254 0 -0.00038627837659300612 -0.00045640250353104928 0 -0.00045592469294528668 -0.00031100259410757119 0 -0.00036815622491834579 -0.0003270281223358933 0 -0.0003104043539506854 -0.00032714558915505486 0 -0.00036815622491834579 -0.0003270281223358933 0 -0.00033371605054536072 -0.00041040994246612254 0 -0.0003104043539506854 -0.00032714558915505486 0 -0.00030036649026343818 -0.0004219922649148348 0 -0.00033371605054536072 -0.00041040994246612254 0 -0.0003104043539506854 -0.00032714558915505486 0 -0.00030036649026343818 -0.0004219922649148348 0 -0.00025286537851623307 -0.00034383974785340569 0 -0.00030036649026343818 -0.0004219922649148348 0 -0.00033371605054536072 -0.00041040994246612254 0 -0.00030623195623272296 -0.00045409178939016044 0 -0.00025646713224565472 -0.00048791734891478035 0 -0.00030036649026343818 -0.0004219922649148348 0 -0.00029725664979281068 -0.00047600449017211246 0 -0.00021289942082577807 -0.00041781155600527587 0 -0.00030032001189538271 -0.00042599773622561211 0 -0.00015985660112629224 -0.00034955440698133727 0 -0.00030036649026343818 -0.0004219922649148348 0 -0.00025286537851623307 -0.00034383974785340569 0 -0.00030036649026343818 -0.0004219922649148348 0 -0.00029725664979281068 -0.00047600449017211246 0 -0.00030623195623272296 -0.00045409178939016044 0 -0.00029725664979281068 -0.00047600449017211246 0 -0.00029748441475504599 -0.00047575273374624293 0 -0.00029032402432128837 -0.00049274224171576221 0 -0.00028042236330356888 -0.00056510940770474849 0 -0.00029725664979281068 -0.00047600449017211246 0 -0.00032986414807731687 -0.00064957686175996451 0 -0.00030358905000874302 -0.00048961999477909769 0 -0.00030550711485062548 -0.00057427669732763918 0 -0.00028042236330356888 -0.00056510940770474849 0 -0.00026898293488132515 -0.0005181596508868786 0 -0.00029725664979281068 -0.00047600449017211246 0 -0.00029725664979281068 -0.00047600449017211246 0 -0.00029748441475504599 -0.00047575273374624293 0 -0.00030623195623272296 -0.00045409178939016044 0 -0.00038627837659300612 -0.00045640250353104928 0 -0.00033206016500900268 -0.00048146539417357143 0 -0.00032911332324226755 -0.00051954014949363804 0 -0.00038627837659300612 -0.00045640250353104928 0 -0.00033371605054536072 -0.00041040994246612254 0 -0.0003293968017621078 -0.0004565073771022948 0 -0.00033371605054536072 -0.00041040994246612254 0 -0.0003293968017621078 -0.0004565073771022948 0 -0.00030623195623272296 -0.00045409178939016044 0 -0.00029748441475504599 -0.00047575273374624293 0 -0.00030623195623272296 -0.00045409178939016044 0 -0.00031363480630315648 -0.00047325506786846975 0 -0.0003293968017621078 -0.0004565073771022948 0 -0.00030623195623272296 -0.00045409178939016044 0 -0.00031363480630315648 -0.00047325506786846975 0 -0.0003293968017621078 -0.0004565073771022948 0 -0.00031363480630315648 -0.00047325506786846975 0 -0.00033206016500900268 -0.00048146539417357143 0 -0.00029748441475504599 -0.00047575273374624293 0 -0.00031363480630315648 -0.00047325506786846975 0 -0.0003105055872710221 -0.00049482095619521077 0 -0.00031363480630315648 -0.00047325506786846975 0 -0.00033206016500900268 -0.00048146539417357143 0 -0.0003105055872710221 -0.00049482095619521077 0 -0.00038627837659300612 -0.00045640250353104928 0 -0.0003293968017621078 -0.0004565073771022948 0 -0.00033206016500900268 -0.00048146539417357143 0 -0.000431808653460207 -0.00037412989159193045 0 -0.00040313019615706121 -0.00040342934640048112 0 -0.00046917331898699689 -0.00029819051148950964 0 -0.00046614664881807703 -0.00032364296791189659 0 -0.00047939006346733144 -0.00029540064136658367 0 -0.00033206016500900268 -0.00048146539417357143 0 -0.0003105055872710221 -0.00049482095619521077 0 -0.00032911332324226755 -0.00051954014949363804 0 -0.0003105055872710221 -0.00049482095619521077 0 -0.00031131078943740783 -0.00051627558643283715 0 -0.00032911332324226755 -0.00051954014949363804 0 -0.00027483764916790845 -0.00054842793690335263 0 -0.00029032402432128837 -0.00049274224171576221 0 -0.0003072391952732559 -0.0005032864295961355 0 -0.00029748441475504599 -0.00047575273374624293 0 -0.00029032402432128837 -0.00049274224171576221 0 -0.0003072391952732559 -0.0005032864295961355 0 -0.00029748441475504599 -0.00047575273374624293 0 -0.0003105055872710221 -0.00049482095619521077 0 -0.00029693402978639704 -0.00051773431243088645 0 -0.00029914601099697338 -0.00047427467544930028 0 -0.00029990881787750405 -0.00052660331425497724 0 -0.0003105055872710221 -0.00049482095619521077 0 -0.00031131078943740783 -0.00051627558643283715 0 -0.00029693402978639704 -0.00051773431243088645 0 -0.00027483764916790845 -0.00054842793690335263 0 -0.0003072391952732559 -0.0005032864295961355 0 -0.00031079879412140946 -0.00055745627968665286 0 -0.00028166067019685855 -0.0006500714914365733 0 -0.00030550711485062548 -0.00057427669732763918 0 -0.00031131078943740783 -0.00051627558643283715 0 -0.00029693402978639704 -0.00051773431243088645 0 -0.00029676516536215073 -0.00055803766850212567 0 -0.00029990881787750405 -0.00052660331425497724 0 -0.00036085602189557233 -0.00047649271629029668 0 -0.00040313019615706121 -0.00040342934640048112 0 -0.00036085602189557233 -0.00047649271629029668 0 -0.00046880072061999495 -0.00030493450736465379 0 -0.00047620606201434344 -0.00029912669009753335 0 -0.00046917331898699689 -0.00029819051148950964 0 -0.00044432040536854592 -0.00032959519575351834 0 -0.00046614664881807703 -0.00032364296791189659 0 -0.0004659338154155996 -0.00029662947620710166 0 -0.00047683687684294939 -0.00029626186080528911 0 -0.00047939006346733144 -0.00029540064136658367 0 -0.00031131078943740783 -0.00051627558643283715 0 -0.00032911332324226755 -0.00051954014949363804 0 -0.00029676516536215073 -0.00055803766850212567 0 -0.0004659338154155996 -0.00029662947620710166 0 -0.00047683687684294939 -0.00029626186080528911 0 -0.00047367517787452534 -0.00030237526338073629 0 -0.00048101724934558794 -0.00029846668702944895 0 -0.00047683687684294939 -0.00029626186080528911 0 -0.00047367517787452534 -0.00030237526338073629 0 -0.00048101724934558794 -0.00029846668702944895 0 -0.00048163613560426639 -0.00030319627112824099 0 -0.00047367517787452534 -0.00030237526338073629 0 -0.00048101724934558794 -0.00029846668702944895 0 -0.00048552166245529655 -0.00029567364849873799 0 -0.00048613796130263719 -0.00030040592634593064 0 -0.00048101724934558794 -0.00029846668702944895 0 -0.00048613796130263719 -0.00030040592634593064 0 -0.00048163613560426639 -0.00030319627112824099 0 -0.00048139312531539667 -0.00029566011751907916 0 -0.00047683687684294939 -0.00029626186080528911 0 -0.00048111173168884075 -0.00029456358757742722 0 -0.00048101724934558794 -0.00029846668702944895 0 -0.00048139312531539667 -0.00029566011751907916 0 -0.00048552166245529655 -0.00029567364849873799 0 -0.00048101724934558794 -0.00029846668702944895 0 -0.00048139312531539667 -0.00029566011751907916 0 -0.00047683687684294939 -0.00029626186080528911 0 -0.00047683687684294939 -0.00029626186080528911 0 -0.00048111173168884075 -0.00029456358757742722 0 -0.00047939006346733144 -0.00029540064136658367 0 -0.00048387362768347248 -0.00029555763001883284 0 -0.00046917331898699689 -0.00029819051148950964 0 -0.00047939006346733144 -0.00029540064136658367 0 -0.00048139312531539667 -0.00029566011751907916 0 -0.00048111173168884075 -0.00029456358757742722 0 -0.00048476011751065137 -0.0002931871445499132 0 -0.00048111173168884075 -0.00029456358757742722 0 -0.00048221507905256964 -0.00029413292778665605 0 -0.00048476011751065137 -0.0002931871445499132 0 -0.00048111173168884075 -0.00029456358757742722 0 -0.00048221507905256964 -0.00029413292778665605 0 -0.00047939006346733144 -0.00029540064136658367 0 -0.00048321943246508215 -0.00029499786485071261 0 -0.00048476011751065137 -0.0002931871445499132 0 -0.00048972631801045771 -0.00029153044354075937 0 -0.00048731173804213477 -0.0002943295331610114 0 -0.00048321943246508215 -0.00029499786485071261 0 -0.00048972631801045771 -0.00029153044354075937 0 -0.00048321943246508215 -0.00029499786485071261 0 -0.00048221507905256964 -0.00029413292778665605 0 -0.00048476011751065137 -0.0002931871445499132 0 -0.00048476011751065137 -0.0002931871445499132 0 -0.00048972631801045771 -0.00029153044354075937 0 -0.00048949448006517526 -0.00029314530176688738 0 -0.00049297459890840201 -0.00029152957434142133 0 -0.00048972631801045771 -0.00029153044354075937 0 -0.00048949448006517526 -0.00029314530176688738 0 -0.00049297459890840201 -0.00029152957434142133 0 -0.00048949448006517526 -0.00029314530176688738 0 -0.00049312664142168343 -0.00029422530576605355 0 -0.00048139312531539667 -0.00029566011751907916 0 -0.00048476011751065137 -0.0002931871445499132 0 -0.00048552166245529655 -0.00029567364849873799 0 -0.00048476011751065137 -0.0002931871445499132 0 -0.00048949448006517526 -0.00029314530176688738 0 -0.00048552166245529655 -0.00029567364849873799 0 -0.00048949448006517526 -0.00029314530176688738 0 -0.00048552166245529655 -0.00029567364849873799 0 -0.000490368724982552 -0.00029714077411766558 0 -0.00048552166245529655 -0.00029567364849873799 0 -0.000490368724982552 -0.00029714077411766558 0 -0.00048613796130263719 -0.00030040592634593064 0 -0.00048949448006517526 -0.00029314530176688738 0 -0.00049312664142168343 -0.00029422530576605355 0 -0.000490368724982552 -0.00029714077411766558 0 -0.00049312664142168343 -0.00029422530576605355 0 -0.000490368724982552 -0.00029714077411766558 0 -0.0004963763307971234 -0.00029805939987970881 0 -0.000490368724982552 -0.00029714077411766558 0 -0.0004963763307971234 -0.00029805939987970881 0 -0.00049178685410292372 -0.00030381388586445921 0 -0.0004963763307971234 -0.00029805939987970881 0 -0.00049758981730419307 -0.000303442764766002 0 -0.00049178685410292372 -0.00030381388586445921 0 -0.00049758981730419307 -0.000303442764766002 0 -0.00049658813289238802 -0.00031105507067002584 0 -0.00049178685410292372 -0.00030381388586445921 0 -0.00050393955446973555 -0.00030529044454015301 0 -0.00049758981730419307 -0.000303442764766002 0 -0.00049658813289238802 -0.00031105507067002584 0 -0.00049658813289238802 -0.00031105507067002584 0 -0.00048805070448528241 -0.00031221086948609515 0 -0.00049178685410292372 -0.00030381388586445921 0 -0.00048805070448528241 -0.00031221086948609515 0 -0.00048588132133257667 -0.00030610513074709965 0 -0.00049178685410292372 -0.00030381388586445921 0 -0.00048588132133257667 -0.00030610513074709965 0 -0.00049178685410292372 -0.00030381388586445921 0 -0.00048613796130263719 -0.00030040592634593064 0 -0.000490368724982552 -0.00029714077411766558 0 -0.00049178685410292372 -0.00030381388586445921 0 -0.00048613796130263719 -0.00030040592634593064 0 -0.00048588132133257667 -0.00030610513074709965 0 -0.00048613796130263719 -0.00030040592634593064 0 -0.00048163613560426639 -0.00030319627112824099 0 -0.00048588132133257667 -0.00030610513074709965 0 -0.00048163613560426639 -0.00030319627112824099 0 -0.00047946935331976255 -0.00031098040369015941 0 -0.00048163613560426639 -0.00030319627112824099 0 -0.00047367517787452534 -0.00030237526338073629 0 -0.00047946935331976255 -0.00031098040369015941 0 -0.00047946935331976255 -0.00031098040369015941 0 -0.00047492058598297627 -0.0003181921175862339 0 -0.00046860450466551268 -0.00031308555037345103 0 -0.00047367517787452534 -0.00030237526338073629 0 -0.00047946935331976255 -0.00031098040369015941 0 -0.00046860450466551268 -0.00031308555037345103 0 -0.00048805070448528241 -0.00031221086948609515 0 -0.00048588132133257667 -0.00030610513074709965 0 -0.00047946935331976255 -0.00031098040369015941 0 -0.00047946935331976255 -0.00031098040369015941 0 -0.00048153653157512188 -0.0003227283050848789 0 -0.00047492058598297627 -0.0003181921175862339 0 -0.00048805070448528241 -0.00031221086948609515 0 -0.00047946935331976255 -0.00031098040369015941 0 -0.00048153653157512188 -0.0003227283050848789 0 -0.00048153653157512188 -0.0003227283050848789 0 -0.00047492058598297627 -0.0003181921175862339 0 -0.00046967564448557062 -0.00032622526691484361 0 -0.00047492058598297627 -0.0003181921175862339 0 -0.00046860450466551268 -0.00031308555037345103 0 -0.00046967564448557062 -0.00032622526691484361 0 -0.00048153653157512188 -0.0003227283050848789 0 -0.00046967564448557062 -0.00032622526691484361 0 -0.00046996647219890736 -0.00033930364516051952 0 -0.00048153653157512188 -0.0003227283050848789 0 -0.00048114662827691222 -0.00033728726067391472 0 -0.00046996647219890736 -0.00033930364516051952 0 -0.00048153653157512188 -0.0003227283050848789 0 -0.00049157949524506492 -0.00033011173930410211 0 -0.00048114662827691222 -0.00033728726067391472 0 -0.00049157949524506492 -0.00033011173930410211 0 -0.00050009890910068507 -0.00032054732496961618 0 -0.00049159662526972051 -0.00031930687247222272 0 -0.00048153653157512188 -0.0003227283050848789 0 -0.00049157949524506492 -0.00033011173930410211 0 -0.00049159662526972051 -0.00031930687247222272 0 -0.00050747209754163842 -0.00033525861633758493 0 -0.00049157949524506492 -0.00033011173930410211 0 -0.00050009890910068507 -0.00032054732496961618 0 -0.00049658813289238802 -0.00031105507067002584 0 -0.00050009890910068507 -0.00032054732496961618 0 -0.00049159662526972051 -0.00031930687247222272 0 -0.00050594019978860458 -0.00031322643938582904 0 -0.00049658813289238802 -0.00031105507067002584 0 -0.00050009890910068507 -0.00032054732496961618 0 -0.00049658813289238802 -0.00031105507067002584 0 -0.00048805070448528241 -0.00031221086948609515 0 -0.00049159662526972051 -0.00031930687247222272 0 -0.00048805070448528241 -0.00031221086948609515 0 -0.00048153653157512188 -0.0003227283050848789 0 -0.00049159662526972051 -0.00031930687247222272 0 -0.00035468109710304417 -0.00060839112079624671 0 -0.00036085602189557233 -0.00047649271629029668 0 -0.00027448266838376814 -0.00061386316517393126 0 -0.00027483764916790845 -0.00054842793690335263 0 -0.00031079879412140946 -0.00055745627968665286 0 -0.00037086522274963607 -0.00049581481232832908 0 -0.00039039538299558341 -0.00046853021775581733 0 -0.00039006262290932812 -0.00049177729636417841 0 -0.00044432040536854592 -0.00032959519575351834 0 -0.00046614664881807703 -0.00032364296791189659 0 -0.00044358294876430289 -0.0003584022888876303 0 -0.00036085602189557233 -0.00047649271629029668 0 -0.00043099431956331356 -0.00036677840319906084 0 -0.0004659338154155996 -0.00029662947620710166 0 -0.00044339243879851014 -0.0003145204155689879 0 -0.000459460789932521 -0.00031052103092637107 0 -0.00046880072061999495 -0.00030493450736465379 0 -0.00043099431956331356 -0.00036677840319906084 0 -0.00044339243879851014 -0.0003145204155689879 0 -0.000459460789932521 -0.00031052103092637107 0 -0.0004600453531024266 -0.00031997847666947798 0 -0.0004659338154155996 -0.00029662947620710166 0 -0.000459460789932521 -0.00031052103092637107 0 -0.00046671166333468782 -0.00030558690904586679 0 -0.00047367517787452534 -0.00030237526338073629 0 -0.00046671166333468782 -0.00030558690904586679 0 -0.00046860450466551268 -0.00031308555037345103 0 -0.0004659338154155996 -0.00029662947620710166 0 -0.00047367517787452534 -0.00030237526338073629 0 -0.00046671166333468782 -0.00030558690904586679 0 -0.000459460789932521 -0.00031052103092637107 0 -0.00046860450466551268 -0.00031308555037345103 0 -0.0004600453531024266 -0.00031997847666947798 0 -0.000459460789932521 -0.00031052103092637107 0 -0.00046671166333468782 -0.00030558690904586679 0 -0.00046860450466551268 -0.00031308555037345103 0 -0.00046860450466551268 -0.00031308555037345103 0 -0.00046967564448557062 -0.00032622526691484361 0 -0.0004600453531024266 -0.00031997847666947798 0 -0.00046967564448557062 -0.00032622526691484361 0 -0.00045690535803689572 -0.000335170108325425 0 -0.0004600453531024266 -0.00031997847666947798 0 -0.00046967564448557062 -0.00032622526691484361 0 -0.00045690535803689572 -0.000335170108325425 0 -0.00046996647219890736 -0.00033930364516051952 0 -0.00044339243879851014 -0.0003145204155689879 0 -0.00045690535803689572 -0.000335170108325425 0 -0.0004600453531024266 -0.00031997847666947798 0 -0.00044339243879851014 -0.0003145204155689879 0 -0.00045690535803689572 -0.000335170108325425 0 -0.0004410566808962226 -0.00036059189302481214 0 -0.00043099431956331356 -0.00036677840319906084 0 -0.00044392690623597442 -0.00034337279767636777 0 -0.00043999529635699525 -0.00034731011775659108 0 -0.00043650565127405206 -0.0003587545007737149 0 -0.0004410566808962226 -0.00036059189302481214 0 -0.00044057130274508064 -0.00034478298597065876 0 -0.00043999529635699525 -0.00034731011775659108 0 -0.0004410566808962226 -0.00036059189302481214 0 -0.00042781346033851197 -0.00037056224183210686 0 -0.0004387371650117017 -0.00034664443600895774 0 -0.00043650565127405206 -0.0003587545007737149 0 -0.00043099431956331356 -0.00036677840319906084 0 -0.00040281856928879437 -0.00042126825037769631 0 -0.00044057130274508064 -0.00034478298597065876 0 -0.00043999529635699525 -0.00034731011775659108 0 -0.000439100908270871 -0.00034721914685757158 0 -0.00040528380022988435 -0.00041974698253302968 0 -0.00040281856928879437 -0.00042126825037769631 0 -0.00040690228444150892 -0.00044972879494949332 0 -0.00037230710380997098 -0.00044132708117933071 0 -0.00039507408366111328 -0.00043784682247773353 0 -0.00035468109710304417 -0.00060839112079624671 0 -0.00040281856928879437 -0.00042126825037769631 0 -0.00043999529635699525 -0.00034731011775659108 0 -0.0004387371650117017 -0.00034664443600895774 0 -0.00043650565127405206 -0.0003587545007737149 0 -0.00040411656608463397 -0.00042054736837921468 0 -0.00037230710380997098 -0.00044132708117933071 0 -0.00039507408366111328 -0.00043784682247773353 0 -0.00037086522274963607 -0.00049581481232832908 0 -0.00039006262290932812 -0.00049177729636417841 0 -0.00038597163453690938 -0.00049791213498928753 0 -0.00043414282486283498 -0.0003692792008525931 0 -0.0004410566808962226 -0.00036059189302481214 0 -0.0004395888279967149 -0.00037419954690117661 0 -0.00043414282486283498 -0.0003692792008525931 0 -0.00043650565127405206 -0.0003587545007737149 0 -0.0004410566808962226 -0.00036059189302481214 0 -0.0004410566808962226 -0.00036059189302481214 0 -0.00045928124429620373 -0.0003497670701840565 0 -0.00045633277048014837 -0.00036289368163902662 0 -0.00045690535803689572 -0.000335170108325425 0 -0.0004410566808962226 -0.00036059189302481214 0 -0.00045928124429620373 -0.0003497670701840565 0 -0.00045690535803689572 -0.000335170108325425 0 -0.00045928124429620373 -0.0003497670701840565 0 -0.00046996647219890736 -0.00033930364516051952 0 -0.00045928124429620373 -0.0003497670701840565 0 -0.00046996647219890736 -0.00033930364516051952 0 -0.0004718979915967106 -0.000349847537270074 0 -0.00045928124429620373 -0.0003497670701840565 0 -0.00045633277048014837 -0.00036289368163902662 0 -0.0004718979915967106 -0.000349847537270074 0 -0.00045633277048014837 -0.00036289368163902662 0 -0.00047111563138608326 -0.0003618469497532624 0 -0.00045129676747558039 -0.00038035064288077997 0 -0.00045633277048014837 -0.00036289368163902662 0 -0.0004718979915967106 -0.000349847537270074 0 -0.00047111563138608326 -0.0003618469497532624 0 -0.00045633277048014837 -0.00036289368163902662 0 -0.0004395888279967149 -0.00037419954690117661 0 -0.00045129676747558039 -0.00038035064288077997 0 -0.0004395888279967149 -0.00037419954690117661 0 -0.00045129676747558039 -0.00038035064288077997 0 -0.00042428943819349327 -0.00038858682804476249 0 -0.0004410566808962226 -0.00036059189302481214 0 -0.00045633277048014837 -0.00036289368163902662 0 -0.0004395888279967149 -0.00037419954690117661 0 -0.00042958759342485287 -0.0003776635426662117 0 -0.00043414282486283498 -0.0003692792008525931 0 -0.0004395888279967149 -0.00037419954690117661 0 -0.00050747209754163842 -0.00033525861633758493 0 -0.00051377229889282272 -0.00036081231423699001 0 -0.00048874715783750185 -0.00034801035958961004 0 -0.00050747209754163842 -0.00033525861633758493 0 -0.00049157949524506492 -0.00033011173930410211 0 -0.00048874715783750185 -0.00034801035958961004 0 -0.00049157949524506492 -0.00033011173930410211 0 -0.00048874715783750185 -0.00034801035958961004 0 -0.00048114662827691222 -0.00033728726067391472 0 -0.00048114662827691222 -0.00033728726067391472 0 -0.00046996647219890736 -0.00033930364516051952 0 -0.0004718979915967106 -0.000349847537270074 0 -0.00048874715783750185 -0.00034801035958961004 0 -0.00048114662827691222 -0.00033728726067391472 0 -0.0004718979915967106 -0.000349847537270074 0 -0.00048874715783750185 -0.00034801035958961004 0 -0.0004718979915967106 -0.000349847537270074 0 -0.00047111563138608326 -0.0003618469497532624 0 -0.00047720094740976902 -0.00038738424224867658 0 -0.00037777507817928879 -0.00030760222788210807 0 -0.00048874715783750185 -0.00034801035958961004 0 -0.00047111563138608326 -0.0003618469497532624 0 -0.00048750248297958055 -0.00036768433112120913 0 -0.00047111563138608326 -0.0003618469497532624 0 -0.00048750248297958055 -0.00036768433112120913 0 -0.00045129676747558039 -0.00038035064288077997 0 -0.00051377229889282272 -0.00036081231423699001 0 -0.00048874715783750185 -0.00034801035958961004 0 -0.00048750248297958055 -0.00036768433112120913 0 -0.00051377229889282272 -0.00036081231423699001 0 -0.00048750248297958055 -0.00036768433112120913 0 -0.00052355047414450677 -0.00039759314003069902 0 -0.00048750248297958055 -0.00036768433112120913 0 -0.00052355047414450677 -0.00039759314003069902 0 -0.00051534470356316264 -0.0004360819951236836 0 -0.00052355047414450677 -0.00039759314003069902 0 -0.00051534470356316264 -0.0004360819951236836 0 -0.00053114936759053881 -0.00041609561769476942 0 -0.00048750248297958055 -0.00036768433112120913 0 -0.00051534470356316264 -0.0004360819951236836 0 -0.00042442977148686965 -0.00040762502549293941 0 -0.00048750248297958055 -0.00036768433112120913 0 -0.00042442977148686965 -0.00040762502549293941 0 -0.0002878988711470689 -0.00036976409486353838 0 -0.00042513768956926201 -0.00046812235018662944 0 -0.00036391982956532755 -0.00042867219234406966 0 -0.00034132101711150791 -0.00047236133150733745 0 -0.00042442977148686965 -0.00040762502549293941 0 -0.00042513768956926201 -0.00046812235018662944 0 -0.00036391982956532755 -0.00042867219234406966 0 -0.00051534470356316264 -0.0004360819951236836 0 -0.00042442977148686965 -0.00040762502549293941 0 -0.00042513768956926201 -0.00046812235018662944 0 -0.00051534470356316264 -0.0004360819951236836 0 -0.00042513768956926201 -0.00046812235018662944 0 -0.00043883414044871709 -0.0006194708854080095 0 -0.00042513768956926201 -0.00046812235018662944 0 -0.00037519592078478462 -0.00053899186953274914 0 -0.00043883414044871709 -0.0006194708854080095 0 -0.00042513768956926201 -0.00046812235018662944 0 -0.00037519592078478462 -0.00053899186953274914 0 -0.00034132101711150791 -0.00047236133150733745 0 -0.00037519592078478462 -0.00053899186953274914 0 -0.00043883414044871709 -0.0006194708854080095 0 -0.0002954814507616531 -0.00060358075532830266 0 -0.00070023030036961236 -0.00059071187219421697 0 -0.00045746453023462474 0.00053365573123312859 0 -0.00051534470356316264 -0.0004360819951236836 0 -0.00056656517091611979 -0.0005961041020063094 0 -0.0007376506120223839 -0.00052827123501569167 0 -0.00051534470356316264 -0.0004360819951236836 0 -0.00043883414044871709 -0.0006194708854080095 0 -0.00056656517091611979 -0.0005961041020063094 0 -0.00024686124420164775 -0.00041163673082382843 0 -0.0002878988711470689 -0.00036976409486353838 0 -0.00012764086033008665 -0.00039527393605481696 0 -0.00022163687677045861 -0.00042208499685493159 0 -0.00022449901857027538 -0.00055535578254813534 0 -9.1671854601477228e-05 -0.00041165765032494977 0 -0.00037777507817928879 -0.00030760222788210807 0 -0.00026077787507639049 -0.00084870354317867068 0 -0.00022389584236065659 -0.00039532591452074139 0 -0.00014439044343663785 -0.00085056399200431889 0 -0.00042442977148686965 -0.00040762502549293941 0 -0.0002878988711470689 -0.00036976409486353838 0 -0.00036391982956532755 -0.00042867219234406966 0 -0.00022163687677045861 -0.00042208499685493159 0 -0.00036391982956532755 -0.00042867219234406966 0 -0.00027032980670468806 -0.00048255441429527555 0 -0.00022389584236065659 -0.00039532591452074139 0 -0.00035849543920203191 -0.00043080898790769676 0 -0.00024686124420164775 -0.00041163673082382843 0 -0.0002878988711470689 -0.00036976409486353838 0 -0.00036391982956532755 -0.00042867219234406966 0 -0.00036391982956532755 -0.00042867219234406966 0 -0.00034132101711150791 -0.00047236133150733745 0 -0.00027032980670468806 -0.00048255441429527555 0 -0.00034132101711150791 -0.00047236133150733745 0 -0.0002954814507616531 -0.00060358075532830266 0 -0.00013515784328885219 -0.00059077971678010211 0 -0.00034132101711150791 -0.00047236133150733745 0 -0.00027032980670468806 -0.00048255441429527555 0 -0.00022449901857027538 -0.00055535578254813534 0 -0.00037178639132388078 -0.00041803613356082483 0 -0.00014739396232258642 -0.00086409008306845227 0 -0.00037519592078478462 -0.00053899186953274914 0 -0.00034132101711150791 -0.00047236133150733745 0 -0.0002954814507616531 -0.00060358075532830266 0 -0.00014739396232258642 -0.00086409008306845227 0 -0.00014439044343663785 -0.00085056399200431889 0 -0.00022163687677045861 -0.00042208499685493159 0 -0.00027032980670468806 -0.00048255441429527555 0 -0.00022449901857027538 -0.00055535578254813534 0 -0.00014739396232258642 -0.00086409008306845227 0 -3.3698658143010666e-05 -0.0010055268760407474 0 -0.00020461235615980885 -0.00075449444721120446 0 -0.00017096489129575377 -0.00086788135361701526 0 -5.306562066865759e-05 -0.00085407529006227014 0 -0.00017096489129575377 -0.00086788135361701526 0 -0.0003227270141619138 -0.00087673139265169496 0 -0.00021940099617373879 -0.0009684077689874602 0 -0.00020461235615980885 -0.00075449444721120446 0 -0.00017096489129575377 -0.00086788135361701526 0 -0.0003227270141619138 -0.00087673139265169496 0 -0.0001488296703774624 -0.00088754711284682556 0 -3.3698658143010666e-05 -0.0010055268760407474 0 -0.0002954814507616531 -0.00060358075532830266 0 -0.00013515784328885219 -0.00059077971678010211 0 -0.00027857765351478283 -0.00076008193043274963 0 -0.00014739396232258642 -0.00086409008306845227 0 -0.00029424684749747391 -0.00079684727689561109 0 -0.00043883414044871709 -0.0006194708854080095 0 -0.0002954814507616531 -0.00060358075532830266 0 -0.00027857765351478283 -0.00076008193043274963 0 -0.0003227270141619138 -0.00087673139265169496 0 -0.00029093416253845016 -0.0010208308821012468 0 -0.00021940099617373879 -0.0009684077689874602 0 -0.0003227270141619138 -0.00087673139265169496 0 -0.00036529395232683397 -0.0010127735169968928 0 -0.00029093416253845016 -0.0010208308821012468 0 -0.00029093416253845016 -0.0010208308821012468 0 -0.00021940099617373879 -0.0009684077689874602 0 -0.00021066168880597548 -0.0010870904997858301 0 -0.00021940099617373879 -0.0009684077689874602 0 -0.00021066168880597548 -0.0010870904997858301 0 -9.3899054680552177e-05 -0.00099634948994099587 0 -0.00017096489129575377 -0.00086788135361701526 0 -0.00021940099617373879 -0.0009684077689874602 0 -9.3899054680552177e-05 -0.00099634948994099587 0 -0.00056656517091611979 -0.0005961041020063094 0 -0.00058278116100793885 -0.00080211840566055462 0 -0.0007376506120223839 -0.00052827123501569167 0 -0.00042956781491395354 0.0017577283706112551 0 -0.00046931246350655404 0.0017576417075478444 0 -0.00046633876940390084 0.0017510794584941227 0 -0.00052698817059544667 0.00049557246089516297 0 -0.00045746453023462474 0.00053365573123312859 0 -0.00043883414044871709 -0.0006194708854080095 0 -0.00056656517091611979 -0.0005961041020063094 0 -0.00058278116100793885 -0.00080211840566055462 0 -0.00043883414044871709 -0.0006194708854080095 0 -0.00027857765351478283 -0.00076008193043274963 0 -0.00043732858630316109 -0.0007846391235662556 0 -0.00043883414044871709 -0.0006194708854080095 0 -0.00058278116100793885 -0.00080211840566055462 0 -0.00043732858630316109 -0.0007846391235662556 0 -0.00052698817059544667 0.00049557246089516297 0 -0.00032356216905585059 0.00025909412510953262 0 -0.00058278116100793885 -0.00080211840566055462 0 -0.00043732858630316109 -0.0007846391235662556 0 -0.00044568891696185017 -0.00096488560711026881 0 -0.00058278116100793885 -0.00080211840566055462 0 -0.00044568891696185017 -0.00096488560711026881 0 -0.00043464726615158821 -0.0010925246466156533 0 -0.0003227270141619138 -0.00087673139265169496 0 -0.00036529395232683397 -0.0010127735169968928 0 -0.00044568891696185017 -0.00096488560711026881 0 -0.00029424684749747391 -0.00079684727689561109 0 -0.0004399600296342062 -0.0009634876219558699 0 -0.00027857765351478283 -0.00076008193043274963 0 -0.00043732858630316109 -0.0007846391235662556 0 -0.00044568891696185017 -0.00096488560711026881 0 -0.00036529395232683397 -0.0010127735169968928 0 -0.00044568891696185017 -0.00096488560711026881 0 -0.00043464726615158821 -0.0010925246466156533 0 -0.00042956781491395354 0.0017577283706112551 0 -0.00039270617159770853 0.0016740712845080934 0 -0.00023022811076541203 0.0016354772839262117 0 -0.00042956781491395354 0.0017577283706112551 0 -0.00039270617159770853 0.0016740712845080934 0 -0.00044613418858723523 0.0017179528286222236 0 -0.00042956781491395354 0.0017577283706112551 0 -0.00044613418858723523 0.0017179528286222236 0 -0.00046633876940390084 0.0017510794584941227 0 -0.00039270617159770853 0.0016740712845080934 0 -0.00044613418858723523 0.0017179528286222236 0 -0.00044800127932558025 0.0016715381234532235 0 -0.00044613418858723523 0.0017179528286222236 0 -0.00044800127932558025 0.0016715381234532235 0 -0.00048070081026653787 0.0017067793770090965 0 -0.00044800127932558025 0.0016715381234532235 0 -0.00042130090836771291 0.0016381390215064054 0 -0.00048682337913767167 0.0016346600301046759 0 -0.00042130090836771291 0.0016381390215064054 0 -0.00043014429894334082 0.0015864751878573479 0 -0.00048682337913767167 0.0016346600301046759 0 -0.00039270617159770853 0.0016740712845080934 0 -0.00044800127932558025 0.0016715381234532235 0 -0.00042130090836771291 0.0016381390215064054 0 -0.00039270617159770853 0.0016740712845080934 0 -0.00042130090836771291 0.0016381390215064054 0 -0.00034171333457258936 0.0016110812386828934 0 -0.00042130090836771291 0.0016381390215064054 0 -0.00043014429894334082 0.0015864751878573479 0 -0.00034171333457258936 0.0016110812386828934 0 -0.00043014429894334082 0.0015864751878573479 0 -0.00037940205818176738 0.0015405072604950192 0 -0.00034171333457258936 0.0016110812386828934 0 -0.00043014429894334082 0.0015864751878573479 0 -0.00049541177799593055 0.0015600365534851304 0 -0.00048682337913767167 0.0016346600301046759 0 -0.00043014429894334082 0.0015864751878573479 0 -0.00043713298846210824 0.0014988811510525805 0 -0.00049541177799593055 0.0015600365534851304 0 -0.00043014429894334082 0.0015864751878573479 0 -0.00037940205818176738 0.0015405072604950192 0 -0.00043713298846210824 0.0014988811510525805 0 -0.00037940205818176738 0.0015405072604950192 0 -0.00032875037940190415 0.0014714720474934069 0 -0.00034171333457258936 0.0016110812386828934 0 -0.00037940205818176738 0.0015405072604950192 0 -0.00032875037940190415 0.0014714720474934069 0 -0.00043713298846210824 0.0014988811510525805 0 -0.00032875037940190415 0.0014714720474934069 0 -0.00043713298846210824 0.0014988811510525805 0 -0.00042196022041058765 0.0013618835605380556 0 -0.00033021477705195485 0.0015906927558378028 0 -0.00019292035667678166 0.0012177077316497442 0 -0.00016427496488728271 0.0013645012669274215 0 -0.00034171333457258936 0.0016110812386828934 0 -0.00019227456925301596 0.0010508275115185181 0 -0.00032875037940190415 0.0014714720474934069 0 -0.00034171333457258936 0.0016110812386828934 0 -0.00019386451652698102 0.0013835636416014672 0 -0.00016427496488728271 0.0013645012669274215 0 -0.00023022811076541203 0.0016354772839262117 0 0.00011710058162202436 0.0012038881460494457 0 -0.00016427496488728271 0.0013645012669274215 0 0.00011710058162202436 0.0012038881460494457 0 -0.00019227456925301596 0.0010508275115185181 0 -0.00016427496488728271 0.0013645012669274215 0 -0.00034171333457258936 0.0016110812386828934 0 -0.00023022811076541203 0.0016354772839262117 0 -0.00039270617159770853 0.0016740712845080934 0 -0.00034171333457258936 0.0016110812386828934 0 -0.00023022811076541203 0.0016354772839262117 0 -0.00043464726615158821 -0.0010925246466156533 0 -0.00030647809585572164 -0.001125145879751205 0 -0.00030619617695418628 -0.0013143179432658224 0 -0.00036529395232683397 -0.0010127735169968928 0 -0.00043464726615158821 -0.0010925246466156533 0 -0.00030647809585572164 -0.001125145879751205 0 -0.00036529395232683397 -0.0010127735169968928 0 -0.00029093416253845016 -0.0010208308821012468 0 -0.00030647809585572164 -0.001125145879751205 0 -0.00029093416253845016 -0.0010208308821012468 0 -0.00030647809585572164 -0.001125145879751205 0 -0.00021066168880597548 -0.0010870904997858301 0 -0.00030647809585572164 -0.001125145879751205 0 -0.00021066168880597548 -0.0010870904997858301 0 -0.0002113625679306303 -0.0011933505609209268 0 -0.00021066168880597548 -0.0010870904997858301 0 -0.00010351089547516204 -0.001163066534542857 0 -9.3899054680552177e-05 -0.00099634948994099587 0 -0.00021066168880597548 -0.0010870904997858301 0 -0.0002113625679306303 -0.0011933505609209268 0 -0.00010351089547516204 -0.001163066534542857 0 -0.00012990605822923326 -0.0012774674912746824 0 -0.00030619617695418628 -0.0013143179432658224 0 -8.904150413858166e-05 -0.0014139369202031758 0 -0.0002113625679306303 -0.0011933505609209268 0 -0.00012990605822923326 -0.0012774674912746824 0 -0.00030619617695418628 -0.0013143179432658224 0 -0.0002113625679306303 -0.0011933505609209268 0 -0.00012990605822923326 -0.0012774674912746824 0 -0.00010351089547516204 -0.001163066534542857 0 -0.00032356216905585059 0.00025909412510953262 0 -9.864604664239408e-05 -5.9432672183200048e-05 0 -0.00030647809585572164 -0.001125145879751205 0 -0.0002113625679306303 -0.0011933505609209268 0 -0.00030619617695418628 -0.0013143179432658224 0 0.00011710058162202436 0.0012038881460494457 0 8.1865785794492751e-05 0.00082110952527482655 0 -0.00019227456925301596 0.0010508275115185181 0 0.00011710058162202436 0.0012038881460494457 0 0.0004276757016991875 0.00076050635609683007 0 8.1865785794492751e-05 0.00082110952527482655 0 -9.864604664239408e-05 -5.9432672183200048e-05 0 0.00015621588772298997 -0.00035962863831225859 0 -0.00030619617695418628 -0.0013143179432658224 0 -0.00016684599326159647 -0.0015344533549891425 0 -8.904150413858166e-05 -0.0014139369202031758 0 0.0004276757016991875 0.00076050635609683007 0 0.00020057123612694867 0.00046831922775244285 0 0.00043329073549471409 0.00047883909152019393 0 8.1865785794492751e-05 0.00082110952527482655 0 -0.00019227456925301596 0.0010508275115185181 0 -1.072483914231424e-05 0.00049701537827202553 0 0.0004276757016991875 0.00076050635609683007 0 8.1865785794492751e-05 0.00082110952527482655 0 0.00020057123612694867 0.00046831922775244285 0 8.1865785794492751e-05 0.00082110952527482655 0 -1.072483914231424e-05 0.00049701537827202553 0 0.00020057123612694867 0.00046831922775244285 0 -0.00033019954051389838 0.001075688681557164 0 -0.00019386451652698102 0.0013835636416014672 0 3.4017259742874656e-06 0.00084541335804640214 0 -0.00019292035667678166 0.0012177077316497442 0 -9.166980754313923e-06 0.00066057487558824127 0 -0.00033019954051389838 0.001075688681557164 0 -0.00028725959206995632 0.00080435555714905831 0 3.4017259742874656e-06 0.00084541335804640214 0 -0.00051082827758405997 0.00091155861594960342 0 -0.00033019954051389838 0.001075688681557164 0 -0.00028725959206995632 0.00080435555714905831 0 -0.00052479847193979024 0.0011683601126868408 0 -0.00033019954051389838 0.001075688681557164 0 -0.00042196022041058765 0.0013618835605380556 0 -0.00051082827758405997 0.00091155861594960342 0 -0.00052479847193979024 0.0011683601126868408 0 -0.00033019954051389838 0.001075688681557164 0 -0.00052479847193979024 0.0011683601126868408 0 -0.00042196022041058765 0.0013618835605380556 0 -0.00060579737943066488 0.0013843856527849449 0 -0.00042196022041058765 0.0013618835605380556 0 -0.00060579737943066488 0.0013843856527849449 0 -0.00051991540308047592 0.0014462123969753802 0 -0.00043713298846210824 0.0014988811510525805 0 -0.00042196022041058765 0.0013618835605380556 0 -0.00051991540308047592 0.0014462123969753802 0 -0.00033019954051389838 0.001075688681557164 0 -0.00042196022041058765 0.0013618835605380556 0 -0.00019386451652698102 0.0013835636416014672 0 -0.00032875037940190415 0.0014714720474934069 0 -0.00042196022041058765 0.0013618835605380556 0 -0.00019386451652698102 0.0013835636416014672 0 0.00017519030544486041 -0.0014186258713628588 0 0.0003772889826893028 -0.0014341318122483588 0 0.00021108737723857636 -0.0015888748035738759 0 0.00032782323816298454 -0.0015068030052857023 0 0.00022376375139758031 -0.0015808669863423988 0 0.00017519030544486041 -0.0014186258713628588 0 0.0003772889826893028 -0.0014341318122483588 0 0.00024641209630775365 -0.0012697712187122305 0 0.00030549124072743475 -0.0015536886091582697 0 0.00021108737723857636 -0.0015888748035738759 0 0.0003695582866429684 -0.0016701295062434916 0 0.00021108737723857636 -0.0015888748035738759 0 5.8817523483503516e-05 -0.0015093024141160699 0 0.00011668105483687331 -0.0016662458447456465 0 2.7906961171470845e-05 -0.0016145243450130348 0 5.8817523483503516e-05 -0.0015093024141160699 0 0.00011668105483687331 -0.0016662458447456465 0 -0.00016684599326159647 -0.0015344533549891425 0 -3.3496068941104371e-05 -0.0015521741474938222 0 -1.5742019137982983e-05 -0.0016762565478943281 0 2.7906961171470845e-05 -0.0016145243450130348 0 -3.3496068941104371e-05 -0.0015521741474938222 0 -1.5742019137982983e-05 -0.0016762565478943281 0 2.7906961171470845e-05 -0.0016145243450130348 0 -3.3496068941104371e-05 -0.0015521741474938222 0 5.8817523483503516e-05 -0.0015093024141160699 0 -0.00016684599326159647 -0.0015344533549891425 0 -3.3496068941104371e-05 -0.0015521741474938222 0 -8.904150413858166e-05 -0.0014139369202031758 0 -8.904150413858166e-05 -0.0014139369202031758 0 5.8817523483503516e-05 -0.0015093024141160699 0 3.2070450465427509e-05 -0.0012939485972956642 0 -3.3496068941104371e-05 -0.0015521741474938222 0 -8.904150413858166e-05 -0.0014139369202031758 0 5.8817523483503516e-05 -0.0015093024141160699 0 0.00017519030544486041 -0.0014186258713628588 0 5.8817523483503516e-05 -0.0015093024141160699 0 3.2070450465427509e-05 -0.0012939485972956642 0 0.00017519030544486041 -0.0014186258713628588 0 0.00021108737723857636 -0.0015888748035738759 0 5.8817523483503516e-05 -0.0015093024141160699 0 3.2070450465427509e-05 -0.0012939485972956642 0 0.00013119512600272962 -0.0011745564012669218 0 0.00024641209630775365 -0.0012697712187122305 0 0.00017519030544486041 -0.0014186258713628588 0 3.2070450465427509e-05 -0.0012939485972956642 0 0.00024641209630775365 -0.0012697712187122305 0 -0.00012990605822923326 -0.0012774674912746824 0 -8.904150413858166e-05 -0.0014139369202031758 0 3.2070450465427509e-05 -0.0012939485972956642 0 -0.00012990605822923326 -0.0012774674912746824 0 3.2070450465427509e-05 -0.0012939485972956642 0 -0.00010351089547516204 -0.001163066534542857 0 -3.9793311499548763e-07 -0.0011150035290346538 0 -0.00010351089547516204 -0.001163066534542857 0 -9.3899054680552177e-05 -0.00099634948994099587 0 3.2070450465427509e-05 -0.0012939485972956642 0 -3.9793311499548763e-07 -0.0011150035290346538 0 -0.00010351089547516204 -0.001163066534542857 0 -3.9793311499548763e-07 -0.0011150035290346538 0 0.00013119512600272962 -0.0011745564012669218 0 9.2654220871817185e-05 -0.00095860893996173075 0 3.2070450465427509e-05 -0.0012939485972956642 0 -3.9793311499548763e-07 -0.0011150035290346538 0 0.00013119512600272962 -0.0011745564012669218 0 0.00024641209630775365 -0.0012697712187122305 0 0.00038375383285073393 -0.0011459522599788919 0 0.0002289819183696236 -0.0010702035407794599 0 0.00013119512600272962 -0.0011745564012669218 0 0.00024641209630775365 -0.0012697712187122305 0 0.0002289819183696236 -0.0010702035407794599 0 0.0003772889826893028 -0.0014341318122483588 0 0.000388006474742512 -0.0012856426432355727 0 0.00051168249970348992 -0.0013081082973602554 0 0.0003772889826893028 -0.0014341318122483588 0 0.00024641209630775365 -0.0012697712187122305 0 0.000388006474742512 -0.0012856426432355727 0 0.00024641209630775365 -0.0012697712187122305 0 0.000388006474742512 -0.0012856426432355727 0 0.00038375383285073393 -0.0011459522599788919 0 0.00038375383285073393 -0.0011459522599788919 0 0.00035007071417442588 -0.0010044570913451693 0 0.0002289819183696236 -0.0010702035407794599 0 0.00038375383285073393 -0.0011459522599788919 0 0.00035007071417442588 -0.0010044570913451693 0 0.0005307060595077526 -0.0010340443600770465 0 0.0002289819183696236 -0.0010702035407794599 0 0.00020404101251014173 -0.00090244014201321511 0 0.00011775610567361492 -0.0009994211404292365 0 0.00035007071417442588 -0.0010044570913451693 0 0.0002289819183696236 -0.0010702035407794599 0 0.00020404101251014173 -0.00090244014201321511 0 5.8811587368684178e-05 -0.0010335425858722512 0 -3.480311671370665e-05 -0.0018069937837160012 0 0.00035007071417442588 -0.0010044570913451693 0 0.00020404101251014173 -0.00090244014201321511 0 0.00041313623692981624 -0.00087843693066655426 0 -3.9793311499548763e-07 -0.0011150035290346538 0 -9.3899054680552177e-05 -0.00099634948994099587 0 9.2654220871817185e-05 -0.00095860893996173075 0 -9.3899054680552177e-05 -0.00099634948994099587 0 9.2654220871817185e-05 -0.00095860893996173075 0 -4.5771096483089211e-05 -0.00085765119976353597 0 0.00013119512600272962 -0.0011745564012669218 0 0.0002289819183696236 -0.0010702035407794599 0 9.2654220871817185e-05 -0.00095860893996173075 0 0.00021851893651649341 -0.0010602628488954366 0 9.9614847726864697e-05 -0.00097354837769340419 0 5.8811587368684178e-05 -0.0010335425858722512 0 -3.3698658143010666e-05 -0.0010055268760407474 0 -0.00014446232917612184 -0.0013185025360437342 0 -6.2071213574580543e-05 -0.001306565879775337 0 -0.00011505042540428545 -0.0013371225459845293 0 0.00020404101251014173 -0.00090244014201321511 0 0.00011775610567361492 -0.0009994211404292365 0 5.6724841535375473e-06 -0.00092779776192549769 0 -0.00017096489129575377 -0.00086788135361701526 0 -9.3899054680552177e-05 -0.00099634948994099587 0 -4.5771096483089211e-05 -0.00085765119976353597 0 9.9614847726864697e-05 -0.00097354837769340419 0 -3.3698658143010666e-05 -0.0010055268760407474 0 -2.2606588598419448e-05 -0.001331994371417214 0 -6.0830734980805972e-05 -0.0013462189412992689 0 -7.1287290800477052e-05 -0.001386485807174817 0 -2.2606588598419448e-05 -0.001331994371417214 0 -6.2071213574580543e-05 -0.001306565879775337 0 -6.0830734980805972e-05 -0.0013462189412992689 0 -6.2071213574580543e-05 -0.001306565879775337 0 -6.0830734980805972e-05 -0.0013462189412992689 0 -8.8368491473795504e-05 -0.0013584921898994072 0 -6.0830734980805972e-05 -0.0013462189412992689 0 -8.8368491473795504e-05 -0.0013584921898994072 0 -8.1302908554013397e-05 -0.0013719942253896653 0 -6.2071213574580543e-05 -0.001306565879775337 0 -8.8368491473795504e-05 -0.0013584921898994072 0 -0.00011505042540428545 -0.0013371225459845293 0 -0.00011505042540428545 -0.0013371225459845293 0 -7.7861493723363658e-05 -0.0014785577529003622 0 -0.00014486435562543985 -0.0014126023579514124 0 -8.8368491473795504e-05 -0.0013584921898994072 0 -0.00011505042540428545 -0.0013371225459845293 0 -9.5134041645887952e-05 -0.0013893257580686964 0 -7.0132711993654313e-05 -0.0013197730016891243 0 -0.00026604668142872804 -0.0015041018150192334 0 -0.00010390559490544018 -0.0014816352038723236 0 -7.7861493723363658e-05 -0.0014785577529003622 0 -0.00014486435562543985 -0.0014126023579514124 0 -0.0010512792837575613 -0.002835272117682237 0 -0.00099409005941847122 -0.0028931055924018385 0 -0.0010308833791081661 -0.0028947870152456145 0 -0.00044592199062415644 -0.0013190728478649576 0 -0.00047224088003138578 -0.0012098119853773581 0 -0.00036290605761566422 -0.0012276088300151749 0 -0.00051028336507385173 -0.0020471208231790769 0 -0.00026604668142872804 -0.0015041018150192334 0 -8.8368491473795504e-05 -0.0013584921898994072 0 -9.5134041645887952e-05 -0.0013893257580686964 0 -8.1302908554013397e-05 -0.0013719942253896653 0 -0.00024686124420164775 -0.00041163673082382843 0 -0.00012764086033008665 -0.00039527393605481696 0 -0.0001407582571302171 -0.0004084001115275525 0 -6.0830734980805972e-05 -0.0013462189412992689 0 -8.1302908554013397e-05 -0.0013719942253896653 0 -7.1287290800477052e-05 -0.001386485807174817 0 -0.00027835810129588691 -0.0011540023720920509 0 -0.0001903798406084427 -0.0011668512354111595 0 -0.00016440146247263072 -0.0011377392579853872 0 -0.00026604668142872804 -0.0015041018150192334 0 -0.00026077787507639049 -0.00084870354317867068 0 -9.5134041645887952e-05 -0.0013893257580686964 0 -8.1302908554013397e-05 -0.0013719942253896653 0 -7.1287290800477052e-05 -0.001386485807174817 0 -0.00026604668142872804 -0.0015041018150192334 0 -0.00014439044343663785 -0.00085056399200431889 0 -0.00026077787507639049 -0.00084870354317867068 0 -0.00014439044343663785 -0.00085056399200431889 0 -0.00027930008226917581 -0.0013415368963971468 0 -0.00023519875940730876 -0.001406212437726729 0 -0.00018336608179655552 -0.0013693917656886932 0 -0.00043993101339765897 -0.002533698321535383 0 -0.00051447807610897499 -0.0024294656208936846 0 -0.00047670383129423688 -0.00242784728122698 0 -3.480311671370665e-05 -0.0018069937837160012 0 -0.0004043853067380371 -0.0018761984598995947 0 -0.00023519875940730876 -0.001406212437726729 0 -0.00018336608179655552 -0.0013693917656886932 0 -0.00014486435562543985 -0.0014126023579514124 0 -0.00014446232917612184 -0.0013185025360437342 0 -0.00027930008226917581 -0.0013415368963971468 0 -0.00018336608179655552 -0.0013693917656886932 0 -0.00011505042540428545 -0.0013371225459845293 0 -0.00018336608179655552 -0.0013693917656886932 0 -0.00014486435562543985 -0.0014126023579514124 0 -0.00014446232917612184 -0.0013185025360437342 0 -0.00011505042540428545 -0.0013371225459845293 0 -0.00018336608179655552 -0.0013693917656886932 0 -0.00051936206679996193 -0.002352301111704765 0 -0.00065998128514432224 -0.0023612710851912823 0 -0.00067281042032701942 -0.0023776116865348198 0 -0.00051028336507385173 -0.0020471208231790769 0 -0.00083311661312211315 -0.0028042055947016102 0 -0.00010390559490544018 -0.0014816352038723236 0 -0.00014486435562543985 -0.0014126023579514124 0 -0.00019386609819595211 -0.0014749810830560063 0 -0.00051028336507385173 -0.0020471208231790769 0 -0.00053762000873824954 -0.0022923029968043448 0 -0.00023519875940730876 -0.001406212437726729 0 -0.00014486435562543985 -0.0014126023579514124 0 -0.00019386609819595211 -0.0014749810830560063 0 -0.00051936206679996193 -0.002352301111704765 0 -0.00066818044162596441 -0.0023497139452675537 0 -0.00065998128514432224 -0.0023612710851912823 0 -0.00078053675887408713 -0.0026972947026763449 0 -0.00053762000873824954 -0.0022923029968043448 0 -0.00066815260892040204 -0.0023501484967043251 0 -0.00065998128514432224 -0.0023612710851912823 0 -0.00067281042032701942 -0.0023776116865348198 0 -0.00053762000873824954 -0.0022923029968043448 0 -0.00054223952800480505 -0.0022930559137649934 0 -0.00083311661312211315 -0.0028042055947016102 0 -0.00081303542567268355 -0.0028340968634087849 0 -0.00079410949393385322 -0.0030013388226883542 0 -0.00083158350797721162 -0.0029562106966308172 0 -0.00076909786239636336 -0.0029497650763222259 0 -0.00069700512250028151 -0.0023491103557505633 0 -0.00066815260892040204 -0.0023501484967043251 0 -0.00067281042032701942 -0.0023776116865348198 0 -0.00078053675887408713 -0.0026972947026763449 0 -0.00083311661312211315 -0.0028042055947016102 0 -0.00078053675887408713 -0.0026972947026763449 0 -0.00056416085029489913 -0.0031698910408295765 0 -0.00062415615676576915 -0.0029141459161740072 0 -0.00079410949393385322 -0.0030013388226883542 0 -0.00076909786239636336 -0.0029497650763222259 0 -0.00062415615676576915 -0.0029141459161740072 0 -0.00079410949393385322 -0.0030013388226883542 0 -0.0004633998288382196 -0.0030565918021380218 0 -0.00085805903712938658 -0.003379353049012118 0 -0.0010360789481012533 -0.0031600367697873308 0 -0.0006127406127340656 -0.0031934031359595791 0 -0.00051447807610897499 -0.0024294656208936846 0 -0.00047670383129423688 -0.00242784728122698 0 -0.00056159902428970401 -0.0023300029555646689 0 -0.00065838194022340725 -0.0029146197042908173 0 -0.00078053675887408713 -0.0026972947026763449 0 -0.00051447807610897499 -0.0024294656208936846 0 -0.00056159902428970401 -0.0023300029555646689 0 -0.00058794539415682879 -0.0023281308212262661 0 -0.0004043853067380371 -0.0018761984598995947 0 -0.00053762000873824954 -0.0022923029968043448 0 -0.00085805903712938658 -0.003379353049012118 0 -0.0006127406127340656 -0.0031934031359595791 0 -0.00056889293293454319 -0.0034172921245524328 0 -0.00056889293293454319 -0.0034172921245524328 0 -0.0006777681026637585 -0.0036004679734392224 0 -0.00039261036441582976 -0.0035744305779173784 0 -0.00085805903712938658 -0.003379353049012118 0 -0.00056889293293454319 -0.0034172921245524328 0 -0.0006777681026637585 -0.0036004679734392224 0 -0.00045237983628032834 -0.002923006620926781 0 -0.00043109812002862033 -0.003597210055430598 0 -0.00065838194022340725 -0.0029146197042908173 0 -0.00045237983628032834 -0.002923006620926781 0 -0.00043993101339765897 -0.002533698321535383 0 -0.00047670383129423688 -0.00242784728122698 0 -0.00039078510845542345 -0.0025286862691452933 0 -0.00039261036441582976 -0.0035744305779173784 0 -0.00037168005446715251 -0.0033893006504036047 0 -9.3898111514529586e-05 -0.0035550089220535591 0 -0.00056889293293454319 -0.0034172921245524328 0 -0.00039261036441582976 -0.0035744305779173784 0 -0.00037168005446715251 -0.0033893006504036047 0 -0.00019232078430825861 -0.0029646939627173685 0 -0.0004633998288382196 -0.0030565918021380218 0 -0.0001050989033755608 -0.0031292371698629752 0 -0.0006127406127340656 -0.0031934031359595791 0 -0.00037168005446715251 -0.0033893006504036047 0 -0.00017408039100123298 -0.0032176363892971729 0 -0.00056416085029489913 -0.0031698910408295765 0 -0.00012344904970319585 -0.0031695173903864117 0 -0.0006127406127340656 -0.0031934031359595791 0 -0.00056889293293454319 -0.0034172921245524328 0 -0.00037168005446715251 -0.0033893006504036047 0 2.3179339953905476e-05 -0.0029541495007996839 0 -0.00019232078430825861 -0.0029646939627173685 0 -0.0001050989033755608 -0.0031292371698629752 0 2.3179339953905476e-05 -0.0029541495007996839 0 -0.0001050989033755608 -0.0031292371698629752 0 0.00030222790610759072 -0.0032259674781485699 0 -0.00012344904970319585 -0.0031695173903864117 0 0.00027926585805849167 -0.0032215079376702936 0 -0.00017408039100123298 -0.0032176363892971729 0 8.8767733729898398e-05 -0.0034300974000887803 0 0.00030222790610759072 -0.0032259674781485699 0 8.8767733729898398e-05 -0.0034300974000887803 0 -9.3898111514529586e-05 -0.0035550089220535591 0 0.00010451584771835511 -0.0037589153151002868 0 8.8767733729898398e-05 -0.0034300974000887803 0 0.00010451584771835511 -0.0037589153151002868 0 0.00031606479668735629 -0.0035013006606769339 0 8.8767733729898398e-05 -0.0034300974000887803 0 0.00030222790610759072 -0.0032259674781485699 0 0.00031606479668735629 -0.0035013006606769339 0 -0.00017408039100123298 -0.0032176363892971729 0 8.8767733729898398e-05 -0.0034300974000887803 0 -9.3898111514529586e-05 -0.0035550089220535591 0 -0.00043109812002862033 -0.003597210055430598 0 -0.00010680598740967291 -0.0035558831233122373 0 -0.00037168005446715251 -0.0033893006504036047 0 -0.00017408039100123298 -0.0032176363892971729 0 -9.3898111514529586e-05 -0.0035550089220535591 0 -0.00016627536099837834 -0.0037753547695854946 0 0.00010451584771835511 -0.0037589153151002868 0 -5.5523582419068089e-05 -0.0039923422094264461 0 -0.00037635197381854075 -0.0036050160071886715 0 -9.3898111514529586e-05 -0.0035550089220535591 0 -0.00016627536099837834 -0.0037753547695854946 0 -9.3898111514529586e-05 -0.0035550089220535591 0 -0.00016627536099837834 -0.0037753547695854946 0 0.00010451584771835511 -0.0037589153151002868 0 -0.00016627536099837834 -0.0037753547695854946 0 -5.5523582419068089e-05 -0.0039923422094264461 0 -0.00041434191469667293 -0.0039385675919673801 0 0.00010451584771835511 -0.0037589153151002868 0 8.0530134197848624e-05 -0.0040717746498771914 0 0.00046703527912386885 -0.0037685703011242112 0 0.00010036776941299455 -0.004069674277559718 0 0.00028020730466364071 -0.0039680636901855033 0 0.00010451584771835511 -0.0037589153151002868 0 8.0530134197848624e-05 -0.0040717746498771914 0 -5.5523582419068089e-05 -0.0039923422094264461 0 8.0530134197848624e-05 -0.0040717746498771914 0 -5.5523582419068089e-05 -0.0039923422094264461 0 3.9902416549949439e-05 -0.0041482202952635256 0 8.0530134197848624e-05 -0.0040717746498771914 0 0.00011031180319654315 -0.0041413468293786549 0 3.9902416549949439e-05 -0.0041482202952635256 0 -4.7640707817082322e-05 -0.0041341901652321633 0 -0.00041434191469667293 -0.0039385675919673801 0 -0.00015009238567783776 -0.0042165266096300669 0 -5.5523582419068089e-05 -0.0039923422094264461 0 -4.7640707817082322e-05 -0.0041341901652321633 0 -0.00041434191469667293 -0.0039385675919673801 0 -5.5523582419068089e-05 -0.0039923422094264461 0 -4.7640707817082322e-05 -0.0041341901652321633 0 3.9902416549949439e-05 -0.0041482202952635256 0 0.00015825632828052365 -0.0023994508386329587 0 7.8322073947657703e-05 -0.002437464167576267 0 0.0002414448740256429 -0.0026642676195736577 0 0.00015825632828052365 -0.0023994508386329587 0 0.0002414448740256429 -0.0026642676195736577 0 0.00032640371640788827 -0.0025971479983409036 0 -0.00012795342409696966 -0.0031824523447742735 0 0.00025794041278682513 -0.0032806286783946424 0 0.00030144118032763401 -0.0017092184601338893 0 0.00060370337799967619 -0.001832691281472023 0 -3.480311671370665e-05 -0.0018069937837160012 0 0.00030144118032763401 -0.0017092184601338893 0 -8.6351458553094815e-05 -0.0022067055656464214 0 -1.2011926900984522e-05 -0.0021985659998327999 0 7.8322073947657703e-05 -0.002437464167576267 0 -0.00045237983628032834 -0.002923006620926781 0 -0.00012795342409696966 -0.0031824523447742735 0 -1.2011926900984522e-05 -0.0021985659998327999 0 0.00015825632828052365 -0.0023994508386329587 0 7.8322073947657703e-05 -0.002437464167576267 0 0.00035007071417442588 -0.0010044570913451693 0 0.00041313623692981624 -0.00087843693066655426 0 0.0005307060595077526 -0.0010340443600770465 0 -3.480311671370665e-05 -0.0018069937837160012 0 -0.00045237983628032834 -0.002923006620926781 0 -0.00066535595897977066 -0.0036367183878416561 0 -0.00037635197381854075 -0.0036050160071886715 0 -0.00041434191469667293 -0.0039385675919673801 0 -0.00037635197381854075 -0.0036050160071886715 0 -0.00016627536099837834 -0.0037753547695854946 0 -0.00041434191469667293 -0.0039385675919673801 0 8.7835106772381547e-05 -0.0042399211365617192 0 0.00010269775009804793 -0.0042066751965331058 0 2.6906606755506064e-05 -0.0042392657785675298 0 8.7835106772381547e-05 -0.0042399211365617192 0 7.3910147722535785e-05 -0.0042717198686653482 0 2.6906606755506064e-05 -0.0042392657785675298 0 8.7835106772381547e-05 -0.0042399211365617192 0 0.00011580828819305467 -0.0042291421559242804 0 0.00010269775009804793 -0.0042066751965331058 0 8.7835106772381547e-05 -0.0042399211365617192 0 9.7516234056165718e-05 -0.0042583229880141064 0 7.3910147722535785e-05 -0.0042717198686653482 0 8.7835106772381547e-05 -0.0042399211365617192 0 9.7516234056165718e-05 -0.0042583229880141064 0 0.00011580828819305467 -0.0042291421559242804 0 9.7516234056165718e-05 -0.0042583229880141064 0 7.3910147722535785e-05 -0.0042717198686653482 0 8.9294737638688726e-05 -0.0042757350319528997 0 7.3910147722535785e-05 -0.0042717198686653482 0 7.4014529267690913e-05 -0.0042995293694256245 0 3.9617124799002794e-05 -0.0043070066433500646 0 2.9440089305373974e-05 -0.0043466239751139748 0 3.981259370982643e-05 -0.0043324731422820263 0 4.6169634325193688e-05 -0.0043344660182663575 0 2.9440089305373974e-05 -0.0043466239751139748 0 7.4014529267690913e-05 -0.0042995293694256245 0 3.9617124799002794e-05 -0.0043070066433500646 0 -7.8125862377476682e-05 -0.0044367610142241817 0 0.00029444294246560497 -0.0038988669983830086 0 2.9440089305373974e-05 -0.0043466239751139748 0 0.0001059914571630203 -0.0043006563114670344 0 7.4014529267690913e-05 -0.0042995293694256245 0 0.0001059914571630203 -0.0043006563114670344 0 7.4014529267690913e-05 -0.0042995293694256245 0 0.00010081031811995225 -0.0042820141066214996 0 7.3910147722535785e-05 -0.0042717198686653482 0 7.4014529267690913e-05 -0.0042995293694256245 0 8.9294737638688726e-05 -0.0042757350319528997 0 7.4014529267690913e-05 -0.0042995293694256245 0 8.9294737638688726e-05 -0.0042757350319528997 0 0.00010081031811995225 -0.0042820141066214996 0 9.7516234056165718e-05 -0.0042583229880141064 0 8.9294737638688726e-05 -0.0042757350319528997 0 0.00010081031811995225 -0.0042820141066214996 0 0.0001059914571630203 -0.0043006563114670344 0 0.00010081031811995225 -0.0042820141066214996 0 0.0001146763263829966 -0.004255544708611593 0 0.0010029472289033662 -0.003270414822029959 0 0.00088571379889392312 -0.0032714258337035946 0 0.00087106672578436933 -0.0033451913502174527 0 0.0010029472289033662 -0.003270414822029959 0 0.00087106672578436933 -0.0033451913502174527 0 0.00078081874157784066 -0.0034779142256102982 0 0.0010029472289033662 -0.003270414822029959 0 0.00088985540807994532 -0.003222618593209763 0 0.00088571379889392312 -0.0032714258337035946 0 0.00029444294246560497 -0.0038988669983830086 0 0.00039236253550668218 -0.0037613264852594487 0 0.00071398341740372601 -0.0031423773479970591 0 0.00088985540807994532 -0.003222618593209763 0 0.00088571379889392312 -0.0032714258337035946 0 0.00084636271312673488 -0.003297068758569984 0 0.00079334182807098703 -0.0033176245511878843 0 0.00079554180365820528 -0.0032420209377514169 0 0.00084636271312673488 -0.003297068758569984 0 0.00088571379889392312 -0.0032714258337035946 0 0.00079554180365820528 -0.0032420209377514169 0 0.00084636271312673488 -0.003297068758569984 0 0.00088571379889392312 -0.0032714258337035946 0 0.00087106672578436933 -0.0033451913502174527 0 0.00087106672578436933 -0.0033451913502174527 0 0.00078996255762104977 -0.0033662898724480376 0 0.00079334182807098703 -0.0033176245511878843 0 0.00084636271312673488 -0.003297068758569984 0 0.00087106672578436933 -0.0033451913502174527 0 0.00079334182807098703 -0.0033176245511878843 0 0.0001059914571630203 -0.0043006563114670344 0 0.0001146763263829966 -0.004255544708611593 0 0.00014939334234763947 -0.0042113606172732828 0 0.0001146763263829966 -0.004255544708611593 0 0.00011580828819305467 -0.0042291421559242804 0 0.00014939334234763947 -0.0042113606172732828 0 0.00029444294246560497 -0.0038988669983830086 0 0.00051067649384841025 -0.0038180011989032005 0 0.00087106672578436933 -0.0033451913502174527 0 0.00078081874157784066 -0.0034779142256102982 0 0.00078996255762104977 -0.0033662898724480376 0 9.7516234056165718e-05 -0.0042583229880141064 0 0.00010081031811995225 -0.0042820141066214996 0 0.0001146763263829966 -0.004255544708611593 0 9.7516234056165718e-05 -0.0042583229880141064 0 0.0001146763263829966 -0.004255544708611593 0 0.00011580828819305467 -0.0042291421559242804 0 0.00011580828819305467 -0.0042291421559242804 0 0.00012989154856875041 -0.0041965066932436821 0 0.00010269775009804793 -0.0042066751965331058 0 0.00011580828819305467 -0.0042291421559242804 0 0.00014939334234763947 -0.0042113606172732828 0 0.00012989154856875041 -0.0041965066932436821 0 0.00051067649384841025 -0.0038180011989032005 0 0.00028020730466364071 -0.0039680636901855033 0 0.00078081874157784066 -0.0034779142256102982 0 0.0005282641680265989 -0.0034958714640689259 0 0.00046703527912386885 -0.0037685703011242112 0 0.00062610206906318856 -0.0033814932313733274 0 0.00078081874157784066 -0.0034779142256102982 0 0.0005282641680265989 -0.0034958714640689259 0 0.00062610206906318856 -0.0033814932313733274 0 0.00078081874157784066 -0.0034779142256102982 0 0.00071221317919539404 -0.0033247359725604602 0 0.00078081874157784066 -0.0034779142256102982 0 0.00078996255762104977 -0.0033662898724480376 0 0.00071221317919539404 -0.0033247359725604602 0 0.00078996255762104977 -0.0033662898724480376 0 0.00079334182807098703 -0.0033176245511878843 0 0.00071221317919539404 -0.0033247359725604602 0 0.00079334182807098703 -0.0033176245511878843 0 0.00071221317919539404 -0.0033247359725604602 0 0.00070564857793547467 -0.0032404406532424179 0 0.00079334182807098703 -0.0033176245511878843 0 0.00079554180365820528 -0.0032420209377514169 0 0.00070564857793547467 -0.0032404406532424179 0 0.00046356406002461128 -0.0032833049225242951 0 0.00039236253550668218 -0.0037613264852594487 0 0.00071398341740372601 -0.0031423773479970591 0 0.00079554180365820528 -0.0032420209377514169 0 0.00070564857793547467 -0.0032404406532424179 0 0.00071398341740372601 -0.0031423773479970591 0 0.00088571379889392312 -0.0032714258337035946 0 0.00079554180365820528 -0.0032420209377514169 0 0.00071398341740372601 -0.0031423773479970591 0 0.00070564857793547467 -0.0032404406532424179 0 0.00060759859596273824 -0.003243637074942522 0 0.00061495915384874374 -0.0032071044225380381 0 0.0006058029279738254 -0.0031843737442046574 0 0.00071221317919539404 -0.0033247359725604602 0 0.00062175912043774739 -0.0032601849388675195 0 0.00057301975166788974 -0.003180953352576356 0 0.00071221317919539404 -0.0033247359725604602 0 0.00070564857793547467 -0.0032404406532424179 0 0.00060759859596273824 -0.003243637074942522 0 0.00069042485645633492 -0.0032856907880365023 0 0.0006058029279738254 -0.0031843737442046574 0 0.00062610206906318856 -0.0033814932313733274 0 0.00071221317919539404 -0.0033247359725604602 0 0.00062175912043774739 -0.0032601849388675195 0 0.00062610206906318856 -0.0033814932313733274 0 0.00062175912043774739 -0.0032601849388675195 0 0.00049483911309961871 -0.0033402014657205568 0 0.00049483911309961871 -0.0033402014657205568 0 0.00056836849699643292 -0.0031796048926397021 0 0.00030222790610759072 -0.0032259674781485699 0 0.00026248574371647915 -0.0029133522163469049 0 0.00056836849699643292 -0.0031796048926397021 0 0.00030222790610759072 -0.0032259674781485699 0 0.00062175912043774739 -0.0032601849388675195 0 0.00049483911309961871 -0.0033402014657205568 0 0.00056836849699643292 -0.0031796048926397021 0 0.00049483911309961871 -0.0033402014657205568 0 0.00030222790610759072 -0.0032259674781485699 0 0.00031606479668735629 -0.0035013006606769339 0 0.00049483911309961871 -0.0033402014657205568 0 0.0005282641680265989 -0.0034958714640689259 0 0.00031606479668735629 -0.0035013006606769339 0 0.00062610206906318856 -0.0033814932313733274 0 0.00049483911309961871 -0.0033402014657205568 0 0.0005282641680265989 -0.0034958714640689259 0 0.0005282641680265989 -0.0034958714640689259 0 0.00031606479668735629 -0.0035013006606769339 0 0.00046703527912386885 -0.0037685703011242112 0 0.00010451584771835511 -0.0037589153151002868 0 0.00031606479668735629 -0.0035013006606769339 0 0.00046703527912386885 -0.0037685703011242112 0 0.00013492399056788871 -0.0041484111449880063 0 0.00012859879573908208 -0.0041557138274826537 0 0.00011031180319654315 -0.0041413468293786549 0 0.00012859879573908208 -0.0041557138274826537 0 0.00011031180319654315 -0.0041413468293786549 0 0.00012001355012062952 -0.0041872300638211568 0 8.0530134197848624e-05 -0.0040717746498771914 0 0.00013492399056788871 -0.0041484111449880063 0 0.00011031180319654315 -0.0041413468293786549 0 0.00012859879573908208 -0.0041557138274826537 0 0.00013414365725960214 -0.0041724090662125643 0 0.00012001355012062952 -0.0041872300638211568 0 0.00012859879573908208 -0.0041557138274826537 0 0.00013414365725960214 -0.0041724090662125643 0 0.00013697239866107783 -0.0041710110371540139 0 0.00014939334234763947 -0.0042113606172732828 0 0.00013697239866107783 -0.0041710110371540139 0 0.00012989154856875041 -0.0041965066932436821 0 0.00014939334234763947 -0.0042113606172732828 0 0.00013492399056788871 -0.0041484111449880063 0 0.00013697239866107783 -0.0041710110371540139 0 0.00013492399056788871 -0.0041484111449880063 0 0.00012859879573908208 -0.0041557138274826537 0 0.00013697239866107783 -0.0041710110371540139 0 0.00012989154856875041 -0.0041965066932436821 0 0.00012767054277933903 -0.0041762756599937386 0 0.00010269775009804793 -0.0042066751965331058 0 0.00013697239866107783 -0.0041710110371540139 0 0.00012989154856875041 -0.0041965066932436821 0 0.00012767054277933903 -0.0041762756599937386 0 0.00013414365725960214 -0.0041724090662125643 0 0.00013697239866107783 -0.0041710110371540139 0 0.00012767054277933903 -0.0041762756599937386 0 0.00013414365725960214 -0.0041724090662125643 0 0.00012767054277933903 -0.0041762756599937386 0 0.00014584282919181932 -0.0041798414436777041 0 7.0891904402519369e-05 -0.004390646148884611 0 0.00011081586324373984 -0.0043480053331321723 0 5.2862715207385811e-05 -0.0043726359366202351 0 8.1823245393088437e-05 -0.0042839237584272197 0 0.00012523801951885348 -0.0042660585243807607 0 0.00012767054277933903 -0.0041762756599937386 0 9.4438034073904769e-05 -0.0041750689185447998 0 0.00014584282919181932 -0.0041798414436777041 0 0.00012767054277933903 -0.0041762756599937386 0 9.4438034073904769e-05 -0.0041750689185447998 0 0.00010269775009804793 -0.0042066751965331058 0 9.4438034073904769e-05 -0.0041750689185447998 0 0.00010269775009804793 -0.0042066751965331058 0 2.6906606755506064e-05 -0.0042392657785675298 0 0.0001059277303071586 -0.00429281999521535 0 0.00011081586324373984 -0.0043480053331321723 0 6.6807856395017861e-05 -0.0043328545428060871 0 0.00014584282919181932 -0.0041798414436777041 0 0.00014124011609397644 -0.0042666484521634894 0 0.00012973972002483698 -0.0042075142303567327 0 0.00012523801951885348 -0.0042660585243807607 0 0.00013794167057991203 -0.004267793430121322 0 0.00013414365725960214 -0.0041724090662125643 0 0.00014584282919181932 -0.0041798414436777041 0 0.00012973972002483698 -0.0042075142303567327 0 0.0001059277303071586 -0.00429281999521535 0 0.00011081586324373984 -0.0043480053331321723 0 0.00014124011609397644 -0.0042666484521634894 0 0.00014124011609397644 -0.0042666484521634894 0 0.00012973972002483698 -0.0042075142303567327 0 0.00011233549002639038 -0.0042410866224511044 0 0.00014124011609397644 -0.0042666484521634894 0 0.00011233549002639038 -0.0042410866224511044 0 0.00012647131803614184 -0.0042590265520630194 0 0.00012973972002483698 -0.0042075142303567327 0 0.00012001355012062952 -0.0041872300638211568 0 0.00011233549002639038 -0.0042410866224511044 0 0.00013414365725960214 -0.0041724090662125643 0 0.00012973972002483698 -0.0042075142303567327 0 0.00012001355012062952 -0.0041872300638211568 0 0.00011031180319654315 -0.0041413468293786549 0 0.00012001355012062952 -0.0041872300638211568 0 7.3364715014547323e-05 -0.004185851912770211 0 0.00012001355012062952 -0.0041872300638211568 0 9.1817559400570725e-05 -0.0042153792445713024 0 7.3364715014547323e-05 -0.004185851912770211 0 0.00012001355012062952 -0.0041872300638211568 0 0.00011233549002639038 -0.0042410866224511044 0 9.1817559400570725e-05 -0.0042153792445713024 0 0.00011233549002639038 -0.0042410866224511044 0 9.1817559400570725e-05 -0.0042153792445713024 0 6.1468851732751915e-05 -0.0042441273839174329 0 0.00011233549002639038 -0.0042410866224511044 0 0.00011822426045492653 -0.004264409392473972 0 0.00012647131803614184 -0.0042590265520630194 0 0.00011233549002639038 -0.0042410866224511044 0 0.00011822426045492653 -0.004264409392473972 0 6.1468851732751915e-05 -0.0042441273839174329 0 0.00078737795300790774 -0.002117823573180036 0 0.00086186899814204938 -0.0021120361227569351 0 0.00080871069527594167 -0.0020118686340914772 0 0.00078737795300790774 -0.002117823573180036 0 0.00074105384236448121 -0.0019984511180887862 0 0.00080871069527594167 -0.0020118686340914772 0 0.00044813453921257757 -0.0031877713585591865 0 0.0004415354358580788 -0.0031302464809324537 0 0.00011822426045492653 -0.004264409392473972 0 0.00013049091073128355 -0.0042617682386255473 0 0.00013728181466189017 -0.0042463903558238305 0 0.00014124011609397644 -0.0042666484521634894 0 0.00013049091073128355 -0.0042617682386255473 0 0.00012647131803614184 -0.0042590265520630194 0 0.00011822426045492653 -0.004264409392473972 0 0.00013049091073128355 -0.0042617682386255473 0 0.00012647131803614184 -0.0042590265520630194 0 0.0001059277303071586 -0.00429281999521535 0 0.00014124011609397644 -0.0042666484521634894 0 0.00012225101912014986 -0.0042677565963249349 0 0.00014124011609397644 -0.0042666484521634894 0 0.00013049091073128355 -0.0042617682386255473 0 0.00012225101912014986 -0.0042677565963249349 0 0.00013049091073128355 -0.0042617682386255473 0 0.00012225101912014986 -0.0042677565963249349 0 0.00013728181466189017 -0.0042463903558238305 0 0.00012225101912014986 -0.0042677565963249349 0 0.0001181461948721481 -0.004245456259814792 0 8.8656086091844536e-05 -0.0042846581196788703 0 0.0001059277303071586 -0.00429281999521535 0 0.00012225101912014986 -0.0042677565963249349 0 8.8656086091844536e-05 -0.0042846581196788703 0 0.00048438741471005018 -0.001504032357779631 0 0.00039993632406953785 -0.0014929062677156322 0 0.00049460722611572693 -0.0014223845592020391 0 0.00048363855937335497 -0.0013352697056177489 0 0.00060370337799967619 -0.001832691281472023 0 0.00048438741471005018 -0.001504032357779631 0 0.00039993632406953785 -0.0014929062677156322 0 0.00046029405919173488 -0.001599982423269269 0 0.00032782323816298454 -0.0015068030052857023 0 0.00048363855937335497 -0.0013352697056177489 0 0.000388006474742512 -0.0012856426432355727 0 0.00051168249970348992 -0.0013081082973602554 0 0.00051350024620641264 -0.001184580011546422 0 0.00038375383285073393 -0.0011459522599788919 0 0.0005307060595077526 -0.0010340443600770465 0 0.00051350024620641264 -0.001184580011546422 0 0.000388006474742512 -0.0012856426432355727 0 0.00038375383285073393 -0.0011459522599788919 0 0.00051350024620641264 -0.001184580011546422 0 0.00051168249970348992 -0.0013081082973602554 0 0.00051350024620641264 -0.001184580011546422 0 0.00064662501927523468 -0.0011977862592781078 0 0.0005307060595077526 -0.0010340443600770465 0 0.00051350024620641264 -0.001184580011546422 0 0.00064662501927523468 -0.0011977862592781078 0 0.00025794041278682513 -0.0032806286783946424 0 0.00048499287865729206 -0.0032395463667256345 0 0.00092717491682530752 -0.0023340457549360476 0 0.0008576273458649631 -0.0022338301407414766 0 0.00091457945594825734 -0.0022713387059643182 0 0.00060370337799967619 -0.001832691281472023 0 0.00025794041278682513 -0.0032806286783946424 0 -0.00018963315455939442 -0.003906209544025689 0 0.00025794041278682513 -0.0032806286783946424 0 -4.7640707817082322e-05 -0.0041341901652321633 0 -7.245095411232101e-05 -0.00416638577501294 0 3.9902416549949439e-05 -0.0041482202952635256 0 0.00096107064115114591 -0.002303596214115816 0 0.00092717491682530752 -0.0023340457549360476 0 0.00091457945594825734 -0.0022713387059643182 0 -7.245095411232101e-05 -0.00416638577501294 0 7.3364715014547323e-05 -0.004185851912770211 0 6.1468851732751915e-05 -0.0042441273839174329 0 -7.245095411232101e-05 -0.00416638577501294 0 3.9902416549949439e-05 -0.0041482202952635256 0 7.3364715014547323e-05 -0.004185851912770211 0 0.00011031180319654315 -0.0041413468293786549 0 3.9902416549949439e-05 -0.0041482202952635256 0 7.3364715014547323e-05 -0.004185851912770211 0 9.1817559400570725e-05 -0.0042153792445713024 0 7.3364715014547323e-05 -0.004185851912770211 0 6.1468851732751915e-05 -0.0042441273839174329 0 0.00048438741471005018 -0.001504032357779631 0 0.00049460722611572693 -0.0014223845592020391 0 0.00056924641609151869 -0.0015260316453495654 0 0.00060370337799967619 -0.001832691281472023 0 0.00075808518899821544 -0.0018815345884543575 0 0.00096107064115114591 -0.002303596214115816 0 0.00091457945594825734 -0.0022713387059643182 0 0.00091180723873621552 -0.0022138952719352092 0 0.0008576273458649631 -0.0022338301407414766 0 0.00091457945594825734 -0.0022713387059643182 0 0.00091180723873621552 -0.0022138952719352092 0 0.00048438741471005018 -0.001504032357779631 0 0.00056924641609151869 -0.0015260316453495654 0 0.00051549628627697592 -0.0015621611663437316 0 0.00056924641609151869 -0.0015260316453495654 0 0.00055069821588953267 -0.0016193450929362578 0 0.00064740963223748377 -0.0016449043367415159 0 0.00056924641609151869 -0.0015260316453495654 0 0.00051549628627697592 -0.0015621611663437316 0 0.00055069821588953267 -0.0016193450929362578 0 0.00078737795300790774 -0.002117823573180036 0 0.0008576273458649631 -0.0022338301407414766 0 0.00086186899814204938 -0.0021120361227569351 0 0.00075808518899821544 -0.0018815345884543575 0 0.00075010353804201026 -0.001874579660878285 0 0.0008576273458649631 -0.0022338301407414766 0 0.00091180723873621552 -0.0022138952719352092 0 0.00086186899814204938 -0.0021120361227569351 0 0.00044813453921257757 -0.0031877713585591865 0 0.00048499287865729206 -0.0032395463667256345 0 0.00064740963223748377 -0.0016449043367415159 0 0.00058451346781731586 -0.0017050968196057987 0 0.00071709297014417648 -0.0017821473079283523 0 0.00075010353804201026 -0.001874579660878285 0 0.00075971786574896376 -0.0018987053182301708 0 0.00055069821588953267 -0.0016193450929362578 0 0.00058451346781731586 -0.0017050968196057987 0 0.00049587673412059669 -0.001673209869576449 0 0.00055069821588953267 -0.0016193450929362578 0 0.00064740963223748377 -0.0016449043367415159 0 0.00058451346781731586 -0.0017050968196057987 0 0.00058451346781731586 -0.0017050968196057987 0 0.00049587673412059669 -0.001673209869576449 0 0.00048856068271188949 -0.0017558565936561742 0 0.00049587673412059669 -0.001673209869576449 0 0.0003695582866429684 -0.0016701295062434916 0 0.00048856068271188949 -0.0017558565936561742 0 0.00049587673412059669 -0.001673209869576449 0 0.00046029405919173488 -0.001599982423269269 0 0.0003695582866429684 -0.0016701295062434916 0 0.00055069821588953267 -0.0016193450929362578 0 0.00049587673412059669 -0.001673209869576449 0 0.00046029405919173488 -0.001599982423269269 0 0.00051549628627697592 -0.0015621611663437316 0 0.00055069821588953267 -0.0016193450929362578 0 0.00046029405919173488 -0.001599982423269269 0 0.00048438741471005018 -0.001504032357779631 0 0.00051549628627697592 -0.0015621611663437316 0 0.00046029405919173488 -0.001599982423269269 0 0.00030549124072743475 -0.0015536886091582697 0 0.00038391382479191483 -0.0015788848910579609 0 0.0003695582866429684 -0.0016701295062434916 0 0.00039993632406953785 -0.0014929062677156322 0 0.00046029405919173488 -0.001599982423269269 0 0.00038391382479191483 -0.0015788848910579609 0 0.00030549124072743475 -0.0015536886091582697 0 0.00039993632406953785 -0.0014929062677156322 0 0.00038391382479191483 -0.0015788848910579609 0 0.00046029405919173488 -0.001599982423269269 0 0.00038391382479191483 -0.0015788848910579609 0 0.0003695582866429684 -0.0016701295062434916 0 0.0003695582866429684 -0.0016701295062434916 0 0.00040081280744642543 -0.0018195058175707512 0 0.00048856068271188949 -0.0017558565936561742 0 0.00040081280744642543 -0.0018195058175707512 0 0.0004881569374076572 -0.0018943901968496055 0 0.00054188760308241052 -0.0018386315293081538 0 0.00040081280744642543 -0.0018195058175707512 0 0.0004881569374076572 -0.0018943901968496055 0 0.00040481079799926039 -0.0019356045559011984 0 0.00040081280744642543 -0.0018195058175707512 0 0.00048856068271188949 -0.0017558565936561742 0 0.00054188760308241052 -0.0018386315293081538 0 0.00048856068271188949 -0.0017558565936561742 0 0.00059782598694738034 -0.0017945036531495317 0 0.00054188760308241052 -0.0018386315293081538 0 0.00058451346781731586 -0.0017050968196057987 0 0.00048856068271188949 -0.0017558565936561742 0 0.00059782598694738034 -0.0017945036531495317 0 0.00058451346781731586 -0.0017050968196057987 0 0.00059782598694738034 -0.0017945036531495317 0 0.00071709297014417648 -0.0017821473079283523 0 0.00059782598694738034 -0.0017945036531495317 0 0.0006343017541240259 -0.0018639422702813454 0 0.00071709297014417648 -0.0017821473079283523 0 0.0006343017541240259 -0.0018639422702813454 0 0.00071709297014417648 -0.0017821473079283523 0 0.00069120212887219203 -0.0018912114756533156 0 0.0006343017541240259 -0.0018639422702813454 0 0.00063016202085381745 -0.0019255449588776933 0 0.00057141921205483245 -0.0019162751368830132 0 0.00063016202085381745 -0.0019255449588776933 0 0.00069120212887219203 -0.0018912114756533156 0 0.00068488474782911653 -0.0019562501558012301 0 0.0006343017541240259 -0.0018639422702813454 0 0.00063016202085381745 -0.0019255449588776933 0 0.00069120212887219203 -0.0018912114756533156 0 0.0006343017541240259 -0.0018639422702813454 0 0.00054188760308241052 -0.0018386315293081538 0 0.00057141921205483245 -0.0019162751368830132 0 0.00059782598694738034 -0.0017945036531495317 0 0.0006343017541240259 -0.0018639422702813454 0 0.00054188760308241052 -0.0018386315293081538 0 0.0004881569374076572 -0.0018943901968496055 0 0.00054188760308241052 -0.0018386315293081538 0 0.00057141921205483245 -0.0019162751368830132 0 0.00057141921205483245 -0.0019162751368830132 0 0.00057727494416840689 -0.0019721935616513558 0 0.00051975513447149947 -0.0019586392537177698 0 0.0004881569374076572 -0.0018943901968496055 0 0.00057141921205483245 -0.0019162751368830132 0 0.00051975513447149947 -0.0019586392537177698 0 0.00057141921205483245 -0.0019162751368830132 0 0.00057727494416840689 -0.0019721935616513558 0 0.00060010453208639378 -0.0019494360313284599 0 0.00057727494416840689 -0.0019721935616513558 0 0.00061994139944536886 -0.0019831426493440918 0 0.00058435017703597429 -0.0019998009459967279 0 0.00057727494416840689 -0.0019721935616513558 0 0.00060010453208639378 -0.0019494360313284599 0 0.00061994139944536886 -0.0019831426493440918 0 0.00057727494416840689 -0.0019721935616513558 0 0.00055183005368377672 -0.0020026392140846945 0 0.00058435017703597429 -0.0019998009459967279 0 0.00057727494416840689 -0.0019721935616513558 0 0.00051975513447149947 -0.0019586392537177698 0 0.00055183005368377672 -0.0020026392140846945 0 0.00061994139944536886 -0.0019831426493440918 0 0.00066764960366343335 -0.0020258608930811333 0 0.00068488474782911653 -0.0019562501558012301 0 0.00063016202085381745 -0.0019255449588776933 0 0.00061994139944536886 -0.0019831426493440918 0 0.00068488474782911653 -0.0019562501558012301 0 0.00063016202085381745 -0.0019255449588776933 0 0.00057141921205483245 -0.0019162751368830132 0 0.00060010453208639378 -0.0019494360313284599 0 0.00063016202085381745 -0.0019255449588776933 0 0.00060010453208639378 -0.0019494360313284599 0 0.00061994139944536886 -0.0019831426493440918 0 0.00061994139944536886 -0.0019831426493440918 0 0.00066764960366343335 -0.0020258608930811333 0 0.00058742666127741016 -0.0020402111391462354 0 0.00066764960366343335 -0.0020258608930811333 0 0.00058742666127741016 -0.0020402111391462354 0 0.00062048218782234112 -0.0020922424679527987 0 0.00066764960366343335 -0.0020258608930811333 0 0.00070179991110619116 -0.0020747788287852191 0 0.00062048218782234112 -0.0020922424679527987 0 0.00058742666127741016 -0.0020402111391462354 0 0.00051709693388122559 -0.0020289737279001263 0 0.00062048218782234112 -0.0020922424679527987 0 0.0004313118261055861 -0.0021907255902081204 0 0.00050714634834998838 -0.0023393799143275129 0 0.00051975513447149947 -0.0019586392537177698 0 0.00055183005368377672 -0.0020026392140846945 0 0.00051709693388122559 -0.0020289737279001263 0 0.00055183005368377672 -0.0020026392140846945 0 0.00058742666127741016 -0.0020402111391462354 0 0.00051709693388122559 -0.0020289737279001263 0 0.00061994139944536886 -0.0019831426493440918 0 0.00058435017703597429 -0.0019998009459967279 0 0.00058742666127741016 -0.0020402111391462354 0 0.00055183005368377672 -0.0020026392140846945 0 0.00058435017703597429 -0.0019998009459967279 0 0.00058742666127741016 -0.0020402111391462354 0 0.00052888541467222721 -0.0020320645865570127 0 0.00040978456561835045 -0.0020400622142831507 0 0.0004183175732721501 -0.0021521496645448331 0 0.00052888541467222721 -0.0020320645865570127 0 0.00040978456561835045 -0.0020400622142831507 0 0.00040481079799926039 -0.0019356045559011984 0 0.00040978456561835045 -0.0020400622142831507 0 0.0004183175732721501 -0.0021521496645448331 0 0.00030252026480762962 -0.0020749561970793431 0 0.00040081280744642543 -0.0018195058175707512 0 0.00040481079799926039 -0.0019356045559011984 0 0.0003030278517111848 -0.0019603269071544163 0 0.00040978456561835045 -0.0020400622142831507 0 0.00040481079799926039 -0.0019356045559011984 0 0.0003030278517111848 -0.0019603269071544163 0 0.0004313118261055861 -0.0021907255902081204 0 0.00042644472428793892 -0.0019052302646492627 0 0.00051975513447149947 -0.0019586392537177698 0 0.00051709693388122559 -0.0020289737279001263 0 0.00040481079799926039 -0.0019356045559011984 0 0.0004881569374076572 -0.0018943901968496055 0 0.00051975513447149947 -0.0019586392537177698 0 0.00040481079799926039 -0.0019356045559011984 0 0.0001181461948721481 -0.004245456259814792 0 0.00012908169233524002 -0.0042145693433957498 0 0.00010678633313171741 -0.0042169704557282837 0 0.0001181461948721481 -0.004245456259814792 0 0.00010678633313171741 -0.0042169704557282837 0 9.7438557125747525e-05 -0.0042411432929449558 0 0.00012225101912014986 -0.0042677565963249349 0 0.0001181461948721481 -0.004245456259814792 0 0.00013728181466189017 -0.0042463903558238305 0 0.0001181461948721481 -0.004245456259814792 0 0.00012908169233524002 -0.0042145693433957498 0 0.00013728181466189017 -0.0042463903558238305 0 0.00046225501869011902 -0.0030656940416560353 0 0.0004415354358580788 -0.0031302464809324537 0 0.00078069361912535455 -0.0019737552725175877 0 0.00075694882663243808 -0.0019450952817984559 0 0.00074105384236448121 -0.0019984511180887862 0 0.00075694882663243808 -0.0019450952817984559 0 0.00074105384236448121 -0.0019984511180887862 0 0.00080871069527594167 -0.0020118686340914772 0 0.00075954509114265531 -0.0019356340306126254 0 0.00075971786574896376 -0.0018987053182301708 0 0.00075694882663243808 -0.0019450952817984559 0 0.00069120212887219203 -0.0018912114756533156 0 0.00068488474782911653 -0.0019562501558012301 0 0.00075694882663243808 -0.0019450952817984559 0 0.00071709297014417648 -0.0017821473079283523 0 0.00069120212887219203 -0.0018912114756533156 0 0.00066764960366343335 -0.0020258608930811333 0 0.00068488474782911653 -0.0019562501558012301 0 0.00075345242172851089 -0.0020132736670291471 0 0.00075694882663243808 -0.0019450952817984559 0 0.00068488474782911653 -0.0019562501558012301 0 0.00075345242172851089 -0.0020132736670291471 0 0.00066764960366343335 -0.0020258608930811333 0 0.00075345242172851089 -0.0020132736670291471 0 0.00070179991110619116 -0.0020747788287852191 0 0.00075345242172851089 -0.0020132736670291471 0 0.00075531387185901074 -0.0020947880445202145 0 0.00070179991110619116 -0.0020747788287852191 0 0.00078069361912535455 -0.0019737552725175877 0 0.00075694882663243808 -0.0019450952817984559 0 0.00075345242172851089 -0.0020132736670291471 0 0.00078069361912535455 -0.0019737552725175877 0 0.00075345242172851089 -0.0020132736670291471 0 0.00078963463205040062 -0.0020186963885464237 0 0.00075345242172851089 -0.0020132736670291471 0 0.00079356475113372561 -0.0020563690391497578 0 0.00075531387185901074 -0.0020947880445202145 0 0.00075345242172851089 -0.0020132736670291471 0 0.00078963463205040062 -0.0020186963885464237 0 0.00079356475113372561 -0.0020563690391497578 0 0.00078963463205040062 -0.0020186963885464237 0 0.00079356475113372561 -0.0020563690391497578 0 0.00083111488806875209 -0.0020362596574392722 0 0.00035647346697812051 -0.003136504723178776 0 0.00029194916458377711 -0.0031243702767046748 0 0.00028808028520390901 -0.0031835985964299793 0 0.00064430018958862452 -0.0025166556175813962 0 0.000370271418899539 -0.0032954632796876404 0 0.00078069361912535455 -0.0019737552725175877 0 0.00078963463205040062 -0.0020186963885464237 0 0.00083111488806875209 -0.0020362596574392722 0 0.00012908169233524002 -0.0042145693433957498 0 0.00010678633313171741 -0.0042169704557282837 0 0.00011071173338141173 -0.0041814659729773936 0 0.00046225501869011902 -0.0030656940416560353 0 0.000370271418899539 -0.0032954632796876404 0 -8.8149205541532673e-05 -0.0037144800295188223 0 -0.00010314661212282936 -0.0036769536288941062 0 -9.9066722491695394e-05 -0.0037025972767820857 0 -8.8149205541532673e-05 -0.0037144800295188223 0 -9.9066722491695394e-05 -0.0037025972767820857 0 -7.7604277398416287e-05 -0.0037318836433690408 0 0.00035647346697812051 -0.003136504723178776 0 0.00030503406567138752 -0.0030706714237909143 0 0.00036944772888948096 -0.0030848459560622074 0 0.00035647346697812051 -0.003136504723178776 0 0.00030503406567138752 -0.0030706714237909143 0 0.00029194916458377711 -0.0031243702767046748 0 0.00064430018958862452 -0.0025166556175813962 0 0.00058834043207601659 -0.0025928076673500024 0 0.00035647346697812051 -0.003136504723178776 0 0.00036944772888948096 -0.0030848459560622074 0 0.00042245573887398957 -0.003090563625363169 0 0.00011687791369103872 -0.0033665078789904801 0 0.00011941043319567222 -0.0033617971756931156 0 0.00030503406567138752 -0.0030706714237909143 0 0.00036944772888948096 -0.0030848459560622074 0 0.0003904818817921446 -0.0030361340587772429 0 0.00036944772888948096 -0.0030848459560622074 0 0.0003904818817921446 -0.0030361340587772429 0 0.00042685330555213171 -0.0030519467076138103 0 0.00044359483480317885 -0.0030152468769188813 0 0.00042685330555213171 -0.0030519467076138103 0 0.00048701807345864312 -0.0030464798926214641 0 0.00042685330555213171 -0.0030519467076138103 0 0.00042245573887398957 -0.003090563625363169 0 0.00048701807345864312 -0.0030464798926214641 0 0.00011941043319567222 -0.0033617971756931156 0 0.00026599125854167953 -0.0031139346679000027 0 0.0003904818817921446 -0.0030361340587772429 0 0.00044359483480317885 -0.0030152468769188813 0 0.00042685330555213171 -0.0030519467076138103 0 0.00058834043207601659 -0.0025928076673500024 0 0.0005182888637766162 -0.002679036554634705 0 0.00036944772888948096 -0.0030848459560622074 0 0.00042685330555213171 -0.0030519467076138103 0 0.00042245573887398957 -0.003090563625363169 0 0.00075531387185901074 -0.0020947880445202145 0 0.00070179991110619116 -0.0020747788287852191 0 0.00069591146848920794 -0.0021439088798005821 0 0.00070179991110619116 -0.0020747788287852191 0 0.00069591146848920794 -0.0021439088798005821 0 0.00062048218782234112 -0.0020922424679527987 0 0.00043263482901700472 -0.0027068531404969031 0 0.00043846567579441779 -0.0027290772107102365 0 0.00040244557123024553 -0.0027208999340171923 0 0.0005182888637766162 -0.002679036554634705 0 0.00038494263863740982 -0.0027308657603014198 0 0.00026599125854167953 -0.0031139346679000027 0 0.0005182888637766162 -0.002679036554634705 0 0.00045183354139041558 -0.0027250301941653945 0 0.00043263482901700472 -0.0027068531404969031 0 0.00043846567579441779 -0.0027290772107102365 0 0.00017997806959197548 -0.003169878866940915 0 0.00020129154717974136 -0.0031539401108604649 0 -6.7719957559790608e-05 -0.0036261428252251792 0 -4.3904441757340599e-05 -0.0035531357819059404 0 1.3129304035201277e-05 -0.0035478566215872195 0 -6.7719957559790608e-05 -0.0036261428252251792 0 -4.3904441757340599e-05 -0.0035531357819059404 0 -8.2845306820650765e-05 -0.0035900660993198933 0 -6.3554182115871749e-05 -0.00352689292914409 0 -1.7158671956129277e-06 -0.0034617846137739278 0 -4.0089447975862625e-05 -0.0034410152056280024 0 -4.3904441757340599e-05 -0.0035531357819059404 0 -6.3554182115871749e-05 -0.00352689292914409 0 -1.7158671956129277e-06 -0.0034617846137739278 0 -4.3904441757340599e-05 -0.0035531357819059404 0 -6.3554182115871749e-05 -0.00352689292914409 0 -8.2845306820650765e-05 -0.0035900660993198933 0 -8.2845306820650765e-05 -0.0035900660993198933 0 -9.1311456567937341e-05 -0.0035726841262869484 0 -0.00010744524090663673 -0.0036168180542659563 0 -6.3554182115871749e-05 -0.00352689292914409 0 -8.2845306820650765e-05 -0.0035900660993198933 0 -9.1311456567937341e-05 -0.0035726841262869484 0 -6.3554182115871749e-05 -0.00352689292914409 0 -9.1311456567937341e-05 -0.0035726841262869484 0 -0.00010294483169808351 -0.0035526424761495867 0 -0.00010744524090663673 -0.0036168180542659563 0 -0.00011914755728412727 -0.0036323234380461296 0 -0.00010294483169808351 -0.0035526424761495867 0 -9.1311456567937341e-05 -0.0035726841262869484 0 -0.00010744524090663673 -0.0036168180542659563 0 -0.00010294483169808351 -0.0035526424761495867 0 -0.00010314661212282936 -0.0036769536288941062 0 -8.3841197236578089e-05 -0.0036480916505527115 0 -0.00010321568046689193 -0.0036397031615816563 0 -8.3841197236578089e-05 -0.0036480916505527115 0 -6.7719957559790608e-05 -0.0036261428252251792 0 -0.00010321568046689193 -0.0036397031615816563 0 -8.2845306820650765e-05 -0.0035900660993198933 0 -0.00010744524090663673 -0.0036168180542659563 0 -0.00010321568046689193 -0.0036397031615816563 0 -6.7719957559790608e-05 -0.0036261428252251792 0 -8.2845306820650765e-05 -0.0035900660993198933 0 -0.00010321568046689193 -0.0036397031615816563 0 0.00026599125854167953 -0.0031139346679000027 0 0.00017997806959197548 -0.003169878866940915 0 -0.00010314661212282936 -0.0036769536288941062 0 -0.00010321568046689193 -0.0036397031615816563 0 -0.00010813444711047194 -0.0036734960278333199 0 -0.00010314661212282936 -0.0036769536288941062 0 -0.00010813444711047194 -0.0036734960278333199 0 -9.9066722491695394e-05 -0.0037025972767820857 0 -0.00010321568046689193 -0.0036397031615816563 0 -0.00010813444711047194 -0.0036734960278333199 0 -0.00011484820120829987 -0.0036540387274872294 0 -0.00010744524090663673 -0.0036168180542659563 0 -0.00010321568046689193 -0.0036397031615816563 0 -0.00011484820120829987 -0.0036540387274872294 0 -0.00010744524090663673 -0.0036168180542659563 0 -0.00011914755728412727 -0.0036323234380461296 0 -0.00011484820120829987 -0.0036540387274872294 0 -0.00011914755728412727 -0.0036323234380461296 0 -0.00011869640792349486 -0.0036766133430649684 0 -0.00012649834238169055 -0.0036607151120204694 0 -0.00011914755728412727 -0.0036323234380461296 0 -0.00011484820120829987 -0.0036540387274872294 0 -0.00011869640792349486 -0.0036766133430649684 0 -0.00011484820120829987 -0.0036540387274872294 0 -0.00011869640792349486 -0.0036766133430649684 0 -0.00010634194676158458 -0.0037031566969016141 0 -0.00011869640792349486 -0.0036766133430649684 0 -0.00012153904912463968 -0.0036994712550182419 0 -0.00012649834238169055 -0.0036607151120204694 0 -0.00011093269547365761 -0.0037046812409894216 0 -9.8000562283355534e-05 -0.0037300687741692153 0 -0.00012153904912463968 -0.0036994712550182419 0 -0.00011869640792349486 -0.0036766133430649684 0 -0.00011093269547365761 -0.0037046812409894216 0 -0.00012153904912463968 -0.0036994712550182419 0 -0.00011869640792349486 -0.0036766133430649684 0 -0.00011093269547365761 -0.0037046812409894216 0 -0.00010634194676158458 -0.0037031566969016141 0 -0.00011093269547365761 -0.0037046812409894216 0 -0.00010634194676158458 -0.0037031566969016141 0 -9.8000562283355534e-05 -0.0037300687741692153 0 -0.00010634194676158458 -0.0037031566969016141 0 -9.9066722491695394e-05 -0.0037025972767820857 0 -8.9654683912477343e-05 -0.0037238162070689714 0 -0.00010813444711047194 -0.0036734960278333199 0 -0.00011484820120829987 -0.0036540387274872294 0 -0.00010634194676158458 -0.0037031566969016141 0 -0.00010813444711047194 -0.0036734960278333199 0 -0.00010634194676158458 -0.0037031566969016141 0 -9.9066722491695394e-05 -0.0037025972767820857 0 0.00028324790794205773 -0.0026932339889702843 0 0.00032321705303644106 -0.00263540902179478 0 0.00033327362077192554 -0.0027026137595883739 0 0.00028324790794205773 -0.0026932339889702843 0 0.00033327362077192554 -0.0027026137595883739 0 0.00030829435245318835 -0.0027325468252867484 0 0.00028324790794205773 -0.0026932339889702843 0 0.00026404422273750065 -0.002739911720871591 0 0.00021107020192256786 -0.0027026759311091562 0 0.00029671686916307093 -0.0024273393937418496 0 0.00050666463741506006 -0.0024847341611463096 0 0.00028324790794205773 -0.0026932339889702843 0 0.0002662506781054946 -0.0026402947961569698 0 0.00021107020192256786 -0.0027026759311091562 0 0.00028324790794205773 -0.0026932339889702843 0 0.0002662506781054946 -0.0026402947961569698 0 0.00032321705303644106 -0.00263540902179478 0 0.0004313118261055861 -0.0021907255902081204 0 0.00029671686916307093 -0.0024273393937418496 0 0.00032498008234420019 -0.0025734422769697896 0 0.0002662506781054946 -0.0026402947961569698 0 0.00032321705303644106 -0.00263540902179478 0 0.00032498008234420019 -0.0025734422769697896 0 0.00032321705303644106 -0.00263540902179478 0 0.00039285816659749594 -0.0026273614484358279 0 0.00032321705303644106 -0.00263540902179478 0 0.00039285816659749594 -0.0026273614484358279 0 0.000373771019951258 -0.002678589011488148 0 0.0005182888637766162 -0.002679036554634705 0 0.00050714634834998838 -0.0023393799143275129 0 0.00046215966046007234 -0.0026823068418836481 0 0.00039285816659749594 -0.0026273614484358279 0 0.000373771019951258 -0.002678589011488148 0 0.00046215966046007234 -0.0026823068418836481 0 0.000373771019951258 -0.002678589011488148 0 0.00040244557123024553 -0.0027208999340171923 0 0.000373771019951258 -0.002678589011488148 0 0.00036946908392777986 -0.0027206693070552764 0 0.00040244557123024553 -0.0027208999340171923 0 0.00032321705303644106 -0.00263540902179478 0 0.000373771019951258 -0.002678589011488148 0 0.00033327362077192554 -0.0027026137595883739 0 0.000373771019951258 -0.002678589011488148 0 0.00033327362077192554 -0.0027026137595883739 0 0.00036946908392777986 -0.0027206693070552764 0 0.00020129154717974136 -0.0031539401108604649 0 0.0002484681871675568 -0.0030881629716307626 0 0.00033327362077192554 -0.0027026137595883739 0 0.00034467666044134341 -0.0027366231313650175 0 0.00030829435245318835 -0.0027325468252867484 0 0.00034467666044134341 -0.0027366231313650175 0 0.00039250135593007211 -0.0027487680046925375 0 0.0003182017352429549 -0.002778200050326478 0 0.00033327362077192554 -0.0027026137595883739 0 0.00034467666044134341 -0.0027366231313650175 0 0.00036946908392777986 -0.0027206693070552764 0 0.00034467666044134341 -0.0027366231313650175 0 0.00036946908392777986 -0.0027206693070552764 0 0.00039250135593007211 -0.0027487680046925375 0 0.00043846567579441779 -0.0027290772107102365 0 0.00040244557123024553 -0.0027208999340171923 0 0.00039250135593007211 -0.0027487680046925375 0 0.00036946908392777986 -0.0027206693070552764 0 0.00040244557123024553 -0.0027208999340171923 0 0.00039250135593007211 -0.0027487680046925375 0 -4.3904441757340599e-05 -0.0035531357819059404 0 1.3129304035201277e-05 -0.0035478566215872195 0 -1.7158671956129277e-06 -0.0034617846137739278 0 1.3129304035201277e-05 -0.0035478566215872195 0 -1.7158671956129277e-06 -0.0034617846137739278 0 6.1657561889789738e-05 -0.0034595075918208299 0 -1.7158671956129277e-06 -0.0034617846137739278 0 8.3372823601150279e-05 -0.0033897568803479845 0 3.0818728636984538e-05 -0.0033341231519401688 0 1.3129304035201277e-05 -0.0035478566215872195 0 6.1657561889789738e-05 -0.0034595075918208299 0 0.00018090962953899985 -0.0034589395242414916 0 8.3372823601150279e-05 -0.0033897568803479845 0 0.00013488062298801687 -0.0033746699342388311 0 0.00014214307091512651 -0.0032341906075311184 0 6.1657561889789738e-05 -0.0034595075918208299 0 8.3372823601150279e-05 -0.0033897568803479845 0 0.00018090962953899985 -0.0034589395242414916 0 0.00014749943488187123 -0.0033476425664654072 0 0.0002484681871675568 -0.0030881629716307626 0 -1.7158671956129277e-06 -0.0034617846137739278 0 6.1657561889789738e-05 -0.0034595075918208299 0 8.3372823601150279e-05 -0.0033897568803479845 0 0.0002484681871675568 -0.0030881629716307626 0 0.00036839167802835956 -0.0030062750356125412 0 0.00041019151357637144 -0.0027936323589274037 0 0.00047297789935937649 -0.0028286856676361513 0 0.00048434955140837319 -0.0027655680423741731 0 0.00013488062298801687 -0.0033746699342388311 0 0.00025260695873279313 -0.003248479114642528 0 0.00014214307091512651 -0.0032341906075311184 0 0.0003182017352429549 -0.002778200050326478 0 0.00030829435245318835 -0.0027325468252867484 0 0.00026404422273750065 -0.002739911720871591 0 0.0002484681871675568 -0.0030881629716307626 0 0.00036521049907517055 -0.0027823824063018571 0 0.00034467666044134341 -0.0027366231313650175 0 0.0003182017352429549 -0.002778200050326478 0 0.00030829435245318835 -0.0027325468252867484 0 0.00028324790794205773 -0.0026932339889702843 0 0.00030829435245318835 -0.0027325468252867484 0 0.00026404422273750065 -0.002739911720871591 0 0.00047297789935937649 -0.0028286856676361513 0 0.00052994677317112695 -0.0027991644876052459 0 0.00053240636452240079 -0.0028595537220258505 0 0.00036521049907517055 -0.0027823824063018571 0 0.00050666463741506006 -0.0024847341611463096 0 0.00047297789935937649 -0.0028286856676361513 0 0.00048434955140837319 -0.0027655680423741731 0 0.00052994677317112695 -0.0027991644876052459 0 0.00036839167802835956 -0.0030062750356125412 0 0.0004774959188754288 -0.0029060304590085009 0 0.00048434955140837319 -0.0027655680423741731 0 0.00052994677317112695 -0.0027991644876052459 0 0.00056221066370714464 -0.0027396125112376535 0 0.00052994677317112695 -0.0027991644876052459 0 0.00059173606399672474 -0.0027965064335142465 0 0.00056221066370714464 -0.0027396125112376535 0 0.00059173606399672474 -0.0027965064335142465 0 0.00059288099881443172 -0.0027457939498680517 0 0.00056221066370714464 -0.0027396125112376535 0 0.00089553418256204601 -0.0023606023364784639 0 0.00086532427775175313 -0.0021894949565855375 0 0.0010714312431789016 -0.0021486789581211512 0 0.00089553418256204601 -0.0023606023364784639 0 0.00086532427775175313 -0.0021894949565855375 0 0.00075470608076453455 -0.0023245052865378752 0 0.00078972804505592737 -0.0025679951302384667 0 0.00050666463741506006 -0.0024847341611463096 0 0.00052994677317112695 -0.0027991644876052459 0 0.00059173606399672474 -0.0027965064335142465 0 0.00053240636452240079 -0.0028595537220258505 0 0.00030870077600279595 -0.0022732116159260595 0 0.0002185257300740303 -0.0022152357433899103 0 0.00029177174320012771 -0.0021685291967307929 0 0.0004183175732721501 -0.0021521496645448331 0 0.00030870077600279595 -0.0022732116159260595 0 0.00029177174320012771 -0.0021685291967307929 0 0.00050666463741506006 -0.0024847341611463096 0 0.00057259454986937958 -0.0021382473998094557 0 0.00086532427775175313 -0.0021894949565855375 0 0.0010714312431789016 -0.0021486789581211512 0 0.00092652426264100635 -0.002053483877745817 0 0.00086532427775175313 -0.0021894949565855375 0 0.00082095239088515455 -0.0020927570786352344 0 0.00092652426264100635 -0.002053483877745817 0 0.00082095239088515455 -0.0020927570786352344 0 0.00092652426264100635 -0.002053483877745817 0 0.00077630632778958025 -0.0019568832967216771 0 0.0002185257300740303 -0.0022152357433899103 0 0.00022265797764140118 -0.0021191428694389649 0 0.00012774881598428915 -0.002157352034964592 0 0.00057259454986937958 -0.0021382473998094557 0 0.00043740864482721454 -0.0020678755505000013 0 0.00022265797764140118 -0.0021191428694389649 0 0.00029177174320012771 -0.0021685291967307929 0 0.00030252026480762962 -0.0020749561970793431 0 0.0004183175732721501 -0.0021521496645448331 0 0.00029177174320012771 -0.0021685291967307929 0 0.00030252026480762962 -0.0020749561970793431 0 0.0002185257300740303 -0.0022152357433899103 0 0.00022265797764140118 -0.0021191428694389649 0 0.00029177174320012771 -0.0021685291967307929 0 0.00066252033644517325 -0.0020751732144724359 0 0.00056530770623999891 -0.0021794630699576863 0 0.00054813452711775042 -0.0018332375508005204 0 0.00071540360052160931 -0.0019036842991415229 0 0.00057257726776196484 -0.0013748232594007843 0 0.0006772609235464373 -0.0012091289802010547 0 0.00084165843315579445 -0.0016571508195897407 0 0.00087734769706807676 -0.00082357040987996843 0 0.0006772609235464373 -0.0012091289802010547 0 0.0006105608318048275 -0.00092625578674165388 0 0.00087734769706807676 -0.00082357040987996843 0 0.00043740864482721454 -0.0020678755505000013 0 0.00057257726776196484 -0.0013748232594007843 0 0.00077168167472463139 -0.0019802155753133629 0 0.00066252033644517325 -0.0020751732144724359 0 0.00054813452711775042 -0.0018332375508005204 0 0.00013633985275387318 -0.0020419636943122218 0 0.00010923987932193132 -0.0019628495188571109 0 4.2244286005922678e-05 -0.0019809867549628254 0 0.00077168167472463139 -0.0019802155753133629 0 0.00066252033644517325 -0.0020751732144724359 0 0.00070064480257729276 -0.0022090298382372959 0 0.00043740864482721454 -0.0020678755505000013 0 0.00073587167877152003 -0.002161528860070669 0 0.00082095239088515455 -0.0020927570786352344 0 0.00077630632778958025 -0.0019568832967216771 0 0.00071363911577884925 -0.0021727941527492998 0 0.00086532427775175313 -0.0021894949565855375 0 0.00082095239088515455 -0.0020927570786352344 0 0.00071363911577884925 -0.0021727941527492998 0 0.00066252033644517325 -0.0020751732144724359 0 0.00056530770623999891 -0.0021794630699576863 0 0.00070064480257729276 -0.0022090298382372959 0 0.0006772609235464373 -0.0012091289802010547 0 0.00084165843315579445 -0.0016571508195897407 0 0.00059518246886263219 -0.0014771860217019277 0 0.00084165843315579445 -0.0016571508195897407 0 0.00059518246886263219 -0.0014771860217019277 0 0.00059992286605145453 -0.0017639906047608384 0 0.00056530770623999891 -0.0021794630699576863 0 0.00064376505004578319 -0.002403886753622016 0 0.00060813155345307529 -0.0024446005716388568 0 0.00084165843315579445 -0.0016571508195897407 0 0.0006209079529661581 -0.0020534271465375183 0 0.00060813155345307529 -0.0024446005716388568 0 0.00059992286605145453 -0.0017639906047608384 0 0.0006209079529661581 -0.0020534271465375183 0 0.00047358191205386596 -0.0019226314775147703 0 0.00084165843315579445 -0.0016571508195897407 0 0.00059992286605145453 -0.0017639906047608384 0 0.0006209079529661581 -0.0020534271465375183 0 0.00071540360052160931 -0.0019036842991415229 0 0.00061935902068397427 -0.0024121340112371057 0 0.00071363911577884925 -0.0021727941527492998 0 0.00075470608076453455 -0.0023245052865378752 0 0.00064376505004578319 -0.002403886753622016 0 0.00056530770623999891 -0.0021794630699576863 0 0.00070064480257729276 -0.0022090298382372959 0 0.00064376505004578319 -0.002403886753622016 0 0.00073587167877152003 -0.002161528860070669 0 0.00064279061846622253 -0.0024009458827321589 0 0.00086532427775175313 -0.0021894949565855375 0 0.00071363911577884925 -0.0021727941527492998 0 0.00075470608076453455 -0.0023245052865378752 0 0.00089553418256204601 -0.0023606023364784639 0 0.00075470608076453455 -0.0023245052865378752 0 0.00066424652096638403 -0.0024687642231160309 0 0.00089553418256204601 -0.0023606023364784639 0 0.00066424652096638403 -0.0024687642231160309 0 0.00062444561381588836 -0.0026690567287505117 0 0.00078972804505592737 -0.0025679951302384667 0 0.00061243953344163765 -0.0026781669476488444 0 0.00059173606399672474 -0.0027965064335142465 0 0.00062444561381588836 -0.0026690567287505117 0 0.00059288099881443172 -0.0027457939498680517 0 0.00075470608076453455 -0.0023245052865378752 0 0.00064376505004578319 -0.002403886753622016 0 0.00066424652096638403 -0.0024687642231160309 0 0.00064376505004578319 -0.002403886753622016 0 0.00066424652096638403 -0.0024687642231160309 0 0.00060813155345307529 -0.0024446005716388568 0 0.0006209079529661581 -0.0020534271465375183 0 0.00053712739631815633 -0.0022989929330095248 0 0.00043412058306623833 -0.0022198651740552573 0 0.0006209079529661581 -0.0020534271465375183 0 0.00053712739631815633 -0.0022989929330095248 0 0.00060813155345307529 -0.0024446005716388568 0 0.00066424652096638403 -0.0024687642231160309 0 0.00060813155345307529 -0.0024446005716388568 0 0.00057093017003997362 -0.002582379672285457 0 0.00060813155345307529 -0.0024446005716388568 0 0.00049345991805462225 -0.002447501349994633 0 0.00057093017003997362 -0.002582379672285457 0 0.00053712739631815633 -0.0022989929330095248 0 0.00060813155345307529 -0.0024446005716388568 0 0.00049345991805462225 -0.002447501349994633 0 0.00053712739631815633 -0.0022989929330095248 0 0.00049345991805462225 -0.002447501349994633 0 0.00043412058306623833 -0.0022198651740552573 0 0.00049345991805462225 -0.002447501349994633 0 0.00043412058306623833 -0.0022198651740552573 0 0.00032443619972146132 -0.0024152726235320871 0 0.0002701772351088924 -0.0022245499266856138 0 0.00015366916710855336 -0.0020765834514136815 0 0.00031632685760396367 -0.0020607066248831819 0 0.00043412058306623833 -0.0022198651740552573 0 0.0002701772351088924 -0.0022245499266856138 0 0.00031632685760396367 -0.0020607066248831819 0 0.0002701772351088924 -0.0022245499266856138 0 0.00032443619972146132 -0.0024152726235320871 0 0.0001349431338026793 -0.0023217867784600696 0 0.00043412058306623833 -0.0022198651740552573 0 0.0002701772351088924 -0.0022245499266856138 0 0.00032443619972146132 -0.0024152726235320871 0 0.0001349431338026793 -0.0023217867784600696 0 -2.5741510975279293e-05 -0.0020998799286153225 0 -7.7274487013824172e-05 -0.0024623734002428713 0 0.0002701772351088924 -0.0022245499266856138 0 0.0001349431338026793 -0.0023217867784600696 0 0.00015366916710855336 -0.0020765834514136815 0 0.0001349431338026793 -0.0023217867784600696 0 -2.5741510975279293e-05 -0.0020998799286153225 0 0.00015366916710855336 -0.0020765834514136815 0 0.00015366916710855336 -0.0020765834514136815 0 4.0033502502811112e-05 -0.0018691579831407218 0 0.00024984801991275693 -0.0018094775533112045 0 -2.5741510975279293e-05 -0.0020998799286153225 0 0.00015366916710855336 -0.0020765834514136815 0 4.0033502502811112e-05 -0.0018691579831407218 0 -2.5741510975279293e-05 -0.0020998799286153225 0 -9.1849036035788415e-05 -0.0018811709915594274 0 -0.00025097855470216247 -0.0019308806460283212 0 -2.5741510975279293e-05 -0.0020998799286153225 0 -9.1849036035788415e-05 -0.0018811709915594274 0 4.0033502502811112e-05 -0.0018691579831407218 0 -9.1849036035788415e-05 -0.0018811709915594274 0 4.0033502502811112e-05 -0.0018691579831407218 0 -0.00011435712672325407 -0.0016398327624913955 0 4.0033502502811112e-05 -0.0018691579831407218 0 0.00024984801991275693 -0.0018094775533112045 0 9.260444994703541e-05 -0.0015528210887533829 0 0.00024984801991275693 -0.0018094775533112045 0 0.00047358191205386596 -0.0019226314775147703 0 0.00046196026515036204 -0.0016833642110147843 0 0.00059992286605145453 -0.0017639906047608384 0 0.00047358191205386596 -0.0019226314775147703 0 0.00046196026515036204 -0.0016833642110147843 0 0.0006209079529661581 -0.0020534271465375183 0 0.00043412058306623833 -0.0022198651740552573 0 0.00047358191205386596 -0.0019226314775147703 0 0.00043412058306623833 -0.0022198651740552573 0 0.00047358191205386596 -0.0019226314775147703 0 0.00031632685760396367 -0.0020607066248831819 0 0.00024984801991275693 -0.0018094775533112045 0 0.00047358191205386596 -0.0019226314775147703 0 0.00031632685760396367 -0.0020607066248831819 0 0.00015366916710855336 -0.0020765834514136815 0 0.00024984801991275693 -0.0018094775533112045 0 0.00031632685760396367 -0.0020607066248831819 0 -0.00022623413527231355 0.0010053866572155166 0 -0.00022563770563726452 0.0010286219942571677 0 -0.00024431601888008219 0.0010325367555521392 0 -0.0002489441824567077 0.0010116822073522067 0 -0.00022623413527231355 0.0010053866572155166 0 -0.00024431601888008219 0.0010325367555521392 0 -0.0002489441824567077 0.0010116822073522067 0 -0.00022623413527231355 0.0010053866572155166 0 -0.00024908230317812727 0.00097171301015435817 0 -0.00022623413527231355 0.0010053866572155166 0 -0.00021974104682625435 0.0010190309175434498 0 -0.00017416307002252016 0.00097034061423816357 0 -0.00022623413527231355 0.0010053866572155166 0 -0.00021974104682625435 0.0010190309175434498 0 -0.00022563770563726452 0.0010286219942571677 0 -0.00021974104682625435 0.0010190309175434498 0 -0.00023610433780114906 0.0010426311883222968 0 -0.00017416307002252016 0.00097034061423816357 0 -0.0002361291051966272 -0.00045354955771992859 0 -0.00018001896520409172 -0.00071482863629743134 0 -2.5741510975279293e-05 -0.0020998799286153225 0 -0.00025097855470216247 -0.0019308806460283212 0 -7.7274487013824172e-05 -0.0024623734002428713 0 -9.1849036035788415e-05 -0.0018811709915594274 0 -0.00025097855470216247 -0.0019308806460283212 0 -0.00011435712672325407 -0.0016398327624913955 0 -0.00023610433780114906 0.0010426311883222968 0 -0.00024087650245949125 0.00097594397190356355 0 -0.00022485753354817482 0.0010271737952174244 0 -0.00024087650245949125 0.00097594397190356355 0 -0.00022485753354817482 0.0010271737952174244 0 -0.00022236371768192224 0.0010249714012970697 0 -0.00024087650245949125 0.00097594397190356355 0 -0.00022236371768192224 0.0010249714012970697 0 -0.00022265326375341238 0.0010410094141735746 0 -0.00022485753354817482 0.0010271737952174244 0 -0.00022236371768192224 0.0010249714012970697 0 -0.00022563770563726452 0.0010286219942571677 0 -0.00021974104682625435 0.0010190309175434498 0 -0.00023610433780114906 0.0010426311883222968 0 -0.00022485753354817482 0.0010271737952174244 0 -0.00021974104682625435 0.0010190309175434498 0 -0.00022485753354817482 0.0010271737952174244 0 -0.00022563770563726452 0.0010286219942571677 0 -0.00022236371768192224 0.0010249714012970697 0 -0.00022563770563726452 0.0010286219942571677 0 -0.00023232076169375036 0.0010401703016319917 0 -0.00022236371768192224 0.0010249714012970697 0 -0.00023232076169375036 0.0010401703016319917 0 -0.00022265326375341238 0.0010410094141735746 0 -0.00023232076169375036 0.0010401703016319917 0 -0.00024431601888008219 0.0010325367555521392 0 -0.00024775934688691487 0.0010637363315260913 0 -0.00022563770563726452 0.0010286219942571677 0 -0.00023232076169375036 0.0010401703016319917 0 -0.00024431601888008219 0.0010325367555521392 0 -0.00021005417508356285 0.0010990621165053258 0 -0.00024775934688691487 0.0010637363315260913 0 -0.000251382392334701 0.0011185730772735236 0 -0.00022265326375341238 0.0010410094141735746 0 -0.00021005417508356285 0.0010990621165053258 0 -0.00024775934688691487 0.0010637363315260913 0 -0.00023232076169375036 0.0010401703016319917 0 -0.00022265326375341238 0.0010410094141735746 0 -0.00024775934688691487 0.0010637363315260913 0 -0.00024426852374799366 0.00097892753963224242 0 -0.00021350011277591752 0.00093373868252651234 0 -0.0002361291051966272 -0.00045354955771992859 0 -0.00033307641831051125 -0.0002466137846735506 0 -0.00025097855470216247 -0.0019308806460283212 0 -0.00035777630202653109 -0.0012174191757948357 0 -0.00011435712672325407 -0.0016398327624913955 0 -0.00024087650245949125 0.00097594397190356355 0 -0.00022265326375341238 0.0010410094141735746 0 -0.00021005417508356285 0.0010990621165053258 0 -0.00024087650245949125 0.00097594397190356355 0 -0.00032047564327368424 0.00072591088588185981 0 -0.00019550167969966084 0.0007417409516655895 0 -0.00023610433780114906 0.0010426311883222968 0 -0.00024087650245949125 0.00097594397190356355 0 -0.00032047564327368424 0.00072591088588185981 0 -0.00035777630202653109 -0.0012174191757948357 0 -0.00011435712672325407 -0.0016398327624913955 0 -6.9819848323912084e-05 -0.0013105112103353504 0 -0.00035777630202653109 -0.0012174191757948357 0 -0.00010595507265725604 -0.0009629342903508789 0 -0.00037061189447533529 -0.00047107998231295885 0 -0.00035777630202653109 -0.0012174191757948357 0 -6.9819848323912084e-05 -0.0013105112103353504 0 -0.00010595507265725604 -0.0009629342903508789 0 -0.00021350011277591752 0.00093373868252651234 0 -0.00016973997407961956 0.00084068345488329851 0 -0.00021005417508356285 0.0010990621165053258 0 -0.00024102233731379216 0.0011826876585630799 0 -0.000251382392334701 0.0011185730772735236 0 -0.00019550167969966084 0.0007417409516655895 0 -0.00022828967390976521 0.00059491651107994672 0 -0.00012450069058968615 0.00056054524608702822 0 -0.00032047564327368424 0.00072591088588185981 0 -0.00019550167969966084 0.0007417409516655895 0 -0.00022828967390976521 0.00059491651107994672 0 0.00059518246886263219 -0.0014771860217019277 0 0.00032108745211948764 -0.0014302845605840453 0 0.00046532540447151574 -0.0011604062043964038 0 0.00059518246886263219 -0.0014771860217019277 0 0.00059992286605145453 -0.0017639906047608384 0 0.00046196026515036204 -0.0016833642110147843 0 0.00059518246886263219 -0.0014771860217019277 0 0.00032108745211948764 -0.0014302845605840453 0 0.00046196026515036204 -0.0016833642110147843 0 0.00024984801991275693 -0.0018094775533112045 0 0.00032108745211948764 -0.0014302845605840453 0 0.00046196026515036204 -0.0016833642110147843 0 0.00024984801991275693 -0.0018094775533112045 0 0.00032108745211948764 -0.0014302845605840453 0 9.260444994703541e-05 -0.0015528210887533829 0 4.0033502502811112e-05 -0.0018691579831407218 0 9.260444994703541e-05 -0.0015528210887533829 0 -0.00011435712672325407 -0.0016398327624913955 0 9.260444994703541e-05 -0.0015528210887533829 0 -0.00011435712672325407 -0.0016398327624913955 0 -6.9819848323912084e-05 -0.0013105112103353504 0 9.260444994703541e-05 -0.0015528210887533829 0 -6.9819848323912084e-05 -0.0013105112103353504 0 0.00015019372969152215 -0.00114682332279659 0 0.00032108745211948764 -0.0014302845605840453 0 9.260444994703541e-05 -0.0015528210887533829 0 0.00015019372969152215 -0.00114682332279659 0 0.00015019372969152215 -0.00114682332279659 0 -0.00010595507265725604 -0.0009629342903508789 0 0.00011696855314842055 -0.00067221812640555685 0 0.00015019372969152215 -0.00114682332279659 0 0.00040325569631451542 -0.00085486782569280952 0 0.00011696855314842055 -0.00067221812640555685 0 -6.9819848323912084e-05 -0.0013105112103353504 0 0.00015019372969152215 -0.00114682332279659 0 -0.00010595507265725604 -0.0009629342903508789 0 0.00015019372969152215 -0.00114682332279659 0 0.00046532540447151574 -0.0011604062043964038 0 0.00040325569631451542 -0.00085486782569280952 0 0.00032108745211948764 -0.0014302845605840453 0 0.00015019372969152215 -0.00114682332279659 0 0.00046532540447151574 -0.0011604062043964038 0 0.0006772609235464373 -0.0012091289802010547 0 0.00059518246886263219 -0.0014771860217019277 0 0.00046532540447151574 -0.0011604062043964038 0 0.0006772609235464373 -0.0012091289802010547 0 0.00046532540447151574 -0.0011604062043964038 0 0.0006105608318048275 -0.00092625578674165388 0 0.00046532540447151574 -0.0011604062043964038 0 0.0006105608318048275 -0.00092625578674165388 0 0.00040325569631451542 -0.00085486782569280952 0 0.00041458962653034229 -0.00056839175729290169 0 0.00040325569631451542 -0.00085486782569280952 0 0.00063496206862079262 -0.0006615257403863096 0 0.0006105608318048275 -0.00092625578674165388 0 0.00040325569631451542 -0.00085486782569280952 0 0.00063496206862079262 -0.0006615257403863096 0 0.00041458962653034229 -0.00056839175729290169 0 0.00063496206862079262 -0.0006615257403863096 0 0.00061852951296930379 -0.00033905902910603411 0 0.00041458962653034229 -0.00056839175729290169 0 0.00011696855314842055 -0.00067221812640555685 0 0.00028636803779077339 -0.00033673293281964495 0 0.00041458962653034229 -0.00056839175729290169 0 0.00040325569631451542 -0.00085486782569280952 0 0.00011696855314842055 -0.00067221812640555685 0 0.00011696855314842055 -0.00067221812640555685 0 5.897600939490866e-06 -0.00033707238229243805 0 -0.00037061189447533529 -0.00047107998231295885 0 -0.00010595507265725604 -0.0009629342903508789 0 0.00011696855314842055 -0.00067221812640555685 0 -0.00037061189447533529 -0.00047107998231295885 0 0.00011696855314842055 -0.00067221812640555685 0 5.897600939490866e-06 -0.00033707238229243805 0 0.00028636803779077339 -0.00033673293281964495 0 5.897600939490866e-06 -0.00033707238229243805 0 0.00028636803779077339 -0.00033673293281964495 0 0.00013234930345477376 -2.5213787113410753e-05 0 5.897600939490866e-06 -0.00033707238229243805 0 -9.8830209931274202e-05 -6.0460492677516636e-05 0 0.00013234930345477376 -2.5213787113410753e-05 0 0.00044011768804666209 -9.1540810963757405e-05 0 0.00028636803779077339 -0.00033673293281964495 0 0.00013234930345477376 -2.5213787113410753e-05 0 0.00044011768804666209 -9.1540810963757405e-05 0 0.00028636803779077339 -0.00033673293281964495 0 0.00061852951296930379 -0.00033905902910603411 0 0.00041458962653034229 -0.00056839175729290169 0 0.00028636803779077339 -0.00033673293281964495 0 0.00061852951296930379 -0.00033905902910603411 0 -0.00020439134478231907 0.00048517317287062297 0 -0.00022828967390976521 0.00059491651107994672 0 -0.00012450069058968615 0.00056054524608702822 0 -0.00020439134478231907 0.00048517317287062297 0 -0.00022828967390976521 0.00059491651107994672 0 -0.0003257503941659305 0.00047181649908555008 0 -0.00032047564327368424 0.00072591088588185981 0 -0.00022828967390976521 0.00059491651107994672 0 -0.0003257503941659305 0.00047181649908555008 0 -0.00033307641831051125 -0.0002466137846735506 0 -0.00033840626433620285 -1.8230199267971756e-06 0 -0.0003257503941659305 0.00047181649908555008 0 -0.00021946967352325892 0.00037609010619740058 0 -0.00026658055617303047 0.00024346024364205017 0 -0.00037061189447533529 -0.00047107998231295885 0 -9.8830209931274202e-05 -6.0460492677516636e-05 0 -0.00026658055617303047 0.00024346024364205017 0 -0.00033840626433620285 -1.8230199267971756e-06 0 -0.00028501055743798204 0.00022254855315503237 0 5.897600939490866e-06 -0.00033707238229243805 0 -0.00037061189447533529 -0.00047107998231295885 0 -9.8830209931274202e-05 -6.0460492677516636e-05 0 -0.00020439134478231907 0.00048517317287062297 0 -0.0003257503941659305 0.00047181649908555008 0 -0.00021946967352325892 0.00037609010619740058 0 -0.00020439134478231907 0.00048517317287062297 0 -0.00021946967352325892 0.00037609010619740058 0 -0.00014294115748712813 0.00042569706557803812 0 -0.00024383231649659627 0.00030464494327787629 0 -0.00031881669715746639 0.000284462234949721 0 -0.00019406585045148223 0.00028654628174223234 0 -0.00021946967352325892 0.00037609010619740058 0 -0.00024383231649659627 0.00030464494327787629 0 -0.00015978545551758995 0.00034791219219996528 0 -0.00024383231649659627 0.00030464494327787629 0 -0.00015978545551758995 0.00034791219219996528 0 -0.00019406585045148223 0.00028654628174223234 0 -0.00021946967352325892 0.00037609010619740058 0 -0.00024383231649659627 0.00030464494327787629 0 -0.00026658055617303047 0.00024346024364205017 0 -0.00024383231649659627 0.00030464494327787629 0 -0.00026658055617303047 0.00024346024364205017 0 -0.00031881669715746639 0.000284462234949721 0 -0.00026658055617303047 0.00024346024364205017 0 -0.00031881669715746639 0.000284462234949721 0 1.8699724182652649e-05 0.00030632732874385127 0 -0.0003252926258895556 0.00038319476060286319 0 -1.5723696421946308e-07 0.00033169747836883667 0 -9.8830209931274202e-05 -6.0460492677516636e-05 0 -0.00026658055617303047 0.00024346024364205017 0 1.8699724182652649e-05 0.00030632732874385127 0 -0.00016342903120101129 0.00062125963398019092 0 -0.00040794728342020758 0.00061589089040308862 0 1.8699724182652649e-05 0.00030632732874385127 0 -0.00016342903120101129 0.00062125963398019092 0 1.8699724182652649e-05 0.00030632732874385127 0 3.4017259742874656e-06 0.00084541335804640214 0 -0.00016342903120101129 0.00062125963398019092 0 -0.00028725959206995632 0.00080435555714905831 0 3.4017259742874656e-06 0.00084541335804640214 0 -0.00016342903120101129 0.00062125963398019092 0 -0.00028725959206995632 0.00080435555714905831 0 -0.00040794728342020758 0.00061589089040308862 0 -0.00051082827758405997 0.00091155861594960342 0 -0.00040794728342020758 0.00061589089040308862 0 -0.00080577251631372946 0.0007605435015239783 0 -0.00051082827758405997 0.00091155861594960342 0 -0.00028725959206995632 0.00080435555714905831 0 -0.00040794728342020758 0.00061589089040308862 0 0.00044011768804666209 -9.1540810963757405e-05 0 0.00054875588048250283 0.00012231831958799645 0 0.00080127915171958829 -0.00011054439436070042 0 0.0002740491228201455 0.00021991629638423165 0 0.00054875588048250283 0.00012231831958799645 0 0.00037696018430152665 0.00030595831105736314 0 0.00054875588048250283 0.00012231831958799645 0 0.00037696018430152665 0.00030595831105736314 0 0.00052079633820788793 0.00032105532945808006 0 0.00044011768804666209 -9.1540810963757405e-05 0 0.0002740491228201455 0.00021991629638423165 0 0.00013234930345477376 -2.5213787113410753e-05 0 0.00044011768804666209 -9.1540810963757405e-05 0 0.0002740491228201455 0.00021991629638423165 0 0.00054875588048250283 0.00012231831958799645 0 0.00013234930345477376 -2.5213787113410753e-05 0 1.8699724182652649e-05 0.00030632732874385127 0 3.4017259742874656e-06 0.00084541335804640214 0 0.0002740491228201455 0.00021991629638423165 0 0.00013234930345477376 -2.5213787113410753e-05 0 -1.072483914231424e-05 0.00049701537827202553 0 0.00013156322184830618 1.5429370694121602e-05 0 -9.166980754313923e-06 0.00066057487558824127 0 -9.8830209931274202e-05 -6.0460492677516636e-05 0 0.00013234930345477376 -2.5213787113410753e-05 0 1.8699724182652649e-05 0.00030632732874385127 0 0.0002740491228201455 0.00021991629638423165 0 -1.072483914231424e-05 0.00049701537827202553 0 0.00020057123612694867 0.00046831922775244285 0 0.0004276757016991875 0.00076050635609683007 0 0.00043329073549471409 0.00047883909152019393 0 0.00075132138859902535 0.00032694081824663566 0 0.00020057123612694867 0.00046831922775244285 0 0.00037696018430152665 0.00030595831105736314 0 0.00043329073549471409 0.00047883909152019393 0 0.0002740491228201455 0.00021991629638423165 0 0.00020057123612694867 0.00046831922775244285 0 0.00037696018430152665 0.00030595831105736314 0 0.00037696018430152665 0.00030595831105736314 0 0.00052079633820788793 0.00032105532945808006 0 0.00043329073549471409 0.00047883909152019393 0 0.00052079633820788793 0.00032105532945808006 0 0.00043329073549471409 0.00047883909152019393 0 0.00075132138859902535 0.00032694081824663566 0 0.00015621588772298997 -0.00035962863831225859 0 0.00017984956300401322 -0.00088763701970603871 0 -0.00016684599326159647 -0.0015344533549891425 0 -1.5742019137982983e-05 -0.0016762565478943281 0 -1.1366466215421731e-05 -0.0017357507922675902 0 2.7906961171470845e-05 -0.0016145243450130348 0 -1.5742019137982983e-05 -0.0016762565478943281 0 5.5201894103586445e-05 -0.0016842389786146067 0 -1.5742019137982983e-05 -0.0016762565478943281 0 -4.4888091520444746e-06 -0.0017219742453894894 0 9.003938190393214e-05 -0.001771976903524395 0 -1.5742019137982983e-05 -0.0016762565478943281 0 9.003938190393214e-05 -0.001771976903524395 0 5.5201894103586445e-05 -0.0016842389786146067 0 0.00011943991539541648 -0.0015559310810629901 0 0.00017984956300401322 -0.00088763701970603871 0 0.00054875588048250283 0.00012231831958799645 0 0.00052079633820788793 0.00032105532945808006 0 0.00075132138859902535 0.00032694081824663566 0 0.00017984956300401322 -0.00088763701970603871 0 0.00040463944652423435 -0.00095107374968066843 0 0.00054875588048250283 0.00012231831958799645 0 0.00075132138859902535 0.00032694081824663566 0 0.00080127915171958829 -0.00011054439436070042 0 -4.4888091520444746e-06 -0.0017219742453894894 0 9.003938190393214e-05 -0.001771976903524395 0 2.5400691741590943e-05 -0.0018435763954992525 0 9.003938190393214e-05 -0.001771976903524395 0 5.5201894103586445e-05 -0.0016842389786146067 0 0.00011668105483687331 -0.0016662458447456465 0 9.003938190393214e-05 -0.001771976903524395 0 0.00011668105483687331 -0.0016662458447456465 0 0.00022874950218363161 -0.0017804456775199547 0 2.7906961171470845e-05 -0.0016145243450130348 0 5.5201894103586445e-05 -0.0016842389786146067 0 0.00011668105483687331 -0.0016662458447456465 0 0.00021108737723857636 -0.0015888748035738759 0 0.00011668105483687331 -0.0016662458447456465 0 0.00022874950218363161 -0.0017804456775199547 0 0.00021108737723857636 -0.0015888748035738759 0 0.0003695582866429684 -0.0016701295062434916 0 0.00022874950218363161 -0.0017804456775199547 0 0.0003695582866429684 -0.0016701295062434916 0 0.00040081280744642543 -0.0018195058175707512 0 0.00022874950218363161 -0.0017804456775199547 0 0.00040081280744642543 -0.0018195058175707512 0 0.00022874950218363161 -0.0017804456775199547 0 0.0003030278517111848 -0.0019603269071544163 0 9.003938190393214e-05 -0.001771976903524395 0 0.00022874950218363161 -0.0017804456775199547 0 0.00017497899683727955 -0.0019122954355215523 0 0.00023896545937880689 -0.0017789247595292579 0 0.00012914811157372369 -0.0019581024469984432 0 0.00022874950218363161 -0.0017804456775199547 0 0.00017240350288731755 -0.0019778747211069898 0 0.0003030278517111848 -0.0019603269071544163 0 0.00040978456561835045 -0.0020400622142831507 0 0.0003030278517111848 -0.0019603269071544163 0 0.00030252026480762962 -0.0020749561970793431 0 0.00017240350288731755 -0.0019778747211069898 0 0.0003030278517111848 -0.0019603269071544163 0 0.00030252026480762962 -0.0020749561970793431 0 0.00022265797764140118 -0.0021191428694389649 0 0.00012774881598428915 -0.002157352034964592 0 0.00017240350288731755 -0.0019778747211069898 0 0.00043740864482721454 -0.0020678755505000013 0 0.00012914811157372369 -0.0019581024469984432 0 0.00022265797764140118 -0.0021191428694389649 0 0.00017240350288731755 -0.0019778747211069898 0 0.00030252026480762962 -0.0020749561970793431 0 0.00013633985275387318 -0.0020419636943122218 0 0.00017497899683727955 -0.0019122954355215523 0 0.00010923987932193132 -0.0019628495188571109 0 0.00017497899683727955 -0.0019122954355215523 0 0.00010923987932193132 -0.0019628495188571109 0 8.5664550073130815e-05 -0.001914347345499076 0 0.00010923987932193132 -0.0019628495188571109 0 4.2244286005922678e-05 -0.0019809867549628254 0 8.5664550073130815e-05 -0.001914347345499076 0 0.00085217722606590913 -0.00079759878990480937 0 0.00063496206862079262 -0.0006615257403863096 0 0.00061852951296930379 -0.00033905902910603411 0 0.0006105608318048275 -0.00092625578674165388 0 0.00087734769706807676 -0.00082357040987996843 0 0.00063496206862079262 -0.0006615257403863096 0 0.00057257726776196484 -0.0013748232594007843 0 0.0005618398591328758 -0.00089445696151703804 0 4.2244286005922678e-05 -0.0019809867549628254 0 2.5400691741590943e-05 -0.0018435763954992525 0 8.5664550073130815e-05 -0.001914347345499076 0 0.00044011768804666209 -9.1540810963757405e-05 0 0.00080127915171958829 -0.00011054439436070042 0 0.00061852951296930379 -0.00033905902910603411 0 0.00057257726776196484 -0.0013748232594007843 0 0.00040463944652423435 -0.00095107374968066843 0 0.00085217722606590913 -0.00079759878990480937 0 0.00080127915171958829 -0.00011054439436070042 0 0.00061852951296930379 -0.00033905902910603411 0 9.003938190393214e-05 -0.001771976903524395 0 2.5400691741590943e-05 -0.0018435763954992525 0 8.5664550073130815e-05 -0.001914347345499076 0 9.003938190393214e-05 -0.001771976903524395 0 0.00017497899683727955 -0.0019122954355215523 0 8.5664550073130815e-05 -0.001914347345499076 0 -1.6883174938896547e-05 -0.0047330065702413642 0 -1.4952053642032866e-05 -0.0048605706396513387 0 9.1352933547043043e-06 -0.0048413845144205919 0 -7.624418857375694e-07 -0.0048373952313529502 0 1.5249753888992526e-05 -0.0048302972576349272 0 9.1352933547043043e-06 -0.0048413845144205919 0 1.9724892749819013e-05 -0.0048460718050038487 0 1.5249753888992526e-05 -0.0048302972576349272 0 -8.2133299436582074e-07 -0.005001163978342037 0 -2.0395524272132317e-08 -0.0049993748044921691 0 8.207370584087854e-07 -0.0050036435787721304 0 -8.2133299436582074e-07 -0.005001163978342037 0 1.6493711429644561e-08 -0.0049999457663681265 0 -5.773692534422328e-08 -0.0050001843370241139 0 1.3874053499659313e-05 -0.0049353844367458323 0 -1.4952053642032866e-05 -0.0048605706396513387 0 -8.2133299436582074e-07 -0.005001163978342037 0 -5.773692534422328e-08 -0.0050001843370241139 0 -2.1102013560210017e-06 -0.0050031693189291132 0 -8.2133299436582074e-07 -0.005001163978342037 0 -2.0395524272132317e-08 -0.0049993748044921691 0 1.6493711429644561e-08 -0.0049999457663681265 0 -2.0395524272132317e-08 -0.0049993748044921691 0 1.6493711429644561e-08 -0.0049999457663681265 0 2.3905511627186826e-06 -0.0050008199270837831 0 1.3874053499659313e-05 -0.0049353844367458323 0 1.401953773199293e-05 -0.004935869022130268 0 1.9724892749819013e-05 -0.0048460718050038487 0 9.0326300953160747e-06 -0.0048488693383818256 0 6.5954730598519885e-06 -0.0048589094223006933 0 1.9724892749819013e-05 -0.0048460718050038487 0 6.5954730598519885e-06 -0.0048589094223006933 0 1.3222875357127505e-05 -0.0048680473018710251 0 9.1352933547043043e-06 -0.0048413845144205919 0 1.9724892749819013e-05 -0.0048460718050038487 0 9.0326300953160747e-06 -0.0048488693383818256 0 9.1352933547043043e-06 -0.0048413845144205919 0 9.0326300953160747e-06 -0.0048488693383818256 0 2.1159139043970797e-06 -0.004849633002588007 0 9.0326300953160747e-06 -0.0048488693383818256 0 2.1159139043970797e-06 -0.004849633002588007 0 6.5954730598519885e-06 -0.0048589094223006933 0 2.1159139043970797e-06 -0.004849633002588007 0 -6.7236025661514661e-06 -0.0048523627105642626 0 1.6071551039724316e-06 -0.0048582970998723345 0 2.1159139043970797e-06 -0.004849633002588007 0 -6.7236025661514661e-06 -0.0048523627105642626 0 -7.624418857375694e-07 -0.0048373952313529502 0 2.0323807475660248e-07 -0.0048066261113488698 0 -1.0198054467655917e-05 -0.0047839733702174725 0 -1.4281027834936431e-05 -0.0048013491895208607 0 -6.7236025661514661e-06 -0.0048523627105642626 0 -7.624418857375694e-07 -0.0048373952313529502 0 -1.481548500679418e-05 -0.0048426227827566004 0 6.7763334430199232e-06 -0.0048457556291975415 0 -2.0718768479343329e-05 -0.0046799078793415654 0 -1.6883174938896547e-05 -0.0047330065702413642 0 -2.0718768479343329e-05 -0.0046799078793415654 0 -2.6668188720599697e-05 -0.0046398224362805404 0 -2.0065011973256122e-05 -0.0046441532538039213 0 -2.2235369039334735e-05 -0.0046469581700722077 0 9.1352933547043043e-06 -0.0048413845144205919 0 2.1159139043970797e-06 -0.004849633002588007 0 -7.624418857375694e-07 -0.0048373952313529502 0 -2.6668188720599697e-05 -0.0046398224362805404 0 -2.0065011973256122e-05 -0.0046441532538039213 0 -2.6032206860842733e-05 -0.0046799528514379456 0 -2.0065011973256122e-05 -0.0046441532538039213 0 -2.248264143929708e-05 -0.0046375370026102217 0 -2.6032206860842733e-05 -0.0046799528514379456 0 -2.248264143929708e-05 -0.0046375370026102217 0 -2.6032206860842733e-05 -0.0046799528514379456 0 -2.9296833759524904e-05 -0.004681332568339561 0 -2.6032206860842733e-05 -0.0046799528514379456 0 -5.2334021101963747e-05 -0.0047961201557648889 0 -2.9296833759524904e-05 -0.004681332568339561 0 -2.6032206860842733e-05 -0.0046799528514379456 0 -8.733451800017593e-05 -0.0046528596311169396 0 -5.2334021101963747e-05 -0.0047961201557648889 0 -1.4952053642032866e-05 -0.0048605706396513387 0 -7.2290488629103773e-05 -0.0047905315712601345 0 -2.6668188720599697e-05 -0.0046398224362805404 0 -2.6032206860842733e-05 -0.0046799528514379456 0 -8.733451800017593e-05 -0.0046528596311169396 0 -5.6374090208278265e-05 -0.0050306198413279709 0 -5.0684419095778712e-06 -0.0050095342730948796 0 -5.2334021101963747e-05 -0.0047961201557648889 0 -5.773692534422328e-08 -0.0050001843370241139 0 -5.0684419095778712e-06 -0.0050095342730948796 0 1.7998063961845038e-07 -0.0049994034426657811 0 -5.773692534422328e-08 -0.0050001843370241139 0 -2.1102013560210017e-06 -0.0050031693189291132 0 -5.0684419095778712e-06 -0.0050095342730948796 0 -8.2133299436582074e-07 -0.005001163978342037 0 8.207370584087854e-07 -0.0050036435787721304 0 -2.1102013560210017e-06 -0.0050031693189291132 0 -1.4952053642032866e-05 -0.0048605706396513387 0 -3.9936098979428432e-05 -0.00493385034884424 0 8.207370584087854e-07 -0.0050036435787721304 0 -2.1102013560210017e-06 -0.0050031693189291132 0 -5.0684419095778712e-06 -0.0050095342730948796 0 -5.0684419095778712e-06 -0.0050095342730948796 0 1.7998063961845038e-07 -0.0049994034426657811 0 -5.2334021101963747e-05 -0.0047961201557648889 0 -9.2447449103659509e-10 -0.0049999340911458428 0 -1.3768002821987206e-06 -0.0048405599398127367 0 1.7998063961845038e-07 -0.0049994034426657811 0 -5.2334021101963747e-05 -0.0047961201557648889 0 8.2713807311450762e-06 -0.004683166455790813 0 3.6027521688720585e-10 -0.0049999997011130363 0 -8.5065613443416884e-10 -0.0049999991389555951 0 -4.3739023377639424e-07 -0.0049994508661303106 0 -5.2334021101963747e-05 -0.0047961201557648889 0 8.2713807311450762e-06 -0.004683166455790813 0 -3.3698178737036885e-05 -0.0046591849596827892 0 8.2713807311450762e-06 -0.004683166455790813 0 1.2380029248481716e-06 -0.0045924089101525489 0 -3.3698178737036885e-05 -0.0046591849596827892 0 -8.5065613443416884e-10 -0.0049999991389555951 0 -4.3739023377639424e-07 -0.0049994508661303106 0 -6.7688207254819698e-07 -0.0049996459419252735 0 -8.5065613443416884e-10 -0.0049999991389555951 0 -6.7688207254819698e-07 -0.0049996459419252735 0 -5.2605593982652952e-10 -0.004999997910318482 0 -6.7688207254819698e-07 -0.0049996459419252735 0 -1.1470038296983202e-06 -0.0049989255547776314 0 -5.2605593982652952e-10 -0.004999997910318482 0 -4.3739023377639424e-07 -0.0049994508661303106 0 -6.7688207254819698e-07 -0.0049996459419252735 0 -2.3219585481316771e-06 -0.0049992532125255036 0 -1.3768002821987206e-06 -0.0048405599398127367 0 -4.6493821562284405e-06 -0.0047934391748161876 0 -6.7688207254819698e-07 -0.0049996459419252735 0 -2.3219585481316771e-06 -0.0049992532125255036 0 -1.1470038296983202e-06 -0.0049989255547776314 0 -2.3219585481316771e-06 -0.0049992532125255036 0 -1.1470038296983202e-06 -0.0049989255547776314 0 -2.7187559258096871e-06 -0.0049969522533094566 0 -1.105223367410963e-06 -0.0049985963904951641 0 -1.1470038296983202e-06 -0.0049989255547776314 0 -2.7187559258096871e-06 -0.0049969522533094566 0 -1.105223367410963e-06 -0.0049985963904951641 0 -1.1470038296983202e-06 -0.0049989255547776314 0 -5.2605593982652952e-10 -0.004999997910318482 0 -5.9946848164937943e-06 -0.0045468882694176919 0 -2.7618020876326759e-05 -0.004590660786138864 0 -2.2524437703286118e-05 -0.0045510231042454269 0 1.5757107090379433e-05 -0.0047749957719123333 0 -4.6493821562284405e-06 -0.0047934391748161876 0 -5.9946848164937943e-06 -0.0045468882694176919 0 1.2380029248481716e-06 -0.0045924089101525489 0 -2.7618020876326759e-05 -0.004590660786138864 0 -7.1386240049056874e-06 -0.0049915711764896885 0 -2.3219585481316771e-06 -0.0049992532125255036 0 -2.7187559258096871e-06 -0.0049969522533094566 0 1.2380029248481716e-06 -0.0045924089101525489 0 -2.7618020876326759e-05 -0.004590660786138864 0 -3.3698178737036885e-05 -0.0046591849596827892 0 -2.7618020876326759e-05 -0.004590660786138864 0 -3.5236225928670127e-05 -0.0045765523033930505 0 -2.2524437703286118e-05 -0.0045510231042454269 0 -2.7618020876326759e-05 -0.004590660786138864 0 -3.401850025793644e-05 -0.0046172193910651912 0 -3.5236225928670127e-05 -0.0045765523033930505 0 -2.7618020876326759e-05 -0.004590660786138864 0 -3.3698178737036885e-05 -0.0046591849596827892 0 -3.401850025793644e-05 -0.0046172193910651912 0 -5.2334021101963747e-05 -0.0047961201557648889 0 -3.3698178737036885e-05 -0.0046591849596827892 0 -2.9296833759524904e-05 -0.004681332568339561 0 -3.3698178737036885e-05 -0.0046591849596827892 0 -2.9296833759524904e-05 -0.004681332568339561 0 -3.401850025793644e-05 -0.0046172193910651912 0 -2.248264143929708e-05 -0.0046375370026102217 0 -2.9296833759524904e-05 -0.004681332568339561 0 -3.401850025793644e-05 -0.0046172193910651912 0 -3.401850025793644e-05 -0.0046172193910651912 0 -4.2526382698320353e-05 -0.0045652489842506298 0 -3.6160622419526292e-05 -0.0045909006010216823 0 -4.2526382698320353e-05 -0.0045652489842506298 0 -4.6536040572861724e-05 -0.0045290089335205666 0 -3.6160622419526292e-05 -0.0045909006010216823 0 -4.2526382698320353e-05 -0.0045652489842506298 0 -3.5236225928670127e-05 -0.0045765523033930505 0 -3.8418938547047321e-05 -0.004549607185497101 0 -3.401850025793644e-05 -0.0046172193910651912 0 -4.2526382698320353e-05 -0.0045652489842506298 0 -3.5236225928670127e-05 -0.0045765523033930505 0 -3.5236225928670127e-05 -0.0045765523033930505 0 -3.8418938547047321e-05 -0.004549607185497101 0 -2.2524437703286118e-05 -0.0045510231042454269 0 -2.6728063681564225e-05 -0.0045185170165440488 0 -3.8418938547047321e-05 -0.004549607185497101 0 -2.2524437703286118e-05 -0.0045510231042454269 0 -3.1377688427181514e-05 -0.0045107499621989964 0 -3.4298507294172086e-05 -0.0045285454199679555 0 -3.427470223218932e-05 -0.0045232249418068575 0 -2.6728063681564225e-05 -0.0045185170165440488 0 -3.8418938547047321e-05 -0.004549607185497101 0 -3.4298507294172086e-05 -0.0045285454199679555 0 -2.6728063681564225e-05 -0.0045185170165440488 0 -3.1377688427181514e-05 -0.0045107499621989964 0 -3.4298507294172086e-05 -0.0045285454199679555 0 -3.8418938547047321e-05 -0.004549607185497101 0 -3.4298507294172086e-05 -0.0045285454199679555 0 -2.7589662749454657e-05 -0.0044971003116621982 0 -3.4298507294172086e-05 -0.0045285454199679555 0 -2.7589662749454657e-05 -0.0044971003116621982 0 -3.427470223218932e-05 -0.0045232249418068575 0 -4.2526382698320353e-05 -0.0045652489842506298 0 -2.7589662749454657e-05 -0.0044971003116621982 0 -4.6536040572861724e-05 -0.0045290089335205666 0 -2.6303905188780958e-05 -0.0044932931097401872 0 -2.0833907109559181e-05 -0.0044769343385330533 0 -4.2526382698320353e-05 -0.0045652489842506298 0 -3.8418938547047321e-05 -0.004549607185497101 0 -2.7589662749454657e-05 -0.0044971003116621982 0 -2.7589662749454657e-05 -0.0044971003116621982 0 -3.7730180165044307e-05 -0.0044869627061628631 0 -4.6536040572861724e-05 -0.0045290089335205666 0 -3.7730180165044307e-05 -0.0044869627061628631 0 -3.8520390703435097e-05 -0.0044812531962892784 0 -5.0463245405252083e-05 -0.0044588011578109571 0 -3.8520390703435097e-05 -0.0044812531962892784 0 -3.2746863307697656e-05 -0.0044814824616774352 0 -5.0463245405252083e-05 -0.0044588011578109571 0 -3.8520390703435097e-05 -0.0044812531962892784 0 -4.0185100722421373e-05 -0.004484704568854702 0 -3.2746863307697656e-05 -0.0044814824616774352 0 -3.8520390703435097e-05 -0.0044812531962892784 0 -4.6536040572861724e-05 -0.0045290089335205666 0 -4.0185100722421373e-05 -0.004484704568854702 0 -3.7730180165044307e-05 -0.0044869627061628631 0 -3.8520390703435097e-05 -0.0044812531962892784 0 -4.6536040572861724e-05 -0.0045290089335205666 0 -4.0101420192365258e-05 -0.004543395685882909 0 -4.2271869596909579e-05 -0.0045357354341331079 0 -4.6536040572861724e-05 -0.0045290089335205666 0 -3.6160622419526292e-05 -0.0045909006010216823 0 -3.6336453070843699e-05 -0.0046284808153975645 0 -2.248264143929708e-05 -0.0046375370026102217 0 -3.6160622419526292e-05 -0.0045909006010216823 0 -3.6336453070843699e-05 -0.0046284808153975645 0 -2.248264143929708e-05 -0.0046375370026102217 0 -3.401850025793644e-05 -0.0046172193910651912 0 -3.6160622419526292e-05 -0.0045909006010216823 0 -2.0065011973256122e-05 -0.0046441532538039213 0 -2.248264143929708e-05 -0.0046375370026102217 0 -3.6336453070843699e-05 -0.0046284808153975645 0 -4.0185100722421373e-05 -0.004484704568854702 0 -2.5993578193553762e-05 -0.0044944871625373396 0 -3.2746863307697656e-05 -0.0044814824616774352 0 -4.0185100722421373e-05 -0.004484704568854702 0 -2.4912555615595702e-05 -0.0044930400349709743 0 -2.5993578193553762e-05 -0.0044944871625373396 0 -2.0065011973256122e-05 -0.0046441532538039213 0 -3.6336453070843699e-05 -0.0046284808153975645 0 -2.2235369039334735e-05 -0.0046469581700722077 0 -4.2271869596909579e-05 -0.0045357354341331079 0 -2.0718768479343329e-05 -0.0046799078793415654 0 -1.0198054467655917e-05 -0.0047839733702174725 0 -2.3289023158466793e-05 -0.0047769487303940339 0 -1.4281027834936431e-05 -0.0048013491895208607 0 -2.0718768479343329e-05 -0.0046799078793415654 0 -2.2924110597623818e-05 -0.0046315321442129166 0 -2.2924110597623818e-05 -0.0046315321442129166 0 -3.3666832500525899e-05 -0.004628217878207299 0 -2.5993578193553762e-05 -0.0044944871625373396 0 -3.2746863307697656e-05 -0.0044814824616774352 0 -1.5581032470513507e-05 -0.0045171058565112625 0 -5.4850685780883095e-05 -0.004476000921075772 0 -3.2746863307697656e-05 -0.0044814824616774352 0 -1.5581032470513507e-05 -0.0045171058565112625 0 -5.4850685780883095e-05 -0.004476000921075772 0 -3.2746863307697656e-05 -0.0044814824616774352 0 -5.0463245405252083e-05 -0.0044588011578109571 0 -6.2882254288557671e-05 -0.0044269807127283465 0 -7.6341647940602722e-05 -0.0044460798963909575 0 -4.9172242411563e-05 -0.0044449152152410175 0 -6.2882254288557671e-05 -0.0044269807127283465 0 -7.6341647940602722e-05 -0.0044460798963909575 0 -0.00012716200960231317 -0.0044401850534791379 0 -5.4850685780883095e-05 -0.004476000921075772 0 -7.6341647940602722e-05 -0.0044460798963909575 0 -5.0463245405252083e-05 -0.0044588011578109571 0 -5.4850685780883095e-05 -0.004476000921075772 0 -0.00012716200960231317 -0.0044401850534791379 0 -6.9927800092315775e-05 -0.0046203062762301345 0 -5.4850685780883095e-05 -0.004476000921075772 0 -7.6341647940602722e-05 -0.0044460798963909575 0 -0.00012716200960231317 -0.0044401850534791379 0 -6.2882254288557671e-05 -0.0044269807127283465 0 -0.00012716200960231317 -0.0044401850534791379 0 -4.9053768256466486e-05 -0.0043675768511782969 0 -2.4470688483891383e-05 -0.004385454999073151 0 1.5665220683316839e-05 -0.0043440951729420401 0 2.3894329863040132e-06 -0.0043119234080508106 0 -4.9053768256466486e-05 -0.0043675768511782969 0 -2.4470688483891383e-05 -0.004385454999073151 0 2.3894329863040132e-06 -0.0043119234080508106 0 -2.4470688483891383e-05 -0.004385454999073151 0 -6.924581597276025e-06 -0.0043924985936298466 0 1.5665220683316839e-05 -0.0043440951729420401 0 -6.2882254288557671e-05 -0.0044269807127283465 0 -2.4470688483891383e-05 -0.004385454999073151 0 -3.3058830783192689e-05 -0.0044293120501827116 0 -6.2882254288557671e-05 -0.0044269807127283465 0 -4.9053768256466486e-05 -0.0043675768511782969 0 -2.4470688483891383e-05 -0.004385454999073151 0 -2.4470688483891383e-05 -0.004385454999073151 0 -3.3058830783192689e-05 -0.0044293120501827116 0 -6.924581597276025e-06 -0.0043924985936298466 0 -3.3058830783192689e-05 -0.0044293120501827116 0 -6.924581597276025e-06 -0.0043924985936298466 0 -3.1552261441156076e-06 -0.0044094587790413052 0 -3.3058830783192689e-05 -0.0044293120501827116 0 -3.1552261441156076e-06 -0.0044094587790413052 0 -1.8899251379162135e-05 -0.0044322633966915742 0 -3.3058830783192689e-05 -0.0044293120501827116 0 -3.5333952184807525e-05 -0.0044612516901927114 0 -1.8899251379162135e-05 -0.0044322633966915742 0 -3.3058830783192689e-05 -0.0044293120501827116 0 -4.9172242411563e-05 -0.0044449152152410175 0 -3.5333952184807525e-05 -0.0044612516901927114 0 -6.2882254288557671e-05 -0.0044269807127283465 0 -3.3058830783192689e-05 -0.0044293120501827116 0 -4.9172242411563e-05 -0.0044449152152410175 0 -7.6341647940602722e-05 -0.0044460798963909575 0 -4.9172242411563e-05 -0.0044449152152410175 0 -5.0463245405252083e-05 -0.0044588011578109571 0 -4.9172242411563e-05 -0.0044449152152410175 0 -5.0463245405252083e-05 -0.0044588011578109571 0 -3.5333952184807525e-05 -0.0044612516901927114 0 -3.7730180165044307e-05 -0.0044869627061628631 0 -5.0463245405252083e-05 -0.0044588011578109571 0 -3.5333952184807525e-05 -0.0044612516901927114 0 -2.7589662749454657e-05 -0.0044971003116621982 0 -3.7730180165044307e-05 -0.0044869627061628631 0 -3.5333952184807525e-05 -0.0044612516901927114 0 -2.7589662749454657e-05 -0.0044971003116621982 0 -3.5333952184807525e-05 -0.0044612516901927114 0 -2.1791744235987733e-05 -0.0044503064458643162 0 -3.5333952184807525e-05 -0.0044612516901927114 0 -2.1791744235987733e-05 -0.0044503064458643162 0 -1.8899251379162135e-05 -0.0044322633966915742 0 -2.7589662749454657e-05 -0.0044971003116621982 0 -2.1791744235987733e-05 -0.0044503064458643162 0 -4.3736695108508902e-06 -0.0044339918358925305 0 -2.1791744235987733e-05 -0.0044503064458643162 0 -4.3736695108508902e-06 -0.0044339918358925305 0 -6.9160286517471273e-06 -0.0044189499202967244 0 -4.2918604644642892e-05 -0.0044832202484844218 0 -3.1377688427181514e-05 -0.0045107499621989964 0 -3.427470223218932e-05 -0.0045232249418068575 0 -1.9426506586345843e-05 -0.0044447428898906982 0 -2.0833907109559181e-05 -0.0044769343385330533 0 -1.0802418341150588e-07 -0.0044045435163108486 0 -4.3736695108508902e-06 -0.0044339918358925305 0 -6.9160286517471273e-06 -0.0044189499202967244 0 8.5372085068423949e-06 -0.0043899345831233377 0 3.7979643667203973e-06 -0.0044024772741679064 0 1.8271152328521626e-06 -0.0044076782536197918 0 3.7895944244105757e-06 -0.0043990346196974596 0 -6.9160286517471273e-06 -0.0044189499202967244 0 3.7979643667203973e-06 -0.0044024772741679064 0 -6.9160286517471273e-06 -0.0044189499202967244 0 3.7979643667203973e-06 -0.0044024772741679064 0 1.8271152328521626e-06 -0.0044076782536197918 0 -6.9160286517471273e-06 -0.0044189499202967244 0 1.8271152328521626e-06 -0.0044076782536197918 0 -1.1497266734447924e-05 -0.0044285920382217299 0 -2.1791744235987733e-05 -0.0044503064458643162 0 -6.9160286517471273e-06 -0.0044189499202967244 0 -1.1497266734447924e-05 -0.0044285920382217299 0 1.8271152328521626e-06 -0.0044076782536197918 0 -2.8205981968984525e-06 -0.0044175222050499997 0 -1.1497266734447924e-05 -0.0044285920382217299 0 -2.8205981968984525e-06 -0.0044175222050499997 0 -1.1497266734447924e-05 -0.0044285920382217299 0 -1.8899251379162135e-05 -0.0044322633966915742 0 -2.1791744235987733e-05 -0.0044503064458643162 0 -1.1497266734447924e-05 -0.0044285920382217299 0 -1.8899251379162135e-05 -0.0044322633966915742 0 -3.1552261441156076e-06 -0.0044094587790413052 0 -2.8205981968984525e-06 -0.0044175222050499997 0 -1.8899251379162135e-05 -0.0044322633966915742 0 -3.1552261441156076e-06 -0.0044094587790413052 0 -2.8205981968984525e-06 -0.0044175222050499997 0 9.7020014497438043e-06 -0.0044046101982007204 0 -3.1552261441156076e-06 -0.0044094587790413052 0 9.7020014497438043e-06 -0.0044046101982007204 0 1.7683887983028772e-05 -0.0043897091626651421 0 9.7020014497438043e-06 -0.0044046101982007204 0 2.5155186880328163e-05 -0.0043912219506471945 0 1.7683887983028772e-05 -0.0043897091626651421 0 9.7020014497438043e-06 -0.0044046101982007204 0 2.5155186880328163e-05 -0.0043912219506471945 0 1.7577283389165807e-05 -0.0043994889644549734 0 9.7020014497438043e-06 -0.0044046101982007204 0 1.7577283389165807e-05 -0.0043994889644549734 0 8.1389353787466709e-06 -0.0044033491215554462 0 -2.8205981968984525e-06 -0.0044175222050499997 0 9.7020014497438043e-06 -0.0044046101982007204 0 8.1389353787466709e-06 -0.0044033491215554462 0 1.8271152328521626e-06 -0.0044076782536197918 0 -2.8205981968984525e-06 -0.0044175222050499997 0 8.1389353787466709e-06 -0.0044033491215554462 0 1.8271152328521626e-06 -0.0044076782536197918 0 8.1389353787466709e-06 -0.0044033491215554462 0 6.9087672819589438e-06 -0.0043919993327792874 0 1.7577283389165807e-05 -0.0043994889644549734 0 8.1389353787466709e-06 -0.0044033491215554462 0 1.0980550314578546e-05 -0.0043853595971991149 0 1.9942381034682048e-06 -0.004371316084298733 0 6.9087672819589438e-06 -0.0043919993327792874 0 1.0980550314578546e-05 -0.0043853595971991149 0 8.1389353787466709e-06 -0.0044033491215554462 0 6.9087672819589438e-06 -0.0043919993327792874 0 1.0980550314578546e-05 -0.0043853595971991149 0 8.5372085068423949e-06 -0.0043899345831233377 0 1.8271152328521626e-06 -0.0044076782536197918 0 6.9087672819589438e-06 -0.0043919993327792874 0 3.9617124799002794e-05 -0.0043070066433500646 0 -2.5625708305946611e-07 -0.0043581824368417238 0 2.6906606755506064e-05 -0.0042392657785675298 0 2.9440089305373974e-05 -0.0043466239751139748 0 3.9617124799002794e-05 -0.0043070066433500646 0 -2.5625708305946611e-07 -0.0043581824368417238 0 3.7688801105919571e-06 -0.0043516768818468521 0 2.9759108486767442e-05 -0.0043187030510720816 0 -2.5625708305946611e-07 -0.0043581824368417238 0 1.0980550314578546e-05 -0.0043853595971991149 0 2.5472200809516564e-05 -0.0043991824679162697 0 1.9942381034682048e-06 -0.004371316084298733 0 -2.5625708305946611e-07 -0.0043581824368417238 0 1.0980550314578546e-05 -0.0043853595971991149 0 1.7577283389165807e-05 -0.0043994889644549734 0 1.0980550314578546e-05 -0.0043853595971991149 0 2.5472200809516564e-05 -0.0043991824679162697 0 7.3910147722535785e-05 -0.0042717198686653482 0 3.9617124799002794e-05 -0.0043070066433500646 0 2.6906606755506064e-05 -0.0042392657785675298 0 8.1823245393088437e-05 -0.0042839237584272197 0 2.9759108486767442e-05 -0.0043187030510720816 0 7.0891904402519369e-05 -0.004390646148884611 0 2.5472200809516564e-05 -0.0043991824679162697 0 3.5696594130979568e-05 -0.0043932737619298669 0 1.7577283389165807e-05 -0.0043994889644549734 0 2.5472200809516564e-05 -0.0043991824679162697 0 3.5696594130979568e-05 -0.0043932737619298669 0 2.5155186880328163e-05 -0.0043912219506471945 0 1.7577283389165807e-05 -0.0043994889644549734 0 3.5696594130979568e-05 -0.0043932737619298669 0 2.5155186880328163e-05 -0.0043912219506471945 0 3.5696594130979568e-05 -0.0043932737619298669 0 5.2862715207385811e-05 -0.0043726359366202351 0 7.0891904402519369e-05 -0.004390646148884611 0 3.5696594130979568e-05 -0.0043932737619298669 0 5.2862715207385811e-05 -0.0043726359366202351 0 0.00011081586324373984 -0.0043480053331321723 0 5.2862715207385811e-05 -0.0043726359366202351 0 6.6807856395017861e-05 -0.0043328545428060871 0 6.6807856395017861e-05 -0.0043328545428060871 0 5.1780584735885731e-05 -0.0043345185370442778 0 3.780756729829097e-05 -0.0043657305563480761 0 5.2862715207385811e-05 -0.0043726359366202351 0 6.6807856395017861e-05 -0.0043328545428060871 0 3.780756729829097e-05 -0.0043657305563480761 0 2.5155186880328163e-05 -0.0043912219506471945 0 5.2862715207385811e-05 -0.0043726359366202351 0 3.780756729829097e-05 -0.0043657305563480761 0 3.780756729829097e-05 -0.0043657305563480761 0 1.7683887983028772e-05 -0.0043897091626651421 0 2.2072503618842926e-05 -0.0043669004461066143 0 2.5155186880328163e-05 -0.0043912219506471945 0 3.780756729829097e-05 -0.0043657305563480761 0 1.7683887983028772e-05 -0.0043897091626651421 0 -3.1552261441156076e-06 -0.0044094587790413052 0 1.7683887983028772e-05 -0.0043897091626651421 0 2.2072503618842926e-05 -0.0043669004461066143 0 -6.924581597276025e-06 -0.0043924985936298466 0 -3.1552261441156076e-06 -0.0044094587790413052 0 2.2072503618842926e-05 -0.0043669004461066143 0 5.1780584735885731e-05 -0.0043345185370442778 0 3.780756729829097e-05 -0.0043657305563480761 0 2.2072503618842926e-05 -0.0043669004461066143 0 2.2072503618842926e-05 -0.0043669004461066143 0 1.5665220683316839e-05 -0.0043440951729420401 0 5.0491770028824139e-05 -0.0043110013255031731 0 5.1780584735885731e-05 -0.0043345185370442778 0 2.2072503618842926e-05 -0.0043669004461066143 0 5.0491770028824139e-05 -0.0043110013255031731 0 -6.924581597276025e-06 -0.0043924985936298466 0 2.2072503618842926e-05 -0.0043669004461066143 0 1.5665220683316839e-05 -0.0043440951729420401 0 1.5665220683316839e-05 -0.0043440951729420401 0 4.2423538412603784e-05 -0.0042783996167566904 0 2.3894329863040132e-06 -0.0043119234080508106 0 1.5665220683316839e-05 -0.0043440951729420401 0 5.0491770028824139e-05 -0.0043110013255031731 0 4.2423538412603784e-05 -0.0042783996167566904 0 5.0491770028824139e-05 -0.0043110013255031731 0 8.8656086091844536e-05 -0.0042846581196788703 0 7.5943274447670225e-05 -0.0042540909966464219 0 0.0001059277303071586 -0.00429281999521535 0 6.6807856395017861e-05 -0.0043328545428060871 0 8.8656086091844536e-05 -0.0042846581196788703 0 5.1780584735885731e-05 -0.0043345185370442778 0 5.0491770028824139e-05 -0.0043110013255031731 0 8.8656086091844536e-05 -0.0042846581196788703 0 6.6807856395017861e-05 -0.0043328545428060871 0 5.1780584735885731e-05 -0.0043345185370442778 0 8.8656086091844536e-05 -0.0042846581196788703 0 9.1706104909362372e-05 -0.00422215230044323 0 7.5943274447670225e-05 -0.0042540909966464219 0 8.2610170422472518e-05 -0.0042082685806057027 0 9.1706104909362372e-05 -0.00422215230044323 0 9.7438557125747525e-05 -0.0042411432929449558 0 7.5943274447670225e-05 -0.0042540909966464219 0 7.5943274447670225e-05 -0.0042540909966464219 0 5.5568577995188475e-05 -0.0042293590223331469 0 8.2610170422472518e-05 -0.0042082685806057027 0 9.1706104909362372e-05 -0.00422215230044323 0 0.00010678633313171741 -0.0042169704557282837 0 9.2357280444176423e-05 -0.0041986371487362333 0 9.1706104909362372e-05 -0.00422215230044323 0 0.00010678633313171741 -0.0042169704557282837 0 9.7438557125747525e-05 -0.0042411432929449558 0 0.0001181461948721481 -0.004245456259814792 0 8.8656086091844536e-05 -0.0042846581196788703 0 9.7438557125747525e-05 -0.0042411432929449558 0 8.8656086091844536e-05 -0.0042846581196788703 0 9.7438557125747525e-05 -0.0042411432929449558 0 7.5943274447670225e-05 -0.0042540909966464219 0 7.5943274447670225e-05 -0.0042540909966464219 0 4.2423538412603784e-05 -0.0042783996167566904 0 5.5568577995188475e-05 -0.0042293590223331469 0 5.0491770028824139e-05 -0.0043110013255031731 0 7.5943274447670225e-05 -0.0042540909966464219 0 4.2423538412603784e-05 -0.0042783996167566904 0 4.2423538412603784e-05 -0.0042783996167566904 0 1.7628322301153107e-05 -0.0042230175176619696 0 2.3894329863040132e-06 -0.0043119234080508106 0 1.7628322301153107e-05 -0.0042230175176619696 0 5.5568577995188475e-05 -0.0042293590223331469 0 5.1567057891447268e-05 -0.0041782321820508358 0 4.2423538412603784e-05 -0.0042783996167566904 0 1.7628322301153107e-05 -0.0042230175176619696 0 5.5568577995188475e-05 -0.0042293590223331469 0 5.1567057891447268e-05 -0.0041782321820508358 0 9.1400684481196548e-05 -0.0041674159746259718 0 8.2610170422472518e-05 -0.0042082685806057027 0 5.5568577995188475e-05 -0.0042293590223331469 0 5.1567057891447268e-05 -0.0041782321820508358 0 8.2610170422472518e-05 -0.0042082685806057027 0 1.7628322301153107e-05 -0.0042230175176619696 0 5.1567057891447268e-05 -0.0041782321820508358 0 -7.6708236479944152e-06 -0.0041431293080865638 0 -3.3081037848559457e-06 -0.0040267535133819594 0 -4.1920372003372759e-06 -0.0040361512299468679 0 5.1567057891447268e-05 -0.0041782321820508358 0 4.475580459379836e-05 -0.0041295937492374247 0 -7.6708236479944152e-06 -0.0041431293080865638 0 5.1567057891447268e-05 -0.0041782321820508358 0 8.413446621290253e-05 -0.0041365895759943525 0 9.1400684481196548e-05 -0.0041674159746259718 0 4.475580459379836e-05 -0.0041295937492374247 0 8.413446621290253e-05 -0.0041365895759943525 0 0.0001127421718718079 -0.0040931019980703564 0 5.1567057891447268e-05 -0.0041782321820508358 0 4.475580459379836e-05 -0.0041295937492374247 0 8.413446621290253e-05 -0.0041365895759943525 0 8.413446621290253e-05 -0.0041365895759943525 0 0.00011672602704220809 -0.0041410545089341118 0 0.0001127421718718079 -0.0040931019980703564 0 8.413446621290253e-05 -0.0041365895759943525 0 0.00011672602704220809 -0.0041410545089341118 0 9.1400684481196548e-05 -0.0041674159746259718 0 9.1400684481196548e-05 -0.0041674159746259718 0 8.2610170422472518e-05 -0.0042082685806057027 0 0.00012733390114205584 -0.0041790567106081145 0 0.00011672602704220809 -0.0041410545089341118 0 9.1400684481196548e-05 -0.0041674159746259718 0 0.00012733390114205584 -0.0041790567106081145 0 9.1706104909362372e-05 -0.00422215230044323 0 8.2610170422472518e-05 -0.0042082685806057027 0 9.2357280444176423e-05 -0.0041986371487362333 0 0.00011236306401649014 -0.0041869171070863347 0 9.7597537171166388e-06 -0.0042281050770764505 0 0.00010678633313171741 -0.0042169704557282837 0 9.2357280444176423e-05 -0.0041986371487362333 0 0.00011071173338141173 -0.0041814659729773936 0 9.7597537171166388e-06 -0.0042281050770764505 0 0.000370271418899539 -0.0032954632796876404 0 0.000370271418899539 -0.0032954632796876404 0 9.7757073047773037e-05 -0.00366869960914233 0 0.00011672602704220809 -0.0041410545089341118 0 0.00012733390114205584 -0.0041790567106081145 0 0.00016618274325675604 -0.00414895786523428 0 0.00011672602704220809 -0.0041410545089341118 0 0.00016618274325675604 -0.00414895786523428 0 0.0001127421718718079 -0.0040931019980703564 0 0.00029194916458377711 -0.0031243702767046748 0 0.00028808028520390901 -0.0031835985964299793 0 0.00021841360442473334 -0.003106840382853613 0 -8.8149205541532673e-05 -0.0037144800295188223 0 -4.5995857076671268e-05 -0.0037553487173070275 0 -6.6336562625601297e-05 -0.0037398181969447797 0 0.00030503406567138752 -0.0030706714237909143 0 0.00029194916458377711 -0.0031243702767046748 0 0.00021841360442473334 -0.003106840382853613 0 0.00011687791369103872 -0.0033665078789904801 0 9.7757073047773037e-05 -0.00366869960914233 0 -4.5995857076671268e-05 -0.0037553487173070275 0 -4.9456064604409146e-05 -0.0037577403090828894 0 -6.6336562625601297e-05 -0.0037398181969447797 0 -1.9049535425838713e-06 -0.0038386962720181536 0 -4.1834175698990011e-05 -0.0037602670272208964 0 -4.0883866443123969e-05 -0.0037623756864927122 0 -4.5995857076671268e-05 -0.0037553487173070275 0 -4.0883866443123969e-05 -0.0037623756864927122 0 -4.9456064604409146e-05 -0.0037577403090828894 0 9.7757073047773037e-05 -0.00366869960914233 0 8.4421717172645974e-05 -0.0036731859853599705 0 -4.0883866443123969e-05 -0.0037623756864927122 0 -4.1016732214374461e-05 -0.0037676337490211691 0 -4.9456064604409146e-05 -0.0037577403090828894 0 -4.0883866443123969e-05 -0.0037623756864927122 0 -4.1016732214374461e-05 -0.0037676337490211691 0 -2.7952273226660582e-05 -0.0037857144743339505 0 -4.1016732214374461e-05 -0.0037676337490211691 0 -4.6275613628310958e-05 -0.0037640866151317917 0 -2.7952273226660582e-05 -0.0037857144743339505 0 -4.9456064604409146e-05 -0.0037577403090828894 0 -4.6275613628310958e-05 -0.0037640866151317917 0 -6.055186983556463e-05 -0.003748574234404028 0 -4.1016732214374461e-05 -0.0037676337490211691 0 -4.9456064604409146e-05 -0.0037577403090828894 0 -4.6275613628310958e-05 -0.0037640866151317917 0 -4.6275613628310958e-05 -0.0037640866151317917 0 -6.055186983556463e-05 -0.003748574234404028 0 -6.3255571978964846e-05 -0.0037487170298603632 0 -4.9569595676251685e-05 -0.0037633179985870698 0 -4.6275613628310958e-05 -0.0037640866151317917 0 -6.3255571978964846e-05 -0.0037487170298603632 0 -4.6275613628310958e-05 -0.0037640866151317917 0 -3.5199680560322025e-05 -0.0037792775913060225 0 -2.7952273226660582e-05 -0.0037857144743339505 0 -4.9569595676251685e-05 -0.0037633179985870698 0 -4.6275613628310958e-05 -0.0037640866151317917 0 -3.5199680560322025e-05 -0.0037792775913060225 0 -8.8149205541532673e-05 -0.0037144800295188223 0 -6.6336562625601297e-05 -0.0037398181969447797 0 -7.7604277398416287e-05 -0.0037318836433690408 0 -4.9456064604409146e-05 -0.0037577403090828894 0 -6.6336562625601297e-05 -0.0037398181969447797 0 -6.055186983556463e-05 -0.003748574234404028 0 -6.6336562625601297e-05 -0.0037398181969447797 0 -6.055186983556463e-05 -0.003748574234404028 0 -7.7604277398416287e-05 -0.0037318836433690408 0 -6.055186983556463e-05 -0.003748574234404028 0 -7.7604277398416287e-05 -0.0037318836433690408 0 -6.3255571978964846e-05 -0.0037487170298603632 0 -9.9066722491695394e-05 -0.0037025972767820857 0 -7.7604277398416287e-05 -0.0037318836433690408 0 -8.9654683912477343e-05 -0.0037238162070689714 0 -7.0678842546554284e-05 -0.0037449981847119495 0 -6.2488392556776407e-05 -0.0037632210132117474 0 -7.9637464558885335e-05 -0.0037418527195256022 0 -8.9654683912477343e-05 -0.0037238162070689714 0 -7.0678842546554284e-05 -0.0037449981847119495 0 -7.9637464558885335e-05 -0.0037418527195256022 0 -7.7604277398416287e-05 -0.0037318836433690408 0 -8.9654683912477343e-05 -0.0037238162070689714 0 -7.0678842546554284e-05 -0.0037449981847119495 0 -7.7604277398416287e-05 -0.0037318836433690408 0 -7.0678842546554284e-05 -0.0037449981847119495 0 -6.3255571978964846e-05 -0.0037487170298603632 0 -3.5199680560322025e-05 -0.0037792775913060225 0 -5.1676755332362701e-05 -0.0037645720848285087 0 -2.4157472893687909e-05 -0.0037949691708478667 0 -7.0678842546554284e-05 -0.0037449981847119495 0 -6.3255571978964846e-05 -0.0037487170298603632 0 -5.1676755332362701e-05 -0.0037645720848285087 0 -4.9569595676251685e-05 -0.0037633179985870698 0 -6.3255571978964846e-05 -0.0037487170298603632 0 -5.1676755332362701e-05 -0.0037645720848285087 0 -5.1676755332362701e-05 -0.0037645720848285087 0 -4.0790780824250479e-05 -0.0037866812042869394 0 -2.4157472893687909e-05 -0.0037949691708478667 0 -4.9569595676251685e-05 -0.0037633179985870698 0 -3.5199680560322025e-05 -0.0037792775913060225 0 -5.1676755332362701e-05 -0.0037645720848285087 0 -7.0678842546554284e-05 -0.0037449981847119495 0 -5.1676755332362701e-05 -0.0037645720848285087 0 -6.2488392556776407e-05 -0.0037632210132117474 0 -6.2488392556776407e-05 -0.0037632210132117474 0 -4.0790780824250479e-05 -0.0037866812042869394 0 -5.5356095849739512e-05 -0.003785117672861809 0 -5.1676755332362701e-05 -0.0037645720848285087 0 -6.2488392556776407e-05 -0.0037632210132117474 0 -4.0790780824250479e-05 -0.0037866812042869394 0 -4.0790780824250479e-05 -0.0037866812042869394 0 -5.5356095849739512e-05 -0.003785117672861809 0 -3.5355492862902566e-05 -0.0038191718727265248 0 -6.2488392556776407e-05 -0.0037632210132117474 0 -5.5356095849739512e-05 -0.003785117672861809 0 -7.5706108698314831e-05 -0.0037621248167365399 0 -7.5706108698314831e-05 -0.0037621248167365399 0 -9.8000562283355534e-05 -0.0037300687741692153 0 -7.9637464558885335e-05 -0.0037418527195256022 0 -7.5706108698314831e-05 -0.0037621248167365399 0 -9.8000562283355534e-05 -0.0037300687741692153 0 -9.2749509074099745e-05 -0.0037497556870549477 0 -9.8000562283355534e-05 -0.0037300687741692153 0 -0.00011432603930392757 -0.0037302452986870994 0 -0.00012153904912463968 -0.0036994712550182419 0 -8.9654683912477343e-05 -0.0037238162070689714 0 -9.8000562283355534e-05 -0.0037300687741692153 0 -7.9637464558885335e-05 -0.0037418527195256022 0 -0.00010634194676158458 -0.0037031566969016141 0 -8.9654683912477343e-05 -0.0037238162070689714 0 -9.8000562283355534e-05 -0.0037300687741692153 0 -6.2488392556776407e-05 -0.0037632210132117474 0 -7.5706108698314831e-05 -0.0037621248167365399 0 -7.9637464558885335e-05 -0.0037418527195256022 0 7.9877739127533443e-07 -0.003832838868628119 0 -1.6110557404319434e-05 -0.0038126951074162123 0 -3.8148247650314031e-06 -0.0038267910007157278 0 7.9877739127533443e-07 -0.003832838868628119 0 -1.6110557404319434e-05 -0.0038126951074162123 0 -9.4554012117875954e-06 -0.0038402214938955122 0 -4.0790780824250479e-05 -0.0037866812042869394 0 -1.6110557404319434e-05 -0.0038126951074162123 0 -3.5355492862902566e-05 -0.0038191718727265248 0 -4.0790780824250479e-05 -0.0037866812042869394 0 -1.6110557404319434e-05 -0.0038126951074162123 0 -2.4157472893687909e-05 -0.0037949691708478667 0 -1.6110557404319434e-05 -0.0038126951074162123 0 -2.4157472893687909e-05 -0.0037949691708478667 0 -3.8148247650314031e-06 -0.0038267910007157278 0 -2.4157472893687909e-05 -0.0037949691708478667 0 -3.8148247650314031e-06 -0.0038267910007157278 0 -1.3574631191650375e-05 -0.003810236907124928 0 -3.8148247650314031e-06 -0.0038267910007157278 0 -1.3574631191650375e-05 -0.003810236907124928 0 -4.4124178241253479e-06 -0.0038582405799535806 0 -3.5199680560322025e-05 -0.0037792775913060225 0 -2.4157472893687909e-05 -0.0037949691708478667 0 -1.3574631191650375e-05 -0.003810236907124928 0 -3.5199680560322025e-05 -0.0037792775913060225 0 -1.3574631191650375e-05 -0.003810236907124928 0 -2.7952273226660582e-05 -0.0037857144743339505 0 -1.9049535425838713e-06 -0.0038386962720181536 0 -1.3574631191650375e-05 -0.003810236907124928 0 -2.7952273226660582e-05 -0.0037857144743339505 0 -3.3081037848559457e-06 -0.0040267535133819594 0 9.7757073047773037e-05 -0.00366869960914233 0 -1.9049535425838713e-06 -0.0038386962720181536 0 -4.0883866443123969e-05 -0.0037623756864927122 0 -2.7952273226660582e-05 -0.0037857144743339505 0 -1.9049535425838713e-06 -0.0038386962720181536 0 -1.3574631191650375e-05 -0.003810236907124928 0 -4.4124178241253479e-06 -0.0038582405799535806 0 -4.4124178241253479e-06 -0.0038582405799535806 0 -4.5685525520413658e-05 -0.0038998055812819702 0 3.6390388612767532e-06 -0.0039401697224613098 0 -4.4124178241253479e-06 -0.0038582405799535806 0 -1.7643556572339547e-05 -0.0038520084284585725 0 -4.5685525520413658e-05 -0.0038998055812819702 0 -3.8148247650314031e-06 -0.0038267910007157278 0 -4.4124178241253479e-06 -0.0038582405799535806 0 -1.7643556572339547e-05 -0.0038520084284585725 0 -3.8148247650314031e-06 -0.0038267910007157278 0 -1.7643556572339547e-05 -0.0038520084284585725 0 7.8634450644901186e-06 -0.003847008917688491 0 -1.7643556572339547e-05 -0.0038520084284585725 0 7.8634450644901186e-06 -0.003847008917688491 0 -7.2647906266936293e-07 -0.0038550593282115704 0 7.9877739127533443e-07 -0.003832838868628119 0 -3.8148247650314031e-06 -0.0038267910007157278 0 7.8634450644901186e-06 -0.003847008917688491 0 -5.2267434128026055e-05 -0.0038559940566546013 0 -3.5851963323983116e-05 -0.0038591914033139683 0 -2.1924073459103335e-05 -0.0038467168993147928 0 -1.7643556572339547e-05 -0.0038520084284585725 0 -3.5851963323983116e-05 -0.0038591914033139683 0 -7.2647906266936293e-07 -0.0038550593282115704 0 -1.7643556572339547e-05 -0.0038520084284585725 0 -3.5851963323983116e-05 -0.0038591914033139683 0 -6.2004318467815539e-05 -0.0038751631026928651 0 -3.5851963323983116e-05 -0.0038591914033139683 0 -6.2004318467815539e-05 -0.0038751631026928651 0 -8.3973385873974067e-05 -0.0038738153352585103 0 -5.2267434128026055e-05 -0.0038559940566546013 0 -3.5851963323983116e-05 -0.0038591914033139683 0 -8.3973385873974067e-05 -0.0038738153352585103 0 -6.2004318467815539e-05 -0.0038751631026928651 0 -0.00012861646696244369 -0.0039173663679363977 0 -8.3973385873974067e-05 -0.0038738153352585103 0 -1.7643556572339547e-05 -0.0038520084284585725 0 -6.2004318467815539e-05 -0.0038751631026928651 0 -4.5685525520413658e-05 -0.0038998055812819702 0 -6.2004318467815539e-05 -0.0038751631026928651 0 -4.5685525520413658e-05 -0.0038998055812819702 0 -0.00012861646696244369 -0.0039173663679363977 0 -4.5685525520413658e-05 -0.0038998055812819702 0 -0.00012861646696244369 -0.0039173663679363977 0 -8.4163001232875171e-05 -0.003977672140160214 0 -0.00012861646696244369 -0.0039173663679363977 0 -0.00017357202567097057 -0.0040460298514806694 0 -8.4163001232875171e-05 -0.003977672140160214 0 -6.7428179051895535e-05 -0.004373457991027169 0 -6.9557918866044083e-05 -0.0043800349663184338 0 -6.9391683441837182e-05 -0.0043750705423906472 0 -9.9852686192137635e-05 -0.0041225521098340245 0 -0.00012341399863879748 -0.0043539359168211214 0 -0.00010890653923897905 -0.0048157985998483581 0 -0.00014969635255912886 -0.00470625369376995 0 -7.8080587524525637e-05 -0.0047609483272731956 0 -0.00017357202567097057 -0.0040460298514806694 0 -8.8875610673663417e-05 -0.0040972692083836625 0 -0.00015847977252933952 -0.0041619020594038936 0 -0.00012341399863879748 -0.0043539359168211214 0 -0.0001606704168036814 -0.0044878497630989733 0 -0.00020098998287693286 -0.0040647833578816833 0 -0.00018078421499061106 -0.0042353099681919273 0 -0.00015847977252933952 -0.0041619020594038936 0 -0.00012341399863879748 -0.0043539359168211214 0 -0.00020112077771388716 -0.0040675057329445244 0 -8.8875610673663417e-05 -0.0040972692083836625 0 -3.01717828279435e-05 -0.0041853742982107048 0 -8.9678805701050518e-05 -0.0042064743148131217 0 -8.8875610673663417e-05 -0.0040972692083836625 0 -0.00015847977252933952 -0.0041619020594038936 0 -8.9678805701050518e-05 -0.0042064743148131217 0 -0.00017357202567097057 -0.0040460298514806694 0 -8.8875610673663417e-05 -0.0040972692083836625 0 -8.4163001232875171e-05 -0.003977672140160214 0 -4.5685525520413658e-05 -0.0038998055812819702 0 -8.4163001232875171e-05 -0.003977672140160214 0 3.6390388612767532e-06 -0.0039401697224613098 0 -8.8875610673663417e-05 -0.0040972692083836625 0 -8.4163001232875171e-05 -0.003977672140160214 0 3.6390388612767532e-06 -0.0039401697224613098 0 -1.9049535425838713e-06 -0.0038386962720181536 0 -4.4124178241253479e-06 -0.0038582405799535806 0 3.6390388612767532e-06 -0.0039401697224613098 0 1.7628322301153107e-05 -0.0042230175176619696 0 -7.6708236479944152e-06 -0.0041431293080865638 0 -3.01717828279435e-05 -0.0041853742982107048 0 -9.6135355619707998e-05 -0.0040982238311861536 0 -4.1920372003372759e-06 -0.0040361512299468679 0 -8.8875610673663417e-05 -0.0040972692083836625 0 -7.6708236479944152e-06 -0.0041431293080865638 0 -3.01717828279435e-05 -0.0041853742982107048 0 -3.01717828279435e-05 -0.0041853742982107048 0 -2.7258686368907513e-05 -0.0042654459989909703 0 -8.9678805701050518e-05 -0.0042064743148131217 0 -2.7258686368907513e-05 -0.0042654459989909703 0 -8.5155566075395645e-05 -0.0043048656503386412 0 -8.9678805701050518e-05 -0.0042064743148131217 0 1.7628322301153107e-05 -0.0042230175176619696 0 -3.01717828279435e-05 -0.0041853742982107048 0 -2.7258686368907513e-05 -0.0042654459989909703 0 1.7628322301153107e-05 -0.0042230175176619696 0 2.3894329863040132e-06 -0.0043119234080508106 0 -2.7258686368907513e-05 -0.0042654459989909703 0 -4.9053768256466486e-05 -0.0043675768511782969 0 2.3894329863040132e-06 -0.0043119234080508106 0 -2.7258686368907513e-05 -0.0042654459989909703 0 -4.9053768256466486e-05 -0.0043675768511782969 0 -2.7258686368907513e-05 -0.0042654459989909703 0 -8.5155566075395645e-05 -0.0043048656503386412 0 -0.00012716200960231317 -0.0044401850534791379 0 -4.9053768256466486e-05 -0.0043675768511782969 0 -8.5155566075395645e-05 -0.0043048656503386412 0 -0.00012716200960231317 -0.0044401850534791379 0 -8.5155566075395645e-05 -0.0043048656503386412 0 -0.00018078421499061106 -0.0042353099681919273 0 -0.0001355295233425488 -0.0044402713280167604 0 -0.0001606704168036814 -0.0044878497630989733 0 -0.00012716200960231317 -0.0044401850534791379 0 -6.9927800092315775e-05 -0.0046203062762301345 0 -0.00014969635255912886 -0.00470625369376995 0 -6.9927800092315775e-05 -0.0046203062762301345 0 -0.00014969635255912886 -0.00470625369376995 0 -7.9983457752704119e-05 -0.0047047568579943015 0 -0.00014969635255912886 -0.00470625369376995 0 -7.8080587524525637e-05 -0.0047609483272731956 0 -7.9983457752704119e-05 -0.0047047568579943015 0 -0.00018078421499061106 -0.0042353099681919273 0 -0.00015847977252933952 -0.0041619020594038936 0 -8.9678805701050518e-05 -0.0042064743148131217 0 -8.5155566075395645e-05 -0.0043048656503386412 0 -0.00018078421499061106 -0.0042353099681919273 0 -8.9678805701050518e-05 -0.0042064743148131217 0 -2.9807770591153148e-05 -0.004759114960037481 0 -2.0663299231447185e-05 -0.0048017442338449193 0 -3.8435405470019824e-05 -0.0047851017169001199 0 -2.9807770591153148e-05 -0.004759114960037481 0 -4.2593521236718918e-05 -0.0047217978225441186 0 -3.8435405470019824e-05 -0.0047851017169001199 0 -7.8080587524525637e-05 -0.0047609483272731956 0 -4.2593521236718918e-05 -0.0047217978225441186 0 -3.8435405470019824e-05 -0.0047851017169001199 0 -6.9927800092315775e-05 -0.0046203062762301345 0 -7.9983457752704119e-05 -0.0047047568579943015 0 -4.2593521236718918e-05 -0.0047217978225441186 0 -7.8080587524525637e-05 -0.0047609483272731956 0 -7.9983457752704119e-05 -0.0047047568579943015 0 -4.2593521236718918e-05 -0.0047217978225441186 0 -5.4850685780883095e-05 -0.004476000921075772 0 -6.9927800092315775e-05 -0.0046203062762301345 0 -1.5581032470513507e-05 -0.0045171058565112625 0 -6.9927800092315775e-05 -0.0046203062762301345 0 -4.2593521236718918e-05 -0.0047217978225441186 0 -3.0566087357310098e-05 -0.0047344349097835949 0 -7.5128044507650403e-05 -0.0046284675511681257 0 -3.3666832500525899e-05 -0.004628217878207299 0 -2.9807770591153148e-05 -0.004759114960037481 0 -4.2593521236718918e-05 -0.0047217978225441186 0 -3.0566087357310098e-05 -0.0047344349097835949 0 -2.9807770591153148e-05 -0.004759114960037481 0 -3.0566087357310098e-05 -0.0047344349097835949 0 -2.192503215003325e-05 -0.0047799676263293213 0 -2.3289023158466793e-05 -0.0047769487303940339 0 -3.0566087357310098e-05 -0.0047344349097835949 0 -2.192503215003325e-05 -0.0047799676263293213 0 -2.3289023158466793e-05 -0.0047769487303940339 0 -2.192503215003325e-05 -0.0047799676263293213 0 -1.4281027834936431e-05 -0.0048013491895208607 0 -2.192503215003325e-05 -0.0047799676263293213 0 -1.4281027834936431e-05 -0.0048013491895208607 0 -8.5721464667131766e-06 -0.0048280149077942819 0 -2.192503215003325e-05 -0.0047799676263293213 0 -8.5721464667131766e-06 -0.0048280149077942819 0 -2.0663299231447185e-05 -0.0048017442338449193 0 -2.9807770591153148e-05 -0.004759114960037481 0 -2.192503215003325e-05 -0.0047799676263293213 0 -2.0663299231447185e-05 -0.0048017442338449193 0 -2.0663299231447185e-05 -0.0048017442338449193 0 -1.120546894319411e-05 -0.0048377482942857314 0 -3.2191781499249629e-05 -0.0048369668975697831 0 -8.5721464667131766e-06 -0.0048280149077942819 0 -2.0663299231447185e-05 -0.0048017442338449193 0 -1.120546894319411e-05 -0.0048377482942857314 0 -8.5721464667131766e-06 -0.0048280149077942819 0 -1.120546894319411e-05 -0.0048377482942857314 0 -1.8743951202883265e-06 -0.0048577675748150799 0 -1.120546894319411e-05 -0.0048377482942857314 0 -2.0880083586193842e-06 -0.0048642757835548984 0 -1.8743951202883265e-06 -0.0048577675748150799 0 -1.120546894319411e-05 -0.0048377482942857314 0 -2.0880083586193842e-06 -0.0048642757835548984 0 -1.4889196145554039e-05 -0.0048680234862816148 0 -1.120546894319411e-05 -0.0048377482942857314 0 -3.2191781499249629e-05 -0.0048369668975697831 0 -1.4889196145554039e-05 -0.0048680234862816148 0 -2.0663299231447185e-05 -0.0048017442338449193 0 -3.2191781499249629e-05 -0.0048369668975697831 0 -3.8435405470019824e-05 -0.0047851017169001199 0 -3.2191781499249629e-05 -0.0048369668975697831 0 -3.8435405470019824e-05 -0.0047851017169001199 0 -6.055500417789082e-05 -0.0048155299812265035 0 -0.00010890653923897905 -0.0048157985998483581 0 -7.8080587524525637e-05 -0.0047609483272731956 0 -6.055500417789082e-05 -0.0048155299812265035 0 -7.8080587524525637e-05 -0.0047609483272731956 0 -3.8435405470019824e-05 -0.0047851017169001199 0 -6.055500417789082e-05 -0.0048155299812265035 0 -0.00010890653923897905 -0.0048157985998483581 0 -6.055500417789082e-05 -0.0048155299812265035 0 -6.868138747605435e-05 -0.0048626234926010372 0 -0.00012341399863879748 -0.0043539359168211214 0 -5.5869984383630893e-05 -0.0046650275928096386 0 -3.2191781499249629e-05 -0.0048369668975697831 0 -6.055500417789082e-05 -0.0048155299812265035 0 -6.868138747605435e-05 -0.0048626234926010372 0 -6.7428179051895535e-05 -0.004373457991027169 0 -6.9391683441837182e-05 -0.0043750705423906472 0 -7.3549685537323343e-05 -0.0043664404003899409 0 -6.868138747605435e-05 -0.0048626234926010372 0 -3.6762497912401079e-05 -0.0048694118728227114 0 -4.5174325231996883e-05 -0.0048869328038865269 0 -3.2191781499249629e-05 -0.0048369668975697831 0 -6.868138747605435e-05 -0.0048626234926010372 0 -3.6762497912401079e-05 -0.0048694118728227114 0 -3.6762497912401079e-05 -0.0048694118728227114 0 -4.5174325231996883e-05 -0.0048869328038865269 0 -2.4335306177245195e-05 -0.0048848021998463918 0 -9.9852686192137635e-05 -0.0041225521098340245 0 -7.7704824011999449e-05 -0.0041102663878580482 0 -5.5869984383630893e-05 -0.0046650275928096386 0 -5.7158718335163302e-05 -0.0046283359276829668 0 -6.7428179051895535e-05 -0.004373457991027169 0 -7.3549685537323343e-05 -0.0043664404003899409 0 -6.7750369305143927e-05 -0.004361787872316494 0 -7.3549685537323343e-05 -0.0043664404003899409 0 -6.7750369305143927e-05 -0.004361787872316494 0 -7.2497539516066378e-05 -0.0043559394802002221 0 -7.3549685537323343e-05 -0.0043664404003899409 0 -8.0462157599619488e-05 -0.0043547138583645848 0 -7.2497539516066378e-05 -0.0043559394802002221 0 -5.7158718335163302e-05 -0.0046283359276829668 0 -8.8526156532947397e-05 -0.0045761155748367593 0 -4.5174325231996883e-05 -0.0048869328038865269 0 -3.2202427554478388e-05 -0.0049040252518044473 0 -2.4335306177245195e-05 -0.0048848021998463918 0 -8.0462157599619488e-05 -0.0043547138583645848 0 -7.2497539516066378e-05 -0.0043559394802002221 0 -6.9878576848566605e-05 -0.004346946046015935 0 -0.00013201805469265906 -0.0044719096394342751 0 -0.00011364685357468901 -0.0044520974304012714 0 -0.00012665097051658248 -0.0044482931966458748 0 -0.00013201805469265906 -0.0044719096394342751 0 -9.8645471869718309e-05 -0.00445360553008191 0 -0.00011364685357468901 -0.0044520974304012714 0 -0.00013201805469265906 -0.0044719096394342751 0 -0.0001384217651447825 -0.004456247465952308 0 -0.00012665097051658248 -0.0044482931966458748 0 -8.8526156532947397e-05 -0.0045761155748367593 0 -6.8772278411397193e-05 -0.0041702503495076411 0 -6.7750369305143927e-05 -0.004361787872316494 0 -7.2497539516066378e-05 -0.0043559394802002221 0 -6.9878576848566605e-05 -0.004346946046015935 0 -7.7704824011999449e-05 -0.0041102663878580482 0 -6.8772278411397193e-05 -0.0041702503495076411 0 -5.2267434128026055e-05 -0.0038559940566546013 0 -8.3973385873974067e-05 -0.0038738153352585103 0 -7.0203146161964996e-05 -0.0038503250899639073 0 -0.0001727580875716638 -0.0045625873945566303 0 -0.00017804757466005809 -0.0045701784092028082 0 -0.00018312533335431965 -0.0045660367530659628 0 -0.0001727580875716638 -0.0045625873945566303 0 -0.00018312533335431965 -0.0045660367530659628 0 -0.00018649970097725518 -0.0045630424660418343 0 -0.00014758349361461472 -0.0045677446159528134 0 -0.0001727580875716638 -0.0045625873945566303 0 -0.00017804757466005809 -0.0045701784092028082 0 -0.00014758349361461472 -0.0045677446159528134 0 -0.0001727580875716638 -0.0045625873945566303 0 -0.00015015782786161798 -0.0045483550697931101 0 -8.8526156532947397e-05 -0.0045761155748367593 0 -0.00015227864222000363 -0.0044902670122581121 0 -8.8526156532947397e-05 -0.0045761155748367593 0 -0.00010163455853044705 -0.0047510949777024624 0 -3.2202427554478388e-05 -0.0049040252518044473 0 -1.2225920427497226e-05 -0.0048953237098425979 0 -2.4335306177245195e-05 -0.0048848021998463918 0 -0.00010163455853044705 -0.0047510949777024624 0 -8.4959591689156042e-05 -0.0047165269655476691 0 -0.00017804757466005809 -0.0045701784092028082 0 -0.00017745989157753495 -0.0045479041207863646 0 -0.00018312533335431965 -0.0045660367530659628 0 -1.2225920427497226e-05 -0.0048953237098425979 0 -7.9395999393989763e-06 -0.0048818397532312601 0 -2.4335306177245195e-05 -0.0048848021998463918 0 -1.2225920427497226e-05 -0.0048953237098425979 0 -7.9395999393989763e-06 -0.0048818397532312601 0 3.8341057573272214e-06 -0.0048858008840380772 0 -7.9395999393989763e-06 -0.0048818397532312601 0 -2.4335306177245195e-05 -0.0048848021998463918 0 -1.4889196145554039e-05 -0.0048680234862816148 0 -3.6762497912401079e-05 -0.0048694118728227114 0 -2.4335306177245195e-05 -0.0048848021998463918 0 -1.4889196145554039e-05 -0.0048680234862816148 0 -3.2191781499249629e-05 -0.0048369668975697831 0 -3.6762497912401079e-05 -0.0048694118728227114 0 -1.4889196145554039e-05 -0.0048680234862816148 0 -2.0880083586193842e-06 -0.0048642757835548984 0 -1.4889196145554039e-05 -0.0048680234862816148 0 1.2916474621125366e-06 -0.0048769287346091513 0 -7.9395999393989763e-06 -0.0048818397532312601 0 -1.4889196145554039e-05 -0.0048680234862816148 0 1.2916474621125366e-06 -0.0048769287346091513 0 1.2916474621125366e-06 -0.0048769287346091513 0 6.9529746640163644e-06 -0.0048853185376167606 0 3.8341057573272214e-06 -0.0048858008840380772 0 1.2916474621125366e-06 -0.0048769287346091513 0 6.9529746640163644e-06 -0.0048853185376167606 0 5.5762742811042838e-06 -0.0048852832003937361 0 6.9529746640163644e-06 -0.0048853185376167606 0 5.348948600071082e-06 -0.0048825647979491996 0 5.5324478813539633e-06 -0.004906307886767867 0 -0.00014886693398383658 -0.0045265437408079845 0 -0.00016777976781617214 -0.0045529454190281335 0 -0.00014199995655303526 -0.0045426897602379506 0 6.9529746640163644e-06 -0.0048853185376167606 0 5.348948600071082e-06 -0.0048825647979491996 0 3.8341057573272214e-06 -0.0048858008840380772 0 -0.00014886693398383658 -0.0045265437408079845 0 -0.00017745989157753495 -0.0045479041207863646 0 -0.00016777976781617214 -0.0045529454190281335 0 -6.8734124719426121e-05 -0.0046887224250235148 0 -8.4959591689156042e-05 -0.0047165269655476691 0 -7.9395999393989763e-06 -0.0048818397532312601 0 1.2916474621125366e-06 -0.0048769287346091513 0 3.8341057573272214e-06 -0.0048858008840380772 0 -0.00017745989157753495 -0.0045479041207863646 0 -0.00016777976781617214 -0.0045529454190281335 0 -0.00018312533335431965 -0.0045660367530659628 0 -0.00016777976781617214 -0.0045529454190281335 0 -0.00018312533335431965 -0.0045660367530659628 0 -0.00017844998917841148 -0.0045649201748280957 0 -0.00016777976781617214 -0.0045529454190281335 0 -0.0001554306994589747 -0.0045589090787540908 0 -0.00017844998917841148 -0.0045649201748280957 0 -0.00016777976781617214 -0.0045529454190281335 0 -0.0001554306994589747 -0.0045589090787540908 0 -0.00014199995655303526 -0.0045426897602379506 0 -0.0001554306994589747 -0.0045589090787540908 0 -0.00017426552701692947 -0.0045720953074752197 0 -0.00017844998917841148 -0.0045649201748280957 0 -0.0001554306994589747 -0.0045589090787540908 0 -0.00017426552701692947 -0.0045720953074752197 0 -0.00015901270111111753 -0.0045797084176007578 0 -0.00017426552701692947 -0.0045720953074752197 0 -0.00018675224818776877 -0.0045710307180254596 0 -0.00017844998917841148 -0.0045649201748280957 0 -0.00018675224818776877 -0.0045710307180254596 0 -0.00018312533335431965 -0.0045660367530659628 0 -0.00018649970097725518 -0.0045630424660418343 0 -0.00018675224818776877 -0.0045710307180254596 0 -0.00018312533335431965 -0.0045660367530659628 0 -0.00017844998917841148 -0.0045649201748280957 0 -2.4227096729309716e-10 -0.0049999975874026837 0 -1.3497681803102624e-07 -0.0049995398503189662 0 -5.8606728757384426e-10 -0.0049999971834349434 0 -9.7484229172045683e-05 -0.0045592030706618544 0 -0.00012548439252029272 -0.0045655741631286505 0 -0.00011591901909409652 -0.0045520166721347193 0 -0.00012548439252029272 -0.0045655741631286505 0 -0.0001256611258923456 -0.0045492207658605587 0 -0.00011591901909409652 -0.0045520166721347193 0 -9.7484229172045683e-05 -0.0045592030706618544 0 -0.00010599391122286753 -0.0045805383053392204 0 -8.5513837704218051e-05 -0.0046007916480927114 0 -9.7484229172045683e-05 -0.0045592030706618544 0 -0.00010599391122286753 -0.0045805383053392204 0 -0.00012548439252029272 -0.0045655741631286505 0 -0.00010599391122286753 -0.0045805383053392204 0 -0.00012548439252029272 -0.0045655741631286505 0 -0.00013007619162831748 -0.0045961781923690263 0 -0.00015901270111111753 -0.0045797084176007578 0 -0.00012548439252029272 -0.0045655741631286505 0 -0.00013007619162831748 -0.0045961781923690263 0 -0.0001554306994589747 -0.0045589090787540908 0 -0.00015901270111111753 -0.0045797084176007578 0 -0.00012548439252029272 -0.0045655741631286505 0 -0.0001554306994589747 -0.0045589090787540908 0 -0.00012548439252029272 -0.0045655741631286505 0 -0.0001256611258923456 -0.0045492207658605587 0 -0.0001554306994589747 -0.0045589090787540908 0 -0.0001256611258923456 -0.0045492207658605587 0 -0.00014199995655303526 -0.0045426897602379506 0 -0.0001256611258923456 -0.0045492207658605587 0 -0.00014199995655303526 -0.0045426897602379506 0 -0.0001293777682175822 -0.0045411613255178481 0 -4.5626659369726767e-05 -0.0047851498954108816 0 -6.0889922101015687e-05 -0.0047503033296033385 0 -0.0001256611258923456 -0.0045492207658605587 0 -0.0001293777682175822 -0.0045411613255178481 0 -0.00012004553743134337 -0.0045390767229651786 0 -1.3497681803102624e-07 -0.0049995398503189662 0 -5.8606728757384426e-10 -0.0049999971834349434 0 -2.4802014836883248e-07 -0.0049993114919056501 0 -0.0001256611258923456 -0.0045492207658605587 0 -0.00011591901909409652 -0.0045520166721347193 0 -0.00012004553743134337 -0.0045390767229651786 0 -9.7484229172045683e-05 -0.0045592030706618544 0 -0.00011591901909409652 -0.0045520166721347193 0 -0.00012004553743134337 -0.0045390767229651786 0 -5.8606728757384426e-10 -0.0049999971834349434 0 -2.4802014836883248e-07 -0.0049993114919056501 0 -3.5644083674378879e-07 -0.0049992511721291379 0 -6.0889922101015687e-05 -0.0047503033296033385 0 -5.6836913400604707e-05 -0.0048487466577675341 0 -0.00012004553743134337 -0.0045390767229651786 0 -0.00013184797860551765 -0.0045335370205235601 0 -0.00012338053621119101 -0.0045177776438387676 0 -0.0001293777682175822 -0.0045411613255178481 0 -0.00012004553743134337 -0.0045390767229651786 0 -0.00013184797860551765 -0.0045335370205235601 0 -0.00014886693398383658 -0.0045265437408079845 0 -0.00014199995655303526 -0.0045426897602379506 0 -0.00013184797860551765 -0.0045335370205235601 0 -0.00014199995655303526 -0.0045426897602379506 0 -0.0001293777682175822 -0.0045411613255178481 0 -0.00013184797860551765 -0.0045335370205235601 0 5.348948600071082e-06 -0.0048825647979491996 0 -1.9826953820870332e-05 -0.0048935580987291005 0 5.5324478813539633e-06 -0.004906307886767867 0 -0.00014886693398383658 -0.0045265437408079845 0 -0.00013184797860551765 -0.0045335370205235601 0 -0.00012338053621119101 -0.0045177776438387676 0 -6.8734124719426121e-05 -0.0046887224250235148 0 -5.6836913400604707e-05 -0.0048487466577675341 0 -5.8606728757384426e-10 -0.0049999971834349434 0 -3.5644083674378879e-07 -0.0049992511721291379 0 -4.0768932854061577e-10 -0.0049999982359361485 0 -5.6836913400604707e-05 -0.0048487466577675341 0 -5.0073117337955388e-08 -0.0049999361902714826 0 -5.6836913400604707e-05 -0.0048487466577675341 0 1.5278138849583129e-06 -0.0050009626824600454 0 -1.5979314238006741e-05 -0.0050078157570991391 0 1.2079081547024825e-09 -0.0050000322747476593 0 -4.8560266408160458e-06 -0.0049591888071951213 0 1.2079081547024825e-09 -0.0050000322747476593 0 -4.8560266408160458e-06 -0.0049591888071951213 0 1.7776755668736723e-08 -0.0049998566421477382 0 -4.8560266408160458e-06 -0.0049591888071951213 0 6.6597923368041768e-06 -0.0049839106606020993 0 1.7776755668736723e-08 -0.0049998566421477382 0 1.603030454074176e-06 -0.0049457609863159365 0 6.6597923368041768e-06 -0.0049839106606020993 0 4.5206399588566449e-06 -0.0049412218122414442 0 -4.8560266408160458e-06 -0.0049591888071951213 0 1.603030454074176e-06 -0.0049457609863159365 0 6.6597923368041768e-06 -0.0049839106606020993 0 3.114092218047881e-06 -0.0049179751477244201 0 2.3837067720849677e-07 -0.0048743741830537647 0 2.0605219074465176e-06 -0.0049133902794992624 0 1.603030454074176e-06 -0.0049457609863159365 0 3.114092218047881e-06 -0.0049179751477244201 0 2.0605219074465176e-06 -0.0049133902794992624 0 -4.8560266408160458e-06 -0.0049591888071951213 0 1.603030454074176e-06 -0.0049457609863159365 0 3.114092218047881e-06 -0.0049179751477244201 0 -1.9826953820870332e-05 -0.0048935580987291005 0 -4.8560266408160458e-06 -0.0049591888071951213 0 5.5324478813539633e-06 -0.004906307886767867 0 -4.8560266408160458e-06 -0.0049591888071951213 0 3.114092218047881e-06 -0.0049179751477244201 0 5.5324478813539633e-06 -0.004906307886767867 0 6.9529746640163644e-06 -0.0048853185376167606 0 5.5324478813539633e-06 -0.004906307886767867 0 5.5762742811042838e-06 -0.0048852832003937361 0 3.114092218047881e-06 -0.0049179751477244201 0 5.5324478813539633e-06 -0.004906307886767867 0 5.5762742811042838e-06 -0.0048852832003937361 0 -2.0880083586193842e-06 -0.0048642757835548984 0 1.2916474621125366e-06 -0.0048769287346091513 0 5.5762742811042838e-06 -0.0048852832003937361 0 -2.0880083586193842e-06 -0.0048642757835548984 0 5.5762742811042838e-06 -0.0048852832003937361 0 -1.8743951202883265e-06 -0.0048577675748150799 0 5.5762742811042838e-06 -0.0048852832003937361 0 -1.8743951202883265e-06 -0.0048577675748150799 0 2.3837067720849677e-07 -0.0048743741830537647 0 3.114092218047881e-06 -0.0049179751477244201 0 5.5762742811042838e-06 -0.0048852832003937361 0 2.3837067720849677e-07 -0.0048743741830537647 0 2.3837067720849677e-07 -0.0048743741830537647 0 1.6071551039724316e-06 -0.0048582970998723345 0 2.6238455338198225e-06 -0.0048780908242248549 0 2.3837067720849677e-07 -0.0048743741830537647 0 -4.1731995714962939e-06 -0.0048349483038778148 0 1.6071551039724316e-06 -0.0048582970998723345 0 -8.5721464667131766e-06 -0.0048280149077942819 0 2.3837067720849677e-07 -0.0048743741830537647 0 -4.1731995714962939e-06 -0.0048349483038778148 0 -8.5721464667131766e-06 -0.0048280149077942819 0 -1.8743951202883265e-06 -0.0048577675748150799 0 2.3837067720849677e-07 -0.0048743741830537647 0 -1.4281027834936431e-05 -0.0048013491895208607 0 -8.5721464667131766e-06 -0.0048280149077942819 0 -4.1731995714962939e-06 -0.0048349483038778148 0 2.0323807475660248e-07 -0.0048066261113488698 0 -1.4281027834936431e-05 -0.0048013491895208607 0 -4.1731995714962939e-06 -0.0048349483038778148 0 2.0323807475660248e-07 -0.0048066261113488698 0 -4.1731995714962939e-06 -0.0048349483038778148 0 1.6071551039724316e-06 -0.0048582970998723345 0 2.1159139043970797e-06 -0.004849633002588007 0 1.6071551039724316e-06 -0.0048582970998723345 0 6.5954730598519885e-06 -0.0048589094223006933 0 6.7763334430199232e-06 -0.0048457556291975415 0 -2.9224611017069458e-06 -0.004845801318842667 0 6.5954730598519885e-06 -0.0048589094223006933 0 2.6238455338198225e-06 -0.0048780908242248549 0 1.3222875357127505e-05 -0.0048680473018710251 0 1.6071551039724316e-06 -0.0048582970998723345 0 6.5954730598519885e-06 -0.0048589094223006933 0 2.6238455338198225e-06 -0.0048780908242248549 0 2.6238455338198225e-06 -0.0048780908242248549 0 1.3222875357127505e-05 -0.0048680473018710251 0 8.5396061170930927e-06 -0.004893846871447778 0 1.9724892749819013e-05 -0.0048460718050038487 0 1.3222875357127505e-05 -0.0048680473018710251 0 3.2208390264674398e-05 -0.0048745394680556652 0 1.6493711429644561e-08 -0.0049999457663681265 0 -6.744236460440021e-09 -0.0050000373889212187 0 2.3905511627186826e-06 -0.0050008199270837831 0 1.3222875357127505e-05 -0.0048680473018710251 0 3.2208390264674398e-05 -0.0048745394680556652 0 8.5396061170930927e-06 -0.004893846871447778 0 6.6597923368041768e-06 -0.0049839106606020993 0 3.2208390264674398e-05 -0.0048745394680556652 0 1.0531427043482055e-05 -0.0049241091927849697 0 6.6597923368041768e-06 -0.0049839106606020993 0 1.7776755668736723e-08 -0.0049998566421477382 0 -6.744236460440021e-09 -0.0050000373889212187 0 1.0017746105173797e-05 -0.0049778989769596457 0 1.401953773199293e-05 -0.004935869022130268 0 3.2208390264674398e-05 -0.0048745394680556652 0 1.0531427043482055e-05 -0.0049241091927849697 0 8.5396061170930927e-06 -0.004893846871447778 0 6.6597923368041768e-06 -0.0049839106606020993 0 -6.744236460440021e-09 -0.0050000373889212187 0 2.3905511627186826e-06 -0.0050008199270837831 0 6.6597923368041768e-06 -0.0049839106606020993 0 1.0531427043482055e-05 -0.0049241091927849697 0 4.5206399588566449e-06 -0.0049412218122414442 0 2.3837067720849677e-07 -0.0048743741830537647 0 2.6238455338198225e-06 -0.0048780908242248549 0 2.0605219074465176e-06 -0.0049133902794992624 0 1.0531427043482055e-05 -0.0049241091927849697 0 4.5206399588566449e-06 -0.0049412218122414442 0 2.0605219074465176e-06 -0.0049133902794992624 0 1.603030454074176e-06 -0.0049457609863159365 0 4.5206399588566449e-06 -0.0049412218122414442 0 2.0605219074465176e-06 -0.0049133902794992624 0 2.6238455338198225e-06 -0.0048780908242248549 0 2.0605219074465176e-06 -0.0049133902794992624 0 8.5396061170930927e-06 -0.004893846871447778 0 1.0531427043482055e-05 -0.0049241091927849697 0 2.0605219074465176e-06 -0.0049133902794992624 0 8.5396061170930927e-06 -0.004893846871447778 0 -1.2105549097439655e-05 -0.0050018482917856587 0 -1.0197153319163959e-05 -0.0050009667531456786 0 -2.3438010310362222e-05 -0.0050014819012345647 0 -3.8034145161674214e-05 -0.0048944075404423922 0 -9.2504628915651485e-05 -0.004816967709079501 0 -1.2105549097439655e-05 -0.0050018482917856587 0 -8.1940753742546334e-09 -0.0050000095425853704 0 -1.5317234128188946e-08 -0.0049999833344021262 0 -1.2105549097439655e-05 -0.0050018482917856587 0 -8.1940753742546334e-09 -0.0050000095425853704 0 -1.0197153319163959e-05 -0.0050009667531456786 0 -8.1940753742546334e-09 -0.0050000095425853704 0 -1.0197153319163959e-05 -0.0050009667531456786 0 -3.9352681892335498e-06 -0.0050010010829599147 0 -0.00016425379420651227 -0.0044437546572630143 0 -0.0001310052299551325 -0.0044497361703055181 0 -0.0001489566638623835 -0.004430088139644738 0 -0.00016425379420651227 -0.0044437546572630143 0 -0.0001310052299551325 -0.0044497361703055181 0 -0.00014911653248241325 -0.0044839753846601799 0 -0.00014608352345647069 -0.0043385884646412127 0 -0.00021686273551727264 -0.0043468022318831016 0 -0.00018697318873205264 -0.0043961065925533374 0 -0.00014608352345647069 -0.0043385884646412127 0 -0.00019251455877616788 -0.0043068440123478343 0 -0.00021686273551727264 -0.0043468022318831016 0 -0.00014608352345647069 -0.0043385884646412127 0 -0.00019251455877616788 -0.0043068440123478343 0 -0.00015592406742766189 -0.0042465590761753616 0 -0.00013792599357328553 -0.0043964998615424232 0 -0.00017525996849607691 -0.004374965685377619 0 -0.0001310052299551325 -0.0044497361703055181 0 -0.00011728668135539917 -0.0045067510418587116 0 -0.00014911653248241325 -0.0044839753846601799 0 -0.00019251455877616788 -0.0043068440123478343 0 -0.00019599821634433276 -0.0042476499049655314 0 -0.00019913242487274607 -0.0042467420273559972 0 -0.0001737815912850738 -0.0042761383779163966 0 -0.00017525996849607691 -0.004374965685377619 0 -0.00011728668135539917 -0.0045067510418587116 0 -0.00014911653248241325 -0.0044839753846601799 0 -0.00015112552419714758 -0.0045240689093751126 0 -0.00016425379420651227 -0.0044437546572630143 0 -0.00014911653248241325 -0.0044839753846601799 0 -0.00019209352242296771 -0.0045421588486309642 0 -7.6136796105582747e-05 -0.0047458885847038879 0 -6.1261370656739495e-05 -0.0047436703341387672 0 -7.1218753158332516e-05 -0.0047908770507947025 0 -0.00014911653248241325 -0.0044839753846601799 0 -0.00015112552419714758 -0.0045240689093751126 0 -0.00019209352242296771 -0.0045421588486309642 0 -0.00011669682401874637 -0.004556491720202384 0 -9.2504628915651485e-05 -0.004816967709079501 0 -9.2504628915651485e-05 -0.004816967709079501 0 -0.00018535516038425926 -0.0047070945387684693 0 -0.00019209352242296771 -0.0045421588486309642 0 -0.00014692818425485036 -0.0045647041403389915 0 -0.00018203137753909017 -0.0046253813404284611 0 -0.00015112552419714758 -0.0045240689093751126 0 -0.00019209352242296771 -0.0045421588486309642 0 -0.00014692818425485036 -0.0045647041403389915 0 -0.00017525996849607691 -0.004374965685377619 0 -0.00018034072026041457 -0.0045189324312310047 0 -0.00017525996849607691 -0.004374965685377619 0 -0.00021463809757886276 -0.0043987320483985575 0 -0.00019593817713763821 -0.0044501182737809739 0 -0.00021490763632030623 -0.0044824562922870358 0 -0.00019541227939631056 -0.0045016392816924688 0 -0.00011728668135539917 -0.0045067510418587116 0 -0.00015112552419714758 -0.0045240689093751126 0 -0.00014692818425485036 -0.0045647041403389915 0 -0.00019599821634433276 -0.0042476499049655314 0 -0.00023576943236313738 -0.0043010130768985876 0 -0.00020399897262959874 -0.004272561218766467 0 -0.00019599821634433276 -0.0042476499049655314 0 -0.00019913242487274607 -0.0042467420273559972 0 -0.00020399897262959874 -0.004272561218766467 0 -0.00023576943236313738 -0.0043010130768985876 0 -0.00019133665323480697 -0.0043070537421682226 0 -0.00020399897262959874 -0.004272561218766467 0 -0.00021463809757886276 -0.0043987320483985575 0 -0.00020456731097841577 -0.004486953074690575 0 -0.00019541227939631056 -0.0045016392816924688 0 -0.00019916470538338448 -0.0045139289302231914 0 -0.00020311214043803444 -0.004492824580024533 0 -0.00023576943236313738 -0.0043010130768985876 0 -0.00020311214043803444 -0.004492824580024533 0 -0.00016679596715962877 -0.0043657831942292896 0 -0.00021490763632030623 -0.0044824562922870358 0 -0.00019541227939631056 -0.0045016392816924688 0 -0.00021093395089358033 -0.0045000609467756997 0 -0.00019541227939631056 -0.0045016392816924688 0 -0.00019916470538338448 -0.0045139289302231914 0 -0.00021093395089358033 -0.0045000609467756997 0 -0.00021490763632030623 -0.0044824562922870358 0 -0.00021093395089358033 -0.0045000609467756997 0 -0.00024299671456115091 -0.0045042594409006953 0 -0.00018034072026041457 -0.0045189324312310047 0 -0.00018535516038425926 -0.0047070945387684693 0 -0.00010792143650100567 -0.0049500271825022382 0 -0.00010863744182797922 -0.0049696063105557119 0 -0.00011238371385478462 -0.0049682957581034986 0 -0.00019916470538338448 -0.0045139289302231914 0 -0.00021093395089358033 -0.0045000609467756997 0 -0.00024299671456115091 -0.0045042594409006953 0 -0.00010863744182797922 -0.0049696063105557119 0 -0.00011238371385478462 -0.0049682957581034986 0 -0.00010831384316412202 -0.0049702618931761868 0 -4.8211840859654573e-05 -0.004995621754482509 0 -4.3958262281252477e-05 -0.0050016438393965515 0 -0.00010310494306281453 -0.0049635830195728882 0 -4.8211840859654573e-05 -0.004995621754482509 0 -2.7449122563317565e-05 -0.0049984640180687117 0 -5.8792988171884972e-05 -0.004980663078667332 0 -4.8211840859654573e-05 -0.004995621754482509 0 -4.3958262281252477e-05 -0.0050016438393965515 0 -2.6797194169148934e-05 -0.0050019834260049724 0 -4.8211840859654573e-05 -0.004995621754482509 0 -2.6797194169148934e-05 -0.0050019834260049724 0 -2.7449122563317565e-05 -0.0049984640180687117 0 -2.3438010310362222e-05 -0.0050014819012345647 0 -4.3958262281252477e-05 -0.0050016438393965515 0 -2.6797194169148934e-05 -0.0050019834260049724 0 -9.2504628915651485e-05 -0.004816967709079501 0 -8.3953758676983352e-05 -0.0050082952435330048 0 -1.2105549097439655e-05 -0.0050018482917856587 0 -2.3438010310362222e-05 -0.0050014819012345647 0 -2.6797194169148934e-05 -0.0050019834260049724 0 -1.2105549097439655e-05 -0.0050018482917856587 0 -2.6797194169148934e-05 -0.0050019834260049724 0 -1.5317234128188946e-08 -0.0049999833344021262 0 -2.6797194169148934e-05 -0.0050019834260049724 0 -1.5317234128188946e-08 -0.0049999833344021262 0 -2.7449122563317565e-05 -0.0049984640180687117 0 -1.5317234128188946e-08 -0.0049999833344021262 0 -2.7449122563317565e-05 -0.0049984640180687117 0 -5.3204497633780393e-08 -0.0050001020992876018 0 -2.7449122563317565e-05 -0.0049984640180687117 0 -3.7343692006083212e-05 -0.0049771317246262957 0 -5.8792988171884972e-05 -0.004980663078667332 0 -2.7449122563317565e-05 -0.0049984640180687117 0 -5.3204497633780393e-08 -0.0050001020992876018 0 -3.7343692006083212e-05 -0.0049771317246262957 0 -3.7343692006083212e-05 -0.0049771317246262957 0 -5.8792988171884972e-05 -0.004980663078667332 0 -6.7521977228924198e-05 -0.0049466084137957918 0 -3.7343692006083212e-05 -0.0049771317246262957 0 -6.7521977228924198e-05 -0.0049466084137957918 0 -3.4679648698360888e-05 -0.0049462617676590895 0 -5.3204497633780393e-08 -0.0050001020992876018 0 -3.7343692006083212e-05 -0.0049771317246262957 0 -3.4679648698360888e-05 -0.0049462617676590895 0 -0.00011238371385478462 -0.0049682957581034986 0 -0.00010831384316412202 -0.0049702618931761868 0 -0.00010310494306281453 -0.0049635830195728882 0 -8.3953758676983352e-05 -0.0050082952435330048 0 -9.2195561115383508e-05 -0.0049517937865723319 0 -0.00018535516038425926 -0.0047070945387684693 0 -0.00014732045068106283 -0.0048434823396690963 0 -4.8211840859654573e-05 -0.004995621754482509 0 -5.8792988171884972e-05 -0.004980663078667332 0 -0.00010310494306281453 -0.0049635830195728882 0 -5.8792988171884972e-05 -0.004980663078667332 0 -6.7521977228924198e-05 -0.0049466084137957918 0 -0.00010310494306281453 -0.0049635830195728882 0 -6.7521977228924198e-05 -0.0049466084137957918 0 -0.00010310494306281453 -0.0049635830195728882 0 -0.00012807203642921521 -0.0048147784623440429 0 -0.00010831384316412202 -0.0049702618931761868 0 -0.00010310494306281453 -0.0049635830195728882 0 -0.00012807203642921521 -0.0048147784623440429 0 -0.00016891289005067529 -0.0046919755139205686 0 -0.00017001073420252344 -0.0047116377243943269 0 -0.00018101692148143539 -0.0046856409930860383 0 -0.00016891289005067529 -0.0046919755139205686 0 -0.00017001073420252344 -0.0047116377243943269 0 -0.00012807203642921521 -0.0048147784623440429 0 -0.00014732045068106283 -0.0048434823396690963 0 -0.00011703286051169354 -0.0047957395258361804 0 -0.00012807203642921521 -0.0048147784623440429 0 -0.00016792526754877884 -0.0047111130520060837 0 -0.0001335616601341798 -0.0047177493237004556 0 -0.00017001073420252344 -0.0047116377243943269 0 -0.00012807203642921521 -0.0048147784623440429 0 -0.00016792526754877884 -0.0047111130520060837 0 -0.00017001073420252344 -0.0047116377243943269 0 -0.00016792526754877884 -0.0047111130520060837 0 -0.00019886865224889863 -0.0046398147876371013 0 -5.3204497633780393e-08 -0.0050001020992876018 0 -3.4679648698360888e-05 -0.0049462617676590895 0 1.0884810679679603e-07 -0.0049993913311522547 0 -0.00012807203642921521 -0.0048147784623440429 0 -3.4679648698360888e-05 -0.0049462617676590895 0 -7.512623266875114e-05 -0.0048377322865872895 0 -6.7521977228924198e-05 -0.0049466084137957918 0 -0.00012807203642921521 -0.0048147784623440429 0 -3.4679648698360888e-05 -0.0049462617676590895 0 -0.00012807203642921521 -0.0048147784623440429 0 -7.512623266875114e-05 -0.0048377322865872895 0 -0.0001335616601341798 -0.0047177493237004556 0 -3.4679648698360888e-05 -0.0049462617676590895 0 -7.512623266875114e-05 -0.0048377322865872895 0 1.0884810679679603e-07 -0.0049993913311522547 0 2.1168225168856233e-10 -0.0050000006972819909 0 -6.5744421444503438e-11 -0.0049999985772013686 0 -1.4431577216605028e-08 -0.0049998225073043315 0 -7.512623266875114e-05 -0.0048377322865872895 0 -0.0001335616601341798 -0.0047177493237004556 0 -2.5355233755355449e-05 -0.0046330527632841038 0 1.0027508116186006e-06 -0.0049832838632228264 0 -1.6353386464634136e-05 -0.0048256240294805497 0 -7.512623266875114e-05 -0.0048377322865872895 0 1.0884810679679603e-07 -0.0049993913311522547 0 -2.5355233755355449e-05 -0.0046330527632841038 0 -0.0001335616601341798 -0.0047177493237004556 0 -2.5355233755355449e-05 -0.0046330527632841038 0 -0.00010432546456609947 -0.0046335198267231491 0 -0.00016792526754877884 -0.0047111130520060837 0 -0.00017415641555565458 -0.0046564123307970646 0 -0.00019886865224889863 -0.0046398147876371013 0 -0.00016792526754877884 -0.0047111130520060837 0 -0.0001335616601341798 -0.0047177493237004556 0 -0.00017415641555565458 -0.0046564123307970646 0 -0.00017415641555565458 -0.0046564123307970646 0 -0.00014823915234920548 -0.0046397897482594076 0 -0.00016852191287204982 -0.0046103409755247878 0 -0.0001335616601341798 -0.0047177493237004556 0 -0.00017415641555565458 -0.0046564123307970646 0 -0.00014823915234920548 -0.0046397897482594076 0 -0.0001335616601341798 -0.0047177493237004556 0 -0.00014823915234920548 -0.0046397897482594076 0 -0.00010432546456609947 -0.0046335198267231491 0 -0.00014823915234920548 -0.0046397897482594076 0 -0.00013007619162831748 -0.0045961781923690263 0 -0.00010432546456609947 -0.0046335198267231491 0 -0.00014823915234920548 -0.0046397897482594076 0 -0.00016852191287204982 -0.0046103409755247878 0 -0.00013007619162831748 -0.0045961781923690263 0 -0.00015901270111111753 -0.0045797084176007578 0 -0.00016852191287204982 -0.0046103409755247878 0 -0.00013007619162831748 -0.0045961781923690263 0 -0.00010599391122286753 -0.0045805383053392204 0 -0.00013007619162831748 -0.0045961781923690263 0 -8.5513837704218051e-05 -0.0046007916480927114 0 -2.4227096729309716e-10 -0.0049999975874026837 0 -6.5744421444503438e-11 -0.0049999985772013686 0 -1.4431577216605028e-08 -0.0049998225073043315 0 -4.5626659369726767e-05 -0.0047851498954108816 0 -1.6353386464634136e-05 -0.0048256240294805497 0 -2.4227096729309716e-10 -0.0049999975874026837 0 -1.3497681803102624e-07 -0.0049995398503189662 0 -1.4431577216605028e-08 -0.0049998225073043315 0 -9.7484229172045683e-05 -0.0045592030706618544 0 -8.5513837704218051e-05 -0.0046007916480927114 0 -2.5355233755355449e-05 -0.0046330527632841038 0 -8.5513837704218051e-05 -0.0046007916480927114 0 -2.5355233755355449e-05 -0.0046330527632841038 0 -0.00010432546456609947 -0.0046335198267231491 0 -0.00013007619162831748 -0.0045961781923690263 0 -8.5513837704218051e-05 -0.0046007916480927114 0 -0.00010432546456609947 -0.0046335198267231491 0 -0.00019399500433542606 -0.0045743374034487158 0 -0.00018649970097725518 -0.0045630424660418343 0 -0.00018254480651635319 -0.0045422049916073312 0 -0.00018675224818776877 -0.0045710307180254596 0 -0.00019399500433542606 -0.0045743374034487158 0 -0.00018649970097725518 -0.0045630424660418343 0 -0.00018675224818776877 -0.0045710307180254596 0 -0.00019399500433542606 -0.0045743374034487158 0 -0.00018324610295721513 -0.0045866387468357231 0 -0.00017426552701692947 -0.0045720953074752197 0 -0.00018675224818776877 -0.0045710307180254596 0 -0.00018324610295721513 -0.0045866387468357231 0 -0.00015901270111111753 -0.0045797084176007578 0 -0.00016852191287204982 -0.0046103409755247878 0 -0.00018324610295721513 -0.0045866387468357231 0 -0.00017426552701692947 -0.0045720953074752197 0 -0.00015901270111111753 -0.0045797084176007578 0 -0.00018324610295721513 -0.0045866387468357231 0 -0.00016852191287204982 -0.0046103409755247878 0 -0.00018324610295721513 -0.0045866387468357231 0 -0.00019265222763091168 -0.0046068276700051199 0 -0.00019399500433542606 -0.0045743374034487158 0 -0.00018324610295721513 -0.0045866387468357231 0 -0.00019265222763091168 -0.0046068276700051199 0 -0.00017415641555565458 -0.0046564123307970646 0 -0.00016852191287204982 -0.0046103409755247878 0 -0.00019265222763091168 -0.0046068276700051199 0 -0.00017415641555565458 -0.0046564123307970646 0 -0.00019265222763091168 -0.0046068276700051199 0 -0.00019886865224889863 -0.0046398147876371013 0 -0.00019265222763091168 -0.0046068276700051199 0 -0.00020051000199613561 -0.0045741459569239645 0 -0.00019886865224889863 -0.0046398147876371013 0 -0.00019399500433542606 -0.0045743374034487158 0 -0.00020051000199613561 -0.0045741459569239645 0 -0.00018254480651635319 -0.0045422049916073312 0 -0.00019399500433542606 -0.0045743374034487158 0 -0.00019265222763091168 -0.0046068276700051199 0 -0.00020051000199613561 -0.0045741459569239645 0 -0.00020437537135025235 -0.0045704966209999835 0 -0.00020886354343931145 -0.0046317572228736278 0 -0.00020311214043803444 -0.004492824580024533 0 -0.00020051000199613561 -0.0045741459569239645 0 -0.00020437537135025235 -0.0045704966209999835 0 -0.00017931494113336354 -0.0045071032988218684 0 -0.00020437537135025235 -0.0045704966209999835 0 -0.00020311214043803444 -0.004492824580024533 0 -0.00017931494113336354 -0.0045071032988218684 0 -0.00020051000199613561 -0.0045741459569239645 0 -0.00020437537135025235 -0.0045704966209999835 0 -0.00019886865224889863 -0.0046398147876371013 0 -0.00020437537135025235 -0.0045704966209999835 0 -0.00019886865224889863 -0.0046398147876371013 0 -0.00020886354343931145 -0.0046317572228736278 0 -0.00017001073420252344 -0.0047116377243943269 0 -0.00020886354343931145 -0.0046317572228736278 0 -0.00018101692148143539 -0.0046856409930860383 0 -0.00017001073420252344 -0.0047116377243943269 0 -0.00019886865224889863 -0.0046398147876371013 0 -0.00020886354343931145 -0.0046317572228736278 0 -0.00018535516038425926 -0.0047070945387684693 0 -0.00022015286230314885 -0.0046032233744929705 0 -0.00019916470538338448 -0.0045139289302231914 0 -0.00024299671456115091 -0.0045042594409006953 0 -0.00020886354343931145 -0.0046317572228736278 0 -0.00019923129885860357 -0.0047708059064865355 0 -0.00020886354343931145 -0.0046317572228736278 0 -0.00018101692148143539 -0.0046856409930860383 0 -0.00019923129885860357 -0.0047708059064865355 0 -0.00016891289005067529 -0.0046919755139205686 0 -0.00018101692148143539 -0.0046856409930860383 0 -0.00019916470538338448 -0.0045139289302231914 0 -0.00020886354343931145 -0.0046317572228736278 0 -0.00020311214043803444 -0.004492824580024533 0 -0.00020311214043803444 -0.004492824580024533 0 -0.00014488115993618726 -0.0044146959165745226 0 -0.00016679596715962877 -0.0043657831942292896 0 -0.00014488115993618726 -0.0044146959165745226 0 -0.00011763828802561551 -0.0043278032898308371 0 -0.00016679596715962877 -0.0043657831942292896 0 -0.00014488115993618726 -0.0044146959165745226 0 -0.00013534851670107738 -0.0044376651436111225 0 -0.0001040235548524045 -0.004362892558986425 0 -0.00014488115993618726 -0.0044146959165745226 0 -0.00017931494113336354 -0.0045071032988218684 0 -0.00013534851670107738 -0.0044376651436111225 0 -0.00020311214043803444 -0.004492824580024533 0 -0.00014488115993618726 -0.0044146959165745226 0 -0.00017931494113336354 -0.0045071032988218684 0 -0.00020051000199613561 -0.0045741459569239645 0 -0.00017931494113336354 -0.0045071032988218684 0 -0.00018254480651635319 -0.0045422049916073312 0 -0.00017931494113336354 -0.0045071032988218684 0 -0.00015487088642161042 -0.0044958204361721663 0 -0.00018254480651635319 -0.0045422049916073312 0 -0.00017931494113336354 -0.0045071032988218684 0 -0.00013534851670107738 -0.0044376651436111225 0 -0.00015487088642161042 -0.0044958204361721663 0 -0.00013534851670107738 -0.0044376651436111225 0 -0.00015487088642161042 -0.0044958204361721663 0 -0.00013675040100283539 -0.0044566104430664869 0 -0.00015487088642161042 -0.0044958204361721663 0 -0.00015015782786161798 -0.0045483550697931101 0 -0.00018254480651635319 -0.0045422049916073312 0 -0.00015262093560121853 -0.0044953567559155357 0 -0.00015227864222000363 -0.0044902670122581121 0 -0.00015487088642161042 -0.0044958204361721663 0 -0.00013675040100283539 -0.0044566104430664869 0 -0.0001384217651447825 -0.004456247465952308 0 -0.00013675040100283539 -0.0044566104430664869 0 -0.0001384217651447825 -0.004456247465952308 0 -0.00012665097051658248 -0.0044482931966458748 0 -0.0001727580875716638 -0.0045625873945566303 0 -0.00018649970097725518 -0.0045630424660418343 0 -0.00018254480651635319 -0.0045422049916073312 0 -0.0001727580875716638 -0.0045625873945566303 0 -0.00015015782786161798 -0.0045483550697931101 0 -0.00018254480651635319 -0.0045422049916073312 0 -9.8645471869718309e-05 -0.00445360553008191 0 -0.00010706932269959282 -0.0044269141844930013 0 -8.0244425597035247e-05 -0.004386537770522299 0 -0.00010706932269959282 -0.0044269141844930013 0 -0.00011651801225732397 -0.0044225801098225414 0 -8.0244425597035247e-05 -0.004386537770522299 0 -9.8645471869718309e-05 -0.00445360553008191 0 -0.00010706932269959282 -0.0044269141844930013 0 -0.00011364685357468901 -0.0044520974304012714 0 -0.00010706932269959282 -0.0044269141844930013 0 -0.00011364685357468901 -0.0044520974304012714 0 -0.00012665097051658248 -0.0044482931966458748 0 -0.00013675040100283539 -0.0044566104430664869 0 -0.00012665097051658248 -0.0044482931966458748 0 -0.00011651801225732397 -0.0044225801098225414 0 -0.00010706932269959282 -0.0044269141844930013 0 -0.00012665097051658248 -0.0044482931966458748 0 -0.00011651801225732397 -0.0044225801098225414 0 -0.00013534851670107738 -0.0044376651436111225 0 -0.00011651801225732397 -0.0044225801098225414 0 -0.0001040235548524045 -0.004362892558986425 0 -0.00013534851670107738 -0.0044376651436111225 0 -0.00013675040100283539 -0.0044566104430664869 0 -0.00011651801225732397 -0.0044225801098225414 0 -0.00011651801225732397 -0.0044225801098225414 0 -8.0244425597035247e-05 -0.004386537770522299 0 -0.0001040235548524045 -0.004362892558986425 0 -8.0244425597035247e-05 -0.004386537770522299 0 -0.0001040235548524045 -0.004362892558986425 0 -4.4558229059447241e-05 -0.0042692211142533213 0 -0.00014488115993618726 -0.0044146959165745226 0 -0.0001040235548524045 -0.004362892558986425 0 -0.00011763828802561551 -0.0043278032898308371 0 -0.0001040235548524045 -0.004362892558986425 0 -0.00011763828802561551 -0.0043278032898308371 0 -8.382443176919203e-05 -0.0042680537661555036 0 -0.0001040235548524045 -0.004362892558986425 0 -8.382443176919203e-05 -0.0042680537661555036 0 -4.4558229059447241e-05 -0.0042692211142533213 0 -8.382443176919203e-05 -0.0042680537661555036 0 -7.2804169337343385e-05 -0.0041844014590261477 0 -5.0993409237317622e-05 -0.0042070640877343449 0 -8.382443176919203e-05 -0.0042680537661555036 0 -9.1934222593668762e-05 -0.0042244895103659011 0 -7.2804169337343385e-05 -0.0041844014590261477 0 -9.1934222593668762e-05 -0.0042244895103659011 0 -7.4722145100556184e-05 -0.0041870906365276692 0 -7.2804169337343385e-05 -0.0041844014590261477 0 -9.1934222593668762e-05 -0.0042244895103659011 0 -0.00012084898752871532 -0.0042708093983973971 0 -0.0001174972702762008 -0.0042195361589378103 0 -0.00011763828802561551 -0.0043278032898308371 0 -8.382443176919203e-05 -0.0042680537661555036 0 -0.00012084898752871532 -0.0042708093983973971 0 -8.382443176919203e-05 -0.0042680537661555036 0 -9.1934222593668762e-05 -0.0042244895103659011 0 -0.00012084898752871532 -0.0042708093983973971 0 -0.00011763828802561551 -0.0043278032898308371 0 -0.00016679596715962877 -0.0043657831942292896 0 -0.00012084898752871532 -0.0042708093983973971 0 -0.00016679596715962877 -0.0043657831942292896 0 -0.00016462382219817974 -0.0042821199716803508 0 -0.00012084898752871532 -0.0042708093983973971 0 -0.00016679596715962877 -0.0043657831942292896 0 -0.00019133665323480697 -0.0043070537421682226 0 -0.00016462382219817974 -0.0042821199716803508 0 -0.00023576943236313738 -0.0043010130768985876 0 -0.00016679596715962877 -0.0043657831942292896 0 -0.00019133665323480697 -0.0043070537421682226 0 -0.00019133665323480697 -0.0043070537421682226 0 -0.00020399897262959874 -0.004272561218766467 0 -0.00016462382219817974 -0.0042821199716803508 0 -0.00020399897262959874 -0.004272561218766467 0 -0.00016462382219817974 -0.0042821199716803508 0 -0.00017313187262985865 -0.0042537475896903985 0 -0.00017313187262985865 -0.0042537475896903985 0 -0.00014193197670419466 -0.0042490472094132963 0 -0.00015791885242544837 -0.0042262771123114974 0 -0.00016462382219817974 -0.0042821199716803508 0 -0.00017313187262985865 -0.0042537475896903985 0 -0.00014193197670419466 -0.0042490472094132963 0 -0.00019913242487274607 -0.0042467420273559972 0 -0.00020399897262959874 -0.004272561218766467 0 -0.00017313187262985865 -0.0042537475896903985 0 -0.00016462382219817974 -0.0042821199716803508 0 -0.00012084898752871532 -0.0042708093983973971 0 -0.00014193197670419466 -0.0042490472094132963 0 -0.00012084898752871532 -0.0042708093983973971 0 -0.00014193197670419466 -0.0042490472094132963 0 -0.0001174972702762008 -0.0042195361589378103 0 -0.00014193197670419466 -0.0042490472094132963 0 -0.00015791885242544837 -0.0042262771123114974 0 -0.0001174972702762008 -0.0042195361589378103 0 -0.00015791885242544837 -0.0042262771123114974 0 -0.00015028654616879727 -0.0041816264888780551 0 -0.0001174972702762008 -0.0042195361589378103 0 -0.00019913242487274607 -0.0042467420273559972 0 -0.00017313187262985865 -0.0042537475896903985 0 -0.00015791885242544837 -0.0042262771123114974 0 -0.00019913242487274607 -0.0042467420273559972 0 -0.00015791885242544837 -0.0042262771123114974 0 -0.00015028654616879727 -0.0041816264888780551 0 -0.00019251455877616788 -0.0043068440123478343 0 -0.00019913242487274607 -0.0042467420273559972 0 -0.00025623946294541845 -0.0043222609344337141 0 -0.00019412567940800042 -0.0042435195330320606 0 -0.00021474997645438363 -0.0042563784713200914 0 -0.00021686273551727264 -0.0043468022318831016 0 -0.00025623946294541845 -0.0043222609344337141 0 -0.00026244846654492057 -0.0043954741890763257 0 -0.00019251455877616788 -0.0043068440123478343 0 -0.00021686273551727264 -0.0043468022318831016 0 -0.00025623946294541845 -0.0043222609344337141 0 -0.00015028654616879727 -0.0041816264888780551 0 -0.00011465022776545164 -0.0041773570507240981 0 -0.00011130582874686662 -0.0041482228314279439 0 -0.00015028654616879727 -0.0041816264888780551 0 -0.00011465022776545164 -0.0041773570507240981 0 -0.0001174972702762008 -0.0042195361589378103 0 -0.00011465022776545164 -0.0041773570507240981 0 -9.1712465654996813e-05 -0.0041687160606869557 0 -0.00011130582874686662 -0.0041482228314279439 0 -0.00011465022776545164 -0.0041773570507240981 0 -9.1712465654996813e-05 -0.0041687160606869557 0 -9.5613359230512572e-05 -0.0041902030174324565 0 -7.4722145100556184e-05 -0.0041870906365276692 0 -9.5613359230512572e-05 -0.0041902030174324565 0 -7.3624802536984241e-05 -0.0041729240241838326 0 -9.1712465654996813e-05 -0.0041687160606869557 0 -9.5613359230512572e-05 -0.0041902030174324565 0 -7.3624802536984241e-05 -0.0041729240241838326 0 -9.1712465654996813e-05 -0.0041687160606869557 0 -7.3624802536984241e-05 -0.0041729240241838326 0 -8.1155554580102549e-05 -0.0041631718247780239 0 -7.3624802536984241e-05 -0.0041729240241838326 0 -7.0407018778308422e-05 -0.0041609805266776718 0 -8.1155554580102549e-05 -0.0041631718247780239 0 -9.1934222593668762e-05 -0.0042244895103659011 0 -7.4722145100556184e-05 -0.0041870906365276692 0 -9.5613359230512572e-05 -0.0041902030174324565 0 -9.1934222593668762e-05 -0.0042244895103659011 0 -0.0001174972702762008 -0.0042195361589378103 0 -9.5613359230512572e-05 -0.0041902030174324565 0 -0.00011465022776545164 -0.0041773570507240981 0 -0.0001174972702762008 -0.0042195361589378103 0 -9.5613359230512572e-05 -0.0041902030174324565 0 -4.9228847784160586e-05 -0.0040674650269103968 0 -1.5316103635005542e-05 -0.0040587969293982848 0 -2.8764065325706149e-05 -0.0041318006524653913 0 -7.4722145100556184e-05 -0.0041870906365276692 0 -5.8051102214317919e-05 -0.0041837403420626794 0 -7.2804169337343385e-05 -0.0041844014590261477 0 -7.4722145100556184e-05 -0.0041870906365276692 0 -5.8051102214317919e-05 -0.0041837403420626794 0 -7.3624802536984241e-05 -0.0041729240241838326 0 -5.1621805936580784e-05 -0.0041293791030632861 0 -7.0808242855633231e-05 -0.0041739102966025033 0 -5.8051102214317919e-05 -0.0041837403420626794 0 -7.3624802536984241e-05 -0.0041729240241838326 0 -6.216817477973984e-05 -0.0041671450370490961 0 -7.3624802536984241e-05 -0.0041729240241838326 0 -6.216817477973984e-05 -0.0041671450370490961 0 -7.0407018778308422e-05 -0.0041609805266776718 0 -5.1621805936580784e-05 -0.0041293791030632861 0 -3.2935155685260232e-05 -0.0040551744215187296 0 -5.8051102214317919e-05 -0.0041837403420626794 0 -6.216817477973984e-05 -0.0041671450370490961 0 -5.0034605786760614e-05 -0.0041615160770440912 0 -5.8051102214317919e-05 -0.0041837403420626794 0 -3.5902489364543059e-05 -0.0041651340066139299 0 -5.0034605786760614e-05 -0.0041615160770440912 0 -4.9228847784160586e-05 -0.0040674650269103968 0 -2.4395435421372633e-05 -0.0039942638100184894 0 -2.1503437811311158e-05 -0.0040119889421087402 0 -2.1503437811311158e-05 -0.0040119889421087402 0 -1.208982511819847e-05 -0.0039867532844299527 0 -6.2934144571614402e-06 -0.0040152315878514509 0 -2.871067452944751e-05 -0.003987435082587555 0 -2.1503437811311158e-05 -0.0040119889421087402 0 -1.208982511819847e-05 -0.0039867532844299527 0 -3.2935155685260232e-05 -0.0040551744215187296 0 -3.1087047789046641e-05 -0.0040165536101894111 0 -2.1503437811311158e-05 -0.0040119889421087402 0 -6.2934144571614402e-06 -0.0040152315878514509 0 -1.5316103635005542e-05 -0.0040587969293982848 0 -1.3332232794511185e-07 -0.003981870480251822 0 1.2197637802894253e-05 -0.0040001155806769348 0 1.3243097555829487e-05 -0.0039603641720050292 0 -1.3332232794511185e-07 -0.003981870480251822 0 -1.208982511819847e-05 -0.0039867532844299527 0 -6.2934144571614402e-06 -0.0040152315878514509 0 -1.3332232794511185e-07 -0.003981870480251822 0 -6.2934144571614402e-06 -0.0040152315878514509 0 1.2197637802894253e-05 -0.0040001155806769348 0 -6.2934144571614402e-06 -0.0040152315878514509 0 1.2197637802894253e-05 -0.0040001155806769348 0 1.548936297411474e-06 -0.0040404795762737176 0 1.548936297411474e-06 -0.0040404795762737176 0 1.7016477652325391e-05 -0.0040431608624734864 0 4.352157965097659e-06 -0.0040884055060183503 0 1.2197637802894253e-05 -0.0040001155806769348 0 1.548936297411474e-06 -0.0040404795762737176 0 1.7016477652325391e-05 -0.0040431608624734864 0 -4.9228847784160586e-05 -0.0040674650269103968 0 -2.1503437811311158e-05 -0.0040119889421087402 0 -1.5316103635005542e-05 -0.0040587969293982848 0 1.548936297411474e-06 -0.0040404795762737176 0 -1.5316103635005542e-05 -0.0040587969293982848 0 4.352157965097659e-06 -0.0040884055060183503 0 -6.2934144571614402e-06 -0.0040152315878514509 0 1.548936297411474e-06 -0.0040404795762737176 0 -1.5316103635005542e-05 -0.0040587969293982848 0 -1.5316103635005542e-05 -0.0040587969293982848 0 4.352157965097659e-06 -0.0040884055060183503 0 -2.8764065325706149e-05 -0.0041318006524653913 0 4.352157965097659e-06 -0.0040884055060183503 0 2.0338964833283296e-05 -0.0041247776404093337 0 -2.8764065325706149e-05 -0.0041318006524653913 0 4.352157965097659e-06 -0.0040884055060183503 0 2.3176713044266067e-05 -0.0040741568877136489 0 2.0338964833283296e-05 -0.0041247776404093337 0 1.7016477652325391e-05 -0.0040431608624734864 0 4.352157965097659e-06 -0.0040884055060183503 0 2.3176713044266067e-05 -0.0040741568877136489 0 2.3176713044266067e-05 -0.0040741568877136489 0 2.0338964833283296e-05 -0.0041247776404093337 0 2.7125730073797677e-05 -0.0040804325728629968 0 2.0338964833283296e-05 -0.0041247776404093337 0 -2.8764065325706149e-05 -0.0041318006524653913 0 -1.6459206633007213e-05 -0.0041849729598904982 0 -2.8764065325706149e-05 -0.0041318006524653913 0 -5.0993409237317622e-05 -0.0042070640877343449 0 -1.6459206633007213e-05 -0.0041849729598904982 0 -2.8764065325706149e-05 -0.0041318006524653913 0 -7.2804169337343385e-05 -0.0041844014590261477 0 -5.0993409237317622e-05 -0.0042070640877343449 0 -4.9228847784160586e-05 -0.0040674650269103968 0 -2.8764065325706149e-05 -0.0041318006524653913 0 -7.2804169337343385e-05 -0.0041844014590261477 0 -8.382443176919203e-05 -0.0042680537661555036 0 -5.0993409237317622e-05 -0.0042070640877343449 0 -4.4558229059447241e-05 -0.0042692211142533213 0 -5.0993409237317622e-05 -0.0042070640877343449 0 -1.6459206633007213e-05 -0.0041849729598904982 0 -4.4558229059447241e-05 -0.0042692211142533213 0 -1.6459206633007213e-05 -0.0041849729598904982 0 -4.4558229059447241e-05 -0.0042692211142533213 0 1.2964161973661454e-05 -0.0041690617286717175 0 -4.4558229059447241e-05 -0.0042692211142533213 0 2.2526759777244416e-05 -0.0042384392495385982 0 1.2964161973661454e-05 -0.0041690617286717175 0 -8.0244425597035247e-05 -0.004386537770522299 0 -4.4558229059447241e-05 -0.0042692211142533213 0 -3.2935392793886774e-05 -0.0043670099925461094 0 -4.4558229059447241e-05 -0.0042692211142533213 0 -3.2935392793886774e-05 -0.0043670099925461094 0 2.2526759777244416e-05 -0.0042384392495385982 0 -3.3668193234554256e-05 -0.0041071743537530025 0 2.194422320059757e-05 -0.0040693999158036729 0 -3.5851963323983116e-05 -0.0038591914033139683 0 -7.2647906266936293e-07 -0.0038550593282115704 0 -2.1924073459103335e-05 -0.0038467168993147928 0 -7.2647906266936293e-07 -0.0038550593282115704 0 -2.1924073459103335e-05 -0.0038467168993147928 0 4.1544038413214328e-05 -0.0038923369925336695 0 -5.2267434128026055e-05 -0.0038559940566546013 0 -7.0203146161964996e-05 -0.0038503250899639073 0 -2.1924073459103335e-05 -0.0038467168993147928 0 -6.8772278411397193e-05 -0.0041702503495076411 0 -3.3668193234554256e-05 -0.0041071743537530025 0 -9.8645471869718309e-05 -0.00445360553008191 0 -8.0244425597035247e-05 -0.004386537770522299 0 -3.2935392793886774e-05 -0.0043670099925461094 0 7.9877739127533443e-07 -0.003832838868628119 0 7.8634450644901186e-06 -0.003847008917688491 0 1.8131008356316974e-05 -0.0038722366914060481 0 7.8634450644901186e-06 -0.003847008917688491 0 4.1544038413214328e-05 -0.0038923369925336695 0 1.8131008356316974e-05 -0.0038722366914060481 0 7.8634450644901186e-06 -0.003847008917688491 0 -7.2647906266936293e-07 -0.0038550593282115704 0 4.1544038413214328e-05 -0.0038923369925336695 0 4.1544038413214328e-05 -0.0038923369925336695 0 3.8739057578958579e-05 -0.0040358266244316151 0 1.8131008356316974e-05 -0.0038722366914060481 0 2.194422320059757e-05 -0.0040693999158036729 0 2.7783691272162259e-05 -0.0040460824093887749 0 2.2526759777244416e-05 -0.0042384392495385982 0 1.2964161973661454e-05 -0.0041690617286717175 0 3.8739057578958579e-05 -0.0040358266244316151 0 2.0338964833283296e-05 -0.0041247776404093337 0 -1.6459206633007213e-05 -0.0041849729598904982 0 1.2964161973661454e-05 -0.0041690617286717175 0 2.0338964833283296e-05 -0.0041247776404093337 0 3.8739057578958579e-05 -0.0040358266244316151 0 2.7125730073797677e-05 -0.0040804325728629968 0 2.0338964833283296e-05 -0.0041247776404093337 0 1.2964161973661454e-05 -0.0041690617286717175 0 3.8739057578958579e-05 -0.0040358266244316151 0 1.8183598098720898e-05 -0.0040505344317821428 0 3.8739057578958579e-05 -0.0040358266244316151 0 2.7125730073797677e-05 -0.0040804325728629968 0 1.8183598098720898e-05 -0.0040505344317821428 0 -2.9520284337003505e-06 -0.0039789058112378118 0 -2.6948984981775888e-05 -0.0039889828909667139 0 1.8183598098720898e-05 -0.0040505344317821428 0 -2.9520284337003505e-06 -0.0039789058112378118 0 3.8739057578958579e-05 -0.0040358266244316151 0 -2.9520284337003505e-06 -0.0039789058112378118 0 3.8739057578958579e-05 -0.0040358266244316151 0 -1.3772586159076505e-05 -0.0038881096017538037 0 3.8739057578958579e-05 -0.0040358266244316151 0 -1.3772586159076505e-05 -0.0038881096017538037 0 1.8131008356316974e-05 -0.0038722366914060481 0 -2.9520284337003505e-06 -0.0039789058112378118 0 -1.3772586159076505e-05 -0.0038881096017538037 0 -4.2749771323419252e-05 -0.0038972558260884902 0 -1.3772586159076505e-05 -0.0038881096017538037 0 -3.5355492862902566e-05 -0.0038191718727265248 0 -9.4554012117875954e-06 -0.0038402214938955122 0 -1.3772586159076505e-05 -0.0038881096017538037 0 -3.5355492862902566e-05 -0.0038191718727265248 0 -4.2135143679066876e-05 -0.0038472391980586486 0 -1.6110557404319434e-05 -0.0038126951074162123 0 -3.5355492862902566e-05 -0.0038191718727265248 0 -9.4554012117875954e-06 -0.0038402214938955122 0 7.9877739127533443e-07 -0.003832838868628119 0 -9.4554012117875954e-06 -0.0038402214938955122 0 1.8131008356316974e-05 -0.0038722366914060481 0 -1.3772586159076505e-05 -0.0038881096017538037 0 -9.4554012117875954e-06 -0.0038402214938955122 0 1.8131008356316974e-05 -0.0038722366914060481 0 -9.6752111271147459e-05 -0.0037938399661599041 0 -9.9502254015438482e-05 -0.0037596991739543666 0 -6.9684260992011401e-05 -0.0037909120217187735 0 -9.6752111271147459e-05 -0.0037938399661599041 0 -6.9684260992011401e-05 -0.0037909120217187735 0 -6.8090845091882873e-05 -0.0038266639243765316 0 -9.6752111271147459e-05 -0.0037938399661599041 0 -0.00012184176945031357 -0.0037468354963699729 0 -0.00013548616989123263 -0.0037698890761556033 0 -0.00012184176945031357 -0.0037468354963699729 0 -9.9502254015438482e-05 -0.0037596991739543666 0 -0.00011432603930392757 -0.0037302452986870994 0 -9.6752111271147459e-05 -0.0037938399661599041 0 -0.00012184176945031357 -0.0037468354963699729 0 -9.9502254015438482e-05 -0.0037596991739543666 0 -9.8000562283355534e-05 -0.0037300687741692153 0 -0.00011432603930392757 -0.0037302452986870994 0 -9.2749509074099745e-05 -0.0037497556870549477 0 -9.9502254015438482e-05 -0.0037596991739543666 0 -0.00011432603930392757 -0.0037302452986870994 0 -9.2749509074099745e-05 -0.0037497556870549477 0 -7.5706108698314831e-05 -0.0037621248167365399 0 -9.2749509074099745e-05 -0.0037497556870549477 0 -6.9684260992011401e-05 -0.0037909120217187735 0 -9.9502254015438482e-05 -0.0037596991739543666 0 -9.2749509074099745e-05 -0.0037497556870549477 0 -6.9684260992011401e-05 -0.0037909120217187735 0 -5.5356095849739512e-05 -0.003785117672861809 0 -7.5706108698314831e-05 -0.0037621248167365399 0 -6.9684260992011401e-05 -0.0037909120217187735 0 -5.5356095849739512e-05 -0.003785117672861809 0 -3.5355492862902566e-05 -0.0038191718727265248 0 -6.9684260992011401e-05 -0.0037909120217187735 0 -3.5355492862902566e-05 -0.0038191718727265248 0 -6.9684260992011401e-05 -0.0037909120217187735 0 -4.2135143679066876e-05 -0.0038472391980586486 0 -6.9684260992011401e-05 -0.0037909120217187735 0 -6.8090845091882873e-05 -0.0038266639243765316 0 -4.2135143679066876e-05 -0.0038472391980586486 0 -6.8090845091882873e-05 -0.0038266639243765316 0 -4.2749771323419252e-05 -0.0038972558260884902 0 -8.1462583679689285e-05 -0.0038559746239957963 0 -6.8090845091882873e-05 -0.0038266639243765316 0 -4.2135143679066876e-05 -0.0038472391980586486 0 -4.2749771323419252e-05 -0.0038972558260884902 0 -1.3772586159076505e-05 -0.0038881096017538037 0 -4.2135143679066876e-05 -0.0038472391980586486 0 -4.2749771323419252e-05 -0.0038972558260884902 0 -4.2749771323419252e-05 -0.0038972558260884902 0 -8.1462583679689285e-05 -0.0038559746239957963 0 -9.0539782534823787e-05 -0.0039161333753994108 0 -8.1462583679689285e-05 -0.0038559746239957963 0 -0.00011638454796697936 -0.003843776894289155 0 -9.0539782534823787e-05 -0.0039161333753994108 0 -9.6752111271147459e-05 -0.0037938399661599041 0 -6.8090845091882873e-05 -0.0038266639243765316 0 -8.1462583679689285e-05 -0.0038559746239957963 0 -9.6752111271147459e-05 -0.0037938399661599041 0 -8.1462583679689285e-05 -0.0038559746239957963 0 -0.00011638454796697936 -0.003843776894289155 0 -0.00011638454796697936 -0.003843776894289155 0 -0.00016130720658191571 -0.0038397818286130822 0 -0.00013548616989123263 -0.0037698890761556033 0 -9.6752111271147459e-05 -0.0037938399661599041 0 -0.00011638454796697936 -0.003843776894289155 0 -0.00013548616989123263 -0.0037698890761556033 0 -0.00011638454796697936 -0.003843776894289155 0 -0.00013201477719333412 -0.0038914895365174573 0 -9.0539782534823787e-05 -0.0039161333753994108 0 -0.00011638454796697936 -0.003843776894289155 0 -0.00013201477719333412 -0.0038914895365174573 0 -0.00016130720658191571 -0.0038397818286130822 0 -9.0539782534823787e-05 -0.0039161333753994108 0 -7.9362191474009299e-05 -0.0040176641021803638 0 -0.00015875265853409329 -0.0039636459421668012 0 -9.0539782534823787e-05 -0.0039161333753994108 0 -2.6948984981775888e-05 -0.0039889828909667139 0 -7.9362191474009299e-05 -0.0040176641021803638 0 -0.00013201477719333412 -0.0038914895365174573 0 -9.0539782534823787e-05 -0.0039161333753994108 0 -0.00015875265853409329 -0.0039636459421668012 0 -4.2749771323419252e-05 -0.0038972558260884902 0 -9.0539782534823787e-05 -0.0039161333753994108 0 -2.6948984981775888e-05 -0.0039889828909667139 0 -2.9520284337003505e-06 -0.0039789058112378118 0 -4.2749771323419252e-05 -0.0038972558260884902 0 -2.6948984981775888e-05 -0.0039889828909667139 0 1.8183598098720898e-05 -0.0040505344317821428 0 -2.6948984981775888e-05 -0.0039889828909667139 0 1.267362672715752e-05 -0.0040676074713529766 0 -2.6948984981775888e-05 -0.0039889828909667139 0 -7.9362191474009299e-05 -0.0040176641021803638 0 1.267362672715752e-05 -0.0040676074713529766 0 -7.9362191474009299e-05 -0.0040176641021803638 0 -0.00015875265853409329 -0.0039636459421668012 0 -0.00013214641054791704 -0.0041080634578599786 0 -7.9362191474009299e-05 -0.0040176641021803638 0 1.267362672715752e-05 -0.0040676074713529766 0 -0.00013214641054791704 -0.0041080634578599786 0 6.5269325393910779e-05 -0.0040360668597108637 0 1.267362672715752e-05 -0.0040676074713529766 0 0.00010834982098823425 -0.0040568667520907552 0 0.00010935518443200592 -0.0042239517964621212 0 -0.00039010311880275159 -0.0032296202211904513 0 6.5269325393910779e-05 -0.0040360668597108637 0 0.00012800034746901151 -0.0039837542868693676 0 0.00010834982098823425 -0.0040568667520907552 0 -0.00016607705642033004 -0.0029667458428886328 0 -0.00039010311880275159 -0.0032296202211904513 0 6.5269325393910779e-05 -0.0040360668597108637 0 1.267362672715752e-05 -0.0040676074713529766 0 3.2742190372163928e-05 -0.0040587849973096153 0 6.5269325393910779e-05 -0.0040360668597108637 0 3.2742190372163928e-05 -0.0040587849973096153 0 7.2483249031474509e-05 -0.0040109291397418491 0 1.8183598098720898e-05 -0.0040505344317821428 0 2.7125730073797677e-05 -0.0040804325728629968 0 3.2742190372163928e-05 -0.0040587849973096153 0 1.8183598098720898e-05 -0.0040505344317821428 0 1.267362672715752e-05 -0.0040676074713529766 0 3.2742190372163928e-05 -0.0040587849973096153 0 2.3176713044266067e-05 -0.0040741568877136489 0 2.7125730073797677e-05 -0.0040804325728629968 0 3.2742190372163928e-05 -0.0040587849973096153 0 2.3176713044266067e-05 -0.0040741568877136489 0 3.2742190372163928e-05 -0.0040587849973096153 0 3.0684052504745675e-05 -0.0040409405360915173 0 1.7016477652325391e-05 -0.0040431608624734864 0 2.3176713044266067e-05 -0.0040741568877136489 0 3.0684052504745675e-05 -0.0040409405360915173 0 3.2742190372163928e-05 -0.0040587849973096153 0 5.1601596249838819e-05 -0.0040067029011139647 0 7.2483249031474509e-05 -0.0040109291397418491 0 3.2742190372163928e-05 -0.0040587849973096153 0 5.1601596249838819e-05 -0.0040067029011139647 0 3.0684052504745675e-05 -0.0040409405360915173 0 1.7016477652325391e-05 -0.0040431608624734864 0 3.0684052504745675e-05 -0.0040409405360915173 0 3.1418512209858827e-05 -0.0040049514430347474 0 5.1601596249838819e-05 -0.0040067029011139647 0 3.0684052504745675e-05 -0.0040409405360915173 0 3.1418512209858827e-05 -0.0040049514430347474 0 1.2197637802894253e-05 -0.0040001155806769348 0 1.7016477652325391e-05 -0.0040431608624734864 0 3.1418512209858827e-05 -0.0040049514430347474 0 1.2197637802894253e-05 -0.0040001155806769348 0 3.1418512209858827e-05 -0.0040049514430347474 0 2.9591147934472938e-05 -0.0039587825132734317 0 3.1418512209858827e-05 -0.0040049514430347474 0 2.9591147934472938e-05 -0.0039587825132734317 0 5.483472484820925e-05 -0.0039614690405803772 0 1.2197637802894253e-05 -0.0040001155806769348 0 2.9591147934472938e-05 -0.0039587825132734317 0 1.3243097555829487e-05 -0.0039603641720050292 0 5.1601596249838819e-05 -0.0040067029011139647 0 5.483472484820925e-05 -0.0039614690405803772 0 9.9477995706610082e-05 -0.0039352005437964244 0 5.1601596249838819e-05 -0.0040067029011139647 0 3.1418512209858827e-05 -0.0040049514430347474 0 5.483472484820925e-05 -0.0039614690405803772 0 -0.00016607705642033004 -0.0029667458428886328 0 -0.00016699946242023844 -0.0029029036559442114 0 9.9477995706610082e-05 -0.0039352005437964244 0 0.00012800034746901151 -0.0039837542868693676 0 0.00016544658530930271 -0.0038892022793476939 0 6.5269325393910779e-05 -0.0040360668597108637 0 0.00012800034746901151 -0.0039837542868693676 0 7.2483249031474509e-05 -0.0040109291397418491 0 5.1601596249838819e-05 -0.0040067029011139647 0 9.9477995706610082e-05 -0.0039352005437964244 0 7.2483249031474509e-05 -0.0040109291397418491 0 9.9477995706610082e-05 -0.0039352005437964244 0 0.00012800034746901151 -0.0039837542868693676 0 7.2483249031474509e-05 -0.0040109291397418491 0 0.00011568493422711696 -0.0038296568441010485 0 0.00014050872945811451 -0.0037895095831371357 0 0.00016544658530930271 -0.0038892022793476939 0 0.00011568493422711696 -0.0038296568441010485 0 0.00014050872945811451 -0.0037895095831371357 0 8.2257463798915962e-05 -0.0037669901773578281 0 0.00011568493422711696 -0.0038296568441010485 0 9.9131066350442918e-05 -0.0038743853023792498 0 8.2202327549576855e-05 -0.0038303958337989868 0 -0.00049563152657160193 -0.0018950149734142834 0 -0.0004546261893853084 -0.0018432980466910167 0 -0.00046082247741640204 -0.0018517396082924553 0 0.00014050872945811451 -0.0037895095831371357 0 0.00016544658530930271 -0.0038892022793476939 0 0.00018030913788708865 -0.0037593586788083637 0 -0.00016699946242023844 -0.0029029036559442114 0 -0.00014649554227124889 -0.0027801769335918237 0 9.9477995706610082e-05 -0.0039352005437964244 0 0.00016544658530930271 -0.0038892022793476939 0 9.9131066350442918e-05 -0.0038743853023792498 0 0.00011568493422711696 -0.0038296568441010485 0 0.00016544658530930271 -0.0038892022793476939 0 9.9131066350442918e-05 -0.0038743853023792498 0 9.9477995706610082e-05 -0.0039352005437964244 0 9.9131066350442918e-05 -0.0038743853023792498 0 6.2846396410095885e-05 -0.0038850147351716961 0 2.9591147934472938e-05 -0.0039587825132734317 0 5.483472484820925e-05 -0.0039614690405803772 0 6.2846396410095885e-05 -0.0038850147351716961 0 5.483472484820925e-05 -0.0039614690405803772 0 9.9477995706610082e-05 -0.0039352005437964244 0 6.2846396410095885e-05 -0.0038850147351716961 0 9.9131066350442918e-05 -0.0038743853023792498 0 6.2846396410095885e-05 -0.0038850147351716961 0 8.2202327549576855e-05 -0.0038303958337989868 0 2.9591147934472938e-05 -0.0039587825132734317 0 2.4924680668292733e-05 -0.0039243053120578322 0 1.3243097555829487e-05 -0.0039603641720050292 0 2.9591147934472938e-05 -0.0039587825132734317 0 6.2846396410095885e-05 -0.0038850147351716961 0 2.4924680668292733e-05 -0.0039243053120578322 0 6.4280301816292039e-05 -0.0038867179075678803 0 2.5999259575989314e-05 -0.0038901931693576005 0 6.2846396410095885e-05 -0.0038850147351716961 0 2.2734156385541496e-05 -0.0038539698347967622 0 3.2533806170519252e-05 -0.0038277534501830216 0 8.8236513406392371e-06 -0.0038117873785150965 0 3.2533806170519252e-05 -0.0038277534501830216 0 2.6878077183888684e-05 -0.0037830780891983024 0 2.2734156385541496e-05 -0.0038539698347967622 0 8.8236513406392371e-06 -0.0038117873785150965 0 3.2533806170519252e-05 -0.0038277534501830216 0 3.2533806170519252e-05 -0.0038277534501830216 0 2.6878077183888684e-05 -0.0037830780891983024 0 5.4134395691078916e-05 -0.00381308614133481 0 8.8236513406392371e-06 -0.0038117873785150965 0 2.6878077183888684e-05 -0.0037830780891983024 0 3.4564436123277233e-06 -0.0037710841835922153 0 2.6878077183888684e-05 -0.0037830780891983024 0 5.4134395691078916e-05 -0.00381308614133481 0 8.2257463798915962e-05 -0.0037669901773578281 0 6.2846396410095885e-05 -0.0038850147351716961 0 3.2533806170519252e-05 -0.0038277534501830216 0 5.4134395691078916e-05 -0.00381308614133481 0 6.2846396410095885e-05 -0.0038850147351716961 0 8.2202327549576855e-05 -0.0038303958337989868 0 5.4134395691078916e-05 -0.00381308614133481 0 8.2202327549576855e-05 -0.0038303958337989868 0 5.4134395691078916e-05 -0.00381308614133481 0 8.2257463798915962e-05 -0.0037669901773578281 0 0.00011568493422711696 -0.0038296568441010485 0 8.2202327549576855e-05 -0.0038303958337989868 0 8.2257463798915962e-05 -0.0037669901773578281 0 8.2257463798915962e-05 -0.0037669901773578281 0 2.8730327638165612e-05 -0.0037307944488182217 0 7.5041803890604219e-05 -0.003706066429973127 0 8.2257463798915962e-05 -0.0037669901773578281 0 7.5041803890604219e-05 -0.003706066429973127 0 0.00011873827581068564 -0.0036919342973662211 0 2.6878077183888684e-05 -0.0037830780891983024 0 8.2257463798915962e-05 -0.0037669901773578281 0 2.8730327638165612e-05 -0.0037307944488182217 0 2.6878077183888684e-05 -0.0037830780891983024 0 2.8730327638165612e-05 -0.0037307944488182217 0 3.4564436123277233e-06 -0.0037710841835922153 0 2.8730327638165612e-05 -0.0037307944488182217 0 6.0508119743305607e-05 -0.0036622148228152335 0 7.2165512859715145e-06 -0.0036768164592535669 0 2.8730327638165612e-05 -0.0037307944488182217 0 6.0508119743305607e-05 -0.0036622148228152335 0 7.5041803890604219e-05 -0.003706066429973127 0 6.0508119743305607e-05 -0.0036622148228152335 0 7.5041803890604219e-05 -0.003706066429973127 0 0.0001029620934796609 -0.0036557420240189782 0 7.5041803890604219e-05 -0.003706066429973127 0 0.0001029620934796609 -0.0036557420240189782 0 0.00011873827581068564 -0.0036919342973662211 0 0.00011873827581068564 -0.0036919342973662211 0 0.00013081083486849479 -0.0037453357557867624 0 0.00017406218167033806 -0.0036401360562345552 0 0.0001029620934796609 -0.0036557420240189782 0 0.00011873827581068564 -0.0036919342973662211 0 0.00013186300578954568 -0.0036509488093627875 0 0.00011873827581068564 -0.0036919342973662211 0 0.00017406218167033806 -0.0036401360562345552 0 0.00013186300578954568 -0.0036509488093627875 0 8.2257463798915962e-05 -0.0037669901773578281 0 0.00011873827581068564 -0.0036919342973662211 0 0.00013081083486849479 -0.0037453357557867624 0 0.00014050872945811451 -0.0037895095831371357 0 8.2257463798915962e-05 -0.0037669901773578281 0 0.00013081083486849479 -0.0037453357557867624 0 0.00013081083486849479 -0.0037453357557867624 0 0.00018030913788708865 -0.0037593586788083637 0 0.00017406218167033806 -0.0036401360562345552 0 0.00014050872945811451 -0.0037895095831371357 0 0.00013081083486849479 -0.0037453357557867624 0 0.00018030913788708865 -0.0037593586788083637 0 -0.0004546261893853084 -0.0018432980466910167 0 -0.00046788330509834155 -0.0018470487142164514 0 -0.00046082247741640204 -0.0018517396082924553 0 -0.0004546261893853084 -0.0018432980466910167 0 -0.00046788330509834155 -0.0018470487142164514 0 -0.00041540228229368733 -0.0019421961946626605 0 -0.00014649554227124889 -0.0027801769335918237 0 -6.8674930390462874e-05 -0.0028888881327616563 0 -6.8674930390462874e-05 -0.0028888881327616563 0 -0.00041370892211694995 -0.0018851036572266758 0 -0.00046788330509834155 -0.0018470487142164514 0 -0.00041540228229368733 -0.0019421961946626605 0 -0.0004902366212333843 -0.0018961172215203723 0 0.00017811581110379704 -0.0036380873003317412 0 0.00013270196935963086 -0.0036156275792305044 0 0.00016645190591276778 -0.0035344887171097155 0 0.00013270196935963086 -0.0036156275792305044 0 0.00016645190591276778 -0.0035344887171097155 0 0.00010181994646163644 -0.003600470724176946 0 -6.8674930390462874e-05 -0.0028888881327616563 0 0.00011081781795182427 -0.002951975416985829 0 0.0001029620934796609 -0.0036557420240189782 0 0.00013186300578954568 -0.0036509488093627875 0 0.00013270196935963086 -0.0036156275792305044 0 0.0001029620934796609 -0.0036557420240189782 0 0.00013270196935963086 -0.0036156275792305044 0 0.00010181994646163644 -0.003600470724176946 0 -6.8674930390462874e-05 -0.0028888881327616563 0 0.00030967660447464167 -0.0035790668845229723 0 0.00017406218167033806 -0.0036401360562345552 0 0.00013186300578954568 -0.0036509488093627875 0 0.00013270196935963086 -0.0036156275792305044 0 0.00031624061222843605 -0.0033948402755497819 0 0.00014232057411956253 -0.0033735671564245526 0 0.00015978747415448184 -0.0035460078058257871 0 0.00011081781795182427 -0.002951975416985829 0 0.00011127543784155967 -0.0036230415062954752 0 -0.00011890001606400434 -0.0024042771301057923 0 -0.00012165781710478835 -0.0023865398132932388 0 -0.00010652490776457472 -0.002383811308625289 0 2.4692855906185062e-05 -0.0025286727913110905 0 2.9086262402977015e-05 -0.0025577332402929465 0 -1.6336434105693891e-05 -0.0025435369429757 0 -0.00012165781710478835 -0.0023865398132932388 0 -0.00010652490776457472 -0.002383811308625289 0 -0.00010482551234085841 -0.0023642637958567422 0 2.9086262402977015e-05 -0.0025577332402929465 0 -3.6551169300122597e-06 -0.0025998903855452811 0 -1.6336434105693891e-05 -0.0025435369429757 0 0.00011081781795182427 -0.002951975416985829 0 -9.4544519801019279e-05 -0.0023726071469119701 0 0.00025854244540713051 -0.0031445499680162253 0 6.0805801692859774e-05 -0.0031053952043192511 0 0.00014232057411956253 -0.0033735671564245526 0 0.00031624061222843605 -0.0033948402755497819 0 0.00025854244540713051 -0.0031445499680162253 0 0.00014232057411956253 -0.0033735671564245526 0 0.00011081781795182427 -0.002951975416985829 0 0.00012936691944295914 -0.0028590003644099571 0 2.9086262402977015e-05 -0.0025577332402929465 0 1.9580269469972438e-05 -0.0027357969288403969 0 -3.6551169300122597e-06 -0.0025998903855452811 0 0.00012936691944295914 -0.0028590003644099571 0 5.7851733848599468e-05 -0.0027571328156546482 0 0.00025854244540713051 -0.0031445499680162253 0 1.9580269469972438e-05 -0.0027357969288403969 0 6.0805801692859774e-05 -0.0031053952043192511 0 1.9580269469972438e-05 -0.0027357969288403969 0 1.0598664781966253e-09 -0.0025683344607448531 0 2.4438810207596676e-07 -0.0028610552765332216 0 1.9580269469972438e-05 -0.0027357969288403969 0 1.0598664781966253e-09 -0.0025683344607448531 0 -3.6551169300122597e-06 -0.0025998903855452811 0 1.0598664781966253e-09 -0.0025683344607448531 0 -3.6551169300122597e-06 -0.0025998903855452811 0 -1.6336434105693891e-05 -0.0025435369429757 0 1.2934903386584262e-05 -0.0031835364305839026 0 2.4438810207596676e-07 -0.0028610552765332216 0 -8.5046559509972646e-08 -0.0031533230062104813 0 1.2934903386584262e-05 -0.0031835364305839026 0 6.5981847868317756e-06 -0.0034173995357935699 0 -8.5046559509972646e-08 -0.0031533230062104813 0 1.2934903386584262e-05 -0.0031835364305839026 0 2.4438810207596676e-07 -0.0028610552765332216 0 6.0805801692859774e-05 -0.0031053952043192511 0 1.9580269469972438e-05 -0.0027357969288403969 0 2.4438810207596676e-07 -0.0028610552765332216 0 6.0805801692859774e-05 -0.0031053952043192511 0 6.0805801692859774e-05 -0.0031053952043192511 0 5.082271556091805e-05 -0.0033462770184930464 0 0.00014232057411956253 -0.0033735671564245526 0 1.2934903386584262e-05 -0.0031835364305839026 0 6.0805801692859774e-05 -0.0031053952043192511 0 5.082271556091805e-05 -0.0033462770184930464 0 1.2934903386584262e-05 -0.0031835364305839026 0 5.082271556091805e-05 -0.0033462770184930464 0 6.5981847868317756e-06 -0.0034173995357935699 0 6.5981847868317756e-06 -0.0034173995357935699 0 3.9403896034463493e-05 -0.0035454488951164689 0 2.9467523821534309e-06 -0.003595191298497856 0 5.082271556091805e-05 -0.0033462770184930464 0 6.5981847868317756e-06 -0.0034173995357935699 0 3.9403896034463493e-05 -0.0035454488951164689 0 0.00014232057411956253 -0.0033735671564245526 0 9.7858084948896791e-05 -0.0034542018149603467 0 0.00015978747415448184 -0.0035460078058257871 0 5.082271556091805e-05 -0.0033462770184930464 0 3.9403896034463493e-05 -0.0035454488951164689 0 9.7858084948896791e-05 -0.0034542018149603467 0 3.9403896034463493e-05 -0.0035454488951164689 0 9.7858084948896791e-05 -0.0034542018149603467 0 0.00015978747415448184 -0.0035460078058257871 0 5.082271556091805e-05 -0.0033462770184930464 0 0.00014232057411956253 -0.0033735671564245526 0 9.7858084948896791e-05 -0.0034542018149603467 0 6.0508119743305607e-05 -0.0036622148228152335 0 3.9403896034463493e-05 -0.0035454488951164689 0 0.00015978747415448184 -0.0035460078058257871 0 7.5326386892653253e-05 -0.0036385337617270692 0 0.00011127543784155967 -0.0036230415062954752 0 6.0508119743305607e-05 -0.0036622148228152335 0 0.0001029620934796609 -0.0036557420240189782 0 0.00010181994646163644 -0.003600470724176946 0 6.0508119743305607e-05 -0.0036622148228152335 0 3.9403896034463493e-05 -0.0035454488951164689 0 7.2165512859715145e-06 -0.0036768164592535669 0 7.2165512859715145e-06 -0.0036768164592535669 0 1.6260862209363483e-05 -0.003749639514637507 0 2.9467523821534309e-06 -0.003595191298497856 0 3.9403896034463493e-05 -0.0035454488951164689 0 7.2165512859715145e-06 -0.0036768164592535669 0 2.9467523821534309e-06 -0.003595191298497856 0 1.6260862209363483e-05 -0.003749639514637507 0 2.9467523821534309e-06 -0.003595191298497856 0 -1.4522465049895644e-05 -0.0035142925363292176 0 1.6260862209363483e-05 -0.003749639514637507 0 -1.4522465049895644e-05 -0.0035142925363292176 0 -3.1345293804453943e-05 -0.0036905027006560874 0 6.5981847868317756e-06 -0.0034173995357935699 0 2.9467523821534309e-06 -0.003595191298497856 0 -1.4522465049895644e-05 -0.0035142925363292176 0 6.5981847868317756e-06 -0.0034173995357935699 0 -1.4522465049895644e-05 -0.0035142925363292176 0 -8.5046559509972646e-08 -0.0031533230062104813 0 -1.4522465049895644e-05 -0.0035142925363292176 0 -8.5046559509972646e-08 -0.0031533230062104813 0 -2.8414527183573276e-08 -0.0034456303654270865 0 -9.6368336418638498e-08 -0.0037379004674741468 0 -2.8414527183573276e-08 -0.0034456303654270865 0 -3.1345293804453943e-05 -0.0036905027006560874 0 -1.4522465049895644e-05 -0.0035142925363292176 0 -2.8414527183573276e-08 -0.0034456303654270865 0 -3.1345293804453943e-05 -0.0036905027006560874 0 -9.6368336418638498e-08 -0.0037379004674741468 0 -3.1345293804453943e-05 -0.0036905027006560874 0 -3.7712850605683898e-05 -0.0038232473117172428 0 -3.1345293804453943e-05 -0.0036905027006560874 0 -4.2985354679287943e-05 -0.0038484296467651193 0 -3.7712850605683898e-05 -0.0038232473117172428 0 -3.1345293804453943e-05 -0.0036905027006560874 0 -2.3160874465414212e-05 -0.0038446737986272076 0 -4.2985354679287943e-05 -0.0038484296467651193 0 1.6260862209363483e-05 -0.003749639514637507 0 -3.1345293804453943e-05 -0.0036905027006560874 0 -2.3160874465414212e-05 -0.0038446737986272076 0 1.6260862209363483e-05 -0.003749639514637507 0 -2.3160874465414212e-05 -0.0038446737986272076 0 -6.3740330967134127e-06 -0.0039658679781860899 0 -2.3160874465414212e-05 -0.0038446737986272076 0 -4.5433583579637018e-05 -0.003993805656565895 0 -4.2985354679287943e-05 -0.0038484296467651193 0 -2.3160874465414212e-05 -0.0038446737986272076 0 -6.3740330967134127e-06 -0.0039658679781860899 0 -4.5433583579637018e-05 -0.003993805656565895 0 -6.3740330967134127e-06 -0.0039658679781860899 0 -3.153760368377401e-05 -0.0041248368632465678 0 -4.5433583579637018e-05 -0.003993805656565895 0 2.3959049813165334e-05 -0.0040540671615783702 0 5.0298720801606214e-06 -0.0041112447055103541 0 -3.153760368377401e-05 -0.0041248368632465678 0 2.3959049813165334e-05 -0.0040540671615783702 0 -6.3740330967134127e-06 -0.0039658679781860899 0 -3.153760368377401e-05 -0.0041248368632465678 0 2.3959049813165334e-05 -0.0040540671615783702 0 0.00010931326618320479 -0.0040421826197020363 0 6.6281996991946653e-05 -0.0040992740983566821 0 2.3959049813165334e-05 -0.0040540671615783702 0 -6.3740330967134127e-06 -0.0039658679781860899 0 0.00010931326618320479 -0.0040421826197020363 0 2.3959049813165334e-05 -0.0040540671615783702 0 5.0298720801606214e-06 -0.0041112447055103541 0 6.6281996991946653e-05 -0.0040992740983566821 0 1.6260862209363483e-05 -0.003749639514637507 0 -6.3740330967134127e-06 -0.0039658679781860899 0 0.00010931326618320479 -0.0040421826197020363 0 1.6260862209363483e-05 -0.003749639514637507 0 -9.3486768804223069e-06 -0.0037321427030498739 0 -2.5137752937192893e-05 -0.003746079610934133 0 1.9435634508257011e-05 -0.0037658681934314179 0 4.3695862299376022e-05 -0.0038882237448497024 0 2.8730327638165612e-05 -0.0037307944488182217 0 7.2165512859715145e-06 -0.0036768164592535669 0 -9.3486768804223069e-06 -0.0037321427030498739 0 7.2165512859715145e-06 -0.0036768164592535669 0 1.6260862209363483e-05 -0.003749639514637507 0 -9.3486768804223069e-06 -0.0037321427030498739 0 2.8730327638165612e-05 -0.0037307944488182217 0 -9.3486768804223069e-06 -0.0037321427030498739 0 3.4564436123277233e-06 -0.0037710841835922153 0 -9.3486768804223069e-06 -0.0037321427030498739 0 3.4564436123277233e-06 -0.0037710841835922153 0 -1.4786584540345371e-05 -0.0037851931272611756 0 -9.3486768804223069e-06 -0.0037321427030498739 0 -2.5137752937192893e-05 -0.003746079610934133 0 -1.4786584540345371e-05 -0.0037851931272611756 0 -2.5137752937192893e-05 -0.003746079610934133 0 -1.4786584540345371e-05 -0.0037851931272611756 0 -3.9687376549998249e-05 -0.0038235551796071592 0 4.3695862299376022e-05 -0.0038882237448497024 0 -3.9838691939203272e-06 -0.004028553790401704 0 7.5124155745550389e-05 -0.0041583125586628729 0 0.00010226792897058701 -0.0041810765443191667 0 6.6281996991946653e-05 -0.0040992740983566821 0 0.00010931326618320479 -0.0040421826197020363 0 0.00010226792897058701 -0.0041810765443191667 0 6.6281996991946653e-05 -0.0040992740983566821 0 8.8236513406392371e-06 -0.0038117873785150965 0 3.4564436123277233e-06 -0.0037710841835922153 0 -1.4786584540345371e-05 -0.0037851931272611756 0 -1.4786584540345371e-05 -0.0037851931272611756 0 -5.9976772078280672e-06 -0.0038232452046899289 0 -3.9687376549998249e-05 -0.0038235551796071592 0 8.8236513406392371e-06 -0.0038117873785150965 0 -1.4786584540345371e-05 -0.0037851931272611756 0 -5.9976772078280672e-06 -0.0038232452046899289 0 1.627227075791792e-05 -0.0038156159742810587 0 -4.8184168525979773e-06 -0.003903038978018442 0 2.5999259575989314e-05 -0.0038901931693576005 0 -4.8184168525979773e-06 -0.003903038978018442 0 2.2734156385541496e-05 -0.0038539698347967622 0 8.8236513406392371e-06 -0.0038117873785150965 0 -3.4511706341895844e-05 -0.0038519228289553907 0 -1.3332232794511185e-07 -0.003981870480251822 0 -1.208982511819847e-05 -0.0039867532844299527 0 -3.4469359392112555e-06 -0.0039424043916329041 0 2.4924680668292733e-05 -0.0039243053120578322 0 -3.4469359392112555e-06 -0.0039424043916329041 0 1.3243097555829487e-05 -0.0039603641720050292 0 -1.3332232794511185e-07 -0.003981870480251822 0 -3.4469359392112555e-06 -0.0039424043916329041 0 1.3243097555829487e-05 -0.0039603641720050292 0 -4.8184168525979773e-06 -0.003903038978018442 0 -3.9838691939203272e-06 -0.004028553790401704 0 -3.2935155685260232e-05 -0.0040551744215187296 0 -3.9838691939203272e-06 -0.004028553790401704 0 -3.2230614247060992e-05 -0.0040209072603998672 0 1.3733724646318276e-05 -0.0039775309534602404 0 -3.4309111074260161e-05 -0.0039778573125953337 0 -2.871067452944751e-05 -0.003987435082587555 0 -1.208982511819847e-05 -0.0039867532844299527 0 -3.4469359392112555e-06 -0.0039424043916329041 0 -3.2935155685260232e-05 -0.0040551744215187296 0 -4.8184168525979773e-06 -0.003903038978018442 0 -3.5902489364543059e-05 -0.0041651340066139299 0 -3.6786258941730298e-05 -0.0041520994043522707 0 -5.0034605786760614e-05 -0.0041615160770440912 0 7.5124155745550389e-05 -0.0041583125586628729 0 0.00010226792897058701 -0.0041810765443191667 0 -9.3948839759117975e-06 -0.0041777716950742554 0 -3.9838691939203272e-06 -0.004028553790401704 0 -3.22197245602674e-05 -0.0041804320341936292 0 7.5124155745550389e-05 -0.0041583125586628729 0 -5.2654071854405937e-05 -0.0041686397466050573 0 -9.3948839759117975e-06 -0.0041777716950742554 0 -3.6786258941730298e-05 -0.0041520994043522707 0 -5.0034605786760614e-05 -0.0041615160770440912 0 -6.1530028378334515e-05 -0.0041533466478527936 0 6.9900579169448001e-05 -0.0041579341020765116 0 -3.8177375390964608e-05 -0.0041638641077082778 0 -6.216817477973984e-05 -0.0041671450370490961 0 -5.0034605786760614e-05 -0.0041615160770440912 0 -6.1530028378334515e-05 -0.0041533466478527936 0 -7.0407018778308422e-05 -0.0041609805266776718 0 -6.1530028378334515e-05 -0.0041533466478527936 0 -8.9782276736099248e-05 -0.0041491851029665594 0 -5.2654071854405937e-05 -0.0041686397466050573 0 -9.3948839759117975e-06 -0.0041777716950742554 0 -0.00012002832707177698 -0.0041742527367877313 0 -6.216817477973984e-05 -0.0041671450370490961 0 -7.0407018778308422e-05 -0.0041609805266776718 0 -6.1530028378334515e-05 -0.0041533466478527936 0 -3.22197245602674e-05 -0.0041804320341936292 0 -8.3336571574009846e-05 -0.0041640035860078329 0 -2.7682027730008909e-06 -0.0041364208065859526 0 5.0298720801606214e-06 -0.0041112447055103541 0 2.6049158929910086e-05 -0.004137866169563016 0 -2.80341289568766e-05 -0.0041589085736903784 0 -2.7682027730008909e-06 -0.0041364208065859526 0 2.6049158929910086e-05 -0.004137866169563016 0 -2.1104950154554082e-05 -0.0041318669384011611 0 5.0298720801606214e-06 -0.0041112447055103541 0 -3.153760368377401e-05 -0.0041248368632465678 0 -2.80341289568766e-05 -0.0041589085736903784 0 -2.1104950154554082e-05 -0.0041318669384011611 0 -3.9870948100550261e-05 -0.0041426630451294058 0 -2.80341289568766e-05 -0.0041589085736903784 0 -2.7682027730008909e-06 -0.0041364208065859526 0 -2.1104950154554082e-05 -0.0041318669384011611 0 -2.7682027730008909e-06 -0.0041364208065859526 0 -2.1104950154554082e-05 -0.0041318669384011611 0 5.0298720801606214e-06 -0.0041112447055103541 0 5.0298720801606214e-06 -0.0041112447055103541 0 6.6281996991946653e-05 -0.0040992740983566821 0 2.6049158929910086e-05 -0.004137866169563016 0 7.5124155745550389e-05 -0.0041583125586628729 0 -2.80341289568766e-05 -0.0041589085736903784 0 2.6049158929910086e-05 -0.004137866169563016 0 7.5124155745550389e-05 -0.0041583125586628729 0 6.6281996991946653e-05 -0.0040992740983566821 0 2.6049158929910086e-05 -0.004137866169563016 0 -0.00012978142811436596 -0.0043299473620392473 0 -5.9077649918124117e-05 -0.0042898485764046963 0 -0.00011328167569376371 -0.0043833477698520598 0 -0.00012978142811436596 -0.0043299473620392473 0 -5.9077649918124117e-05 -0.0042898485764046963 0 -9.0566847355707316e-05 -0.0041922564496188293 0 -5.5546093026953938e-05 -0.0042075308540374936 0 -0.00015652916333014339 -0.0042706369469221331 0 -3.9870948100550261e-05 -0.0041426630451294058 0 -5.3511624717529792e-05 -0.0041389665668534539 0 -3.153760368377401e-05 -0.0041248368632465678 0 -3.9870948100550261e-05 -0.0041426630451294058 0 -5.3511624717529792e-05 -0.0041389665668534539 0 -7.5841035177473301e-05 -0.0041620890182381626 0 -2.1104950154554082e-05 -0.0041318669384011611 0 -3.9870948100550261e-05 -0.0041426630451294058 0 -3.153760368377401e-05 -0.0041248368632465678 0 -5.5546093026953938e-05 -0.0042075308540374936 0 -3.497734173495514e-05 -0.0041482690633686788 0 -7.0407018778308422e-05 -0.0041609805266776718 0 -8.9782276736099248e-05 -0.0041491851029665594 0 -8.1155554580102549e-05 -0.0041631718247780239 0 -2.80341289568766e-05 -0.0041589085736903784 0 -3.9870948100550261e-05 -0.0041426630451294058 0 -5.2546552256996238e-05 -0.0041588512150404879 0 -3.8177375390964608e-05 -0.0041638641077082778 0 -8.3336571574009846e-05 -0.0041640035860078329 0 -3.9870948100550261e-05 -0.0041426630451294058 0 -5.2546552256996238e-05 -0.0041588512150404879 0 -7.5841035177473301e-05 -0.0041620890182381626 0 -9.1712465654996813e-05 -0.0041687160606869557 0 -8.9782276736099248e-05 -0.0041491851029665594 0 -8.1155554580102549e-05 -0.0041631718247780239 0 -9.1712465654996813e-05 -0.0041687160606869557 0 -8.9782276736099248e-05 -0.0041491851029665594 0 -0.00011130582874686662 -0.0041482228314279439 0 -8.3336571574009846e-05 -0.0041640035860078329 0 -0.00015652916333014339 -0.0042706369469221331 0 -0.00012978142811436596 -0.0043299473620392473 0 -0.00011328167569376371 -0.0043833477698520598 0 -0.00017229860361032016 -0.0043989812431022516 0 -0.00025623946294541845 -0.0043222609344337141 0 -0.00032854716353143492 -0.0044008390105549564 0 -0.00026244846654492057 -0.0043954741890763257 0 -0.00015652916333014339 -0.0042706369469221331 0 -0.00022857272322260869 -0.0043976845866350589 0 -0.00021474997645438363 -0.0042563784713200914 0 -0.00015652916333014339 -0.0042706369469221331 0 -0.00022857272322260869 -0.0043976845866350589 0 -0.00018552145913554844 -0.0043953830708987991 0 -0.00021686273551727264 -0.0043468022318831016 0 -0.00026244846654492057 -0.0043954741890763257 0 -0.00018697318873205264 -0.0043961065925533374 0 -0.00017229860361032016 -0.0043989812431022516 0 -0.00018697318873205264 -0.0043961065925533374 0 -0.00017851127464621605 -0.0043888537811316878 0 -0.00018697318873205264 -0.0043961065925533374 0 -0.00017851127464621605 -0.0043888537811316878 0 -0.00016827284120616345 -0.0044435283341827522 0 -0.00017851127464621605 -0.0043888537811316878 0 -0.00017460756804326072 -0.004397971310891426 0 -0.00016827284120616345 -0.0044435283341827522 0 -0.00012978142811436596 -0.0043299473620392473 0 -0.00017229860361032016 -0.0043989812431022516 0 -0.00017851127464621605 -0.0043888537811316878 0 -0.00012978142811436596 -0.0043299473620392473 0 -0.00017851127464621605 -0.0043888537811316878 0 -0.0001482403675775764 -0.0043134597028359738 0 -0.0001482403675775764 -0.0043134597028359738 0 -0.00015057649323719111 -0.004244949529926741 0 -9.0566847355707316e-05 -0.0041922564496188293 0 -0.0001482403675775764 -0.0043134597028359738 0 -0.00017460756804326072 -0.004397971310891426 0 -0.00015057649323719111 -0.004244949529926741 0 -0.00017851127464621605 -0.0043888537811316878 0 -0.0001482403675775764 -0.0043134597028359738 0 -0.00017460756804326072 -0.004397971310891426 0 -0.00017460756804326072 -0.004397971310891426 0 -0.00015057649323719111 -0.004244949529926741 0 -0.00015093288399912994 -0.0045477691715803516 0 -0.00017460756804326072 -0.004397971310891426 0 -0.00015093288399912994 -0.0045477691715803516 0 -0.00016827284120616345 -0.0044435283341827522 0 -0.00015057649323719111 -0.004244949529926741 0 -0.0002203304531907785 -0.0041250343685797627 0 -0.00015093288399912994 -0.0045477691715803516 0 -0.00012222139434571631 -0.004345030036443466 0 -0.00015059145705793788 -0.0045139795585486565 0 -0.00015057649323719111 -0.004244949529926741 0 -8.277605984710673e-05 -0.0040810947957277549 0 -0.00011151283101846704 -0.0040372306744571144 0 -8.277605984710673e-05 -0.0040810947957277549 0 -9.0566847355707316e-05 -0.0041922564496188293 0 -4.5433583579637018e-05 -0.003993805656565895 0 -0.00015057649323719111 -0.004244949529926741 0 -8.277605984710673e-05 -0.0040810947957277549 0 -9.0566847355707316e-05 -0.0041922564496188293 0 -0.00012978142811436596 -0.0043299473620392473 0 -0.0001482403675775764 -0.0043134597028359738 0 -9.0566847355707316e-05 -0.0041922564496188293 0 -9.0566847355707316e-05 -0.0041922564496188293 0 -3.153760368377401e-05 -0.0041248368632465678 0 -4.5433583579637018e-05 -0.003993805656565895 0 -5.9077649918124117e-05 -0.0042898485764046963 0 -9.0566847355707316e-05 -0.0041922564496188293 0 -3.153760368377401e-05 -0.0041248368632465678 0 -4.5433583579637018e-05 -0.003993805656565895 0 -6.1030395221100194e-05 -0.003947186564465929 0 -4.2985354679287943e-05 -0.0038484296467651193 0 -8.277605984710673e-05 -0.0040810947957277549 0 -4.5433583579637018e-05 -0.003993805656565895 0 -6.1030395221100194e-05 -0.003947186564465929 0 -8.277605984710673e-05 -0.0040810947957277549 0 -6.1030395221100194e-05 -0.003947186564465929 0 -0.00011151283101846704 -0.0040372306744571144 0 -6.1030395221100194e-05 -0.003947186564465929 0 -5.125056197759321e-05 -0.0038944904107448193 0 -9.5538642172181715e-05 -0.0039107692521047309 0 -6.1030395221100194e-05 -0.003947186564465929 0 -4.2985354679287943e-05 -0.0038484296467651193 0 -5.125056197759321e-05 -0.0038944904107448193 0 -4.2985354679287943e-05 -0.0038484296467651193 0 -3.7712850605683898e-05 -0.0038232473117172428 0 -5.125056197759321e-05 -0.0038944904107448193 0 -3.7712850605683898e-05 -0.0038232473117172428 0 -5.125056197759321e-05 -0.0038944904107448193 0 4.3449823729889981e-06 -0.0040109869390957589 0 -5.125056197759321e-05 -0.0038944904107448193 0 4.3449823729889981e-06 -0.0040109869390957589 0 -9.5538642172181715e-05 -0.0039107692521047309 0 -9.6368336418638498e-08 -0.0037379004674741468 0 4.1641127618305629e-08 -0.0040302839845357385 0 4.3449823729889981e-06 -0.0040109869390957589 0 -9.6368336418638498e-08 -0.0037379004674741468 0 -3.7712850605683898e-05 -0.0038232473117172428 0 4.3449823729889981e-06 -0.0040109869390957589 0 -2.4614914246080321e-08 -0.0043226516502111153 0 -6.5981003731507523e-06 -0.0042078197354545772 0 -5.7090707412093568e-05 -0.0044367887540711411 0 4.1641127618305629e-08 -0.0040302839845357385 0 4.3449823729889981e-06 -0.0040109869390957589 0 -6.5981003731507523e-06 -0.0042078197354545772 0 4.1641127618305629e-08 -0.0040302839845357385 0 -2.4614914246080321e-08 -0.0043226516502111153 0 -6.5981003731507523e-06 -0.0042078197354545772 0 -1.5824791996046989e-06 -0.0040385711471117433 0 -4.1538318673506611e-05 -0.0041675875861948344 0 4.3449823729889981e-06 -0.0040109869390957589 0 -6.5981003731507523e-06 -0.0042078197354545772 0 3.2369235086492592e-05 -0.0044136092735389326 0 -6.5981003731507523e-06 -0.0042078197354545772 0 3.2369235086492592e-05 -0.0044136092735389326 0 -5.7090707412093568e-05 -0.0044367887540711411 0 3.2369235086492592e-05 -0.0044136092735389326 0 -4.960560039337946e-05 -0.0045696169460374648 0 -5.7090707412093568e-05 -0.0044367887540711411 0 -4.1538318673506611e-05 -0.0041675875861948344 0 -0.00012222139434571631 -0.004345030036443466 0 -6.1030395221100194e-05 -0.003947186564465929 0 -9.5538642172181715e-05 -0.0039107692521047309 0 -0.00011151283101846704 -0.0040372306744571144 0 -0.00015057649323719111 -0.004244949529926741 0 -0.00011151283101846704 -0.0040372306744571144 0 -0.0002203304531907785 -0.0041250343685797627 0 -9.5538642172181715e-05 -0.0039107692521047309 0 -0.00011151283101846704 -0.0040372306744571144 0 -0.0002203304531907785 -0.0041250343685797627 0 -4.960560039337946e-05 -0.0045696169460374648 0 -7.0319427343799455e-05 -0.0045922519888993915 0 -5.7090707412093568e-05 -0.0044367887540711411 0 -6.5650999367136811e-05 -0.0047637868638427264 0 -8.9214504377677323e-05 -0.0047319814820354963 0 -7.0319427343799455e-05 -0.0045922519888993915 0 -9.3754703758630755e-05 -0.0045695230388254435 0 -9.2406395768503509e-05 -0.0047256164641138864 0 -7.0319427343799455e-05 -0.0045922519888993915 0 -5.7323440491705293e-05 -0.0045346159060578482 0 -9.3754703758630755e-05 -0.0045695230388254435 0 -7.0319427343799455e-05 -0.0045922519888993915 0 -5.7090707412093568e-05 -0.0044367887540711411 0 -5.7323440491705293e-05 -0.0045346159060578482 0 -5.7090707412093568e-05 -0.0044367887540711411 0 -5.7323440491705293e-05 -0.0045346159060578482 0 -2.3095397712219354e-07 -0.0046150245505000072 0 -5.7323440491705293e-05 -0.0045346159060578482 0 -2.3095397712219354e-07 -0.0046150245505000072 0 -1.6452525789311027e-05 -0.0046055226572820325 0 -2.4614914246080321e-08 -0.0043226516502111153 0 -5.7090707412093568e-05 -0.0044367887540711411 0 -2.3095397712219354e-07 -0.0046150245505000072 0 -1.2498101382037168e-07 -0.0049996339751478876 0 -1.3190021361785276e-05 -0.0049903797240924818 0 6.0580045783502189e-08 -0.0050000174039796143 0 -5.782665395362979e-09 -0.0049072905988156047 0 -2.1744418663521478e-05 -0.0047978097007561078 0 -1.2498101382037168e-07 -0.0049996339751478876 0 1.7513098503568024e-07 -0.0049079752942048065 0 -1.3190021361785276e-05 -0.0049903797240924818 0 -2.3095397712219354e-07 -0.0046150245505000072 0 2.5208386707779523e-07 -0.0049068332699597162 0 -1.6452525789311027e-05 -0.0046055226572820325 0 -1.3190021361785276e-05 -0.0049903797240924818 0 6.0580045783502189e-08 -0.0050000174039796143 0 -4.7140380034558625e-05 -0.0049528711069570233 0 -5.7323440491705293e-05 -0.0045346159060578482 0 -1.6452525789311027e-05 -0.0046055226572820325 0 -9.3754703758630755e-05 -0.0045695230388254435 0 -2.1744418663521478e-05 -0.0047978097007561078 0 -6.5650999367136811e-05 -0.0047637868638427264 0 6.0580045783502189e-08 -0.0050000174039796143 0 -4.7140380034558625e-05 -0.0049528711069570233 0 -1.8166253369379786e-05 -0.0048604092583410937 0 -1.8166253369379786e-05 -0.0048604092583410937 0 -9.3171825237272692e-08 -0.0049993234887928508 0 -2.6996549711352068e-05 -0.0048166183128184993 0 6.0580045783502189e-08 -0.0050000174039796143 0 -1.8166253369379786e-05 -0.0048604092583410937 0 -9.3171825237272692e-08 -0.0049993234887928508 0 -5.2891857438657638e-05 -0.004775304148961405 0 -1.8166253369379786e-05 -0.0048604092583410937 0 -2.6996549711352068e-05 -0.0048166183128184993 0 -5.2891857438657638e-05 -0.004775304148961405 0 -7.4656887825279452e-05 -0.004719716416202703 0 -2.6996549711352068e-05 -0.0048166183128184993 0 -5.2891857438657638e-05 -0.004775304148961405 0 -1.8166253369379786e-05 -0.0048604092583410937 0 -9.2406395768503509e-05 -0.0047256164641138864 0 -4.7140380034558625e-05 -0.0049528711069570233 0 -1.8166253369379786e-05 -0.0048604092583410937 0 -9.2406395768503509e-05 -0.0047256164641138864 0 -4.960560039337946e-05 -0.0045696169460374648 0 -7.0319427343799455e-05 -0.0045922519888993915 0 -0.00015093288399912994 -0.0045477691715803516 0 -7.0319427343799455e-05 -0.0045922519888993915 0 -9.2406395768503509e-05 -0.0047256164641138864 0 -0.00015093288399912994 -0.0045477691715803516 0 -0.00015093288399912994 -0.0045477691715803516 0 -8.9726244783784457e-05 -0.0046098566729801402 0 -0.00016827284120616345 -0.0044435283341827522 0 -0.00015093288399912994 -0.0045477691715803516 0 -8.8367363125560724e-05 -0.0046723149739155527 0 -8.9726244783784457e-05 -0.0046098566729801402 0 -9.2406395768503509e-05 -0.0047256164641138864 0 -0.00015093288399912994 -0.0045477691715803516 0 -8.8367363125560724e-05 -0.0046723149739155527 0 -5.2891857438657638e-05 -0.004775304148961405 0 -9.2406395768503509e-05 -0.0047256164641138864 0 -8.8367363125560724e-05 -0.0046723149739155527 0 -8.8367363125560724e-05 -0.0046723149739155527 0 -8.9726244783784457e-05 -0.0046098566729801402 0 -7.4656887825279452e-05 -0.004719716416202703 0 -5.2891857438657638e-05 -0.004775304148961405 0 -8.8367363125560724e-05 -0.0046723149739155527 0 -7.4656887825279452e-05 -0.004719716416202703 0 -7.4656887825279452e-05 -0.004719716416202703 0 -8.8573747429946596e-05 -0.0046746286646422658 0 -4.3108509904137517e-05 -0.0047440761144803157 0 -9.2433875407442215e-05 -0.0045907736272863681 0 -3.0593452679175527e-05 -0.0048342249401121659 0 -8.9726244783784457e-05 -0.0046098566729801402 0 -7.4656887825279452e-05 -0.004719716416202703 0 -8.8573747429946596e-05 -0.0046746286646422658 0 -9.1501158482024098e-05 -0.0046085776468689985 0 -9.2433875407442215e-05 -0.0045907736272863681 0 -8.9726244783784457e-05 -0.0046098566729801402 0 -7.3040044029501011e-05 -0.0045343938734374424 0 -0.00016827284120616345 -0.0044435283341827522 0 -9.2433875407442215e-05 -0.0045907736272863681 0 -0.00017321474639170545 -0.0044559639309146391 0 -0.00014265911621831763 -0.0044215890365682589 0 -0.00016827284120616345 -0.0044435283341827522 0 -0.00014469717606209091 -0.00441947187052949 0 -0.00014608352345647069 -0.0043385884646412127 0 -0.00018697318873205264 -0.0043961065925533374 0 -0.00014469717606209091 -0.00441947187052949 0 -0.00013792599357328553 -0.0043964998615424232 0 -0.00014247539326803189 -0.0044163848302360784 0 -0.00018697318873205264 -0.0043961065925533374 0 -0.00016827284120616345 -0.0044435283341827522 0 -0.00014469717606209091 -0.00441947187052949 0 -0.0001310052299551325 -0.0044497361703055181 0 -0.00014469717606209091 -0.00441947187052949 0 -0.0001489566638623835 -0.004430088139644738 0 -0.00011669682401874637 -0.004556491720202384 0 -9.2433875407442215e-05 -0.0045907736272863681 0 -0.00014265911621831763 -0.0044215890365682589 0 -0.00014469717606209091 -0.00441947187052949 0 -0.0001489566638623835 -0.004430088139644738 0 -0.00016425379420651227 -0.0044437546572630143 0 -0.00014265911621831763 -0.0044215890365682589 0 -0.0001489566638623835 -0.004430088139644738 0 -6.1261370656739495e-05 -0.0047436703341387672 0 -5.2536932152262279e-05 -0.0046986694092391651 0 -8.1513181892509372e-05 -0.0047030253565726685 0 -1.0197153319163959e-05 -0.0050009667531456786 0 -3.9352681892335498e-06 -0.0050010010829599147 0 -5.1394401280451182e-06 -0.0050017997185259266 0 -7.6136796105582747e-05 -0.0047458885847038879 0 -6.1261370656739495e-05 -0.0047436703341387672 0 -8.1513181892509372e-05 -0.0047030253565726685 0 -3.8034145161674214e-05 -0.0048944075404423922 0 -3.0593452679175527e-05 -0.0048342249401121659 0 -8.1940753742546334e-09 -0.0050000095425853704 0 -3.9352681892335498e-06 -0.0050010010829599147 0 -3.1916091636937029e-09 -0.0050000030337623794 0 -2.6348413947423777e-08 -0.0050000067832594334 0 -3.0593452679175527e-05 -0.0048342249401121659 0 -9.3171825237272692e-08 -0.0049993234887928508 0 -2.6996549711352068e-05 -0.0048166183128184993 0 -1.7976277385907299e-05 -0.0048475752855612732 0 -3.9352681892335498e-06 -0.0050010010829599147 0 -3.1916091636937029e-09 -0.0050000030337623794 0 -5.1394401280451182e-06 -0.0050017997185259266 0 -3.0956842398083296e-05 -0.0048130221928599235 0 -3.0593452679175527e-05 -0.0048342249401121659 0 -7.4656887825279452e-05 -0.004719716416202703 0 -2.6996549711352068e-05 -0.0048166183128184993 0 -4.3108509904137517e-05 -0.0047440761144803157 0 0.0004924005180510099 -0.0021932073785291464 0 0.00065194425513038904 -0.0021179397415383122 0 0.00043699409895543788 -0.0020024633641339946 0 0.0004924005180510099 -0.0021932073785291464 0 0.00065194425513038904 -0.0021179397415383122 0 0.00063234541236926751 -0.002284057104945236 0 0.00065194425513038904 -0.0021179397415383122 0 0.00078839334881105325 -0.0021185448932106244 0 0.00076865228296836888 -0.0022530479314514336 0 0.00065194425513038904 -0.0021179397415383122 0 0.00076865228296836888 -0.0022530479314514336 0 0.00063234541236926751 -0.002284057104945236 0 0.00076865228296836888 -0.0022530479314514336 0 0.00089401944185172515 -0.0023431678826407835 0 0.00070177865249806189 -0.0024260932982403849 0 0.00076865228296836888 -0.0022530479314514336 0 0.00063234541236926751 -0.002284057104945236 0 0.00070177865249806189 -0.0024260932982403849 0 0.00063234541236926751 -0.002284057104945236 0 0.00051727420839890324 -0.0023748049482960024 0 0.00070177865249806189 -0.0024260932982403849 0 0.0004924005180510099 -0.0021932073785291464 0 0.00063234541236926751 -0.002284057104945236 0 0.00051727420839890324 -0.0023748049482960024 0 0.0004924005180510099 -0.0021932073785291464 0 0.00051727420839890324 -0.0023748049482960024 0 0.00035519073717106775 -0.002256626058979892 0 0.00051727420839890324 -0.0023748049482960024 0 0.00036869798429125633 -0.0024282421650329913 0 0.00035519073717106775 -0.002256626058979892 0 0.00036869798429125633 -0.0024282421650329913 0 0.00026488400998933651 -0.0025515806122810313 0 0.00016271971601515008 -0.0023220741343729801 0 0.00036869798429125633 -0.0024282421650329913 0 0.00035519073717106775 -0.002256626058979892 0 0.00016271971601515008 -0.0023220741343729801 0 0.00019673507981716258 -0.0020957989114662608 0 0.00035519073717106775 -0.002256626058979892 0 0.00016271971601515008 -0.0023220741343729801 0 0.00019673507981716258 -0.0020957989114662608 0 0.00035519073717106775 -0.002256626058979892 0 0.00035235512868365834 -0.0021045410467095318 0 0.0004924005180510099 -0.0021932073785291464 0 0.00035235512868365834 -0.0021045410467095318 0 0.00043699409895543788 -0.0020024633641339946 0 0.0004924005180510099 -0.0021932073785291464 0 0.00035519073717106775 -0.002256626058979892 0 0.00035235512868365834 -0.0021045410467095318 0 0.00035235512868365834 -0.0021045410467095318 0 0.00043699409895543788 -0.0020024633641339946 0 0.00027214735693197707 -0.0019441919545212078 0 0.00043699409895543788 -0.0020024633641339946 0 0.00027214735693197707 -0.0019441919545212078 0 0.00039181726485780499 -0.0018560493337814166 0 0.00019673507981716258 -0.0020957989114662608 0 0.00027214735693197707 -0.0019441919545212078 0 8.0799495261033814e-05 -0.0018585039912603859 0 0.00019673507981716258 -0.0020957989114662608 0 0.00035235512868365834 -0.0021045410467095318 0 0.00027214735693197707 -0.0019441919545212078 0 0.00027214735693197707 -0.0019441919545212078 0 0.00024177077550408861 -0.0017854308255524014 0 8.0799495261033814e-05 -0.0018585039912603859 0 0.00024177077550408861 -0.0017854308255524014 0 8.0799495261033814e-05 -0.0018585039912603859 0 9.9742567898759724e-05 -0.0016615063398392946 0 0.00043699409895543788 -0.0020024633641339946 0 0.00039181726485780499 -0.0018560493337814166 0 0.00052501904107242611 -0.0018789109405248439 0 0.00027214735693197707 -0.0019441919545212078 0 0.00024177077550408861 -0.0017854308255524014 0 0.00039181726485780499 -0.0018560493337814166 0 0.00024177077550408861 -0.0017854308255524014 0 0.00039181726485780499 -0.0018560493337814166 0 0.0003793633697181256 -0.0017368832201942971 0 0.00039181726485780499 -0.0018560493337814166 0 0.000504623687546815 -0.001761979622432699 0 0.0003793633697181256 -0.0017368832201942971 0 0.00052403503637281812 -0.0017657185956960815 0 0.000658081903836573 -0.0018025780672369382 0 0.000504623687546815 -0.001761979622432699 0 0.00063901443669179669 -0.0017950140596132104 0 0.00064493010525479462 -0.0017448059140328773 0 0.000504623687546815 -0.001761979622432699 0 0.00052501904107242611 -0.0018789109405248439 0 0.00066819064275446037 -0.0018237667336507856 0 0.00052501904107242611 -0.0018789109405248439 0 0.00062442933150372011 -0.0019392396865868726 0 0.00066819064275446037 -0.0018237667336507856 0 0.00039181726485780499 -0.0018560493337814166 0 0.000504623687546815 -0.001761979622432699 0 0.00052501904107242611 -0.0018789109405248439 0 0.00045753111408787349 -0.0019959496513942583 0 0.00062539961322589498 -0.0019540301237973273 0 0.00065194425513038904 -0.0021179397415383122 0 0.00043699409895543788 -0.0020024633641339946 0 0.00064154898205967157 -0.001950722250864778 0 0.00043699409895543788 -0.0020024633641339946 0 0.00052501904107242611 -0.0018789109405248439 0 0.00062442933150372011 -0.0019392396865868726 0 0.00064154898205967157 -0.001950722250864778 0 0.00075801136406252151 -0.0020113708177961842 0 0.00082246475898277004 -0.0019026350306012086 0 0.00065194425513038904 -0.0021179397415383122 0 0.00078839334881105325 -0.0021185448932106244 0 0.00075801136406252151 -0.0020113708177961842 0 0.00065194425513038904 -0.0021179397415383122 0 0.00064154898205967157 -0.001950722250864778 0 0.00075801136406252151 -0.0020113708177961842 0 0.00064493010525479462 -0.0017448059140328773 0 0.00072037362660203204 -0.0018095595942253346 0 0.0007620769910671977 -0.0018106643325086868 0 0.00062442933150372011 -0.0019392396865868726 0 0.00066819064275446037 -0.0018237667336507856 0 0.00082524501673105063 -0.0018789116050378217 0 0.000658081903836573 -0.0018025780672369382 0 0.00078577981190332106 -0.0016652623933963123 0 0.00017224437173730655 -0.0014582362591800935 0 0.00022467745901287567 -0.0014609543217639586 0 0.00024495748959772154 -0.001490974751688428 0 0.00063901443669179669 -0.0017950140596132104 0 0.00072037362660203204 -0.0018095595942253346 0 0.00072845552687806931 -0.001819732949829808 0 0.00041939480194946941 -0.0016242453652132243 0 0.00051652080962970943 -0.001396501609787661 0 0.00062539961322589498 -0.0019540301237973273 0 0.00078577981190332106 -0.0016652623933963123 0 0.00063901443669179669 -0.0017950140596132104 0 0.00064493010525479462 -0.0017448059140328773 0 0.00072037362660203204 -0.0018095595942253346 0 0.00022467745901287567 -0.0014609543217639586 0 0.00024495748959772154 -0.001490974751688428 0 0.00025889842852143494 -0.0014483923060352856 0 0.00077987566406421732 -0.0011901654146043903 0 0.00062101738439694686 -0.0012048165623088751 0 0.00039578538802450159 -0.0010815021996499951 0 0.00071113999628017203 -0.0015501067680146071 0 0.00062797876906772743 -0.0014592807122638216 0 0.00072037362660203204 -0.0018095595942253346 0 0.00075205156324073487 -0.0018114601880541389 0 0.00072845552687806931 -0.001819732949829808 0 0.00072037362660203204 -0.0018095595942253346 0 0.00075221973669297988 -0.0018134446424895563 0 0.0007620769910671977 -0.0018106643325086868 0 0.00062797876906772743 -0.0014592807122638216 0 0.00051652080962970943 -0.001396501609787661 0 0.0006925691281582971 -0.0012143486126822084 0 0.00077987566406421732 -0.0011901654146043903 0 0.00062101738439694686 -0.0012048165623088751 0 0.00062797876906772743 -0.0014592807122638216 0 0.00078577981190332106 -0.0016652623933963123 0 0.00051586546351580658 -0.0013101336404884329 0 0.00042901498503290992 -0.0011468004820485926 0 0.00051652080962970943 -0.001396501609787661 0 0.00011478663613984074 -0.00058566917408504069 0 0.00042658008228975777 -0.00085645589056328121 0 0.0004488248647120697 -0.00086858004743289451 0 0.00025057774091845515 -0.00092198365329471598 0 0.00055346925922470237 -0.0013871655123196228 0 0.00053942873897541352 -0.0013854454210483771 0 0.00054646938318625535 -0.0013891319593095119 0 0.00062797876906772743 -0.0014592807122638216 0 0.00051586546351580658 -0.0013101336404884329 0 0.00051586546351580658 -0.0013101336404884329 0 0.00051652080962970943 -0.001396501609787661 0 0.00024495748959772154 -0.001490974751688428 0 0.00029610639439610277 -0.001471731164601392 0 0.00025889842852143494 -0.0014483923060352856 0 -2.2123293658583308e-05 8.8220911900276433e-05 0 8.0039008632736958e-06 0.00010028633061643452 0 -6.7220060070821991e-06 0.00011926064930996942 0 -1.426552827471965e-05 8.4789052110037562e-05 0 -1.2851517170938447e-05 7.7433023295212563e-05 0 -2.8118111735120599e-06 8.4833609035486288e-05 0 0.00051586546351580658 -0.0013101336404884329 0 0.0002514291339206645 -0.00046771079383641368 0 0.00042658008228975777 -0.00085645589056328121 0 0.00025057774091845515 -0.00092198365329471598 0 0.00024235817720675467 -0.00083092179562716841 0 0.00060571916698484425 -0.0011917389438233067 0 0.00032775468869642978 -0.0011595353221813813 0 0.00039578538802450159 -0.0010815021996499951 0 0.00011478663613984074 -0.00058566917408504069 0 0.0002514291339206645 -0.00046771079383641368 0 0.00035192117487413763 -9.0328191472680247e-05 0 0.00035089540630237352 -7.0697059090034899e-05 0 0.00030497676032219007 -4.7870873622715335e-05 0 0.00036979922169654624 -9.8482425373998202e-05 0 0.00031570161099057318 -6.9879556326160188e-05 0 0.00035860142869254474 -2.0218674019152369e-05 0 0.00032775468869642978 -0.0011595353221813813 0 0.00039578538802450159 -0.0010815021996499951 0 0.00031074699950576378 -0.0010132925036474441 0 0.0002514291339206645 -0.00046771079383641368 0 0.00056349254270125716 -0.00090673727366237977 0 0.00077987566406421732 -0.0011901654146043903 0 0.00039578538802450159 -0.0010815021996499951 0 0.00031074699950576378 -0.0010132925036474441 0 0.00082246475898277004 -0.0019026350306012086 0 0.0010296926428836289 -0.0019753930754205875 0 0.00089704943495896329 -0.0020244342110335169 0 0.00078577981190332106 -0.0016652623933963123 0 0.00056349254270125716 -0.00090673727366237977 0 0.0010296926428836289 -0.0019753930754205875 0 0.00089704943495896329 -0.0020244342110335169 0 0.00091340868140668465 -0.002167387411143821 0 0.00078839334881105325 -0.0021185448932106244 0 0.00075801136406252151 -0.0020113708177961842 0 0.00089704943495896329 -0.0020244342110335169 0 0.00075801136406252151 -0.0020113708177961842 0 0.00082246475898277004 -0.0019026350306012086 0 0.00089704943495896329 -0.0020244342110335169 0 2.4277612430210438e-05 8.2498024735869937e-05 0 5.8417795784827472e-05 0.0001168398682298432 0 2.2920788331274318e-05 9.7003527556384868e-05 0 2.2551862261958054e-05 8.0402741633814941e-05 0 5.8953872807316753e-05 0.00010598341778623969 0 2.2920788331274318e-05 9.7003527556384868e-05 0 1.9653332298691916e-05 8.6349498895275782e-05 0 2.2551862261958054e-05 8.0402741633814941e-05 0 1.8158642266211028e-05 8.0664749758874559e-05 0 8.2552406659431964e-06 7.9932695415383718e-05 0 2.1900764300631726e-05 7.5936949635439172e-05 0 2.2920788331274318e-05 9.7003527556384868e-05 0 1.9653332298691916e-05 8.6349498895275782e-05 0 8.2552406659431964e-06 7.9932695415383718e-05 0 2.2551862261958054e-05 8.0402741633814941e-05 0 1.8158642266211028e-05 8.0664749758874559e-05 0 2.1900764300631726e-05 7.5936949635439172e-05 0 1.9653332298691916e-05 8.6349498895275782e-05 0 2.2551862261958054e-05 8.0402741633814941e-05 0 1.8158642266211028e-05 8.0664749758874559e-05 0 -1.426552827471965e-05 8.4789052110037562e-05 0 8.0039008632736958e-06 0.00010028633061643452 0 -2.8118111735120599e-06 8.4833609035486288e-05 0 0.00011478663613984074 -0.00058566917408504069 0 1.8589570552956491e-05 0.00013046101146890244 0 -1.2851517170938447e-05 7.7433023295212563e-05 0 8.2552406659431964e-06 7.9932695415383718e-05 0 -2.8118111735120599e-06 8.4833609035486288e-05 0 0.0002514291339206645 -0.00046771079383641368 0 0.00012600398814555482 6.9166065418186894e-05 0 -1.2851517170938447e-05 7.7433023295212563e-05 0 8.2552406659431964e-06 7.9932695415383718e-05 0 2.1900764300631726e-05 7.5936949635439172e-05 0 1.9653332298691916e-05 8.6349498895275782e-05 0 1.8158642266211028e-05 8.0664749758874559e-05 0 8.2552406659431964e-06 7.9932695415383718e-05 0 2.2920788331274318e-05 9.7003527556384868e-05 0 8.2552406659431964e-06 7.9932695415383718e-05 0 8.0039008632736958e-06 0.00010028633061643452 0 8.2552406659431964e-06 7.9932695415383718e-05 0 8.0039008632736958e-06 0.00010028633061643452 0 -2.8118111735120599e-06 8.4833609035486288e-05 0 0.00035192117487413763 -9.0328191472680247e-05 0 0.00030497676032219007 -4.7870873622715335e-05 0 0.00027541562041922282 -6.7211112735420585e-05 0 0.00056349254270125716 -0.00090673727366237977 0 0.00023250155969206808 -2.7140339844908191e-05 0 2.2551862261958054e-05 8.0402741633814941e-05 0 2.1900764300631726e-05 7.5936949635439172e-05 0 7.918023742722729e-05 5.9691067602573375e-05 0 0.00023250155969206808 -2.7140339844908191e-05 0 0.00029825992639122972 -4.8075943425792637e-05 0 0.00030497676032219007 -4.7870873622715335e-05 0 0.00027541562041922282 -6.7211112735420585e-05 0 0.00026594918085823949 -3.3244651224913481e-05 0 0.00031570161099057318 -6.9879556326160188e-05 0 0.00026594918085823949 -3.3244651224913481e-05 0 0.00030375812033829938 -4.9911729536987185e-06 0 0.00026594918085823949 -3.3244651224913481e-05 0 0.00030375812033829938 -4.9911729536987185e-06 0 0.00025584827762522135 7.7100916432659882e-06 0 0.00031570161099057318 -6.9879556326160188e-05 0 0.00030375812033829938 -4.9911729536987185e-06 0 0.00035860142869254474 -2.0218674019152369e-05 0 0.00030375812033829938 -4.9911729536987185e-06 0 0.00035860142869254474 -2.0218674019152369e-05 0 0.00035025166018308115 4.3357890951776201e-05 0 0.00030375812033829938 -4.9911729536987185e-06 0 0.00035025166018308115 4.3357890951776201e-05 0 0.00028784679611184476 3.8536186919910307e-05 0 0.00025584827762522135 7.7100916432659882e-06 0 0.00028784679611184476 3.8536186919910307e-05 0 0.00023915642897002378 5.0241132459699177e-05 0 0.00030375812033829938 -4.9911729536987185e-06 0 0.00025584827762522135 7.7100916432659882e-06 0 0.00028784679611184476 3.8536186919910307e-05 0 0.00078839334881105325 -0.0021185448932106244 0 0.00076865228296836888 -0.0022530479314514336 0 0.00091340868140668465 -0.002167387411143821 0 0.00078839334881105325 -0.0021185448932106244 0 0.00089704943495896329 -0.0020244342110335169 0 0.00091340868140668465 -0.002167387411143821 0 0.00091340868140668465 -0.002167387411143821 0 0.001047099279591018 -0.0022250324702178131 0 0.00089401944185172515 -0.0023431678826407835 0 0.00056349254270125716 -0.00090673727366237977 0 0.00071341905941761945 -0.0011415949040550126 0 0.0010296926428836289 -0.0019753930754205875 0 0.00091340868140668465 -0.002167387411143821 0 0.001047099279591018 -0.0022250324702178131 0 0.001047099279591018 -0.0022250324702178131 0 0.00089401944185172515 -0.0023431678826407835 0 0.0010505003730598946 -0.0024584391085098545 0 0.00071341905941761945 -0.0011415949040550126 0 0.00073836729473394837 -0.0012474828302183284 0 0.00076865228296836888 -0.0022530479314514336 0 0.00091340868140668465 -0.002167387411143821 0 0.00089401944185172515 -0.0023431678826407835 0 0.00089401944185172515 -0.0023431678826407835 0 0.00084969018359312102 -0.0024908930262510839 0 0.0010505003730598946 -0.0024584391085098545 0 0.00089401944185172515 -0.0023431678826407835 0 0.00084969018359312102 -0.0024908930262510839 0 0.00070177865249806189 -0.0024260932982403849 0 0.00084969018359312102 -0.0024908930262510839 0 0.0010505003730598946 -0.0024584391085098545 0 0.00088827492823922278 -0.0026224944941274299 0 0.0007127362469624744 -0.0028798289716050526 0 0.00034571120990397063 -0.0010653459582075453 0 0.0010505003730598946 -0.0024584391085098545 0 0.00088827492823922278 -0.0026224944941274299 0 0.001054667203694805 -0.0026525126578929256 0 0.00073836729473394837 -0.0012474828302183284 0 0.00034571120990397063 -0.0010653459582075453 0 0.00084969018359312102 -0.0024908930262510839 0 0.00088827492823922278 -0.0026224944941274299 0 0.00070310917193983362 -0.0026011170593821281 0 0.00028784679611184476 3.8536186919910307e-05 0 0.00027059678031080936 8.0431924369274161e-05 0 0.00023915642897002378 5.0241132459699177e-05 0 0.00028784679611184476 3.8536186919910307e-05 0 0.00031380030394858162 8.0004936398246745e-05 0 0.00027059678031080936 8.0431924369274161e-05 0 0.00035025166018308115 4.3357890951776201e-05 0 0.00028784679611184476 3.8536186919910307e-05 0 0.00031380030394858162 8.0004936398246745e-05 0 0.00031380030394858162 8.0004936398246745e-05 0 0.00027334331281865857 0.00014721807506609802 0 0.00034466258516582788 0.00011165766461430945 0 0.00035025166018308115 4.3357890951776201e-05 0 0.00031380030394858162 8.0004936398246745e-05 0 0.00034466258516582788 0.00011165766461430945 0 0.00027059678031080936 8.0431924369274161e-05 0 0.00027334331281865857 0.00014721807506609802 0 0.00023934550935433751 0.00010063953351576984 0 0.00031380030394858162 8.0004936398246745e-05 0 0.00027059678031080936 8.0431924369274161e-05 0 0.00027334331281865857 0.00014721807506609802 0 -7.4403573545481493e-05 0.00072410956313094423 0 0.00034571120990397063 -0.0010653459582075453 0 -0.00018001896520409172 -0.00071482863629743134 0 0.00034571120990397063 -0.0010653459582075453 0 -0.00023669266872579006 0.00092228067472758526 0 -0.00017416307002252016 0.00097034061423816357 0 -0.00015006732450691853 0.00086577225404559706 0 -0.00023669266872579006 0.00092228067472758526 0 -0.00017416307002252016 0.00097034061423816357 0 -0.00024908230317812727 0.00097171301015435817 0 -0.00022623413527231355 0.0010053866572155166 0 -0.00017416307002252016 0.00097034061423816357 0 -0.00024908230317812727 0.00097171301015435817 0 0.00035289245945104209 -0.0028591959565937653 0 0.00043967094762832485 -0.0026397821959290402 0 0.00050073295809978456 -0.0027635921441501979 0 0.00035289245945104209 -0.0028591959565937653 0 0.00020823279184792223 -0.0026062153534656637 0 0.00043967094762832485 -0.0026397821959290402 0 -7.7274487013824172e-05 -0.0024623734002428713 0 3.7903863694315231e-05 -0.0028120309223370926 0 0.00020823279184792223 -0.0026062153534656637 0 0.00035289245945104209 -0.0028591959565937653 0 3.7903863694315231e-05 -0.0028120309223370926 0 0.00020823279184792223 -0.0026062153534656637 0 0.0001349431338026793 -0.0023217867784600696 0 -7.7274487013824172e-05 -0.0024623734002428713 0 0.00020823279184792223 -0.0026062153534656637 0 0.00032443619972146132 -0.0024152726235320871 0 0.00020823279184792223 -0.0026062153534656637 0 0.00043967094762832485 -0.0026397821959290402 0 0.00032443619972146132 -0.0024152726235320871 0 0.0001349431338026793 -0.0023217867784600696 0 0.00020823279184792223 -0.0026062153534656637 0 0.00049345991805462225 -0.002447501349994633 0 0.00032443619972146132 -0.0024152726235320871 0 0.00043967094762832485 -0.0026397821959290402 0 0.00049345991805462225 -0.002447501349994633 0 0.00043967094762832485 -0.0026397821959290402 0 0.00057093017003997362 -0.002582379672285457 0 0.00057093017003997362 -0.002582379672285457 0 0.00058031765305030709 -0.0027011025717815227 0 0.00062444561381588836 -0.0026690567287505117 0 0.00043967094762832485 -0.0026397821959290402 0 0.00057093017003997362 -0.002582379672285457 0 0.00058031765305030709 -0.0027011025717815227 0 0.00059884872286465282 -0.0027741809509073123 0 0.00062444561381588836 -0.0026690567287505117 0 0.00059288099881443172 -0.0027457939498680517 0 0.00058031765305030709 -0.0027011025717815227 0 0.00059884872286465282 -0.0027741809509073123 0 0.00062444561381588836 -0.0026690567287505117 0 0.00066424652096638403 -0.0024687642231160309 0 0.00057093017003997362 -0.002582379672285457 0 0.00062444561381588836 -0.0026690567287505117 0 0.00059884872286465282 -0.0027741809509073123 0 0.00057719928457594877 -0.0027597589505585387 0 0.00051850947291895335 -0.0027856162632845863 0 0.00058031765305030709 -0.0027011025717815227 0 0.00059884872286465282 -0.0027741809509073123 0 0.00057719928457594877 -0.0027597589505585387 0 0.00043967094762832485 -0.0026397821959290402 0 0.00058031765305030709 -0.0027011025717815227 0 0.00050073295809978456 -0.0027635921441501979 0 0.00058031765305030709 -0.0027011025717815227 0 0.00057719928457594877 -0.0027597589505585387 0 0.00050073295809978456 -0.0027635921441501979 0 0.00057719928457594877 -0.0027597589505585387 0 0.00050073295809978456 -0.0027635921441501979 0 0.00055662248191712274 -0.0027600060440019819 0 0.0007127362469624744 -0.0028798289716050526 0 0.00058630082813855816 -0.002661306375085582 0 0.00035289245945104209 -0.0028591959565937653 0 0.00050073295809978456 -0.0027635921441501979 0 0.00055662248191712274 -0.0027600060440019819 0 0.00057719928457594877 -0.0027597589505585387 0 0.00055662248191712274 -0.0027600060440019819 0 0.00051248642761359149 -0.0026049470080140064 0 0.00057719928457594877 -0.0027597589505585387 0 0.00051248642761359149 -0.0026049470080140064 0 0.00051850947291895335 -0.0027856162632845863 0 0.00058630082813855816 -0.002661306375085582 0 0.00052187524320379726 -0.0026181836085372827 0 0.00070310917193983362 -0.0026011170593821281 0 0.00070177865249806189 -0.0024260932982403849 0 0.00051248642761359149 -0.0026049470080140064 0 0.00051727420839890324 -0.0023748049482960024 0 0.00070177865249806189 -0.0024260932982403849 0 0.00051248642761359149 -0.0026049470080140064 0 0.00084969018359312102 -0.0024908930262510839 0 0.00070310917193983362 -0.0026011170593821281 0 0.00070177865249806189 -0.0024260932982403849 0 0.00051727420839890324 -0.0023748049482960024 0 0.00036869798429125633 -0.0024282421650329913 0 0.00051248642761359149 -0.0026049470080140064 0 0.00036869798429125633 -0.0024282421650329913 0 0.00026488400998933651 -0.0025515806122810313 0 0.00051248642761359149 -0.0026049470080140064 0 0.00051248642761359149 -0.0026049470080140064 0 0.0003651978747708418 -0.002808899415870945 0 0.00051850947291895335 -0.0027856162632845863 0 0.00026488400998933651 -0.0025515806122810313 0 0.00051248642761359149 -0.0026049470080140064 0 0.0003651978747708418 -0.002808899415870945 0 0.00026488400998933651 -0.0025515806122810313 0 0.0003651978747708418 -0.002808899415870945 0 0.00016243333033244084 -0.0026766223032364321 0 0.0003651978747708418 -0.002808899415870945 0 0.00044642205381730058 -0.0028957622211372245 0 0.00029621149819401388 -0.0030453958143441982 0 0.00059884872286465282 -0.0027741809509073123 0 0.00051850947291895335 -0.0027856162632845863 0 0.00044642205381730058 -0.0028957622211372245 0 0.0003651978747708418 -0.002808899415870945 0 0.00051850947291895335 -0.0027856162632845863 0 0.00044642205381730058 -0.0028957622211372245 0 0.00057948969504398133 -0.0028047131498029772 0 0.0004774959188754288 -0.0029060304590085009 0 0.00059884872286465282 -0.0027741809509073123 0 0.00044642205381730058 -0.0028957622211372245 0 0.00041415227224395035 -0.0030770795274075446 0 0.00059884872286465282 -0.0027741809509073123 0 0.00059288099881443172 -0.0027457939498680517 0 0.00056221066370714464 -0.0027396125112376535 0 0.00044642205381730058 -0.0028957622211372245 0 0.00041415227224395035 -0.0030770795274075446 0 0.00029621149819401388 -0.0030453958143441982 0 0.00025260695873279313 -0.003248479114642528 0 0.00041415227224395035 -0.0030770795274075446 0 0.00029621149819401388 -0.0030453958143441982 0 0.00029621149819401388 -0.0030453958143441982 0 0.00020554463391702309 -0.003019220945268374 0 0.00014214307091512651 -0.0032341906075311184 0 0.00025260695873279313 -0.003248479114642528 0 0.00029621149819401388 -0.0030453958143441982 0 0.00014214307091512651 -0.0032341906075311184 0 0.0003651978747708418 -0.002808899415870945 0 0.00029621149819401388 -0.0030453958143441982 0 0.00020554463391702309 -0.003019220945268374 0 0.00036113164325420093 -0.0028272860007866208 0 0.00012922900480621962 -0.0029199115936337033 0 2.5424248131002106e-05 -0.0028307194062240316 0 -0.00024931756696692001 -0.002838112122066608 0 -0.00016455642228549078 -0.0026548288994379709 0 0.00020554463391702309 -0.003019220945268374 0 0.00014214307091512651 -0.0032341906075311184 0 6.3649956342364322e-05 -0.0031992866413155983 0 0.00012922900480621962 -0.0029199115936337033 0 -8.4766203364925615e-05 -0.0030183982748221501 0 0.00014214307091512651 -0.0032341906075311184 0 3.0818728636984538e-05 -0.0033341231519401688 0 6.3649956342364322e-05 -0.0031992866413155983 0 8.3372823601150279e-05 -0.0033897568803479845 0 0.00014214307091512651 -0.0032341906075311184 0 3.0818728636984538e-05 -0.0033341231519401688 0 3.0818728636984538e-05 -0.0033341231519401688 0 -4.0089447975862625e-05 -0.0034410152056280024 0 -4.9307754281595829e-05 -0.0033693707216497304 0 -1.7158671956129277e-06 -0.0034617846137739278 0 3.0818728636984538e-05 -0.0033341231519401688 0 -4.0089447975862625e-05 -0.0034410152056280024 0 -0.00024931756696692001 -0.002838112122066608 0 -0.0003618194654564267 -0.0026226606102781346 0 -0.00050782760844593185 -0.0028529126459125986 0 3.0818728636984538e-05 -0.0033341231519401688 0 6.3649956342364322e-05 -0.0031992866413155983 0 -4.9307754281595829e-05 -0.0033693707216497304 0 -8.4766203364925615e-05 -0.0030183982748221501 0 -0.00027001794330860251 -0.0031105947240142443 0 -0.00024931756696692001 -0.002838112122066608 0 -0.00016455642228549078 -0.0026548288994379709 0 -0.0003618194654564267 -0.0026226606102781346 0 -0.0003618194654564267 -0.0026226606102781346 0 -0.00021747714059445946 -0.0024292318603604808 0 -0.00042555539118168398 -0.0023163730038339822 0 -0.0003618194654564267 -0.0026226606102781346 0 -0.00053562885822056408 -0.0024912087728674562 0 -0.00042555539118168398 -0.0023163730038339822 0 -0.00016455642228549078 -0.0026548288994379709 0 -0.0003618194654564267 -0.0026226606102781346 0 -0.00021747714059445946 -0.0024292318603604808 0 -0.00016455642228549078 -0.0026548288994379709 0 -0.00021747714059445946 -0.0024292318603604808 0 9.5062263251436867e-06 -0.0025396735676722856 0 -0.00021747714059445946 -0.0024292318603604808 0 9.5062263251436867e-06 -0.0025396735676722856 0 -5.71463653923021e-05 -0.002328776713576276 0 0.00026488400998933651 -0.0025515806122810313 0 9.5062263251436867e-06 -0.0025396735676722856 0 0.00016271971601515008 -0.0023220741343729801 0 0.00026488400998933651 -0.0025515806122810313 0 9.5062263251436867e-06 -0.0025396735676722856 0 0.00016243333033244084 -0.0026766223032364321 0 2.5424248131002106e-05 -0.0028307194062240316 0 9.5062263251436867e-06 -0.0025396735676722856 0 0.00016243333033244084 -0.0026766223032364321 0 0.0003651978747708418 -0.002808899415870945 0 2.5424248131002106e-05 -0.0028307194062240316 0 0.00016243333033244084 -0.0026766223032364321 0 2.5424248131002106e-05 -0.0028307194062240316 0 -0.00016455642228549078 -0.0026548288994379709 0 9.5062263251436867e-06 -0.0025396735676722856 0 -0.00016130720658191571 -0.0038397818286130822 0 -0.00019737421588308899 -0.0037880374993789268 0 -0.00015875265853409329 -0.0039636459421668012 0 -0.00013875115271775758 -0.0036905399196110705 0 -0.00013548616989123263 -0.0037698890761556033 0 -0.00013805705281506791 -0.0037225921708974137 0 -0.00016130720658191571 -0.0038397818286130822 0 -0.00019737421588308899 -0.0037880374993789268 0 -0.00013548616989123263 -0.0037698890761556033 0 -0.00052274429186783405 -0.0033340818288105328 0 -0.00018351066112461397 -0.0034992540576280129 0 -0.00012184176945031357 -0.0037468354963699729 0 -0.00013548616989123263 -0.0037698890761556033 0 -0.00013805705281506791 -0.0037225921708974137 0 -0.00013875115271775758 -0.0036905399196110705 0 -0.00013680128856190745 -0.0037082823952048717 0 -0.00013508876234204244 -0.0036941991409527369 0 -0.00013805705281506791 -0.0037225921708974137 0 -0.00013680128856190745 -0.0037082823952048717 0 -0.00013033860801526885 -0.0037139654540369322 0 -0.00013875115271775758 -0.0036905399196110705 0 -0.00013805705281506791 -0.0037225921708974137 0 -0.00013680128856190745 -0.0037082823952048717 0 -0.00013033860801526885 -0.0037139654540369322 0 -0.00013042705134714335 -0.0036858272349445547 0 -0.00013508876234204244 -0.0036941991409527369 0 -0.00013680128856190745 -0.0037082823952048717 0 -0.00013033860801526885 -0.0037139654540369322 0 -0.00013508876234204244 -0.0036941991409527369 0 -0.00012184176945031357 -0.0037468354963699729 0 -0.00011432603930392757 -0.0037302452986870994 0 -0.00013033860801526885 -0.0037139654540369322 0 -0.00012184176945031357 -0.0037468354963699729 0 -0.00013805705281506791 -0.0037225921708974137 0 -0.00013033860801526885 -0.0037139654540369322 0 -0.00011432603930392757 -0.0037302452986870994 0 -0.00013033860801526885 -0.0037139654540369322 0 -0.00012153904912463968 -0.0036994712550182419 0 -0.00013033860801526885 -0.0037139654540369322 0 -0.00012153904912463968 -0.0036994712550182419 0 -0.00013042705134714335 -0.0036858272349445547 0 -0.00012153904912463968 -0.0036994712550182419 0 -0.00012649834238169055 -0.0036607151120204694 0 -0.00013042705134714335 -0.0036858272349445547 0 -0.00012649834238169055 -0.0036607151120204694 0 -0.00013042705134714335 -0.0036858272349445547 0 -0.00013161190804013254 -0.0036548821816515791 0 -0.00013042705134714335 -0.0036858272349445547 0 -0.00013161190804013254 -0.0036548821816515791 0 -0.00013508876234204244 -0.0036941991409527369 0 -0.00013875115271775758 -0.0036905399196110705 0 -0.00013161190804013254 -0.0036548821816515791 0 -0.00013508876234204244 -0.0036941991409527369 0 -0.00013161190804013254 -0.0036548821816515791 0 -0.000122153729408981 -0.0036111499825854211 0 -0.00011560036598474757 -0.0035270780850226065 0 -0.00012649834238169055 -0.0036607151120204694 0 -0.00013161190804013254 -0.0036548821816515791 0 -0.000122153729408981 -0.0036111499825854211 0 -0.00011914755728412727 -0.0036323234380461296 0 -0.00012649834238169055 -0.0036607151120204694 0 -0.000122153729408981 -0.0036111499825854211 0 -0.00011914755728412727 -0.0036323234380461296 0 -0.000122153729408981 -0.0036111499825854211 0 -0.00010294483169808351 -0.0035526424761495867 0 -0.00052274429186783405 -0.0033340818288105328 0 -0.00042564875229717723 -0.0031883554874330244 0 -0.0009375971876972607 -0.0028592269594949521 0 -0.00075341078150547181 -0.0028649867275813419 0 -0.00086504866680581682 -0.002732374817577916 0 -0.00013875115271775758 -0.0036905399196110705 0 -0.00013161190804013254 -0.0036548821816515791 0 -0.00011560036598474757 -0.0035270780850226065 0 -0.00042564875229717723 -0.0031883554874330244 0 -0.00027001794330860251 -0.0031105947240142443 0 -0.00075341078150547181 -0.0028649867275813419 0 -0.00050782760844593185 -0.0028529126459125986 0 -0.00066634561513432861 -0.0026657854799782689 0 -0.000122153729408981 -0.0036111499825854211 0 -0.00011560036598474757 -0.0035270780850226065 0 -0.00010294483169808351 -0.0035526424761495867 0 -0.00011560036598474757 -0.0035270780850226065 0 -0.00010294483169808351 -0.0035526424761495867 0 -4.9307754281595829e-05 -0.0033693707216497304 0 -6.3554182115871749e-05 -0.00352689292914409 0 -0.00010294483169808351 -0.0035526424761495867 0 -4.0089447975862625e-05 -0.0034410152056280024 0 -0.00010294483169808351 -0.0035526424761495867 0 -4.0089447975862625e-05 -0.0034410152056280024 0 -4.9307754281595829e-05 -0.0033693707216497304 0 -0.0003618194654564267 -0.0026226606102781346 0 -0.00050782760844593185 -0.0028529126459125986 0 -0.00066634561513432861 -0.0026657854799782689 0 -0.0003618194654564267 -0.0026226606102781346 0 -0.00053562885822056408 -0.0024912087728674562 0 -0.00066634561513432861 -0.0026657854799782689 0 -0.00053562885822056408 -0.0024912087728674562 0 -0.00066634561513432861 -0.0026657854799782689 0 -0.0006873270255162245 -0.0023546216847503501 0 -0.00066634561513432861 -0.0026657854799782689 0 -0.00085809695481388771 -0.0024799820172243373 0 -0.0006873270255162245 -0.0023546216847503501 0 -0.00075341078150547181 -0.0028649867275813419 0 -0.00066634561513432861 -0.0026657854799782689 0 -0.00086504866680581682 -0.002732374817577916 0 -0.00066634561513432861 -0.0026657854799782689 0 -0.00086504866680581682 -0.002732374817577916 0 -0.00085809695481388771 -0.0024799820172243373 0 -0.00086110632312763873 -0.0026981899490120397 0 -0.0008775263805854991 -0.0026148779100094296 0 -0.00086504866680581682 -0.002732374817577916 0 -0.00085574323021150574 -0.0026463742537274301 0 -0.00093194285184122327 -0.0026944826840093095 0 -0.00085574323021150574 -0.0026463742537274301 0 -0.00093194285184122327 -0.0026944826840093095 0 -0.00093329234784633199 -0.0025975427962540328 0 -0.0005708508727814629 -0.0033524785535881995 0 -0.00039010311880275159 -0.0032296202211904513 0 -0.0009375971876972607 -0.0028592269594949521 0 -0.00086504866680581682 -0.002732374817577916 0 -0.00093194285184122327 -0.0026944826840093095 0 -0.00052274429186783405 -0.0033340818288105328 0 -0.0005708508727814629 -0.0033524785535881995 0 -0.00013201477719333412 -0.0038914895365174573 0 -0.00016130720658191571 -0.0038397818286130822 0 -0.00015875265853409329 -0.0039636459421668012 0 -0.00050603693220586932 -0.0021515615555732373 0 -0.00038342922627063121 -0.0021041043947185303 0 -0.00044536135063244508 -0.0020427962550399756 0 -0.00039010311880275159 -0.0032296202211904513 0 -0.00064316523386207544 -0.0021839683342468569 0 -0.00051325834410026298 -0.0020067939565089968 0 -0.00050603693220586932 -0.0021515615555732373 0 -0.00044536135063244508 -0.0020427962550399756 0 -0.00085809695481388771 -0.0024799820172243373 0 -0.0008327220923143436 -0.0022316384027203555 0 -0.0006873270255162245 -0.0023546216847503501 0 -0.00085574323021150574 -0.0026463742537274301 0 -0.00093329234784633199 -0.0025975427962540328 0 -0.00084081922546089022 -0.0025647980455547142 0 -0.0008775263805854991 -0.0026148779100094296 0 -0.00064316523386207544 -0.0021839683342468569 0 -0.00064316523386207544 -0.0021839683342468569 0 -0.00037928168671609109 -0.001939175234044511 0 -0.00042813165008494437 -0.0020021354542840105 0 -0.00037626147479446104 -0.0019859233578946723 0 -0.00041551443844845709 -0.0019421539616317021 0 -0.00064316523386207544 -0.0021839683342468569 0 -0.00050107798321743417 -0.0020707624715918856 0 -0.0008327220923143436 -0.0022316384027203555 0 -0.00063600892556569513 -0.0021651376742136273 0 -0.0006873270255162245 -0.0023546216847503501 0 -0.00063600892556569513 -0.0021651376742136273 0 -0.0006873270255162245 -0.0023546216847503501 0 -0.00042555539118168398 -0.0023163730038339822 0 -0.00053562885822056408 -0.0024912087728674562 0 -0.0006873270255162245 -0.0023546216847503501 0 -0.00042555539118168398 -0.0023163730038339822 0 -0.00063600892556569513 -0.0021651376742136273 0 -0.00042555539118168398 -0.0023163730038339822 0 -0.00044228552279073269 -0.0020907951288782175 0 -0.00050107798321743417 -0.0020707624715918856 0 -0.00037786401598913162 -0.0020367239179431913 0 -0.00037394456935749271 -0.0019339909754710742 0 -0.00032489384281173699 -0.001981757940407127 0 -0.00030367074912125057 -0.0019173564696771809 0 -0.00037626147479446104 -0.0019859233578946723 0 -0.00037394456935749271 -0.0019339909754710742 0 -0.00032489384281173699 -0.001981757940407127 0 -0.00037394456935749271 -0.0019339909754710742 0 -0.0003434425323459611 -0.001883700142193027 0 -0.00030367074912125057 -0.0019173564696771809 0 -0.00037394456935749271 -0.0019339909754710742 0 -0.00041551443844845709 -0.0019421539616317021 0 -0.00039457441763195064 -0.0018946596671229321 0 -0.00037394456935749271 -0.0019339909754710742 0 -0.0003434425323459611 -0.001883700142193027 0 -0.00039457441763195064 -0.0018946596671229321 0 -0.00037626147479446104 -0.0019859233578946723 0 -0.00037394456935749271 -0.0019339909754710742 0 -0.00041551443844845709 -0.0019421539616317021 0 -0.00038342922627063121 -0.0021041043947185303 0 -0.00037886159221072331 -0.0019976021916817627 0 -0.00044536135063244508 -0.0020427962550399756 0 -0.00037886159221072331 -0.0019976021916817627 0 -0.00044714041099940162 -0.0019407000770406127 0 -0.00044536135063244508 -0.0020427962550399756 0 -0.00037886159221072331 -0.0019976021916817627 0 -0.00044714041099940162 -0.0019407000770406127 0 -0.00039457441763195064 -0.0018946596671229321 0 -0.00037928168671609109 -0.001939175234044511 0 -0.00039744031419708972 -0.0019163820669986793 0 -0.00051325834410026298 -0.0020067939565089968 0 -0.00049563152657160193 -0.0018950149734142834 0 -0.00044714041099940162 -0.0019407000770406127 0 -0.00051325834410026298 -0.0020067939565089968 0 -0.00044714041099940162 -0.0019407000770406127 0 -0.00044536135063244508 -0.0020427962550399756 0 -2.7825988500096202e-05 -0.0020934164118307716 0 -0.00021504944406497371 -0.0022124339530615244 0 -0.00023673039262672596 -0.0020035983982572168 0 -2.7825988500096202e-05 -0.0020934164118307716 0 -5.71463653923021e-05 -0.002328776713576276 0 -0.00021504944406497371 -0.0022124339530615244 0 -2.7825988500096202e-05 -0.0020934164118307716 0 0.00016271971601515008 -0.0023220741343729801 0 -5.71463653923021e-05 -0.002328776713576276 0 0.00019673507981716258 -0.0020957989114662608 0 -2.7825988500096202e-05 -0.0020934164118307716 0 0.00016271971601515008 -0.0023220741343729801 0 9.5062263251436867e-06 -0.0025396735676722856 0 0.00016271971601515008 -0.0023220741343729801 0 -5.71463653923021e-05 -0.002328776713576276 0 -0.00021747714059445946 -0.0024292318603604808 0 -5.71463653923021e-05 -0.002328776713576276 0 -0.00021504944406497371 -0.0022124339530615244 0 -0.00021747714059445946 -0.0024292318603604808 0 -0.00042555539118168398 -0.0023163730038339822 0 -0.00021504944406497371 -0.0022124339530615244 0 -0.00042555539118168398 -0.0023163730038339822 0 -0.00021504944406497371 -0.0022124339530615244 0 -0.00044228552279073269 -0.0020907951288782175 0 -0.00021504944406497371 -0.0022124339530615244 0 -0.00023673039262672596 -0.0020035983982572168 0 -0.00044228552279073269 -0.0020907951288782175 0 -0.00023673039262672596 -0.0020035983982572168 0 -0.00030367074912125057 -0.0019173564696771809 0 -0.00015442307543163183 -0.0018857486827690252 0 -0.00023673039262672596 -0.0020035983982572168 0 -0.00032489384281173699 -0.001981757940407127 0 -0.00030367074912125057 -0.0019173564696771809 0 -0.0002456238349812521 -0.0020030556929832972 0 -0.00037786401598913162 -0.0020367239179431913 0 -0.0003434425323459611 -0.001883700142193027 0 -0.00030367074912125057 -0.0019173564696771809 0 -0.00027004239123207735 -0.0017804845562836987 0 -0.00030367074912125057 -0.0019173564696771809 0 -0.00015442307543163183 -0.0018857486827690252 0 -0.00027004239123207735 -0.0017804845562836987 0 -2.7825988500096202e-05 -0.0020934164118307716 0 -0.00023673039262672596 -0.0020035983982572168 0 -0.00015442307543163183 -0.0018857486827690252 0 -2.7825988500096202e-05 -0.0020934164118307716 0 -0.00015442307543163183 -0.0018857486827690252 0 8.0799495261033814e-05 -0.0018585039912603859 0 0.00019673507981716258 -0.0020957989114662608 0 -2.7825988500096202e-05 -0.0020934164118307716 0 8.0799495261033814e-05 -0.0018585039912603859 0 -0.00015442307543163183 -0.0018857486827690252 0 8.0799495261033814e-05 -0.0018585039912603859 0 -5.2156939470856334e-05 -0.001669166563920592 0 8.0799495261033814e-05 -0.0018585039912603859 0 -5.2156939470856334e-05 -0.001669166563920592 0 9.9742567898759724e-05 -0.0016615063398392946 0 -5.2156939470856334e-05 -0.001669166563920592 0 3.9635382753046592e-05 -0.0014798910625447674 0 9.9742567898759724e-05 -0.0016615063398392946 0 -5.2156939470856334e-05 -0.001669166563920592 0 3.9635382753046592e-05 -0.0014798910625447674 0 -0.00016521923337585096 -0.0014796144457921792 0 -5.2156939470856334e-05 -0.001669166563920592 0 -0.00027004239123207735 -0.0017804845562836987 0 -0.00016521923337585096 -0.0014796144457921792 0 -0.00015442307543163183 -0.0018857486827690252 0 -5.2156939470856334e-05 -0.001669166563920592 0 -0.00027004239123207735 -0.0017804845562836987 0 -0.00027004239123207735 -0.0017804845562836987 0 -0.00029397498025247729 -0.001778093889862721 0 -0.00034822843911521279 -0.001837825001879673 0 -0.0003434425323459611 -0.001883700142193027 0 -0.00027004239123207735 -0.0017804845562836987 0 -0.00034822843911521279 -0.001837825001879673 0 -0.00026629609592102466 -0.0017647174140690918 0 -0.00021030658050228421 -0.0016328845765703778 0 -0.00027004239123207735 -0.0017804845562836987 0 -0.00029397498025247729 -0.001778093889862721 0 -0.00025190663766374856 -0.0017659488949200673 0 -0.00029397498025247729 -0.001778093889862721 0 -0.0002740396951026934 -0.0017343653219003255 0 -0.00025190663766374856 -0.0017659488949200673 0 -0.00029397498025247729 -0.001778093889862721 0 -0.00030750754254715217 -0.0017485220163434765 0 -0.00034616865994622738 -0.0018007233679389065 0 -0.00029397498025247729 -0.001778093889862721 0 -0.00030750754254715217 -0.0017485220163434765 0 -0.0002740396951026934 -0.0017343653219003255 0 -0.00030750754254715217 -0.0017485220163434765 0 -0.00030844644377091908 -0.0017178417276569264 0 -0.0002740396951026934 -0.0017343653219003255 0 -0.00030844644377091908 -0.0017178417276569264 0 -0.0002740396951026934 -0.0017343653219003255 0 -0.0002645803543991243 -0.0016891930225961466 0 -0.0002740396951026934 -0.0017343653219003255 0 -0.00022077254410093506 -0.0017173652673429993 0 -0.0002645803543991243 -0.0016891930225961466 0 -0.00012706563265398225 -0.0014776286796252705 0 -4.7577991862795932e-05 -0.0013094414542523681 0 -0.00023287459998572058 -0.0012044839601956299 0 -0.0001246953839317819 -0.0011540948666257471 0 -0.00011102477821174313 -0.0012842048535495008 0 -5.8475269138050318e-05 -0.0013011786981284308 0 -2.8931807754191623e-05 -0.0014108129591604069 0 4.7576256034596871e-05 -0.0013848272896741735 0 3.9635382753046592e-05 -0.0014798910625447674 0 -2.8931807754191623e-05 -0.0014108129591604069 0 4.7576256034596871e-05 -0.0013848272896741735 0 3.9635382753046592e-05 -0.0014798910625447674 0 -2.8931807754191623e-05 -0.0014108129591604069 0 -0.00016521923337585096 -0.0014796144457921792 0 -5.8475269138050318e-05 -0.0013011786981284308 0 -2.8931807754191623e-05 -0.0014108129591604069 0 -0.00016521923337585096 -0.0014796144457921792 0 -0.00012706563265398225 -0.0014776286796252705 0 -0.00021030658050228421 -0.0016328845765703778 0 -0.0002740396951026934 -0.0017343653219003255 0 -0.00022077254410093506 -0.0017173652673429993 0 -0.00025190663766374856 -0.0017659488949200673 0 -0.00049563152657160193 -0.0018950149734142834 0 -0.00044109201330836545 -0.0018662453451345124 0 -0.00046082247741640204 -0.0018517396082924553 0 -0.00044109201330836545 -0.0018662453451345124 0 -0.00046082247741640204 -0.0018517396082924553 0 -0.00044130295180389728 -0.0018394245485176732 0 -0.00049563152657160193 -0.0018950149734142834 0 -0.00044714041099940162 -0.0019407000770406127 0 -0.00044109201330836545 -0.0018662453451345124 0 -0.00044714041099940162 -0.0019407000770406127 0 -0.00044109201330836545 -0.0018662453451345124 0 -0.00039457441763195064 -0.0018946596671229321 0 -0.00044109201330836545 -0.0018662453451345124 0 -0.00040095570163646132 -0.0018409326154703734 0 -0.00039457441763195064 -0.0018946596671229321 0 -0.00044109201330836545 -0.0018662453451345124 0 -0.00040095570163646132 -0.0018409326154703734 0 -0.00044130295180389728 -0.0018394245485176732 0 -0.00040095570163646132 -0.0018409326154703734 0 -0.00041125964510656254 -0.0018170637584955375 0 -0.00044130295180389728 -0.0018394245485176732 0 -0.00040095570163646132 -0.0018409326154703734 0 -0.00034616865994622738 -0.0018007233679389065 0 -0.00041125964510656254 -0.0018170637584955375 0 -0.00040095570163646132 -0.0018409326154703734 0 -0.00034822843911521279 -0.001837825001879673 0 -0.00034616865994622738 -0.0018007233679389065 0 -0.00040095570163646132 -0.0018409326154703734 0 -0.00039457441763195064 -0.0018946596671229321 0 -0.00034822843911521279 -0.001837825001879673 0 -0.0003434425323459611 -0.001883700142193027 0 -0.00039457441763195064 -0.0018946596671229321 0 -0.00034822843911521279 -0.001837825001879673 0 -0.00029397498025247729 -0.001778093889862721 0 -0.00034822843911521279 -0.001837825001879673 0 -0.00034616865994622738 -0.0018007233679389065 0 -0.00030750754254715217 -0.0017485220163434765 0 -0.00034616865994622738 -0.0018007233679389065 0 -0.00034800241974975994 -0.0017428992021741826 0 -0.00030844644377091908 -0.0017178417276569264 0 -0.00034800241974975994 -0.0017428992021741826 0 -0.00034618098437150431 -0.001706967500730203 0 -0.00030750754254715217 -0.0017485220163434765 0 -0.00030844644377091908 -0.0017178417276569264 0 -0.00034800241974975994 -0.0017428992021741826 0 -0.00034800241974975994 -0.0017428992021741826 0 -0.00037667799180297526 -0.0017236352419033266 0 -0.00034618098437150431 -0.001706967500730203 0 -0.00034800241974975994 -0.0017428992021741826 0 -0.00037667799180297526 -0.0017236352419033266 0 -0.00039335557885232221 -0.0017584598188290037 0 -0.00034616865994622738 -0.0018007233679389065 0 -0.00034800241974975994 -0.0017428992021741826 0 -0.00039335557885232221 -0.0017584598188290037 0 -0.00034294778972578869 -0.0018092777501732972 0 -0.00040806529436203289 -0.001770631799354849 0 -0.00040806529436203289 -0.001770631799354849 0 -0.00041370892211694995 -0.0018851036572266758 0 -0.00039335557885232221 -0.0017584598188290037 0 -0.00039551727657380462 -0.0017301645518728625 0 -0.00041216419043522669 -0.0017355851258505637 0 -0.00037667799180297526 -0.0017236352419033266 0 -0.00039335557885232221 -0.0017584598188290037 0 -0.00039551727657380462 -0.0017301645518728625 0 -0.00037667799180297526 -0.0017236352419033266 0 -0.00039551727657380462 -0.0017301645518728625 0 -0.0003934123239233964 -0.0017049180089727931 0 -0.00039551727657380462 -0.0017301645518728625 0 -0.00041216419043522669 -0.0017355851258505637 0 -0.0003934123239233964 -0.0017049180089727931 0 -0.00039335557885232221 -0.0017584598188290037 0 -0.00041216419043522669 -0.0017355851258505637 0 -0.00041408467641732721 -0.0017336846264395323 0 -0.00041216419043522669 -0.0017355851258505637 0 -0.00041408467641732721 -0.0017336846264395323 0 -0.00040405962793683785 -0.0017694810721020303 0 -0.00045839669136547449 -0.0018537087488560752 0 -0.00041370892211694995 -0.0018851036572266758 0 -0.00041125964510656254 -0.0018170637584955375 0 -0.0004564754250030658 -0.001818954944478822 0 -0.00044130295180389728 -0.0018394245485176732 0 -0.00046788330509834155 -0.0018470487142164514 0 -0.0004564754250030658 -0.001818954944478822 0 -0.00044130295180389728 -0.0018394245485176732 0 -0.00046788330509834155 -0.0018470487142164514 0 -0.00046082247741640204 -0.0018517396082924553 0 -0.00044130295180389728 -0.0018394245485176732 0 -0.00010652490776457472 -0.002383811308625289 0 -9.5432215912210871e-05 -0.0023926894220330226 0 -8.2843589249120925e-05 -0.0023724545663856315 0 -0.00041370892211694995 -0.0018851036572266758 0 -0.00024022155999526036 -0.0021095238667886932 0 -0.00011890001606400434 -0.0024042771301057923 0 -0.00010652490776457472 -0.002383811308625289 0 -9.5432215912210871e-05 -0.0023926894220330226 0 -0.00011890001606400434 -0.0024042771301057923 0 -0.00010556519240657145 -0.0024074460777015901 0 -9.5432215912210871e-05 -0.0023926894220330226 0 -0.00041216419043522669 -0.0017355851258505637 0 -0.00040468471392506527 -0.0016827734572824736 0 -0.0003934123239233964 -0.0017049180089727931 0 -0.00041216419043522669 -0.0017355851258505637 0 -0.00040405962793683785 -0.0017694810721020303 0 -0.00041702580790959286 -0.0017701524085150906 0 -0.0004116217859553038 -0.0017323328374870954 0 -0.00040963768463961667 -0.0017281609601788282 0 -0.00040468471392506527 -0.0016827734572824736 0 -0.00038198819197819348 -0.0016613113752110579 0 -0.00037586966144984837 -0.0016882383116136998 0 -0.00040468471392506527 -0.0016827734572824736 0 -0.0003934123239233964 -0.0017049180089727931 0 -0.00037586966144984837 -0.0016882383116136998 0 -0.00040468471392506527 -0.0016827734572824736 0 -0.00038198819197819348 -0.0016613113752110579 0 -0.00038208540019245545 -0.001619559741118709 0 -0.00041702580790959286 -0.0017701524085150906 0 -0.00042966346262756792 -0.001819672653193122 0 -0.00041444876855592267 -0.0018238426001091401 0 -0.00040963768463961667 -0.0017281609601788282 0 -0.00041704760454635913 -0.001702183438333381 0 -0.00040405962793683785 -0.0017694810721020303 0 -0.00041702580790959286 -0.0017701524085150906 0 -0.00041444876855592267 -0.0018238426001091401 0 -0.00024022155999526036 -0.0021095238667886932 0 -0.00026164975889535376 -0.0020945226993489808 0 -0.00036189544355690756 -0.001626021611743112 0 -0.0003663919047025326 -0.0016524218703407418 0 -0.00038208540019245545 -0.001619559741118709 0 -0.00038198819197819348 -0.0016613113752110579 0 -0.0003663919047025326 -0.0016524218703407418 0 -0.00038208540019245545 -0.001619559741118709 0 -0.00036189544355690756 -0.001626021611743112 0 -0.00034624918431609003 -0.0016354759530139216 0 -0.00035129626169159213 -0.0015906055662992375 0 -0.00036189544355690756 -0.001626021611743112 0 -0.00034624918431609003 -0.0016354759530139216 0 -0.0003663919047025326 -0.0016524218703407418 0 -0.00034624918431609003 -0.0016354759530139216 0 -0.00034840337474581533 -0.0016731272115463362 0 -0.00032997420206390415 -0.0016621040367108709 0 -0.00034624918431609003 -0.0016354759530139216 0 -0.0003663919047025326 -0.0016524218703407418 0 -0.00034840337474581533 -0.0016731272115463362 0 -0.00038198819197819348 -0.0016613113752110579 0 -0.0003663919047025326 -0.0016524218703407418 0 -0.00037586966144984837 -0.0016882383116136998 0 -0.0003663919047025326 -0.0016524218703407418 0 -0.00037586966144984837 -0.0016882383116136998 0 -0.00034840337474581533 -0.0016731272115463362 0 -0.00037667799180297526 -0.0017236352419033266 0 -0.0003934123239233964 -0.0017049180089727931 0 -0.00037586966144984837 -0.0016882383116136998 0 -0.00037667799180297526 -0.0017236352419033266 0 -0.00037586966144984837 -0.0016882383116136998 0 -0.00034618098437150431 -0.001706967500730203 0 -0.00037586966144984837 -0.0016882383116136998 0 -0.00034618098437150431 -0.001706967500730203 0 -0.00034840337474581533 -0.0016731272115463362 0 -0.00030844644377091908 -0.0017178417276569264 0 -0.00034618098437150431 -0.001706967500730203 0 -0.00032086096898842489 -0.0016833439549599754 0 -0.00034840337474581533 -0.0016731272115463362 0 -0.00032086096898842489 -0.0016833439549599754 0 -0.00032997420206390415 -0.0016621040367108709 0 -0.00034618098437150431 -0.001706967500730203 0 -0.00034840337474581533 -0.0016731272115463362 0 -0.00032086096898842489 -0.0016833439549599754 0 -0.00034624918431609003 -0.0016354759530139216 0 -0.00030705869203986083 -0.0016551909235302067 0 -0.00032997420206390415 -0.0016621040367108709 0 -0.00027226063411244064 -0.0016310314020228571 0 -0.00034766912938653273 -0.0015935441167928956 0 -0.00032086096898842489 -0.0016833439549599754 0 -0.00030705869203986083 -0.0016551909235302067 0 -0.00032997420206390415 -0.0016621040367108709 0 -0.00034624918431609003 -0.0016354759530139216 0 -0.00030705869203986083 -0.0016551909235302067 0 -0.00035129626169159213 -0.0015906055662992375 0 -0.0001812958127424095 -0.0018446738986112677 0 -0.00014778909494500932 -0.001621129890519956 0 4.369832861045747e-05 -0.0018463671062446823 0 -5.8772602396272275e-05 -0.0016821228281027878 0 -0.00022388370115235761 -0.0016248246628548547 0 -0.00028385438454385514 -0.0015739231762740386 0 -0.00022624364460403545 -0.0015682549106583708 0 -0.00028385438454385514 -0.0015739231762740386 0 -0.00032982547803381718 -0.0015198473006776585 0 -0.00022624364460403545 -0.0015682549106583708 0 -0.00022388370115235761 -0.0016248246628548547 0 -0.00028385438454385514 -0.0015739231762740386 0 -0.00035129626169159213 -0.0015906055662992375 0 4.660558639245802e-05 -0.0018752011583914529 0 -7.5120496600435835e-05 -0.0017100195534672893 0 -0.00011128325940056883 -0.0017004724610647593 0 4.660558639245802e-05 -0.0018752011583914529 0 9.5419966109244406e-05 -0.0018593440440331107 0 -7.5120496600435835e-05 -0.0017100195534672893 0 -6.2664220499574753e-07 -0.0018090696747730614 0 4.660558639245802e-05 -0.0018752011583914529 0 -1.1635662880619582e-06 -0.0016518715726484081 0 -6.2664220499574753e-07 -0.0018090696747730614 0 2.581706593435276e-07 -0.0020290158437730448 0 -1.1104158442123357e-07 -0.0017811570707289349 0 -6.2664220499574753e-07 -0.0018090696747730614 0 2.581706593435276e-07 -0.0020290158437730448 0 4.660558639245802e-05 -0.0018752011583914529 0 -1.283000070845959e-09 -0.0020296149746226299 0 -3.1122127669097584e-07 -0.0020984455570962832 0 -6.3374535741426779e-06 -0.002076621274294678 0 -7.5586623083826876e-08 -0.0020293392882040481 0 -0.0001812958127424095 -0.0018446738986112677 0 2.581706593435276e-07 -0.0020290158437730448 0 4.660558639245802e-05 -0.0018752011583914529 0 9.5419966109244406e-05 -0.0018593440440331107 0 -3.1122127669097584e-07 -0.0020984455570962832 0 -6.3374535741426779e-06 -0.002076621274294678 0 -3.6060704528061484e-06 -0.0020766016771868014 0 -1.283000070845959e-09 -0.0020296149746226299 0 -6.3374535741426779e-06 -0.002076621274294678 0 -4.00484775786248e-11 -0.0021062645023484732 0 1.3204946929493902e-08 -0.00210670702889187 0 7.3637742774147588e-09 -0.0021525789212624492 0 -1.3981518652770508e-08 -0.0022588098295627146 0 -9.2720821571641479e-08 -0.0021064624291342164 0 -0.00013118071393886869 -0.0021359200157590624 0 -6.3374535741426779e-06 -0.002076621274294678 0 -4.00484775786248e-11 -0.0021062645023484732 0 -3.6060704528061484e-06 -0.0020766016771868014 0 -0.0001812958127424095 -0.0018446738986112677 0 -0.00013118071393886869 -0.0021359200157590624 0 -0.0001812958127424095 -0.0018446738986112677 0 -0.00041704760454635913 -0.001702183438333381 0 -0.00044580130426916613 -0.0018675241323706173 0 -0.00043173882490869493 -0.0018759223007443274 0 -0.00042966346262756792 -0.001819672653193122 0 -0.00032982547803381718 -0.0015198473006776585 0 -0.00038208540019245545 -0.001619559741118709 0 -0.00035129626169159213 -0.0015906055662992375 0 -0.00028385438454385514 -0.0015739231762740386 0 -0.00032982547803381718 -0.0015198473006776585 0 -0.00035129626169159213 -0.0015906055662992375 0 -0.00036189544355690756 -0.001626021611743112 0 -0.00038208540019245545 -0.001619559741118709 0 -0.00035129626169159213 -0.0015906055662992375 0 -6.9907217103202664e-05 -0.0023481475011305664 0 -8.2843589249120925e-05 -0.0023724545663856315 0 -8.3479564975409275e-05 -0.0023575002145112241 0 -0.00043173882490869493 -0.0018759223007443274 0 -0.00042966346262756792 -0.001819672653193122 0 -0.00041444876855592267 -0.0018238426001091401 0 -0.00013118071393886869 -0.0021359200157590624 0 -0.00026164975889535376 -0.0020945226993489808 0 -8.2843589249120925e-05 -0.0023724545663856315 0 -8.3479564975409275e-05 -0.0023575002145112241 0 -0.00010482551234085841 -0.0023642637958567422 0 -6.9907217103202664e-05 -0.0023481475011305664 0 -8.3479564975409275e-05 -0.0023575002145112241 0 -8.257404788552176e-05 -0.0023414389046399445 0 -8.3479564975409275e-05 -0.0023575002145112241 0 -8.257404788552176e-05 -0.0023414389046399445 0 -0.00010482551234085841 -0.0023642637958567422 0 1.0110796529357664e-05 -0.0022810708277998669 0 5.5748348254664329e-08 -0.0022764847390156495 0 -1.6336434105693891e-05 -0.0025435369429757 0 -0.00013118071393886869 -0.0021359200157590624 0 9.3247277443188673e-05 -0.0023730891584023313 0 9.3247277443188673e-05 -0.0023730891584023313 0 -3.7583748571705526e-07 -0.0022764266360474328 0 1.0598664781966253e-09 -0.0025683344607448531 0 5.5748348254664329e-08 -0.0022764847390156495 0 -1.6336434105693891e-05 -0.0025435369429757 0 9.3247277443188673e-05 -0.0023730891584023313 0 -9.4544519801019279e-05 -0.0023726071469119701 0 -0.00010652490776457472 -0.002383811308625289 0 -8.2843589249120925e-05 -0.0023724545663856315 0 -0.00010482551234085841 -0.0023642637958567422 0 -4.1238894068963979e-05 -0.0015321577231262699 0 -3.5234925296472616e-05 -0.0015889506040512209 0 -5.4424882992468537e-05 -0.0015359727153971517 0 -3.6605600897287724e-05 -0.0015894610120671575 0 -0.00010446773638368999 -0.0015685821797611153 0 -3.5234925296472616e-05 -0.0015889506040512209 0 -0.00011558675524683763 -0.0016112382243337578 0 -0.00016388690226164126 -0.0015847696224866538 0 -4.1238894068963979e-05 -0.0015321577231262699 0 -5.4424882992468537e-05 -0.0015359727153971517 0 -5.0531266903917561e-05 -0.0015375451970528193 0 -1.3687221529523957e-05 -0.0015236239759866843 0 1.0630601784266102e-05 -0.0015748940219726261 0 4.5140482279566033e-05 -0.0014065654261441296 0 -4.1238894068963979e-05 -0.0015321577231262699 0 -1.3687221529523957e-05 -0.0015236239759866843 0 -2.6266842161463764e-05 -0.001496395737448953 0 -1.3687221529523957e-05 -0.0015236239759866843 0 1.0630601784266102e-05 -0.0015748940219726261 0 -3.5234925296472616e-05 -0.0015889506040512209 0 -4.1238894068963979e-05 -0.0015321577231262699 0 -1.3687221529523957e-05 -0.0015236239759866843 0 -3.5234925296472616e-05 -0.0015889506040512209 0 -0.00012706563265398225 -0.0014776286796252705 0 -6.6480113693408828e-05 -0.0013084355321595657 0 -6.5982816485467377e-05 -0.0016921219343159237 0 1.0630601784266102e-05 -0.0015748940219726261 0 -3.5234925296472616e-05 -0.0015889506040512209 0 -0.00023287459998572058 -0.0012044839601956299 0 -0.00013824464527107004 -0.0010516769022906264 0 -0.0001246953839317819 -0.0011540948666257471 0 -6.5982816485467377e-05 -0.0016921219343159237 0 -0.00011558675524683763 -0.0016112382243337578 0 -0.0001604817036986745 -0.0016340636212111837 0 -6.5982816485467377e-05 -0.0016921219343159237 0 -3.5234925296472616e-05 -0.0015889506040512209 0 -0.00011558675524683763 -0.0016112382243337578 0 -0.00012706563265398225 -0.0014776286796252705 0 -0.00020602926272092703 -0.0016975972766149936 0 -0.00011558675524683763 -0.0016112382243337578 0 -0.0001604817036986745 -0.0016340636212111837 0 -0.00015808257756652329 -0.0016096723118125484 0 -0.00032086096898842489 -0.0016833439549599754 0 -0.00030705869203986083 -0.0016551909235302067 0 -0.0002645803543991243 -0.0016891930225961466 0 -0.00030844644377091908 -0.0017178417276569264 0 -0.00032086096898842489 -0.0016833439549599754 0 -0.0002645803543991243 -0.0016891930225961466 0 -0.00022388370115235761 -0.0016248246628548547 0 -0.00015260423359830249 -0.0016030543176701138 0 -0.00022624364460403545 -0.0015682549106583708 0 -0.00022388370115235761 -0.0016248246628548547 0 -0.00015808257756652329 -0.0016096723118125484 0 -0.00015260423359830249 -0.0016030543176701138 0 -0.00027226063411244064 -0.0016310314020228571 0 -0.00020602926272092703 -0.0016975972766149936 0 -0.00022388370115235761 -0.0016248246628548547 0 -0.0001604817036986745 -0.0016340636212111837 0 -0.00015808257756652329 -0.0016096723118125484 0 -0.00011558675524683763 -0.0016112382243337578 0 -0.00015808257756652329 -0.0016096723118125484 0 -0.00016388690226164126 -0.0015847696224866538 0 -0.00015808257756652329 -0.0016096723118125484 0 -0.00015260423359830249 -0.0016030543176701138 0 -0.00016388690226164126 -0.0015847696224866538 0 -5.4424882992468537e-05 -0.0015359727153971517 0 -3.7273468009387389e-05 -0.0015914787580415617 0 -5.0531266903917561e-05 -0.0015375451970528193 0 -0.00015260423359830249 -0.0016030543176701138 0 -0.00016388690226164126 -0.0015847696224866538 0 -0.00011128325940056883 -0.0017004724610647593 0 -5.4424882992468537e-05 -0.0015359727153971517 0 -3.7273468009387389e-05 -0.0015914787580415617 0 -1.1635662880619582e-06 -0.0016518715726484081 0 -0.00010446773638368999 -0.0015685821797611153 0 -5.8772602396272275e-05 -0.0016821228281027878 0 -3.7273468009387389e-05 -0.0015914787580415617 0 -2.5540819258990989e-05 -0.0016355399216476092 0 -3.1156374559995105e-05 -0.0015998520275979612 0 -3.7273468009387389e-05 -0.0015914787580415617 0 -3.1156374559995105e-05 -0.0015998520275979612 0 -5.0531266903917561e-05 -0.0015375451970528193 0 -3.7273468009387389e-05 -0.0015914787580415617 0 -2.5540819258990989e-05 -0.0016355399216476092 0 -1.1635662880619582e-06 -0.0016518715726484081 0 -0.00015260423359830249 -0.0016030543176701138 0 -7.5120496600435835e-05 -0.0017100195534672893 0 -0.00011128325940056883 -0.0017004724610647593 0 -0.00015708904333662925 -0.0016114614659563731 0 -0.00014778909494500932 -0.001621129890519956 0 -2.5540819258990989e-05 -0.0016355399216476092 0 -1.1635662880619582e-06 -0.0016518715726484081 0 -1.2801258733769561e-05 -0.0017031662618051048 0 -6.2664220499574753e-07 -0.0018090696747730614 0 -1.1635662880619582e-06 -0.0016518715726484081 0 -1.2801258733769561e-05 -0.0017031662618051048 0 -1.2801258733769561e-05 -0.0017031662618051048 0 -1.1104158442123357e-07 -0.0017811570707289349 0 -3.1156374559995105e-05 -0.0015998520275979612 0 -6.2664220499574753e-07 -0.0018090696747730614 0 -1.2801258733769561e-05 -0.0017031662618051048 0 -1.1104158442123357e-07 -0.0017811570707289349 0 -1.1104158442123357e-07 -0.0017811570707289349 0 -3.1156374559995105e-05 -0.0015998520275979612 0 -6.0965423699522308e-08 -0.0015329884811207534 0 -2.5540819258990989e-05 -0.0016355399216476092 0 -1.2801258733769561e-05 -0.0017031662618051048 0 -3.1156374559995105e-05 -0.0015998520275979612 0 -3.1156374559995105e-05 -0.0015998520275979612 0 -6.0965423699522308e-08 -0.0015329884811207534 0 -3.0326462733492688e-05 -0.0014506402440477701 0 -6.0965423699522308e-08 -0.0015329884811207534 0 -3.0326462733492688e-05 -0.0014506402440477701 0 -1.0405402913344534e-07 -0.0012847051511051847 0 -3.1156374559995105e-05 -0.0015998520275979612 0 -3.0326462733492688e-05 -0.0014506402440477701 0 -5.0531266903917561e-05 -0.0015375451970528193 0 -3.0326462733492688e-05 -0.0014506402440477701 0 -5.0531266903917561e-05 -0.0015375451970528193 0 -2.6266842161463764e-05 -0.001496395737448953 0 -4.1238894068963979e-05 -0.0015321577231262699 0 -5.0531266903917561e-05 -0.0015375451970528193 0 -2.6266842161463764e-05 -0.001496395737448953 0 -3.0326462733492688e-05 -0.0014506402440477701 0 -2.6266842161463764e-05 -0.001496395737448953 0 4.5140482279566033e-05 -0.0014065654261441296 0 -1.3687221529523957e-05 -0.0015236239759866843 0 -2.6266842161463764e-05 -0.001496395737448953 0 4.5140482279566033e-05 -0.0014065654261441296 0 -3.0326462733492688e-05 -0.0014506402440477701 0 -1.0405402913344534e-07 -0.0012847051511051847 0 4.5140482279566033e-05 -0.0014065654261441296 0 -1.0405402913344534e-07 -0.0012847051511051847 0 2.7318535637738808e-07 -0.0010369999054577019 0 4.5140482279566033e-05 -0.0014065654261441296 0 -8.7088632050976393e-09 -0.0010366151797179264 0 -7.4213615179893004e-06 -0.0011872066011111039 0 2.0189497050817674e-09 -0.0010360778253061594 0 -3.6754919450624606e-05 -0.00094772181262353856 0 -1.2100734087908751e-05 -0.00090451437155548064 0 -3.6754919450624606e-05 -0.00094772181262353856 0 -1.2100734087908751e-05 -0.00090451437155548064 0 4.4669603968445135e-06 -0.0010051557973866007 0 -1.2885424787994313e-07 -0.00077790935161543048 0 3.5734584044709311e-05 -0.00082262623645425117 0 4.5186069782934702e-07 -0.00051955564757358113 0 -1.2885424787994313e-07 -0.00077790935161543048 0 -1.2100734087908751e-05 -0.00090451437155548064 0 3.5734584044709311e-05 -0.00082262623645425117 0 2.0189497050817674e-09 -0.0010360778253061594 0 -1.2885424787994313e-07 -0.00077790935161543048 0 -1.2100734087908751e-05 -0.00090451437155548064 0 3.5734584044709311e-05 -0.00082262623645425117 0 8.8761787254082358e-05 -0.0009931773421472459 0 0.0002067477541927154 -0.00088171798921397935 0 -1.2100734087908751e-05 -0.00090451437155548064 0 3.5734584044709311e-05 -0.00082262623645425117 0 8.8761787254082358e-05 -0.0009931773421472459 0 8.8761787254082358e-05 -0.0009931773421472459 0 7.943821538138526e-05 -0.0011109528708205382 0 4.4669603968445135e-06 -0.0010051557973866007 0 -1.2100734087908751e-05 -0.00090451437155548064 0 8.8761787254082358e-05 -0.0009931773421472459 0 4.4669603968445135e-06 -0.0010051557973866007 0 7.943821538138526e-05 -0.0011109528708205382 0 4.4669603968445135e-06 -0.0010051557973866007 0 2.5035262156878603e-05 -0.0011273656951126954 0 8.8761787254082358e-05 -0.0009931773421472459 0 7.943821538138526e-05 -0.0011109528708205382 0 0.00016830774751453714 -0.0011623495605481602 0 -0.00013824464527107004 -0.0010516769022906264 0 -3.6754919450624606e-05 -0.00094772181262353856 0 -4.1175713487534765e-05 -0.0010390384641998864 0 -6.6480113693408828e-05 -0.0013084355321595657 0 -7.4213615179893004e-06 -0.0011872066011111039 0 -3.6754919450624606e-05 -0.00094772181262353856 0 -4.1175713487534765e-05 -0.0010390384641998864 0 4.4669603968445135e-06 -0.0010051557973866007 0 -4.1175713487534765e-05 -0.0010390384641998864 0 2.5035262156878603e-05 -0.0011273656951126954 0 -3.8077640506983153e-05 -0.0011450568796617733 0 -4.1175713487534765e-05 -0.0010390384641998864 0 4.4669603968445135e-06 -0.0010051557973866007 0 2.5035262156878603e-05 -0.0011273656951126954 0 -0.00013824464527107004 -0.0010516769022906264 0 -4.1175713487534765e-05 -0.0010390384641998864 0 -8.6317302131969014e-05 -0.0010949359327290769 0 -4.1175713487534765e-05 -0.0010390384641998864 0 -3.8077640506983153e-05 -0.0011450568796617733 0 -8.6317302131969014e-05 -0.0010949359327290769 0 -0.00013824464527107004 -0.0010516769022906264 0 -8.6317302131969014e-05 -0.0010949359327290769 0 -0.0001246953839317819 -0.0011540948666257471 0 -3.8077640506983153e-05 -0.0011450568796617733 0 -8.6317302131969014e-05 -0.0010949359327290769 0 -0.0001246953839317819 -0.0011540948666257471 0 -3.8077640506983153e-05 -0.0011450568796617733 0 -0.0001246953839317819 -0.0011540948666257471 0 -0.00011102477821174313 -0.0012842048535495008 0 -3.8077640506983153e-05 -0.0011450568796617733 0 -0.00011102477821174313 -0.0012842048535495008 0 4.228023802601211e-05 -0.0012488333265156673 0 -0.00011102477821174313 -0.0012842048535495008 0 7.6608227533459029e-05 -0.0013917647075398177 0 4.228023802601211e-05 -0.0012488333265156673 0 -4.7577991862795932e-05 -0.0013094414542523681 0 7.5384120702164689e-05 -0.0013951452546241659 0 3.9635382753046592e-05 -0.0014798910625447674 0 4.7576256034596871e-05 -0.0013848272896741735 0 7.6608227533459029e-05 -0.0013917647075398177 0 7.6608227533459029e-05 -0.0013917647075398177 0 4.228023802601211e-05 -0.0012488333265156673 0 0.00010068526029759742 -0.0013437536398845137 0 7.6608227533459029e-05 -0.0013917647075398177 0 0.00010068526029759742 -0.0013437536398845137 0 0.00010798993992991446 -0.0014245911791627205 0 2.5035262156878603e-05 -0.0011273656951126954 0 -3.8077640506983153e-05 -0.0011450568796617733 0 4.228023802601211e-05 -0.0012488333265156673 0 2.5035262156878603e-05 -0.0011273656951126954 0 4.228023802601211e-05 -0.0012488333265156673 0 0.00010605699782922443 -0.0012400052665339232 0 7.943821538138526e-05 -0.0011109528708205382 0 2.5035262156878603e-05 -0.0011273656951126954 0 0.00010605699782922443 -0.0012400052665339232 0 0.00010605699782922443 -0.0012400052665339232 0 0.00016830774751453714 -0.0011623495605481602 0 0.00017900535097815944 -0.0012714721518702983 0 7.943821538138526e-05 -0.0011109528708205382 0 0.00010605699782922443 -0.0012400052665339232 0 0.00016830774751453714 -0.0011623495605481602 0 0.00010605699782922443 -0.0012400052665339232 0 0.00017900535097815944 -0.0012714721518702983 0 0.00013726040002597618 -0.0013225854242487004 0 0.00017900535097815944 -0.0012714721518702983 0 0.00013726040002597618 -0.0013225854242487004 0 0.00017721058463575942 -0.0013534599575219844 0 0.00017900535097815944 -0.0012714721518702983 0 0.00017721058463575942 -0.0013534599575219844 0 0.00023565607345275776 -0.0013229802303080971 0 4.228023802601211e-05 -0.0012488333265156673 0 0.00010605699782922443 -0.0012400052665339232 0 0.00010068526029759742 -0.0013437536398845137 0 0.00010605699782922443 -0.0012400052665339232 0 0.00013726040002597618 -0.0013225854242487004 0 0.00010068526029759742 -0.0013437536398845137 0 0.00013726040002597618 -0.0013225854242487004 0 0.00010068526029759742 -0.0013437536398845137 0 0.00012740040166260298 -0.0013901718841055413 0 0.00010068526029759742 -0.0013437536398845137 0 0.00012740040166260298 -0.0013901718841055413 0 0.00010798993992991446 -0.0014245911791627205 0 0.00012740040166260298 -0.0013901718841055413 0 0.00015857286885042718 -0.0014041126801307379 0 0.00011297147396931658 -0.0014284263165225686 0 0.00012740040166260298 -0.0013901718841055413 0 0.00011297147396931658 -0.0014284263165225686 0 0.00010798993992991446 -0.0014245911791627205 0 0.00013726040002597618 -0.0013225854242487004 0 0.00012740040166260298 -0.0013901718841055413 0 0.00017721058463575942 -0.0013534599575219844 0 0.00017721058463575942 -0.0013534599575219844 0 0.00021647495055957927 -0.0013829363983509895 0 0.00023565607345275776 -0.0013229802303080971 0 0.00012740040166260298 -0.0013901718841055413 0 0.00017721058463575942 -0.0013534599575219844 0 0.00015857286885042718 -0.0014041126801307379 0 0.00017721058463575942 -0.0013534599575219844 0 0.00015857286885042718 -0.0014041126801307379 0 0.00021647495055957927 -0.0013829363983509895 0 0.00015857286885042718 -0.0014041126801307379 0 0.00019163264089982451 -0.0014235685114021787 0 0.00021647495055957927 -0.0013829363983509895 0 0.00015857286885042718 -0.0014041126801307379 0 0.00019163264089982451 -0.0014235685114021787 0 0.00016483815287114263 -0.0014315467954184075 0 0.00017224437173730655 -0.0014582362591800935 0 0.00016483815287114263 -0.0014315467954184075 0 0.00019690319067821238 -0.0014430534105704057 0 0.00019163264089982451 -0.0014235685114021787 0 0.00016483815287114263 -0.0014315467954184075 0 0.00019690319067821238 -0.0014430534105704057 0 0.00019163264089982451 -0.0014235685114021787 0 0.00019690319067821238 -0.0014430534105704057 0 0.00023045951964244281 -0.0014258226711247799 0 0.00017224437173730655 -0.0014582362591800935 0 0.00022467745901287567 -0.0014609543217639586 0 0.00019690319067821238 -0.0014430534105704057 0 0.00015857286885042718 -0.0014041126801307379 0 0.00016483815287114263 -0.0014315467954184075 0 0.00011297147396931658 -0.0014284263165225686 0 0.00041939480194946941 -0.0016242453652132243 0 0.00027522402882842865 -0.0015279250144821194 0 0.00017224437173730655 -0.0014582362591800935 0 0.00016483815287114263 -0.0014315467954184075 0 0.00011297147396931658 -0.0014284263165225686 0 0.000504623687546815 -0.001761979622432699 0 0.00064493010525479462 -0.0017448059140328773 0 0.00045664832587377066 -0.0016264328815813391 0 0.000504623687546815 -0.001761979622432699 0 0.00045664832587377066 -0.0016264328815813391 0 0.0003793633697181256 -0.0017368832201942971 0 0.00045664832587377066 -0.0016264328815813391 0 0.00025158237459633564 -0.001664119752751902 0 0.00013060155271828736 -0.0014875980810905673 0 0.00027522402882842865 -0.0015279250144821194 0 0.00014679504623119931 -0.0014854406279003216 0 0.00045664832587377066 -0.0016264328815813391 0 0.0003793633697181256 -0.0017368832201942971 0 0.00025158237459633564 -0.001664119752751902 0 0.00024177077550408861 -0.0017854308255524014 0 0.0003793633697181256 -0.0017368832201942971 0 0.00025158237459633564 -0.001664119752751902 0 0.00024177077550408861 -0.0017854308255524014 0 0.00025158237459633564 -0.001664119752751902 0 9.9742567898759724e-05 -0.0016615063398392946 0 0.00025158237459633564 -0.001664119752751902 0 9.9742567898759724e-05 -0.0016615063398392946 0 0.00013060155271828736 -0.0014875980810905673 0 3.9635382753046592e-05 -0.0014798910625447674 0 9.9742567898759724e-05 -0.0016615063398392946 0 0.00013060155271828736 -0.0014875980810905673 0 3.9635382753046592e-05 -0.0014798910625447674 0 7.6608227533459029e-05 -0.0013917647075398177 0 0.00013060155271828736 -0.0014875980810905673 0 7.6608227533459029e-05 -0.0013917647075398177 0 0.00013060155271828736 -0.0014875980810905673 0 0.00010798993992991446 -0.0014245911791627205 0 0.00011297147396931658 -0.0014284263165225686 0 0.00013060155271828736 -0.0014875980810905673 0 0.00010798993992991446 -0.0014245911791627205 0 1.6877815373116649e-07 0.00013866039115383133 0 2.5472243917348216e-05 0.00013160469863395284 0 -6.9906210479675592e-06 0.00016756897662135472 0 1.6877815373116649e-07 0.00013866039115383133 0 -1.325069049039732e-05 0.00014337027343615176 0 -6.9906210479675592e-06 0.00016756897662135472 0 2.5472243917348216e-05 0.00013160469863395284 0 -6.9906210479675592e-06 0.00016756897662135472 0 4.1503529016859323e-05 0.0001668028549154873 0 2.5472243917348216e-05 0.00013160469863395284 0 4.1503529016859323e-05 0.0001668028549154873 0 6.1351045811273777e-05 0.00014126383287650914 0 2.2920788331274318e-05 9.7003527556384868e-05 0 8.0039008632736958e-06 0.00010028633061643452 0 2.5472243917348216e-05 0.00013160469863395284 0 2.2920788331274318e-05 9.7003527556384868e-05 0 2.5472243917348216e-05 0.00013160469863395284 0 5.8953872807316753e-05 0.00010598341778623969 0 8.0039008632736958e-06 0.00010028633061643452 0 1.6877815373116649e-07 0.00013866039115383133 0 -6.7220060070821991e-06 0.00011926064930996942 0 8.0039008632736958e-06 0.00010028633061643452 0 1.6877815373116649e-07 0.00013866039115383133 0 2.5472243917348216e-05 0.00013160469863395284 0 0.00011478663613984074 -0.00058566917408504069 0 0.00014550431172474315 -0.00064209754188467624 0 0.00029610639439610277 -0.001471731164601392 0 0.00025889842852143494 -0.0014483923060352856 0 0.00029348382719853784 -0.0013784440329466445 0 -2.2123293658583308e-05 8.8220911900276433e-05 0 -6.7220060070821991e-06 0.00011926064930996942 0 -1.325069049039732e-05 0.00014337027343615176 0 1.6877815373116649e-07 0.00013866039115383133 0 -6.7220060070821991e-06 0.00011926064930996942 0 -1.325069049039732e-05 0.00014337027343615176 0 0.00025889842852143494 -0.0014483923060352856 0 0.00023045951964244281 -0.0014258226711247799 0 0.00029348382719853784 -0.0013784440329466445 0 0.00022467745901287567 -0.0014609543217639586 0 0.00019690319067821238 -0.0014430534105704057 0 0.00023045951964244281 -0.0014258226711247799 0 0.00022467745901287567 -0.0014609543217639586 0 0.00025889842852143494 -0.0014483923060352856 0 0.00023045951964244281 -0.0014258226711247799 0 0.00019163264089982451 -0.0014235685114021787 0 0.00023045951964244281 -0.0014258226711247799 0 0.00021647495055957927 -0.0013829363983509895 0 0.00023045951964244281 -0.0014258226711247799 0 0.00021647495055957927 -0.0013829363983509895 0 0.00029348382719853784 -0.0013784440329466445 0 0.00021647495055957927 -0.0013829363983509895 0 0.00029348382719853784 -0.0013784440329466445 0 0.00023565607345275776 -0.0013229802303080971 0 0.00014550431172474315 -0.00064209754188467624 0 0.00015997157394507678 -0.00054779108739000599 0 -1.325069049039732e-05 0.00014337027343615176 0 2.802131535570017e-05 0.00015306603410550693 0 -6.9906210479675592e-06 0.00016756897662135472 0 0.00017900535097815944 -0.0012714721518702983 0 0.0002946792486147772 -0.0012546008885349939 0 0.00023565607345275776 -0.0013229802303080971 0 0.00029348382719853784 -0.0013784440329466445 0 0.0002946792486147772 -0.0012546008885349939 0 0.00023565607345275776 -0.0013229802303080971 0 0.00016830774751453714 -0.0011623495605481602 0 0.0002946792486147772 -0.0012546008885349939 0 0.00027043211784147614 -0.0010848849762225522 0 0.00016830774751453714 -0.0011623495605481602 0 0.00017900535097815944 -0.0012714721518702983 0 0.0002946792486147772 -0.0012546008885349939 0 2.802131535570017e-05 0.00015306603410550693 0 -1.6764335695793731e-05 0.00013684822848049504 0 7.884445585315601e-05 7.8497257532513507e-05 0 0.00015997157394507678 -0.00054779108739000599 0 0.00017406762062684308 -0.00050813644666601869 0 2.802131535570017e-05 0.00015306603410550693 0 -1.6764335695793731e-05 0.00013684822848049504 0 -6.9906210479675592e-06 0.00016756897662135472 0 -1.6764335695793731e-05 0.00013684822848049504 0 -6.9906210479675592e-06 0.00016756897662135472 0 -4.5609740104067099e-05 0.00016354119550353801 0 -6.8715635327473506e-06 0.00016651830884891313 0 -1.0396616471931442e-05 0.00016493121692045509 0 -6.4101124153498776e-05 0.00016083751854803707 0 -4.5609740104067099e-05 0.00016354119550353801 0 -7.5855974184236926e-05 0.00018708337236199841 0 -6.9906210479675592e-06 0.00016756897662135472 0 -6.4101124153498776e-05 0.00016083751854803707 0 -4.5609740104067099e-05 0.00016354119550353801 0 -1.6764335695793731e-05 0.00013684822848049504 0 -4.5609740104067099e-05 0.00016354119550353801 0 -7.5855974184236926e-05 0.00018708337236199841 0 -1.6764335695793731e-05 0.00013684822848049504 0 -6.8558198183734211e-05 9.4465563948113168e-05 0 -7.5855974184236926e-05 0.00018708337236199841 0 -1.6764335695793731e-05 0.00013684822848049504 0 1.4495522084381029e-06 6.1431424442210303e-05 0 -6.8558198183734211e-05 9.4465563948113168e-05 0 1.4495522084381029e-06 6.1431424442210303e-05 0 -4.2814317058774424e-05 2.0807347597382941e-05 0 -9.3328612298540844e-06 -0.0001166259678695665 0 1.4495522084381029e-06 6.1431424442210303e-05 0 -4.2814317058774424e-05 2.0807347597382941e-05 0 -6.8558198183734211e-05 9.4465563948113168e-05 0 8.8761787254082358e-05 -0.0009931773421472459 0 0.00016830774751453714 -0.0011623495605481602 0 0.00027043211784147614 -0.0010848849762225522 0 -1.6764335695793731e-05 0.00013684822848049504 0 1.4495522084381029e-06 6.1431424442210303e-05 0 7.884445585315601e-05 7.8497257532513507e-05 0 1.4495522084381029e-06 6.1431424442210303e-05 0 7.884445585315601e-05 7.8497257532513507e-05 0 0.00011458237641591268 -9.9335997908689787e-05 0 1.4495522084381029e-06 6.1431424442210303e-05 0 0.00011458237641591268 -9.9335997908689787e-05 0 -9.3328612298540844e-06 -0.0001166259678695665 0 0.00017406762062684308 -0.00050813644666601869 0 0.00014790671015248806 -0.00049422335127790489 0 8.8761787254082358e-05 -0.0009931773421472459 0 0.00027043211784147614 -0.0010848849762225522 0 0.0002067477541927154 -0.00088171798921397935 0 0.00011458237641591268 -9.9335997908689787e-05 0 3.9633804691109322e-07 -0.00051857310320098534 0 -9.3328612298540844e-06 -0.0001166259678695665 0 3.9633804691109322e-07 -0.00051857310320098534 0 -9.3328612298540844e-06 -0.0001166259678695665 0 -1.5212065438457025e-07 -0.0002386032617592154 0 0.00014790671015248806 -0.00049422335127790489 0 6.8251276856988538e-08 -0.00051911443116654397 0 3.5734584044709311e-05 -0.00082262623645425117 0 0.0002067477541927154 -0.00088171798921397935 0 4.5186069782934702e-07 -0.00051955564757358113 0 -4.2814317058774424e-05 2.0807347597382941e-05 0 -3.1354221762253389e-05 -3.3442445233580042e-05 0 -5.856159534032158e-05 0.00014982351751417872 0 -4.2814317058774424e-05 2.0807347597382941e-05 0 -9.3328612298540844e-06 -0.0001166259678695665 0 -3.1354221762253389e-05 -3.3442445233580042e-05 0 -9.3328612298540844e-06 -0.0001166259678695665 0 -1.5212065438457025e-07 -0.0002386032617592154 0 -3.1354221762253389e-05 -3.3442445233580042e-05 0 -1.5212065438457025e-07 -0.0002386032617592154 0 -3.1354221762253389e-05 -3.3442445233580042e-05 0 -7.4483339644745616e-08 4.2038312622585926e-05 0 -3.1354221762253389e-05 -3.3442445233580042e-05 0 -7.4483339644745616e-08 4.2038312622585926e-05 0 -5.856159534032158e-05 0.00014982351751417872 0 -5.856159534032158e-05 0.00014982351751417872 0 -1.106729096373753e-07 0.00032241332626772043 0 -1.457450861256286e-05 0.00028954759396012807 0 -7.4483339644745616e-08 4.2038312622585926e-05 0 -5.856159534032158e-05 0.00014982351751417872 0 -1.106729096373753e-07 0.00032241332626772043 0 -1.106729096373753e-07 0.00032241332626772043 0 2.477085091408525e-07 0.00060309869266493967 0 4.3487669123100691e-06 0.0004267537878735678 0 -1.106729096373753e-07 0.00032241332626772043 0 -1.457450861256286e-05 0.00028954759396012807 0 4.3487669123100691e-06 0.0004267537878735678 0 2.477085091408525e-07 0.00060309869266493967 0 4.3487669123100691e-06 0.0004267537878735678 0 3.9522888939779058e-05 0.00068148360005536345 0 4.3487669123100691e-06 0.0004267537878735678 0 1.931693363719131e-05 0.00021649311883597421 0 3.9522888939779058e-05 0.00068148360005536345 0 0.00013458159824516241 0.00079320949153031364 0 0.00017363939549995178 0.00077606113179789766 0 3.9522888939779058e-05 0.00068148360005536345 0 0.00013458159824516241 0.00079320949153031364 0 0.00017363939549995178 0.00077606113179789766 0 0.0002789317682736487 0.00059688797899266975 0 8.1104744716101871e-05 0.0004994740603045815 0 4.6703903456012222e-05 0.00064873987307348163 0 -1.457450861256286e-05 0.00028954759396012807 0 4.3487669123100691e-06 0.0004267537878735678 0 1.931693363719131e-05 0.00021649311883597421 0 -5.856159534032158e-05 0.00014982351751417872 0 -1.457450861256286e-05 0.00028954759396012807 0 1.931693363719131e-05 0.00021649311883597421 0 8.1104744716101871e-05 0.0004994740603045815 0 -3.2993474061503487e-05 0.00029279476436901245 0 0.00017363939549995178 0.00077606113179789766 0 0.00014041593232398764 0.00056516524675134219 0 -2.0674802049935756e-05 0.00047129505297925081 0 0.00015638170941166668 0.00078579182223791804 0 0.00020731988262924481 0.00082501826340346653 0 0.00017363939549995178 0.00077606113179789766 0 0.00014041593232398764 0.00056516524675134219 0 0.0002789317682736487 0.00059688797899266975 0 0.00013458159824516241 0.00079320949153031364 0 0.00016160551623417557 0.0010615022661054469 0 4.378611920159255e-05 0.00099026474415243155 0 0.0002789317682736487 0.00059688797899266975 0 0.00012637341303859152 0.00042086843502838655 0 0.00027827751574165636 0.00034302560416550018 0 0.00020731988262924481 0.00082501826340346653 0 0.00021585948307032064 0.0007387539363071492 0 0.00016160551623417557 0.0010615022661054469 0 8.9602117271975497e-05 0.0011453841559254164 0 0.00014500718600821922 0.0011850984514039018 0 0.00014041593232398764 0.00056516524675134219 0 0.00012637341303859152 0.00042086843502838655 0 -2.0674802049935756e-05 0.00047129505297925081 0 0.00014041593232398764 0.00056516524675134219 0 0.0002789317682736487 0.00059688797899266975 0 0.00012637341303859152 0.00042086843502838655 0 -4.2814317058774424e-05 2.0807347597382941e-05 0 -5.856159534032158e-05 0.00014982351751417872 0 -6.8558198183734211e-05 9.4465563948113168e-05 0 0.00012637341303859152 0.00042086843502838655 0 -2.0674802049935756e-05 0.00047129505297925081 0 -1.6381582101746174e-06 0.00022304223144066504 0 -3.2993474061503487e-05 0.00029279476436901245 0 -7.1838157280717014e-05 0.00020175241314547579 0 -6.4860154358257552e-05 0.00010261365953566126 0 -6.8558198183734211e-05 9.4465563948113168e-05 0 -7.5855974184236926e-05 0.00018708337236199841 0 -5.856159534032158e-05 0.00014982351751417872 0 -6.4860154358257552e-05 0.00010261365953566126 0 -6.8558198183734211e-05 9.4465563948113168e-05 0 -5.856159534032158e-05 0.00014982351751417872 0 1.931693363719131e-05 0.00021649311883597421 0 -6.4860154358257552e-05 0.00010261365953566126 0 -6.3425491101055462e-05 0.0012022180474097457 0 -8.379346521116953e-08 0.0011641710226847465 0 -2.9795579170883902e-05 0.0013314148376839016 0 -6.3425491101055462e-05 0.0012022180474097457 0 -8.379346521116953e-08 0.0011641710226847465 0 -3.5758394655767958e-05 0.0010653654029997468 0 -8.379346521116953e-08 0.0011641710226847465 0 -3.5758394655767958e-05 0.0010653654029997468 0 -6.6496371160856279e-08 0.00088365851203037779 0 -3.5758394655767958e-05 0.0010653654029997468 0 -1.758554465011361e-05 0.00095761993499895461 0 -4.8777294039800162e-05 0.0010917164228964617 0 -6.3425491101055462e-05 0.0012022180474097457 0 -3.5758394655767958e-05 0.0010653654029997468 0 -4.8777294039800162e-05 0.0010917164228964617 0 -1.758554465011361e-05 0.00095761993499895461 0 -1.1491420502492649e-05 0.0010185594285729517 0 -4.8777294039800162e-05 0.0010917164228964617 0 -1.758554465011361e-05 0.00095761993499895461 0 2.5039816279194125e-05 0.0008716830816534629 0 -1.1491420502492649e-05 0.0010185594285729517 0 -1.758554465011361e-05 0.00095761993499895461 0 -6.6496371160856279e-08 0.00088365851203037779 0 1.1782937244979777e-05 0.00081532403049609727 0 -3.5758394655767958e-05 0.0010653654029997468 0 -1.758554465011361e-05 0.00095761993499895461 0 -6.6496371160856279e-08 0.00088365851203037779 0 -1.758554465011361e-05 0.00095761993499895461 0 1.1782937244979777e-05 0.00081532403049609727 0 2.5039816279194125e-05 0.0008716830816534629 0 2.477085091408525e-07 0.00060309869266493967 0 1.1782937244979777e-05 0.00081532403049609727 0 3.9522888939779058e-05 0.00068148360005536345 0 0.00013458159824516241 0.00079320949153031364 0 3.9522888939779058e-05 0.00068148360005536345 0 2.5039816279194125e-05 0.0008716830816534629 0 1.1782937244979777e-05 0.00081532403049609727 0 3.9522888939779058e-05 0.00068148360005536345 0 2.5039816279194125e-05 0.0008716830816534629 0 2.477085091408525e-07 0.00060309869266493967 0 -6.6496371160856279e-08 0.00088365851203037779 0 1.1782937244979777e-05 0.00081532403049609727 0 0.00013458159824516241 0.00079320949153031364 0 2.5039816279194125e-05 0.0008716830816534629 0 4.378611920159255e-05 0.00099026474415243155 0 2.5039816279194125e-05 0.0008716830816534629 0 4.378611920159255e-05 0.00099026474415243155 0 -1.1491420502492649e-05 0.0010185594285729517 0 0.00016160551623417557 0.0010615022661054469 0 4.378611920159255e-05 0.00099026474415243155 0 4.7082782542635679e-05 0.0010968049361487569 0 4.378611920159255e-05 0.00099026474415243155 0 4.7082782542635679e-05 0.0010968049361487569 0 3.6893708031595821e-06 0.0010654560077362565 0 0.00016160551623417557 0.0010615022661054469 0 8.9602117271975497e-05 0.0011453841559254164 0 4.7082782542635679e-05 0.0010968049361487569 0 8.9602117271975497e-05 0.0011453841559254164 0 3.1371765713650521e-05 0.0011461766058979232 0 5.9731448459346652e-05 0.0012236117025120421 0 8.9602117271975497e-05 0.0011453841559254164 0 3.1371765713650521e-05 0.0011461766058979232 0 4.7082782542635679e-05 0.0010968049361487569 0 3.1371765713650521e-05 0.0011461766058979232 0 -2.7533927499354642e-05 0.0011485067450364935 0 5.9731448459346652e-05 0.0012236117025120421 0 3.1371765713650521e-05 0.0011461766058979232 0 4.7082782542635679e-05 0.0010968049361487569 0 -7.993049244309288e-06 0.0011186898303470003 0 3.1371765713650521e-05 0.0011461766058979232 0 -7.993049244309288e-06 0.0011186898303470003 0 -2.7533927499354642e-05 0.0011485067450364935 0 -7.993049244309288e-06 0.0011186898303470003 0 -2.7533927499354642e-05 0.0011485067450364935 0 -3.6624765570563378e-05 0.0011323458210909857 0 -7.993049244309288e-06 0.0011186898303470003 0 -3.6624765570563378e-05 0.0011323458210909857 0 -3.3331942277585748e-05 0.0011012967376547887 0 4.7082782542635679e-05 0.0010968049361487569 0 -7.993049244309288e-06 0.0011186898303470003 0 3.6893708031595821e-06 0.0010654560077362565 0 -7.993049244309288e-06 0.0011186898303470003 0 -3.3331942277585748e-05 0.0011012967376547887 0 3.6893708031595821e-06 0.0010654560077362565 0 -3.3331942277585748e-05 0.0011012967376547887 0 3.6893708031595821e-06 0.0010654560077362565 0 -1.1491420502492649e-05 0.0010185594285729517 0 4.378611920159255e-05 0.00099026474415243155 0 3.6893708031595821e-06 0.0010654560077362565 0 -1.1491420502492649e-05 0.0010185594285729517 0 -3.3331942277585748e-05 0.0011012967376547887 0 -1.1491420502492649e-05 0.0010185594285729517 0 -4.8777294039800162e-05 0.0010917164228964617 0 -6.3425491101055462e-05 0.0012022180474097457 0 -4.8777294039800162e-05 0.0010917164228964617 0 -7.1515854684128032e-05 0.0011600692181502614 0 -3.3331942277585748e-05 0.0011012967376547887 0 -4.8777294039800162e-05 0.0010917164228964617 0 -7.1515854684128032e-05 0.0011600692181502614 0 -3.6624765570563378e-05 0.0011323458210909857 0 -3.3331942277585748e-05 0.0011012967376547887 0 -7.1515854684128032e-05 0.0011600692181502614 0 -7.1515854684128032e-05 0.0011600692181502614 0 -8.7288217352510646e-05 0.001178849930940208 0 -7.7389123659661179e-05 0.0013334955009352664 0 -9.6043692819429189e-05 0.001312604490326174 0 -6.746980957979757e-05 0.0013350513788226619 0 -5.2741698552116673e-05 0.0013057126680018404 0 -7.1515854684128032e-05 0.0011600692181502614 0 -7.7389123659661179e-05 0.0013334955009352664 0 -0.00011611410535215081 0.0014277999024089924 0 -0.00010442909406232069 0.0013863716486940657 0 -7.7389123659661179e-05 0.0013334955009352664 0 -4.9356130774954091e-05 0.0012134037191432817 0 -7.665689178144725e-05 0.0011665456031137523 0 -2.7533927499354642e-05 0.0011485067450364935 0 -3.6624765570563378e-05 0.0011323458210909857 0 -7.1515854684128032e-05 0.0011600692181502614 0 -0.00011611410535215081 0.0014277999024089924 0 -0.00010272805445107858 0.0014114032240656912 0 -0.00010442909406232069 0.0013863716486940657 0 -6.3425491101055462e-05 0.0012022180474097457 0 -7.1515854684128032e-05 0.0011600692181502614 0 -8.7288217352510646e-05 0.001178849930940208 0 -0.00010389069978432762 0.0013897801238770379 0 -0.00010486299149753339 0.0013910782712336707 0 -9.8775916399779603e-05 0.001393106308921554 0 -0.00010272805445107858 0.0014114032240656912 0 -0.00010486299149753339 0.0013910782712336707 0 -9.3772183721093754e-05 0.0014057088594404332 0 -0.00010272805445107858 0.0014114032240656912 0 -0.00010442909406232069 0.0013863716486940657 0 -0.00010486299149753339 0.0013910782712336707 0 -0.00010442909406232069 0.0013863716486940657 0 -0.00010486299149753339 0.0013910782712336707 0 -9.6669110618312272e-05 0.0013725672077882002 0 -0.00010442909406232069 0.0013863716486940657 0 -9.6669110618312272e-05 0.0013725672077882002 0 -7.7389123659661179e-05 0.0013334955009352664 0 -0.00010486299149753339 0.0013910782712336707 0 -9.6669110618312272e-05 0.0013725672077882002 0 -9.6031059359556254e-05 0.0013803550310301216 0 -9.6669110618312272e-05 0.0013725672077882002 0 -7.7389123659661179e-05 0.0013334955009352664 0 -7.9523158443815093e-05 0.0013624932187672931 0 -9.6669110618312272e-05 0.0013725672077882002 0 -7.9523158443815093e-05 0.0013624932187672931 0 -9.6031059359556254e-05 0.0013803550310301216 0 -9.6031059359556254e-05 0.0013803550310301216 0 -6.2844747797742874e-05 0.0013733495962034135 0 -9.9982164559479263e-05 0.001392142480311185 0 -0.00010389069978432762 0.0013897801238770379 0 -0.00010486299149753339 0.0013910782712336707 0 -9.6031059359556254e-05 0.0013803550310301216 0 -0.00010389069978432762 0.0013897801238770379 0 -9.6031059359556254e-05 0.0013803550310301216 0 -9.9982164559479263e-05 0.001392142480311185 0 -6.2844747797742874e-05 0.0013733495962034135 0 -4.481065949367238e-05 0.0013984155491971104 0 -9.9982164559479263e-05 0.001392142480311185 0 -5.2741698552116673e-05 0.0013057126680018404 0 -5.9588654136472331e-05 0.0013487162186434614 0 -3.193069926268841e-05 0.001354457661175978 0 -7.9523158443815093e-05 0.0013624932187672931 0 -6.2844747797742874e-05 0.0013733495962034135 0 -5.9588654136472331e-05 0.0013487162186434614 0 -7.9523158443815093e-05 0.0013624932187672931 0 -9.6031059359556254e-05 0.0013803550310301216 0 -6.2844747797742874e-05 0.0013733495962034135 0 -4.9356130774954091e-05 0.0012134037191432817 0 3.5878736639920406e-05 0.0013427568196124986 0 -5.2741698552116673e-05 0.0013057126680018404 0 -7.7389123659661179e-05 0.0013334955009352664 0 -5.9588654136472331e-05 0.0013487162186434614 0 -7.7389123659661179e-05 0.0013334955009352664 0 -7.9523158443815093e-05 0.0013624932187672931 0 -5.9588654136472331e-05 0.0013487162186434614 0 -6.2844747797742874e-05 0.0013733495962034135 0 -5.9588654136472331e-05 0.0013487162186434614 0 -3.193069926268841e-05 0.001354457661175978 0 8.9602117271975497e-05 0.0011453841559254164 0 5.9731448459346652e-05 0.0012236117025120421 0 0.00014500718600821922 0.0011850984514039018 0 -6.2844747797742874e-05 0.0013733495962034135 0 -2.3943664506932438e-05 0.00138142899135727 0 -4.481065949367238e-05 0.0013984155491971104 0 -2.3943664506932438e-05 0.00138142899135727 0 -4.481065949367238e-05 0.0013984155491971104 0 -1.5457791038013846e-06 0.0013916877479070687 0 3.5878736639920406e-05 0.0013427568196124986 0 0.0001327794467908274 0.00086263310353232433 0 -6.2844747797742874e-05 0.0013733495962034135 0 -3.193069926268841e-05 0.001354457661175978 0 -2.3943664506932438e-05 0.00138142899135727 0 -3.193069926268841e-05 0.001354457661175978 0 -2.3943664506932438e-05 0.00138142899135727 0 -6.2687632076147241e-07 0.00137682291317559 0 -0.00012298510150284158 0.0013743978345897021 0 -0.00012081414372776836 0.0013810399518572652 0 -0.00012389968023836432 0.0013716881632371448 0 -0.00011628464606361951 0.0014209587957932821 0 8.735832056897516e-05 0.00076457721591265061 0 -0.00012081414372776836 0.0013810399518572652 0 -0.00012272603219312553 0.0013731206151687686 0 -0.00012082915777438987 0.0013723086384835243 0 -0.00012298510150284158 0.0013743978345897021 0 -0.00012081414372776836 0.0013810399518572652 0 -0.00012272603219312553 0.0013731206151687686 0 -0.00012298510150284158 0.0013743978345897021 0 -0.00012272603219312553 0.0013731206151687686 0 -0.00012442374045458068 0.0013698314392012446 0 -0.00012272603219312553 0.0013731206151687686 0 -0.00012322620330477559 0.0013692599429771541 0 -0.00012442374045458068 0.0013698314392012446 0 -0.00012322620330477559 0.0013692599429771541 0 -0.00012266130133864529 0.0013684094919709973 0 -0.00012415086478240436 0.0013655868805953653 0 -0.00012322620330477559 0.0013692599429771541 0 -0.00012266130133864529 0.0013684094919709973 0 -0.00012082915777438987 0.0013723086384835243 0 -0.00012272603219312553 0.0013731206151687686 0 -0.00012322620330477559 0.0013692599429771541 0 -0.00012082915777438987 0.0013723086384835243 0 -0.00012266130133864529 0.0013684094919709973 0 -0.00012082915777438987 0.0013723086384835243 0 -0.00011976932556384154 0.0013702606772461315 0 -0.00012082915777438987 0.0013723086384835243 0 -0.00011976932556384154 0.0013702606772461315 0 -0.00011278768668865359 0.0013778052698975574 0 -0.00012081414372776836 0.0013810399518572652 0 -0.00011278768668865359 0.0013778052698975574 0 -9.9982164559479263e-05 0.001392142480311185 0 -0.00012081414372776836 0.0013810399518572652 0 -0.00012082915777438987 0.0013723086384835243 0 -0.00011278768668865359 0.0013778052698975574 0 -0.00011628464606361951 0.0014209587957932821 0 -8.394083646067881e-05 0.001388051850998573 0 -0.00010389069978432762 0.0013897801238770379 0 -9.9982164559479263e-05 0.001392142480311185 0 -0.00010657728979458226 0.0013839165329857237 0 -0.00011278768668865359 0.0013778052698975574 0 -9.9982164559479263e-05 0.001392142480311185 0 -0.00010657728979458226 0.0013839165329857237 0 -0.00011278768668865359 0.0013778052698975574 0 -0.00010657728979458226 0.0013839165329857237 0 -0.0001151874507797354 0.0013736861000989541 0 -0.00011976932556384154 0.0013702606772461315 0 -0.00011278768668865359 0.0013778052698975574 0 -0.0001151874507797354 0.0013736861000989541 0 -0.00010657728979458226 0.0013839165329857237 0 -0.00010454216300512554 0.0013792867083439943 0 -0.0001023093620711041 0.0013859134424253805 0 -0.00010657728979458226 0.0013839165329857237 0 -0.0001151874507797354 0.0013736861000989541 0 -0.00010454216300512554 0.0013792867083439943 0 -0.00010389069978432762 0.0013897801238770379 0 -0.0001023093620711041 0.0013859134424253805 0 -9.8775916399779603e-05 0.001393106308921554 0 -0.00010389069978432762 0.0013897801238770379 0 -0.00010657728979458226 0.0013839165329857237 0 -0.0001023093620711041 0.0013859134424253805 0 1.358070568639388e-05 0.00013827015094474267 0 -1.6381582101746174e-06 0.00022304223144066504 0 8.8875667578492681e-05 0.00018196071275277672 0 -6.4101124153498776e-05 0.00016083751854803707 0 1.358070568639388e-05 0.00013827015094474267 0 -1.6381582101746174e-06 0.00022304223144066504 0 -1.0396616471931442e-05 0.00016493121692045509 0 6.0243878795000812e-05 0.00013363975809133367 0 -2.0674802049935756e-05 0.00047129505297925081 0 -7.5855974184236926e-05 0.00018708337236199841 0 -1.6381582101746174e-06 0.00022304223144066504 0 -6.4101124153498776e-05 0.00016083751854803707 0 -7.5855974184236926e-05 0.00018708337236199841 0 -1.6381582101746174e-06 0.00022304223144066504 0 0.0001221275100188066 0.00026204494761587874 0 0.00027827751574165636 0.00034302560416550018 0 0.00017873065106317461 0.00020508628748037882 0 -1.6381582101746174e-06 0.00022304223144066504 0 0.0001221275100188066 0.00026204494761587874 0 8.8875667578492681e-05 0.00018196071275277672 0 0.00012637341303859152 0.00042086843502838655 0 0.0001221275100188066 0.00026204494761587874 0 0.00027827751574165636 0.00034302560416550018 0 0.00012637341303859152 0.00042086843502838655 0 -1.6381582101746174e-06 0.00022304223144066504 0 0.0001221275100188066 0.00026204494761587874 0 0.00027827751574165636 0.00034302560416550018 0 0.0002545062414784433 0.00016278228157828354 0 0.00017873065106317461 0.00020508628748037882 0 5.9731448459346652e-05 0.0012236117025120421 0 0.00014500718600821922 0.0011850984514039018 0 0.0001466567757309508 0.0012870447072898111 0 0.00021585948307032064 0.0007387539363071492 0 0.0001327794467908274 0.00086263310353232433 0 0.00015709134722565214 0.00065644925337432101 0 5.4543444130530831e-05 0.00062075663716699135 0 0.00016156783057926429 0.00061764936476204181 0 0.0001327794467908274 0.00086263310353232433 0 0.00011827253628013449 0.00033704458035155977 0 0.0002545062414784433 0.00016278228157828354 0 0.00017873065106317461 0.00020508628748037882 0 0.00017541057455074425 0.00010839254614108785 0 0.00015182462695387074 0.00070178400724788903 0 0.00015709134722565214 0.00065644925337432101 0 5.4543444130530831e-05 0.00062075663716699135 0 0.00011827253628013449 0.00033704458035155977 0 8.735832056897516e-05 0.00076457721591265061 0 -2.3943664506932438e-05 0.00138142899135727 0 -6.2687632076147241e-07 0.00137682291317559 0 -1.1493506892597047e-06 0.0013848285384053332 0 -2.3943664506932438e-05 0.00138142899135727 0 -1.1493506892597047e-06 0.0013848285384053332 0 -1.5457791038013846e-06 0.0013916877479070687 0 0.0001327794467908274 0.00086263310353232433 0 9.6458521487485658e-05 0.00090249167741528863 0 9.6458521487485658e-05 0.00090249167741528863 0 8.735832056897516e-05 0.00076457721591265061 0 6.0243878795000812e-05 0.00013363975809133367 0 0.00011827253628013449 0.00033704458035155977 0 1.358070568639388e-05 0.00013827015094474267 0 8.8875667578492681e-05 0.00018196071275277672 0 0.00017541057455074425 0.00010839254614108785 0 8.8875667578492681e-05 0.00018196071275277672 0 0.00017873065106317461 0.00020508628748037882 0 0.00017541057455074425 0.00010839254614108785 0 0.0001221275100188066 0.00026204494761587874 0 8.8875667578492681e-05 0.00018196071275277672 0 0.00017873065106317461 0.00020508628748037882 0 0.00011827253628013449 0.00033704458035155977 0 0.00010093539876753986 0.00014490108021952464 0 8.5303027791500024e-05 0.0001659784148172153 0 0.00013039814712424906 0.00016600839562181405 0 9.446322621838454e-05 0.00013513581853853468 0 0.00017679526977914238 0.00025676656150143819 0 0.00017202603079236463 0.00020347583502772158 0 0.00010794893178572421 0.00018579240769540887 0 0.00017679526977914238 0.00025676656150143819 0 0.00017202603079236463 0.00020347583502772158 0 0.00019256097012221448 0.00023353865005892261 0 -0.00012298510150284158 0.0013743978345897021 0 -0.00012389968023836432 0.0013716881632371448 0 -0.00012442374045458068 0.0013698314392012446 0 8.735832056897516e-05 0.00076457721591265061 0 0.00012468344042891537 0.00018806321714092485 0 0.00021537019546256865 0.00025600198414835201 0 0.00019256097012221448 0.00023353865005892261 0 0.00020929734004564014 0.00021723965872072018 0 0.00017679526977914238 0.00025676656150143819 0 0.00021537019546256865 0.00025600198414835201 0 0.00019256097012221448 0.00023353865005892261 0 0.00020929734004564014 0.00021723965872072018 0 0.00022911708312724416 0.00019202036374986375 0 0.00019493256476386006 0.00019011474092520307 0 0.00017202603079236463 0.00020347583502772158 0 0.00020929734004564014 0.00021723965872072018 0 0.00019493256476386006 0.00019011474092520307 0 0.00017202603079236463 0.00020347583502772158 0 0.00019256097012221448 0.00023353865005892261 0 0.00020929734004564014 0.00021723965872072018 0 0.00022073690123138758 0.0002746892888754889 0 0.00020929734004564014 0.00021723965872072018 0 0.00022911708312724416 0.00019202036374986375 0 8.735832056897516e-05 0.00076457721591265061 0 4.9113667604418933e-05 0.00080164029865254568 0 4.9113667604418933e-05 0.00080164029865254568 0 3.5112304017733723e-05 0.00067666311563537691 0 0.00022911708312724416 0.00019202036374986375 0 0.00020898727839323248 0.00016664435769809892 0 0.00022403829586874476 0.00014150361628150761 0 -0.00012322620330477559 0.0013692599429771541 0 -0.00012442374045458068 0.0013698314392012446 0 -0.00012415086478240436 0.0013655868805953653 0 0.00022911708312724416 0.00019202036374986375 0 0.00020898727839323248 0.00016664435769809892 0 0.00019493256476386006 0.00019011474092520307 0 0.00017202603079236463 0.00020347583502772158 0 0.00019493256476386006 0.00019011474092520307 0 0.00018154202704185918 0.00016361205357782704 0 0.00020898727839323248 0.00016664435769809892 0 0.00019493256476386006 0.00019011474092520307 0 0.00018154202704185918 0.00016361205357782704 0 0.00018154202704185918 0.00016361205357782704 0 0.00020681144985133741 0.00014702410253293033 0 0.00019349864889858949 0.00012596093081642044 0 0.00020681144985133741 0.00014702410253293033 0 0.00019349864889858949 0.00012596093081642044 0 0.00021648603344357088 0.00012672448582088736 0 0.00020898727839323248 0.00016664435769809892 0 0.00018154202704185918 0.00016361205357782704 0 0.00020681144985133741 0.00014702410253293033 0 0.00022911708312724416 0.00019202036374986375 0 0.00022403829586874476 0.00014150361628150761 0 0.00023520288706053741 0.00013240416552763335 0 0.00020898727839323248 0.00016664435769809892 0 0.00020681144985133741 0.00014702410253293033 0 0.00022403829586874476 0.00014150361628150761 0 0.00020681144985133741 0.00014702410253293033 0 0.00022403829586874476 0.00014150361628150761 0 0.00021648603344357088 0.00012672448582088736 0 0.00022403829586874476 0.00014150361628150761 0 0.00023734466547301056 0.00013116350178678173 0 0.00021648603344357088 0.00012672448582088736 0 0.00018275945906744481 0.00049871517451020603 0 3.5112304017733723e-05 0.00067666311563537691 0 0.00017202603079236463 0.00020347583502772158 0 0.00014843687070933745 0.00015883309817741896 0 0.00010794893178572421 0.00018579240769540887 0 0.00014843687070933745 0.00015883309817741896 0 0.00010794893178572421 0.00018579240769540887 0 0.00012265898013863255 0.00012295512229424933 0 0.00017202603079236463 0.00020347583502772158 0 0.00018154202704185918 0.00016361205357782704 0 0.00014843687070933745 0.00015883309817741896 0 0.00018154202704185918 0.00016361205357782704 0 0.00016071604397796803 0.00012055712891750124 0 0.00019349864889858949 0.00012596093081642044 0 0.00018154202704185918 0.00016361205357782704 0 0.00014843687070933745 0.00015883309817741896 0 0.00016071604397796803 0.00012055712891750124 0 0.00014843687070933745 0.00015883309817741896 0 0.00012265898013863255 0.00012295512229424933 0 0.00016071604397796803 0.00012055712891750124 0 0.00010093539876753986 0.00014490108021952464 0 5.8417795784827472e-05 0.0001168398682298432 0 0.00010794893178572421 0.00018579240769540887 0 5.4979282198048265e-05 0.00012137859963960369 0 0.00012265898013863255 0.00012295512229424933 0 8.5303027791500024e-05 0.0001659784148172153 0 9.446322621838454e-05 0.00013513581853853468 0 6.1351045811273777e-05 0.00014126383287650914 0 4.1503529016859323e-05 0.0001668028549154873 0 8.5303027791500024e-05 0.0001659784148172153 0 6.1351045811273777e-05 0.00014126383287650914 0 2.5472243917348216e-05 0.00013160469863395284 0 6.1351045811273777e-05 0.00014126383287650914 0 5.8953872807316753e-05 0.00010598341778623969 0 9.446322621838454e-05 0.00013513581853853468 0 6.1351045811273777e-05 0.00014126383287650914 0 5.8953872807316753e-05 0.00010598341778623969 0 2.2551862261958054e-05 8.0402741633814941e-05 0 5.4979282198048265e-05 0.00012137859963960369 0 7.918023742722729e-05 5.9691067602573375e-05 0 0.00012265898013863255 0.00012295512229424933 0 7.918023742722729e-05 5.9691067602573375e-05 0 0.00014983973839141968 8.0188074669780693e-05 0 5.4979282198048265e-05 0.00012137859963960369 0 0.00012265898013863255 0.00012295512229424933 0 7.918023742722729e-05 5.9691067602573375e-05 0 0.00021413682653615045 -3.3452445062984518e-05 0 0.00022865668267853538 -1.0254680287292209e-05 0 0.00019450548545849459 5.1424888264596884e-06 0 0.00012600398814555482 6.9166065418186894e-05 0 0.00015681918824129765 3.9537889295794223e-06 0 0.00027541562041922282 -6.7211112735420585e-05 0 0.00026594918085823949 -3.3244651224913481e-05 0 0.00021413682653615045 -3.3452445062984518e-05 0 0.00026594918085823949 -3.3244651224913481e-05 0 0.00021413682653615045 -3.3452445062984518e-05 0 0.00022865668267853538 -1.0254680287292209e-05 0 0.00025584827762522135 7.7100916432659882e-06 0 0.00022865668267853538 -1.0254680287292209e-05 0 0.00021760732561295804 1.6796259301675929e-05 0 0.00026594918085823949 -3.3244651224913481e-05 0 0.00025584827762522135 7.7100916432659882e-06 0 0.00022865668267853538 -1.0254680287292209e-05 0 0.00022865668267853538 -1.0254680287292209e-05 0 0.00021760732561295804 1.6796259301675929e-05 0 0.00019450548545849459 5.1424888264596884e-06 0 0.00021760732561295804 1.6796259301675929e-05 0 0.00019330660061001671 2.5599632444744788e-05 0 0.00019450548545849459 5.1424888264596884e-06 0 0.00021760732561295804 1.6796259301675929e-05 0 0.00019330660061001671 2.5599632444744788e-05 0 0.00020642644699124911 4.4184950935481504e-05 0 0.00025584827762522135 7.7100916432659882e-06 0 0.00021760732561295804 1.6796259301675929e-05 0 0.00023915642897002378 5.0241132459699177e-05 0 0.00021760732561295804 1.6796259301675929e-05 0 0.00023915642897002378 5.0241132459699177e-05 0 0.00020642644699124911 4.4184950935481504e-05 0 -0.00027338383047037355 0.0013302231321890381 0 -3.827619687135722e-05 0.00065826946654216629 0 -0.00017579486150391069 0.0012194071339387286 0 -0.00022166233782828796 0.0012254273058902065 0 -0.00023534817486787181 0.0012402169303446879 0 -0.00017579486150391069 0.0012194071339387286 0 -0.00023534817486787181 0.0012402169303446879 0 -0.00015315846214295121 0.0012698873264680838 0 0.00017883875202179641 2.0302293636115504e-05 0 0.00019330660061001671 2.5599632444744788e-05 0 0.00017904969433568392 5.0808169118325483e-05 0 0.00019330660061001671 2.5599632444744788e-05 0 0.00020642644699124911 4.4184950935481504e-05 0 0.00017904969433568392 5.0808169118325483e-05 0 9.390850651256579e-06 0.00062940073405558163 0 -3.827619687135722e-05 0.00065826946654216629 0 0.00017883875202179641 2.0302293636115504e-05 0 0.00019330660061001671 2.5599632444744788e-05 0 0.00019450548545849459 5.1424888264596884e-06 0 0.00017883875202179641 2.0302293636115504e-05 0 0.00019450548545849459 5.1424888264596884e-06 0 0.00018618380533409333 1.3767928253730766e-05 0 0.00019450548545849459 5.1424888264596884e-06 0 0.00018618380533409333 1.3767928253730766e-05 0 0.00018137018981769572 2.3186520285517304e-05 0 -0.00017579486150391069 0.0012194071339387286 0 -0.00021402182386283806 0.0011966354331043236 0 -0.00019050098836112569 0.0011421133597741141 0 0.00017883875202179641 2.0302293636115504e-05 0 0.00018618380533409333 1.3767928253730766e-05 0 0.00019981387733481774 1.5094362301031398e-05 0 9.390850651256579e-06 0.00062940073405558163 0 9.8221471287152181e-08 0.00054152576889290882 0 -0.00017579486150391069 0.0012194071339387286 0 -0.00022166233782828796 0.0012254273058902065 0 -0.00021402182386283806 0.0011966354331043236 0 -0.00021402182386283806 0.0011966354331043236 0 -0.00019050098836112569 0.0011421133597741141 0 -0.00024508512340220884 0.0011452764291247815 0 9.8221471287152181e-08 0.00054152576889290882 0 -0.00011231153972779054 0.00081026429610632012 0 0.00019981387733481774 1.5094362301031398e-05 0 0.00020550627445818851 5.9152109589902839e-05 0 0.00024315916426068815 8.7943421968556513e-05 0 -0.00019050098836112569 0.0011421133597741141 0 -0.00022720928959107836 0.0010331484591075198 0 -0.00024508512340220884 0.0011452764291247815 0 0.00018618380533409333 1.3767928253730766e-05 0 0.00019981387733481774 1.5094362301031398e-05 0 0.00018137018981769572 2.3186520285517304e-05 0 0.00019981387733481774 1.5094362301031398e-05 0 0.00020550627445818851 5.9152109589902839e-05 0 0.00018137018981769572 2.3186520285517304e-05 0 0.00020550627445818851 5.9152109589902839e-05 0 0.00018137018981769572 2.3186520285517304e-05 0 0.00018036434750405938 6.4084093265552486e-05 0 0.00015681918824129765 3.9537889295794223e-06 0 0.00017983237429548555 2.3337827443552255e-05 0 0.00021413682653615045 -3.3452445062984518e-05 0 0.00019450548545849459 5.1424888264596884e-06 0 0.00018137018981769572 2.3186520285517304e-05 0 7.918023742722729e-05 5.9691067602573375e-05 0 0.00018137018981769572 2.3186520285517304e-05 0 0.00014983973839141968 8.0188074669780693e-05 0 0.00018137018981769572 2.3186520285517304e-05 0 0.00014983973839141968 8.0188074669780693e-05 0 0.00018036434750405938 6.4084093265552486e-05 0 0.00014983973839141968 8.0188074669780693e-05 0 0.00018036434750405938 6.4084093265552486e-05 0 0.00018317170411928448 9.2580234083102062e-05 0 0.00014983973839141968 8.0188074669780693e-05 0 0.00016071604397796803 0.00012055712891750124 0 0.00018317170411928448 9.2580234083102062e-05 0 0.00016071604397796803 0.00012055712891750124 0 0.00018317170411928448 9.2580234083102062e-05 0 0.00019349864889858949 0.00012596093081642044 0 0.00012265898013863255 0.00012295512229424933 0 0.00014983973839141968 8.0188074669780693e-05 0 0.00016071604397796803 0.00012055712891750124 0 0.00020550627445818851 5.9152109589902839e-05 0 0.00021475982505415926 8.8702172948871023e-05 0 0.00024315916426068815 8.7943421968556513e-05 0 0.00021475982505415926 8.8702172948871023e-05 0 0.00022390614286434262 0.00010854960061007308 0 0.00024315916426068815 8.7943421968556513e-05 0 0.00020550627445818851 5.9152109589902839e-05 0 0.00021475982505415926 8.8702172948871023e-05 0 0.00018317170411928448 9.2580234083102062e-05 0 0.00020550627445818851 5.9152109589902839e-05 0 0.00018036434750405938 6.4084093265552486e-05 0 0.00018317170411928448 9.2580234083102062e-05 0 0.00021475982505415926 8.8702172948871023e-05 0 0.00018317170411928448 9.2580234083102062e-05 0 0.00020844587691335278 0.0001082769918299553 0 0.00018317170411928448 9.2580234083102062e-05 0 0.00020844587691335278 0.0001082769918299553 0 0.00019349864889858949 0.00012596093081642044 0 0.00020844587691335278 0.0001082769918299553 0 0.00019349864889858949 0.00012596093081642044 0 0.00021648603344357088 0.00012672448582088736 0 3.5112304017733723e-05 0.00067666311563537691 0 -0.00011231153972779054 0.00081026429610632012 0 0.00023734466547301056 0.00013116350178678173 0 0.00022390614286434262 0.00010854960061007308 0 0.00024315916426068815 8.7943421968556513e-05 0 0.00023734466547301056 0.00013116350178678173 0 0.00021648603344357088 0.00012672448582088736 0 0.00022390614286434262 0.00010854960061007308 0 0.00020844587691335278 0.0001082769918299553 0 0.00021648603344357088 0.00012672448582088736 0 0.00022390614286434262 0.00010854960061007308 0 0.00021475982505415926 8.8702172948871023e-05 0 0.00020844587691335278 0.0001082769918299553 0 0.00022390614286434262 0.00010854960061007308 0 -0.00012266130133864529 0.0013684094919709973 0 -0.00012415086478240436 0.0013655868805953653 0 -0.00012379734999170213 0.0013662343108736313 0 3.5112304017733723e-05 0.00067666311563537691 0 -0.00015951723814608306 0.0010526617746997289 0 -0.00015951723814608306 0.0010526617746997289 0 -0.00019970146329827211 0.0013484920076025358 0 -0.00012266130133864529 0.0013684094919709973 0 -0.00012379734999170213 0.0013662343108736313 0 -0.00012529381589967105 0.0013655770092898497 0 -0.00023656156396601043 0.0012611762636888482 0 -0.00023886953204242152 0.001268665462499796 0 -0.00023810215963087568 0.0012666925266960581 0 -7.5706434776302563e-05 0.00085198685567966026 0 -8.7189619810759135e-05 0.0008612620999178752 0 -8.0789541089809082e-05 0.0008775246238969999 0 -0.00015951723814608306 0.0010526617746997289 0 -0.00011231153972779054 0.00081026429610632012 0 -0.00023656156396601043 0.0012611762636888482 0 -0.00023555823310193806 0.0012634655158844524 0 -0.00023810215963087568 0.0012666925266960581 0 -0.00011976932556384154 0.0013702606772461315 0 -0.00012529381589967105 0.0013655770092898497 0 -0.00012416071673491017 0.0013665197803237373 0 -0.00012266130133864529 0.0013684094919709973 0 -0.00011976932556384154 0.0013702606772461315 0 -0.00012529381589967105 0.0013655770092898497 0 -0.00023886953204242152 0.001268665462499796 0 -0.0002260677000603956 0.001283601389370877 0 -0.00023604608210401311 0.0012709052322214555 0 -0.00019970146329827211 0.0013484920076025358 0 -0.00017221198086377832 0.0013081987851844897 0 -0.00023886953204242152 0.001268665462499796 0 -0.00023794841726341727 0.0012686555723168663 0 -0.00023604608210401311 0.0012709052322214555 0 -0.00023794841726341727 0.0012686555723168663 0 -0.00024148006841688931 0.0012680241720057976 0 -0.00023675344144481045 0.0012641909367283953 0 -0.00011231153972779054 0.00081026429610632012 0 -0.00025507268155308444 0.0012745001231219794 0 -0.00023555823310193806 0.0012634655158844524 0 -0.00024148006841688931 0.0012680241720057976 0 -0.00023810215963087568 0.0012666925266960581 0 -0.00023794841726341727 0.0012686555723168663 0 -0.00024148006841688931 0.0012680241720057976 0 -0.00023810215963087568 0.0012666925266960581 0 -0.00023886953204242152 0.001268665462499796 0 -0.00023794841726341727 0.0012686555723168663 0 -0.00023810215963087568 0.0012666925266960581 0 -0.0001151874507797354 0.0013736861000989541 0 -0.00010454216300512554 0.0013792867083439943 0 -0.00012099247385502355 0.0013672812458453162 0 -0.00010454216300512554 0.0013792867083439943 0 -0.00012099247385502355 0.0013672812458453162 0 -0.00010589251116626004 0.0013808646048414223 0 -0.0001151874507797354 0.0013736861000989541 0 -0.00012099247385502355 0.0013672812458453162 0 -0.00012416071673491017 0.0013665197803237373 0 -0.00011976932556384154 0.0013702606772461315 0 -0.0001151874507797354 0.0013736861000989541 0 -0.00012416071673491017 0.0013665197803237373 0 -0.00012529381589967105 0.0013655770092898497 0 -0.00012416071673491017 0.0013665197803237373 0 -0.00013650807202510344 0.001351349924572125 0 -0.00012099247385502355 0.0013672812458453162 0 -0.00012416071673491017 0.0013665197803237373 0 -0.00013650807202510344 0.001351349924572125 0 -0.00012099247385502355 0.0013672812458453162 0 -0.00012109220838255128 0.0013561511633752288 0 -0.00013650807202510344 0.001351349924572125 0 -0.00012099247385502355 0.0013672812458453162 0 -0.00012109220838255128 0.0013561511633752288 0 -0.00010589251116626004 0.0013808646048414223 0 -0.00012109220838255128 0.0013561511633752288 0 -0.00013650807202510344 0.001351349924572125 0 -0.00012712355307400791 0.0013307207482214363 0 -0.00013650807202510344 0.001351349924572125 0 -0.00014954927238353423 0.001295734951970034 0 -0.00012712355307400791 0.0013307207482214363 0 -0.00017221198086377832 0.0013081987851844897 0 -0.0001498695987563469 0.0012957804407857717 0 -0.0002260677000603956 0.001283601389370877 0 -0.00020861604075744647 0.0012679317606910144 0 -0.00014954927238353423 0.001295734951970034 0 -0.0002260677000603956 0.001283601389370877 0 -0.00023043458094455839 0.0012607907825666934 0 -0.00023643018393125983 0.0012693197431008964 0 -0.0002260677000603956 0.001283601389370877 0 -0.00023043458094455839 0.0012607907825666934 0 -0.00020861604075744647 0.0012679317606910144 0 -0.00023043458094455839 0.0012607907825666934 0 -0.0002425593409946157 0.001236970246980159 0 -0.00021837809860536536 0.0012428947215375114 0 -0.00023043458094455839 0.0012607907825666934 0 -0.00020861604075744647 0.0012679317606910144 0 -0.00021837809860536536 0.0012428947215375114 0 -0.00020861604075744647 0.0012679317606910144 0 -0.00019382997303908151 0.0012445593146686142 0 -0.00014954927238353423 0.001295734951970034 0 -0.00020861604075744647 0.0012679317606910144 0 -0.00019382997303908151 0.0012445593146686142 0 -0.00021837809860536536 0.0012428947215375114 0 -0.00025507268155308444 0.0012745001231219794 0 -0.00023633783053908888 0.0012136622201236356 0 -0.00021402182386283806 0.0011966354331043236 0 -0.00024508512340220884 0.0011452764291247815 0 -0.0002383332702607168 0.0012443841963683847 0 -0.00024148006841688931 0.0012680241720057976 0 -0.00023675344144481045 0.0012641909367283953 0 -0.0002383332702607168 0.0012443841963683847 0 -0.00022166233782828796 0.0012254273058902065 0 -0.00021402182386283806 0.0011966354331043236 0 -0.0002383332702607168 0.0012443841963683847 0 -0.00023675344144481045 0.0012641909367283953 0 -0.00023604608210401311 0.0012709052322214555 0 -0.00023643018393125983 0.0012693197431008964 0 -0.00023794841726341727 0.0012686555723168663 0 -0.00023675344144481045 0.0012641909367283953 0 -0.00023604608210401311 0.0012709052322214555 0 -0.00023675344144481045 0.0012641909367283953 0 -0.00023643018393125983 0.0012693197431008964 0 -0.0002383332702607168 0.0012443841963683847 0 -0.0002260677000603956 0.001283601389370877 0 -0.00023604608210401311 0.0012709052322214555 0 -0.00023643018393125983 0.0012693197431008964 0 -0.00023643018393125983 0.0012693197431008964 0 -0.00024979431199221956 0.0012519160745250747 0 -0.00027766686878512737 0.0012528686473023596 0 -0.00023043458094455839 0.0012607907825666934 0 -0.00023643018393125983 0.0012693197431008964 0 -0.00024979431199221956 0.0012519160745250747 0 -0.00023043458094455839 0.0012607907825666934 0 -0.00024979431199221956 0.0012519160745250747 0 -0.0002425593409946157 0.001236970246980159 0 -0.00024979431199221956 0.0012519160745250747 0 -0.00027766686878512737 0.0012528686473023596 0 -0.00026724794372949274 0.0012342920294005919 0 -0.0002375831928436611 0.0012429013213418546 0 -0.00027338383047037355 0.0013302231321890381 0 -0.00023643018393125983 0.0012693197431008964 0 -0.0002383332702607168 0.0012443841963683847 0 -0.00023534817486787181 0.0012402169303446879 0 -0.00022166233782828796 0.0012254273058902065 0 -0.0002383332702607168 0.0012443841963683847 0 -0.00023534817486787181 0.0012402169303446879 0 -0.00026724794372949274 0.0012342920294005919 0 -0.0002732329227871543 0.0011995575768193798 0 -0.00028708625964789648 0.0012201949661735719 0 -0.00027766686878512737 0.0012528686473023596 0 -0.00026724794372949274 0.0012342920294005919 0 -0.00028708625964789648 0.0012201949661735719 0 -0.00024979431199221956 0.0012519160745250747 0 -0.00026724794372949274 0.0012342920294005919 0 -0.0002425593409946157 0.001236970246980159 0 -0.00026724794372949274 0.0012342920294005919 0 -0.0002425593409946157 0.001236970246980159 0 -0.00024069530948133577 0.0012152132466864965 0 -0.00026724794372949274 0.0012342920294005919 0 -0.00024069530948133577 0.0012152132466864965 0 -0.0002732329227871543 0.0011995575768193798 0 -0.00024069530948133577 0.0012152132466864965 0 -0.0002732329227871543 0.0011995575768193798 0 -0.00022601936377168803 0.0012061353566369482 0 -0.00019382997303908151 0.0012445593146686142 0 -0.00020746108344018481 0.0012280514947394575 0 -0.00020569083949813216 0.0012303935312903576 0 -0.00019382997303908151 0.0012445593146686142 0 -0.00020746108344018481 0.0012280514947394575 0 -0.00021837809860536536 0.0012428947215375114 0 -0.0002425593409946157 0.001236970246980159 0 -0.00021837809860536536 0.0012428947215375114 0 -0.00022210914396657535 0.0012225117865802969 0 -0.00020746108344018481 0.0012280514947394575 0 -0.00021837809860536536 0.0012428947215375114 0 -0.00022210914396657535 0.0012225117865802969 0 -0.00022210914396657535 0.0012225117865802969 0 -0.0002133171757335413 0.0012200439996631065 0 -0.00022601936377168803 0.0012061353566369482 0 -0.0002425593409946157 0.001236970246980159 0 -0.00024069530948133577 0.0012152132466864965 0 -0.00022210914396657535 0.0012225117865802969 0 -0.00024069530948133577 0.0012152132466864965 0 -0.00022210914396657535 0.0012225117865802969 0 -0.00022601936377168803 0.0012061353566369482 0 -0.00020746108344018481 0.0012280514947394575 0 -0.0002133171757335413 0.0012200439996631065 0 -0.00021151392749979832 0.0012255833966019936 0 -0.00020746108344018481 0.0012280514947394575 0 -0.00022210914396657535 0.0012225117865802969 0 -0.0002133171757335413 0.0012200439996631065 0 -0.00025209791794150033 0.0011966105979684624 0 -0.00024383376754154415 0.0012041025441642675 0 -0.0002133171757335413 0.0012200439996631065 0 -0.00022601936377168803 0.0012061353566369482 0 -0.00021408571703118322 0.0012229964545414959 0 -0.00027994802266038401 0.0011776420641234023 0 -0.00027496461822601096 0.0011770721156553218 0 -0.00028444752961180397 0.0011617899684216964 0 -0.00027447361221301256 0.0011847891328977597 0 -0.00027282357860324642 0.0011848918929681332 0 -0.00027496461822601096 0.0011770721156553218 0 -0.00027447361221301256 0.0011847891328977597 0 -0.00027994802266038401 0.0011776420641234023 0 -0.00027496461822601096 0.0011770721156553218 0 -0.00027282357860324642 0.0011848918929681332 0 -0.00027496461822601096 0.0011770721156553218 0 -0.00027421276425513354 0.0011895795435021574 0 -0.0002732329227871543 0.0011995575768193798 0 -0.00027994802266038401 0.0011776420641234023 0 -0.0002900510948329053 0.0011821384450358939 0 -0.00027338684347181542 0.0012005724545526379 0 -0.00025209791794150033 0.0011966105979684624 0 -0.0002732329227871543 0.0011995575768193798 0 -0.00027447361221301256 0.0011847891328977597 0 -0.00027994802266038401 0.0011776420641234023 0 -0.00027994802266038401 0.0011776420641234023 0 -0.00028689461208802457 0.0011716199558162851 0 -0.00028444752961180397 0.0011617899684216964 0 -0.00027994802266038401 0.0011776420641234023 0 -0.00028689461208802457 0.0011716199558162851 0 -0.0002900510948329053 0.0011821384450358939 0 -0.00029114478761389925 0.0011318484714916762 0 -0.00032928827080459111 0.0011268442389498932 0 -0.00028689461208802457 0.0011716199558162851 0 -0.0002900510948329053 0.0011821384450358939 0 -0.0003042748550425205 0.0011716840819470508 0 -0.0002732329227871543 0.0011995575768193798 0 -0.0002900510948329053 0.0011821384450358939 0 -0.00029884895598231549 0.0011981931646623586 0 -0.0002900510948329053 0.0011821384450358939 0 -0.00030942225997144732 0.0011833431875668504 0 -0.0003042748550425205 0.0011716840819470508 0 -0.0002900510948329053 0.0011821384450358939 0 -0.00030942225997144732 0.0011833431875668504 0 -0.00029884895598231549 0.0011981931646623586 0 -0.00030942225997144732 0.0011833431875668504 0 -0.00031851482654010567 0.0011963500019846749 0 -0.00029884895598231549 0.0011981931646623586 0 -0.00032928827080459111 0.0011268442389498932 0 -0.00021612359647566221 0.00086154044704459139 0 -0.0003112015289535628 0.0010410504268672115 0 -0.00029209809345626564 0.00099084236254701023 0 -0.00029999436517815349 0.0010323818785572094 0 -0.00030942225997144732 0.0011833431875668504 0 -0.0003042748550425205 0.0011716840819470508 0 -0.00032459192028147011 0.0011733771594715065 0 -0.00028381288948418155 0.0010115763972034448 0 -0.00028764343261441914 0.00098223342534580816 0 -0.00029999436517815349 0.0010323818785572094 0 -1.7113958688217937e-05 0.00066323748650435916 0 -0.00021612359647566221 0.00086154044704459139 0 -0.00028764343261441914 0.00098223342534580816 0 -0.00029209809345626564 0.00099084236254701023 0 -0.00029999436517815349 0.0010323818785572094 0 -0.00024908230317812727 0.00097171301015435817 0 -0.00028764343261441914 0.00098223342534580816 0 -0.00027173995070679845 0.0009912580593659172 0 -0.00024908230317812727 0.00097171301015435817 0 -0.00026527034043701502 0.0010022280403489475 0 -0.00027173995070679845 0.0009912580593659172 0 -0.0002489441824567077 0.0010116822073522067 0 -0.00024908230317812727 0.00097171301015435817 0 -0.00026527034043701502 0.0010022280403489475 0 -0.00028381288948418155 0.0010115763972034448 0 -0.00028764343261441914 0.00098223342534580816 0 -0.00027173995070679845 0.0009912580593659172 0 -0.00028381288948418155 0.0010115763972034448 0 -0.00026527034043701502 0.0010022280403489475 0 -0.00027173995070679845 0.0009912580593659172 0 0.00027334331281865857 0.00014721807506609802 0 0.00019942146424817246 0.00018028395220087668 0 0.00020948111998483988 0.00013172943185213318 0 -7.4403573545481493e-05 0.00072410956313094423 0 -1.7113958688217937e-05 0.00066323748650435916 0 0.00027334331281865857 0.00014721807506609802 0 0.00020948111998483988 0.00013172943185213318 0 0.00023934550935433751 0.00010063953351576984 0 -0.00023669266872579006 0.00092228067472758526 0 -0.00024908230317812727 0.00097171301015435817 0 -0.00028764343261441914 0.00098223342534580816 0 -0.00021612359647566221 0.00086154044704459139 0 -7.3641482123766659e-05 0.00062282065147433623 0 0.00019942146424817246 0.00018028395220087668 0 0.00018683373092647981 0.0001847447857459603 0 0.00020948111998483988 0.00013172943185213318 0 0.00018683373092647981 0.0001847447857459603 0 0.00020948111998483988 0.00013172943185213318 0 0.00016425236893104187 0.00011616084864264949 0 -0.00030942225997144732 0.0011833431875668504 0 -0.00032459192028147011 0.0011733771594715065 0 -0.00031851482654010567 0.0011963500019846749 0 0.00020948111998483988 0.00013172943185213318 0 0.00021203385054182906 8.0976821772048811e-05 0 0.00016425236893104187 0.00011616084864264949 0 0.00020948111998483988 0.00013172943185213318 0 0.00021203385054182906 8.0976821772048811e-05 0 0.00023934550935433751 0.00010063953351576984 0 0.00021203385054182906 8.0976821772048811e-05 0 0.00023934550935433751 0.00010063953351576984 0 0.00023915642897002378 5.0241132459699177e-05 0 0.00027059678031080936 8.0431924369274161e-05 0 0.00023934550935433751 0.00010063953351576984 0 0.00023915642897002378 5.0241132459699177e-05 0 0.00021203385054182906 8.0976821772048811e-05 0 0.00023915642897002378 5.0241132459699177e-05 0 0.00020642644699124911 4.4184950935481504e-05 0 0.00021203385054182906 8.0976821772048811e-05 0 0.00020642644699124911 4.4184950935481504e-05 0 0.00017904969433568392 5.0808169118325483e-05 0 0.00021203385054182906 8.0976821772048811e-05 0 0.00016425236893104187 0.00011616084864264949 0 0.00013841112830097183 5.7329561382203262e-05 0 0.00024046103809680612 -6.7790301460912223e-05 0 -3.827619687135722e-05 0.00065826946654216629 0 -7.3641482123766659e-05 0.00062282065147433623 0 -3.827619687135722e-05 0.00065826946654216629 0 -0.00027766686878512737 0.0012528686473023596 0 -0.00031134650664990535 0.0012255522257120757 0 -0.00028708625964789648 0.0012201949661735719 0 -0.00031134650664990535 0.0012255522257120757 0 -0.00028708625964789648 0.0012201949661735719 0 -0.00029884895598231549 0.0011981931646623586 0 -0.0002732329227871543 0.0011995575768193798 0 -0.00028708625964789648 0.0012201949661735719 0 -0.00029884895598231549 0.0011981931646623586 0 -0.00031851482654010567 0.0011963500019846749 0 -0.00031134650664990535 0.0012255522257120757 0 -0.00029884895598231549 0.0011981931646623586 0 -0.00012289542439891942 0.0018054998478859601 0 -6.4859629468932501e-05 0.0017863883596249553 0 -9.3972115653576221e-05 0.0017085743954655393 0 -0.00012289542439891942 0.0018054998478859601 0 -9.3972115653576221e-05 0.0017085743954655393 0 -0.0001804980820491359 0.0017093155634406432 0 -0.0001936508681575804 0.0018090342693769434 0 -0.0001804980820491359 0.0017093155634406432 0 -0.00023323679861145439 0.0017538446966957714 0 -0.0001936508681575804 0.0018090342693769434 0 -0.00012289542439891942 0.0018054998478859601 0 -0.0001804980820491359 0.0017093155634406432 0 -0.0001936508681575804 0.0018090342693769434 0 -0.00023167955657821853 0.0018639154999337273 0 -0.00016006879147259498 0.001865453065698997 0 -0.0001936508681575804 0.0018090342693769434 0 -0.00012289542439891942 0.0018054998478859601 0 -0.00016006879147259498 0.001865453065698997 0 -0.00012289542439891942 0.0018054998478859601 0 -7.7411622862946504e-05 0.0018565483762392569 0 -0.00016006879147259498 0.001865453065698997 0 -0.00012289542439891942 0.0018054998478859601 0 -7.3145367244904563e-05 0.0018313283472490775 0 -6.4859629468932501e-05 0.0017863883596249553 0 -0.00012289542439891942 0.0018054998478859601 0 -7.3145367244904563e-05 0.0018313283472490775 0 -7.7411622862946504e-05 0.0018565483762392569 0 -7.3145367244904563e-05 0.0018313283472490775 0 -7.7411622862946504e-05 0.0018565483762392569 0 -7.7986407758949322e-05 0.0018609593373987011 0 -7.3145367244904563e-05 0.0018313283472490775 0 -3.3327737497375413e-05 0.0018238059447749514 0 -7.7986407758949322e-05 0.0018609593373987011 0 -3.3327737497375413e-05 0.0018238059447749514 0 -7.7302591538419684e-06 0.0018478846769238175 0 -7.7986407758949322e-05 0.0018609593373987011 0 -7.3145367244904563e-05 0.0018313283472490775 0 -3.3327737497375413e-05 0.0018238059447749514 0 -6.4859629468932501e-05 0.0017863883596249553 0 -7.218217022828822e-05 0.0022809246594397096 0 -5.1246497702996448e-05 0.0028513764164970288 0 0.00012339283192839049 0.0031925623175187504 0 0.00014536606189078941 0.003196751038351338 0 0.00011516276291240729 0.0032108491967321249 0 -8.3084760572467491e-08 0.0018397414609845209 0 -6.9060256681356294e-06 0.0018510599112110248 0 3.0672003238722469e-05 0.001833054442960772 0 0.00012339283192839049 0.0031925623175187504 0 0.00013156029158779175 0.0031850583967484359 0 0.00012101297959011004 0.0031771004935025916 0 0.00012339283192839049 0.0031925623175187504 0 0.00013156029158779175 0.0031850583967484359 0 0.00014536606189078941 0.003196751038351338 0 0.00013156029158779175 0.0031850583967484359 0 0.00014536606189078941 0.003196751038351338 0 0.00013651460343530025 0.0031737625634731996 0 -3.3327737497375413e-05 0.0018238059447749514 0 -8.3084760572467491e-08 0.0018397414609845209 0 -7.7302591538419684e-06 0.0018478846769238175 0 -1.4574005753871625e-05 0.0021511359562969572 0 -7.218217022828822e-05 0.0022809246594397096 0 -3.3327737497375413e-05 0.0018238059447749514 0 -8.3084760572467491e-08 0.0018397414609845209 0 -1.7086637100049061e-06 0.0017384017747786424 0 -8.3084760572467491e-08 0.0018397414609845209 0 -1.7086637100049061e-06 0.0017384017747786424 0 3.0672003238722469e-05 0.001833054442960772 0 -0.00043546429256350981 0.0035397580937374623 0 -0.00036695581926779643 0.0036613183710188873 0 -0.00033628605432906218 0.0035649458102485036 0 -0.00023904352094767091 0.002611473603586175 0 -5.1246497702996448e-05 0.0028513764164970288 0 -3.3327737497375413e-05 0.0018238059447749514 0 -6.4859629468932501e-05 0.0017863883596249553 0 -1.7086637100049061e-06 0.0017384017747786424 0 -6.4859629468932501e-05 0.0017863883596249553 0 -1.7086637100049061e-06 0.0017384017747786424 0 -9.3972115653576221e-05 0.0017085743954655393 0 -1.7086637100049061e-06 0.0017384017747786424 0 -3.4849081379954714e-05 0.0016232492268043088 0 -9.3972115653576221e-05 0.0017085743954655393 0 -0.00023904352094767091 0.002611473603586175 0 -0.00026687746916146429 0.0025204377465849266 0 -0.00043546429256350981 0.0035397580937374623 0 -0.00050639177995444556 0.0034071699500116768 0 -0.00033919531285348436 0.003449899981403591 0 -0.00050639177995444556 0.0034071699500116768 0 -0.00033919531285348436 0.003449899981403591 0 -0.00044562206083538893 0.0033273091432010514 0 -3.4849081379954714e-05 0.0016232492268043088 0 -9.3972115653576221e-05 0.0017085743954655393 0 -0.00015993757904729606 0.0015718039320554793 0 -9.3972115653576221e-05 0.0017085743954655393 0 -0.0001804980820491359 0.0017093155634406432 0 -0.00015993757904729606 0.0015718039320554793 0 -0.0001804980820491359 0.0017093155634406432 0 -0.0002468933395528396 0.0016279329828514815 0 -0.00023323679861145439 0.0017538446966957714 0 -0.0001804980820491359 0.0017093155634406432 0 -0.0002468933395528396 0.0016279329828514815 0 -0.00015993757904729606 0.0015718039320554793 0 -0.00024385123914812891 0.0012313531449939731 0 -0.00023656791640104302 0.0012292252323842011 0 -0.00025266564194575275 0.001229357072454721 0 -0.00023656791640104302 0.0012292252323842011 0 -0.00022762260754788477 0.0012323835387101313 0 -0.00025266564194575275 0.001229357072454721 0 -0.00023656791640104302 0.0012292252323842011 0 -0.00022262179368208844 0.0012257818300652143 0 -0.00023063309067785644 0.0012270694707503943 0 -0.00024263783285868629 0.0014289841743780503 0 -0.00025968867857245311 0.0014881519128796328 0 -0.00023656791640104302 0.0012292252323842011 0 -0.00023498728986599167 0.0012286328329515043 0 -0.00023063309067785644 0.0012270694707503943 0 -0.00024385123914812891 0.0012313531449939731 0 -0.00023656791640104302 0.0012292252323842011 0 -0.00023498728986599167 0.0012286328329515043 0 -0.00022762260754788477 0.0012323835387101313 0 -0.00021658957966490375 0.0012242532486458843 0 -0.00022262179368208844 0.0012257818300652143 0 -0.00023656791640104302 0.0012292252323842011 0 -0.00022762260754788477 0.0012323835387101313 0 -0.00022262179368208844 0.0012257818300652143 0 -0.00027282357860324642 0.0011848918929681332 0 -0.00027549974181053402 0.0012065427891026722 0 -0.00027421276425513354 0.0011895795435021574 0 -0.00021408571703118322 0.0012229964545414959 0 -0.00022762260754788477 0.0012323835387101313 0 -0.00021658957966490375 0.0012242532486458843 0 -0.00024383376754154415 0.0012041025441642675 0 -0.00025001395015627006 0.0012187609155745759 0 -0.0002133171757335413 0.0012200439996631065 0 -0.00021408571703118322 0.0012229964545414959 0 -0.00021658957966490375 0.0012242532486458843 0 -0.00021658957966490375 0.0012242532486458843 0 -0.00021151392749979832 0.0012255833966019936 0 -0.00022262179368208844 0.0012257818300652143 0 -0.0002133171757335413 0.0012200439996631065 0 -0.00021658957966490375 0.0012242532486458843 0 -0.00021151392749979832 0.0012255833966019936 0 -0.00021151392749979832 0.0012255833966019936 0 -0.00022262179368208844 0.0012257818300652143 0 -0.00021480380917544676 0.0012265749492088916 0 -0.00022262179368208844 0.0012257818300652143 0 -0.00021480380917544676 0.0012265749492088916 0 -0.00022315437886203515 0.0012253076320021992 0 -0.00021480380917544676 0.0012265749492088916 0 -0.00022315437886203515 0.0012253076320021992 0 -0.00021211963234087696 0.0012224260436461383 0 -0.00022315437886203515 0.0012253076320021992 0 -0.00022440748892620753 0.0012208159548905378 0 -0.00021211963234087696 0.0012224260436461383 0 -0.00019382997303908151 0.0012445593146686142 0 -0.00020569083949813216 0.0012303935312903576 0 -0.00021211963234087696 0.0012224260436461383 0 -0.00021151392749979832 0.0012255833966019936 0 -0.00021480380917544676 0.0012265749492088916 0 -0.00020569083949813216 0.0012303935312903576 0 -0.00021480380917544676 0.0012265749492088916 0 -0.00020569083949813216 0.0012303935312903576 0 -0.00021211963234087696 0.0012224260436461383 0 -0.00020746108344018481 0.0012280514947394575 0 -0.00021151392749979832 0.0012255833966019936 0 -0.00020569083949813216 0.0012303935312903576 0 -0.00023498728986599167 0.0012286328329515043 0 -0.00023063309067785644 0.0012270694707503943 0 -0.00022922137527418561 0.0012254321905541845 0 -0.00022262179368208844 0.0012257818300652143 0 -0.00023063309067785644 0.0012270694707503943 0 -0.00022315437886203515 0.0012253076320021992 0 -0.00023063309067785644 0.0012270694707503943 0 -0.00022922137527418561 0.0012254321905541845 0 -0.00022315437886203515 0.0012253076320021992 0 -0.00022922137527418561 0.0012254321905541845 0 -0.0002307052525595522 0.0012240064723029382 0 -0.00022440748892620753 0.0012208159548905378 0 -0.00022922137527418561 0.0012254321905541845 0 -0.00022315437886203515 0.0012253076320021992 0 -0.00022440748892620753 0.0012208159548905378 0 -0.00025968867857245311 0.0014881519128796328 0 -3.3094483999640935e-05 0.0015608393750290845 0 -0.00023498728986599167 0.0012286328329515043 0 -0.00022922137527418561 0.0012254321905541845 0 -0.0002307052525595522 0.0012240064723029382 0 -0.0001936508681575804 0.0018090342693769434 0 -0.00023323679861145439 0.0017538446966957714 0 -0.00023167955657821853 0.0018639154999337273 0 -3.3094483999640935e-05 0.0015608393750290845 0 -8.2164116252957207e-05 0.0012421629486383924 0 0.00015244960557400211 0.0018615119660156155 0 0.00016434403420286146 0.0017329931716064137 0 5.5375671634394202e-05 0.0017628781406939938 0 -3.3094483999640935e-05 0.0015608393750290845 0 0.00017458304740257524 0.0015856196426074717 0 0.00020320851414155599 0.0013148278288160589 0 0.00011377327968253796 0.0013985524078489985 0 0.00019527957021440792 0.0014366335192392305 0 5.3944572966071436e-05 0.0013053801741553755 0 0.00011377327968253796 0.0013985524078489985 0 4.2444711099617575e-06 0.0014620283623673822 0 0.00020320851414155599 0.0013148278288160589 0 5.3944572966071436e-05 0.0013053801741553755 0 0.00011377327968253796 0.0013985524078489985 0 0.00011377327968253796 0.0013985524078489985 0 0.00012462070631538401 0.001495636080757243 0 4.2444711099617575e-06 0.0014620283623673822 0 0.00012462070631538401 0.001495636080757243 0 4.2444711099617575e-06 0.0014620283623673822 0 0.00015817834933515103 0.0015802138303991501 0 0.00012462070631538401 0.001495636080757243 0 0.00019527957021440792 0.0014366335192392305 0 0.0001626314516713069 0.001574480727929485 0 0.00016434403420286146 0.0017329931716064137 0 0.0001626314516713069 0.001574480727929485 0 7.860857406727976e-05 0.0016515557852275421 0 0.00017458304740257524 0.0015856196426074717 0 0.00016870755657050039 0.0015745552425506563 0 0.00011377327968253796 0.0013985524078489985 0 0.00012462070631538401 0.001495636080757243 0 0.00019527957021440792 0.0014366335192392305 0 -0.00019380447678806408 0.0012457710699491109 0 -0.00015204605866034546 0.0012531516138476367 0 -0.00019382997303908151 0.0012445593146686142 0 -8.5684187668628564e-05 0.0012800089329335518 0 -0.00012175141469993015 0.0012843168337560956 0 -0.00014954927238353423 0.001295734951970034 0 -0.0001245974133409911 0.0013070728245233275 0 -0.00012175141469993015 0.0012843168337560956 0 -0.00014954927238353423 0.001295734951970034 0 -0.0001245974133409911 0.0013070728245233275 0 -0.00012712355307400791 0.0013307207482214363 0 -0.00019382997303908151 0.0012445593146686142 0 -0.00014954927238353423 0.001295734951970034 0 -0.00012175141469993015 0.0012843168337560956 0 -0.0001245974133409911 0.0013070728245233275 0 -0.00012175141469993015 0.0012843168337560956 0 -0.00010175294339206419 0.0013177989920822746 0 5.3944572966071436e-05 0.0013053801741553755 0 -8.5684187668628564e-05 0.0012800089329335518 0 4.2444711099617575e-06 0.0014620283623673822 0 -0.00011714040638162438 0.0012935092257303285 0 -2.6063692882163172e-05 0.0013926119371800514 0 -0.00012175141469993015 0.0012843168337560956 0 -6.0922930905487099e-05 0.0013267496993355054 0 -0.00010175294339206419 0.0013177989920822746 0 -8.5684187668628564e-05 0.0012800089329335518 0 -0.00012175141469993015 0.0012843168337560956 0 4.2444711099617575e-06 0.0014620283623673822 0 -8.2164116252957207e-05 0.0012421629486383924 0 -0.00015204605866034546 0.0012531516138476367 0 -6.0922930905487099e-05 0.0013267496993355054 0 -0.00010175294339206419 0.0013177989920822746 0 -9.8939137397968338e-05 0.0013496923121831786 0 -0.00010175294339206419 0.0013177989920822746 0 -0.00012712355307400791 0.0013307207482214363 0 -9.8939137397968338e-05 0.0013496923121831786 0 -0.00012109220838255128 0.0013561511633752288 0 -0.00012712355307400791 0.0013307207482214363 0 -9.8939137397968338e-05 0.0013496923121831786 0 -0.0001245974133409911 0.0013070728245233275 0 -0.00010175294339206419 0.0013177989920822746 0 -0.00012712355307400791 0.0013307207482214363 0 -0.00012109220838255128 0.0013561511633752288 0 -9.8939137397968338e-05 0.0013496923121831786 0 -0.00010589251116626004 0.0013808646048414223 0 -9.8939137397968338e-05 0.0013496923121831786 0 -7.3545968022140516e-05 0.0013703566200692972 0 -0.00010589251116626004 0.0013808646048414223 0 -6.0922930905487099e-05 0.0013267496993355054 0 -7.3545968022140516e-05 0.0013703566200692972 0 -3.5792588268898335e-05 0.0013812192761430652 0 -6.0922930905487099e-05 0.0013267496993355054 0 -9.8939137397968338e-05 0.0013496923121831786 0 -7.3545968022140516e-05 0.0013703566200692972 0 -7.3545968022140516e-05 0.0013703566200692972 0 -5.5504642968527205e-05 0.0014073856101395089 0 -3.5792588268898335e-05 0.0013812192761430652 0 -0.00010665806325233875 0.0013805126871895249 0 -7.0263942840821314e-05 0.0014256380170961837 0 -5.5504642968527205e-05 0.0014073856101395089 0 -0.00010589251116626004 0.0013808646048414223 0 -7.6239423881865819e-05 0.001449851808304086 0 -7.3545968022140516e-05 0.0013703566200692972 0 -5.5504642968527205e-05 0.0014073856101395089 0 -0.00010589251116626004 0.0013808646048414223 0 0.00012462070631538401 0.001495636080757243 0 0.00015817834933515103 0.0015802138303991501 0 0.0001626314516713069 0.001574480727929485 0 0.00015817834933515103 0.0015802138303991501 0 0.0001626314516713069 0.001574480727929485 0 9.5226585263059776e-05 0.0015532466783840103 0 0.0001626314516713069 0.001574480727929485 0 9.5226585263059776e-05 0.0015532466783840103 0 9.7123471484761794e-05 0.0015904474619471975 0 -2.6063692882163172e-05 0.0013926119371800514 0 7.44251055163382e-05 0.0014767603722328111 0 -6.0922930905487099e-05 0.0013267496993355054 0 1.3909340932930886e-06 0.0013795137819601377 0 -3.5792588268898335e-05 0.0013812192761430652 0 1.3909340932930886e-06 0.0013795137819601377 0 -3.5792588268898335e-05 0.0013812192761430652 0 -1.61859377273066e-05 0.0014158549990519024 0 -5.5504642968527205e-05 0.0014073856101395089 0 -3.5792588268898335e-05 0.0013812192761430652 0 -1.61859377273066e-05 0.0014158549990519024 0 -5.5504642968527205e-05 0.0014073856101395089 0 -1.61859377273066e-05 0.0014158549990519024 0 -2.9639888264911653e-05 0.001451719955829696 0 -1.61859377273066e-05 0.0014158549990519024 0 -2.9639888264911653e-05 0.001451719955829696 0 1.9774244547120802e-06 0.0014472545929666708 0 1.4163833318567645e-05 0.0014331130572787243 0 4.9923126866054449e-05 0.0014554150882413182 0 2.4681837378848052e-05 0.0014626711881915845 0 7.44251055163382e-05 0.0014767603722328111 0 5.1480116912317868e-05 0.0014559837515035342 0 1.3909340932930886e-06 0.0013795137819601377 0 -1.61859377273066e-05 0.0014158549990519024 0 1.4163833318567645e-05 0.0014331130572787243 0 1.3909340932930886e-06 0.0013795137819601377 0 1.4163833318567645e-05 0.0014331130572787243 0 4.9923126866054449e-05 0.0014554150882413182 0 -1.61859377273066e-05 0.0014158549990519024 0 1.4163833318567645e-05 0.0014331130572787243 0 1.9774244547120802e-06 0.0014472545929666708 0 4.9923126866054449e-05 0.0014554150882413182 0 4.0272888120548854e-05 0.0015214097476790723 0 9.5226585263059776e-05 0.0015532466783840103 0 0.00015817834933515103 0.0015802138303991501 0 4.9923126866054449e-05 0.0014554150882413182 0 9.5226585263059776e-05 0.0015532466783840103 0 4.9923126866054449e-05 0.0014554150882413182 0 3.9547465774656419e-05 0.0014552621613623201 0 4.0272888120548854e-05 0.0015214097476790723 0 0.00034331977054187469 0.0029109251027246057 0 0.00027245612042123014 0.0029351582992848606 0 0.00027018619430233302 0.0030261603195744051 0 3.9547465774656419e-05 0.0014552621613623201 0 4.0272888120548854e-05 0.0015214097476790723 0 -7.7964154699000816e-05 0.0015865011480902702 0 0.00018860420224904185 0.0021808481611860133 0 0.00010094085028428842 0.0022979457454807579 0 0.00034331977054187469 0.0029109251027246057 0 0.00027245612042123014 0.0029351582992848606 0 0.00030623794688369878 0.0028908018988079332 0 4.0272888120548854e-05 0.0015214097476790723 0 -7.7964154699000816e-05 0.0015865011480902702 0 4.6177131391712345e-05 0.0015795854441894709 0 -7.7964154699000816e-05 0.0015865011480902702 0 4.6177131391712345e-05 0.0015795854441894709 0 -2.4297755287347176e-05 0.0016810442058362005 0 9.5226585263059776e-05 0.0015532466783840103 0 4.6177131391712345e-05 0.0015795854441894709 0 9.7123471484761794e-05 0.0015904474619471975 0 4.0272888120548854e-05 0.0015214097476790723 0 9.5226585263059776e-05 0.0015532466783840103 0 4.6177131391712345e-05 0.0015795854441894709 0 0.0001626314516713069 0.001574480727929485 0 9.7123471484761794e-05 0.0015904474619471975 0 7.860857406727976e-05 0.0016515557852275421 0 4.6177131391712345e-05 0.0015795854441894709 0 9.7123471484761794e-05 0.0015904474619471975 0 7.860857406727976e-05 0.0016515557852275421 0 0.00016434403420286146 0.0017329931716064137 0 7.860857406727976e-05 0.0016515557852275421 0 5.5375671634394202e-05 0.0017628781406939938 0 7.860857406727976e-05 0.0016515557852275421 0 -2.4297755287347176e-05 0.0016810442058362005 0 5.5375671634394202e-05 0.0017628781406939938 0 4.6177131391712345e-05 0.0015795854441894709 0 7.860857406727976e-05 0.0016515557852275421 0 -2.4297755287347176e-05 0.0016810442058362005 0 -7.7964154699000816e-05 0.0015865011480902702 0 -2.4297755287347176e-05 0.0016810442058362005 0 -0.00018788380223254357 0.001758661786701739 0 -2.4297755287347176e-05 0.0016810442058362005 0 -4.6465738054489381e-05 0.0017885313701151971 0 -0.00018788380223254357 0.001758661786701739 0 -2.4297755287347176e-05 0.0016810442058362005 0 -4.6465738054489381e-05 0.0017885313701151971 0 5.5375671634394202e-05 0.0017628781406939938 0 -7.7031787817099197e-05 0.0018587422357680414 0 -6.7665934739731063e-05 0.0018599560936599594 0 -4.6465738054489381e-05 0.0017885313701151971 0 -7.7411622862946504e-05 0.0018565483762392569 0 2.4330971283644312e-05 0.0018609076606077761 0 -5.7082796805745943e-05 0.0018050921479993989 0 -9.8783200430072895e-05 0.0018459585235097277 0 -4.6465738054489381e-05 0.0017885313701151971 0 -7.7411622862946504e-05 0.0018565483762392569 0 -7.7986407758949322e-05 0.0018609593373987011 0 0.00015244960557400211 0.0018615119660156155 0 2.4330971283644312e-05 0.0018609076606077761 0 5.5375671634394202e-05 0.0017628781406939938 0 -3.3094483999640935e-05 0.0015608393750290845 0 -6.7665934739731063e-05 0.0018599560936599594 0 -4.6465738054489381e-05 0.0017885313701151971 0 2.4330971283644312e-05 0.0018609076606077761 0 5.5375671634394202e-05 0.0017628781406939938 0 0.00014536606189078941 0.003196751038351338 0 0.00015388336471193779 0.0031528656994145904 0 0.00020195005973641924 0.0031240074410999372 0 -7.218217022828822e-05 0.0022809246594397096 0 -6.640091300849516e-06 0.002494700686610275 0 0.00015388336471193779 0.0031528656994145904 0 0.00020195005973641924 0.0031240074410999372 0 0.00015397828322645017 0.0031150271997824565 0 0.00012758895252374327 0.0031524565198869396 0 0.0001197740173753791 0.0031173016948234226 0 0.00010273766327053973 0.0031501211702108355 0 0.00015388336471193779 0.0031528656994145904 0 0.00012758895252374327 0.0031524565198869396 0 0.00015397828322645017 0.0031150271997824565 0 0.00015388336471193779 0.0031528656994145904 0 0.00012758895252374327 0.0031524565198869396 0 0.00013651460343530025 0.0031737625634731996 0 0.00012758895252374327 0.0031524565198869396 0 0.00012101297959011004 0.0031771004935025916 0 0.00010909544071668458 0.0031696486599664779 0 0.00012758895252374327 0.0031524565198869396 0 0.00012101297959011004 0.0031771004935025916 0 0.00013651460343530025 0.0031737625634731996 0 0.00013156029158779175 0.0031850583967484359 0 0.00012101297959011004 0.0031771004935025916 0 0.00013651460343530025 0.0031737625634731996 0 0.00014536606189078941 0.003196751038351338 0 0.00015388336471193779 0.0031528656994145904 0 0.00013651460343530025 0.0031737625634731996 0 -7.218217022828822e-05 0.0022809246594397096 0 -9.8783200430072895e-05 0.0018459585235097277 0 -4.6465738054489381e-05 0.0017885313701151971 0 -0.00016723169474597646 0.0018660787114672974 0 -0.00018788380223254357 0.001758661786701739 0 -0.00029397327835127595 0.0019431663196790873 0 -0.00016723169474597646 0.0018660787114672974 0 -0.00018788380223254357 0.001758661786701739 0 0.00010094085028428842 0.0022979457454807579 0 -6.640091300849516e-06 0.002494700686610275 0 0.00020195005973641924 0.0031240074410999372 0 0.00018565776436043095 0.0030661271685132612 0 0.00015397828322645017 0.0031150271997824565 0 0.00027018619430233302 0.0030261603195744051 0 0.00020195005973641924 0.0031240074410999372 0 0.00018565776436043095 0.0030661271685132612 0 0.00018565776436043095 0.0030661271685132612 0 0.00015397828322645017 0.0031150271997824565 0 0.00012675053687496741 0.0030679311706188895 0 0.00012758895252374327 0.0031524565198869396 0 0.00015397828322645017 0.0031150271997824565 0 0.0001197740173753791 0.0031173016948234226 0 0.00015397828322645017 0.0031150271997824565 0 0.0001197740173753791 0.0031173016948234226 0 0.00012675053687496741 0.0030679311706188895 0 0.00018565776436043095 0.0030661271685132612 0 0.00012675053687496741 0.0030679311706188895 0 0.00018169953698522054 0.0029917766328240664 0 0.00012675053687496741 0.0030679311706188895 0 0.00018169953698522054 0.0029917766328240664 0 0.00010187560498904257 0.0030008600382964656 0 0.00027018619430233302 0.0030261603195744051 0 0.00018565776436043095 0.0030661271685132612 0 0.00018169953698522054 0.0029917766328240664 0 0.00027245612042123014 0.0029351582992848606 0 0.00027018619430233302 0.0030261603195744051 0 0.00018169953698522054 0.0029917766328240664 0 0.00027245612042123014 0.0029351582992848606 0 0.00018169953698522054 0.0029917766328240664 0 0.00021103666259388677 0.0029137476352202193 0 0.00027245612042123014 0.0029351582992848606 0 0.00021103666259388677 0.0029137476352202193 0 0.00027693939533287269 0.0028637366755964507 0 0.00018169953698522054 0.0029917766328240664 0 0.00021103666259388677 0.0029137476352202193 0 9.1866958335870707e-05 0.0029213437626012255 0 0.00018169953698522054 0.0029917766328240664 0 9.1866958335870707e-05 0.0029213437626012255 0 0.00010187560498904257 0.0030008600382964656 0 0.00021103666259388677 0.0029137476352202193 0 9.1866958335870707e-05 0.0029213437626012255 0 0.00020400070274678806 0.0028369893279771921 0 9.1866958335870707e-05 0.0029213437626012255 0 0.00015119287593068928 0.0027808440033003177 0 0.00020400070274678806 0.0028369893279771921 0 9.1866958335870707e-05 0.0029213437626012255 0 0.00015119287593068928 0.0027808440033003177 0 5.3946879134243087e-05 0.0027609830740459554 0 0.00015119287593068928 0.0027808440033003177 0 0.00012828850350975462 0.0026918244922639481 0 5.3946879134243087e-05 0.0027609830740459554 0 0.00015119287593068928 0.0027808440033003177 0 0.00012828850350975462 0.0026918244922639481 0 0.00018913907967051249 0.002718837612288868 0 0.00021155343388972077 0.0027658789814619237 0 0.00027184746986118617 0.0027831280518313215 0 0.00024207013394139594 0.0027192884981613961 0 0.00015119287593068928 0.0027808440033003177 0 0.00021155343388972077 0.0027658789814619237 0 0.00018913907967051249 0.002718837612288868 0 0.00021155343388972077 0.0027658789814619237 0 0.00018913907967051249 0.002718837612288868 0 0.00024207013394139594 0.0027192884981613961 0 0.00015119287593068928 0.0027808440033003177 0 0.00021155343388972077 0.0027658789814619237 0 0.00020400070274678806 0.0028369893279771921 0 0.00021155343388972077 0.0027658789814619237 0 0.00020400070274678806 0.0028369893279771921 0 0.00027184746986118617 0.0027831280518313215 0 0.00020400070274678806 0.0028369893279771921 0 0.00027693939533287269 0.0028637366755964507 0 0.00027184746986118617 0.0027831280518313215 0 0.00021103666259388677 0.0029137476352202193 0 0.00020400070274678806 0.0028369893279771921 0 0.00027693939533287269 0.0028637366755964507 0 0.00027245612042123014 0.0029351582992848606 0 0.00027693939533287269 0.0028637366755964507 0 0.00030623794688369878 0.0028908018988079332 0 0.00027693939533287269 0.0028637366755964507 0 0.00030623794688369878 0.0028908018988079332 0 0.00033254842539672457 0.0028534924091034447 0 0.00034331977054187469 0.0029109251027246057 0 0.00030623794688369878 0.0028908018988079332 0 0.00033254842539672457 0.0028534924091034447 0 0.00027693939533287269 0.0028637366755964507 0 0.00033254842539672457 0.0028534924091034447 0 0.00032461632600411098 0.0028091252435782409 0 0.00027693939533287269 0.0028637366755964507 0 0.00027184746986118617 0.0027831280518313215 0 0.00032461632600411098 0.0028091252435782409 0 0.00018860420224904185 0.0021808481611860133 0 0.00023253074415466253 0.0021841297306389043 0 4.9923126866054449e-05 0.0014554150882413182 0 4.3768423194516572e-05 0.0014934388915133724 0 2.4681837378848052e-05 0.0014626711881915845 0 0.00033254842539672457 0.0028534924091034447 0 0.00041266099784637619 0.0027874748207703335 0 0.00032461632600411098 0.0028091252435782409 0 0.00034331977054187469 0.0029109251027246057 0 0.00033254842539672457 0.0028534924091034447 0 0.00041266099784637619 0.0027874748207703335 0 4.9923126866054449e-05 0.0014554150882413182 0 3.9547465774656419e-05 0.0014552621613623201 0 4.3768423194516572e-05 0.0014934388915133724 0 0.00041266099784637619 0.0027874748207703335 0 0.00032461632600411098 0.0028091252435782409 0 0.0003317818150221244 0.0027492660516666633 0 0.00041266099784637619 0.0027874748207703335 0 0.00037489038745780527 0.0027036576444820319 0 0.00048107303999544483 0.0026644115835675135 0 0.00041266099784637619 0.0027874748207703335 0 0.0003317818150221244 0.0027492660516666633 0 0.00037489038745780527 0.0027036576444820319 0 0.00027184746986118617 0.0027831280518313215 0 0.00032461632600411098 0.0028091252435782409 0 0.0003317818150221244 0.0027492660516666633 0 0.00027184746986118617 0.0027831280518313215 0 0.0003317818150221244 0.0027492660516666633 0 0.00029015355301091855 0.0027246647952395642 0 0.00027184746986118617 0.0027831280518313215 0 0.00029015355301091855 0.0027246647952395642 0 0.00024207013394139594 0.0027192884981613961 0 0.00029015355301091855 0.0027246647952395642 0 0.00026881400799866069 0.0026822499175003164 0 0.00031772191655051536 0.0026810511357232948 0 0.00029015355301091855 0.0027246647952395642 0 0.00026881400799866069 0.0026822499175003164 0 0.00024207013394139594 0.0027192884981613961 0 0.0003317818150221244 0.0027492660516666633 0 0.00029015355301091855 0.0027246647952395642 0 0.00031772191655051536 0.0026810511357232948 0 0.00031772191655051536 0.0026810511357232948 0 0.00028016521609812146 0.0026386992245635513 0 0.00031955107997636402 0.0026170891482152183 0 0.00031772191655051536 0.0026810511357232948 0 0.00035125144946143732 0.0026514238317945174 0 0.00031955107997636402 0.0026170891482152183 0 0.00026881400799866069 0.0026822499175003164 0 0.00031772191655051536 0.0026810511357232948 0 0.00028016521609812146 0.0026386992245635513 0 0.00026881400799866069 0.0026822499175003164 0 0.00028016521609812146 0.0026386992245635513 0 0.00021367943437084394 0.0026547645035413102 0 0.00037489038745780527 0.0027036576444820319 0 0.00039399366278757133 0.0026470339850860249 0 0.00048107303999544483 0.0026644115835675135 0 0.0003317818150221244 0.0027492660516666633 0 0.00031772191655051536 0.0026810511357232948 0 0.00037489038745780527 0.0027036576444820319 0 0.00031772191655051536 0.0026810511357232948 0 0.00037489038745780527 0.0027036576444820319 0 0.00035125144946143732 0.0026514238317945174 0 0.00037489038745780527 0.0027036576444820319 0 0.00035125144946143732 0.0026514238317945174 0 0.00039399366278757133 0.0026470339850860249 0 0.00035125144946143732 0.0026514238317945174 0 0.00039399366278757133 0.0026470339850860249 0 0.00035977446355965116 0.0026068241517164426 0 0.00039399366278757133 0.0026470339850860249 0 0.00035977446355965116 0.0026068241517164426 0 0.00038320671695835253 0.0025425853591015588 0 0.00039399366278757133 0.0026470339850860249 0 0.00038320671695835253 0.0025425853591015588 0 0.00048107303999544483 0.0026644115835675135 0 0.00035125144946143732 0.0026514238317945174 0 0.00035977446355965116 0.0026068241517164426 0 0.00031955107997636402 0.0026170891482152183 0 0.00035977446355965116 0.0026068241517164426 0 0.00033720891376212784 0.0025926108979173125 0 0.00031955107997636402 0.0026170891482152183 0 0.00035977446355965116 0.0026068241517164426 0 0.00038320671695835253 0.0025425853591015588 0 0.00035084314324932634 0.0025642590555879897 0 0.00033720891376212784 0.0025926108979173125 0 0.00035084314324932634 0.0025642590555879897 0 0.00031489015285321063 0.0025823698487533213 0 0.00035977446355965116 0.0026068241517164426 0 0.00033720891376212784 0.0025926108979173125 0 0.00035084314324932634 0.0025642590555879897 0 7.8598269917700911e-05 0.0014609326214351584 0 2.5076520336141326e-05 0.0014430063578464477 0 5.0311208914926672e-05 0.0014728200676553318 0 0.00028016521609812146 0.0026386992245635513 0 0.00031955107997636402 0.0026170891482152183 0 0.0002682113698545487 0.0025945732800318911 0 0.00028016521609812146 0.0026386992245635513 0 0.0002682113698545487 0.0025945732800318911 0 0.00021367943437084394 0.0026547645035413102 0 0.00031955107997636402 0.0026170891482152183 0 0.00031489015285321063 0.0025823698487533213 0 0.0002682113698545487 0.0025945732800318911 0 0.00033720891376212784 0.0025926108979173125 0 0.00031955107997636402 0.0026170891482152183 0 0.00031489015285321063 0.0025823698487533213 0 0.00035084314324932634 0.0025642590555879897 0 0.00029374136606944671 0.0025537083055179057 0 0.00031489015285321063 0.0025823698487533213 0 0.00029374136606944671 0.0025537083055179057 0 0.00031489015285321063 0.0025823698487533213 0 0.0002682113698545487 0.0025945732800318911 0 0.00029374136606944671 0.0025537083055179057 0 0.0002682113698545487 0.0025945732800318911 0 0.0002444854667560384 0.002545405602289661 0 0.0002682113698545487 0.0025945732800318911 0 0.00020410477543488054 0.0025895618372587669 0 0.0002444854667560384 0.002545405602289661 0 0.0002682113698545487 0.0025945732800318911 0 0.00020410477543488054 0.0025895618372587669 0 0.00021367943437084394 0.0026547645035413102 0 0.00020410477543488054 0.0025895618372587669 0 0.00013145282436514847 0.0026132352999270483 0 0.00021367943437084394 0.0026547645035413102 0 0.00013145282436514847 0.0026132352999270483 0 0.00012828850350975462 0.0026918244922639481 0 3.1186887508121434e-05 0.0026220111131195008 0 0.00013145282436514847 0.0026132352999270483 0 0.00016235972569471712 0.0025414904730530481 0 8.1283661137665503e-05 0.0025580163833721701 0 0.00020410477543488054 0.0025895618372587669 0 0.00013145282436514847 0.0026132352999270483 0 0.00016235972569471712 0.0025414904730530481 0 0.00013145282436514847 0.0026132352999270483 0 0.00012828850350975462 0.0026918244922639481 0 0.00021367943437084394 0.0026547645035413102 0 0.00012828850350975462 0.0026918244922639481 0 0.00018913907967051249 0.002718837612288868 0 0.00021367943437084394 0.0026547645035413102 0 0.00026881400799866069 0.0026822499175003164 0 0.00024207013394139594 0.0027192884981613961 0 0.00021367943437084394 0.0026547645035413102 0 0.00018913907967051249 0.002718837612288868 0 0.00024207013394139594 0.0027192884981613961 0 0.00021367943437084394 0.0026547645035413102 0 -0.0001023093620711041 0.0013859134424253805 0 -9.1373894469493788e-05 0.0013845942677792227 0 -9.8775916399779603e-05 0.001393106308921554 0 -9.1373894469493788e-05 0.0013845942677792227 0 -7.9137023808922591e-05 0.0013984606647724888 0 -9.8775916399779603e-05 0.001393106308921554 0 -0.00010454216300512554 0.0013792867083439943 0 -0.0001023093620711041 0.0013859134424253805 0 -9.1373894469493788e-05 0.0013845942677792227 0 -0.00010454216300512554 0.0013792867083439943 0 -9.1373894469493788e-05 0.0013845942677792227 0 -8.5924976151551503e-05 0.001375439801415338 0 -0.00010454216300512554 0.0013792867083439943 0 -0.00010589251116626004 0.0013808646048414223 0 -8.5924976151551503e-05 0.001375439801415338 0 -5.5504642968527205e-05 0.0014073856101395089 0 -7.6239423881865819e-05 0.001449851808304086 0 -2.9639888264911653e-05 0.001451719955829696 0 -7.0263942840821314e-05 0.0014256380170961837 0 -8.4610710250252984e-05 0.0013844331586941633 0 -9.1373894469493788e-05 0.0013845942677792227 0 -8.5924976151551503e-05 0.001375439801415338 0 -5.8088166516206379e-05 0.0013845458507451751 0 -9.1373894469493788e-05 0.0013845942677792227 0 -5.8088166516206379e-05 0.0013845458507451751 0 -7.9137023808922591e-05 0.0013984606647724888 0 -3.6299022942053238e-05 0.0015070949331242799 0 1.091515700236516e-06 0.0014845036063471256 0 8.1394320082953642e-06 0.0015626851919594243 0 -7.6239423881865819e-05 0.001449851808304086 0 -3.6299022942053238e-05 0.0015070949331242799 0 -2.9639888264911653e-05 0.001451719955829696 0 -3.6299022942053238e-05 0.0015070949331242799 0 -2.9639888264911653e-05 0.001451719955829696 0 1.091515700236516e-06 0.0014845036063471256 0 1.091515700236516e-06 0.0014845036063471256 0 1.9774244547120802e-06 0.0014472545929666708 0 2.4681837378848052e-05 0.0014626711881915845 0 -2.9639888264911653e-05 0.001451719955829696 0 1.091515700236516e-06 0.0014845036063471256 0 1.9774244547120802e-06 0.0014472545929666708 0 1.4163833318567645e-05 0.0014331130572787243 0 1.9774244547120802e-06 0.0014472545929666708 0 2.4681837378848052e-05 0.0014626711881915845 0 4.3768423194516572e-05 0.0014934388915133724 0 1.091515700236516e-06 0.0014845036063471256 0 2.4681837378848052e-05 0.0014626711881915845 0 4.3768423194516572e-05 0.0014934388915133724 0 1.091515700236516e-06 0.0014845036063471256 0 8.1394320082953642e-06 0.0015626851919594243 0 0.00023253074415466253 0.0021841297306389043 0 0.00010725430458775661 0.0018449970595606283 0 0.00026328505752502997 0.0020457336981920923 0 0.00010725430458775661 0.0018449970595606283 0 7.8598269917700911e-05 0.0014609326214351584 0 9.5756119684002041e-06 0.0013956710308100561 0 2.5076520336141326e-05 0.0014430063578464477 0 2.5076520336141326e-05 0.0014430063578464477 0 1.7236538625965531e-05 0.0014733203926782428 0 5.0311208914926672e-05 0.0014728200676553318 0 2.5076520336141326e-05 0.0014430063578464477 0 -1.6763276602063559e-05 0.0014389306071043852 0 1.7236538625965531e-05 0.0014733203926782428 0 9.5756119684002041e-06 0.0013956710308100561 0 2.5076520336141326e-05 0.0014430063578464477 0 -1.6763276602063559e-05 0.0014389306071043852 0 0.00010725430458775661 0.0018449970595606283 0 6.7595218256103924e-06 0.0013939205329011244 0 -3.3742640404446713e-05 0.0014307040396084167 0 -5.3695935596952153e-05 0.0014071493657503386 0 -6.7962578812820967e-05 0.0014258977966697549 0 -3.3742640404446713e-05 0.0014307040396084167 0 -6.7962578812820967e-05 0.0014258977966697549 0 -4.189892532858561e-05 0.0014702385156032181 0 6.7595218256103924e-06 0.0013939205329011244 0 -4.9700525297266997e-05 0.0014811555402047709 0 -2.5926414487436908e-05 0.0014087773689475727 0 -3.3742640404446713e-05 0.0014307040396084167 0 -5.3695935596952153e-05 0.0014071493657503386 0 -8.4610710250252984e-05 0.0013844331586941633 0 0.00010725430458775661 0.0018449970595606283 0 -5.8088166516206379e-05 0.0013845458507451751 0 -5.3695935596952153e-05 0.0014071493657503386 0 -7.9137023808922591e-05 0.0013984606647724888 0 -5.8088166516206379e-05 0.0013845458507451751 0 -2.5926414487436908e-05 0.0014087773689475727 0 -5.3695935596952153e-05 0.0014071493657503386 0 -5.3695935596952153e-05 0.0014071493657503386 0 -7.9137023808922591e-05 0.0013984606647724888 0 -6.7962578812820967e-05 0.0014258977966697549 0 -7.9137023808922591e-05 0.0013984606647724888 0 -6.7962578812820967e-05 0.0014258977966697549 0 -9.3772183721093754e-05 0.0014057088594404332 0 -6.7962578812820967e-05 0.0014258977966697549 0 -9.3772183721093754e-05 0.0014057088594404332 0 -8.7094446234654239e-05 0.0014299833584577168 0 -0.00010272805445107858 0.0014114032240656912 0 -9.3772183721093754e-05 0.0014057088594404332 0 -8.7094446234654239e-05 0.0014299833584577168 0 -0.00010486299149753339 0.0013910782712336707 0 -9.3772183721093754e-05 0.0014057088594404332 0 -9.8775916399779603e-05 0.001393106308921554 0 -7.9137023808922591e-05 0.0013984606647724888 0 -9.3772183721093754e-05 0.0014057088594404332 0 -9.8775916399779603e-05 0.001393106308921554 0 -9.6043692819429189e-05 0.001312604490326174 0 -6.334388277099387e-05 0.0013964713087480677 0 -0.00011611410535215081 0.0014277999024089924 0 -9.2288584552782801e-05 0.0014468915784151698 0 -8.045650649515081e-05 0.001508115609470422 0 -6.3425491101055462e-05 0.0012022180474097457 0 -8.7288217352510646e-05 0.001178849930940208 0 -2.9333745253035877e-05 0.0012756682443953082 0 -0.00011611410535215081 0.0014277999024089924 0 -0.00010272805445107858 0.0014114032240656912 0 -9.2288584552782801e-05 0.0014468915784151698 0 -9.2288584552782801e-05 0.0014468915784151698 0 -6.9441638831014456e-05 0.0014669259203719681 0 -8.045650649515081e-05 0.001508115609470422 0 -0.00010272805445107858 0.0014114032240656912 0 -8.7094446234654239e-05 0.0014299833584577168 0 -9.2288584552782801e-05 0.0014468915784151698 0 -8.7094446234654239e-05 0.0014299833584577168 0 -9.2288584552782801e-05 0.0014468915784151698 0 -6.9441638831014456e-05 0.0014669259203719681 0 -6.7962578812820967e-05 0.0014258977966697549 0 -6.9441638831014456e-05 0.0014669259203719681 0 -4.189892532858561e-05 0.0014702385156032181 0 -6.7962578812820967e-05 0.0014258977966697549 0 -8.7094446234654239e-05 0.0014299833584577168 0 -6.9441638831014456e-05 0.0014669259203719681 0 -6.9441638831014456e-05 0.0014669259203719681 0 -8.045650649515081e-05 0.001508115609470422 0 -3.1534689686393702e-05 0.0015210393407525725 0 -3.1534689686393702e-05 0.0015210393407525725 0 1.5489216667363704e-06 0.0016153799604887891 0 -1.8692324131467146e-05 0.0015555857319387229 0 -8.045650649515081e-05 0.001508115609470422 0 -3.1534689686393702e-05 0.0015210393407525725 0 -1.8692324131467146e-05 0.0015555857319387229 0 -6.9441638831014456e-05 0.0014669259203719681 0 -3.1534689686393702e-05 0.0015210393407525725 0 -4.189892532858561e-05 0.0014702385156032181 0 -3.1534689686393702e-05 0.0015210393407525725 0 -1.1907704834783178e-05 0.001485269676700352 0 1.3395446286023863e-05 0.0015253027666860459 0 -1.6763276602063559e-05 0.0014389306071043852 0 -4.189892532858561e-05 0.0014702385156032181 0 -1.1907704834783178e-05 0.001485269676700352 0 -3.1534689686393702e-05 0.0015210393407525725 0 -4.189892532858561e-05 0.0014702385156032181 0 -1.1907704834783178e-05 0.001485269676700352 0 -1.1907704834783178e-05 0.001485269676700352 0 1.7236538625965531e-05 0.0014733203926782428 0 1.3395446286023863e-05 0.0015253027666860459 0 -1.6763276602063559e-05 0.0014389306071043852 0 -1.1907704834783178e-05 0.001485269676700352 0 1.7236538625965531e-05 0.0014733203926782428 0 1.7236538625965531e-05 0.0014733203926782428 0 5.0311208914926672e-05 0.0014728200676553318 0 5.4180509637592002e-05 0.0015063048743919542 0 1.3395446286023863e-05 0.0015253027666860459 0 5.4180509637592002e-05 0.0015063048743919542 0 6.4168316269974958e-05 0.0015552687451537127 0 1.7236538625965531e-05 0.0014733203926782428 0 1.3395446286023863e-05 0.0015253027666860459 0 5.4180509637592002e-05 0.0015063048743919542 0 -3.1534689686393702e-05 0.0015210393407525725 0 1.3395446286023863e-05 0.0015253027666860459 0 1.5489216667363704e-06 0.0016153799604887891 0 1.3395446286023863e-05 0.0015253027666860459 0 1.5489216667363704e-06 0.0016153799604887891 0 6.4168316269974958e-05 0.0015552687451537127 0 1.5489216667363704e-06 0.0016153799604887891 0 -6.9679926982429164e-07 0.0016769133173857398 0 -1.8692324131467146e-05 0.0015555857319387229 0 1.5489216667363704e-06 0.0016153799604887891 0 -6.9679926982429164e-07 0.0016769133173857398 0 2.3147163784346115e-05 0.0017936242427924463 0 -6.9679926982429164e-07 0.0016769133173857398 0 -3.4728106336224361e-08 0.0017251693240865715 0 2.3147163784346115e-05 0.0017936242427924463 0 -3.4728106336224361e-08 0.0017251693240865715 0 -1.8692324131467146e-05 0.0015555857319387229 0 -4.6849503611137272e-08 0.0014446831778244205 0 -6.9679926982429164e-07 0.0016769133173857398 0 -3.4728106336224361e-08 0.0017251693240865715 0 -1.8692324131467146e-05 0.0015555857319387229 0 -2.9333745253035877e-05 0.0012756682443953082 0 -1.8692324131467146e-05 0.0015555857319387229 0 -2.9795579170883902e-05 0.0013314148376839016 0 -6.334388277099387e-05 0.0013964713087480677 0 -2.3029061483332554e-05 0.0015263119431177749 0 -1.8692324131467146e-05 0.0015555857319387229 0 -4.6849503611137272e-08 0.0014446831778244205 0 -2.9795579170883902e-05 0.0013314148376839016 0 -8.379346521116953e-08 0.0011641710226847465 0 -4.6849503611137272e-08 0.0014446831778244205 0 -2.9795579170883902e-05 0.0013314148376839016 0 -6.3425491101055462e-05 0.0012022180474097457 0 -2.9333745253035877e-05 0.0012756682443953082 0 -2.9795579170883902e-05 0.0013314148376839016 0 9.7963595820661753e-05 0.0022898052680154846 0 0.0002259336789880636 0.0023388389457167694 0 6.8481519367382757e-05 0.0021523769223578478 0 0.00020007182058940688 0.0019212462983289817 0 0.00010792699386036496 0.0020551714158785679 0 0.00020148295572416022 0.0024319241476124858 0 0.00015463005661984705 0.002478931641274008 0 0.00020687106897002421 0.0024997612458768966 0 0.00020148295572416022 0.0024319241476124858 0 0.00020687106897002421 0.0024997612458768966 0 0.00027554862678907526 0.0025020750634881257 0 0.0001396551163418632 0.0023448815055836601 0 0.00025377219060592106 0.0024683348428203534 0 0.00020148295572416022 0.0024319241476124858 0 0.00011862136061132902 0.0024260641026034899 0 0.00015463005661984705 0.002478931641274008 0 0.00011862136061132902 0.0024260641026034899 0 0.00015463005661984705 0.002478931641274008 0 9.2668924732865776e-05 0.0024974990604988098 0 0.00015463005661984705 0.002478931641274008 0 9.2668924732865776e-05 0.0024974990604988098 0 0.00016235972569471712 0.0025414904730530481 0 9.2668924732865776e-05 0.0024974990604988098 0 0.00016235972569471712 0.0025414904730530481 0 8.1283661137665503e-05 0.0025580163833721701 0 0.00016235972569471712 0.0025414904730530481 0 0.00020687106897002421 0.0024997612458768966 0 0.0002444854667560384 0.002545405602289661 0 0.00020410477543488054 0.0025895618372587669 0 0.00016235972569471712 0.0025414904730530481 0 0.0002444854667560384 0.002545405602289661 0 0.00015463005661984705 0.002478931641274008 0 0.00016235972569471712 0.0025414904730530481 0 0.00020687106897002421 0.0024997612458768966 0 0.00020687106897002421 0.0024997612458768966 0 0.0002444854667560384 0.002545405602289661 0 0.00027554862678907526 0.0025020750634881257 0 0.00010217550491786172 0.0015362612058442543 0 9.0592121277347217e-05 0.0015071676523782153 0 0.0001793522992772743 0.0015631626859870791 0 0.00029374136606944671 0.0025537083055179057 0 0.0002444854667560384 0.002545405602289661 0 0.00027554862678907526 0.0025020750634881257 0 0.00038320671695835253 0.0025425853591015588 0 0.00022178417771652589 0.0024249442612827203 0 0.0002259336789880636 0.0023388389457167694 0 0.00026328505752502997 0.0020457336981920923 0 0.00020007182058940688 0.0019212462983289817 0 0.00035084314324932634 0.0025642590555879897 0 0.00029374136606944671 0.0025537083055179057 0 0.00027554862678907526 0.0025020750634881257 0 0.00034107479680441858 0.0025555112686979865 0 0.00025377219060592106 0.0024683348428203534 0 0.00038320671695835253 0.0025425853591015588 0 0.00035084314324932634 0.0025642590555879897 0 0.00022178417771652589 0.0024249442612827203 0 7.8598269917700911e-05 0.0014609326214351584 0 9.0592121277347217e-05 0.0015071676523782153 0 0.0001793522992772743 0.0015631626859870791 0 5.0311208914926672e-05 0.0014728200676553318 0 9.0592121277347217e-05 0.0015071676523782153 0 5.4180509637592002e-05 0.0015063048743919542 0 7.8598269917700911e-05 0.0014609326214351584 0 5.0311208914926672e-05 0.0014728200676553318 0 9.0592121277347217e-05 0.0015071676523782153 0 0.00010217550491786172 0.0015362612058442543 0 5.4180509637592002e-05 0.0015063048743919542 0 6.4168316269974958e-05 0.0015552687451537127 0 0.00010217550491786172 0.0015362612058442543 0 9.0592121277347217e-05 0.0015071676523782153 0 5.4180509637592002e-05 0.0015063048743919542 0 1.5489216667363704e-06 0.0016153799604887891 0 6.4168316269974958e-05 0.0015552687451537127 0 0.0001003743911980704 0.0016045770773183573 0 6.4168316269974958e-05 0.0015552687451537127 0 0.0001003743911980704 0.0016045770773183573 0 0.00013080559468764676 0.001567275620011722 0 0.00010217550491786172 0.0015362612058442543 0 6.4168316269974958e-05 0.0015552687451537127 0 0.00013080559468764676 0.001567275620011722 0 0.0001003743911980704 0.0016045770773183573 0 0.00013080559468764676 0.001567275620011722 0 0.00017071263752989503 0.0016949635768946634 0 0.0001793522992772743 0.0015631626859870791 0 0.00013080559468764676 0.001567275620011722 0 0.00017071263752989503 0.0016949635768946634 0 9.7963595820661753e-05 0.0022898052680154846 0 0.00022178417771652589 0.0024249442612827203 0 0.0002259336789880636 0.0023388389457167694 0 0.00010217550491786172 0.0015362612058442543 0 0.0001793522992772743 0.0015631626859870791 0 0.00013080559468764676 0.001567275620011722 0 0.00010678309104617057 0.00157995487697996 0 8.619296073947359e-05 0.0019436880267314728 0 8.619296073947359e-05 0.0019436880267314728 0 4.3219481440201393e-05 0.0018093337299313701 0 0.0001003743911980704 0.0016045770773183573 0 0.00024456491770936126 0.0017767324322832745 0 2.3147163784346115e-05 0.0017936242427924463 0 1.5489216667363704e-06 0.0016153799604887891 0 0.0001003743911980704 0.0016045770773183573 0 2.3147163784346115e-05 0.0017936242427924463 0 3.6584310184497148e-05 0.0019508714348508871 0 2.3147163784346115e-05 0.0017936242427924463 0 3.1176521775809902e-08 0.0020057329645792425 0 -3.4728106336224361e-08 0.0017251693240865715 0 2.3147163784346115e-05 0.0017936242427924463 0 3.1176521775809902e-08 0.0020057329645792425 0 3.6584310184497148e-05 0.0019508714348508871 0 3.1176521775809902e-08 0.0020057329645792425 0 1.4299053734542094e-07 0.0022860139523951592 0 8.619296073947359e-05 0.0019436880267314728 0 2.616084919059369e-09 0.002286392060242426 0 -1.0780326265830464e-05 0.0022896333937475095 0 -2.4454760102861569e-08 0.0022867016808837881 0 -6.0072888804298671e-06 0.0022931813805681981 0 -2.4454760102861569e-08 0.0022867016808837881 0 -6.0072888804298671e-06 0.0022931813805681981 0 2.761172917748991e-08 0.0023496289469091898 0 -6.0072888804298671e-06 0.0022931813805681981 0 1.2104394449180807e-05 0.0022855890742794148 0 2.761172917748991e-08 0.0023496289469091898 0 -6.0072888804298671e-06 0.0022931813805681981 0 -5.0022890344978298e-07 0.0022811945082574668 0 1.2104394449180807e-05 0.0022855890742794148 0 0.0001793522992772743 0.0015631626859870791 0 0.00017071263752989503 0.0016949635768946634 0 0.00028132721806330374 0.0016887468941600686 0 8.619296073947359e-05 0.0019436880267314728 0 0.00010792699386036496 0.0020551714158785679 0 -1.0780326265830464e-05 0.0022896333937475095 0 -6.0072888804298671e-06 0.0022931813805681981 0 -5.0022890344978298e-07 0.0022811945082574668 0 9.7963595820661753e-05 0.0022898052680154846 0 6.8481519367382757e-05 0.0021523769223578478 0 -2.4808237150279951e-05 0.0021614781921228789 0 0.00010792699386036496 0.0020551714158785679 0 9.9850256153502924e-05 0.0021906537268548145 0 0.00020148295572416022 0.0024319241476124858 0 0.00011862136061132902 0.0024260641026034899 0 0.00013056686638215432 0.0023624324579042005 0 0.00011862136061132902 0.0024260641026034899 0 0.00013056686638215432 0.0023624324579042005 0 9.5954900765248493e-05 0.0023660909803558182 0 0.0001396551163418632 0.0023448815055836601 0 6.4780297632844626e-05 0.0023819861537412853 0 -9.0135007676645127e-06 0.0022595824112744104 0 3.8361989693688426e-05 0.0022564080970084691 0 1.2104394449180807e-05 0.0022855890742794148 0 3.8361989693688426e-05 0.0022564080970084691 0 5.6457014240458197e-05 0.0022754159516591467 0 1.2104394449180807e-05 0.0022855890742794148 0 0.00010792699386036496 0.0020551714158785679 0 6.4780297632844626e-05 0.0023819861537412853 0 6.4780297632844626e-05 0.0023819861537412853 0 0.00012555659980644079 0.0025426103729821762 0 6.4780297632844626e-05 0.0023819861537412853 0 0.00028273254460525586 0.0027005984043483554 0 0.00028273254460525586 0.0027005984043483554 0 0.00012555659980644079 0.0025426103729821762 0 0.0001509567895052228 0.0025473549631376963 0 0.00019210591166544404 0.0025443506753967376 0 0.00017410771952148873 0.002571375235100769 0 5.5625676617990765e-05 0.0026445834473896213 0 1.612398188116751e-07 0.0023503454839349422 0 4.3813591727472443e-05 0.0026579667447361663 0 0.00012555659980644079 0.0025426103729821762 0 8.2011876780992671e-09 0.0023500310126527476 0 5.6457014240458197e-05 0.0022754159516591467 0 1.2104394449180807e-05 0.0022855890742794148 0 2.761172917748991e-08 0.0023496289469091898 0 9.2952570380699486e-05 0.0027718103012711148 0 4.3813591727472443e-05 0.0026579667447361663 0 7.8426664322846324e-05 0.0028464837349241137 0 1.612398188116751e-07 0.0023503454839349422 0 1.7391627858483084e-07 0.0026400735641588973 0 4.3813591727472443e-05 0.0026579667447361663 0 1.7391627858483084e-07 0.0026400735641588973 0 4.3813591727472443e-05 0.0026579667447361663 0 7.8426664322846324e-05 0.0028464837349241137 0 0.00012555659980644079 0.0025426103729821762 0 9.0047792444531829e-05 0.0026455132501606443 0 7.8426664322846324e-05 0.0028464837349241137 0 0.00015580150142167963 0.0030581272620457864 0 7.1202784862587268e-08 0.0029299641655221348 0 1.7391627858483084e-07 0.0026400735641588973 0 7.8426664322846324e-05 0.0028464837349241137 0 7.1202784862587268e-08 0.0029299641655221348 0 0.00028273254460525586 0.0027005984043483554 0 0.00021368910124792135 0.0030772169995984511 0 0.00078620631436300374 0.0029942445212120653 0 0.00015580150142167963 0.0030581272620457864 0 0.00058997487350166645 0.0033020944823360606 0 9.2952570380699486e-05 0.0027718103012711148 0 7.8426664322846324e-05 0.0028464837349241137 0 0.00015580150142167963 0.0030581272620457864 0 9.2952570380699486e-05 0.0027718103012711148 0 0.00011931382528599623 0.002729738184058382 0 4.3813591727472443e-05 0.0026579667447361663 0 0.00028273254460525586 0.0027005984043483554 0 0.00032355023718011884 0.0028515866994963694 0 0.00011862136061132902 0.0024260641026034899 0 9.5954900765248493e-05 0.0023660909803558182 0 5.2731942921315078e-05 0.0024313822805313769 0 9.2668924732865776e-05 0.0024974990604988098 0 5.2731942921315078e-05 0.0024313822805313769 0 8.5459186294179416e-06 0.0024974338793376082 0 0.00011862136061132902 0.0024260641026034899 0 9.2668924732865776e-05 0.0024974990604988098 0 5.2731942921315078e-05 0.0024313822805313769 0 0.00032355023718011884 0.0028515866994963694 0 0.00015747900185593926 0.0029517338185060106 0 0.00058997487350166645 0.0033020944823360606 0 0.00042373741763103277 0.0035054896099123629 0 0.00043344440203524017 0.0035485672207550248 0 0.00015580150142167963 0.0030581272620457864 0 0.00058997487350166645 0.0033020944823360606 0 0.00021793040471236366 0.0033592378088062869 0 0.00058997487350166645 0.0033020944823360606 0 0.00021793040471236366 0.0033592378088062869 0 0.00042373741763103277 0.0035054896099123629 0 0.00021793040471236366 0.0033592378088062869 0 0.00042373741763103277 0.0035054896099123629 0 0.00024128769020922535 0.0035804493361167684 0 0.00043135834585096588 0.0035390422727323637 0 0.00024128769020922535 0.0035804493361167684 0 0.00027760606228185216 0.0038485461062991132 0 0.00015747900185593926 0.0029517338185060106 0 0.00012984616048694047 0.003355081963979083 0 0.00019243109681236343 0.0030713988340906233 0 0.00015747900185593926 0.0029517338185060106 0 0.00042373741763103277 0.0035054896099123629 0 0.00043135834585096588 0.0035390422727323637 0 0.00024128769020922535 0.0035804493361167684 0 0.00015747900185593926 0.0029517338185060106 0 1.084260953812222e-05 0.0026373770086254105 0 9.2668924732865776e-05 0.0024974990604988098 0 8.5459186294179416e-06 0.0024974338793376082 0 8.1283661137665503e-05 0.0025580163833721701 0 8.5459186294179416e-06 0.0024974338793376082 0 8.1283661137665503e-05 0.0025580163833721701 0 3.1186887508121434e-05 0.0026220111131195008 0 0.00010953120875211284 0.0037610686509351593 0 0.00011003390362205775 0.0035389317832219308 0 9.7160639868971134e-06 0.0036861251325465434 0 0.00010953120875211284 0.0037610686509351593 0 0.00024128769020922535 0.0035804493361167684 0 0.00011003390362205775 0.0035389317832219308 0 0.00010953120875211284 0.0037610686509351593 0 0.00024128769020922535 0.0035804493361167684 0 0.00027760606228185216 0.0038485461062991132 0 0.00021793040471236366 0.0033592378088062869 0 0.00024128769020922535 0.0035804493361167684 0 0.00011003390362205775 0.0035389317832219308 0 0.00021793040471236366 0.0033592378088062869 0 0.00011003390362205775 0.0035389317832219308 0 6.663120845704765e-05 0.0032292544330588735 0 0.00011003390362205775 0.0035389317832219308 0 6.663120845704765e-05 0.0032292544330588735 0 3.6241704589737238e-06 0.0034250195219396404 0 6.663120845704765e-05 0.0032292544330588735 0 6.040954031880091e-06 0.0032065927772178069 0 3.6241704589737238e-06 0.0034250195219396404 0 0.00015580150142167963 0.0030581272620457864 0 6.663120845704765e-05 0.0032292544330588735 0 7.1202784862587268e-08 0.0029299641655221348 0 0.00015580150142167963 0.0030581272620457864 0 0.00021793040471236366 0.0033592378088062869 0 6.663120845704765e-05 0.0032292544330588735 0 7.1202784862587268e-08 0.0029299641655221348 0 6.040954031880091e-06 0.0032065927772178069 0 -2.9330830683158739e-08 0.0032198436522913598 0 6.663120845704765e-05 0.0032292544330588735 0 7.1202784862587268e-08 0.0029299641655221348 0 6.040954031880091e-06 0.0032065927772178069 0 6.040954031880091e-06 0.0032065927772178069 0 -2.9330830683158739e-08 0.0032198436522913598 0 -3.6136026494846093e-05 0.003406812061277457 0 -2.9330830683158739e-08 0.0032198436522913598 0 -3.6136026494846093e-05 0.003406812061277457 0 -1.8845731820450456e-07 0.0035098394022663199 0 -3.6136026494846093e-05 0.003406812061277457 0 -5.5502289526154236e-05 0.0035304868989669037 0 -6.8617595784287299e-05 0.0035933277488506533 0 -3.6136026494846093e-05 0.003406812061277457 0 3.6241704589737238e-06 0.0034250195219396404 0 -6.8617595784287299e-05 0.0035933277488506533 0 6.040954031880091e-06 0.0032065927772178069 0 -3.6136026494846093e-05 0.003406812061277457 0 3.6241704589737238e-06 0.0034250195219396404 0 -1.8845731820450456e-07 0.0035098394022663199 0 -4.4387302787642629e-05 0.0035965375704006966 0 1.358973514025064e-07 0.0037991243345441802 0 -1.8845731820450456e-07 0.0035098394022663199 0 -5.5502289526154236e-05 0.0035304868989669037 0 -4.4387302787642629e-05 0.0035965375704006966 0 -3.6136026494846093e-05 0.003406812061277457 0 -1.8845731820450456e-07 0.0035098394022663199 0 -5.5502289526154236e-05 0.0035304868989669037 0 -5.5502289526154236e-05 0.0035304868989669037 0 -4.4387302787642629e-05 0.0035965375704006966 0 -5.7673801647613852e-05 0.0035558103789910651 0 -9.9044324193737376e-05 0.0037029616737646802 0 -7.4815594419351775e-05 0.0037758492719199483 0 -4.4387302787642629e-05 0.0035965375704006966 0 -5.7673801647613852e-05 0.0035558103789910651 0 -1.3302494780371832e-05 0.0035667754197995548 0 -5.7673801647613852e-05 0.0035558103789910651 0 -1.3302494780371832e-05 0.0035667754197995548 0 8.3626912347435422e-06 0.0035258607935162111 0 -0.00016752510880159772 0.003861685972121289 0 -6.8617595784287299e-05 0.0035933277488506533 0 -7.7908612772711045e-05 0.0038639454653755004 0 -9.9044324193737376e-05 0.0037029616737646802 0 -5.1498607879548226e-05 0.0036144250201951096 0 -5.5502289526154236e-05 0.0035304868989669037 0 -5.7673801647613852e-05 0.0035558103789910651 0 -6.8617595784287299e-05 0.0035933277488506533 0 -0.00016752510880159772 0.003861685972121289 0 -0.0001443601470742899 0.0040398456760340502 0 -7.7908612772711045e-05 0.0038639454653755004 0 -0.0001443601470742899 0.0040398456760340502 0 -0.00016503025020078791 0.0041724136985965147 0 -0.00020146410321416534 0.0040720972055425632 0 -0.00016752510880159772 0.003861685972121289 0 -0.0001443601470742899 0.0040398456760340502 0 -0.00020146410321416534 0.0040720972055425632 0 0.00011003390362205775 0.0035389317832219308 0 3.6241704589737238e-06 0.0034250195219396404 0 9.7160639868971134e-06 0.0036861251325465434 0 3.6241704589737238e-06 0.0034250195219396404 0 -6.8617595784287299e-05 0.0035933277488506533 0 9.7160639868971134e-06 0.0036861251325465434 0 -6.8617595784287299e-05 0.0035933277488506533 0 -7.7908612772711045e-05 0.0038639454653755004 0 9.7160639868971134e-06 0.0036861251325465434 0 -7.7908612772711045e-05 0.0038639454653755004 0 9.7160639868971134e-06 0.0036861251325465434 0 9.802864422631035e-06 0.0039037705684432504 0 0.00010953120875211284 0.0037610686509351593 0 9.7160639868971134e-06 0.0036861251325465434 0 9.802864422631035e-06 0.0039037705684432504 0 9.802864422631035e-06 0.0039037705684432504 0 3.9710075705642831e-06 0.0040710780646214259 0 9.72586308929908e-05 0.0039927055384607136 0 0.00010953120875211284 0.0037610686509351593 0 9.802864422631035e-06 0.0039037705684432504 0 9.72586308929908e-05 0.0039927055384607136 0 -7.7908612772711045e-05 0.0038639454653755004 0 9.802864422631035e-06 0.0039037705684432504 0 -7.3304381577634752e-05 0.0040463626953201924 0 9.802864422631035e-06 0.0039037705684432504 0 3.9710075705642831e-06 0.0040710780646214259 0 -7.3304381577634752e-05 0.0040463626953201924 0 3.9710075705642831e-06 0.0040710780646214259 0 -6.739127676859397e-05 0.0041875212309661668 0 -1.5267189508843512e-05 0.0042205752904281822 0 3.9710075705642831e-06 0.0040710780646214259 0 6.6541684532493784e-05 0.0042576576177937144 0 -1.5267189508843512e-05 0.0042205752904281822 0 3.9710075705642831e-06 0.0040710780646214259 0 -7.3304381577634752e-05 0.0040463626953201924 0 -6.739127676859397e-05 0.0041875212309661668 0 3.9710075705642831e-06 0.0040710780646214259 0 9.72586308929908e-05 0.0039927055384607136 0 6.6541684532493784e-05 0.0042576576177937144 0 0.00010154295996679308 0.0040107422825592836 0 4.9207835014767493e-05 0.0041758797461642133 0 -0.0001443601470742899 0.0040398456760340502 0 -0.00016503025020078791 0.0041724136985965147 0 -0.00012393760072342268 0.0041780238966398183 0 -0.00016503025020078791 0.0041724136985965147 0 -0.00012393760072342268 0.0041780238966398183 0 -0.00015407374282455091 0.00428278470968329 0 -0.0001443601470742899 0.0040398456760340502 0 -0.00012393760072342268 0.0041780238966398183 0 -7.3304381577634752e-05 0.0040463626953201924 0 -0.0001443601470742899 0.0040398456760340502 0 -7.7908612772711045e-05 0.0038639454653755004 0 -7.3304381577634752e-05 0.0040463626953201924 0 -0.00012393760072342268 0.0041780238966398183 0 -6.739127676859397e-05 0.0041875212309661668 0 -0.00011106134022658233 0.0043036883163707074 0 -0.00012393760072342268 0.0041780238966398183 0 -7.3304381577634752e-05 0.0040463626953201924 0 -6.739127676859397e-05 0.0041875212309661668 0 -0.00012393760072342268 0.0041780238966398183 0 -0.00015407374282455091 0.00428278470968329 0 -0.00011106134022658233 0.0043036883163707074 0 -0.00015407374282455091 0.00428278470968329 0 -0.00013847902537052903 0.004368848087400636 0 -0.00011106134022658233 0.0043036883163707074 0 -0.00012099552117575642 0.0043933633259595041 0 -0.00011106134022658233 0.0043036883163707074 0 -8.5599673750171639e-05 0.0043963172713577534 0 -0.00012099552117575642 0.0043933633259595041 0 -0.00011569565329515621 0.0044559299094443696 0 -0.00013925824731496995 0.0044597902330799832 0 -0.00012099552117575642 0.0043933633259595041 0 -0.00013847902537052903 0.004368848087400636 0 -0.00011106134022658233 0.0043036883163707074 0 -6.739127676859397e-05 0.0041875212309661668 0 -0.00011106134022658233 0.0043036883163707074 0 -4.8547174002252143e-05 0.0043061705073301447 0 -0.00011106134022658233 0.0043036883163707074 0 -4.8547174002252143e-05 0.0043061705073301447 0 -8.5599673750171639e-05 0.0043963172713577534 0 -6.739127676859397e-05 0.0041875212309661668 0 -4.8547174002252143e-05 0.0043061705073301447 0 -1.5267189508843512e-05 0.0042205752904281822 0 -4.8547174002252143e-05 0.0043061705073301447 0 -5.5755136338999183e-05 0.004407090540615749 0 -8.5599673750171639e-05 0.0043963172713577534 0 -5.5755136338999183e-05 0.004407090540615749 0 -0.00011229968524238492 0.0044627566383001437 0 3.9388683315891483e-05 0.0044553695512279563 0 -3.2228071183228952e-05 0.0045159267342642605 0 6.0518146247869105e-06 0.0041986516965073009 0 -4.8547174002252143e-05 0.0043061705073301447 0 -5.5755136338999183e-05 0.004407090540615749 0 3.9388683315891483e-05 0.0044553695512279563 0 -7.6466728862499621e-05 0.0044051206771642303 0 -3.2228071183228952e-05 0.0045159267342642605 0 -5.5755136338999183e-05 0.004407090540615749 0 -8.5599673750171639e-05 0.0043963172713577534 0 -0.00011229968524238492 0.0044627566383001437 0 -8.4407509112632132e-05 0.0044807539594709025 0 -0.00011569565329515621 0.0044559299094443696 0 -0.00013059108890285667 0.0045445276747402728 0 -8.5599673750171639e-05 0.0043963172713577534 0 -8.4407509112632132e-05 0.0044807539594709025 0 -0.00011569565329515621 0.0044559299094443696 0 -0.00012099552117575642 0.0043933633259595041 0 -8.5599673750171639e-05 0.0043963172713577534 0 -0.00011569565329515621 0.0044559299094443696 0 -4.8547174002252143e-05 0.0043061705073301447 0 -1.5267189508843512e-05 0.0042205752904281822 0 -5.908898439393021e-06 0.004319297530016049 0 6.6541684532493784e-05 0.0042576576177937144 0 -1.5267189508843512e-05 0.0042205752904281822 0 -5.908898439393021e-06 0.004319297530016049 0 6.6541684532493784e-05 0.0042576576177937144 0 -4.3570270152932795e-06 0.0043774049941948528 0 -5.908898439393021e-06 0.004319297530016049 0 -4.8547174002252143e-05 0.0043061705073301447 0 -4.3570270152932795e-06 0.0043774049941948528 0 -5.908898439393021e-06 0.004319297530016049 0 4.9207835014767493e-05 0.0041758797461642133 0 6.0518146247869105e-06 0.0041986516965073009 0 -1.7957109694040714e-05 0.0043871594874154577 0 6.0518146247869105e-06 0.0041986516965073009 0 6.0518146247869105e-06 0.0041986516965073009 0 -0.00010154740834044701 0.0035975563896184807 0 5.4227010497676704e-05 0.0040761982711440894 0 8.9313377890701241e-07 0.0041637796885879872 0 0.00010722636316928285 0.0041514009837359065 0 -0.00014055239607698854 0.0029386890916143242 0 -6.0427537627146946e-05 0.0028713575909603867 0 -7.6714799352098738e-05 0.0029153819417235892 0 -0.00017562615599518502 0.0030364540034567154 0 -7.4445822579264736e-05 0.002933546171579805 0 -0.00020663554784619461 0.0031675306774716018 0 -0.0002132482896096408 0.0031209125712378539 0 -8.2774374663258267e-05 0.0029863803504878001 0 -0.00024134647630005981 0.0031249117880545528 0 -0.0002132482896096408 0.0031209125712378539 0 -0.00011342059472477593 0.0029195215830528517 0 -0.0002429735644825795 0.0031241180350392353 0 -0.00020663554784619461 0.0031675306774716018 0 -0.0002132482896096408 0.0031209125712378539 0 -0.00010154740834044701 0.0035975563896184807 0 -0.00012991758346394671 0.0035506823677294553 0 -0.00014055239607698854 0.0029386890916143242 0 -9.7485500529944741e-05 0.0029406745381246068 0 -7.6714799352098738e-05 0.0029153819417235892 0 5.4227010497676704e-05 0.0040761982711440894 0 0.00010722636316928285 0.0041514009837359065 0 0.00018262915067142696 0.0040484335725118302 0 -0.00010154740834044701 0.0035975563896184807 0 3.8297871259931093e-05 0.0034839929343921214 0 -0.0002132482896096408 0.0031209125712378539 0 -0.00011342059472477593 0.0029195215830528517 0 -8.2774374663258267e-05 0.0029863803504878001 0 -7.4445822579264736e-05 0.002933546171579805 0 -9.7970567210649867e-06 0.002847110218101388 0 -0.00011342059472477593 0.0029195215830528517 0 -8.2774374663258267e-05 0.0029863803504878001 0 -5.1521286128442397e-06 0.0028407688843274711 0 -6.0427537627146946e-05 0.0028713575909603867 0 -1.1544024663437252e-05 0.0028674072233078056 0 -5.1521286128442397e-06 0.0028407688843274711 0 -6.0427537627146946e-05 0.0028713575909603867 0 -3.1133674797180286e-05 0.0028998433339095207 0 -1.1544024663437252e-05 0.0028674072233078056 0 -6.0427537627146946e-05 0.0028713575909603867 0 -3.1133674797180286e-05 0.0028998433339095207 0 -7.6714799352098738e-05 0.0029153819417235892 0 -9.7485500529944741e-05 0.0029406745381246068 0 -7.6714799352098738e-05 0.0029153819417235892 0 -5.9596005610514715e-05 0.0029340099795805838 0 -3.1133674797180286e-05 0.0028998433339095207 0 -7.6714799352098738e-05 0.0029153819417235892 0 -5.9596005610514715e-05 0.0029340099795805838 0 -3.1133674797180286e-05 0.0028998433339095207 0 -5.9596005610514715e-05 0.0029340099795805838 0 -3.1209600667020553e-06 0.0029381907420291922 0 -3.1133674797180286e-05 0.0028998433339095207 0 -3.1209600667020553e-06 0.0029381907420291922 0 1.8954772121995615e-05 0.002886573024717501 0 8.610112530892042e-05 0.0029090436983311889 0 6.1660832020503942e-05 0.0028326895443990985 0 9.1866958335870707e-05 0.0029213437626012255 0 5.5041684709934188e-05 0.002865097951448617 0 1.8954772121995615e-05 0.002886573024717501 0 9.1866958335870707e-05 0.0029213437626012255 0 -3.1209600667020553e-06 0.0029381907420291922 0 1.8954772121995615e-05 0.002886573024717501 0 5.5041684709934188e-05 0.002865097951448617 0 1.8954772121995615e-05 0.002886573024717501 0 1.8345352570381315e-05 0.0028531979998898602 0 -3.1133674797180286e-05 0.0028998433339095207 0 1.8954772121995615e-05 0.002886573024717501 0 -1.1544024663437252e-05 0.0028674072233078056 0 1.8954772121995615e-05 0.002886573024717501 0 -1.1544024663437252e-05 0.0028674072233078056 0 1.8345352570381315e-05 0.0028531979998898602 0 -1.1544024663437252e-05 0.0028674072233078056 0 -5.1521286128442397e-06 0.0028407688843274711 0 1.8345352570381315e-05 0.0028531979998898602 0 -5.1521286128442397e-06 0.0028407688843274711 0 1.8345352570381315e-05 0.0028531979998898602 0 3.9965856394104944e-05 0.0028032193110833583 0 6.1660832020503942e-05 0.0028326895443990985 0 1.084260953812222e-05 0.0026373770086254105 0 5.5041684709934188e-05 0.002865097951448617 0 1.8345352570381315e-05 0.0028531979998898602 0 3.9965856394104944e-05 0.0028032193110833583 0 0.00012828850350975462 0.0026918244922639481 0 5.3946879134243087e-05 0.0027609830740459554 0 3.1186887508121434e-05 0.0026220111131195008 0 0.00013145282436514847 0.0026132352999270483 0 8.1283661137665503e-05 0.0025580163833721701 0 3.1186887508121434e-05 0.0026220111131195008 0 2.4735369293630607e-05 0.0027368813793207675 0 3.9965856394104944e-05 0.0028032193110833583 0 -2.0468829199682239e-05 0.0027929799482126583 0 -5.1521286128442397e-06 0.0028407688843274711 0 3.9965856394104944e-05 0.0028032193110833583 0 -2.0468829199682239e-05 0.0027929799482126583 0 0.00010953120875211284 0.0037610686509351593 0 9.72586308929908e-05 0.0039927055384607136 0 0.00027760606228185216 0.0038485461062991132 0 9.72586308929908e-05 0.0039927055384607136 0 0.00018262915067142696 0.0040484335725118302 0 0.00027760606228185216 0.0038485461062991132 0 9.72586308929908e-05 0.0039927055384607136 0 5.4227010497676704e-05 0.0040761982711440894 0 0.00018262915067142696 0.0040484335725118302 0 3.8297871259931093e-05 0.0034839929343921214 0 0.00012984616048694047 0.003355081963979083 0 -0.00011342059472477593 0.0029195215830528517 0 -5.1521286128442397e-06 0.0028407688843274711 0 -2.0468829199682239e-05 0.0027929799482126583 0 -8.8786674560255098e-09 0.0049996636803491369 0 -3.3199668157978007e-05 0.0048785350994079478 0 -7.4499525680180039e-08 0.0049997184180549086 0 -1.8715706695245311e-05 0.0049170087176815544 0 -3.3199668157978007e-05 0.0048785350994079478 0 -7.4499525680180039e-08 0.0049997184180549086 0 -2.633321251962958e-05 0.0049020708296501157 0 -3.3426863419437877e-05 0.0048232557885493719 0 -1.8715706695245311e-05 0.0049170087176815544 0 -3.3199668157978007e-05 0.0048785350994079478 0 -3.9185313543577486e-05 0.0047996328173558218 0 -8.8786674560255098e-09 0.0049996636803491369 0 -3.3199668157978007e-05 0.0048785350994079478 0 -1.9448689579168292e-07 0.0045274104321914796 0 -3.3199668157978007e-05 0.0048785350994079478 0 -2.2271894865424678e-05 0.0047032019330753233 0 -1.9448689579168292e-07 0.0045274104321914796 0 -2.2271894865424678e-05 0.0047032019330753233 0 -5.2109092336909344e-05 0.0046762133180423132 0 2.3761946068342741e-05 0.0045618153553612078 0 -2.2271894865424678e-05 0.0047032019330753233 0 -1.9448689579168292e-07 0.0045274104321914796 0 2.3761946068342741e-05 0.0045618153553612078 0 -2.2271894865424678e-05 0.0047032019330753233 0 -5.2109092336909344e-05 0.0046762133180423132 0 -3.9185313543577486e-05 0.0047996328173558218 0 -3.3199668157978007e-05 0.0048785350994079478 0 -2.2271894865424678e-05 0.0047032019330753233 0 -3.9185313543577486e-05 0.0047996328173558218 0 -3.5258059495454197e-05 0.0048922644930070652 0 -3.9185313543577486e-05 0.0047996328173558218 0 -3.8400254131656228e-05 0.0048492400120189252 0 -3.9185313543577486e-05 0.0047996328173558218 0 -4.4391455779386003e-05 0.0047678437331877882 0 -3.8400254131656228e-05 0.0048492400120189252 0 -5.2109092336909344e-05 0.0046762133180423132 0 -3.9185313543577486e-05 0.0047996328173558218 0 -4.4391455779386003e-05 0.0047678437331877882 0 -5.2109092336909344e-05 0.0046762133180423132 0 -4.4391455779386003e-05 0.0047678437331877882 0 -3.8766854007922249e-06 0.004729139473467793 0 -5.2109092336909344e-05 0.0046762133180423132 0 1.7886455392286117e-05 0.004504493140222633 0 -3.8766854007922249e-06 0.004729139473467793 0 1.7886455392286117e-05 0.004504493140222633 0 0.00014250512209153888 0.0046272048437187357 0 -3.8766854007922249e-06 0.004729139473467793 0 -8.3602134287052415e-05 0.0041616381839888195 0 -7.9876876836245449e-05 0.0046574436971460699 0 -5.2109092336909344e-05 0.0046762133180423132 0 1.7886455392286117e-05 0.004504493140222633 0 -7.7276645417130517e-05 0.0043513602111614098 0 -5.3419008055101194e-05 0.0046439160559314701 0 -2.9411874292712527e-05 0.0044600582104033695 0 -1.9448689579168292e-07 0.0045274104321914796 0 2.3761946068342741e-05 0.0045618153553612078 0 3.2545792948720637e-07 0.004187022112360818 0 -2.9411874292712527e-05 0.0044600582104033695 0 -6.0330468036829656e-09 0.0041866953146400985 0 -1.4134598573905369e-07 0.0041863787091063684 0 1.7449433671032453e-05 0.0042603132526742122 0 -3.1028838019389908e-08 0.0039931280070995574 0 -7.7276645417130517e-05 0.0043513602111614098 0 -1.4134598573905369e-07 0.0041863787091063684 0 1.7449433671032453e-05 0.0042603132526742122 0 1.7886455392286117e-05 0.004504493140222633 0 -7.7276645417130517e-05 0.0043513602111614098 0 1.7449433671032453e-05 0.0042603132526742122 0 1.7886455392286117e-05 0.004504493140222633 0 1.7449433671032453e-05 0.0042603132526742122 0 0.00016527938655574596 0.0043128954892692238 0 1.7449433671032453e-05 0.0042603132526742122 0 -3.1028838019389908e-08 0.0039931280070995574 0 0.00016527938655574596 0.0043128954892692238 0 -3.8610246484825349e-09 0.0037997815760316771 0 0.00012489886185507951 0.0039344878820491962 0 -3.1028838019389908e-08 0.0039931280070995574 0 4.1222333057416052e-07 0.0038001559724431685 0 0.00016527938655574596 0.0043128954892692238 0 -4.4387302787642629e-05 0.0035965375704006966 0 -1.3302494780371832e-05 0.0035667754197995548 0 5.0091660848075805e-05 0.0035827245154994576 0 -4.4387302787642629e-05 0.0035965375704006966 0 1.358973514025064e-07 0.0037991243345441802 0 5.0091660848075805e-05 0.0035827245154994576 0 -1.3302494780371832e-05 0.0035667754197995548 0 5.0091660848075805e-05 0.0035827245154994576 0 8.3626912347435422e-06 0.0035258607935162111 0 5.0091660848075805e-05 0.0035827245154994576 0 5.8686326762652737e-05 0.0035159761528523788 0 8.3626912347435422e-06 0.0035258607935162111 0 1.7886455392286117e-05 0.004504493140222633 0 0.00016527938655574596 0.0043128954892692238 0 0.00014250512209153888 0.0046272048437187357 0 0.00012489886185507951 0.0039344878820491962 0 -8.3602134287052415e-05 0.0041616381839888195 0 -8.3602134287052415e-05 0.0041616381839888195 0 -0.00019443564989141902 0.0043622900083950819 0 -8.3602134287052415e-05 0.0041616381839888195 0 -7.4815594419351775e-05 0.0037758492719199483 0 -0.00023145700292583941 0.0042432613554234354 0 -0.00020146410321416534 0.0040720972055425632 0 -0.00018912037259224011 0.0042419124750377292 0 -0.00016503025020078791 0.0041724136985965147 0 -0.00020146410321416534 0.0040720972055425632 0 -0.00018912037259224011 0.0042419124750377292 0 -0.00015407374282455091 0.00428278470968329 0 -0.00018912037259224011 0.0042419124750377292 0 -0.00018062605072495188 0.0043838726743394545 0 -0.00016503025020078791 0.0041724136985965147 0 -0.00015407374282455091 0.00428278470968329 0 -0.00018912037259224011 0.0042419124750377292 0 -0.00023145700292583941 0.0042432613554234354 0 -0.00018912037259224011 0.0042419124750377292 0 -0.00020005901530763696 0.0043326675585996458 0 -0.00021407438129356654 0.004365314726551283 0 -0.00021486621188778848 0.0043645634248826535 0 -0.00018260363478279302 0.0044488393162458667 0 -0.00023145700292583941 0.0042432613554234354 0 -0.00020005901530763696 0.0043326675585996458 0 -0.00021486621188778848 0.0043645634248826535 0 -0.00020005901530763696 0.0043326675585996458 0 -0.00021486621188778848 0.0043645634248826535 0 -0.00019434453202918722 0.0043994104684084495 0 -0.00020005901530763696 0.0043326675585996458 0 -0.00019434453202918722 0.0043994104684084495 0 -0.00018062605072495188 0.0043838726743394545 0 -0.00018912037259224011 0.0042419124750377292 0 -0.00020005901530763696 0.0043326675585996458 0 -0.00018062605072495188 0.0043838726743394545 0 -0.00018062605072495188 0.0043838726743394545 0 -0.00015735438028216883 0.0044901772952516085 0 -0.00017456953044169398 0.0044789915443549308 0 -0.00019434453202918722 0.0043994104684084495 0 -0.00018062605072495188 0.0043838726743394545 0 -0.00017456953044169398 0.0044789915443549308 0 -0.00018062605072495188 0.0043838726743394545 0 -0.00015741013942283813 0.0043944860424793052 0 -0.00015735438028216883 0.0044901772952516085 0 -0.00015407374282455091 0.00428278470968329 0 -0.00018062605072495188 0.0043838726743394545 0 -0.00015741013942283813 0.0043944860424793052 0 -0.00015407374282455091 0.00428278470968329 0 -0.00013847902537052903 0.004368848087400636 0 -0.00015741013942283813 0.0043944860424793052 0 -0.00013847902537052903 0.004368848087400636 0 -0.00015741013942283813 0.0043944860424793052 0 -0.00013925824731496995 0.0044597902330799832 0 -0.00015741013942283813 0.0043944860424793052 0 -0.00013925824731496995 0.0044597902330799832 0 -0.00015735438028216883 0.0044901772952516085 0 -0.00012099552117575642 0.0043933633259595041 0 -0.00013847902537052903 0.004368848087400636 0 -0.00013925824731496995 0.0044597902330799832 0 -0.00011569565329515621 0.0044559299094443696 0 -0.00013925824731496995 0.0044597902330799832 0 -0.00013059108890285667 0.0045445276747402728 0 -0.00013925824731496995 0.0044597902330799832 0 -0.00012983177446017252 0.0045641898421526425 0 -0.00013059108890285667 0.0045445276747402728 0 -0.00012983177446017252 0.0045641898421526425 0 -9.9923379611616987e-05 0.0046998726745704151 0 -0.00013059108890285667 0.0045445276747402728 0 -0.00012983177446017252 0.0045641898421526425 0 -0.00015735438028216883 0.0044901772952516085 0 -0.00013492402641803432 0.0046177761764205801 0 -0.00013925824731496995 0.0044597902330799832 0 -0.00012983177446017252 0.0045641898421526425 0 -0.00015735438028216883 0.0044901772952516085 0 -0.00015542135809804009 0.0045653782195596822 0 -0.00013492402641803432 0.0046177761764205801 0 -0.00014068261345200417 0.0046670946055902022 0 -0.00015735438028216883 0.0044901772952516085 0 -0.00015542135809804009 0.0045653782195596822 0 -0.00013492402641803432 0.0046177761764205801 0 -0.00013492402641803432 0.0046177761764205801 0 -0.00012528287675098195 0.0047097309233940952 0 -9.9923379611616987e-05 0.0046998726745704151 0 -0.00012983177446017252 0.0045641898421526425 0 -0.00013492402641803432 0.0046177761764205801 0 -9.9923379611616987e-05 0.0046998726745704151 0 -0.00013492402641803432 0.0046177761764205801 0 -0.00012528287675098195 0.0047097309233940952 0 -0.00014068261345200417 0.0046670946055902022 0 -0.00012528287675098195 0.0047097309233940952 0 -0.00014068261345200417 0.0046670946055902022 0 -0.00011541728435099054 0.0047856722944516058 0 -0.00014068261345200417 0.0046670946055902022 0 -0.00015906042756070308 0.0045801671071127575 0 -0.00012862612315035562 0.0047392791228875403 0 -0.00015542135809804009 0.0045653782195596822 0 -0.00014068261345200417 0.0046670946055902022 0 -0.00015906042756070308 0.0045801671071127575 0 -0.00015735438028216883 0.0044901772952516085 0 -0.00015542135809804009 0.0045653782195596822 0 -0.00017456953044169398 0.0044789915443549308 0 -0.00015542135809804009 0.0045653782195596822 0 -0.00015906042756070308 0.0045801671071127575 0 -0.00017456953044169398 0.0044789915443549308 0 -0.00015906042756070308 0.0045801671071127575 0 -0.00017456953044169398 0.0044789915443549308 0 -0.00018260363478279302 0.0044488393162458667 0 -0.00021407438129356654 0.004365314726551283 0 -0.00018260363478279302 0.0044488393162458667 0 -0.00016951050526462747 0.0045005796974351949 0 -0.00019434453202918722 0.0043994104684084495 0 -0.00017456953044169398 0.0044789915443549308 0 -0.00018260363478279302 0.0044488393162458667 0 -0.00021486621188778848 0.0043645634248826535 0 -0.00019434453202918722 0.0043994104684084495 0 -0.00018260363478279302 0.0044488393162458667 0 -0.00015906042756070308 0.0045801671071127575 0 -0.00016951050526462747 0.0045005796974351949 0 -0.00014331783234853895 0.0046793626478769095 0 -7.9876876836245449e-05 0.0046574436971460699 0 -8.4729559007517747e-05 0.0047432210278043722 0 -0.00015906042756070308 0.0045801671071127575 0 -0.00018260363478279302 0.0044488393162458667 0 -0.00016951050526462747 0.0045005796974351949 0 -4.4391455779386003e-05 0.0047678437331877882 0 -3.8766854007922249e-06 0.004729139473467793 0 -3.7790493935038082e-05 0.0048202472073080376 0 -8.4729559007517747e-05 0.0047432210278043722 0 -5.6856962783119775e-05 0.0048805837395953355 0 -4.4391455779386003e-05 0.0047678437331877882 0 -3.7790493935038082e-05 0.0048202472073080376 0 -3.8400254131656228e-05 0.0048492400120189252 0 -3.7790493935038082e-05 0.0048202472073080376 0 -3.8400254131656228e-05 0.0048492400120189252 0 -3.2944296306765347e-05 0.0049148143401007973 0 -0.00014331783234853895 0.0046793626478769095 0 -0.00012862612315035562 0.0047392791228875403 0 -9.0168891733516341e-05 0.0048489854672924878 0 -0.00015906042756070308 0.0045801671071127575 0 -0.00014331783234853895 0.0046793626478769095 0 -0.00012862612315035562 0.0047392791228875403 0 -0.00014068261345200417 0.0046670946055902022 0 -0.00012862612315035562 0.0047392791228875403 0 -0.00011541728435099054 0.0047856722944516058 0 -0.00012528287675098195 0.0047097309233940952 0 -0.00011541728435099054 0.0047856722944516058 0 -0.00010662857526763692 0.0047908344981763638 0 -0.00011541728435099054 0.0047856722944516058 0 -7.8980336038813657e-05 0.004874425726745955 0 -6.8640341918903841e-05 0.0049030375996759763 0 -0.00012862612315035562 0.0047392791228875403 0 -7.8980336038813657e-05 0.004874425726745955 0 -9.0168891733516341e-05 0.0048489854672924878 0 -0.00012862612315035562 0.0047392791228875403 0 -0.00011541728435099054 0.0047856722944516058 0 -7.8980336038813657e-05 0.004874425726745955 0 -7.8980336038813657e-05 0.004874425726745955 0 -4.1591325925462732e-08 0.0049998750317063745 0 -6.8640341918903841e-05 0.0049030375996759763 0 -7.8980336038813657e-05 0.004874425726745955 0 -4.1591325925462732e-08 0.0049998750317063745 0 -9.4198452535379595e-08 0.0049998176957987625 0 3.2249810625148134e-08 0.0050000041537892328 0 -3.2944296306765347e-05 0.0049148143401007973 0 -8.9721630301685537e-08 0.0049998154826530732 0 -7.745447141400356e-09 0.0049999501032251129 0 -5.6856962783119775e-05 0.0048805837395953355 0 -7.8980336038813657e-05 0.004874425726745955 0 -9.4198452535379595e-08 0.0049998176957987625 0 -9.0168891733516341e-05 0.0048489854672924878 0 -3.5258059495454197e-05 0.0048922644930070652 0 -3.8400254131656228e-05 0.0048492400120189252 0 -3.2944296306765347e-05 0.0049148143401007973 0 -3.5258059495454197e-05 0.0048922644930070652 0 -3.2944296306765347e-05 0.0049148143401007973 0 -8.9721630301685537e-08 0.0049998154826530732 0 -2.633321251962958e-05 0.0049020708296501157 0 -1.1405498902117695e-08 0.0049999566085669024 0 -2.6064409322155269e-08 0.004999934641041876 0 -4.6053474546021091e-05 0.0049409780885342819 0 -1.7228430572223439e-05 0.0049745275693400546 0 -2.6064409322155269e-08 0.004999934641041876 0 -4.6053474546021091e-05 0.0049409780885342819 0 -4.3452804046246985e-05 0.0049451946648833263 0 -2.6064409322155269e-08 0.004999934641041876 0 -4.3452804046246985e-05 0.0049451946648833263 0 -3.9451583209078897e-08 0.0049999113794271027 0 -4.1591325925462732e-08 0.0049998750317063745 0 -3.9451583209078897e-08 0.0049999113794271027 0 -6.8640341918903841e-05 0.0049030375996759763 0 -4.3452804046246985e-05 0.0049451946648833263 0 -3.9451583209078897e-08 0.0049999113794271027 0 -6.8640341918903841e-05 0.0049030375996759763 0 -4.3452804046246985e-05 0.0049451946648833263 0 -6.8640341918903841e-05 0.0049030375996759763 0 -8.0481852017896629e-05 0.0048803358991506242 0 -6.8640341918903841e-05 0.0049030375996759763 0 -9.3017638084147864e-05 0.0048437742821283766 0 -8.0481852017896629e-05 0.0048803358991506242 0 -0.00011541728435099054 0.0047856722944516058 0 -6.8640341918903841e-05 0.0049030375996759763 0 -9.3017638084147864e-05 0.0048437742821283766 0 -0.00011541728435099054 0.0047856722944516058 0 -9.3017638084147864e-05 0.0048437742821283766 0 -0.00010662857526763692 0.0047908344981763638 0 -9.3017638084147864e-05 0.0048437742821283766 0 -8.0481852017896629e-05 0.0048803358991506242 0 -0.00010662857526763692 0.0047908344981763638 0 -4.6053474546021091e-05 0.0049409780885342819 0 -4.3452804046246985e-05 0.0049451946648833263 0 -8.0481852017896629e-05 0.0048803358991506242 0 -4.6053474546021091e-05 0.0049409780885342819 0 -8.0481852017896629e-05 0.0048803358991506242 0 -6.3275216531576191e-05 0.0049061464229575432 0 -8.0481852017896629e-05 0.0048803358991506242 0 -6.3180784081878988e-05 0.0048719456623753168 0 -6.3275216531576191e-05 0.0049061464229575432 0 -8.0481852017896629e-05 0.0048803358991506242 0 -6.3180784081878988e-05 0.0048719456623753168 0 -7.6846560010564006e-05 0.0048233501797969947 0 -6.3180784081878988e-05 0.0048719456623753168 0 -3.6343203002538547e-05 0.0048622945122919229 0 -7.6846560010564006e-05 0.0048233501797969947 0 -3.6343203002538547e-05 0.0048622945122919229 0 -7.6846560010564006e-05 0.0048233501797969947 0 -4.6897248150540035e-05 0.0048199455527573962 0 -8.0481852017896629e-05 0.0048803358991506242 0 -0.00010662857526763692 0.0047908344981763638 0 -7.6846560010564006e-05 0.0048233501797969947 0 -0.00012528287675098195 0.0047097309233940952 0 -0.00010662857526763692 0.0047908344981763638 0 -9.9923379611616987e-05 0.0046998726745704151 0 -0.00010662857526763692 0.0047908344981763638 0 -9.9923379611616987e-05 0.0046998726745704151 0 -7.6846560010564006e-05 0.0048233501797969947 0 -9.9923379611616987e-05 0.0046998726745704151 0 -7.6846560010564006e-05 0.0048233501797969947 0 -5.2155252381195896e-05 0.0047725723507007671 0 -7.6846560010564006e-05 0.0048233501797969947 0 -5.2155252381195896e-05 0.0047725723507007671 0 -4.6897248150540035e-05 0.0048199455527573962 0 -5.2155252381195896e-05 0.0047725723507007671 0 -2.1367779980804201e-05 0.0047863430446458471 0 -4.6897248150540035e-05 0.0048199455527573962 0 -9.9923379611616987e-05 0.0046998726745704151 0 -5.2155252381195896e-05 0.0047725723507007671 0 -2.0742903891142451e-05 0.0047233852131308394 0 -0.00011010514917366827 0.0046858787454086542 0 -8.1524067553611577e-05 0.0046486827226808998 0 -2.0742903891142451e-05 0.0047233852131308394 0 -2.1367779980804201e-05 0.0047863430446458471 0 2.2977918807667845e-05 0.0047579972196415072 0 -5.2155252381195896e-05 0.0047725723507007671 0 -2.0742903891142451e-05 0.0047233852131308394 0 -2.1367779980804201e-05 0.0047863430446458471 0 -2.1367779980804201e-05 0.0047863430446458471 0 -3.7521656958478993e-05 0.004831481601816197 0 -5.4778889782682411e-06 0.0048150786379492416 0 -2.1367779980804201e-05 0.0047863430446458471 0 -4.6897248150540035e-05 0.0048199455527573962 0 -3.7521656958478993e-05 0.004831481601816197 0 -3.6343203002538547e-05 0.0048622945122919229 0 -4.6897248150540035e-05 0.0048199455527573962 0 -3.7521656958478993e-05 0.004831481601816197 0 -3.6343203002538547e-05 0.0048622945122919229 0 -3.7521656958478993e-05 0.004831481601816197 0 -4.8348957640085813e-05 0.0048295394555707034 0 -3.7521656958478993e-05 0.004831481601816197 0 -5.4778889782682411e-06 0.0048150786379492416 0 -4.7872453346802527e-05 0.0048327343390442293 0 -3.7521656958478993e-05 0.004831481601816197 0 -4.8348957640085813e-05 0.0048295394555707034 0 -4.7872453346802527e-05 0.0048327343390442293 0 -4.8348957640085813e-05 0.0048295394555707034 0 -7.7183020989773744e-05 0.0047861852881400007 0 -4.7872453346802527e-05 0.0048327343390442293 0 -7.7183020989773744e-05 0.0047861852881400007 0 -9.7690745260228619e-05 0.0047976818211024298 0 -0.00010534260643790652 0.0048168887580642755 0 -9.7770178984601358e-05 0.0049047630808414571 0 -0.00010032603947895906 0.0044880878391910673 0 -3.6343203002538547e-05 0.0048622945122919229 0 -4.8348957640085813e-05 0.0048295394555707034 0 -3.6027576856317223e-05 0.0048042356429420854 0 -4.8348957640085813e-05 0.0048295394555707034 0 -3.6027576856317223e-05 0.0048042356429420854 0 -7.7183020989773744e-05 0.0047861852881400007 0 -3.6027576856317223e-05 0.0048042356429420854 0 -5.989532556785327e-05 0.0047507074986575352 0 -6.1920400730180005e-06 0.0047480173102975795 0 -3.6027576856317223e-05 0.0048042356429420854 0 -7.7183020989773744e-05 0.0047861852881400007 0 -5.989532556785327e-05 0.0047507074986575352 0 -7.7183020989773744e-05 0.0047861852881400007 0 -0.00010362531419566999 0.0047546250029738462 0 -5.989532556785327e-05 0.0047507074986575352 0 -7.7183020989773744e-05 0.0047861852881400007 0 -9.7690745260228619e-05 0.0047976818211024298 0 -9.7193996569514969e-05 0.004795577775831129 0 -7.7183020989773744e-05 0.0047861852881400007 0 -0.00010362531419566999 0.0047546250029738462 0 -9.7193996569514969e-05 0.004795577775831129 0 -0.00017583227928127609 0.0042324560099758508 0 -0.00015841155601306213 0.004500678035587357 0 -0.00017583227928127609 0.0042324560099758508 0 -0.00023699489244909068 0.0040718534586203798 0 -0.00011537834223080215 0.0047527132881501396 0 -9.4445995970649305e-05 0.0047145389053215034 0 -0.0001092909877706592 0.004635369520247133 0 -0.00017583227928127609 0.0042324560099758508 0 -0.00021793516023616499 0.0047200887316379923 0 -0.00010362531419566999 0.0047546250029738462 0 -9.4445995970649305e-05 0.0047145389053215034 0 -5.989532556785327e-05 0.0047507074986575352 0 -9.4445995970649305e-05 0.0047145389053215034 0 -5.8977803567809191e-05 0.004693091831760139 0 -5.989532556785327e-05 0.0047507074986575352 0 -9.4445995970649305e-05 0.0047145389053215034 0 -0.0001092909877706592 0.004635369520247133 0 -5.8977803567809191e-05 0.004693091831760139 0 -3.638290197098952e-05 0.0046484826962764096 0 -2.6644644123178793e-05 0.0047161594158271446 0 1.1906836833743255e-05 0.0046980443623977214 0 -3.638290197098952e-05 0.0046484826962764096 0 -2.6644644123178793e-05 0.0047161594158271446 0 -5.8977803567809191e-05 0.004693091831760139 0 -0.0001092909877706592 0.004635369520247133 0 -3.638290197098952e-05 0.0046484826962764096 0 -5.8977803567809191e-05 0.004693091831760139 0 -2.6644644123178793e-05 0.0047161594158271446 0 -5.989532556785327e-05 0.0047507074986575352 0 -6.1920400730180005e-06 0.0047480173102975795 0 -2.6644644123178793e-05 0.0047161594158271446 0 -5.8977803567809191e-05 0.004693091831760139 0 -5.989532556785327e-05 0.0047507074986575352 0 -6.1920400730180005e-06 0.0047480173102975795 0 5.9326330182523867e-05 0.0047112090314530009 0 1.9052339204598187e-05 0.0047970625403145816 0 -6.1920400730180005e-06 0.0047480173102975795 0 1.1906836833743255e-05 0.0046980443623977214 0 5.9326330182523867e-05 0.0047112090314530009 0 -2.6644644123178793e-05 0.0047161594158271446 0 -6.1920400730180005e-06 0.0047480173102975795 0 1.1906836833743255e-05 0.0046980443623977214 0 -3.638290197098952e-05 0.0046484826962764096 0 1.1906836833743255e-05 0.0046980443623977214 0 3.4606182810877947e-05 0.0046561285030611993 0 -3.638290197098952e-05 0.0046484826962764096 0 3.4606182810877947e-05 0.0046561285030611993 0 4.572388454710384e-06 0.0045964168198529554 0 1.1906836833743255e-05 0.0046980443623977214 0 3.4606182810877947e-05 0.0046561285030611993 0 5.9326330182523867e-05 0.0047112090314530009 0 -5.5441189927734083e-05 0.0049125720445411351 0 -5.2464197812872566e-05 0.004907736327112759 0 -5.6351871070159704e-05 0.0048988013391986166 0 -8.9509357884223844e-07 0.0048177239615891801 0 3.1227268217746771e-05 0.0047296187664299088 0 3.4606182810877947e-05 0.0046561285030611993 0 5.9326330182523867e-05 0.0047112090314530009 0 8.6584738406757163e-05 0.0046214192406613041 0 7.2723367181452101e-05 0.0046324109075818742 0 3.1227268217746771e-05 0.0047296187664299088 0 -5.5441189927734083e-05 0.0049125720445411351 0 -5.4453847802195271e-05 0.0049150109186702953 0 -5.2464197812872566e-05 0.004907736327112759 0 -5.5441189927734083e-05 0.0049125720445411351 0 -4.8860136978368579e-05 0.004911351254948803 0 -5.4453847802195271e-05 0.0049150109186702953 0 -4.8860136978368579e-05 0.004911351254948803 0 -5.5787618930030606e-05 0.0049187005251027675 0 -5.4453847802195271e-05 0.0049150109186702953 0 -8.9509357884223844e-07 0.0048177239615891801 0 -1.5471820300476567e-05 0.004849900834200024 0 -3.6027576856317223e-05 0.0048042356429420854 0 -6.1920400730180005e-06 0.0047480173102975795 0 1.9052339204598187e-05 0.0047970625403145816 0 -6.3180784081878988e-05 0.0048719456623753168 0 -3.6343203002538547e-05 0.0048622945122919229 0 -4.8860136978368579e-05 0.004911351254948803 0 -3.1845856991594887e-05 0.0048617265552251621 0 -1.5471820300476567e-05 0.004849900834200024 0 -3.6343203002538547e-05 0.0048622945122919229 0 -3.6027576856317223e-05 0.0048042356429420854 0 1.9052339204598187e-05 0.0047970625403145816 0 -4.8860136978368579e-05 0.004911351254948803 0 -6.3275216531576191e-05 0.0049061464229575432 0 -5.5787618930030606e-05 0.0049187005251027675 0 -6.3180784081878988e-05 0.0048719456623753168 0 -4.8860136978368579e-05 0.004911351254948803 0 -6.3275216531576191e-05 0.0049061464229575432 0 -6.3275216531576191e-05 0.0049061464229575432 0 -5.0539226518567831e-05 0.0049295871811166894 0 -5.5787618930030606e-05 0.0049187005251027675 0 -4.6053474546021091e-05 0.0049409780885342819 0 -5.0539226518567831e-05 0.0049295871811166894 0 -2.9370499284733784e-05 0.0049510783150242413 0 -4.6053474546021091e-05 0.0049409780885342819 0 -6.3275216531576191e-05 0.0049061464229575432 0 -5.0539226518567831e-05 0.0049295871811166894 0 -5.0539226518567831e-05 0.0049295871811166894 0 -4.5455947100223169e-05 0.0049213423773718686 0 -5.5787618930030606e-05 0.0049187005251027675 0 -5.0539226518567831e-05 0.0049295871811166894 0 -4.5455947100223169e-05 0.0049213423773718686 0 -2.9370499284733784e-05 0.0049510783150242413 0 -4.5455947100223169e-05 0.0049213423773718686 0 -5.5787618930030606e-05 0.0049187005251027675 0 -5.4453847802195271e-05 0.0049150109186702953 0 -4.5455947100223169e-05 0.0049213423773718686 0 -5.4453847802195271e-05 0.0049150109186702953 0 -4.6082992586040904e-05 0.0049098818089451579 0 -5.4453847802195271e-05 0.0049150109186702953 0 -5.2464197812872566e-05 0.004907736327112759 0 -4.6082992586040904e-05 0.0049098818089451579 0 -5.2464197812872566e-05 0.004907736327112759 0 -4.7266254031840198e-05 0.0049010468816489024 0 -5.6351871070159704e-05 0.0048988013391986166 0 -5.2464197812872566e-05 0.004907736327112759 0 -4.7266254031840198e-05 0.0049010468816489024 0 -4.6082992586040904e-05 0.0049098818089451579 0 -4.6082992586040904e-05 0.0049098818089451579 0 -3.2463303129404374e-05 0.0049081786425609064 0 -3.5297952798500028e-05 0.0048992184802298866 0 -4.7266254031840198e-05 0.0049010468816489024 0 -4.6082992586040904e-05 0.0049098818089451579 0 -3.5297952798500028e-05 0.0048992184802298866 0 -4.5455947100223169e-05 0.0049213423773718686 0 -4.6082992586040904e-05 0.0049098818089451579 0 -3.2463303129404374e-05 0.0049081786425609064 0 -4.5455947100223169e-05 0.0049213423773718686 0 -2.363247494155232e-05 0.0049176976221867339 0 -3.2463303129404374e-05 0.0049081786425609064 0 -1.8188639257541659e-05 0.0049550708706556298 0 -1.0173632292294082e-05 0.0049468357049798723 0 -3.2463303129404374e-05 0.0049081786425609064 0 -2.1189380509729035e-05 0.0049029635077924294 0 -3.5297952798500028e-05 0.0048992184802298866 0 -2.363247494155232e-05 0.0049176976221867339 0 -3.2463303129404374e-05 0.0049081786425609064 0 -2.1189380509729035e-05 0.0049029635077924294 0 -8.7140776475489384e-06 0.0049887177683695279 0 -7.3282478750609491e-10 0.0049999980889356846 0 -9.3043328823810357e-07 0.0049989707467685586 0 -7.3282478750609491e-10 0.0049999980889356846 0 -9.3043328823810357e-07 0.0049989707467685586 0 -5.1384853481888232e-10 0.0049999983867027196 0 -8.7140776475489384e-06 0.0049887177683695279 0 -7.3282478750609491e-10 0.0049999980889356846 0 -2.385112114173607e-08 0.004999948438348157 0 -8.7140776475489384e-06 0.0049887177683695279 0 -2.385112114173607e-08 0.004999948438348157 0 -2.9370499284733784e-05 0.0049510783150242413 0 -4.5455947100223169e-05 0.0049213423773718686 0 -2.363247494155232e-05 0.0049176976221867339 0 -2.9370499284733784e-05 0.0049510783150242413 0 -1.8188639257541659e-05 0.0049550708706556298 0 -2.7092881360356511e-05 0.0049539075308487343 0 -4.6053474546021091e-05 0.0049409780885342819 0 -2.9370499284733784e-05 0.0049510783150242413 0 -1.7228430572223439e-05 0.0049745275693400546 0 -2.385112114173607e-08 0.004999948438348157 0 -2.9370499284733784e-05 0.0049510783150242413 0 -1.7228430572223439e-05 0.0049745275693400546 0 -2.6064409322155269e-08 0.004999934641041876 0 -2.385112114173607e-08 0.004999948438348157 0 -1.7228430572223439e-05 0.0049745275693400546 0 -9.1433094819516785e-05 0.0031526494204518014 0 -6.9126156743894436e-05 0.0030921312817230092 0 -2.4854851898632511e-05 0.0031262320550528452 0 -9.1433094819516785e-05 0.0031526494204518014 0 -3.6568172762855901e-05 0.0031974843959322314 0 -2.4854851898632511e-05 0.0031262320550528452 0 -6.9126156743894436e-05 0.0030921312817230092 0 -2.4854851898632511e-05 0.0031262320550528452 0 -1.2495748167976934e-05 0.0030619971920708908 0 -6.9126156743894436e-05 0.0030921312817230092 0 -0.00012269372316390113 0.0031009483348930014 0 -0.00010702814862817579 0.0030540799112666419 0 -9.1433094819516785e-05 0.0031526494204518014 0 -6.9126156743894436e-05 0.0030921312817230092 0 -0.00012269372316390113 0.0031009483348930014 0 -9.1433094819516785e-05 0.0031526494204518014 0 -0.00012269372316390113 0.0031009483348930014 0 -0.00018825936236319826 0.0031257908827172225 0 -0.00010916080257592367 0.0031462807881579304 0 -0.00016101025250080388 0.0032878463262767232 0 -0.00012269372316390113 0.0031009483348930014 0 -0.00016078396422542407 0.0031178616164208475 0 -0.00015100816330074302 0.0030565290260330855 0 -0.00016101025250080388 0.0032878463262767232 0 -0.00011956871178649803 0.0032857276626164166 0 -0.00012938796451883938 0.0032977631979285603 0 -9.7558650170222595e-05 0.003352180537258108 0 -0.00014179971101802965 0.0033614996843692665 0 -9.1433094819516785e-05 0.0031526494204518014 0 -0.00018825936236319826 0.0031257908827172225 0 -0.0001381147847642554 0.0032415605298561044 0 -9.1433094819516785e-05 0.0031526494204518014 0 -0.0001381147847642554 0.0032415605298561044 0 -3.6568172762855901e-05 0.0031974843959322314 0 -0.0001381147847642554 0.0032415605298561044 0 -3.6568172762855901e-05 0.0031974843959322314 0 -6.5306946650976779e-05 0.0032898707872763247 0 -3.6568172762855901e-05 0.0031974843959322314 0 4.6096349645797918e-05 0.0032099503582639424 0 -6.5306946650976779e-05 0.0032898707872763247 0 4.6096349645797918e-05 0.0032099503582639424 0 1.6595183265341168e-05 0.0031550353470447775 0 7.4245367336811364e-05 0.0031491744638164326 0 -3.6568172762855901e-05 0.0031974843959322314 0 4.6096349645797918e-05 0.0032099503582639424 0 1.6595183265341168e-05 0.0031550353470447775 0 -3.6568172762855901e-05 0.0031974843959322314 0 1.6595183265341168e-05 0.0031550353470447775 0 -2.4854851898632511e-05 0.0031262320550528452 0 0.00012339283192839049 0.0031925623175187504 0 0.00012101297959011004 0.0031771004935025916 0 9.8988513799493967e-05 0.0031796341021627134 0 0.00010909544071668458 0.0031696486599664779 0 9.8286495750917369e-05 0.0031802442889620622 0 0.00010273766327053973 0.0031501211702108355 0 0.00012101297959011004 0.0031771004935025916 0 0.00010909544071668458 0.0031696486599664779 0 9.8988513799493967e-05 0.0031796341021627134 0 9.6579110023735319e-05 0.0031846140077939006 0 8.0481984943975396e-05 0.0032013746812167825 0 4.6096349645797918e-05 0.0032099503582639424 0 0.00011927420946972872 0.0032337968301635704 0 7.4245367336811364e-05 0.0031491744638164326 0 8.0481984943975396e-05 0.0032013746812167825 0 8.0274488739375872e-05 0.0031620811480561851 0 9.8286495750917369e-05 0.0031802442889620622 0 7.4245367336811364e-05 0.0031491744638164326 0 0.00010273766327053973 0.0031501211702108355 0 0.00012758895252374327 0.0031524565198869396 0 0.00010909544071668458 0.0031696486599664779 0 0.00010273766327053973 0.0031501211702108355 0 0.00012675053687496741 0.0030679311706188895 0 8.3417095012469414e-05 0.0031019465274441335 0 5.2044442573406551e-05 0.0030440853155742345 0 0.0001197740173753791 0.0031173016948234226 0 0.00010273766327053973 0.0031501211702108355 0 8.3417095012469414e-05 0.0031019465274441335 0 7.4245367336811364e-05 0.0031491744638164326 0 0.00010273766327053973 0.0031501211702108355 0 8.3417095012469414e-05 0.0031019465274441335 0 7.4245367336811364e-05 0.0031491744638164326 0 8.3417095012469414e-05 0.0031019465274441335 0 2.9499023181567241e-05 0.0031037098844109517 0 8.3417095012469414e-05 0.0031019465274441335 0 2.9499023181567241e-05 0.0031037098844109517 0 5.2044442573406551e-05 0.0030440853155742345 0 0.0001197740173753791 0.0031173016948234226 0 0.00012675053687496741 0.0030679311706188895 0 8.3417095012469414e-05 0.0031019465274441335 0 1.6595183265341168e-05 0.0031550353470447775 0 -2.4854851898632511e-05 0.0031262320550528452 0 2.9499023181567241e-05 0.0031037098844109517 0 1.6595183265341168e-05 0.0031550353470447775 0 7.4245367336811364e-05 0.0031491744638164326 0 2.9499023181567241e-05 0.0031037098844109517 0 -2.4854851898632511e-05 0.0031262320550528452 0 2.9499023181567241e-05 0.0031037098844109517 0 -1.2495748167976934e-05 0.0030619971920708908 0 -1.2495748167976934e-05 0.0030619971920708908 0 -1.9110518123622414e-05 0.0030065826825880688 0 5.2044442573406551e-05 0.0030440853155742345 0 -1.9110518123622414e-05 0.0030065826825880688 0 5.2044442573406551e-05 0.0030440853155742345 0 4.532415411022106e-05 0.0029800428970495735 0 2.9499023181567241e-05 0.0031037098844109517 0 -1.2495748167976934e-05 0.0030619971920708908 0 5.2044442573406551e-05 0.0030440853155742345 0 0.00012675053687496741 0.0030679311706188895 0 5.2044442573406551e-05 0.0030440853155742345 0 0.00010187560498904257 0.0030008600382964656 0 5.2044442573406551e-05 0.0030440853155742345 0 0.00010187560498904257 0.0030008600382964656 0 4.532415411022106e-05 0.0029800428970495735 0 9.1866958335870707e-05 0.0029213437626012255 0 0.00010187560498904257 0.0030008600382964656 0 4.532415411022106e-05 0.0029800428970495735 0 9.1866958335870707e-05 0.0029213437626012255 0 -3.1209600667020553e-06 0.0029381907420291922 0 4.532415411022106e-05 0.0029800428970495735 0 -3.1209600667020553e-06 0.0029381907420291922 0 -1.9110518123622414e-05 0.0030065826825880688 0 -5.1738498651476818e-05 0.002970337509898913 0 -3.1209600667020553e-06 0.0029381907420291922 0 -1.9110518123622414e-05 0.0030065826825880688 0 4.532415411022106e-05 0.0029800428970495735 0 -5.9596005610514715e-05 0.0029340099795805838 0 -3.1209600667020553e-06 0.0029381907420291922 0 -5.1738498651476818e-05 0.002970337509898913 0 -5.9596005610514715e-05 0.0029340099795805838 0 -5.1738498651476818e-05 0.002970337509898913 0 -9.2639867741370178e-05 0.0029680207367353585 0 -9.7485500529944741e-05 0.0029406745381246068 0 -5.9596005610514715e-05 0.0029340099795805838 0 -9.2639867741370178e-05 0.0029680207367353585 0 -5.1738498651476818e-05 0.002970337509898913 0 -8.6555348362674306e-05 0.0030083926476597478 0 -9.2639867741370178e-05 0.0029680207367353585 0 -1.9110518123622414e-05 0.0030065826825880688 0 -5.1738498651476818e-05 0.002970337509898913 0 -8.6555348362674306e-05 0.0030083926476597478 0 -1.2495748167976934e-05 0.0030619971920708908 0 -1.9110518123622414e-05 0.0030065826825880688 0 -6.0285562986965989e-05 0.003044578408330883 0 -1.9110518123622414e-05 0.0030065826825880688 0 -8.6555348362674306e-05 0.0030083926476597478 0 -6.0285562986965989e-05 0.003044578408330883 0 -8.6555348362674306e-05 0.0030083926476597478 0 -6.0285562986965989e-05 0.003044578408330883 0 -0.00010702814862817579 0.0030540799112666419 0 -6.9126156743894436e-05 0.0030921312817230092 0 -6.0285562986965989e-05 0.003044578408330883 0 -0.00010702814862817579 0.0030540799112666419 0 -6.9126156743894436e-05 0.0030921312817230092 0 -1.2495748167976934e-05 0.0030619971920708908 0 -6.0285562986965989e-05 0.003044578408330883 0 -0.00012269372316390113 0.0031009483348930014 0 -0.00015100816330074302 0.0030565290260330855 0 -0.00010702814862817579 0.0030540799112666419 0 -8.6555348362674306e-05 0.0030083926476597478 0 -0.00010702814862817579 0.0030540799112666419 0 -0.00012989508660083131 0.0030198691837618756 0 -0.00015100816330074302 0.0030565290260330855 0 -0.00010702814862817579 0.0030540799112666419 0 -0.00012989508660083131 0.0030198691837618756 0 -0.00015100816330074302 0.0030565290260330855 0 -0.0001588952013279746 0.0030207111375410438 0 -0.00012989508660083131 0.0030198691837618756 0 -0.00012989508660083131 0.0030198691837618756 0 -0.00014215011204000728 0.0029812585529055838 0 -0.00011602037429778071 0.0029906479074112381 0 -0.0001588952013279746 0.0030207111375410438 0 -0.00012989508660083131 0.0030198691837618756 0 -0.00014215011204000728 0.0029812585529055838 0 -0.00014215011204000728 0.0029812585529055838 0 -0.00011602037429778071 0.0029906479074112381 0 -0.00011794081491001425 0.0029643716070960843 0 -8.6555348362674306e-05 0.0030083926476597478 0 -0.00011602037429778071 0.0029906479074112381 0 -9.2639867741370178e-05 0.0029680207367353585 0 -8.6555348362674306e-05 0.0030083926476597478 0 -0.00012989508660083131 0.0030198691837618756 0 -0.00011602037429778071 0.0029906479074112381 0 -0.00014055239607698854 0.0029386890916143242 0 -9.7485500529944741e-05 0.0029406745381246068 0 -0.00011794081491001425 0.0029643716070960843 0 -0.00011602037429778071 0.0029906479074112381 0 -9.2639867741370178e-05 0.0029680207367353585 0 -0.00011794081491001425 0.0029643716070960843 0 -9.7485500529944741e-05 0.0029406745381246068 0 -9.2639867741370178e-05 0.0029680207367353585 0 -0.00011794081491001425 0.0029643716070960843 0 -0.00014055239607698854 0.0029386890916143242 0 -0.00014215011204000728 0.0029812585529055838 0 -0.00011794081491001425 0.0029643716070960843 0 -0.0002429735644825795 0.0031241180350392353 0 -0.00020663554784619461 0.0031675306774716018 0 -0.00036791375202175757 0.0033236970589336111 0 -0.00020663554784619461 0.0031675306774716018 0 -0.00036791375202175757 0.0033236970589336111 0 -0.00034817475326644735 0.0033576507693483079 0 -0.00010154740834044701 0.0035975563896184807 0 -0.00013599207917146001 0.0036098156294178808 0 -0.00017562615599518502 0.0030364540034567154 0 -0.00022472305126550648 0.0033131553953813114 0 -1.642065413558506e-05 0.0038200340654407825 0 -0.00012544679837995292 0.0038297942384455988 0 -6.4240878150251878e-05 0.0037358402663705279 0 -0.00014055239607698854 0.0029386890916143242 0 -0.00014215011204000728 0.0029812585529055838 0 -0.00021258722253001319 0.0030254002041532652 0 -0.0001588952013279746 0.0030207111375410438 0 -0.00014215011204000728 0.0029812585529055838 0 -0.00021258722253001319 0.0030254002041532652 0 6.0518146247869105e-06 0.0041986516965073009 0 -5.390470956187832e-05 0.0041916998263167365 0 -5.6246421086381038e-05 0.0039495158716170422 0 -3.169353653147691e-05 0.0039898073577337581 0 -8.5074429265809387e-05 0.0040036286742179544 0 6.0518146247869105e-06 0.0041986516965073009 0 -0.00013599207917146001 0.0036098156294178808 0 -0.00018036103712626637 0.0034627778512943308 0 -0.00018618658663577286 0.0034889719999561053 0 -0.00022309902673195482 0.0035296371905318489 0 -0.00013599207917146001 0.0036098156294178808 0 -0.00015069460940659088 0.0038244188005400227 0 -3.169353653147691e-05 0.0039898073577337581 0 -8.5074429265809387e-05 0.0040036286742179544 0 -6.5140599763534413e-05 0.0040457145055703718 0 -0.00016101025250080388 0.0032878463262767232 0 -0.00022472305126550648 0.0033131553953813114 0 -0.00013588290100100003 0.0035396123720751057 0 -0.00017457607461116329 0.003473438284952478 0 -0.00018618658663577286 0.0034889719999561053 0 -0.00016078396422542407 0.0031178616164208475 0 -0.00015100816330074302 0.0030565290260330855 0 -0.00021258722253001319 0.0030254002041532652 0 -0.00015100816330074302 0.0030565290260330855 0 -0.0001588952013279746 0.0030207111375410438 0 -0.00021258722253001319 0.0030254002041532652 0 -0.00018036103712626637 0.0034627778512943308 0 -0.00017407751396092359 0.0034734876732966575 0 -0.00018618658663577286 0.0034889719999561053 0 -0.00013599207917146001 0.0036098156294178808 0 -0.00022472305126550648 0.0033131553953813114 0 -0.00022472305126550648 0.0033131553953813114 0 -0.00024178937841464715 0.0034070447541337859 0 -3.2228071183228952e-05 0.0045159267342642605 0 -8.1524067553611577e-05 0.0046486827226808998 0 3.0189416083399524e-05 0.0047212631665029389 0 -2.0742903891142451e-05 0.0047233852131308394 0 2.2977918807667845e-05 0.0047579972196415072 0 -3.2228071183228952e-05 0.0045159267342642605 0 -1.3542301565981049e-05 0.0045590502455559179 0 1.45668771393669e-05 0.004332614234634458 0 -1.1729383557475693e-05 0.0043500475198509844 0 -1.241706381520413e-05 0.0043871149132851143 0 -4.7857874293513237e-05 0.0043766063836417398 0 -1.1729383557475693e-05 0.0043500475198509844 0 -1.241706381520413e-05 0.0043871149132851143 0 -4.1025656638254392e-05 0.0043406823915488448 0 1.45668771393669e-05 0.004332614234634458 0 -1.1729383557475693e-05 0.0043500475198509844 0 -4.1025656638254392e-05 0.0043406823915488448 0 -4.7857874293513237e-05 0.0043766063836417398 0 -1.1729383557475693e-05 0.0043500475198509844 0 -5.390470956187832e-05 0.0041916998263167365 0 -7.3974110901219313e-05 0.0042188063102871938 0 -1.241706381520413e-05 0.0043871149132851143 0 -4.0057989655629778e-05 0.0044072316270581885 0 -4.1145562274077077e-05 0.0044390748599725215 0 -4.7857874293513237e-05 0.0043766063836417398 0 -1.241706381520413e-05 0.0043871149132851143 0 -4.0057989655629778e-05 0.0044072316270581885 0 -2.1367779980804201e-05 0.0047863430446458471 0 2.2977918807667845e-05 0.0047579972196415072 0 -5.4778889782682411e-06 0.0048150786379492416 0 -4.7857874293513237e-05 0.0043766063836417398 0 -4.0057989655629778e-05 0.0044072316270581885 0 -5.9090164233758278e-05 0.0044341907381407033 0 -1.3542301565981049e-05 0.0045590502455559179 0 -3.1632494036637715e-05 0.0046585831934838791 0 -4.0057989655629778e-05 0.0044072316270581885 0 -5.9090164233758278e-05 0.0044341907381407033 0 -4.1145562274077077e-05 0.0044390748599725215 0 -0.00011931382216539513 0.0040626503986209107 0 -0.00010296868480199211 0.00410905670335105 0 -6.5140599763534413e-05 0.0040457145055703718 0 -8.5074429265809387e-05 0.0040036286742179544 0 -0.00011931382216539513 0.0040626503986209107 0 -6.5140599763534413e-05 0.0040457145055703718 0 -0.00017360165166601865 0.0037629776713946688 0 -0.00015069460940659088 0.0038244188005400227 0 -0.00011931382216539513 0.0040626503986209107 0 -0.00010296868480199211 0.00410905670335105 0 -0.00015583679049203093 0.004130476017466485 0 -7.3974110901219313e-05 0.0042188063102871938 0 -0.00010032603947895906 0.0044880878391910673 0 -3.1632494036637715e-05 0.0046585831934838791 0 -0.00010032603947895906 0.0044880878391910673 0 -0.00017360165166601865 0.0037629776713946688 0 -0.00010032603947895906 0.0044880878391910673 0 -5.9090164233758278e-05 0.0044341907381407033 0 -4.1145562274077077e-05 0.0044390748599725215 0 -7.1302222588275397e-05 0.0044914191358723741 0 -0.00013588290100100003 0.0035396123720751057 0 -0.00018390667025900876 0.0035310160232342371 0 -0.00020025244253073471 0.0035684255518179777 0 -0.00016101025250080388 0.0032878463262767232 0 -0.00020178198191156434 0.0034325741540867072 0 -0.00013588290100100003 0.0035396123720751057 0 -0.00018618658663577286 0.0034889719999561053 0 -0.00018390667025900876 0.0035310160232342371 0 -0.00018618658663577286 0.0034889719999561053 0 -0.00018390667025900876 0.0035310160232342371 0 -0.00022309902673195482 0.0035296371905318489 0 -0.00018390667025900876 0.0035310160232342371 0 -0.00022309902673195482 0.0035296371905318489 0 -0.00020025244253073471 0.0035684255518179777 0 -0.00026519361026968894 0.0035975877191419072 0 -0.00022309902673195482 0.0035296371905318489 0 -0.00020025244253073471 0.0035684255518179777 0 -0.00017360165166601865 0.0037629776713946688 0 -0.00020178198191156434 0.0034325741540867072 0 -0.0002601425737970132 0.0033530321518251095 0 -0.00019291746808015571 0.0033237805925195921 0 -0.00019413332926985854 0.0033921797430292999 0 -0.00012938796451883938 0.0032977631979285603 0 -0.00019291746808015571 0.0033237805925195921 0 -0.00014179971101802965 0.0033614996843692665 0 -0.00019291746808015571 0.0033237805925195921 0 -0.00014179971101802965 0.0033614996843692665 0 -0.00019413332926985854 0.0033921797430292999 0 -0.00014179971101802965 0.0033614996843692665 0 -0.00019413332926985854 0.0033921797430292999 0 -0.00013883138744133605 0.0034095220048353894 0 -0.00019413332926985854 0.0033921797430292999 0 -0.00020699718605278369 0.0034268589570971438 0 -0.00017619626342066063 0.0034333257355237267 0 -0.00020699718605278369 0.0034268589570971438 0 -0.00020540762487941471 0.0034604207820236529 0 -0.00024157540590889415 0.0034241494209862828 0 -0.00019413332926985854 0.0033921797430292999 0 -0.00020699718605278369 0.0034268589570971438 0 -0.00024157540590889415 0.0034241494209862828 0 -0.00020540762487941471 0.0034604207820236529 0 -0.00017619626342066063 0.0034333257355237267 0 -0.00017508069228914605 0.0034674022094088293 0 -0.00020699718605278369 0.0034268589570971438 0 -0.00020540762487941471 0.0034604207820236529 0 -0.00017619626342066063 0.0034333257355237267 0 -0.00014160408470856274 0.0034561692950770516 0 -0.00017619626342066063 0.0034333257355237267 0 -0.00017508069228914605 0.0034674022094088293 0 -0.00019413332926985854 0.0033921797430292999 0 -0.00013883138744133605 0.0034095220048353894 0 -0.00017619626342066063 0.0034333257355237267 0 -0.00014160408470856274 0.0034561692950770516 0 -0.00013883138744133605 0.0034095220048353894 0 -0.00011873966328916355 0.0034273938149792958 0 -0.00014160408470856274 0.0034561692950770516 0 -0.00013883138744133605 0.0034095220048353894 0 -0.00017619626342066063 0.0034333257355237267 0 -8.1739615804762419e-05 0.0040051124607192257 0 -0.00018812584045490449 0.0040445726478627476 0 -0.00015124935722811829 0.0041135605704519284 0 -0.00017360165166601865 0.0037629776713946688 0 -0.00020765714354970815 0.0036953800573112597 0 -0.00020271494958700584 0.0041232304954745801 0 -0.00018812584045490449 0.0040445726478627476 0 -0.00015124935722811829 0.0041135605704519284 0 -0.00020271494958700584 0.0041232304954745801 0 -0.00015124935722811829 0.0041135605704519284 0 -0.00020456447457961182 0.004132787727710998 0 -0.00015173167431127368 0.0044760026257731475 0 -0.00010032603947895906 0.0044880878391910673 0 -0.0002601425737970132 0.0033530321518251095 0 -0.00019413332926985854 0.0033921797430292999 0 -0.00024157540590889415 0.0034241494209862828 0 -0.0002601425737970132 0.0033530321518251095 0 -0.00029784978007930035 0.0034113592830266231 0 -0.00024157540590889415 0.0034241494209862828 0 -0.00029784978007930035 0.0034113592830266231 0 -0.00024157540590889415 0.0034241494209862828 0 -0.00027334678774240396 0.0034740194027332188 0 -0.00020540762487941471 0.0034604207820236529 0 -0.00024157540590889415 0.0034241494209862828 0 -0.00023348079122482136 0.0034893663462095162 0 -0.00024157540590889415 0.0034241494209862828 0 -0.00027334678774240396 0.0034740194027332188 0 -0.00023348079122482136 0.0034893663462095162 0 -0.00017583227928127609 0.0042324560099758508 0 -0.00020765714354970815 0.0036953800573112597 0 -0.00033697735090166181 0.0034733527019326022 0 -0.00029784978007930035 0.0034113592830266231 0 -0.00027334678774240396 0.0034740194027332188 0 -0.00022133856552807618 0.0042209159163142437 0 -0.00015124935722811829 0.0041135605704519284 0 -0.00020456447457961182 0.004132787727710998 0 -0.00015173167431127368 0.0044760026257731475 0 -0.00015841155601306213 0.004500678035587357 0 -0.00033697735090166181 0.0034733527019326022 0 -0.00027334678774240396 0.0034740194027332188 0 -0.00027299477953588374 0.003531093736093551 0 -0.00027334678774240396 0.0034740194027332188 0 -0.00023348079122482136 0.0034893663462095162 0 -0.00027299477953588374 0.003531093736093551 0 -0.00023348079122482136 0.0034893663462095162 0 -0.00027299477953588374 0.003531093736093551 0 -0.00021961487071650259 0.0035432235582474429 0 -0.00027299477953588374 0.003531093736093551 0 -0.00021961487071650259 0.0035432235582474429 0 -0.0002586222367993029 0.0035974280203441384 0 -0.00033697735090166181 0.0034733527019326022 0 -0.00035517388779979415 0.0035683920007363945 0 -0.00027299477953588374 0.003531093736093551 0 -0.00035517388779979415 0.0035683920007363945 0 -0.00027299477953588374 0.003531093736093551 0 -0.0002586222367993029 0.0035974280203441384 0 -0.00016163488529689272 0.0034954807741651595 0 -0.00017508069228914605 0.0034674022094088293 0 -0.00019477252140619612 0.0034965690216305829 0 -0.00016163488529689272 0.0034954807741651595 0 -0.00014574716728432753 0.0035074632338382536 0 -0.00016250111015712974 0.0035208260496557725 0 -0.00016163488529689272 0.0034954807741651595 0 -0.00014574716728432753 0.0035074632338382536 0 -0.00013568162427501039 0.0034843958291978475 0 -0.00014160408470856274 0.0034561692950770516 0 -0.00016163488529689272 0.0034954807741651595 0 -0.00013568162427501039 0.0034843958291978475 0 -0.00014160408470856274 0.0034561692950770516 0 -0.00013568162427501039 0.0034843958291978475 0 -0.00012544579760567177 0.0034692902907019233 0 -0.00014160408470856274 0.0034561692950770516 0 -0.00016163488529689272 0.0034954807741651595 0 -0.00017508069228914605 0.0034674022094088293 0 -0.00023348079122482136 0.0034893663462095162 0 -0.00019477252140619612 0.0034965690216305829 0 -0.00021961487071650259 0.0035432235582474429 0 -0.00020540762487941471 0.0034604207820236529 0 -0.00017508069228914605 0.0034674022094088293 0 -0.00019477252140619612 0.0034965690216305829 0 -0.00020540762487941471 0.0034604207820236529 0 -0.00023348079122482136 0.0034893663462095162 0 -0.00019477252140619612 0.0034965690216305829 0 -0.00016163488529689272 0.0034954807741651595 0 -0.00019477252140619612 0.0034965690216305829 0 -0.00018153905366230961 0.0035290145584581673 0 -0.00019477252140619612 0.0034965690216305829 0 -0.00018153905366230961 0.0035290145584581673 0 -0.00021961487071650259 0.0035432235582474429 0 -0.00018153905366230961 0.0035290145584581673 0 -0.00021961487071650259 0.0035432235582474429 0 -0.00018627781360231737 0.0035609212884020573 0 -0.00018153905366230961 0.0035290145584581673 0 -0.00016268736678312144 0.0035498133152708179 0 -0.00018627781360231737 0.0035609212884020573 0 -0.00016049886965888955 0.0035436164133248859 0 -0.00011669811871671808 0.0034711958997169284 0 -0.00018153905366230961 0.0035290145584581673 0 -0.00016268736678312144 0.0035498133152708179 0 -0.00016250111015712974 0.0035208260496557725 0 -0.00014574716728432753 0.0035074632338382536 0 -0.00016268736678312144 0.0035498133152708179 0 -0.00010621199987805002 0.0034847710178000698 0 -0.00016268736678312144 0.0035498133152708179 0 -0.00014436878046748293 0.0035229399164404302 0 -0.00012759386950617136 0.0034567660515772377 0 -0.00016163488529689272 0.0034954807741651595 0 -0.00018153905366230961 0.0035290145584581673 0 -0.00016250111015712974 0.0035208260496557725 0 -0.00014574716728432753 0.0035074632338382536 0 -0.00016268736678312144 0.0035498133152708179 0 -0.00016250111015712974 0.0035208260496557725 0 -0.00016268736678312144 0.0035498133152708179 0 -0.00014436878046748293 0.0035229399164404302 0 -0.0001431085011736819 0.0035604025842743297 0 -0.00014436878046748293 0.0035229399164404302 0 -0.00013253033729538683 0.0035166348877280038 0 -0.0001431085011736819 0.0035604025842743297 0 -0.00014436878046748293 0.0035229399164404302 0 -0.00013253033729538683 0.0035166348877280038 0 -0.0001370399516015383 0.0035106453144534075 0 -0.0001370399516015383 0.0035106453144534075 0 -0.00014533638047311052 0.0034990821669646415 0 -0.00013346979784699614 0.0035082378519889681 0 -0.00013253033729538683 0.0035166348877280038 0 -0.0001370399516015383 0.0035106453144534075 0 -0.00014533638047311052 0.0034990821669646415 0 -0.00014436878046748293 0.0035229399164404302 0 -0.0001370399516015383 0.0035106453144534075 0 -0.00013346979784699614 0.0035082378519889681 0 -0.00014345831337945244 0.0035184107241564436 0 -0.00012369705042863176 0.003494488736636873 0 -0.00013253033729538683 0.0035166348877280038 0 -0.00014533638047311052 0.0034990821669646415 0 -0.0001798276741856157 0.0034584925426523949 0 -0.00014533638047311052 0.0034990821669646415 0 -0.0001798276741856157 0.0034584925426523949 0 -0.00016436134735313315 0.0035090113715147211 0 -0.0001798276741856157 0.0034584925426523949 0 -0.00016436134735313315 0.0035090113715147211 0 -0.00024577633373726993 0.0035235880158147707 0 -0.00016436134735313315 0.0035090113715147211 0 -0.00016565174892639315 0.0035574518657838345 0 -0.00024577633373726993 0.0035235880158147707 0 -0.00014533638047311052 0.0034990821669646415 0 -0.00016436134735313315 0.0035090113715147211 0 -0.00013346979784699614 0.0035082378519889681 0 -0.00016436134735313315 0.0035090113715147211 0 -0.00013346979784699614 0.0035082378519889681 0 -0.00016565174892639315 0.0035574518657838345 0 -0.00012369705042863176 0.003494488736636873 0 -0.00016176869883060483 0.0034435361399991517 0 -0.00014436878046748293 0.0035229399164404302 0 -0.00012759386950617136 0.0034567660515772377 0 -0.00011391270805569675 0.0034746834996491373 0 -0.00014574716728432753 0.0035074632338382536 0 -0.00013568162427501039 0.0034843958291978475 0 -0.00010621199987805002 0.0034847710178000698 0 -0.00012759386950617136 0.0034567660515772377 0 -0.00011391270805569675 0.0034746834996491373 0 -5.6575780768499522e-05 0.0034142536943015931 0 -0.00014160408470856274 0.0034561692950770516 0 -0.00012544579760567177 0.0034692902907019233 0 -0.00011676773414609761 0.0034526626217094756 0 -0.00013568162427501039 0.0034843958291978475 0 -0.00010621199987805002 0.0034847710178000698 0 -0.00012544579760567177 0.0034692902907019233 0 -0.00010621199987805002 0.0034847710178000698 0 -0.00012544579760567177 0.0034692902907019233 0 -0.00011676773414609761 0.0034526626217094756 0 -0.00014160408470856274 0.0034561692950770516 0 -0.00011676773414609761 0.0034526626217094756 0 -0.00011873966328916355 0.0034273938149792958 0 -0.00010621199987805002 0.0034847710178000698 0 -0.00011676773414609761 0.0034526626217094756 0 -9.285562469791638e-05 0.003421910297628874 0 -0.00013883138744133605 0.0034095220048353894 0 -0.00011873966328916355 0.0034273938149792958 0 -0.00010333067506729101 0.003391795448324833 0 -9.285562469791638e-05 0.003421910297628874 0 -6.2199239745209842e-05 0.0033907906485112637 0 -0.00010333067506729101 0.003391795448324833 0 -0.00011873966328916355 0.0034273938149792958 0 -9.285562469791638e-05 0.003421910297628874 0 -0.00010333067506729101 0.003391795448324833 0 -0.00011676773414609761 0.0034526626217094756 0 -0.00011873966328916355 0.0034273938149792958 0 -9.285562469791638e-05 0.003421910297628874 0 -0.00010621199987805002 0.0034847710178000698 0 -9.285562469791638e-05 0.003421910297628874 0 -5.0841502109906431e-05 0.003388949907134957 0 -5.6575780768499522e-05 0.0034142536943015931 0 -4.7265570381911491e-05 0.003338325404639702 0 2.8314574111451007e-05 0.003327195702910484 0 -0.00011669811871671808 0.0034711958997169284 0 -4.8359636534582018e-05 0.0033610111888759571 0 -0.00012759386950617136 0.0034567660515772377 0 -5.6575780768499522e-05 0.0034142536943015931 0 -4.7265570381911491e-05 0.003338325404639702 0 -9.285562469791638e-05 0.003421910297628874 0 -5.0841502109906431e-05 0.003388949907134957 0 -6.2199239745209842e-05 0.0033907906485112637 0 -0.00011956871178649803 0.0032857276626164166 0 -6.3988186012580838e-05 0.0033895636346997168 0 -0.0001381147847642554 0.0032415605298561044 0 -6.2199239745209842e-05 0.0033907906485112637 0 -6.5306946650976779e-05 0.0032898707872763247 0 4.6096349645797918e-05 0.0032099503582639424 0 -5.0841502109906431e-05 0.003388949907134957 0 -6.5306946650976779e-05 0.0032898707872763247 0 -5.0841502109906431e-05 0.003388949907134957 0 -6.2199239745209842e-05 0.0033907906485112637 0 -6.5306946650976779e-05 0.0032898707872763247 0 -9.7558650170222595e-05 0.003352180537258108 0 -0.00014179971101802965 0.0033614996843692665 0 -0.00010333067506729101 0.003391795448324833 0 -9.7558650170222595e-05 0.003352180537258108 0 -6.2199239745209842e-05 0.0033907906485112637 0 -0.00010333067506729101 0.003391795448324833 0 -0.00014179971101802965 0.0033614996843692665 0 -0.00013883138744133605 0.0034095220048353894 0 -0.00010333067506729101 0.003391795448324833 0 6.4342428842894818e-05 0.0032059314469145739 0 -0.0001338136236777052 0.0032567205281115075 0 -0.00010983143325728388 0.0033066539190124383 0 8.0481984943975396e-05 0.0032013746812167825 0 -5.1427012922934249e-05 0.0032835559033125693 0 1.5637978926981844e-05 0.0031054803208670117 0 6.4342428842894818e-05 0.0032059314469145739 0 -0.0001338136236777052 0.0032567205281115075 0 -5.1246497702996448e-05 0.0028513764164970288 0 -0.00024674196134369446 0.0035302383050116 0 0.00012339283192839049 0.0031925623175187504 0 9.8988513799493967e-05 0.0031796341021627134 0 0.00011516276291240729 0.0032108491967321249 0 8.0481984943975396e-05 0.0032013746812167825 0 -5.1246497702996448e-05 0.0028513764164970288 0 4.6096349645797918e-05 0.0032099503582639424 0 -4.7265570381911491e-05 0.003338325404639702 0 2.8314574111451007e-05 0.003327195702910484 0 4.2110421148127258e-05 0.0032205454641760695 0 -4.8359636534582018e-05 0.0033610111888759571 0 4.6096349645797918e-05 0.0032099503582639424 0 0.00011927420946972872 0.0032337968301635704 0 2.8314574111451007e-05 0.003327195702910484 0 -0.00016176869883060483 0.0034435361399991517 0 -0.00024674196134369446 0.0035302383050116 0 -0.00016565174892639315 0.0035574518657838345 0 -0.00026476351294375702 0.0036111708496895482 0 -0.00024577633373726993 0.0035235880158147707 0 -0.00027839576658584419 0.0034061117792241161 0 -0.0001338136236777052 0.0032567205281115075 0 -0.00010983143325728388 0.0033066539190124383 0 -0.00016176869883060483 0.0034435361399991517 0 -5.1427012922934249e-05 0.0032835559033125693 0 -0.00026476351294375702 0.0036111708496895482 0 -0.00033628605432906218 0.0035649458102485036 0 -0.00024577633373726993 0.0035235880158147707 0 -0.00036695581926779643 0.0036613183710188873 0 -0.00026476351294375702 0.0036111708496895482 0 -0.00033628605432906218 0.0035649458102485036 0 -0.00033628605432906218 0.0035649458102485036 0 -0.00024577633373726993 0.0035235880158147707 0 -0.00033919531285348436 0.003449899981403591 0 -0.00043546429256350981 0.0035397580937374623 0 -0.00033628605432906218 0.0035649458102485036 0 -0.00033919531285348436 0.003449899981403591 0 -0.0001798276741856157 0.0034584925426523949 0 -0.00024577633373726993 0.0035235880158147707 0 -0.00033919531285348436 0.003449899981403591 0 -0.0001798276741856157 0.0034584925426523949 0 -0.00033919531285348436 0.003449899981403591 0 -0.00024234121068394824 0.0033062291616484788 0 -0.00033919531285348436 0.003449899981403591 0 -0.0003537347765127189 0.0032969905490377528 0 -0.00024234121068394824 0.0033062291616484788 0 -0.00033919531285348436 0.003449899981403591 0 -0.0003537347765127189 0.0032969905490377528 0 -0.00044562206083538893 0.0033273091432010514 0 -0.00024234121068394824 0.0033062291616484788 0 -0.00033408643181175452 0.0031970385813401042 0 -0.00024594896836008099 0.0031843064404209146 0 -0.0003537347765127189 0.0032969905490377528 0 -0.00024234121068394824 0.0033062291616484788 0 -0.00033408643181175452 0.0031970385813401042 0 -0.0003537347765127189 0.0032969905490377528 0 -0.00033408643181175452 0.0031970385813401042 0 -0.00045262449615143688 0.0032152616137025667 0 -0.00033408643181175452 0.0031970385813401042 0 -0.00024594896836008099 0.0031843064404209146 0 -0.00029317854524591114 0.0030728078260327707 0 -0.00024594896836008099 0.0031843064404209146 0 -0.00029317854524591114 0.0030728078260327707 0 -0.00020191154583547012 0.00310992654372218 0 -0.00029317854524591114 0.0030728078260327707 0 -0.00035096599224539621 0.0029901109048152291 0 -0.00039359661152666678 0.003100056394103302 0 -0.00033408643181175452 0.0031970385813401042 0 -0.00029317854524591114 0.0030728078260327707 0 -0.00039359661152666678 0.003100056394103302 0 -0.00020191154583547012 0.00310992654372218 0 -0.0001454167476363273 0.0031296890540381049 0 -0.00014834113614386701 0.003266368310608414 0 -0.00024594896836008099 0.0031843064404209146 0 -0.00020191154583547012 0.00310992654372218 0 -0.00014834113614386701 0.003266368310608414 0 -0.00020191154583547012 0.00310992654372218 0 -0.0001454167476363273 0.0031296890540381049 0 -0.00018906652958427953 0.0030529178888012635 0 -0.00029317854524591114 0.0030728078260327707 0 -0.00020191154583547012 0.00310992654372218 0 -0.00022760764994570875 0.0030368961551956552 0 -0.00020191154583547012 0.00310992654372218 0 -0.00022760764994570875 0.0030368961551956552 0 -0.00018906652958427953 0.0030529178888012635 0 -0.00013115943244617058 0.0034215430258361006 0 -0.00013058731988980506 0.0034286479969363745 0 -0.00010910061517787863 0.0037057689426879536 0 -9.7514459578988826e-05 0.0035787775363535549 0 -0.00015663597719273414 0.0036255782930814445 0 -0.00024234121068394824 0.0033062291616484788 0 -0.00024594896836008099 0.0031843064404209146 0 -0.00014834113614386701 0.003266368310608414 0 -0.00017813491310164905 0.0034667994928823595 0 -0.00013058731988980506 0.0034286479969363745 0 -0.00013253033729538683 0.0035166348877280038 0 -0.0001798276741856157 0.0034584925426523949 0 -9.7514459578988826e-05 0.0035787775363535549 0 -0.0001798276741856157 0.0034584925426523949 0 -0.00024234121068394824 0.0033062291616484788 0 -0.00014834113614386701 0.003266368310608414 0 -9.7514459578988826e-05 0.0035787775363535549 0 -0.0001431085011736819 0.0035604025842743297 0 -0.00015663597719273414 0.0036255782930814445 0 -0.00013253033729538683 0.0035166348877280038 0 -9.7514459578988826e-05 0.0035787775363535549 0 -0.0001431085011736819 0.0035604025842743297 0 -0.00016268736678312144 0.0035498133152708179 0 -0.0001431085011736819 0.0035604025842743297 0 -0.00016946598495676553 0.0035774042485817296 0 -0.0001431085011736819 0.0035604025842743297 0 -0.00016946598495676553 0.0035774042485817296 0 -0.00015663597719273414 0.0036255782930814445 0 -0.00016268736678312144 0.0035498133152708179 0 -0.00016946598495676553 0.0035774042485817296 0 -0.00018627781360231737 0.0035609212884020573 0 -0.00021961487071650259 0.0035432235582474429 0 -0.00018627781360231737 0.0035609212884020573 0 -0.00020287207377869842 0.0035954149813497093 0 -0.00016946598495676553 0.0035774042485817296 0 -0.00018627781360231737 0.0035609212884020573 0 -0.00020287207377869842 0.0035954149813497093 0 -0.00016946598495676553 0.0035774042485817296 0 -0.00020287207377869842 0.0035954149813497093 0 -0.00015663597719273414 0.0036255782930814445 0 -0.00020287207377869842 0.0035954149813497093 0 -0.00015663597719273414 0.0036255782930814445 0 -0.0002212684405687401 0.0036687105802264029 0 -0.00015663597719273414 0.0036255782930814445 0 -0.0002212684405687401 0.0036687105802264029 0 -0.00017163365521706041 0.003693914348404017 0 -0.00035517388779979415 0.0035683920007363945 0 -0.0002586222367993029 0.0035974280203441384 0 -0.00029586875687094116 0.0036733889414071598 0 -0.00021961487071650259 0.0035432235582474429 0 -0.00020287207377869842 0.0035954149813497093 0 -0.0002586222367993029 0.0035974280203441384 0 -0.00020287207377869842 0.0035954149813497093 0 -0.0002586222367993029 0.0035974280203441384 0 -0.0002212684405687401 0.0036687105802264029 0 -0.0002586222367993029 0.0035974280203441384 0 -0.0002212684405687401 0.0036687105802264029 0 -0.00029586875687094116 0.0036733889414071598 0 -0.00029586875687094116 0.0036733889414071598 0 -0.0002631333242804401 0.0037734600235748515 0 -0.00032356991795374612 0.0037525016550810459 0 -0.0002212684405687401 0.0036687105802264029 0 -0.0002631333242804401 0.0037734600235748515 0 -0.00020640759202353971 0.003759572620209701 0 -0.0002212684405687401 0.0036687105802264029 0 -0.00029586875687094116 0.0036733889414071598 0 -0.0002631333242804401 0.0037734600235748515 0 -0.0002631333242804401 0.0037734600235748515 0 -0.00020640759202353971 0.003759572620209701 0 -0.00022198233654127701 0.0038399114729742159 0 -0.0002631333242804401 0.0037734600235748515 0 -0.00026722394123408397 0.0038673858637093346 0 -0.00022198233654127701 0.0038399114729742159 0 -0.0002631333242804401 0.0037734600235748515 0 -0.00032356991795374612 0.0037525016550810459 0 -0.00030732044053234935 0.0038406682707562358 0 -0.0002631333242804401 0.0037734600235748515 0 -0.00026722394123408397 0.0038673858637093346 0 -0.00030732044053234935 0.0038406682707562358 0 -0.00010910061517787863 0.0037057689426879536 0 -0.00015663597719273414 0.0036255782930814445 0 -0.00017163365521706041 0.003693914348404017 0 -0.00010910061517787863 0.0037057689426879536 0 -0.00017163365521706041 0.003693914348404017 0 -0.0001488070695332037 0.0038230513377232453 0 -0.0002212684405687401 0.0036687105802264029 0 -0.00017163365521706041 0.003693914348404017 0 -0.00020640759202353971 0.003759572620209701 0 -0.00020640759202353971 0.003759572620209701 0 -0.0001488070695332037 0.0038230513377232453 0 -0.00022198233654127701 0.0038399114729742159 0 -0.00017163365521706041 0.003693914348404017 0 -0.00020640759202353971 0.003759572620209701 0 -0.0001488070695332037 0.0038230513377232453 0 -0.0001454167476363273 0.0031296890540381049 0 -0.00019461807237745705 0.0030291785248005676 0 -0.00018906652958427953 0.0030529178888012635 0 -0.00013115943244617058 0.0034215430258361006 0 -0.00017660689440332234 0.0034293385625032667 0 -0.00019461807237745705 0.0030291785248005676 0 -0.00023592527314483829 0.0030558174148711576 0 -0.00019761461225192102 0.0030377858791101942 0 -0.00019461807237745705 0.0030291785248005676 0 -0.00018906652958427953 0.0030529178888012635 0 -0.00019761461225192102 0.0030377858791101942 0 -0.00017660689440332234 0.0034293385625032667 0 -0.00027954250986295039 0.0034967664443423399 0 -0.0001488070695332037 0.0038230513377232453 0 -0.00020321049512106175 0.0039129814901268222 0 -0.00022198233654127701 0.0038399114729742159 0 -0.00035029594968459153 0.0030534731786105293 0 -0.00023592527314483829 0.0030558174148711576 0 -0.00035804372018169629 0.0031730167204835147 0 -0.00019461807237745705 0.0030291785248005676 0 -0.00035029594968459153 0.0030534731786105293 0 -0.00023592527314483829 0.0030558174148711576 0 -0.00023592527314483829 0.0030558174148711576 0 -0.00022232309013949111 0.0031307119460985003 0 -0.00020069015807674988 0.0030475453373480905 0 -0.00023592527314483829 0.0030558174148711576 0 -0.00019761461225192102 0.0030377858791101942 0 -0.00020069015807674988 0.0030475453373480905 0 -0.00026722394123408397 0.0038673858637093346 0 -0.00026906131957899561 0.0039178380899600618 0 -0.00028933775888627833 0.0039028190357802647 0 -0.00026722394123408397 0.0038673858637093346 0 -0.00022198233654127701 0.0038399114729742159 0 -0.00024384324354331124 0.0038960720283293415 0 -0.00020321049512106175 0.0039129814901268222 0 -0.00024384324354331124 0.0038960720283293415 0 -0.00025000728065980844 0.0039256159802033095 0 -0.00020321049512106175 0.0039129814901268222 0 -0.00022198233654127701 0.0038399114729742159 0 -0.00024384324354331124 0.0038960720283293415 0 -0.00026722394123408397 0.0038673858637093346 0 -0.00024384324354331124 0.0038960720283293415 0 -0.00026906131957899561 0.0039178380899600618 0 -0.00024384324354331124 0.0038960720283293415 0 -0.00026906131957899561 0.0039178380899600618 0 -0.00025000728065980844 0.0039256159802033095 0 -0.00026906131957899561 0.0039178380899600618 0 -0.00025000728065980844 0.0039256159802033095 0 -0.00027157110981205411 0.0039411647714554764 0 -0.00025000728065980844 0.0039256159802033095 0 -0.00024647706118252887 0.0039500104117753676 0 -0.00027157110981205411 0.0039411647714554764 0 -0.00035029594968459153 0.0030534731786105293 0 -0.00056734027212414066 0.0032766702746771415 0 -0.00035804372018169629 0.0031730167204835147 0 -0.00020321049512106175 0.0039129814901268222 0 -0.00025000728065980844 0.0039256159802033095 0 -0.00024647706118252887 0.0039500104117753676 0 -0.00027954250986295039 0.0034967664443423399 0 -0.00040966515093878862 0.0035740908285661248 0 -0.00056734027212414066 0.0032766702746771415 0 -0.00034107901323169015 0.0033478357842192086 0 -0.00052678603513399262 0.0034756392552422084 0 -0.00024647706118252887 0.0039500104117753676 0 -0.0002656958525951493 0.00395448479507931 0 -0.00026356830028437082 0.0039679910192480959 0 -0.00024647706118252887 0.0039500104117753676 0 -0.0002656958525951493 0.00395448479507931 0 -0.00027157110981205411 0.0039411647714554764 0 -0.00022232309013949111 0.0031307119460985003 0 -0.00016323515704904485 0.0032465780202544261 0 -0.00010351333466921713 0.0030513586519392857 0 -0.00023592527314483829 0.0030558174148711576 0 -0.00022232309013949111 0.0031307119460985003 0 -0.00035804372018169629 0.0031730167204835147 0 -0.00022232309013949111 0.0031307119460985003 0 -0.00035804372018169629 0.0031730167204835147 0 -0.00034107901323169015 0.0033478357842192086 0 -0.00056734027212414066 0.0032766702746771415 0 -0.00035804372018169629 0.0031730167204835147 0 -0.00034107901323169015 0.0033478357842192086 0 -0.00034107901323169015 0.0033478357842192086 0 -0.00016323515704904485 0.0032465780202544261 0 -0.00015454939422602612 0.0034249017287206556 0 -0.00022232309013949111 0.0031307119460985003 0 -0.00034107901323169015 0.0033478357842192086 0 -0.00016323515704904485 0.0032465780202544261 0 -0.00016323515704904485 0.0032465780202544261 0 6.2626275021465011e-06 0.0032973350735887542 0 -0.00015454939422602612 0.0034249017287206556 0 6.2626275021465011e-06 0.0032973350735887542 0 4.7253717101747499e-05 0.0035110297779717783 0 -0.00015454939422602612 0.0034249017287206556 0 6.2626275021465011e-06 0.0032973350735887542 0 0.00015753244239352643 0.0033642729225686692 0 4.7253717101747499e-05 0.0035110297779717783 0 -0.00016323515704904485 0.0032465780202544261 0 6.2626275021465011e-06 0.0032973350735887542 0 -0.00010351333466921713 0.0030513586519392857 0 -0.00010351333466921713 0.0030513586519392857 0 9.2491788487849461e-06 0.0029307669022960257 0 1.0483607068756619e-05 0.0028746562524232695 0 -0.00022232309013949111 0.0031307119460985003 0 -0.00010351333466921713 0.0030513586519392857 0 9.2491788487849461e-06 0.0029307669022960257 0 -0.00022232309013949111 0.0031307119460985003 0 -0.00019587365451151514 0.0030076502525516096 0 -0.00020069015807674988 0.0030475453373480905 0 -8.8745740031111441e-05 0.0030349584178677837 0 7.1204536816730964e-05 0.0030229315471845394 0 6.2626275021465011e-06 0.0032973350735887542 0 -0.00010351333466921713 0.0030513586519392857 0 0.00020511809697903907 0.0031822343012912159 0 -0.00021199760134935043 0.0031030499716113115 0 -9.8456244129695091e-05 0.0029789910337117741 0 -9.8456244129695091e-05 0.0029789910337117741 0 -0.00020068229007481436 0.0029009248873785158 0 9.2491788487849461e-06 0.0029307669022960257 0 1.0483607068756619e-05 0.0028746562524232695 0 -0.00010768206975880925 0.0028745613844538827 0 0.00020511809697903907 0.0031822343012912159 0 0.00015753244239352643 0.0033642729225686692 0 0.00030527840525980214 0.0033689847824124272 0 6.2626275021465011e-06 0.0032973350735887542 0 0.00020511809697903907 0.0031822343012912159 0 0.00015753244239352643 0.0033642729225686692 0 0.00046487438204205825 0.0032808394416432743 0 0.00030527840525980214 0.0033689847824124272 0 0.00047269209894233082 0.0035208323468779871 0 0.00020511809697903907 0.0031822343012912159 0 0.00046487438204205825 0.0032808394416432743 0 0.00030527840525980214 0.0033689847824124272 0 7.1204536816730964e-05 0.0030229315471845394 0 0.00024134392502802522 0.003036231033662018 0 0.00024134392502802522 0.003036231033662018 0 -0.00013905644390612139 0.0027377073577881843 0 -0.00012396302469106849 0.0027234964924484064 0 -0.00031431892784314157 0.0026124935248289689 0 -0.00029319021168900473 0.0026947558157374815 0 0.00046487438204205825 0.0032808394416432743 0 0.00060950163363542986 0.0034803400239681631 0 0.00072093006789803978 0.0033622606357068849 0 -0.00012396302469106849 0.0027234964924484064 0 -0.00025114523818281796 0.002781906113502495 0 -0.00029319021168900473 0.0026947558157374815 0 -0.00012396302469106849 0.0027234964924484064 0 -0.00025114523818281796 0.002781906113502495 0 -0.00010768206975880925 0.0028745613844538827 0 -0.00020068229007481436 0.0029009248873785158 0 -0.00039697042013345604 0.0028729118021954738 0 -0.00025114523818281796 0.002781906113502495 0 -0.00010768206975880925 0.0028745613844538827 0 -0.00040738835998150431 0.0028643948852318866 0 1.0483607068756619e-05 0.0028746562524232695 0 -0.00012396302469106849 0.0027234964924484064 0 -0.00010768206975880925 0.0028745613844538827 0 -0.00028322709434929069 0.002927708245355458 0 -0.00027799339163951767 0.0029991518409931239 0 -0.00023386971048278639 0.0029990977343128046 0 -0.00028322709434929069 0.002927708245355458 0 -0.00035096599224539621 0.0029901109048152291 0 -0.00040738835998150431 0.0028643948852318866 0 -0.00028322709434929069 0.002927708245355458 0 -0.00027799339163951767 0.0029991518409931239 0 -0.00035096599224539621 0.0029901109048152291 0 -0.00029317854524591114 0.0030728078260327707 0 -0.00027799339163951767 0.0029991518409931239 0 -0.00035096599224539621 0.0029901109048152291 0 -0.00029317854524591114 0.0030728078260327707 0 -0.00027799339163951767 0.0029991518409931239 0 -0.00022760764994570875 0.0030368961551956552 0 -0.00027799339163951767 0.0029991518409931239 0 -0.00022760764994570875 0.0030368961551956552 0 -0.00023386971048278639 0.0029990977343128046 0 -0.00022760764994570875 0.0030368961551956552 0 -0.00018906652958427953 0.0030529178888012635 0 -0.00020218532927586749 0.0030231903895719574 0 -0.00018906652958427953 0.0030529178888012635 0 -0.00020218532927586749 0.0030231903895719574 0 -0.00019761461225192102 0.0030377858791101942 0 -0.00019587365451151514 0.0030076502525516096 0 -0.00020218532927586749 0.0030231903895719574 0 -0.00020069015807674988 0.0030475453373480905 0 -0.00020218532927586749 0.0030231903895719574 0 -0.00019761461225192102 0.0030377858791101942 0 -0.00020069015807674988 0.0030475453373480905 0 -0.00019587365451151514 0.0030076502525516096 0 -0.00020218532927586749 0.0030231903895719574 0 -0.00023386971048278639 0.0029990977343128046 0 -0.00019587365451151514 0.0030076502525516096 0 -0.00028322709434929069 0.002927708245355458 0 -0.00023386971048278639 0.0029990977343128046 0 -0.00022760764994570875 0.0030368961551956552 0 -0.00020218532927586749 0.0030231903895719574 0 -0.00023386971048278639 0.0029990977343128046 0 1.0836793589770396e-07 0.0049975226395795602 0 9.4846618557086918e-10 0.0049999966713992197 0 7.7039173177368697e-08 0.0049994159768022243 0 1.0836793589770396e-07 0.0049975226395795602 0 9.4846618557086918e-10 0.0049999966713992197 0 3.4282876518933221e-10 0.004999994990768101 0 1.0836793589770396e-07 0.0049975226395795602 0 -1.9801253407037962e-06 0.0049982737106939925 0 -2.1617982470582495e-06 0.0049945465408741821 0 1.0836793589770396e-07 0.0049975226395795602 0 7.7039173177368697e-08 0.0049994159768022243 0 -1.9801253407037962e-06 0.0049982737106939925 0 -1.1535963020856237e-07 0.0049996060309492824 0 -1.8606770228025581e-07 0.0049995279228720636 0 -6.03407302578937e-07 0.0049984781654272897 0 -3.1346130441398989e-05 0.0048988512831185183 0 -7.7878548470030635e-06 0.0048815764817168247 0 -8.991600351092555e-06 0.0049009425956574228 0 -9.8042378557716842e-06 0.0049715664062289517 0 -1.7233446382071263e-05 0.0048890167916883411 0 -9.8042378557716842e-06 0.0049715664062289517 0 -8.5180332042152872e-06 0.0049495407279014549 0 4.4319548235819757e-11 0.0049999993304203731 0 -5.166259132260784e-10 0.0049999984857980609 0 -1.8606770228025581e-07 0.0049995279228720636 0 -9.8042378557716842e-06 0.0049715664062289517 0 3.0138460217326042e-09 0.0049999773991596681 0 -1.1110599603000848e-08 0.0049999864956123243 0 -9.8042378557716842e-06 0.0049715664062289517 0 1.5642567166713476e-11 0.0049999998982598213 0 -8.409345180627791e-08 0.0049998753025759296 0 -6.8065363794464801e-11 0.0049999999402907183 0 -1.1535963020856237e-07 0.0049996060309492824 0 4.4319548235819757e-11 0.0049999993304203731 0 -1.8606770228025581e-07 0.0049995279228720636 0 -1.8606770228025581e-07 0.0049995279228720636 0 -1.1575050562892941e-07 0.0049997499926737214 0 -3.5965651572454017e-07 0.004999245178995664 0 -1.1740062882236642e-05 0.0049662293436433828 0 -1.0873225080175326e-05 0.0049426852869772012 0 -4.8829318560570312e-11 0.0049999999514200233 0 -3.2816256140693281e-08 0.0049999496913587837 0 -2.8622561064948815e-11 0.0049999998442358615 0 -5.166259132260784e-10 0.0049999984857980609 0 -1.8606770228025581e-07 0.0049995279228720636 0 -1.1575050562892941e-07 0.0049997499926737214 0 -1.1370120102375049e-05 0.004994436436570218 0 -1.1740062882236642e-05 0.0049662293436433828 0 -1.0173632292294082e-05 0.0049468357049798723 0 -1.1740062882236642e-05 0.0049662293436433828 0 -2.1189380509729035e-05 0.0049029635077924294 0 -1.6551379323520339e-05 0.0048903110478936114 0 -2.5334547611007296e-05 0.004894088209229726 0 -9.3043328823810357e-07 0.0049989707467685586 0 -6.9790091521693296e-09 0.0049999270821452745 0 -5.1384853481888232e-10 0.0049999983867027196 0 -1.1740062882236642e-05 0.0049662293436433828 0 1.301196446302967e-09 0.0049999300951232136 0 -1.6551379323520339e-05 0.0048903110478936114 0 -2.5334547611007296e-05 0.004894088209229726 0 -2.5669099930558282e-05 0.0048866208603242844 0 -2.1189380509729035e-05 0.0049029635077924294 0 -2.5334547611007296e-05 0.004894088209229726 0 -3.5297952798500028e-05 0.0048992184802298866 0 -2.5334547611007296e-05 0.004894088209229726 0 -3.3643261030013464e-05 0.0048906776439214565 0 -2.5669099930558282e-05 0.0048866208603242844 0 -2.5334547611007296e-05 0.004894088209229726 0 -3.3643261030013464e-05 0.0048906776439214565 0 -3.5297952798500028e-05 0.0048992184802298866 0 -3.3643261030013464e-05 0.0048906776439214565 0 -2.5669099930558282e-05 0.0048866208603242844 0 -3.5205546247023457e-05 0.0048829344075962487 0 -1.8606770228025581e-07 0.0049995279228720636 0 -3.5965651572454017e-07 0.004999245178995664 0 -6.03407302578937e-07 0.0049984781654272897 0 -1.0873225080175326e-05 0.0049426852869772012 0 -1.7233446382071263e-05 0.0048890167916883411 0 -1.7233446382071263e-05 0.0048890167916883411 0 4.4863446989668654e-05 0.0047444200150654255 0 -3.3643261030013464e-05 0.0048906776439214565 0 -3.5205546247023457e-05 0.0048829344075962487 0 -4.6594973362840342e-05 0.0048905795342462357 0 -2.5409093074946879e-05 0.004777060354359066 0 1.1604993849020987e-05 0.0047509821409229651 0 1.3616159281836516e-05 0.0047708620133438545 0 -1.7233446382071263e-05 0.0048890167916883411 0 -2.6012632229177462e-05 0.0048261427131003846 0 -4.7266254031840198e-05 0.0049010468816489024 0 -3.5297952798500028e-05 0.0048992184802298866 0 -4.6594973362840342e-05 0.0048905795342462357 0 -3.3643261030013464e-05 0.0048906776439214565 0 -3.5297952798500028e-05 0.0048992184802298866 0 -4.6594973362840342e-05 0.0048905795342462357 0 1.1604993849020987e-05 0.0047509821409229651 0 3.9087159288775462e-05 0.0047602093062228228 0 4.8891710387614059e-05 0.0047253121717773195 0 -2.6012632229177462e-05 0.0048261427131003846 0 3.1227268217746771e-05 0.0047296187664299088 0 -4.7266254031840198e-05 0.0049010468816489024 0 -4.6594973362840342e-05 0.0048905795342462357 0 -5.6351871070159704e-05 0.0048988013391986166 0 -2.5409093074946879e-05 0.004777060354359066 0 1.3616159281836516e-05 0.0047708620133438545 0 2.9248314600238623e-05 0.004795166251244487 0 1.1604993849020987e-05 0.0047509821409229651 0 1.3616159281836516e-05 0.0047708620133438545 0 3.9087159288775462e-05 0.0047602093062228228 0 1.3616159281836516e-05 0.0047708620133438545 0 2.9248314600238623e-05 0.004795166251244487 0 3.9087159288775462e-05 0.0047602093062228228 0 4.4863446989668654e-05 0.0047444200150654255 0 8.8050306980735644e-05 0.0046190722368728183 0 4.4863446989668654e-05 0.0047444200150654255 0 1.1065140411839075e-05 0.0049269520812964002 0 2.0666059699054543e-05 0.0048303771290538252 0 3.0562828165375466e-05 0.0048780534905526968 0 8.2441857285300483e-06 0.0048751754961255051 0 1.7427079781862206e-05 0.0048895046303203951 0 3.5451799316780771e-06 0.0048938123274959878 0 1.3628127530928071e-05 0.0049032442257048257 0 -7.7878548470030635e-06 0.0048815764817168247 0 1.7427079781862206e-05 0.0048895046303203951 0 3.5451799316780771e-06 0.0048938123274959878 0 -8.991600351092555e-06 0.0049009425956574228 0 3.5451799316780771e-06 0.0048938123274959878 0 1.3628127530928071e-05 0.0049032442257048257 0 -7.7878548470030635e-06 0.0048815764817168247 0 -8.991600351092555e-06 0.0049009425956574228 0 3.5451799316780771e-06 0.0048938123274959878 0 -1.9801253407037962e-06 0.0049982737106939925 0 -5.2394574287508326e-06 0.0049956946722376988 0 -2.1617982470582495e-06 0.0049945465408741821 0 -1.9801253407037962e-06 0.0049982737106939925 0 -5.2394574287508326e-06 0.0049956946722376988 0 -9.1437792864310975e-06 0.0049975298957637753 0 -5.2394574287508326e-06 0.0049956946722376988 0 -8.398617609313897e-06 0.0049915882465523505 0 -2.1617982470582495e-06 0.0049945465408741821 0 -8.5180332042152872e-06 0.0049495407279014549 0 1.1065140411839075e-05 0.0049269520812964002 0 -5.2394574287508326e-06 0.0049956946722376988 0 -9.1437792864310975e-06 0.0049975298957637753 0 -8.398617609313897e-06 0.0049915882465523505 0 3.0562828165375466e-05 0.0048780534905526968 0 1.1254942709450191e-05 0.0048761881282347926 0 1.4159863187689566e-06 0.0049280367349179384 0 1.1065140411839075e-05 0.0049269520812964002 0 -3.4660992751804521e-06 0.0049616955764908493 0 3.0562828165375466e-05 0.0048780534905526968 0 5.4725053513154413e-05 0.0049316173292267363 0 1.4159863187689566e-06 0.0049280367349179384 0 1.8563636236822292e-05 0.0049093913589459484 0 1.1065140411839075e-05 0.0049269520812964002 0 3.0562828165375466e-05 0.0048780534905526968 0 8.9252932868148335e-05 0.0048540045902045149 0 5.4725053513154413e-05 0.0049316173292267363 0 1.6490316527658359e-05 0.0045323531613415541 0 -6.9018479394902473e-05 0.0044848346186405928 0 -0.0002194473019453755 0.0040799176358130799 0 -0.00018818707417914992 0.0041351217651622628 0 -0.00017176075215533963 0.0040434890503820735 0 -0.0002194473019453755 0.0040799176358130799 0 -0.00018818707417914992 0.0041351217651622628 0 -0.00027516657580381058 0.0041071044697811891 0 1.0200057595168576e-05 0.0044790475627447604 0 6.3741737228616802e-05 0.0044592249042693785 0 8.104813010435226e-05 0.0044973676959369048 0 4.3358901565565815e-05 0.0044263644098588417 0 1.0200057595168576e-05 0.0044790475627447604 0 -7.6130255093141453e-05 0.0043792843941139505 0 4.3358901565565815e-05 0.0044263644098588417 0 1.0200057595168576e-05 0.0044790475627447604 0 6.3741737228616802e-05 0.0044592249042693785 0 0.00014118511032556468 0.0044651439098139277 0 4.3358901565565815e-05 0.0044263644098588417 0 6.3741737228616802e-05 0.0044592249042693785 0 4.4863446989668654e-05 0.0047444200150654255 0 1.6490316527658359e-05 0.0045323531613415541 0 0.00014118511032556468 0.0044651439098139277 0 6.3741737228616802e-05 0.0044592249042693785 0 8.104813010435226e-05 0.0044973676959369048 0 2.0666059699054543e-05 0.0048303771290538252 0 3.0562828165375466e-05 0.0048780534905526968 0 8.9252932868148335e-05 0.0048540045902045149 0 0.00014118511032556468 0.0044651439098139277 0 8.104813010435226e-05 0.0044973676959369048 0 0.00012025591339787076 0.0045386142770167679 0 8.104813010435226e-05 0.0044973676959369048 0 0.00012025591339787076 0.0045386142770167679 0 5.2430561309348893e-05 0.0045431052239717738 0 8.8050306980735644e-05 0.0046190722368728183 0 3.1227268217746771e-05 0.0047296187664299088 0 0.00012025591339787076 0.0045386142770167679 0 9.8566960529565585e-05 0.0046134092940842151 0 5.2430561309348893e-05 0.0045431052239717738 0 3.4606182810877947e-05 0.0046561285030611993 0 9.8566960529565585e-05 0.0046134092940842151 0 4.572388454710384e-06 0.0045964168198529554 0 9.8566960529565585e-05 0.0046134092940842151 0 4.572388454710384e-06 0.0045964168198529554 0 5.2430561309348893e-05 0.0045431052239717738 0 4.572388454710384e-06 0.0045964168198529554 0 -9.3465945422846227e-07 0.0045328122223685088 0 5.2430561309348893e-05 0.0045431052239717738 0 1.0200057595168576e-05 0.0044790475627447604 0 8.104813010435226e-05 0.0044973676959369048 0 5.2430561309348893e-05 0.0045431052239717738 0 1.0200057595168576e-05 0.0044790475627447604 0 -9.3465945422846227e-07 0.0045328122223685088 0 5.2430561309348893e-05 0.0045431052239717738 0 1.0200057595168576e-05 0.0044790475627447604 0 -9.3465945422846227e-07 0.0045328122223685088 0 -9.5855185724208063e-05 0.0045097041838304715 0 4.572388454710384e-06 0.0045964168198529554 0 -9.3465945422846227e-07 0.0045328122223685088 0 -9.5855185724208063e-05 0.0045097041838304715 0 -3.638290197098952e-05 0.0046484826962764096 0 4.572388454710384e-06 0.0045964168198529554 0 -9.5855185724208063e-05 0.0045097041838304715 0 -0.0001092909877706592 0.004635369520247133 0 -3.638290197098952e-05 0.0046484826962764096 0 -9.5855185724208063e-05 0.0045097041838304715 0 -0.00023699489244909068 0.0040718534586203798 0 -0.00023057233243609738 0.004114929423548918 0 -0.00035517388779979415 0.0035683920007363945 0 -0.00029586875687094116 0.0036733889414071598 0 -0.00037323738972927381 0.0036772783624024761 0 -0.00029586875687094116 0.0036733889414071598 0 -0.00037323738972927381 0.0036772783624024761 0 -0.00032356991795374612 0.0037525016550810459 0 -0.00037323738972927381 0.0036772783624024761 0 -0.00032356991795374612 0.0037525016550810459 0 -0.00039376712688212368 0.0038100535263603393 0 -0.00023057233243609738 0.004114929423548918 0 -0.00026858046531090334 0.0040200764359051549 0 1.0200057595168576e-05 0.0044790475627447604 0 -9.5855185724208063e-05 0.0045097041838304715 0 -7.6130255093141453e-05 0.0043792843941139505 0 1.6490316527658359e-05 0.0045323531613415541 0 -0.00026858046531090334 0.0040200764359051549 0 -0.0002194473019453755 0.0040799176358130799 0 -0.00027516657580381058 0.0041071044697811891 0 -0.00027052710590801739 0.004057782222784201 0 -0.00026858046531090334 0.0040200764359051549 0 -0.00028866819216580969 0.0039660834884204634 0 -0.00032150131141463184 0.0038495831673424573 0 -0.00030732044053234935 0.0038406682707562358 0 -0.00031672280537868569 0.0038912321314941629 0 -0.00026858046531090334 0.0040200764359051549 0 -0.00035864361480893365 0.0038354374468186933 0 -0.00032356991795374612 0.0037525016550810459 0 -0.00039376712688212368 0.0038100535263603393 0 -0.00030732044053234935 0.0038406682707562358 0 -0.00026722394123408397 0.0038673858637093346 0 -0.00030732044053234935 0.0038406682707562358 0 -0.00028933775888627833 0.0039028190357802647 0 -0.00030732044053234935 0.0038406682707562358 0 -0.00028933775888627833 0.0039028190357802647 0 -0.00031672280537868569 0.0038912321314941629 0 -0.00028866819216580969 0.0039660834884204634 0 -0.00028159535938791834 0.0039715297225255634 0 -0.00028933775888627833 0.0039028190357802647 0 -0.00031672280537868569 0.0038912321314941629 0 -0.00027626191933982863 0.0039774622393535823 0 -0.00027052710590801739 0.004057782222784201 0 -0.00027626191933982863 0.0039774622393535823 0 -0.00020474758608915271 0.0040445945608366136 0 -0.0002194473019453755 0.0040799176358130799 0 -0.00027052710590801739 0.004057782222784201 0 -0.00020474758608915271 0.0040445945608366136 0 -0.00027626191933982863 0.0039774622393535823 0 -0.00028230298728623406 0.003938737304752719 0 -0.00027724023821102349 0.0039402197909464498 0 -0.00026906131957899561 0.0039178380899600618 0 -0.00028230298728623406 0.003938737304752719 0 -0.00027157110981205411 0.0039411647714554764 0 -0.00028933775888627833 0.0039028190357802647 0 -0.00027626191933982863 0.0039774622393535823 0 -0.00028230298728623406 0.003938737304752719 0 -0.00026906131957899561 0.0039178380899600618 0 -0.00028933775888627833 0.0039028190357802647 0 -0.00028230298728623406 0.003938737304752719 0 -0.00027724023821102349 0.0039402197909464498 0 -0.00027157110981205411 0.0039411647714554764 0 -0.00027575621298712278 0.0039479761236256815 0 -0.00028230298728623406 0.003938737304752719 0 -0.00027724023821102349 0.0039402197909464498 0 -0.00027157110981205411 0.0039411647714554764 0 -0.0002656958525951493 0.00395448479507931 0 -0.00027157110981205411 0.0039411647714554764 0 -0.00027575621298712278 0.0039479761236256815 0 -4.8780816180702624e-05 0.0041572578115747277 0 -0.0001250342617644013 0.0040709015325551831 0 0.00011715031622967846 0.0043417224751053441 0 2.1325750102088322e-05 0.0042112949819477219 0 -1.3718686112166039e-05 0.004338041449894775 0 -0.00027724023821102349 0.0039402197909464498 0 -0.00027575621298712278 0.0039479761236256815 0 -0.00025678831175403831 0.0039328045035946493 0 -0.00027626191933982863 0.0039774622393535823 0 -0.00027724023821102349 0.0039402197909464498 0 -0.00025678831175403831 0.0039328045035946493 0 2.1325750102088322e-05 0.0042112949819477219 0 -0.00010024021422475244 0.0042270308729029675 0 -0.00015777949434586761 0.0040392471943657745 0 -0.0001250342617644013 0.0040709015325551831 0 -0.00015171253131227711 0.0040424647957246606 0 -0.00010024021422475244 0.0042270308729029675 0 -1.3718686112166039e-05 0.004338041449894775 0 -0.00015486328054666309 0.0043396062840243433 0 2.1325750102088322e-05 0.0042112949819477219 0 -0.00010024021422475244 0.0042270308729029675 0 -1.3718686112166039e-05 0.004338041449894775 0 -1.3718686112166039e-05 0.004338041449894775 0 -0.00015486328054666309 0.0043396062840243433 0 -9.4642316658058559e-05 0.0044306272996935568 0 -0.00015486328054666309 0.0043396062840243433 0 -0.00019916701511122205 0.0041796506997365439 0 -0.00025785908257533843 0.004384641282412274 0 -0.00015486328054666309 0.0043396062840243433 0 -0.00019166295719986578 0.0044055717839179553 0 -0.00025785908257533843 0.004384641282412274 0 -0.00019916701511122205 0.0041796506997365439 0 -0.00015777949434586761 0.0040392471943657745 0 -0.00024718561237424574 0.0040960760717642332 0 -0.00010024021422475244 0.0042270308729029675 0 -0.00019916701511122205 0.0041796506997365439 0 -0.00015777949434586761 0.0040392471943657745 0 -0.00010024021422475244 0.0042270308729029675 0 -0.00015486328054666309 0.0043396062840243433 0 -0.00019916701511122205 0.0041796506997365439 0 -6.9018479394902473e-05 0.0044848346186405928 0 -0.00011181068092837684 0.004544805421012872 0 -0.00015777949434586761 0.0040392471943657745 0 -0.00017176075215533963 0.0040434890503820735 0 -0.00024718561237424574 0.0040960760717642332 0 -0.00027626191933982863 0.0039774622393535823 0 -0.00025678831175403831 0.0039328045035946493 0 -0.00015777949434586761 0.0040392471943657745 0 -0.00027626191933982863 0.0039774622393535823 0 -0.00015777949434586761 0.0040392471943657745 0 -0.00020474758608915271 0.0040445945608366136 0 -0.0002194473019453755 0.0040799176358130799 0 -0.00020474758608915271 0.0040445945608366136 0 -0.00017176075215533963 0.0040434890503820735 0 -0.00015777949434586761 0.0040392471943657745 0 -0.00020474758608915271 0.0040445945608366136 0 -0.00017176075215533963 0.0040434890503820735 0 5.4725053513154413e-05 0.0049316173292267363 0 1.4159863187689566e-06 0.0049280367349179384 0 -4.0649669504489908e-06 0.0049803420059842483 0 -3.4660992751804521e-06 0.0049616955764908493 0 -4.7080355334248884e-06 0.0049764561173821758 0 -8.398617609313897e-06 0.0049915882465523505 0 -2.1617982470582495e-06 0.0049945465408741821 0 -4.0649669504489908e-06 0.0049803420059842483 0 -2.1617982470582495e-06 0.0049945465408741821 0 -4.0649669504489908e-06 0.0049803420059842483 0 -1.025625790372978e-06 0.0049912230812694542 0 -4.0649669504489908e-06 0.0049803420059842483 0 2.4247716751583116e-06 0.0049924476891815388 0 -1.2966785612318055e-06 0.0049923617285121428 0 -4.0649669504489908e-06 0.0049803420059842483 0 -1.2966785612318055e-06 0.0049923617285121428 0 -1.025625790372978e-06 0.0049912230812694542 0 5.4725053513154413e-05 0.0049316173292267363 0 -4.0649669504489908e-06 0.0049803420059842483 0 2.0426913702879715e-05 0.0049891937785050931 0 -4.0649669504489908e-06 0.0049803420059842483 0 2.0426913702879715e-05 0.0049891937785050931 0 2.4247716751583116e-06 0.0049924476891815388 0 -0.00011181068092837684 0.004544805421012872 0 -0.00017055757380827734 0.0046662702457030613 0 -0.00019916701511122205 0.0041796506997365439 0 -0.00024718561237424574 0.0040960760717642332 0 -0.00035022671576598124 0.0043240447320699767 0 2.0426913702879715e-05 0.0049891937785050931 0 2.5571212401800729e-06 0.0049960698414415724 0 2.4247716751583116e-06 0.0049924476891815388 0 -0.00019670839981770799 0.0041992386241898553 0 -0.00029851521333229894 0.0043509656054100312 0 -0.00019916701511122205 0.0041796506997365439 0 -0.00035022671576598124 0.0043240447320699767 0 -0.00031479000289176941 0.0043691960461715428 0 2.5571212401800729e-06 0.0049960698414415724 0 -6.7131346164697436e-08 0.0049960125138598706 0 -3.9018622092465036e-07 0.0049971466131595943 0 2.5571212401800729e-06 0.0049960698414415724 0 -6.7131346164697436e-08 0.0049960125138598706 0 2.4247716751583116e-06 0.0049924476891815388 0 -6.7131346164697436e-08 0.0049960125138598706 0 2.4247716751583116e-06 0.0049924476891815388 0 -1.2966785612318055e-06 0.0049923617285121428 0 -1.2966785612318055e-06 0.0049923617285121428 0 -6.078341814270012e-07 0.004997663084791229 0 -6.2643686684208432e-07 0.0049962199534550463 0 -1.2966785612318055e-06 0.0049923617285121428 0 9.3230569575563078e-08 0.0049995346908685559 0 -6.078341814270012e-07 0.004997663084791229 0 -9.8713851353327827e-07 0.0049931359162820339 0 -7.9164391598869489e-07 0.0049979216461489501 0 -6.7131346164697436e-08 0.0049960125138598706 0 -1.4228745521096073e-06 0.004996915333511303 0 -6.5266629614496349e-07 0.0049981883642287476 0 -6.7131346164697436e-08 0.0049960125138598706 0 -1.2966785612318055e-06 0.0049923617285121428 0 -1.4228745521096073e-06 0.004996915333511303 0 9.3230569575563078e-08 0.0049995346908685559 0 -7.2494209325307138e-10 0.0049999991397597244 0 -6.078341814270012e-07 0.004997663084791229 0 -7.2494209325307138e-10 0.0049999991397597244 0 -1.2229680057786281e-09 0.0049999932236479468 0 -6.078341814270012e-07 0.004997663084791229 0 -1.2229680057786281e-09 0.0049999932236479468 0 -6.078341814270012e-07 0.004997663084791229 0 -6.2643686684208432e-07 0.0049962199534550463 0 -1.2229680057786281e-09 0.0049999932236479468 0 -6.2643686684208432e-07 0.0049962199534550463 0 3.4282876518933221e-10 0.004999994990768101 0 -1.2966785612318055e-06 0.0049923617285121428 0 -6.2643686684208432e-07 0.0049962199534550463 0 -1.025625790372978e-06 0.0049912230812694542 0 1.0836793589770396e-07 0.0049975226395795602 0 -6.2643686684208432e-07 0.0049962199534550463 0 -1.025625790372978e-06 0.0049912230812694542 0 1.0836793589770396e-07 0.0049975226395795602 0 -2.1617982470582495e-06 0.0049945465408741821 0 -1.025625790372978e-06 0.0049912230812694542 0 1.0836793589770396e-07 0.0049975226395795602 0 -6.2643686684208432e-07 0.0049962199534550463 0 3.4282876518933221e-10 0.004999994990768101 0 -1.4381505561029453e-05 0.0049495431864865968 0 2.4091229224111482e-08 0.0049999583336617194 0 -1.1955114648521788e-08 0.004999848336789561 0 -1.4494003077261123e-05 0.0049367079293734352 0 -4.7365132070908868e-05 0.004926888170283957 0 -1.4381505561029453e-05 0.0049495431864865968 0 -7.5802215005357148e-06 0.0049030026746026065 0 -1.3003338859705872e-05 0.0048734113132098932 0 -1.4381505561029453e-05 0.0049495431864865968 0 -1.3003338859705872e-05 0.0048734113132098932 0 -2.2294362489883843e-05 0.0048376600191662377 0 -7.5802215005357148e-06 0.0049030026746026065 0 -1.3003338859705872e-05 0.0048734113132098932 0 -1.6581582817337678e-05 0.0048503483373819271 0 -1.3003338859705872e-05 0.0048734113132098932 0 -2.2294362489883843e-05 0.0048376600191662377 0 -4.2501637078178123e-07 0.0048325457197390242 0 -3.4584835933089045e-05 0.0048426995619809867 0 -0.00017668258543557521 0.0048305268368244282 0 -4.7365132070908868e-05 0.004926888170283957 0 -0.00017668258543557521 0.0048305268368244282 0 -8.1647687229018459e-07 0.0049985307079690776 0 1.0826907924733221e-09 0.005000000037128343 0 -3.5793919618410315e-09 0.0049999947410746025 0 -1.4381505561029453e-05 0.0049495431864865968 0 -5.3058179818365634e-05 0.005002408624579192 0 2.4091229224111482e-08 0.0049999583336617194 0 -4.7365132070908868e-05 0.004926888170283957 0 9.3605015331745584e-09 0.0050000313653445153 0 -8.1647687229018459e-07 0.0049985307079690776 0 -3.5793919618410315e-09 0.0049999947410746025 0 -6.5266629614496349e-07 0.0049981883642287476 0 -1.4228745521096073e-06 0.004996915333511303 0 -3.5793919618410315e-09 0.0049999947410746025 0 -6.5266629614496349e-07 0.0049981883642287476 0 9.3230569575563078e-08 0.0049995346908685559 0 -7.2494209325307138e-10 0.0049999991397597244 0 3.6092163772011388e-10 0.0050000004698011937 0 -7.9164391598869489e-07 0.0049979216461489501 0 8.5202889339473667e-12 0.0049999992872960964 0 -8.1647687229018459e-07 0.0049985307079690776 0 -6.5266629614496349e-07 0.0049981883642287476 0 -3.9018622092465036e-07 0.0049971466131595943 0 -0.00036633796788695494 0.0045929592344660878 0 -0.00023069745159694 0.0046248848116365341 0 -0.00046024290131225164 0.0048224033161336881 0 -0.00017217934100816529 0.0048415596252215113 0 -0.00015366063436318334 0.004809349785698953 0 -0.00016327143267179232 0.0048390250848297633 0 -4.7365132070908868e-05 0.004926888170283957 0 -0.00024905445327500826 0.0047470794406691734 0 -0.00024905445327500826 0.0047470794406691734 0 -0.00017668258543557521 0.0048305268368244282 0 -6.7131346164697436e-08 0.0049960125138598706 0 -6.5266629614496349e-07 0.0049981883642287476 0 -3.9018622092465036e-07 0.0049971466131595943 0 -0.00017055757380827734 0.0046662702457030613 0 -0.00024905445327500826 0.0047470794406691734 0 -0.00025785908257533843 0.004384641282412274 0 -0.00036633796788695494 0.0045929592344660878 0 -0.00022965965506007623 0.0044795082153199989 0 -0.00029851521333229894 0.0043509656054100312 0 -0.00024905445327500826 0.0047470794406691734 0 -0.00022965965506007623 0.0044795082153199989 0 -0.00023069745159694 0.0046248848116365341 0 -9.0697069580412398e-05 0.0046483504832255393 0 -0.00035022671576598124 0.0043240447320699767 0 -0.00031479000289176941 0.0043691960461715428 0 -0.00044555898456583184 0.004572089092905492 0 -0.00019166295719986578 0.0044055717839179553 0 -0.00025785908257533843 0.004384641282412274 0 -0.00022965965506007623 0.0044795082153199989 0 -0.00036633796788695494 0.0045929592344660878 0 -0.00022965965506007623 0.0044795082153199989 0 -0.00023069745159694 0.0046248848116365341 0 -0.00013022537077905398 0.0047453426755056823 0 -0.00023069745159694 0.0046248848116365341 0 -0.00046024290131225164 0.0048224033161336881 0 -0.00013022537077905398 0.0047453426755056823 0 -0.00023069745159694 0.0046248848116365341 0 -9.0697069580412398e-05 0.0046483504832255393 0 -0.00013022537077905398 0.0047453426755056823 0 -4.8501285586449673e-05 0.0048289462011250834 0 -6.0068285842770543e-05 0.004814435151893965 0 -0.00013022537077905398 0.0047453426755056823 0 -6.0068285842770543e-05 0.004814435151893965 0 -8.4759886291077807e-05 0.0047879178755414501 0 -0.00015643307019430722 0.0047581354589382079 0 -0.00017668258543557521 0.0048305268368244282 0 -0.00013022537077905398 0.0047453426755056823 0 -3.2720096053559182e-05 0.0048505158254839786 0 -4.8501285586449673e-05 0.0048289462011250834 0 -1.3003338859705872e-05 0.0048734113132098932 0 -3.2720096053559182e-05 0.0048505158254839786 0 -4.8501285586449673e-05 0.0048289462011250834 0 -4.8501285586449673e-05 0.0048289462011250834 0 -1.6581582817337678e-05 0.0048503483373819271 0 -6.0068285842770543e-05 0.004814435151893965 0 -1.3003338859705872e-05 0.0048734113132098932 0 -4.8501285586449673e-05 0.0048289462011250834 0 -1.6581582817337678e-05 0.0048503483373819271 0 -1.6581582817337678e-05 0.0048503483373819271 0 -3.3619188658113204e-05 0.0048227069845703059 0 -6.0068285842770543e-05 0.004814435151893965 0 -3.3619188658113204e-05 0.0048227069845703059 0 -6.1709973074480261e-05 0.0048068799832414284 0 -6.0068285842770543e-05 0.004814435151893965 0 -3.3619188658113204e-05 0.0048227069845703059 0 -6.1709973074480261e-05 0.0048068799832414284 0 -4.8945102783588715e-05 0.0048044658826849182 0 -6.1709973074480261e-05 0.0048068799832414284 0 -6.0068285842770543e-05 0.004814435151893965 0 -8.4759886291077807e-05 0.0047879178755414501 0 -7.9669556417635964e-05 0.0047962767604440492 0 -8.7117692190845846e-05 0.0047691884612086413 0 -9.1582022264159475e-05 0.004759884513231687 0 -8.4759886291077807e-05 0.0047879178755414501 0 -7.9669556417635964e-05 0.0047962767604440492 0 -9.1582022264159475e-05 0.004759884513231687 0 -6.1709973074480261e-05 0.0048068799832414284 0 -8.4759886291077807e-05 0.0047879178755414501 0 -7.9669556417635964e-05 0.0047962767604440492 0 -6.1709973074480261e-05 0.0048068799832414284 0 -7.9669556417635964e-05 0.0047962767604440492 0 -4.8945102783588715e-05 0.0048044658826849182 0 -7.9669556417635964e-05 0.0047962767604440492 0 -9.9514608737311992e-05 0.0047905473356904963 0 -0.00010355225221494347 0.0047768485182004116 0 -9.9514608737311992e-05 0.0047905473356904963 0 -0.00011290798868927546 0.0048051737484795876 0 -0.00012061855053756141 0.004783630385594359 0 -9.9514608737311992e-05 0.0047905473356904963 0 -8.7117692190845846e-05 0.0047691884612086413 0 -0.00011290798868927546 0.0048051737484795876 0 -8.7117692190845846e-05 0.0047691884612086413 0 -9.4784620527926493e-05 0.0047883628257262218 0 -0.00011290798868927546 0.0048051737484795876 0 -7.9669556417635964e-05 0.0047962767604440492 0 -9.9514608737311992e-05 0.0047905473356904963 0 -8.7117692190845846e-05 0.0047691884612086413 0 -6.2774848194564653e-05 0.0046687271350978454 0 -8.2852945592962329e-05 0.0046220932972796981 0 -0.00012801182293806701 0.0045194193723674574 0 -8.4856607088872041e-05 0.0046391013915478554 0 -0.00010466216402035635 0.0045974632985995561 0 -8.7117692190845846e-05 0.0047691884612086413 0 -6.2774848194564653e-05 0.0046687271350978454 0 -9.4784620527926493e-05 0.0047883628257262218 0 -6.2774848194564653e-05 0.0046687271350978454 0 -0.00012801182293806701 0.0045194193723674574 0 -0.00012330367560815176 0.0043846291602056848 0 -8.7117692190845846e-05 0.0047691884612086413 0 -6.2774848194564653e-05 0.0046687271350978454 0 -9.1582022264159475e-05 0.004759884513231687 0 -0.00013022537077905398 0.0047453426755056823 0 -8.4759886291077807e-05 0.0047879178755414501 0 -9.1582022264159475e-05 0.004759884513231687 0 -0.00013022537077905398 0.0047453426755056823 0 -6.2774848194564653e-05 0.0046687271350978454 0 -9.1582022264159475e-05 0.004759884513231687 0 -0.00013022537077905398 0.0047453426755056823 0 -6.2774848194564653e-05 0.0046687271350978454 0 -9.0697069580412398e-05 0.0046483504832255393 0 -0.00022522096508414499 0.0044861761733917217 0 -9.8777255703881388e-05 0.0045163659135072495 0 -0.00019166295719986578 0.0044055717839179553 0 -0.00022965965506007623 0.0044795082153199989 0 -9.4642316658058559e-05 0.0044306272996935568 0 -0.00015486328054666309 0.0043396062840243433 0 -0.00019166295719986578 0.0044055717839179553 0 -9.4642316658058559e-05 0.0044306272996935568 0 -0.00022965965506007623 0.0044795082153199989 0 -9.0697069580412398e-05 0.0046483504832255393 0 -6.1350668308333723e-05 0.0046126851682694444 0 -6.1350668308333723e-05 0.0046126851682694444 0 -8.2852945592962329e-05 0.0046220932972796981 0 -0.00015135909371147448 0.0046808348573630868 0 -9.8777255703881388e-05 0.0045163659135072495 0 -1.3488767144825966e-05 0.004592716292197741 0 -1.3718686112166039e-05 0.004338041449894775 0 -9.4642316658058559e-05 0.0044306272996935568 0 6.4117944668369716e-05 0.0044333166997461955 0 -6.2774848194564653e-05 0.0046687271350978454 0 -9.0697069580412398e-05 0.0046483504832255393 0 -8.2852945592962329e-05 0.0046220932972796981 0 -9.0697069580412398e-05 0.0046483504832255393 0 -6.1350668308333723e-05 0.0046126851682694444 0 -8.2852945592962329e-05 0.0046220932972796981 0 -8.2852945592962329e-05 0.0046220932972796981 0 -0.00015466763850379529 0.0045505629769991658 0 -0.00012801182293806701 0.0045194193723674574 0 -8.2852945592962329e-05 0.0046220932972796981 0 -0.00017481545698882025 0.0046076089866617228 0 -0.00015466763850379529 0.0045505629769991658 0 -0.0002079704111422668 0.0045418860481120649 0 -0.00017481545698882025 0.0046076089866617228 0 -0.00026305441783952912 0.0045698342777835297 0 -0.0002079704111422668 0.0045418860481120649 0 -0.00017481545698882025 0.0046076089866617228 0 -0.00015466763850379529 0.0045505629769991658 0 -0.00017481545698882025 0.0046076089866617228 0 -0.00015135909371147448 0.0046808348573630868 0 -0.00025099918924425965 0.0046465514526670589 0 -8.2852945592962329e-05 0.0046220932972796981 0 -0.00017481545698882025 0.0046076089866617228 0 -0.00015135909371147448 0.0046808348573630868 0 0.00011715031622967846 0.0043417224751053441 0 -1.3718686112166039e-05 0.004338041449894775 0 6.4117944668369716e-05 0.0044333166997461955 0 -1.3488767144825966e-05 0.004592716292197741 0 -0.00022892562999487546 0.004193625090600353 0 -0.00015135909371147448 0.0046808348573630868 0 -0.00025099918924425965 0.0046465514526670589 0 -0.00037805454638852553 0.0046898695641022625 0 -4.8780816180702624e-05 0.0041572578115747277 0 -0.00022892562999487546 0.004193625090600353 0 0.00011715031622967846 0.0043417224751053441 0 6.4117944668369716e-05 0.0044333166997461955 0 0.00020315664958223402 0.0044403381540594564 0 -0.0002656958525951493 0.00395448479507931 0 -0.00027575621298712278 0.0039479761236256815 0 -0.00026555701391762983 0.0039678737277857867 0 -0.00030623242964847563 0.0046308948069653235 0 -0.00025099918924425965 0.0046465514526670589 0 -0.00037805454638852553 0.0046898695641022625 0 -0.00030623242964847563 0.0046308948069653235 0 -0.00037805454638852553 0.0046898695641022625 0 -0.00036078893069081485 0.0046513309970328447 0 -0.00030623242964847563 0.0046308948069653235 0 -0.00026305441783952912 0.0045698342777835297 0 -0.00034211310481641689 0.0045736040836614963 0 -0.00030623242964847563 0.0046308948069653235 0 -0.00036343892691182767 0.0046129759454799132 0 -0.00036078893069081485 0.0046513309970328447 0 -0.00030623242964847563 0.0046308948069653235 0 -0.00034211310481641689 0.0045736040836614963 0 -0.00036343892691182767 0.0046129759454799132 0 -0.00030623242964847563 0.0046308948069653235 0 -0.00025099918924425965 0.0046465514526670589 0 -0.00026305441783952912 0.0045698342777835297 0 -0.00017481545698882025 0.0046076089866617228 0 -0.00025099918924425965 0.0046465514526670589 0 -0.00026305441783952912 0.0045698342777835297 0 -0.0002079704111422668 0.0045418860481120649 0 -0.00026305441783952912 0.0045698342777835297 0 -0.00025322413700264889 0.0044973208713092339 0 -0.00026305441783952912 0.0045698342777835297 0 -0.00032338185475468074 0.0045031482520858993 0 -0.00025322413700264889 0.0044973208713092339 0 -0.00026305441783952912 0.0045698342777835297 0 -0.00034211310481641689 0.0045736040836614963 0 -0.00032338185475468074 0.0045031482520858993 0 -0.00034211310481641689 0.0045736040836614963 0 -0.00032338185475468074 0.0045031482520858993 0 -0.0003967635825657334 0.0045330550212177162 0 -0.00027243116663195781 0.0043763097218055677 0 -0.00040341242353956916 0.0043621702968705918 0 -0.00026496283691401036 0.0043955730075256197 0 -0.00042087675231521808 0.0042716942388481898 0 -0.00038906189957403268 0.0042537322986692522 0 -0.00032338185475468074 0.0045031482520858993 0 -0.00026496283691401036 0.0043955730075256197 0 -0.00041622327886400623 0.0044522620562740247 0 -0.00026496283691401036 0.0043955730075256197 0 -0.00030730660354094246 0.0042721070897097342 0 -0.00038906189957403268 0.0042537322986692522 0 -0.00026496283691401036 0.0043955730075256197 0 -0.00019962911607233075 0.0044711194245360582 0 -0.0002159889756220057 0.0043684707010325724 0 -0.00026496283691401036 0.0043955730075256197 0 -0.0002159889756220057 0.0043684707010325724 0 -0.00030730660354094246 0.0042721070897097342 0 -0.00026496283691401036 0.0043955730075256197 0 -0.00025322413700264889 0.0044973208713092339 0 -0.00019962911607233075 0.0044711194245360582 0 -0.00032338185475468074 0.0045031482520858993 0 -0.00026496283691401036 0.0043955730075256197 0 -0.00025322413700264889 0.0044973208713092339 0 -0.0002079704111422668 0.0045418860481120649 0 -0.00025322413700264889 0.0044973208713092339 0 -0.00019962911607233075 0.0044711194245360582 0 -0.0002079704111422668 0.0045418860481120649 0 -0.00015466763850379529 0.0045505629769991658 0 -0.00019962911607233075 0.0044711194245360582 0 -0.00015466763850379529 0.0045505629769991658 0 -0.00019962911607233075 0.0044711194245360582 0 -0.00012801182293806701 0.0045194193723674574 0 -0.00012801182293806701 0.0045194193723674574 0 -0.0002159889756220057 0.0043684707010325724 0 -0.00012330367560815176 0.0043846291602056848 0 -0.00019962911607233075 0.0044711194245360582 0 -0.00012801182293806701 0.0045194193723674574 0 -0.0002159889756220057 0.0043684707010325724 0 -0.00010466216402035635 0.0045974632985995561 0 -0.00023879793487272289 0.0044424022076024056 0 -9.4784620527926493e-05 0.0047883628257262218 0 -0.00011290798868927546 0.0048051737484795876 0 -8.9103247469696743e-05 0.0048056614226747408 0 -8.8901266960204791e-05 0.0048428783173828606 0 -0.00028856484465132365 0.0047001154531305898 0 -0.0002159889756220057 0.0043684707010325724 0 -0.00012330367560815176 0.0043846291602056848 0 -0.0002757661657020455 0.0042359278766147153 0 -0.00011290798868927546 0.0048051737484795876 0 -0.00015530334856870922 0.0047751194902340482 0 -0.00012061855053756141 0.004783630385594359 0 -0.00011290798868927546 0.0048051737484795876 0 -8.9103247469696743e-05 0.0048056614226747408 0 -8.46903988617091e-05 0.0048138473074605228 0 -0.00029717472424321421 0.0041670573746011115 0 -0.00030730660354094246 0.0042721070897097342 0 -0.00039293493521563622 0.0041870907839280831 0 -0.00030730660354094246 0.0042721070897097342 0 -0.00039293493521563622 0.0041870907839280831 0 -0.00038906189957403268 0.0042537322986692522 0 -0.00025821736212114566 0.0042809569067797752 0 -0.00023879793487272289 0.0044424022076024056 0 -0.0002159889756220057 0.0043684707010325724 0 -0.00029717472424321421 0.0041670573746011115 0 -0.00030730660354094246 0.0042721070897097342 0 -0.00023879793487272289 0.0044424022076024056 0 -0.00042567596866728677 0.0042387164556592803 0 -0.0002619844417695903 0.0045298735873952247 0 -0.00029891165741086209 0.0044530446516033223 0 -0.00040833478121082042 0.0044197782166341976 0 -0.00033764116388681093 0.0047944152322780143 0 -0.00020830613090371442 0.0047721780629624263 0 -0.00025447907263304335 0.0047364570367765882 0 -0.00033764116388681093 0.0047944152322780143 0 -0.00025447907263304335 0.0047364570367765882 0 -0.00034619655036104136 0.0046937596279145967 0 -0.00023879793487272289 0.0044424022076024056 0 -0.00028856484465132365 0.0047001154531305898 0 -0.00011290798868927546 0.0048051737484795876 0 -0.00033764116388681093 0.0047944152322780143 0 -0.00020830613090371442 0.0047721780629624263 0 -0.00011290798868927546 0.0048051737484795876 0 -0.00020830613090371442 0.0047721780629624263 0 -0.00015530334856870922 0.0047751194902340482 0 -0.00020830613090371442 0.0047721780629624263 0 -0.00015530334856870922 0.0047751194902340482 0 -0.00019314458035071179 0.0047413938285415461 0 -0.00015530334856870922 0.0047751194902340482 0 -0.00019314458035071179 0.0047413938285415461 0 -0.00013335391067403866 0.0047555560413642794 0 -0.00019314458035071179 0.0047413938285415461 0 -0.00017411660180230643 0.0047093978344873747 0 -0.00013335391067403866 0.0047555560413642794 0 -0.00020830613090371442 0.0047721780629624263 0 -0.00019314458035071179 0.0047413938285415461 0 -0.00025447907263304335 0.0047364570367765882 0 -0.00025447907263304335 0.0047364570367765882 0 -0.00023621579487065455 0.0046650914310260956 0 -0.00032101976486822363 0.0046434929687685618 0 -0.00023621579487065455 0.0046650914310260956 0 -0.00032101976486822363 0.0046434929687685618 0 -0.00028626779183532083 0.0045372936621664696 0 -0.00019314458035071179 0.0047413938285415461 0 -0.00025447907263304335 0.0047364570367765882 0 -0.00023621579487065455 0.0046650914310260956 0 -0.00019314458035071179 0.0047413938285415461 0 -0.00017411660180230643 0.0047093978344873747 0 -0.00023621579487065455 0.0046650914310260956 0 -0.00017411660180230643 0.0047093978344873747 0 -0.00023621579487065455 0.0046650914310260956 0 -0.00016361075550304184 0.0046717361712546859 0 -0.00023621579487065455 0.0046650914310260956 0 -0.00020172340263032533 0.004617020407503585 0 -0.00016361075550304184 0.0046717361712546859 0 -0.00033764116388681093 0.0047944152322780143 0 -0.00034619655036104136 0.0046937596279145967 0 -0.00047703791942042183 0.0045981415292799819 0 -0.00032101976486822363 0.0046434929687685618 0 -0.00034619655036104136 0.0046937596279145967 0 -0.00047703791942042183 0.0045981415292799819 0 -0.00025447907263304335 0.0047364570367765882 0 -0.00032101976486822363 0.0046434929687685618 0 -0.00034619655036104136 0.0046937596279145967 0 -0.00032101976486822363 0.0046434929687685618 0 -0.00037329568561436416 0.0045449990710766689 0 -0.00047703791942042183 0.0045981415292799819 0 -0.00037329568561436416 0.0045449990710766689 0 -0.00041763865677414452 0.0043930485186267345 0 -0.00047703791942042183 0.0045981415292799819 0 -0.00032101976486822363 0.0046434929687685618 0 -0.00037329568561436416 0.0045449990710766689 0 -0.00028626779183532083 0.0045372936621664696 0 -0.00037329568561436416 0.0045449990710766689 0 -0.00041763865677414452 0.0043930485186267345 0 -0.00028626779183532083 0.0045372936621664696 0 -0.00041763865677414452 0.0043930485186267345 0 -0.00028320509596018644 0.0043568926020503759 0 -0.00028626779183532083 0.0045372936621664696 0 -0.00028320509596018644 0.0043568926020503759 0 -0.00021260655148345914 0.0044537732257623154 0 -0.00028626779183532083 0.0045372936621664696 0 -0.00018213170864224271 0.0043353183194734194 0 -0.00028320509596018644 0.0043568926020503759 0 -0.00021260655148345914 0.0044537732257623154 0 -0.00023621579487065455 0.0046650914310260956 0 -0.00028626779183532083 0.0045372936621664696 0 -0.00020172340263032533 0.004617020407503585 0 -0.00028626779183532083 0.0045372936621664696 0 -0.00020172340263032533 0.004617020407503585 0 -0.00017498098471423472 0.0045516021683259834 0 -0.00021260655148345914 0.0044537732257623154 0 -0.00028626779183532083 0.0045372936621664696 0 -0.00017498098471423472 0.0045516021683259834 0 -0.00012851801461603857 0.0046397823212275023 0 -0.00010943242649311981 0.0045681786294174305 0 -0.00017498098471423472 0.0045516021683259834 0 -0.00020172340263032533 0.004617020407503585 0 -0.00012851801461603857 0.0046397823212275023 0 -0.00017498098471423472 0.0045516021683259834 0 -0.00012851801461603857 0.0046397823212275023 0 -0.00010943242649311981 0.0045681786294174305 0 -8.3108675292230179e-05 0.0046456521846902042 0 -0.00010943242649311981 0.0045681786294174305 0 -0.00017498098471423472 0.0045516021683259834 0 -0.0001337532766432102 0.0044680879788145849 0 -0.00021260655148345914 0.0044537732257623154 0 -0.00017498098471423472 0.0045516021683259834 0 -0.0001337532766432102 0.0044680879788145849 0 -0.00010943242649311981 0.0045681786294174305 0 -0.0001337532766432102 0.0044680879788145849 0 -5.4200055135249105e-05 0.0045146822798778951 0 -9.0477898227631903e-05 0.0043632316047215172 0 -0.00018213170864224271 0.0043353183194734194 0 -0.0001337532766432102 0.0044680879788145849 0 -9.0477898227631903e-05 0.0043632316047215172 0 -0.0001337532766432102 0.0044680879788145849 0 -5.4200055135249105e-05 0.0045146822798778951 0 -0.00018213170864224271 0.0043353183194734194 0 -0.00021260655148345914 0.0044537732257623154 0 -0.0001337532766432102 0.0044680879788145849 0 -9.0477898227631903e-05 0.0043632316047215172 0 1.4206587020150134e-05 0.0044144624949604312 0 -5.4200055135249105e-05 0.0045146822798778951 0 -5.4200055135249105e-05 0.0045146822798778951 0 -6.7528629958364017e-06 0.0046236360992815738 0 1.5825465598422869e-05 0.0045348327957513875 0 1.4206587020150134e-05 0.0044144624949604312 0 -5.4200055135249105e-05 0.0045146822798778951 0 1.5825465598422869e-05 0.0045348327957513875 0 -5.4200055135249105e-05 0.0045146822798778951 0 -6.7528629958364017e-06 0.0046236360992815738 0 -5.7802787709130006e-05 0.0046115477255689258 0 -0.00010943242649311981 0.0045681786294174305 0 -5.4200055135249105e-05 0.0045146822798778951 0 -5.7802787709130006e-05 0.0046115477255689258 0 -5.7802787709130006e-05 0.0046115477255689258 0 -8.3108675292230179e-05 0.0046456521846902042 0 -4.428163014978636e-05 0.0046934644621034315 0 -0.00010943242649311981 0.0045681786294174305 0 -5.7802787709130006e-05 0.0046115477255689258 0 -8.3108675292230179e-05 0.0046456521846902042 0 -6.7528629958364017e-06 0.0046236360992815738 0 -5.7802787709130006e-05 0.0046115477255689258 0 -4.428163014978636e-05 0.0046934644621034315 0 -6.7528629958364017e-06 0.0046236360992815738 0 -4.428163014978636e-05 0.0046934644621034315 0 7.8257398024588247e-06 0.00471764508421615 0 -4.428163014978636e-05 0.0046934644621034315 0 -2.2163836828319697e-05 0.0047522356595239923 0 7.8257398024588247e-06 0.00471764508421615 0 -4.428163014978636e-05 0.0046934644621034315 0 -2.2163836828319697e-05 0.0047522356595239923 0 -6.0206009242580841e-05 0.0047475450491956343 0 -2.2163836828319697e-05 0.0047522356595239923 0 -6.0206009242580841e-05 0.0047475450491956343 0 -3.8302491749665707e-05 0.00478367171201025 0 -6.0206009242580841e-05 0.0047475450491956343 0 -8.5281070136176488e-05 0.0046944907911912435 0 -0.0001151111725844503 0.0047187303167308455 0 -6.0206009242580841e-05 0.0047475450491956343 0 -0.0001151111725844503 0.0047187303167308455 0 -8.6969851995077435e-05 0.0047586774807918198 0 -8.3108675292230179e-05 0.0046456521846902042 0 -4.428163014978636e-05 0.0046934644621034315 0 -8.5281070136176488e-05 0.0046944907911912435 0 -4.428163014978636e-05 0.0046934644621034315 0 -6.0206009242580841e-05 0.0047475450491956343 0 -8.5281070136176488e-05 0.0046944907911912435 0 -0.00012851801461603857 0.0046397823212275023 0 -8.5281070136176488e-05 0.0046944907911912435 0 -0.0001151111725844503 0.0047187303167308455 0 -0.00012851801461603857 0.0046397823212275023 0 -8.3108675292230179e-05 0.0046456521846902042 0 -8.5281070136176488e-05 0.0046944907911912435 0 -0.00020172340263032533 0.004617020407503585 0 -0.00012851801461603857 0.0046397823212275023 0 -0.00016361075550304184 0.0046717361712546859 0 -0.00012851801461603857 0.0046397823212275023 0 -0.00016361075550304184 0.0046717361712546859 0 -0.0001151111725844503 0.0047187303167308455 0 -0.00017411660180230643 0.0047093978344873747 0 -0.00016361075550304184 0.0046717361712546859 0 -0.0001151111725844503 0.0047187303167308455 0 -0.00017411660180230643 0.0047093978344873747 0 -0.0001151111725844503 0.0047187303167308455 0 -0.00013335391067403866 0.0047555560413642794 0 -8.6969851995077435e-05 0.0047586774807918198 0 -0.00013335391067403866 0.0047555560413642794 0 -0.00010355225221494347 0.0047768485182004116 0 -0.0001151111725844503 0.0047187303167308455 0 -8.6969851995077435e-05 0.0047586774807918198 0 -0.00013335391067403866 0.0047555560413642794 0 -0.00013335391067403866 0.0047555560413642794 0 -0.00012061855053756141 0.004783630385594359 0 -0.00010355225221494347 0.0047768485182004116 0 -0.00015530334856870922 0.0047751194902340482 0 -0.00013335391067403866 0.0047555560413642794 0 -0.00012061855053756141 0.004783630385594359 0 -9.9514608737311992e-05 0.0047905473356904963 0 -0.00012061855053756141 0.004783630385594359 0 -0.00010355225221494347 0.0047768485182004116 0 -7.9669556417635964e-05 0.0047962767604440492 0 -0.00010355225221494347 0.0047768485182004116 0 -6.9956589618717937e-05 0.0047853649378403387 0 -7.9669556417635964e-05 0.0047962767604440492 0 -6.9956589618717937e-05 0.0047853649378403387 0 -4.8945102783588715e-05 0.0048044658826849182 0 -6.9956589618717937e-05 0.0047853649378403387 0 -3.8302491749665707e-05 0.00478367171201025 0 -4.8945102783588715e-05 0.0048044658826849182 0 -6.0206009242580841e-05 0.0047475450491956343 0 -6.9956589618717937e-05 0.0047853649378403387 0 -3.8302491749665707e-05 0.00478367171201025 0 -6.0206009242580841e-05 0.0047475450491956343 0 -8.6969851995077435e-05 0.0047586774807918198 0 -6.9956589618717937e-05 0.0047853649378403387 0 -8.6969851995077435e-05 0.0047586774807918198 0 -0.00010355225221494347 0.0047768485182004116 0 -6.9956589618717937e-05 0.0047853649378403387 0 -1.8058241672739762e-05 0.0048094960197417724 0 1.2841060658546517e-05 0.004812647414512549 0 -8.5759206689279004e-06 0.0047864011064277711 0 -1.8058241672739762e-05 0.0048094960197417724 0 -2.6354177517344668e-06 0.0048336362527021384 0 1.2841060658546517e-05 0.004812647414512549 0 -3.8302491749665707e-05 0.00478367171201025 0 -1.8058241672739762e-05 0.0048094960197417724 0 -8.5759206689279004e-06 0.0047864011064277711 0 -3.8302491749665707e-05 0.00478367171201025 0 -1.8058241672739762e-05 0.0048094960197417724 0 -4.8945102783588715e-05 0.0048044658826849182 0 -3.3619188658113204e-05 0.0048227069845703059 0 -1.8058241672739762e-05 0.0048094960197417724 0 -4.8945102783588715e-05 0.0048044658826849182 0 -3.3619188658113204e-05 0.0048227069845703059 0 -1.8058241672739762e-05 0.0048094960197417724 0 -2.6354177517344668e-06 0.0048336362527021384 0 -1.6581582817337678e-05 0.0048503483373819271 0 -3.3619188658113204e-05 0.0048227069845703059 0 -2.6354177517344668e-06 0.0048336362527021384 0 -1.6581582817337678e-05 0.0048503483373819271 0 8.7157404667183003e-07 0.0048559926092541566 0 -2.6354177517344668e-06 0.0048336362527021384 0 -1.6581582817337678e-05 0.0048503483373819271 0 8.7157404667183003e-07 0.0048559926092541566 0 8.6086842079047295e-07 0.0048821742379185585 0 8.7157404667183003e-07 0.0048559926092541566 0 2.1226824327886671e-05 0.0048524025157864704 0 8.6086842079047295e-07 0.0048821742379185585 0 8.7157404667183003e-07 0.0048559926092541566 0 2.1226824327886671e-05 0.0048524025157864704 0 -2.6354177517344668e-06 0.0048336362527021384 0 2.1226824327886671e-05 0.0048524025157864704 0 -2.6354177517344668e-06 0.0048336362527021384 0 1.2841060658546517e-05 0.004812647414512549 0 2.1226824327886671e-05 0.0048524025157864704 0 4.8186746793839193e-05 0.0048117482044231314 0 1.2841060658546517e-05 0.004812647414512549 0 2.1226824327886671e-05 0.0048524025157864704 0 4.4267493466711803e-05 0.0048470762305395012 0 4.8186746793839193e-05 0.0048117482044231314 0 4.4267493466711803e-05 0.0048470762305395012 0 4.8186746793839193e-05 0.0048117482044231314 0 0.00011051196212795851 0.0048025159996377235 0 1.8854197547830964e-05 0.0047752584177187547 0 7.8257398024588247e-06 0.00471764508421615 0 5.8042627722671061e-05 0.0047513282013695547 0 4.8186746793839193e-05 0.0048117482044231314 0 1.8854197547830964e-05 0.0047752584177187547 0 5.8042627722671061e-05 0.0047513282013695547 0 4.8186746793839193e-05 0.0048117482044231314 0 1.8854197547830964e-05 0.0047752584177187547 0 1.2841060658546517e-05 0.004812647414512549 0 1.8854197547830964e-05 0.0047752584177187547 0 1.2841060658546517e-05 0.004812647414512549 0 -8.5759206689279004e-06 0.0047864011064277711 0 -2.2163836828319697e-05 0.0047522356595239923 0 1.8854197547830964e-05 0.0047752584177187547 0 -8.5759206689279004e-06 0.0047864011064277711 0 -2.2163836828319697e-05 0.0047522356595239923 0 -3.8302491749665707e-05 0.00478367171201025 0 -8.5759206689279004e-06 0.0047864011064277711 0 -2.2163836828319697e-05 0.0047522356595239923 0 1.8854197547830964e-05 0.0047752584177187547 0 7.8257398024588247e-06 0.00471764508421615 0 7.8257398024588247e-06 0.00471764508421615 0 5.8042627722671061e-05 0.0047513282013695547 0 4.7288979343414191e-05 0.0046541558271839594 0 4.7288979343414191e-05 0.0046541558271839594 0 8.3259879651196146e-05 0.004702349168824671 0 0.0001254403316204191 0.0045782154630715881 0 5.8042627722671061e-05 0.0047513282013695547 0 4.7288979343414191e-05 0.0046541558271839594 0 8.3259879651196146e-05 0.004702349168824671 0 -6.7528629958364017e-06 0.0046236360992815738 0 4.7288979343414191e-05 0.0046541558271839594 0 1.5825465598422869e-05 0.0045348327957513875 0 -6.7528629958364017e-06 0.0046236360992815738 0 7.8257398024588247e-06 0.00471764508421615 0 4.7288979343414191e-05 0.0046541558271839594 0 4.7288979343414191e-05 0.0046541558271839594 0 1.5825465598422869e-05 0.0045348327957513875 0 7.6947370202891407e-05 0.0045128136912932987 0 4.7288979343414191e-05 0.0046541558271839594 0 7.6947370202891407e-05 0.0045128136912932987 0 0.0001254403316204191 0.0045782154630715881 0 0.00010847064266656535 0.0043811573161228641 0 7.6947370202891407e-05 0.0045128136912932987 0 0.00014532616371724843 0.0044455579094250658 0 7.6947370202891407e-05 0.0045128136912932987 0 0.00014532616371724843 0.0044455579094250658 0 0.0001254403316204191 0.0045782154630715881 0 1.4206587020150134e-05 0.0044144624949604312 0 1.5825465598422869e-05 0.0045348327957513875 0 7.6947370202891407e-05 0.0045128136912932987 0 0.00010847064266656535 0.0043811573161228641 0 1.4206587020150134e-05 0.0044144624949604312 0 7.6947370202891407e-05 0.0045128136912932987 0 0.0001883400925649164 0.0046845331044108648 0 0.00012333145365910295 0.0048006537335162558 0 0.00011262920805972159 0.0050431573306459459 0 9.2129449725794716e-05 0.0050610774380227689 0 4.8886399553025173e-05 0.0048998069344206993 0 0.00026422757320939777 0.004379514357450015 0 0.0001254403316204191 0.0045782154630715881 0 0.00011051196212795851 0.0048025159996377235 0 6.4599798807026096e-05 0.0050971162130182841 0 4.6186744797960727e-05 0.0048761615580168336 0 0.00011262920805972159 0.0050431573306459459 0 4.8886399553025173e-05 0.0048998069344206993 0 0.00011051196212795851 0.0048025159996377235 0 3.6175159452443469e-05 0.0049922795540244371 0 4.8886399553025173e-05 0.0048998069344206993 0 2.316910686171682e-05 0.004971212180970355 0 0.00026422757320939777 0.004379514357450015 0 0.00014532616371724843 0.0044455579094250658 0 0.0001254403316204191 0.0045782154630715881 0 8.3259879651196146e-05 0.004702349168824671 0 0.0001254403316204191 0.0045782154630715881 0 0.00011051196212795851 0.0048025159996377235 0 5.8042627722671061e-05 0.0047513282013695547 0 8.3259879651196146e-05 0.004702349168824671 0 0.00011051196212795851 0.0048025159996377235 0 4.8186746793839193e-05 0.0048117482044231314 0 5.8042627722671061e-05 0.0047513282013695547 0 0.00011051196212795851 0.0048025159996377235 0 4.8886399553025173e-05 0.0048998069344206993 0 0.00011051196212795851 0.0048025159996377235 0 3.042316016111119e-05 0.004883677029138978 0 4.4267493466711803e-05 0.0048470762305395012 0 0.00011051196212795851 0.0048025159996377235 0 3.042316016111119e-05 0.004883677029138978 0 4.8886399553025173e-05 0.0048998069344206993 0 3.042316016111119e-05 0.004883677029138978 0 5.6711631703532356e-06 0.004952734256751563 0 3.042316016111119e-05 0.004883677029138978 0 5.6711631703532356e-06 0.004952734256751563 0 7.9387500419991758e-06 0.0049358172439010455 0 4.8886399553025173e-05 0.0048998069344206993 0 2.0941746179729985e-05 0.0049477581040902677 0 2.316910686171682e-05 0.004971212180970355 0 5.6711631703532356e-06 0.004952734256751563 0 2.0941746179729985e-05 0.0049477581040902677 0 1.1370074351637289e-05 0.0049725283312776021 0 4.8886399553025173e-05 0.0048998069344206993 0 5.6711631703532356e-06 0.004952734256751563 0 2.0941746179729985e-05 0.0049477581040902677 0 2.0941746179729985e-05 0.0049477581040902677 0 1.1370074351637289e-05 0.0049725283312776021 0 2.316910686171682e-05 0.004971212180970355 0 -1.1232699411423184e-08 0.0049999863666878915 0 5.6711631703532356e-06 0.004952734256751563 0 1.1370074351637289e-05 0.0049725283312776021 0 -1.1232699411423184e-08 0.0049999863666878915 0 5.6711631703532356e-06 0.004952734256751563 0 5.6817817089188664e-09 0.0049998911615256559 0 5.6711631703532356e-06 0.004952734256751563 0 5.6817817089188664e-09 0.0049998911615256559 0 7.9387500419991758e-06 0.0049358172439010455 0 5.6817817089188664e-09 0.0049998911615256559 0 3.5153690520776384e-06 0.0049527201217779574 0 7.9387500419991758e-06 0.0049358172439010455 0 5.6817817089188664e-09 0.0049998911615256559 0 3.5153690520776384e-06 0.0049527201217779574 0 -1.1955114648521788e-08 0.004999848336789561 0 3.5153690520776384e-06 0.0049527201217779574 0 7.9387500419991758e-06 0.0049358172439010455 0 1.5032445630768439e-05 0.0048992530521068242 0 3.042316016111119e-05 0.004883677029138978 0 7.9387500419991758e-06 0.0049358172439010455 0 1.5032445630768439e-05 0.0048992530521068242 0 4.4267493466711803e-05 0.0048470762305395012 0 3.042316016111119e-05 0.004883677029138978 0 1.5032445630768439e-05 0.0048992530521068242 0 2.1226824327886671e-05 0.0048524025157864704 0 4.4267493466711803e-05 0.0048470762305395012 0 1.5032445630768439e-05 0.0048992530521068242 0 3.5153690520776384e-06 0.0049527201217779574 0 1.5032445630768439e-05 0.0048992530521068242 0 -1.1670616691520704e-06 0.004933095445711284 0 1.5032445630768439e-05 0.0048992530521068242 0 8.6086842079047295e-07 0.0048821742379185585 0 -1.1670616691520704e-06 0.004933095445711284 0 2.1226824327886671e-05 0.0048524025157864704 0 1.5032445630768439e-05 0.0048992530521068242 0 8.6086842079047295e-07 0.0048821742379185585 0 -7.5802215005357148e-06 0.0049030026746026065 0 -1.6581582817337678e-05 0.0048503483373819271 0 8.6086842079047295e-07 0.0048821742379185585 0 -1.4381505561029453e-05 0.0049495431864865968 0 -7.5802215005357148e-06 0.0049030026746026065 0 -1.1670616691520704e-06 0.004933095445711284 0 -7.5802215005357148e-06 0.0049030026746026065 0 8.6086842079047295e-07 0.0048821742379185585 0 -1.1670616691520704e-06 0.004933095445711284 0 -1.4381505561029453e-05 0.0049495431864865968 0 -1.1955114648521788e-08 0.004999848336789561 0 -1.1670616691520704e-06 0.004933095445711284 0 3.5153690520776384e-06 0.0049527201217779574 0 -1.1955114648521788e-08 0.004999848336789561 0 -1.1670616691520704e-06 0.004933095445711284 0 0.00022457656127925461 0.0040605880125731157 0 -0.00014335953596230508 0.0040130169539270609 0 -4.7945198086664214e-05 0.0037580812146374943 0 -0.00039265650491917463 0.0035981986447195654 0 -0.00060925665183925442 0.0036859514278407535 0 0.00022457656127925461 0.0040605880125731157 0 -0.00014335953596230508 0.0040130169539270609 0 -0.00011897463611447074 0.0042157086945312583 0 -0.00099203046399165312 0.0031485568115927533 0 -0.0010422947006939623 0.0031737493873573558 0 -0.0010001926516907999 0.0031891612829470185 0 -0.00099203046399165312 0.0031485568115927533 0 -0.00095449008992303864 0.0031643183721230305 0 -0.00094244928034574818 0.0031268961401100916 0 -0.00099203046399165312 0.0031485568115927533 0 -0.00095449008992303864 0.0031643183721230305 0 -0.0010001926516907999 0.0031891612829470185 0 -0.00095449008992303864 0.0031643183721230305 0 -0.00091954530697016751 0.0031779884033393403 0 -0.00091922700109816962 0.0031443310981385539 0 -0.00095449008992303864 0.0031643183721230305 0 -0.00094244928034574818 0.0031268961401100916 0 -0.00091922700109816962 0.0031443310981385539 0 0.00022457656127925461 0.0040605880125731157 0 0.00053476667277611118 0.0039066793606585279 0 0.00037497828501448455 0.0037354766778422204 0 -0.00039265650491917463 0.0035981986447195654 0 -0.00013323886360484713 0.0035913082929596822 0 0.00053476667277611118 0.0039066793606585279 0 0.00037497828501448455 0.0037354766778422204 0 0.00061086283366175627 0.0036655682670940731 0 0.00037497828501448455 0.0037354766778422204 0 0.00061086283366175627 0.0036655682670940731 0 0.00047269209894233082 0.0035208323468779871 0 0.00053476667277611118 0.0039066793606585279 0 0.00061086283366175627 0.0036655682670940731 0 0.0008266612861410191 0.0037768796042100786 0 0.00046487438204205825 0.0032808394416432743 0 0.00060950163363542986 0.0034803400239681631 0 0.00047269209894233082 0.0035208323468779871 0 0.00061086283366175627 0.0036655682670940731 0 0.00060950163363542986 0.0034803400239681631 0 0.00077597466769245853 0.0035718564938252094 0 0.00061086283366175627 0.0036655682670940731 0 0.00060950163363542986 0.0034803400239681631 0 0.00047269209894233082 0.0035208323468779871 0 0.00037497828501448455 0.0037354766778422204 0 0.00047269209894233082 0.0035208323468779871 0 0.00021791028330387543 0.0035283545499477484 0 0.00030527840525980214 0.0033689847824124272 0 0.00047269209894233082 0.0035208323468779871 0 0.00021791028330387543 0.0035283545499477484 0 0.00015753244239352643 0.0033642729225686692 0 0.00030527840525980214 0.0033689847824124272 0 0.00021791028330387543 0.0035283545499477484 0 0.00015753244239352643 0.0033642729225686692 0 0.00021791028330387543 0.0035283545499477484 0 4.7253717101747499e-05 0.0035110297779717783 0 0.00021791028330387543 0.0035283545499477484 0 0.00016395735410713993 0.003717418637686085 0 4.7253717101747499e-05 0.0035110297779717783 0 0.00022457656127925461 0.0040605880125731157 0 0.00016395735410713993 0.003717418637686085 0 -4.7945198086664214e-05 0.0037580812146374943 0 0.00037497828501448455 0.0037354766778422204 0 0.00021791028330387543 0.0035283545499477484 0 0.00016395735410713993 0.003717418637686085 0 0.00022457656127925461 0.0040605880125731157 0 0.00037497828501448455 0.0037354766778422204 0 0.00016395735410713993 0.003717418637686085 0 0.00016395735410713993 0.003717418637686085 0 -4.7945198086664214e-05 0.0037580812146374943 0 4.7253717101747499e-05 0.0035110297779717783 0 -4.7945198086664214e-05 0.0037580812146374943 0 4.7253717101747499e-05 0.0035110297779717783 0 -0.00015454939422602612 0.0034249017287206556 0 -4.7945198086664214e-05 0.0037580812146374943 0 -0.00028223143719796335 0.0035751450123868117 0 -0.00015454939422602612 0.0034249017287206556 0 -0.00034107901323169015 0.0033478357842192086 0 -0.00028223143719796335 0.0035751450123868117 0 -0.00015454939422602612 0.0034249017287206556 0 -0.00034107901323169015 0.0033478357842192086 0 -0.0004493897380814354 0.0035907298027770592 0 -0.00052678603513399262 0.0034756392552422084 0 -0.00034107901323169015 0.0033478357842192086 0 -0.00028223143719796335 0.0035751450123868117 0 -0.0004493897380814354 0.0035907298027770592 0 -0.00029669731716916009 0.0037675330047102422 0 -0.00047476977327732444 0.0037149025578741722 0 -0.00054277659400364588 0.0038155095863051077 0 -0.00028223143719796335 0.0035751450123868117 0 -0.0004493897380814354 0.0035907298027770592 0 -0.00029669731716916009 0.0037675330047102422 0 -0.0004493897380814354 0.0035907298027770592 0 -0.00029669731716916009 0.0037675330047102422 0 -0.00047476977327732444 0.0037149025578741722 0 -4.7945198086664214e-05 0.0037580812146374943 0 -0.00028223143719796335 0.0035751450123868117 0 -0.00029669731716916009 0.0037675330047102422 0 -6.5117626972145906e-05 0.0037719309943855198 0 -0.00029699752485236536 0.0038346842752865072 0 -0.00014335953596230508 0.0040130169539270609 0 -4.7945198086664214e-05 0.0037580812146374943 0 -0.00035326943921792643 0.0039405997945545466 0 -0.00056734027212414066 0.0032766702746771415 0 -0.00075251850321159097 0.0035715416699581798 0 -0.00068960759774394089 0.0035769464464333691 0 -0.00040966515093878862 0.0035740908285661248 0 -0.00041983402250142152 0.0039914731151686131 0 -0.00037805454638852553 0.0046898695641022625 0 -0.00039481265293363053 0.0046717856664388975 0 -0.00036078893069081485 0.0046513309970328447 0 -0.00022892562999487546 0.004193625090600353 0 -0.0004265373652486492 0.0041208772525612386 0 -0.00075595894487369257 0.0035901580049806426 0 -0.00074578325297972178 0.0035735124097614288 0 -0.00071317539403204693 0.0036014488404150177 0 -0.00022892562999487546 0.004193625090600353 0 -0.00041983402250142152 0.0039914731151686131 0 -0.00042560695306477297 0.0040511685056977796 0 -0.00043231570746605011 0.0040442869472383904 0 -0.00043576321296039653 0.0040499630731422051 0 -0.0004265373652486492 0.0041208772525612386 0 -0.00041983402250142152 0.0039914731151686131 0 -0.0002656958525951493 0.00395448479507931 0 -0.00026555701391762983 0.0039678737277857867 0 -0.00026356830028437082 0.0039679910192480959 0 -0.00068960759774394089 0.0035769464464333691 0 -0.00059142148826796216 0.0035880186680004424 0 -0.00067328770466952808 0.0036123636190081459 0 -0.00041983402250142152 0.0039914731151686131 0 -0.00061686381061790314 0.0038832484345094191 0 -0.00074578325297972178 0.0035735124097614288 0 -0.00068960759774394089 0.0035769464464333691 0 -0.00071317539403204693 0.0036014488404150177 0 -0.00068960759774394089 0.0035769464464333691 0 -0.00071317539403204693 0.0036014488404150177 0 -0.00067328770466952808 0.0036123636190081459 0 -0.00056734027212414066 0.0032766702746771415 0 -0.00068960759774394089 0.0035769464464333691 0 -0.00052678603513399262 0.0034756392552422084 0 -0.00068960759774394089 0.0035769464464333691 0 -0.00059142148826796216 0.0035880186680004424 0 -0.00052678603513399262 0.0034756392552422084 0 -0.0004493897380814354 0.0035907298027770592 0 -0.00059142148826796216 0.0035880186680004424 0 -0.00052678603513399262 0.0034756392552422084 0 -0.0004493897380814354 0.0035907298027770592 0 -0.00054325596161142718 0.0036581418510704638 0 -0.00047476977327732444 0.0037149025578741722 0 -0.0004493897380814354 0.0035907298027770592 0 -0.00059142148826796216 0.0035880186680004424 0 -0.00054325596161142718 0.0036581418510704638 0 -0.00047476977327732444 0.0037149025578741722 0 -0.00055482201138591235 0.0037108056402752575 0 -0.00054277659400364588 0.0038155095863051077 0 -0.00054325596161142718 0.0036581418510704638 0 -0.00047476977327732444 0.0037149025578741722 0 -0.00055482201138591235 0.0037108056402752575 0 -0.00055482201138591235 0.0037108056402752575 0 -0.0006591916947078036 0.0036545380052400377 0 -0.00054277659400364588 0.0038155095863051077 0 -0.00054325596161142718 0.0036581418510704638 0 -0.00055482201138591235 0.0037108056402752575 0 -0.0006591916947078036 0.0036545380052400377 0 -0.00059142148826796216 0.0035880186680004424 0 -0.00054325596161142718 0.0036581418510704638 0 -0.0006591916947078036 0.0036545380052400377 0 -0.0004265373652486492 0.0041208772525612386 0 -0.00055571247555582311 0.0041595266794637303 0 -0.00075595894487369257 0.0035901580049806426 0 -0.0006591916947078036 0.0036545380052400377 0 -0.00054277659400364588 0.0038155095863051077 0 -0.00040035229663411796 0.0046682214715284007 0 -0.00045414819582388367 0.004570140415430462 0 -0.00057517383099788108 0.0044833201992374025 0 -0.00075595894487369257 0.0035901580049806426 0 -0.00071317539403204693 0.0036014488404150177 0 -0.0006591916947078036 0.0036545380052400377 0 -0.00059142148826796216 0.0035880186680004424 0 -0.00067328770466952808 0.0036123636190081459 0 -0.0006591916947078036 0.0036545380052400377 0 -0.00071317539403204693 0.0036014488404150177 0 -0.00067328770466952808 0.0036123636190081459 0 -0.0006591916947078036 0.0036545380052400377 0 -0.00045722526733196555 0.0045261393828361076 0 -0.00045414819582388367 0.004570140415430462 0 -0.00057517383099788108 0.0044833201992374025 0 -0.00045722526733196555 0.0045261393828361076 0 -0.00045414819582388367 0.004570140415430462 0 -0.00042541141868335778 0.0045681354073335307 0 -0.00045414819582388367 0.004570140415430462 0 -0.00042541141868335778 0.0045681354073335307 0 -0.00041206992473327936 0.0046048935292192818 0 -0.00042541141868335778 0.0045681354073335307 0 -0.0003967635825657334 0.0045330550212177162 0 -0.0003878881180506885 0.0045784911381278942 0 -0.00045722526733196555 0.0045261393828361076 0 -0.00042541141868335778 0.0045681354073335307 0 -0.0003967635825657334 0.0045330550212177162 0 -0.00034211310481641689 0.0045736040836614963 0 -0.0003967635825657334 0.0045330550212177162 0 -0.0003878881180506885 0.0045784911381278942 0 -0.0003878881180506885 0.0045784911381278942 0 -0.00036343892691182767 0.0046129759454799132 0 -0.00041206992473327936 0.0046048935292192818 0 -0.00040035229663411796 0.0046682214715284007 0 -0.00045414819582388367 0.004570140415430462 0 -0.00041206992473327936 0.0046048935292192818 0 -0.00034211310481641689 0.0045736040836614963 0 -0.0003878881180506885 0.0045784911381278942 0 -0.00036343892691182767 0.0046129759454799132 0 -0.00042541141868335778 0.0045681354073335307 0 -0.0003878881180506885 0.0045784911381278942 0 -0.00041206992473327936 0.0046048935292192818 0 -0.0004265373652486492 0.0041208772525612386 0 -0.00050868823149744868 0.0044902222676953809 0 -0.00040035229663411796 0.0046682214715284007 0 -0.00036343892691182767 0.0046129759454799132 0 -0.00041206992473327936 0.0046048935292192818 0 -0.00039481265293363053 0.0046717856664388975 0 -0.00036343892691182767 0.0046129759454799132 0 -0.00036078893069081485 0.0046513309970328447 0 -0.00045722526733196555 0.0045261393828361076 0 -0.00041622327886400623 0.0044522620562740247 0 -0.00057517383099788108 0.0044833201992374025 0 -0.00040341242353956916 0.0043621702968705918 0 -0.00055571247555582311 0.0041595266794637303 0 -0.00042087675231521808 0.0042716942388481898 0 -0.00046361509602636596 0.0041986912576261063 0 -0.00048633803326868767 0.004158634690120005 0 -0.00032338185475468074 0.0045031482520858993 0 -0.0003967635825657334 0.0045330550212177162 0 -0.00041622327886400623 0.0044522620562740247 0 -0.00045722526733196555 0.0045261393828361076 0 -0.0003967635825657334 0.0045330550212177162 0 -0.00041622327886400623 0.0044522620562740247 0 -0.00042087675231521808 0.0042716942388481898 0 -0.00046361509602636596 0.0041986912576261063 0 -0.00038906189957403268 0.0042537322986692522 0 -0.00046361509602636596 0.0041986912576261063 0 -0.00049397537145782079 0.0041339202580244977 0 -0.0004769392704651325 0.0041731971265021126 0 -0.00046361509602636596 0.0041986912576261063 0 -0.00049397537145782079 0.0041339202580244977 0 -0.00048633803326868767 0.004158634690120005 0 -0.00054500135023248823 0.0041619804845559275 0 -0.00055571247555582311 0.0041595266794637303 0 -0.00049397537145782079 0.0041339202580244977 0 -0.0004769392704651325 0.0041731971265021126 0 -0.00045672202061589848 0.004157136992887743 0 -0.0004769392704651325 0.0041731971265021126 0 -0.00047733201588867662 0.0041608192152052092 0 -0.00045672202061589848 0.004157136992887743 0 -0.00047733201588867662 0.0041608192152052092 0 -0.00045180794762067164 0.0041733641981652652 0 -0.0004668875556385518 0.0041251242628783293 0 -0.0004769392704651325 0.0041731971265021126 0 -0.00047733201588867662 0.0041608192152052092 0 -0.00045180794762067164 0.0041733641981652652 0 -0.00046361509602636596 0.0041986912576261063 0 -0.0004769392704651325 0.0041731971265021126 0 -0.00045180794762067164 0.0041733641981652652 0 -0.00045180794762067164 0.0041733641981652652 0 -0.00039293493521563622 0.0041870907839280831 0 -0.00041393413656286125 0.0041066967152291814 0 -0.00046361509602636596 0.0041986912576261063 0 -0.00045180794762067164 0.0041733641981652652 0 -0.00038906189957403268 0.0042537322986692522 0 -0.00045180794762067164 0.0041733641981652652 0 -0.00039293493521563622 0.0041870907839280831 0 -0.00038906189957403268 0.0042537322986692522 0 -0.00014335953596230508 0.0040130169539270609 0 -0.00035326943921792643 0.0039405997945545466 0 -0.00030859112249583193 0.0041280319405130042 0 -0.00035326943921792643 0.0039405997945545466 0 -0.00049397537145782079 0.0041339202580244977 0 -0.00051186899597565683 0.0041200041353089854 0 -0.00035326943921792643 0.0039405997945545466 0 -0.00030859112249583193 0.0041280319405130042 0 -0.00045672202061589848 0.004157136992887743 0 -0.00029699752485236536 0.0038346842752865072 0 -0.00055571247555582311 0.0041595266794637303 0 -0.00035326943921792643 0.0039405997945545466 0 -0.00049397537145782079 0.0041339202580244977 0 -0.00045672202061589848 0.004157136992887743 0 -0.00030859112249583193 0.0041280319405130042 0 -0.00045672202061589848 0.004157136992887743 0 -0.00041082044764430005 0.0043215127569661482 0 -0.00045672202061589848 0.004157136992887743 0 -0.00048896624031920081 0.0041504787121718484 0 -0.00050967169093524105 0.0041455668524630063 0 -0.00042645019005904271 0.0042863134452933872 0 -0.00058022519337421234 0.0038645030602077386 0 -0.00047733201588867662 0.0041608192152052092 0 -0.00045672202061589848 0.004157136992887743 0 -0.00048896624031920081 0.0041504787121718484 0 -0.00047733201588867662 0.0041608192152052092 0 -0.00048896624031920081 0.0041504787121718484 0 -0.0004861417236329295 0.0041367233143507843 0 -0.00060925665183925442 0.0036859514278407535 0 -0.00058022519337421234 0.0038645030602077386 0 -0.00011897463611447074 0.0042157086945312583 0 -0.00030859112249583193 0.0041280319405130042 0 -0.00041082044764430005 0.0043215127569661482 0 -0.00014335953596230508 0.0040130169539270609 0 -0.00011897463611447074 0.0042157086945312583 0 -0.00030859112249583193 0.0041280319405130042 0 -0.0010582405330115715 0.0032027489502662299 0 -0.0010774262011454131 0.0032278512092591897 0 -0.0010491982600174749 0.0032179277905877665 0 -0.0010582405330115715 0.0032027489502662299 0 -0.0010829817956564756 0.0031979585368554085 0 -0.0010774262011454131 0.0032278512092591897 0 -0.0010422947006939623 0.0031737493873573558 0 -0.0010582405330115715 0.0032027489502662299 0 -0.0010829817956564756 0.0031979585368554085 0 -0.00050967169093524105 0.0041455668524630063 0 -0.00050538256079950251 0.0041215841241889917 0 -0.0005523308079681496 0.0040720847194510882 0 -0.00058022519337421234 0.0038645030602077386 0 -0.00082803081010759732 0.0036133674917187128 0 -0.00048896624031920081 0.0041504787121718484 0 -0.0004861417236329295 0.0041367233143507843 0 -0.00049455683496505093 0.0041406739104195124 0 -0.00048896624031920081 0.0041504787121718484 0 -0.00050967169093524105 0.0041455668524630063 0 -0.00049455683496505093 0.0041406739104195124 0 -0.00050967169093524105 0.0041455668524630063 0 -0.00050418571685286395 0.0041379563714666334 0 -0.00049455683496505093 0.0041406739104195124 0 -0.00050967169093524105 0.0041455668524630063 0 -0.00050418571685286395 0.0041379563714666334 0 -0.00050538256079950251 0.0041215841241889917 0 -0.00050418571685286395 0.0041379563714666334 0 -0.00049455683496505093 0.0041406739104195124 0 -0.00050538256079950251 0.0041215841241889917 0 -0.0004861417236329295 0.0041367233143507843 0 -0.00049455683496505093 0.0041406739104195124 0 -0.00050538256079950251 0.0041215841241889917 0 -0.00050538256079950251 0.0041215841241889917 0 -0.00049503459259135846 0.0040940661842725759 0 -0.0005523308079681496 0.0040720847194510882 0 -0.0004861417236329295 0.0041367233143507843 0 -0.00050538256079950251 0.0041215841241889917 0 -0.00049503459259135846 0.0040940661842725759 0 -0.00049503459259135846 0.0040940661842725759 0 -0.00051598742320961392 0.0040233533491865724 0 -0.00046299542066282099 0.0040653272109146084 0 -0.0005523308079681496 0.0040720847194510882 0 -0.00051598742320961392 0.0040233533491865724 0 -0.00058750234202505417 0.0039793921062565834 0 -0.00049503459259135846 0.0040940661842725759 0 -0.0005523308079681496 0.0040720847194510882 0 -0.00051598742320961392 0.0040233533491865724 0 -0.00066830352330546447 0.0041183529470974469 0 -0.0003926329992818526 0.0042793545134950529 0 -0.00068982917036790716 0.0040468140658303552 0 -0.00052170350903322246 0.0043027894973106618 0 -0.00069445840215167525 0.0043161376425150406 0 -0.00082803081010759732 0.0036133674917187128 0 -0.00092398830269355321 0.0036038650260446625 0 -0.0010774262011454131 0.0032278512092591897 0 -0.0010614088990456652 0.0032382754883710442 0 -0.001072857090127165 0.0032595910035701854 0 -0.0010774262011454131 0.0032278512092591897 0 -0.0010614088990456652 0.0032382754883710442 0 -0.0010491982600174749 0.0032179277905877665 0 -0.00029717472424321421 0.0041670573746011115 0 -0.00039293493521563622 0.0041870907839280831 0 -0.00041393413656286125 0.0041066967152291814 0 -0.00045180794762067164 0.0041733641981652652 0 -0.00041393413656286125 0.0041066967152291814 0 -0.0004668875556385518 0.0041251242628783293 0 -0.00029891165741086209 0.0044530446516033223 0 -0.00040833478121082042 0.0044197782166341976 0 -0.00042667030050927575 0.0043812928067996464 0 -0.00028856484465132365 0.0047001154531305898 0 -0.00049016722173683041 0.0045107833368442062 0 -0.00049503459259135846 0.0040940661842725759 0 -0.0004668875556385518 0.0041251242628783293 0 -0.00046299542066282099 0.0040653272109146084 0 -0.00041393413656286125 0.0041066967152291814 0 -0.0004668875556385518 0.0041251242628783293 0 -0.00046299542066282099 0.0040653272109146084 0 -0.00047733201588867662 0.0041608192152052092 0 -0.0004861417236329295 0.0041367233143507843 0 -0.0004668875556385518 0.0041251242628783293 0 -0.0004861417236329295 0.0041367233143507843 0 -0.00049503459259135846 0.0040940661842725759 0 -0.0004668875556385518 0.0041251242628783293 0 -0.00064206695056212592 0.0045939229543183304 0 -0.00050441370162766265 0.0045241570734139173 0 -0.00065604396817704985 0.0044662892997091612 0 -0.00054764381158178734 0.0040948836459387518 0 -0.00052170350903322246 0.0043027894973106618 0 -0.00049016722173683041 0.0045107833368442062 0 -0.00052170350903322246 0.0043027894973106618 0 -0.00040833478121082042 0.0044197782166341976 0 -0.00042667030050927575 0.0043812928067996464 0 -0.00055362450794190789 0.0043095598877605397 0 -0.00040789602612908727 0.0047244710387208833 0 -0.00052538665091476054 0.0046587471314740751 0 -0.00050441370162766265 0.0045241570734139173 0 -0.00052538665091476054 0.0046587471314740751 0 -0.00064206695056212592 0.0045939229543183304 0 -0.00050441370162766265 0.0045241570734139173 0 -0.00042567596866728677 0.0042387164556592803 0 -0.00052170350903322246 0.0043027894973106618 0 -0.00028856484465132365 0.0047001154531305898 0 -0.00050109663606147977 0.004565461299983851 0 -0.00050109663606147977 0.004565461299983851 0 -0.00058848784002638412 0.0043376481370123437 0 -0.00050441370162766265 0.0045241570734139173 0 -0.00065604396817704985 0.0044662892997091612 0 -0.00059574747207266317 0.0043273666617869412 0 -0.00064206695056212592 0.0045939229543183304 0 -0.00065604396817704985 0.0044662892997091612 0 -0.00076986255243171014 0.0045037661863556759 0 -0.00065604396817704985 0.0044662892997091612 0 -0.00059574747207266317 0.0043273666617869412 0 -0.00075082355666923682 0.0043865883092079712 0 -0.00041763865677414452 0.0043930485186267345 0 -0.00047703791942042183 0.0045981415292799819 0 -0.00059574747207266317 0.0043273666617869412 0 -0.00050236743353511784 0.0042162148320287534 0 -0.00041763865677414452 0.0043930485186267345 0 -0.00059574747207266317 0.0043273666617869412 0 -0.00092398830269355321 0.0036038650260446625 0 -0.0011442335888625934 0.003194276581295374 0 -0.0011086400751216668 0.0032689499054376768 0 -0.0010876873473468494 0.0032938729019214232 0 -0.0010521301298901549 0.0032867967524442534 0 -0.0009930334935429688 0.0038130344713870421 0 -0.00094923852512317805 0.0039569674586038871 0 -0.00068982917036790716 0.0040468140658303552 0 -0.00096853533388830358 0.0037683412515401474 0 -0.00092398830269355321 0.0036038650260446625 0 -0.0011022170060258714 0.0032850511175549677 0 -0.0011086400751216668 0.0032689499054376768 0 -0.0010876873473468494 0.0032938729019214232 0 -0.0010614088990456652 0.0032382754883710442 0 -0.001072857090127165 0.0032595910035701854 0 -0.0010503846692184601 0.0032528185722689985 0 -0.00054764381158178734 0.0040948836459387518 0 -0.00092398830269355321 0.0036038650260446625 0 -0.00066830352330546447 0.0041183529470974469 0 -0.00094923852512317805 0.0039569674586038871 0 -0.00068982917036790716 0.0040468140658303552 0 -0.00091303295296860532 0.0044008101818319269 0 -0.00076986255243171014 0.0045037661863556759 0 -0.00075082355666923682 0.0043865883092079712 0 -0.00065604396817704985 0.0044662892997091612 0 -0.00076986255243171014 0.0045037661863556759 0 -0.00075082355666923682 0.0043865883092079712 0 -0.00096853533388830358 0.0037683412515401474 0 -0.00069445840215167525 0.0043161376425150406 0 -0.0007772460477144049 0.0042490510305067744 0 -0.00091303295296860532 0.0044008101818319269 0 -0.00075082355666923682 0.0043865883092079712 0 -0.0007772460477144049 0.0042490510305067744 0 -0.00059574747207266317 0.0043273666617869412 0 -0.00075082355666923682 0.0043865883092079712 0 -0.0010386249489522661 0.0037769023823835892 0 -0.00096853533388830358 0.0037683412515401474 0 -0.000981726031062144 0.0041795074199228914 0 -0.0007772460477144049 0.0042490510305067744 0 -0.00091303295296860532 0.0044008101818319269 0 -0.0010947971102765403 0.0033453385420665538 0 -0.0011002040775858187 0.0032828199575767069 0 -0.0010876873473468494 0.0032938729019214232 0 -0.00096853533388830358 0.0037683412515401474 0 -0.0011662437382368507 0.0034696311112505846 0 -0.0010947971102765403 0.0033453385420665538 0 -0.0010876873473468494 0.0032938729019214232 0 -0.0010700094691466263 0.0033138424225959548 0 -0.0010441024340902064 0.0033290103270768282 0 -0.0010700094691466263 0.0033138424225959548 0 -0.0010521301298901549 0.0032867967524442534 0 -0.0010876873473468494 0.0032938729019214232 0 -0.0010700094691466263 0.0033138424225959548 0 -0.0010521301298901549 0.0032867967524442534 0 -0.0010441024340902064 0.0033290103270768282 0 -0.00099915762224626566 0.0033242569593763664 0 -0.0010182103799516147 0.0032922656935499934 0 -0.0010441024340902064 0.0033290103270768282 0 -0.0010521301298901549 0.0032867967524442534 0 -0.0010182103799516147 0.0032922656935499934 0 -0.0010521301298901549 0.0032867967524442534 0 -0.0010182103799516147 0.0032922656935499934 0 -0.0010255762003140707 0.003255716820762648 0 -0.00099797406222385172 0.0032602254305319489 0 -0.0010255762003140707 0.003255716820762648 0 -0.00099898138703627122 0.0032269812390555751 0 -0.0010182103799516147 0.0032922656935499934 0 -0.00099797406222385172 0.0032602254305319489 0 -0.0010255762003140707 0.003255716820762648 0 -0.001072857090127165 0.0032595910035701854 0 -0.0010521301298901549 0.0032867967524442534 0 -0.0010503846692184601 0.0032528185722689985 0 -0.0010255762003140707 0.003255716820762648 0 -0.0010503846692184601 0.0032528185722689985 0 -0.0010326082202946668 0.0032256425977101066 0 -0.0010521301298901549 0.0032867967524442534 0 -0.0010255762003140707 0.003255716820762648 0 -0.0010503846692184601 0.0032528185722689985 0 -0.0010614088990456652 0.0032382754883710442 0 -0.0010491982600174749 0.0032179277905877665 0 -0.0010326082202946668 0.0032256425977101066 0 -0.0010614088990456652 0.0032382754883710442 0 -0.0010503846692184601 0.0032528185722689985 0 -0.0010326082202946668 0.0032256425977101066 0 -0.0010491982600174749 0.0032179277905877665 0 -0.0010326082202946668 0.0032256425977101066 0 -0.0010369863546261927 0.0032019594811604417 0 -0.0010326082202946668 0.0032256425977101066 0 -0.00099898138703627122 0.0032269812390555751 0 -0.0010001926516907999 0.0031891612829470185 0 -0.0010255762003140707 0.003255716820762648 0 -0.0010326082202946668 0.0032256425977101066 0 -0.00099898138703627122 0.0032269812390555751 0 -0.0010422947006939623 0.0031737493873573558 0 -0.0010582405330115715 0.0032027489502662299 0 -0.0010369863546261927 0.0032019594811604417 0 -0.0010326082202946668 0.0032256425977101066 0 -0.0010001926516907999 0.0031891612829470185 0 -0.0010369863546261927 0.0032019594811604417 0 -0.0010422947006939623 0.0031737493873573558 0 -0.0010001926516907999 0.0031891612829470185 0 -0.0010369863546261927 0.0032019594811604417 0 -0.0010582405330115715 0.0032027489502662299 0 -0.0010491982600174749 0.0032179277905877665 0 -0.0010369863546261927 0.0032019594811604417 0 -0.00095449008992303864 0.0031643183721230305 0 -0.00095830011146645188 0.0031988164142152911 0 -0.00091954530697016751 0.0031779884033393403 0 -0.00095830011146645188 0.0031988164142152911 0 -0.00093217670387795327 0.0032128446872577679 0 -0.00091954530697016751 0.0031779884033393403 0 -0.00095449008992303864 0.0031643183721230305 0 -0.0010001926516907999 0.0031891612829470185 0 -0.00095830011146645188 0.0031988164142152911 0 -0.00099898138703627122 0.0032269812390555751 0 -0.0010001926516907999 0.0031891612829470185 0 -0.00095830011146645188 0.0031988164142152911 0 -0.00099898138703627122 0.0032269812390555751 0 -0.00095830011146645188 0.0031988164142152911 0 -0.00096706688327078674 0.0032294615346288385 0 -0.00096706688327078674 0.0032294615346288385 0 -0.00093217670387795327 0.0032128446872577679 0 -0.00094958148535557356 0.0032365795550728048 0 -0.00095830011146645188 0.0031988164142152911 0 -0.00096706688327078674 0.0032294615346288385 0 -0.00093217670387795327 0.0032128446872577679 0 -0.00093217670387795327 0.0032128446872577679 0 -0.00094958148535557356 0.0032365795550728048 0 -0.00092694549529975085 0.0032329994502770512 0 -0.00094958148535557356 0.0032365795550728048 0 -0.00095252279965989247 0.0032580470282447937 0 -0.00097211458633082812 0.0032536748589961067 0 -0.00094958148535557356 0.0032365795550728048 0 -0.00095252279965989247 0.0032580470282447937 0 -0.00092694549529975085 0.0032329994502770512 0 -0.00095252279965989247 0.0032580470282447937 0 -0.0009337537952073049 0.0032640877089372806 0 -0.00092694549529975085 0.0032329994502770512 0 -0.00099797406222385172 0.0032602254305319489 0 -0.00099898138703627122 0.0032269812390555751 0 -0.00096706688327078674 0.0032294615346288385 0 -0.00099797406222385172 0.0032602254305319489 0 -0.00096706688327078674 0.0032294615346288385 0 -0.00097211458633082812 0.0032536748589961067 0 -0.00096706688327078674 0.0032294615346288385 0 -0.00094958148535557356 0.0032365795550728048 0 -0.00097211458633082812 0.0032536748589961067 0 -0.00095252279965989247 0.0032580470282447937 0 -0.00097211458633082812 0.0032536748589961067 0 -0.00098005990828541512 0.0032837651091361568 0 -0.00099797406222385172 0.0032602254305319489 0 -0.00097211458633082812 0.0032536748589961067 0 -0.00098005990828541512 0.0032837651091361568 0 -0.00099915762224626566 0.0033242569593763664 0 -0.0010182103799516147 0.0032922656935499934 0 -0.00098005990828541512 0.0032837651091361568 0 -0.0010182103799516147 0.0032922656935499934 0 -0.00099797406222385172 0.0032602254305319489 0 -0.00098005990828541512 0.0032837651091361568 0 -0.00098005990828541512 0.0032837651091361568 0 -0.00097753852811315045 0.0033111276648923878 0 -0.00096151189206847027 0.0032843321585264542 0 -0.00099915762224626566 0.0033242569593763664 0 -0.00098005990828541512 0.0032837651091361568 0 -0.00097753852811315045 0.0033111276648923878 0 -0.00095252279965989247 0.0032580470282447937 0 -0.00096151189206847027 0.0032843321585264542 0 -0.0009337537952073049 0.0032640877089372806 0 -0.00095252279965989247 0.0032580470282447937 0 -0.00098005990828541512 0.0032837651091361568 0 -0.00096151189206847027 0.0032843321585264542 0 -0.00095642526278917953 0.0033111417188816561 0 -0.00097753852811315045 0.0033111276648923878 0 -0.00096151189206847027 0.0032843321585264542 0 -0.00095642526278917953 0.0033111417188816561 0 -0.00093040489944438932 0.0033014963234066709 0 -0.0009337537952073049 0.0032640877089372806 0 -0.00095642526278917953 0.0033111417188816561 0 -0.00096151189206847027 0.0032843321585264542 0 -0.0009337537952073049 0.0032640877089372806 0 -0.00093040489944438932 0.0033014963234066709 0 -0.0009337537952073049 0.0032640877089372806 0 -0.00090498946592986991 0.0032453081326751535 0 -0.0009337537952073049 0.0032640877089372806 0 -0.00090498946592986991 0.0032453081326751535 0 -0.00090534602010328819 0.0032249489479981384 0 -0.00089339171417534614 0.0032423756009664901 0 -0.00090498946592986991 0.0032453081326751535 0 -0.0008922680634825842 0.0032153905650082744 0 -0.00089339171417534614 0.0032423756009664901 0 -0.0008922680634825842 0.0032153905650082744 0 -0.00088513440113426717 0.0031902224848850574 0 -0.0008922680634825842 0.0032153905650082744 0 -0.00088822563913513455 0.0032023894124475739 0 -0.00088513440113426717 0.0031902224848850574 0 -0.0008922680634825842 0.0032153905650082744 0 -0.00088822563913513455 0.0032023894124475739 0 -0.00090534602010328819 0.0032249489479981384 0 -0.00090498946592986991 0.0032453081326751535 0 -0.0008922680634825842 0.0032153905650082744 0 -0.00090534602010328819 0.0032249489479981384 0 -0.00088822563913513455 0.0032023894124475739 0 -0.00090534602010328819 0.0032249489479981384 0 -0.00090282389075205163 0.0032142725106632818 0 -0.00088822563913513455 0.0032023894124475739 0 -0.00089424938217728554 0.0032158675629434482 0 -0.00090282389075205163 0.0032142725106632818 0 -0.00092694549529975085 0.0032329994502770512 0 -0.00090534602010328819 0.0032249489479981384 0 -0.00090282389075205163 0.0032142725106632818 0 -0.00093217670387795327 0.0032128446872577679 0 -0.00092694549529975085 0.0032329994502770512 0 -0.00090282389075205163 0.0032142725106632818 0 -0.0009337537952073049 0.0032640877089372806 0 -0.00092694549529975085 0.0032329994502770512 0 -0.00090534602010328819 0.0032249489479981384 0 -0.00069844522519695452 0.003107861980096726 0 -0.00062325240172435108 0.0029359833449169831 0 -0.00055840139604390127 0.0030552190142728655 0 -0.00069844522519695452 0.003107861980096726 0 -0.00085054865002227094 0.0030260313381332469 0 -0.00062325240172435108 0.0029359833449169831 0 -0.00087383077777555026 0.0032198706106133499 0 -0.00080898150551564428 0.0032119570899938037 0 -0.00088490183522038201 0.0031565831514163123 0 -0.00075325524285008161 0.0031728386923634277 0 -0.00085359726666428299 0.0030259416752529181 0 -0.00080898150551564428 0.0032119570899938037 0 -0.00085054865002227094 0.0030260313381332469 0 -0.00088490183522038201 0.0031565831514163123 0 -0.00087383077777555026 0.0032198706106133499 0 -0.00088490183522038201 0.0031565831514163123 0 -0.00088513440113426717 0.0031902224848850574 0 -0.00088822563913513455 0.0032023894124475739 0 -0.00088490183522038201 0.0031565831514163123 0 -0.00088513440113426717 0.0031902224848850574 0 -0.00085054865002227094 0.0030260313381332469 0 -0.00088490183522038201 0.0031565831514163123 0 -0.00096992622305910143 0.0027735503749116964 0 -0.00088822563913513455 0.0032023894124475739 0 -0.00088490183522038201 0.0031565831514163123 0 -0.00089424938217728554 0.0032158675629434482 0 -0.00088818455916592871 0.0031488164061735271 0 -0.00092955992494701291 0.0029950782129875763 0 -0.00085054865002227094 0.0030260313381332469 0 -0.00096992622305910143 0.0027735503749116964 0 -0.00076647084940740877 0.0027931709196723281 0 -0.00085054865002227094 0.0030260313381332469 0 -0.00076647084940740877 0.0027931709196723281 0 -0.00062325240172435108 0.0029359833449169831 0 -0.00076647084940740877 0.0027931709196723281 0 -0.00062325240172435108 0.0029359833449169831 0 -0.00061687591355559155 0.0026835835316452528 0 -0.00076647084940740877 0.0027931709196723281 0 -0.00061687591355559155 0.0026835835316452528 0 -0.00081619567140780395 0.0025518997205476401 0 -0.00096992622305910143 0.0027735503749116964 0 -0.00076647084940740877 0.0027931709196723281 0 -0.00081619567140780395 0.0025518997205476401 0 -0.00096992622305910143 0.0027735503749116964 0 -0.00081619567140780395 0.0025518997205476401 0 -0.0010258152717953187 0.0024504160724465223 0 -0.00081619567140780395 0.0025518997205476401 0 -0.00088437765760879879 0.0022771404272199812 0 -0.0006283572828367143 0.0022847289659217031 0 -0.00081619567140780395 0.0025518997205476401 0 -0.0010258152717953187 0.0024504160724465223 0 -0.00088437765760879879 0.0022771404272199812 0 -0.00061687591355559155 0.0026835835316452528 0 -0.00081619567140780395 0.0025518997205476401 0 -0.0006283572828367143 0.0022847289659217031 0 -0.00093217670387795327 0.0032128446872577679 0 -0.00091039698525741878 0.0031983059480531761 0 -0.00090282389075205163 0.0032142725106632818 0 -0.00089424938217728554 0.0032158675629434482 0 -0.00090282389075205163 0.0032142725106632818 0 -0.00089017616251689643 0.0031878245404219651 0 -0.00091039698525741878 0.0031983059480531761 0 -0.00090282389075205163 0.0032142725106632818 0 -0.00089017616251689643 0.0031878245404219651 0 -0.00092955992494701291 0.0029950782129875763 0 -0.00094970405689823753 0.0028309881383356064 0 -0.00089017616251689643 0.0031878245404219651 0 -0.00091954530697016751 0.0031779884033393403 0 -0.00089298963438557138 0.0031474718134248468 0 -0.00093217670387795327 0.0032128446872577679 0 -0.00091039698525741878 0.0031983059480531761 0 -0.00091954530697016751 0.0031779884033393403 0 -0.00091039698525741878 0.0031983059480531761 0 -0.00089017616251689643 0.0031878245404219651 0 -0.00091954530697016751 0.0031779884033393403 0 -0.00091954530697016751 0.0031779884033393403 0 -0.00091922700109816962 0.0031443310981385539 0 -0.00089298963438557138 0.0031474718134248468 0 -0.00091922700109816962 0.0031443310981385539 0 -0.00089298963438557138 0.0031474718134248468 0 -0.00089726481305122253 0.0031062187677160357 0 -0.00013323886360484713 0.0035913082929596822 0 -0.00049546189644654828 0.0027492214695005431 0 -0.00094244928034574818 0.0031268961401100916 0 -0.00091922700109816962 0.0031443310981385539 0 -0.00089726481305122253 0.0031062187677160357 0 -0.00090737472696324271 0.0020027396593082572 0 -0.0010250475729544884 0.0021272490620279495 0 -0.00089908609881579106 0.0019902760499486841 0 -0.00090737472696324271 0.0020027396593082572 0 -0.0010250475729544884 0.0021272490620279495 0 -0.00091908655408733 0.0020016045646136125 0 -0.00099832241886585135 0.0025955075896314178 0 -0.00049546189644654828 0.0027492214695005431 0 -0.0010258152717953187 0.0024504160724465223 0 -0.0010250475729544884 0.0021272490620279495 0 -0.00088437765760879879 0.0022771404272199812 0 -0.00094970405689823753 0.0028309881383356064 0 -0.00099832241886585135 0.0025955075896314178 0 -0.0010250475729544884 0.0021272490620279495 0 -0.00088437765760879879 0.0022771404272199812 0 -0.00089908609881579106 0.0019902760499486841 0 -0.00088437765760879879 0.0022771404272199812 0 -0.0006283572828367143 0.0022847289659217031 0 -0.00089908609881579106 0.0019902760499486841 0 -0.00082216521927489113 0.0020813036953654137 0 -0.00089722569895595711 0.0019931430553159 0 -0.0010132800721374367 0.0018743599255095587 0 -0.00089908609881579106 0.0019902760499486841 0 -0.00098899750611433569 0.0019565522129719299 0 -0.0010132800721374367 0.0018743599255095587 0 -0.00098899750611433569 0.0019565522129719299 0 -0.0010397067189846293 0.0018965763653734252 0 -0.00089908609881579106 0.0019902760499486841 0 -0.00091923655409344217 0.0020112417372230465 0 -0.00098899750611433569 0.0019565522129719299 0 -0.00090737472696324271 0.0020027396593082572 0 -0.00089908609881579106 0.0019902760499486841 0 -0.00091923655409344217 0.0020112417372230465 0 -0.00091923655409344217 0.0020112417372230465 0 -0.00096549427610613167 0.0020229541744598034 0 -0.00093704936256681654 0.0020964474889398426 0 -0.00091923655409344217 0.0020112417372230465 0 -0.00098899750611433569 0.0019565522129719299 0 -0.00096549427610613167 0.0020229541744598034 0 -0.00091923655409344217 0.0020112417372230465 0 -0.00088318763250089661 0.0020756078888988089 0 -0.00089112018270271908 0.0020287547187103619 0 -0.00098899750611433569 0.0019565522129719299 0 -0.0010123014889939675 0.0020336141261920486 0 -0.0010867424825794854 0.0019036240508228356 0 -0.00098899750611433569 0.0019565522129719299 0 -0.00096549427610613167 0.0020229541744598034 0 -0.0010123014889939675 0.0020336141261920486 0 -0.0010123014889939675 0.0020336141261920486 0 -0.00093704936256681654 0.0020964474889398426 0 -0.001007021349788916 0.0022142370250121859 0 -0.0010123014889939675 0.0020336141261920486 0 -0.0011394496675809819 0.0020808096348954273 0 -0.001007021349788916 0.0022142370250121859 0 -0.00096549427610613167 0.0020229541744598034 0 -0.0010123014889939675 0.0020336141261920486 0 -0.00093704936256681654 0.0020964474889398426 0 -0.00091923655409344217 0.0020112417372230465 0 -0.00093704936256681654 0.0020964474889398426 0 -0.00088318763250089661 0.0020756078888988089 0 -0.00093704936256681654 0.0020964474889398426 0 -0.00085501482577684152 0.002149332699066954 0 -0.00088318763250089661 0.0020756078888988089 0 -0.00093704936256681654 0.0020964474889398426 0 -0.00085501482577684152 0.002149332699066954 0 -0.00085760040875513394 0.0023071294159347278 0 -0.00085501482577684152 0.002149332699066954 0 -0.00085274402500225656 0.0021088361931762504 0 -0.00082242773635988 0.0021271527340430102 0 -0.00085501482577684152 0.002149332699066954 0 -0.00082242773635988 0.0021271527340430102 0 -0.00077246130889628431 0.0021674730461073112 0 -0.00085501482577684152 0.002149332699066954 0 -0.00088318763250089661 0.0020756078888988089 0 -0.00085274402500225656 0.0021088361931762504 0 -0.00088318763250089661 0.0020756078888988089 0 -0.00085274402500225656 0.0021088361931762504 0 -0.00085383405691488137 0.0020834683590542817 0 -0.00085383405691488137 0.0020834683590542817 0 -0.00078924862637647585 0.0021018137001400207 0 -0.00085900360089051552 0.0020450527641353994 0 -0.00085383405691488137 0.0020834683590542817 0 -0.00082242773635988 0.0021271527340430102 0 -0.00078924862637647585 0.0021018137001400207 0 -0.00085274402500225656 0.0021088361931762504 0 -0.00085383405691488137 0.0020834683590542817 0 -0.00082242773635988 0.0021271527340430102 0 -0.00082242773635988 0.0021271527340430102 0 -0.00078924862637647585 0.0021018137001400207 0 -0.00077246130889628431 0.0021674730461073112 0 0.00060950163363542986 0.0034803400239681631 0 0.00077597466769245853 0.0035718564938252094 0 0.00072093006789803978 0.0033622606357068849 0 4.0455425803460929e-06 0.0028874894930932429 0 -0.00013905644390612139 0.0027377073577881843 0 -0.00078924862637647585 0.0021018137001400207 0 -0.00084515639242788122 0.0019950392069616294 0 -0.00085900360089051552 0.0020450527641353994 0 4.0455425803460929e-06 0.0028874894930932429 0 -0.00049546189644654828 0.0027492214695005431 0 0.00061086283366175627 0.0036655682670940731 0 0.00077597466769245853 0.0035718564938252094 0 0.0008266612861410191 0.0037768796042100786 0 -0.00090737472696324271 0.0020027396593082572 0 -0.00091908655408733 0.0020016045646136125 0 -0.00089260009743673838 0.0020034727580633045 0 -0.00049546189644654828 0.0027492214695005431 0 -0.00062069865795572835 0.0026140472266615532 0 -0.00084515639242788122 0.0019950392069616294 0 -0.00089260009743673838 0.0020034727580633045 0 -0.00085900360089051552 0.0020450527641353994 0 -0.00090737472696324271 0.0020027396593082572 0 -0.00089260009743673838 0.0020034727580633045 0 -0.00089112018270271908 0.0020287547187103619 0 -0.00089260009743673838 0.0020034727580633045 0 -0.00089112018270271908 0.0020287547187103619 0 -0.00085900360089051552 0.0020450527641353994 0 -0.00090737472696324271 0.0020027396593082572 0 -0.00091923655409344217 0.0020112417372230465 0 -0.00089112018270271908 0.0020287547187103619 0 -0.00088318763250089661 0.0020756078888988089 0 -0.00085383405691488137 0.0020834683590542817 0 -0.00089112018270271908 0.0020287547187103619 0 -0.00085383405691488137 0.0020834683590542817 0 -0.00089112018270271908 0.0020287547187103619 0 -0.00085900360089051552 0.0020450527641353994 0 -0.0009054808831646193 0.0017554598800749511 0 -0.00097335560148000477 0.0017495658570018263 0 -0.00097953792568347339 0.0018297713183175759 0 -0.00097335560148000477 0.0017495658570018263 0 -0.0010297391398836997 0.0018504727100148747 0 -0.00097953792568347339 0.0018297713183175759 0 -0.0009054808831646193 0.0017554598800749511 0 -0.0008910238240457597 0.0016767731919090287 0 -0.00097335560148000477 0.0017495658570018263 0 -0.0008910238240457597 0.0016767731919090287 0 -0.00097335560148000477 0.0017495658570018263 0 -0.00097747646936181083 0.0016106305672407082 0 -0.00097335560148000477 0.0017495658570018263 0 -0.0010342350637335834 0.0017050782902996052 0 -0.00097747646936181083 0.0016106305672407082 0 -0.00097335560148000477 0.0017495658570018263 0 -0.0010342350637335834 0.0017050782902996052 0 -0.0010377004813371361 0.0017953271661450001 0 -0.0010342350637335834 0.0017050782902996052 0 -0.0011097091988456608 0.0017334451408473289 0 -0.0010982985613691696 0.0016392319528900057 0 -0.0010342350637335834 0.0017050782902996052 0 -0.0010377004813371361 0.0017953271661450001 0 -0.0011097091988456608 0.0017334451408473289 0 -0.0010123014889939675 0.0020336141261920486 0 -0.0011394496675809819 0.0020808096348954273 0 -0.0010867424825794854 0.0019036240508228356 0 -0.0011150607410866399 0.0018968058348158064 0 -0.0011006038022213411 0.0019052465483299288 0 -0.0010377004813371361 0.0017953271661450001 0 -0.0011097091988456608 0.0017334451408473289 0 -0.0010867424825794854 0.0019036240508228356 0 -0.0010867424825794854 0.0019036240508228356 0 -0.0010297391398836997 0.0018504727100148747 0 -0.0010397067189846293 0.0018965763653734252 0 -0.00098899750611433569 0.0019565522129719299 0 -0.0010867424825794854 0.0019036240508228356 0 -0.0010397067189846293 0.0018965763653734252 0 -0.00097335560148000477 0.0017495658570018263 0 -0.0010377004813371361 0.0017953271661450001 0 -0.0010297391398836997 0.0018504727100148747 0 -0.0010377004813371361 0.0017953271661450001 0 -0.0010867424825794854 0.0019036240508228356 0 -0.0010297391398836997 0.0018504727100148747 0 -0.0010297391398836997 0.0018504727100148747 0 -0.0010220493197431169 0.0018715018331807458 0 -0.00097953792568347339 0.0018297713183175759 0 -0.0010297391398836997 0.0018504727100148747 0 -0.0010397067189846293 0.0018965763653734252 0 -0.0010220493197431169 0.0018715018331807458 0 -0.0010132800721374367 0.0018743599255095587 0 -0.0010397067189846293 0.0018965763653734252 0 -0.0010220493197431169 0.0018715018331807458 0 -0.0010220493197431169 0.0018715018331807458 0 -0.00097970242051369444 0.0018695743916650352 0 -0.00097953792568347339 0.0018297713183175759 0 -0.00097970242051369444 0.0018695743916650352 0 -0.00097953792568347339 0.0018297713183175759 0 -0.00093336553831925128 0.0018201487615771617 0 -0.00097970242051369444 0.0018695743916650352 0 -0.00093336553831925128 0.0018201487615771617 0 -0.00093436933710140365 0.001855513704577079 0 -0.0009054808831646193 0.0017554598800749511 0 -0.00093336553831925128 0.0018201487615771617 0 -0.00086893827274452139 0.0017674880010371647 0 -0.0009054808831646193 0.0017554598800749511 0 -0.00097953792568347339 0.0018297713183175759 0 -0.00093336553831925128 0.0018201487615771617 0 -0.00093336553831925128 0.0018201487615771617 0 -0.00086893827274452139 0.0017674880010371647 0 -0.00089099353564903541 0.0018312771913565177 0 -0.00093336553831925128 0.0018201487615771617 0 -0.00093436933710140365 0.001855513704577079 0 -0.00089099353564903541 0.0018312771913565177 0 -0.00093436933710140365 0.001855513704577079 0 -0.00090788636583442395 0.0018813086330600908 0 -0.00089099353564903541 0.0018312771913565177 0 -0.00093436933710140365 0.001855513704577079 0 -0.00090788636583442395 0.0018813086330600908 0 -0.00095264170661934187 0.001887391560216741 0 -0.00097970242051369444 0.0018695743916650352 0 -0.00093436933710140365 0.001855513704577079 0 -0.00095264170661934187 0.001887391560216741 0 -0.00097970242051369444 0.0018695743916650352 0 -0.00095264170661934187 0.001887391560216741 0 -0.00097675980837675898 0.0019076908983948692 0 -0.00097675980837675898 0.0019076908983948692 0 -0.00093775300299542318 0.0019245716709209556 0 -0.00097135841867049505 0.0019618938849547225 0 -0.00095264170661934187 0.001887391560216741 0 -0.00097675980837675898 0.0019076908983948692 0 -0.00093775300299542318 0.0019245716709209556 0 -0.00090788636583442395 0.0018813086330600908 0 -0.00093775300299542318 0.0019245716709209556 0 -0.00087209168217635986 0.0019318961449670559 0 -0.00090788636583442395 0.0018813086330600908 0 -0.00095264170661934187 0.001887391560216741 0 -0.00093775300299542318 0.0019245716709209556 0 -0.0010220493197431169 0.0018715018331807458 0 -0.00097970242051369444 0.0018695743916650352 0 -0.0010131367032184143 0.0019001822096572098 0 -0.0010132800721374367 0.0018743599255095587 0 -0.0010220493197431169 0.0018715018331807458 0 -0.0010131367032184143 0.0019001822096572098 0 -0.00061687591355559155 0.0026835835316452528 0 -0.0006283572828367143 0.0022847289659217031 0 -0.00040510064693267966 0.0025975335833084779 0 -0.00082216521927489113 0.0020813036953654137 0 -0.00071539766599347835 0.0022448963230624268 0 -0.00097970242051369444 0.0018695743916650352 0 -0.00097675980837675898 0.0019076908983948692 0 -0.0010131367032184143 0.0019001822096572098 0 -0.00097675980837675898 0.0019076908983948692 0 -0.0010131367032184143 0.0019001822096572098 0 -0.00097135841867049505 0.0019618938849547225 0 -0.00071539766599347835 0.0022448963230624268 0 -0.00059980368348327442 0.0024023363028684627 0 -0.00061687591355559155 0.0026835835316452528 0 -0.00040510064693267966 0.0025975335833084779 0 -0.00045268061831977706 0.0028388871805108723 0 -0.00062325240172435108 0.0029359833449169831 0 -0.00045268061831977706 0.0028388871805108723 0 -0.00045116461077848117 0.0029579559068316033 0 -0.00062325240172435108 0.0029359833449169831 0 -0.00061687591355559155 0.0026835835316452528 0 -0.00045268061831977706 0.0028388871805108723 0 -0.00045268061831977706 0.0028388871805108723 0 -0.00037287143485706728 0.0029336650880888394 0 -0.00045116461077848117 0.0029579559068316033 0 -0.00045268061831977706 0.0028388871805108723 0 -0.00037287143485706728 0.0029336650880888394 0 -0.00026637857898118532 0.0028393848879663297 0 -0.00040510064693267966 0.0025975335833084779 0 -0.00045268061831977706 0.0028388871805108723 0 -0.00026637857898118532 0.0028393848879663297 0 -0.00034819336229268512 0.0029886580721485262 0 -0.00037287143485706728 0.0029336650880888394 0 -0.00026637857898118532 0.0028393848879663297 0 -0.00034819336229268512 0.0029886580721485262 0 -0.00034361207075244283 0.0029970412942515235 0 -0.00037287143485706728 0.0029336650880888394 0 -0.00034819336229268512 0.0029886580721485262 0 -0.00038305686601851216 0.0029363249391211915 0 -0.00034361207075244283 0.0029970412942515235 0 -0.00034361207075244283 0.0029970412942515235 0 -0.00037287143485706728 0.0029336650880888394 0 -0.00045116461077848117 0.0029579559068316033 0 -0.00062325240172435108 0.0029359833449169831 0 -0.00045116461077848117 0.0029579559068316033 0 -0.00055840139604390127 0.0030552190142728655 0 -0.00034361207075244283 0.0029970412942515235 0 -0.00045116461077848117 0.0029579559068316033 0 -0.00047918688778162658 0.0030634765015057804 0 -0.00045116461077848117 0.0029579559068316033 0 -0.00047918688778162658 0.0030634765015057804 0 -0.00055840139604390127 0.0030552190142728655 0 -0.00091331599670558465 0.0019674710171006336 0 -0.00097135841867049505 0.0019618938849547225 0 -0.00090926582350891268 0.0020303024200660912 0 -0.00093775300299542318 0.0019245716709209556 0 -0.00091331599670558465 0.0019674710171006336 0 -0.00087209168217635986 0.0019318961449670559 0 -0.00093775300299542318 0.0019245716709209556 0 -0.00091331599670558465 0.0019674710171006336 0 -0.00097135841867049505 0.0019618938849547225 0 -0.00048320763513278397 0.0029098339487472853 0 -0.00034819336229268512 0.0029886580721485262 0 -0.00071031620348993183 0.0029765970494571715 0 -0.00025822967047443819 0.003120941851908806 0 -0.00060334791765926841 0.0025211722090877371 0 -0.00059980368348327442 0.0024023363028684627 0 -0.00060334791765926841 0.0025211722090877371 0 -0.00034819336229268512 0.0029886580721485262 0 -0.00026637857898118532 0.0028393848879663297 0 -0.00010382474366244032 0.0030157600394500627 0 -0.00048320763513278397 0.0029098339487472853 0 -0.00034819336229268512 0.0029886580721485262 0 -0.00038305686601851216 0.0029363249391211915 0 -0.00091331599670558465 0.0019674710171006336 0 -0.00090926582350891268 0.0020303024200660912 0 -0.00086499537768239384 0.0019874194427270185 0 -0.00080846019928402341 0.0020793299256650515 0 -0.00060334791765926841 0.0025211722090877371 0 -0.00082024118744741304 0.0020435344383987297 0 -0.00090926582350891268 0.0020303024200660912 0 -0.00086499537768239384 0.0019874194427270185 0 -0.00086499537768239384 0.0019874194427270185 0 -0.00082010178777370917 0.0019715508152875552 0 -0.00087209168217635986 0.0019318961449670559 0 -0.00091331599670558465 0.0019674710171006336 0 -0.00086499537768239384 0.0019874194427270185 0 -0.00087209168217635986 0.0019318961449670559 0 -0.00082010178777370917 0.0019715508152875552 0 -0.00078255907546772273 0.0019987648653944268 0 -0.00079186662306472743 0.0019251592363010584 0 -0.00082010178777370917 0.0019715508152875552 0 -0.00087209168217635986 0.0019318961449670559 0 -0.00079186662306472743 0.0019251592363010584 0 -0.00082024118744741304 0.0020435344383987297 0 -0.00086499537768239384 0.0019874194427270185 0 -0.00082010178777370917 0.0019715508152875552 0 -0.00082024118744741304 0.0020435344383987297 0 -0.00082010178777370917 0.0019715508152875552 0 -0.00078255907546772273 0.0019987648653944268 0 -0.00072163972338040554 0.0020574217038999186 0 -0.00082024118744741304 0.0020435344383987297 0 -0.00078255907546772273 0.0019987648653944268 0 -0.00072163972338040554 0.0020574217038999186 0 -0.00078255907546772273 0.0019987648653944268 0 -0.00072152518165945374 0.0019529060193281202 0 -0.00065675882024546965 0.0018153996999450443 0 -0.00062814705836125747 0.0016863340101931047 0 -0.000468103420451708 0.0014712592791560803 0 -0.00052774205225123198 0.0014631960322299966 0 -0.0004343300167329228 0.0013499862613785909 0 -0.00052774205225123198 0.0014631960322299966 0 -0.00052912380282867056 0.001281481269099714 0 -0.0004343300167329228 0.0013499862613785909 0 -0.00052912380282867056 0.001281481269099714 0 -0.0004343300167329228 0.0013499862613785909 0 -0.00043602796612706102 0.0012157314933960029 0 -0.00062814705836125747 0.0016863340101931047 0 -0.00046372619952634783 0.0014003435267059446 0 -0.00083928037671767743 0.0020573001809956666 0 -0.00062814705836125747 0.0016863340101931047 0 -0.00078255907546772273 0.0019987648653944268 0 -0.00072447724146424981 0.0019598758189645349 0 -0.00079186662306472743 0.0019251592363010584 0 -0.00072447724146424981 0.0019598758189645349 0 -0.00072271394700268487 0.0018906918725108449 0 -0.00079186662306472743 0.0019251592363010584 0 -0.00072271394700268487 0.0018906918725108449 0 -0.00077688913490187527 0.0018554950190084725 0 -0.00079186662306472743 0.0019251592363010584 0 -0.00062814705836125747 0.0016863340101931047 0 -0.00065204760475806437 0.0017921031782536945 0 -0.00058362198342829918 0.0016557195283161323 0 -0.0005836650274409083 0.0016463137046306545 0 -0.00057574446351284995 0.0016501582526225627 0 -0.0005836650274409083 0.0016463137046306545 0 -0.0005771087761224145 0.0016454875533509379 0 -0.00057574446351284995 0.0016501582526225627 0 -0.00065092232613342329 0.0016614777772583492 0 -0.00069637205729204058 0.0017145512864718418 0 -0.00058076475206466944 0.0016408975677859911 0 -0.00057694473214008599 0.0016403791233144801 0 -0.00058362675450724961 0.0016386760652252724 0 -0.00065204760475806437 0.0017921031782536945 0 -0.00069637205729204058 0.0017145512864718418 0 -0.0005836650274409083 0.0016463137046306545 0 -0.00058076475206466944 0.0016408975677859911 0 -0.00058362675450724961 0.0016386760652252724 0 -0.0005836650274409083 0.0016463137046306545 0 -0.0005771087761224145 0.0016454875533509379 0 -0.00058076475206466944 0.0016408975677859911 0 -0.00072271394700268487 0.0018906918725108449 0 -0.00077688913490187527 0.0018554950190084725 0 -0.00071897270959699316 0.0018105636330530939 0 -0.00077688913490187527 0.0018554950190084725 0 -0.00081282931858420952 0.0017851993899762545 0 -0.00071897270959699316 0.0018105636330530939 0 -0.00077688913490187527 0.0018554950190084725 0 -0.00084760718880954992 0.0018572997273435081 0 -0.00079186662306472743 0.0019251592363010584 0 -0.00077688913490187527 0.0018554950190084725 0 -0.00084760718880954992 0.0018572997273435081 0 -0.00081282931858420952 0.0017851993899762545 0 -0.00090788636583442395 0.0018813086330600908 0 -0.00084760718880954992 0.0018572997273435081 0 -0.00089099353564903541 0.0018312771913565177 0 -0.00090788636583442395 0.0018813086330600908 0 -0.00084760718880954992 0.0018572997273435081 0 -0.00087209168217635986 0.0019318961449670559 0 -0.00084760718880954992 0.0018572997273435081 0 -0.00087209168217635986 0.0019318961449670559 0 -0.00079186662306472743 0.0019251592363010584 0 -0.00052355047414450677 -0.00039759314003069902 0 -0.00053114936759053881 -0.00041609561769476942 0 -0.0005418672561999918 -0.00038462487140625344 0 -0.00045746453023462474 0.00053365573123312859 0 -0.00032787633207585954 0.00047275029009656659 0 -0.00051377229889282272 -0.00036081231423699001 0 -0.00052355047414450677 -0.00039759314003069902 0 -0.0005418672561999918 -0.00038462487140625344 0 -0.0001571155812483902 0.0013778853048541536 0 -0.00024181252796348941 0.0013238965185731403 0 -0.00031703540377344016 0.0013957451904849285 0 -9.2370581374315482e-05 0.0012712431352172677 0 -0.0001571155812483902 0.0013778853048541536 0 -0.00024181252796348941 0.0013238965185731403 0 -0.00045746453023462474 0.00053365573123312859 0 -0.00025994992716201799 0.0015907228903691319 0 -9.2370581374315482e-05 0.0012712431352172677 0 -0.00024181252796348941 0.0013238965185731403 0 -0.00021724336927843812 0.0012145662415977069 0 -0.00024181252796348941 0.0013238965185731403 0 -0.00033133031934107904 0.001274923504101176 0 -0.00021724336927843812 0.0012145662415977069 0 -0.00024181252796348941 0.0013238965185731403 0 -0.00033133031934107904 0.001274923504101176 0 -0.00031703540377344016 0.0013957451904849285 0 -0.000468103420451708 0.0014712592791560803 0 -0.00031703540377344016 0.0013957451904849285 0 -0.0004343300167329228 0.0013499862613785909 0 -0.00033133031934107904 0.001274923504101176 0 -0.00031703540377344016 0.0013957451904849285 0 -0.0004343300167329228 0.0013499862613785909 0 -0.00033133031934107904 0.001274923504101176 0 -0.0004343300167329228 0.0013499862613785909 0 -0.00043602796612706102 0.0012157314933960029 0 -0.00033133031934107904 0.001274923504101176 0 -0.00043602796612706102 0.0012157314933960029 0 -0.00034528952093168595 0.0011531771136158871 0 -0.0005771087761224145 0.0016454875533509379 0 -0.00057574446351284995 0.0016501582526225627 0 -0.00056763712257973376 0.0016444777635329913 0 -0.00046372619952634783 0.0014003435267059446 0 -0.00049544362966176937 0.0015659324200409947 0 -0.0005771087761224145 0.0016454875533509379 0 -0.00058076475206466944 0.0016408975677859911 0 -0.00056763712257973376 0.0016444777635329913 0 -0.00058076475206466944 0.0016408975677859911 0 -0.00057694473214008599 0.0016403791233144801 0 -0.00057438885730901697 0.0016440577593326306 0 -0.00060141374570897913 0.0016542532430536194 0 -0.00049544362966176937 0.0015659324200409947 0 -0.00065092232613342329 0.0016614777772583492 0 -0.00059107356655625656 0.0016955585446586103 0 -0.00072342910724014465 0.001692226331022011 0 -0.00065290935652978694 0.0017053457420316616 0 -0.0006748683768617043 0.0016562349290443657 0 -0.0004789606670918278 0.0017444111274322594 0 -0.00048332775802369419 0.001746631220316443 0 -0.00047636161678220578 0.0017482025961117558 0 -0.00057694473214008599 0.0016403791233144801 0 -0.00057128577834643986 0.0016420987833554569 0 -0.00057438885730901697 0.0016440577593326306 0 -0.00059107356655625656 0.0016955585446586103 0 -0.00049544362966176937 0.0015659324200409947 0 -0.00065290935652978694 0.0017053457420316616 0 -0.000632404354699167 0.0016917867026429421 0 -0.0006748683768617043 0.0016562349290443657 0 -0.00048332775802369419 0.001746631220316443 0 -0.00047535516478810098 0.0017520438887863674 0 -0.00047636161678220578 0.0017482025961117558 0 -0.00033133031934107904 0.001274923504101176 0 -0.00034528952093168595 0.0011531771136158871 0 -0.00021724336927843812 0.0012145662415977069 0 -0.00049544362966176937 0.0015659324200409947 0 -0.00025994992716201799 0.0015907228903691319 0 -0.00047535516478810098 0.0017520438887863674 0 -0.00047636161678220578 0.0017482025961117558 0 -0.00047096515235661669 0.0017526270999834708 0 -0.00047636161678220578 0.0017482025961117558 0 -0.00047306996459883143 0.0017470689054317609 0 -0.00047096515235661669 0.0017526270999834708 0 -0.00059107356655625656 0.0016955585446586103 0 -0.00051822022873476584 0.0017421217437693806 0 -0.0004789606670918278 0.0017444111274322594 0 -0.00047636161678220578 0.0017482025961117558 0 -0.00047306996459883143 0.0017470689054317609 0 -0.00066407879220077137 0.0017138553573836776 0 -0.000632404354699167 0.0016917867026429421 0 -0.00057559181471635045 0.0017386384784743168 0 -0.00059107356655625656 0.0016955585446586103 0 -0.00062516199979504943 0.0017078201406053742 0 -0.000632404354699167 0.0016917867026429421 0 -0.00061103459607137693 0.0016699833874356863 0 -0.00063079741806051947 0.0016495146126624949 0 -0.000632404354699167 0.0016917867026429421 0 -0.00061103459607137693 0.0016699833874356863 0 -0.00058312636103479071 0.001689958388087789 0 -0.000632404354699167 0.0016917867026429421 0 -0.00058312636103479071 0.001689958388087789 0 -0.00057559181471635045 0.0017386384784743168 0 -0.00058312636103479071 0.001689958388087789 0 -0.00052513750382759906 0.0016720672469271729 0 -0.00058500299420604133 0.0016515069453821452 0 -0.00061103459607137693 0.0016699833874356863 0 -0.00058312636103479071 0.001689958388087789 0 -0.00058500299420604133 0.0016515069453821452 0 -0.00058312636103479071 0.001689958388087789 0 -0.00057559181471635045 0.0017386384784743168 0 -0.00052601015416081989 0.0017115866533869645 0 -0.00051822022873476584 0.0017421217437693806 0 -0.00047705118137112741 0.0017503393706633493 0 -0.00057559181471635045 0.0017386384784743168 0 -0.00052601015416081989 0.0017115866533869645 0 -0.00046633876940390084 0.0017510794584941227 0 -0.00058312636103479071 0.001689958388087789 0 -0.00052601015416081989 0.0017115866533869645 0 -0.00052513750382759906 0.0016720672469271729 0 -0.00044800127932558025 0.0016715381234532235 0 -0.00052513750382759906 0.0016720672469271729 0 -0.00048070081026653787 0.0017067793770090965 0 -0.00052601015416081989 0.0017115866533869645 0 -0.00052513750382759906 0.0016720672469271729 0 -0.00048070081026653787 0.0017067793770090965 0 -0.00044613418858723523 0.0017179528286222236 0 -0.00048070081026653787 0.0017067793770090965 0 -0.00046633876940390084 0.0017510794584941227 0 -0.00052601015416081989 0.0017115866533869645 0 -0.00048070081026653787 0.0017067793770090965 0 -0.00046633876940390084 0.0017510794584941227 0 -0.00047306996459883143 0.0017470689054317609 0 -0.00046633876940390084 0.0017510794584941227 0 -0.00047096515235661669 0.0017526270999834708 0 -0.00046931246350655404 0.0017576417075478444 0 -0.00047535516478810098 0.0017520438887863674 0 -0.00047096515235661669 0.0017526270999834708 0 -0.00046931246350655404 0.0017576417075478444 0 -0.00046633876940390084 0.0017510794584941227 0 -0.00047096515235661669 0.0017526270999834708 0 -0.00055274393023393899 0.0015107843998869242 0 -0.00059515257039564288 0.0014553073058391275 0 -0.00051991540308047592 0.0014462123969753802 0 -0.00043713298846210824 0.0014988811510525805 0 -0.00055274393023393899 0.0015107843998869242 0 -0.00051991540308047592 0.0014462123969753802 0 -0.00055274393023393899 0.0015107843998869242 0 -0.00061073688355244059 0.0015143870364992668 0 -0.00059515257039564288 0.0014553073058391275 0 -0.00055274393023393899 0.0015107843998869242 0 -0.00058419720274499815 0.0015578438033863678 0 -0.00061073688355244059 0.0015143870364992668 0 -0.00055274393023393899 0.0015107843998869242 0 -0.00053921974394650581 0.0015938185943675655 0 -0.00058419720274499815 0.0015578438033863678 0 -0.00055274393023393899 0.0015107843998869242 0 -0.00049541177799593055 0.0015600365534851304 0 -0.00053921974394650581 0.0015938185943675655 0 -0.00043713298846210824 0.0014988811510525805 0 -0.00055274393023393899 0.0015107843998869242 0 -0.00049541177799593055 0.0015600365534851304 0 -0.00049541177799593055 0.0015600365534851304 0 -0.00048682337913767167 0.0016346600301046759 0 -0.00053921974394650581 0.0015938185943675655 0 -0.00044800127932558025 0.0016715381234532235 0 -0.00052513750382759906 0.0016720672469271729 0 -0.00048682337913767167 0.0016346600301046759 0 -0.00052513750382759906 0.0016720672469271729 0 -0.00048682337913767167 0.0016346600301046759 0 -0.00054857815723350365 0.0016352068718858232 0 -0.00052513750382759906 0.0016720672469271729 0 -0.00054857815723350365 0.0016352068718858232 0 -0.00058500299420604133 0.0016515069453821452 0 -0.00048682337913767167 0.0016346600301046759 0 -0.00054857815723350365 0.0016352068718858232 0 -0.00053921974394650581 0.0015938185943675655 0 -0.00054857815723350365 0.0016352068718858232 0 -0.00053921974394650581 0.0015938185943675655 0 -0.00059412617181864519 0.0016076633234487733 0 -0.00053921974394650581 0.0015938185943675655 0 -0.00059412617181864519 0.0016076633234487733 0 -0.00058419720274499815 0.0015578438033863678 0 -0.00059412617181864519 0.0016076633234487733 0 -0.00058500299420604133 0.0016515069453821452 0 -0.00063079741806051947 0.0016495146126624949 0 -0.00054857815723350365 0.0016352068718858232 0 -0.00059412617181864519 0.0016076633234487733 0 -0.00058500299420604133 0.0016515069453821452 0 -0.00061103459607137693 0.0016699833874356863 0 -0.00058500299420604133 0.0016515069453821452 0 -0.00063079741806051947 0.0016495146126624949 0 -0.00059412617181864519 0.0016076633234487733 0 -0.00063279349032524057 0.0016018055855538569 0 -0.00061524743692909357 0.0015669334661976661 0 -0.00059412617181864519 0.0016076633234487733 0 -0.00063079741806051947 0.0016495146126624949 0 -0.00063279349032524057 0.0016018055855538569 0 -0.00063079741806051947 0.0016495146126624949 0 -0.00063279349032524057 0.0016018055855538569 0 -0.00065164546576275471 0.0016269933287398884 0 -0.00063279349032524057 0.0016018055855538569 0 -0.00063806353620980845 0.0015573106884451231 0 -0.00061524743692909357 0.0015669334661976661 0 -0.00063806353620980845 0.0015573106884451231 0 -0.00061524743692909357 0.0015669334661976661 0 -0.00061073688355244059 0.0015143870364992668 0 -0.00058419720274499815 0.0015578438033863678 0 -0.00061524743692909357 0.0015669334661976661 0 -0.00061073688355244059 0.0015143870364992668 0 -0.00059412617181864519 0.0016076633234487733 0 -0.00058419720274499815 0.0015578438033863678 0 -0.00061524743692909357 0.0015669334661976661 0 -0.00063806353620980845 0.0015573106884451231 0 -0.00061073688355244059 0.0015143870364992668 0 -0.00063546402838988417 0.0015097333060260858 0 -0.00063806353620980845 0.0015573106884451231 0 -0.00066070387157568251 0.001551542866068079 0 -0.00063546402838988417 0.0015097333060260858 0 -0.00068409557803986458 0.001584685241583079 0 -0.00070145321938993406 0.0015801273161164661 0 -0.00067619845910054581 0.0015460256703239911 0 -0.00066070387157568251 0.001551542866068079 0 -0.00068409557803986458 0.001584685241583079 0 -0.00067619845910054581 0.0015460256703239911 0 -0.00066070387157568251 0.001551542866068079 0 -0.00068409557803986458 0.001584685241583079 0 -0.00066516294680221937 0.0016029482248113057 0 -0.00068409557803986458 0.001584685241583079 0 -0.00066516294680221937 0.0016029482248113057 0 -0.00070255780455093936 0.0016235104345296962 0 -0.00063806353620980845 0.0015573106884451231 0 -0.00066070387157568251 0.001551542866068079 0 -0.00066516294680221937 0.0016029482248113057 0 -0.00063279349032524057 0.0016018055855538569 0 -0.00063806353620980845 0.0015573106884451231 0 -0.00066516294680221937 0.0016029482248113057 0 -0.00063279349032524057 0.0016018055855538569 0 -0.00066516294680221937 0.0016029482248113057 0 -0.00065164546576275471 0.0016269933287398884 0 -0.00066516294680221937 0.0016029482248113057 0 -0.00065164546576275471 0.0016269933287398884 0 -0.0006748683768617043 0.0016562349290443657 0 -0.000632404354699167 0.0016917867026429421 0 -0.00063079741806051947 0.0016495146126624949 0 -0.0006748683768617043 0.0016562349290443657 0 -0.00063079741806051947 0.0016495146126624949 0 -0.00065164546576275471 0.0016269933287398884 0 -0.0006748683768617043 0.0016562349290443657 0 -0.00066516294680221937 0.0016029482248113057 0 -0.0006748683768617043 0.0016562349290443657 0 -0.00070255780455093936 0.0016235104345296962 0 -0.0006748683768617043 0.0016562349290443657 0 -0.00071656270577274668 0.001662733095101232 0 -0.00070255780455093936 0.0016235104345296962 0 -0.00072342910724014465 0.001692226331022011 0 -0.0006748683768617043 0.0016562349290443657 0 -0.00071656270577274668 0.001662733095101232 0 -0.00072342910724014465 0.001692226331022011 0 -0.00071656270577274668 0.001662733095101232 0 -0.00074205400936646802 0.0016806646991850513 0 -0.00071656270577274668 0.001662733095101232 0 -0.00074205400936646802 0.0016806646991850513 0 -0.00073790786443209892 0.0016598732262833426 0 -0.00071656270577274668 0.001662733095101232 0 -0.00070255780455093936 0.0016235104345296962 0 -0.00073790786443209892 0.0016598732262833426 0 -0.00070255780455093936 0.0016235104345296962 0 -0.000729716851683922 0.0016175268522716575 0 -0.00073790786443209892 0.0016598732262833426 0 -0.00070255780455093936 0.0016235104345296962 0 -0.00070145321938993406 0.0015801273161164661 0 -0.000729716851683922 0.0016175268522716575 0 -0.00068409557803986458 0.001584685241583079 0 -0.00070255780455093936 0.0016235104345296962 0 -0.00070145321938993406 0.0015801273161164661 0 -0.00070145321938993406 0.0015801273161164661 0 -0.000729716851683922 0.0016175268522716575 0 -0.00072451800250083879 0.0015681363881139079 0 -0.00070145321938993406 0.0015801273161164661 0 -0.00069166202048514917 0.0015328559716389549 0 -0.00067619845910054581 0.0015460256703239911 0 -0.00070145321938993406 0.0015801273161164661 0 -0.00072451800250083879 0.0015681363881139079 0 -0.00069166202048514917 0.0015328559716389549 0 -0.00072451800250083879 0.0015681363881139079 0 -0.00069166202048514917 0.0015328559716389549 0 -0.00070343309294273505 0.0015109481630425623 0 -0.00069166202048514917 0.0015328559716389549 0 -0.00070343309294273505 0.0015109481630425623 0 -0.0006699195250338578 0.0014863464917841982 0 -0.00072451800250083879 0.0015681363881139079 0 -0.00070343309294273505 0.0015109481630425623 0 -0.00075486686164200761 0.0015300865130057255 0 -0.00057435550791445358 0.001583065696804423 0 -0.00067300203762710945 0.0016633647450204532 0 -0.00057435550791445358 0.001583065696804423 0 -0.00078777987461066303 0.0016076634106018436 0 -0.00070343309294273505 0.0015109481630425623 0 -0.00067965757000392792 0.0014410973505775571 0 -0.00075486686164200761 0.0015300865130057255 0 -0.00074042351094760111 0.0016546247094417657 0 -0.0007828661017587618 0.0016780541601984762 0 -0.00078036027261572168 0.001664206606604611 0 -0.00070343309294273505 0.0015109481630425623 0 -0.0006699195250338578 0.0014863464917841982 0 -0.00067965757000392792 0.0014410973505775571 0 -0.00067965757000392792 0.0014410973505775571 0 -0.00063904016383756191 0.0014558966922528604 0 -0.00062672179156266817 0.0014257436148431351 0 -0.0006699195250338578 0.0014863464917841982 0 -0.00067965757000392792 0.0014410973505775571 0 -0.00063904016383756191 0.0014558966922528604 0 -0.00063904016383756191 0.0014558966922528604 0 -0.00064666470677074135 0.0014777259611845686 0 -0.00062575402486280015 0.0014652444008346661 0 -0.0006699195250338578 0.0014863464917841982 0 -0.00063904016383756191 0.0014558966922528604 0 -0.00064666470677074135 0.0014777259611845686 0 -0.0006699195250338578 0.0014863464917841982 0 -0.00064666470677074135 0.0014777259611845686 0 -0.00065728311272018598 0.0015091016857604609 0 -0.00065728311272018598 0.0015091016857604609 0 -0.00063546402838988417 0.0015097333060260858 0 -0.00062575402486280015 0.0014652444008346661 0 -0.00064666470677074135 0.0014777259611845686 0 -0.00065728311272018598 0.0015091016857604609 0 -0.00062575402486280015 0.0014652444008346661 0 -0.00069166202048514917 0.0015328559716389549 0 -0.0006699195250338578 0.0014863464917841982 0 -0.00065728311272018598 0.0015091016857604609 0 -0.00066070387157568251 0.001551542866068079 0 -0.00065728311272018598 0.0015091016857604609 0 -0.00067619845910054581 0.0015460256703239911 0 -0.00069166202048514917 0.0015328559716389549 0 -0.00065728311272018598 0.0015091016857604609 0 -0.00067619845910054581 0.0015460256703239911 0 -0.00066070387157568251 0.001551542866068079 0 -0.00065728311272018598 0.0015091016857604609 0 -0.00063546402838988417 0.0015097333060260858 0 -0.00061073688355244059 0.0015143870364992668 0 -0.00061283122431813383 0.0014692762000704654 0 -0.00059515257039564288 0.0014553073058391275 0 -0.00061073688355244059 0.0015143870364992668 0 -0.00063546402838988417 0.0015097333060260858 0 -0.00061283122431813383 0.0014692762000704654 0 -0.00061283122431813383 0.0014692762000704654 0 -0.00060364949876114289 0.001432298285104189 0 -0.00062575402486280015 0.0014652444008346661 0 -0.00061283122431813383 0.0014692762000704654 0 -0.00060364949876114289 0.001432298285104189 0 -0.00059515257039564288 0.0014553073058391275 0 -0.00063546402838988417 0.0015097333060260858 0 -0.00061283122431813383 0.0014692762000704654 0 -0.00062575402486280015 0.0014652444008346661 0 -0.00063904016383756191 0.0014558966922528604 0 -0.00062575402486280015 0.0014652444008346661 0 -0.00061257207563828852 0.0014399206417269742 0 -0.00063904016383756191 0.0014558966922528604 0 -0.00061257207563828852 0.0014399206417269742 0 -0.00062672179156266817 0.0014257436148431351 0 -0.00060364949876114289 0.001432298285104189 0 -0.00062575402486280015 0.0014652444008346661 0 -0.00061257207563828852 0.0014399206417269742 0 -0.00060364949876114289 0.001432298285104189 0 -0.0006080222778248412 0.0014386177535525531 0 -0.00060579737943066488 0.0013843856527849449 0 -0.00060364949876114289 0.001432298285104189 0 -0.00061257207563828852 0.0014399206417269742 0 -0.0006080222778248412 0.0014386177535525531 0 -0.00061257207563828852 0.0014399206417269742 0 -0.0006080222778248412 0.0014386177535525531 0 -0.00060431855143447529 0.0014224304195866247 0 -0.00051082827758405997 0.00091155861594960342 0 -0.00052479847193979024 0.0011683601126868408 0 -0.0007444889399285938 0.0010471398659950431 0 -0.00065634064753995378 0.0012449528438110446 0 -0.00062601525321698476 0.0013585555426084081 0 -0.00052479847193979024 0.0011683601126868408 0 -0.0007444889399285938 0.0010471398659950431 0 -0.00060579737943066488 0.0013843856527849449 0 -0.00060364949876114289 0.001432298285104189 0 -0.00060579737943066488 0.0013843856527849449 0 -0.00059515257039564288 0.0014553073058391275 0 -0.00060579737943066488 0.0013843856527849449 0 -0.00059515257039564288 0.0014553073058391275 0 -0.00051991540308047592 0.0014462123969753802 0 -0.00082132175685770668 0.0017220636800862087 0 -0.0008524052735204773 0.0017868370434343467 0 -0.00079620737985892584 0.0017188277666823468 0 -0.00082132175685770668 0.0017220636800862087 0 -0.00086893827274452139 0.0017674880010371647 0 -0.0008524052735204773 0.0017868370434343467 0 -0.00086893827274452139 0.0017674880010371647 0 -0.0008524052735204773 0.0017868370434343467 0 -0.00089099353564903541 0.0018312771913565177 0 -0.00084760718880954992 0.0018572997273435081 0 -0.0008524052735204773 0.0017868370434343467 0 -0.00089099353564903541 0.0018312771913565177 0 -0.0008524052735204773 0.0017868370434343467 0 -0.00081282931858420952 0.0017851993899762545 0 -0.00079620737985892584 0.0017188277666823468 0 -0.00084760718880954992 0.0018572997273435081 0 -0.0008524052735204773 0.0017868370434343467 0 -0.00081282931858420952 0.0017851993899762545 0 -0.00082251766864225358 0.0017885012140825764 0 -0.00069637205729204058 0.0017145512864718418 0 -0.00081282931858420952 0.0017851993899762545 0 -0.00075975093120315095 0.0017018146046862911 0 -0.00079620737985892584 0.0017188277666823468 0 -0.00081282931858420952 0.0017851993899762545 0 -0.00075607249300907518 0.0017506392021766359 0 -0.00075975093120315095 0.0017018146046862911 0 -0.00072342910724014465 0.001692226331022011 0 -0.00074205400936646802 0.0016806646991850513 0 -0.000756548400010043 0.001693022566204915 0 -0.00074205400936646802 0.0016806646991850513 0 -0.000756548400010043 0.001693022566204915 0 -0.00075975093120315095 0.0017018146046862911 0 -0.00069637205729204058 0.0017145512864718418 0 -0.00074067273641418544 0.0017070187453683443 0 -0.00074205400936646802 0.0016806646991850513 0 -0.00075975093120315095 0.0017018146046862911 0 -0.00073790786443209892 0.0016598732262833426 0 -0.00076380845293884945 0.0016654979269441663 0 -0.00080007570908659383 0.0016779706686993914 0 -0.00075451586021701164 0.0016130152483332528 0 -0.000729716851683922 0.0016175268522716575 0 -0.00073790786443209892 0.0016598732262833426 0 -0.00076380845293884945 0.0016654979269441663 0 -0.00075975093120315095 0.0017018146046862911 0 -0.00073790786443209892 0.0016598732262833426 0 -0.00076380845293884945 0.0016654979269441663 0 -0.000729716851683922 0.0016175268522716575 0 -0.00076380845293884945 0.0016654979269441663 0 -0.00075451586021701164 0.0016130152483332528 0 -0.00075975093120315095 0.0017018146046862911 0 -0.00076380845293884945 0.0016654979269441663 0 -0.00079620737985892584 0.0017188277666823468 0 -0.00076380845293884945 0.0016654979269441663 0 -0.00079620737985892584 0.0017188277666823468 0 -0.00080007570908659383 0.0016779706686993914 0 -0.00082132175685770668 0.0017220636800862087 0 -0.00079620737985892584 0.0017188277666823468 0 -0.00080007570908659383 0.0016779706686993914 0 -0.00080007570908659383 0.0016779706686993914 0 -0.0007828661017587618 0.0016780541601984762 0 -0.0007990572930055192 0.0016773012004236425 0 -0.00080007570908659383 0.0016779706686993914 0 -0.0007990572930055192 0.0016773012004236425 0 -0.00080900411576489289 0.0016994225580665363 0 -0.00078864459538309983 0.0016621598785479307 0 -0.00078777987461066303 0.0016076634106018436 0 -0.00080007570908659383 0.0016779706686993914 0 -0.00075451586021701164 0.0016130152483332528 0 -0.00075486686164200761 0.0015300865130057255 0 -0.000729716851683922 0.0016175268522716575 0 -0.00072451800250083879 0.0015681363881139079 0 -0.00075451586021701164 0.0016130152483332528 0 -0.00072451800250083879 0.0015681363881139079 0 -0.00075451586021701164 0.0016130152483332528 0 -0.00075486686164200761 0.0015300865130057255 0 -0.00055979537496766573 0.001654518984105595 0 -0.00068335747621991181 0.0016820394821277958 0 -0.00062070058081240204 0.0015802209673890725 0 -0.0007828661017587618 0.0016780541601984762 0 -0.00078036027261572168 0.001664206606604611 0 -0.0007990572930055192 0.0016773012004236425 0 -0.00067300203762710945 0.0016633647450204532 0 -0.00074004216860669967 0.0016792649372892278 0 -0.00068335747621991181 0.0016820394821277958 0 -0.00080900411576489289 0.0016994225580665363 0 -0.00074541118795063213 0.0015907909774010088 0 -0.00074004216860669967 0.0016792649372892278 0 -0.00080141809050465426 0.0016968650589389252 0 -0.00080900411576489289 0.0016994225580665363 0 -0.00082374809111032319 0.0016365723899591834 0 -0.00074541118795063213 0.0015907909774010088 0 -0.00082132175685770668 0.0017220636800862087 0 -0.00086893827274452139 0.0017674880010371647 0 -0.00080900411576489289 0.0016994225580665363 0 -0.00082132175685770668 0.0017220636800862087 0 -0.00080007570908659383 0.0016779706686993914 0 -0.00080900411576489289 0.0016994225580665363 0 -0.0009054808831646193 0.0017554598800749511 0 -0.00086893827274452139 0.0017674880010371647 0 -0.00080900411576489289 0.0016994225580665363 0 -0.0009054808831646193 0.0017554598800749511 0 -0.0008910238240457597 0.0016767731919090287 0 -0.00080900411576489289 0.0016994225580665363 0 -0.0008910238240457597 0.0016767731919090287 0 -0.00080900411576489289 0.0016994225580665363 0 -0.00082374809111032319 0.0016365723899591834 0 -0.0008910238240457597 0.0016767731919090287 0 -0.00082374809111032319 0.0016365723899591834 0 -0.00083054482582019154 0.0015571036803851755 0 -0.00083054482582019154 0.0015571036803851755 0 -0.00076073417660851037 0.0014467324470987893 0 -0.00090941351543436162 0.001502866437420739 0 -0.00074541118795063213 0.0015907909774010088 0 -0.00066138847632247458 0.001500560485910272 0 -0.00076073417660851037 0.0014467324470987893 0 -0.00083054482582019154 0.0015571036803851755 0 -0.00074541118795063213 0.0015907909774010088 0 -0.00076073417660851037 0.0014467324470987893 0 -0.00082374809111032319 0.0016365723899591834 0 -0.00083054482582019154 0.0015571036803851755 0 -0.00074541118795063213 0.0015907909774010088 0 -0.00074541118795063213 0.0015907909774010088 0 -0.00062070058081240204 0.0015802209673890725 0 -0.00066138847632247458 0.001500560485910272 0 -0.00068335747621991181 0.0016820394821277958 0 -0.00074541118795063213 0.0015907909774010088 0 -0.00062070058081240204 0.0015802209673890725 0 -0.00062070058081240204 0.0015802209673890725 0 -0.00056749685249983767 0.0015060140351221213 0 -0.00066138847632247458 0.001500560485910272 0 -0.00055979537496766573 0.001654518984105595 0 -0.00062070058081240204 0.0015802209673890725 0 -0.00053247176985381933 0.0015783823537029926 0 -0.00062070058081240204 0.0015802209673890725 0 -0.00056749685249983767 0.0015060140351221213 0 -0.00053247176985381933 0.0015783823537029926 0 -0.00056749685249983767 0.0015060140351221213 0 -0.00066138847632247458 0.001500560485910272 0 -0.00059880517095128221 0.0013947653457230028 0 -0.00056749685249983767 0.0015060140351221213 0 -0.00059880517095128221 0.0013947653457230028 0 -0.00048011464640847153 0.0014335427643246594 0 -0.00066138847632247458 0.001500560485910272 0 -0.00059880517095128221 0.0013947653457230028 0 -0.00076073417660851037 0.0014467324470987893 0 -0.00059880517095128221 0.0013947653457230028 0 -0.00069729667769122597 0.0013181946292249035 0 -0.00076073417660851037 0.0014467324470987893 0 -0.00037974608865775288 0.0011681420358274491 0 -0.00035585020169198679 0.0011615008149396464 0 -0.00037681813412206546 0.0011714849098939336 0 -0.00059880517095128221 0.0013947653457230028 0 -0.00054221233689405121 0.0012565868036502035 0 -0.00069729667769122597 0.0013181946292249035 0 -0.00045588375671115112 0.0012127270899032901 0 -0.00052619795447208368 0.0012393741318764962 0 -0.00035585020169198679 0.0011615008149396464 0 -0.00031962101609972059 0.0011663225230342537 0 -0.0003332518631892183 0.0011830133591290419 0 -0.00052619795447208368 0.0012393741318764962 0 -0.00057033261309183988 0.0012742813491154344 0 -0.00031962101609972059 0.0011663225230342537 0 -0.00031244419018964495 0.0011845773764688531 0 -0.0003008583684231836 0.0011842229241917043 0 -0.00031962101609972059 0.0011663225230342537 0 -0.00031244419018964495 0.0011845773764688531 0 -0.0003332518631892183 0.0011830133591290419 0 -0.00083211710907964424 0.0013727225037749112 0 -0.00076073417660851037 0.0014467324470987893 0 -0.00090941351543436162 0.001502866437420739 0 -0.00069729667769122597 0.0013181946292249035 0 -0.00083211710907964424 0.0013727225037749112 0 -0.00076073417660851037 0.0014467324470987893 0 -0.00021933406523616549 0.0014412282463399824 0 -0.00020393850215266713 0.0015392368499490515 0 -0.00022953981208557908 0.0014663406227415077 0 -8.9294216956136991e-05 0.00032550238311665507 0 -0.00013518044115275228 0.000273492818723741 0 -0.00011212050558024773 0.00019973057827901971 0 -0.00016541604403515266 0.00085040638422733534 0 -0.00045449942029953929 0.0010049449148140006 0 -0.00015978545551758995 0.00034791219219996528 0 -0.00014111227850515791 0.00031004456485194092 0 -0.00019406585045148223 0.00028654628174223234 0 -0.00015978545551758995 0.00034791219219996528 0 -0.0001253027755877859 0.00033984210192989777 0 -0.00014111227850515791 0.00031004456485194092 0 -0.00015978545551758995 0.00034791219219996528 0 -0.0001253027755877859 0.00033984210192989777 0 -0.00011013620953374745 0.00037607354873651883 0 -0.0001253027755877859 0.00033984210192989777 0 -8.9294216956136991e-05 0.00032550238311665507 0 -0.00011013620953374745 0.00037607354873651883 0 -0.0001253027755877859 0.00033984210192989777 0 -8.9294216956136991e-05 0.00032550238311665507 0 -0.00014111227850515791 0.00031004456485194092 0 -8.9294216956136991e-05 0.00032550238311665507 0 -0.00014111227850515791 0.00031004456485194092 0 -0.00013518044115275228 0.000273492818723741 0 -0.00014111227850515791 0.00031004456485194092 0 -0.00013518044115275228 0.000273492818723741 0 -0.00019406585045148223 0.00028654628174223234 0 -0.00031881669715746639 0.000284462234949721 0 -0.00019406585045148223 0.00028654628174223234 0 -0.00011212050558024773 0.00019973057827901971 0 -0.0003252926258895556 0.00038319476060286319 0 -0.00045449942029953929 0.0010049449148140006 0 -0.00013518044115275228 0.000273492818723741 0 -0.00019406585045148223 0.00028654628174223234 0 -0.00011212050558024773 0.00019973057827901971 0 -0.00051082827758405997 0.00091155861594960342 0 -0.0007444889399285938 0.0010471398659950431 0 -0.00080577251631372946 0.0007605435015239783 0 -0.00065634064753995378 0.0012449528438110446 0 -0.00045449942029953929 0.0010049449148140006 0 -0.00020393850215266713 0.0015392368499490515 0 -0.00026498530612623615 0.0015191842780197932 0 -0.00022953981208557908 0.0014663406227415077 0 -0.00020393850215266713 0.0015392368499490515 0 -0.00027895524101957664 0.0015406861461031442 0 -0.00031674174422148608 0.0015725604899413106 0 -0.00061257207563828852 0.0014399206417269742 0 -0.00060431855143447529 0.0014224304195866247 0 -0.00062672179156266817 0.0014257436148431351 0 -0.00026498530612623615 0.0015191842780197932 0 -0.00022953981208557908 0.0014663406227415077 0 -0.00033320501426848846 0.0015287415979841992 0 -0.00045449942029953929 0.0010049449148140006 0 -0.00047939886185533576 0.0015056794915054722 0 -0.00020393850215266713 0.0015392368499490515 0 -0.00027895524101957664 0.0015406861461031442 0 -0.00026498530612623615 0.0015191842780197932 0 -0.00027895524101957664 0.0015406861461031442 0 -0.00031674174422148608 0.0015725604899413106 0 -0.00033320501426848846 0.0015287415979841992 0 -0.00027895524101957664 0.0015406861461031442 0 -0.00026498530612623615 0.0015191842780197932 0 -0.00033320501426848846 0.0015287415979841992 0 -0.00024631136699900663 0.0014784716742670548 0 -0.00031463485378119228 0.0015294695310490828 0 -0.0003062449765327923 0.001468306416940113 0 -0.00022953981208557908 0.0014663406227415077 0 -0.00032821407965178252 0.0015487154496930616 0 -0.0003062449765327923 0.001468306416940113 0 -0.00022953981208557908 0.0014663406227415077 0 -0.00026559267573785639 0.0014405365841841573 0 -0.00021933406523616549 0.0014412282463399824 0 -0.00026559267573785639 0.0014405365841841573 0 -0.000281661138929402 0.0013896456455475472 0 -0.00021933406523616549 0.0014412282463399824 0 -0.00022953981208557908 0.0014663406227415077 0 -0.00026559267573785639 0.0014405365841841573 0 -0.0003062449765327923 0.001468306416940113 0 -0.00026559267573785639 0.0014405365841841573 0 -0.000281661138929402 0.0013896456455475472 0 -0.0003062449765327923 0.001468306416940113 0 -0.00036344467274029412 0.0014110698176555973 0 -0.000281661138929402 0.0013896456455475472 0 -0.00036344467274029412 0.0014110698176555973 0 -0.00042282069485406379 0.0014885115762121994 0 -0.00048011464640847153 0.0014335427643246594 0 -0.00036344467274029412 0.0014110698176555973 0 -0.00042282069485406379 0.0014885115762121994 0 -0.00036033113378851903 0.0014955471649929059 0 -0.00042282069485406379 0.0014885115762121994 0 -0.00036033113378851903 0.0014955471649929059 0 -0.00040468811023723877 0.0015372162265134433 0 -0.0003062449765327923 0.001468306416940113 0 -0.00036033113378851903 0.0014955471649929059 0 -0.00032821407965178252 0.0015487154496930616 0 -0.0003062449765327923 0.001468306416940113 0 -0.00036344467274029412 0.0014110698176555973 0 -0.00036033113378851903 0.0014955471649929059 0 -0.00044759290293892574 0.0016058350984383533 0 -0.00031674174422148608 0.0015725604899413106 0 -0.00033320501426848846 0.0015287415979841992 0 -0.00057435550791445358 0.001583065696804423 0 -0.00047939886185533576 0.0015056794915054722 0 -0.00036033113378851903 0.0014955471649929059 0 -0.00032821407965178252 0.0015487154496930616 0 -0.00040468811023723877 0.0015372162265134433 0 -0.00057435550791445358 0.001583065696804423 0 -0.00031463485378119228 0.0015294695310490828 0 -0.000430364632124259 0.0016218735573541301 0 -0.00032821407965178252 0.0015487154496930616 0 -0.00040468811023723877 0.0015372162265134433 0 -0.00042282069485406379 0.0014885115762121994 0 -0.00040468811023723877 0.0015372162265134433 0 -0.00047929556438386578 0.0015313047104722642 0 -0.000430364632124259 0.0016218735573541301 0 -0.00055979537496766573 0.001654518984105595 0 -0.00053247176985381933 0.0015783823537029926 0 -0.000430364632124259 0.0016218735573541301 0 -0.00047929556438386578 0.0015313047104722642 0 -0.00053247176985381933 0.0015783823537029926 0 -0.000430364632124259 0.0016218735573541301 0 -0.00040468811023723877 0.0015372162265134433 0 -0.00047929556438386578 0.0015313047104722642 0 -0.00056749685249983767 0.0015060140351221213 0 -0.00047929556438386578 0.0015313047104722642 0 -0.00053247176985381933 0.0015783823537029926 0 -0.00056749685249983767 0.0015060140351221213 0 -0.00047929556438386578 0.0015313047104722642 0 -0.00048011464640847153 0.0014335427643246594 0 -0.00042282069485406379 0.0014885115762121994 0 -0.00047929556438386578 0.0015313047104722642 0 -0.00048011464640847153 0.0014335427643246594 0 -0.00059880517095128221 0.0013947653457230028 0 -0.00054221233689405121 0.0012565868036502035 0 -0.00044468968587870627 0.0013212600252021939 0 -0.00059880517095128221 0.0013947653457230028 0 -0.00048011464640847153 0.0014335427643246594 0 -0.00044468968587870627 0.0013212600252021939 0 -0.00054221233689405121 0.0012565868036502035 0 -0.00044468968587870627 0.0013212600252021939 0 -0.00035533594933438207 0.0011920968306065741 0 -0.00037974608865775288 0.0011681420358274491 0 -0.00035533594933438207 0.0011920968306065741 0 -0.0003730753057036448 0.0011666839264128949 0 -0.00045588375671115112 0.0012127270899032901 0 -0.00035846253479977335 0.0011930321670322779 0 -0.00044468968587870627 0.0013212600252021939 0 -0.00035533594933438207 0.0011920968306065741 0 -0.0003267297538706476 0.0012996631989750766 0 -0.00036344467274029412 0.0014110698176555973 0 -0.00048011464640847153 0.0014335427643246594 0 -0.00044468968587870627 0.0013212600252021939 0 -0.00036344467274029412 0.0014110698176555973 0 -0.00044468968587870627 0.0013212600252021939 0 -0.0003267297538706476 0.0012996631989750766 0 -0.00016541604403515266 0.00085040638422733534 0 -0.00018762187935513858 0.001020183156299036 0 -0.00021933406523616549 0.0014412282463399824 0 -0.000281661138929402 0.0013896456455475472 0 -0.00023706395362012452 0.0013305082973634774 0 -0.00036344467274029412 0.0014110698176555973 0 -0.000281661138929402 0.0013896456455475472 0 -0.0003267297538706476 0.0012996631989750766 0 -0.00033497926093785396 0.0013690055155266008 0 -0.00018762187935513858 0.001020183156299036 0 -0.000281661138929402 0.0013896456455475472 0 -0.00023787091784268559 0.0013275063180530058 0 -0.0003267297538706476 0.0012996631989750766 0 -0.00018762187935513858 0.001020183156299036 0 -0.00026044837710062643 0.0012869665092591811 0 -0.00035533594933438207 0.0011920968306065741 0 -0.0003267297538706476 0.0012996631989750766 0 -0.00027965758341584178 0.0011972673542561024 0 -0.00023787091784268559 0.0013275063180530058 0 -0.0003267297538706476 0.0012996631989750766 0 -0.00027965758341584178 0.0011972673542561024 0 -5.8353982972066674e-05 0.00042460549168305478 0 -0.00012450069058968615 0.00056054524608702822 0 -0.00014294115748712813 0.00042569706557803812 0 -0.00020439134478231907 0.00048517317287062297 0 -0.00012450069058968615 0.00056054524608702822 0 -0.00014294115748712813 0.00042569706557803812 0 -0.00027167279502813483 0.0012287765589995116 0 -0.00027965758341584178 0.0011972673542561024 0 -0.00024102233731379216 0.0011826876585630799 0 -0.00027965758341584178 0.0011972673542561024 0 -0.00024102233731379216 0.0011826876585630799 0 -0.00027443497040601764 0.0011522772494449069 0 -0.00018762187935513858 0.001020183156299036 0 -0.00016973997407961956 0.00084068345488329851 0 -8.9294216956136991e-05 0.00032550238311665507 0 -5.8353982972066674e-05 0.00042460549168305478 0 -0.00011013620953374745 0.00037607354873651883 0 -5.8353982972066674e-05 0.00042460549168305478 0 -0.00014294115748712813 0.00042569706557803812 0 -0.00011013620953374745 0.00037607354873651883 0 -0.00015978545551758995 0.00034791219219996528 0 -0.00014294115748712813 0.00042569706557803812 0 -0.00011013620953374745 0.00037607354873651883 0 -0.00021946967352325892 0.00037609010619740058 0 -0.00015978545551758995 0.00034791219219996528 0 -0.00014294115748712813 0.00042569706557803812 0 -0.00024775934688691487 0.0010637363315260913 0 -0.00028145915152834382 0.0010982854125929954 0 -0.00027437405840070227 0.0010551128651907305 0 -0.00024775934688691487 0.0010637363315260913 0 -0.000251382392334701 0.0011185730772735236 0 -0.00028145915152834382 0.0010982854125929954 0 -0.000251382392334701 0.0011185730772735236 0 -0.00027443497040601764 0.0011522772494449069 0 -0.00028145915152834382 0.0010982854125929954 0 -0.00024102233731379216 0.0011826876585630799 0 -0.000251382392334701 0.0011185730772735236 0 -0.00027443497040601764 0.0011522772494449069 0 -0.00027965758341584178 0.0011972673542561024 0 -0.00032268168901304693 0.0011434067016541727 0 -0.00027443497040601764 0.0011522772494449069 0 -0.00035533594933438207 0.0011920968306065741 0 -0.00027965758341584178 0.0011972673542561024 0 -0.00032268168901304693 0.0011434067016541727 0 -0.00032268168901304693 0.0011434067016541727 0 -0.00027443497040601764 0.0011522772494449069 0 -0.00028145915152834382 0.0010982854125929954 0 -0.00032268168901304693 0.0011434067016541727 0 -0.00028145915152834382 0.0010982854125929954 0 -0.00032427974807607089 0.0010852607384711963 0 -0.00036628544565335091 0.0011315333133767804 0 -0.00038365699138306344 0.0010917599801925971 0 -0.00032427974807607089 0.0010852607384711963 0 -0.00032268168901304693 0.0011434067016541727 0 -0.00036628544565335091 0.0011315333133767804 0 -0.00032427974807607089 0.0010852607384711963 0 -0.00035533594933438207 0.0011920968306065741 0 -0.00032268168901304693 0.0011434067016541727 0 -0.0003730753057036448 0.0011666839264128949 0 -0.00032268168901304693 0.0011434067016541727 0 -0.0003730753057036448 0.0011666839264128949 0 -0.00036628544565335091 0.0011315333133767804 0 -0.0003730753057036448 0.0011666839264128949 0 -0.00036628544565335091 0.0011315333133767804 0 -0.00037681813412206546 0.0011714849098939336 0 -0.00037974608865775288 0.0011681420358274491 0 -0.0003730753057036448 0.0011666839264128949 0 -0.00037681813412206546 0.0011714849098939336 0 -0.00036628544565335091 0.0011315333133767804 0 -0.00038365699138306344 0.0010917599801925971 0 -0.00041824195717470004 0.0011079703812261539 0 -0.00036710521270547487 0.0011345834241204753 0 -0.00039037680651315081 0.001139224753130424 0 -0.00036628544565335091 0.0011315333133767804 0 -0.00037681813412206546 0.0011714849098939336 0 -0.00037441175909235658 0.0011692957535397186 0 -0.00033358958863740669 0.0010608450276223663 0 -0.00036286317560870688 0.0010897986490507839 0 -0.00038365699138306344 0.0010917599801925971 0 -0.0003566806650857437 0.0010497430274230344 0 -0.00041407938432203088 0.0010720479505647053 0 -0.00031262530135679024 0.0010854624857274738 0 -0.00030895455763745543 0.0010718101380464832 0 -0.00031182125840837293 0.001106718823458346 0 -0.00031402850650691567 0.0010998274801336521 0 -0.0003112015289535628 0.0010410504268672115 0 -0.00031262530135679024 0.0010854624857274738 0 -0.0003112015289535628 0.0010410504268672115 0 -0.00031262530135679024 0.0010854624857274738 0 -0.00030895455763745543 0.0010718101380464832 0 -0.0003112015289535628 0.0010410504268672115 0 -0.00030895455763745543 0.0010718101380464832 0 -0.00029999436517815349 0.0010323818785572094 0 -0.00030895455763745543 0.0010718101380464832 0 -0.00029999436517815349 0.0010323818785572094 0 -0.00029341959226849846 0.0010330491622025542 0 -0.00033358958863740669 0.0010608450276223663 0 -0.00029754950782390828 0.0010383882473250471 0 -0.00038365699138306344 0.0010917599801925971 0 -0.0003566806650857437 0.0010497430274230344 0 -0.00032427974807607089 0.0010852607384711963 0 -0.0003566806650857437 0.0010497430274230344 0 -0.00032427974807607089 0.0010852607384711963 0 -0.00029341959226849846 0.0010330491622025542 0 -0.00032427974807607089 0.0010852607384711963 0 -0.00029341959226849846 0.0010330491622025542 0 -0.00027437405840070227 0.0010551128651907305 0 -0.00028145915152834382 0.0010982854125929954 0 -0.00032427974807607089 0.0010852607384711963 0 -0.00027437405840070227 0.0010551128651907305 0 -0.00028381288948418155 0.0010115763972034448 0 -0.00029999436517815349 0.0010323818785572094 0 -0.00029341959226849846 0.0010330491622025542 0 -0.00028381288948418155 0.0010115763972034448 0 -0.00029341959226849846 0.0010330491622025542 0 -0.00026829983820594145 0.0010241704907923747 0 -0.00029341959226849846 0.0010330491622025542 0 -0.00026829983820594145 0.0010241704907923747 0 -0.00027437405840070227 0.0010551128651907305 0 -0.00028381288948418155 0.0010115763972034448 0 -0.00026527034043701502 0.0010022280403489475 0 -0.00026829983820594145 0.0010241704907923747 0 -0.0002489441824567077 0.0010116822073522067 0 -0.00026527034043701502 0.0010022280403489475 0 -0.00026829983820594145 0.0010241704907923747 0 -0.0002489441824567077 0.0010116822073522067 0 -0.00024431601888008219 0.0010325367555521392 0 -0.00026829983820594145 0.0010241704907923747 0 -0.00024431601888008219 0.0010325367555521392 0 -0.00026829983820594145 0.0010241704907923747 0 -0.00027437405840070227 0.0010551128651907305 0 -0.00024431601888008219 0.0010325367555521392 0 -0.00024775934688691487 0.0010637363315260913 0 -0.00027437405840070227 0.0010551128651907305 0 -0.0003325753032436028 0.0012029786180309703 0 -0.00035623972663809112 0.0011991123128281631 0 -0.00032301974742036282 0.0012145584481802786 0 -0.00033909659307080042 0.0011943564820585447 0 -0.00032346657004772258 0.0011994061272995265 0 -0.0003332518631892183 0.0011830133591290419 0 -0.00033909659307080042 0.0011943564820585447 0 -0.0003332518631892183 0.0011830133591290419 0 -0.00035185039604549275 0.0011864602580726464 0 -0.00033909659307080042 0.0011943564820585447 0 -0.00035185039604549275 0.0011864602580726464 0 -0.00035623972663809112 0.0011991123128281631 0 -0.00033909659307080042 0.0011943564820585447 0 -0.0003325753032436028 0.0012029786180309703 0 -0.00035623972663809112 0.0011991123128281631 0 -0.00033909659307080042 0.0011943564820585447 0 -0.0003325753032436028 0.0012029786180309703 0 -0.00032346657004772258 0.0011994061272995265 0 -0.0003325753032436028 0.0012029786180309703 0 -0.00032135606093365408 0.0012062075672728662 0 -0.00032301974742036282 0.0012145584481802786 0 -0.00032135606093365408 0.0012062075672728662 0 -0.0003138905838684442 0.0012029068562131751 0 -0.00031401935435921983 0.001212456622296499 0 -0.00032135606093365408 0.0012062075672728662 0 -0.0003138905838684442 0.0012029068562131751 0 -0.00032346657004772258 0.0011994061272995265 0 -0.0003325753032436028 0.0012029786180309703 0 -0.00032135606093365408 0.0012062075672728662 0 -0.00032346657004772258 0.0011994061272995265 0 -0.0003138905838684442 0.0012029068562131751 0 -0.00031401935435921983 0.001212456622296499 0 -0.00029941252641595763 0.0012033418509630009 0 -0.0003138905838684442 0.0012029068562131751 0 -0.00031284851276348376 0.0011943778387058202 0 -0.00029941252641595763 0.0012033418509630009 0 -0.00032346657004772258 0.0011994061272995265 0 -0.00031284851276348376 0.0011943778387058202 0 -0.0003332518631892183 0.0011830133591290419 0 -0.0003138905838684442 0.0012029068562131751 0 -0.00032346657004772258 0.0011994061272995265 0 -0.00031284851276348376 0.0011943778387058202 0 -0.00031284851276348376 0.0011943778387058202 0 -0.00031244419018964495 0.0011845773764688531 0 -0.0003332518631892183 0.0011830133591290419 0 -0.00031284851276348376 0.0011943778387058202 0 -0.00031244419018964495 0.0011845773764688531 0 -0.00029833336495379957 0.0011950624482998662 0 -0.0003332518631892183 0.0011830133591290419 0 -0.00035831660049701861 0.0011766434032091191 0 -0.00035185039604549275 0.0011864602580726464 0 -0.00035585020169198679 0.0011615008149396464 0 -0.0003332518631892183 0.0011830133591290419 0 -0.00035831660049701861 0.0011766434032091191 0 -0.00035585020169198679 0.0011615008149396464 0 -0.00035831660049701861 0.0011766434032091191 0 -0.00037681813412206546 0.0011714849098939336 0 -0.00035831660049701861 0.0011766434032091191 0 -0.00037681813412206546 0.0011714849098939336 0 -0.00036580339595722929 0.0011798790334296057 0 -0.00037681813412206546 0.0011714849098939336 0 -0.00037441175909235658 0.0011692957535397186 0 -0.00036580339595722929 0.0011798790334296057 0 -0.00039037680651315081 0.001139224753130424 0 -0.00040960075911011557 0.001145137966898514 0 -0.00037441175909235658 0.0011692957535397186 0 -0.00036580339595722929 0.0011798790334296057 0 -0.00035623972663809112 0.0011991123128281631 0 -0.00041824195717470004 0.0011079703812261539 0 -0.00044709116299404057 0.0010955913040079706 0 -0.00042970339595563739 0.0010891161755906911 0 -0.00035185039604549275 0.0011864602580726464 0 -0.00036580339595722929 0.0011798790334296057 0 -0.00035623972663809112 0.0011991123128281631 0 -0.00035831660049701861 0.0011766434032091191 0 -0.00035185039604549275 0.0011864602580726464 0 -0.00036580339595722929 0.0011798790334296057 0 -0.00029214905359734126 0.0011408156405724413 0 -0.00031182125840837293 0.001106718823458346 0 -0.00030218285494200815 0.0011274439259010137 0 -0.00044709116299404057 0.0010955913040079706 0 -0.00044628172922269859 0.0010880225764794854 0 -0.00042970339595563739 0.0010891161755906911 0 -0.00029214905359734126 0.0011408156405724413 0 -0.00028826518687241734 0.0011496462796540545 0 -0.00030218285494200815 0.0011274439259010137 0 -0.00038365699138306344 0.0010917599801925971 0 -0.00041824195717470004 0.0011079703812261539 0 -0.00041407938432203088 0.0010720479505647053 0 -0.00041824195717470004 0.0011079703812261539 0 -0.00041407938432203088 0.0010720479505647053 0 -0.00042970339595563739 0.0010891161755906911 0 -0.00044628172922269859 0.0010880225764794854 0 -0.00041407938432203088 0.0010720479505647053 0 -0.00042970339595563739 0.0010891161755906911 0 -0.00037482983367564889 0.001111921130228256 0 -0.00036286317560870688 0.0010897986490507839 0 -0.00031402850650691567 0.0010998274801336521 0 -0.00031182125840837293 0.001106718823458346 0 -0.00030218285494200815 0.0011274439259010137 0 -0.00031402850650691567 0.0010998274801336521 0 -0.00031262530135679024 0.0010854624857274738 0 -0.00031182125840837293 0.001106718823458346 0 -0.00031402850650691567 0.0010998274801336521 0 -0.00030218285494200815 0.0011274439259010137 0 -0.00028444752961180397 0.0011617899684216964 0 -0.00029114478761389925 0.0011318484714916762 0 -0.00028538585315799551 0.0011567941192911935 0 -0.00028826518687241734 0.0011496462796540545 0 -0.00030218285494200815 0.0011274439259010137 0 -0.00028444752961180397 0.0011617899684216964 0 -0.00027496461822601096 0.0011770721156553218 0 -0.00028444752961180397 0.0011617899684216964 0 -0.00028084940526456546 0.0011619311679702488 0 -0.00027496461822601096 0.0011770721156553218 0 -0.00028084940526456546 0.0011619311679702488 0 -0.00027466516483704251 0.0011778508007609133 0 -0.00028826518687241734 0.0011496462796540545 0 -0.00028444752961180397 0.0011617899684216964 0 -0.00028084940526456546 0.0011619311679702488 0 -0.00037482983367564889 0.001111921130228256 0 -0.00034357940120844862 0.0011649528821612389 0 -0.00029214905359734126 0.0011408156405724413 0 -0.00028826518687241734 0.0011496462796540545 0 -0.00028084940526456546 0.0011619311679702488 0 -0.00040960075911011557 0.001145137966898514 0 -0.00034357940120844862 0.0011649528821612389 0 -0.00044709116299404057 0.0010955913040079706 0 -0.00044628172922269859 0.0010880225764794854 0 -0.00045768106715815044 0.001093917038241283 0 -0.00029214905359734126 0.0011408156405724413 0 -0.00027960595973697977 0.0011635587924217104 0 -0.00027504969441646582 0.0011706258110237896 0 -0.00029214905359734126 0.0011408156405724413 0 -0.00028084940526456546 0.0011619311679702488 0 -0.00027960595973697977 0.0011635587924217104 0 -0.00028084940526456546 0.0011619311679702488 0 -0.00027960595973697977 0.0011635587924217104 0 -0.00027466516483704251 0.0011778508007609133 0 -0.00034357940120844862 0.0011649528821612389 0 -0.00026459567562013472 0.0012131039258751932 0 -0.00027504969441646582 0.0011706258110237896 0 -0.00027466516483704251 0.0011778508007609133 0 -0.00028035544303681127 0.0012072134601950801 0 -0.00031401935435921983 0.001212456622296499 0 -0.00032127627921956116 0.0012163013436885136 0 -0.00028035544303681127 0.0012072134601950801 0 -0.00033191513787768215 0.0011732341894517568 0 -0.00034357940120844862 0.0011649528821612389 0 -0.00032135606093365408 0.0012062075672728662 0 -0.00031401935435921983 0.001212456622296499 0 -0.00032301974742036282 0.0012145584481802786 0 -0.00027960595973697977 0.0011635587924217104 0 -0.00027504969441646582 0.0011706258110237896 0 -0.00027466516483704251 0.0011778508007609133 0 -0.00027496461822601096 0.0011770721156553218 0 -0.00027466516483704251 0.0011778508007609133 0 -0.00027421276425513354 0.0011895795435021574 0 -0.00027549974181053402 0.0012065427891026722 0 -0.00027421276425513354 0.0011895795435021574 0 -0.00028035544303681127 0.0012072134601950801 0 -0.00027466516483704251 0.0011778508007609133 0 -0.00027421276425513354 0.0011895795435021574 0 -0.00028035544303681127 0.0012072134601950801 0 -0.00027549974181053402 0.0012065427891026722 0 -0.00028035544303681127 0.0012072134601950801 0 -0.00026961137564679932 0.0012184499749248073 0 -0.00028035544303681127 0.0012072134601950801 0 -0.00028223931708386952 0.0012085848698237542 0 -0.00026961137564679932 0.0012184499749248073 0 -0.00031401935435921983 0.001212456622296499 0 -0.00028035544303681127 0.0012072134601950801 0 -0.00029941252641595763 0.0012033418509630009 0 -0.00029941252641595763 0.0012033418509630009 0 -0.00028223931708386952 0.0012085848698237542 0 -0.00029833336495379957 0.0011950624482998662 0 -0.00028035544303681127 0.0012072134601950801 0 -0.00029941252641595763 0.0012033418509630009 0 -0.00028223931708386952 0.0012085848698237542 0 -0.00031284851276348376 0.0011943778387058202 0 -0.00029941252641595763 0.0012033418509630009 0 -0.00029833336495379957 0.0011950624482998662 0 -0.00028223931708386952 0.0012085848698237542 0 -0.00027065936955239565 0.0012152629011879898 0 -0.00026961137564679932 0.0012184499749248073 0 -0.00028223931708386952 0.0012085848698237542 0 -0.00028296549364649227 0.0011978995491890995 0 -0.00029833336495379957 0.0011950624482998662 0 -0.00028223931708386952 0.0012085848698237542 0 -0.00028296549364649227 0.0011978995491890995 0 -0.00027065936955239565 0.0012152629011879898 0 -0.00028296549364649227 0.0011978995491890995 0 -0.00029833336495379957 0.0011950624482998662 0 -0.0003008583684231836 0.0011842229241917043 0 -0.00031244419018964495 0.0011845773764688531 0 -0.00029833336495379957 0.0011950624482998662 0 -0.0003008583684231836 0.0011842229241917043 0 -0.00026213742023932512 0.0012238666117043689 0 -0.00024778595887499079 0.0012506107645036944 0 -0.00024339434869717351 0.0012014978766929621 0 -0.00026213742023932512 0.0012238666117043689 0 -0.00024339434869717351 0.0012014978766929621 0 -0.00026250579296221294 0.0012053907247577425 0 -0.00026213742023932512 0.0012238666117043689 0 -0.00026956190130055955 0.001208477415184024 0 -0.00026250579296221294 0.0012053907247577425 0 -0.00026213742023932512 0.0012238666117043689 0 -0.00026956190130055955 0.001208477415184024 0 -0.00027065936955239565 0.0012152629011879898 0 -0.00028296549364649227 0.0011978995491890995 0 -0.00026956190130055955 0.001208477415184024 0 -0.00027065936955239565 0.0012152629011879898 0 -0.00027065936955239565 0.0012152629011879898 0 -0.00025639740013647051 0.0012304298754880459 0 -0.00026961137564679932 0.0012184499749248073 0 -0.00026213742023932512 0.0012238666117043689 0 -0.00025639740013647051 0.0012304298754880459 0 -0.00024778595887499079 0.0012506107645036944 0 -0.00026213742023932512 0.0012238666117043689 0 -0.00027065936955239565 0.0012152629011879898 0 -0.00025639740013647051 0.0012304298754880459 0 -0.00025639740013647051 0.0012304298754880459 0 -0.00025441457023709795 0.001229558735590259 0 -0.00024778595887499079 0.0012506107645036944 0 -0.00025639740013647051 0.0012304298754880459 0 -0.00025266564194575275 0.001229357072454721 0 -0.00025441457023709795 0.001229558735590259 0 -0.00025639740013647051 0.0012304298754880459 0 -0.00026961137564679932 0.0012184499749248073 0 -0.00025266564194575275 0.001229357072454721 0 -0.00027549974181053402 0.0012065427891026722 0 -0.00026961137564679932 0.0012184499749248073 0 -0.00025266564194575275 0.001229357072454721 0 -0.00025001395015627006 0.0012187609155745759 0 -0.00025114507096001167 0.0012271332441639916 0 -0.00024385123914812891 0.0012313531449939731 0 -0.00025266564194575275 0.001229357072454721 0 -0.00025441457023709795 0.001229558735590259 0 -0.0002468933395528396 0.0016279329828514815 0 -0.00015993757904729606 0.0015718039320554793 0 -0.00026257838988452453 0.0014602616795175031 0 -0.00015993757904729606 0.0015718039320554793 0 -0.00017021437866720975 0.0014130688561057843 0 -0.00026257838988452453 0.0014602616795175031 0 -0.00024263783285868629 0.0014289841743780503 0 -0.00025661710338372996 0.0013431097351031458 0 -3.4849081379954714e-05 0.0016232492268043088 0 -0.00015993757904729606 0.0015718039320554793 0 -8.0132432305132648e-05 0.00147731170908241 0 -0.00015993757904729606 0.0015718039320554793 0 -8.0132432305132648e-05 0.00147731170908241 0 -0.00017021437866720975 0.0014130688561057843 0 -8.0132432305132648e-05 0.00147731170908241 0 -0.00017021437866720975 0.0014130688561057843 0 -0.00015900230285076944 0.0012936079997884556 0 -0.00032862430342520295 0.0023718373947665336 0 -0.0004012691526971725 0.0022409042568083985 0 -0.00057081997148242941 0.0032776029251678938 0 -0.00054435573333759611 0.0031890557535694773 0 -0.00064239751998845503 0.0031563347728271038 0 -0.00017021437866720975 0.0014130688561057843 0 -0.00026257838988452453 0.0014602616795175031 0 -0.00024778595887499079 0.0012506107645036944 0 -0.00026687746916146429 0.0025204377465849266 0 -0.00032862430342520295 0.0023718373947665336 0 -0.00050639177995444556 0.0034071699500116768 0 -0.00057081997148242941 0.0032776029251678938 0 -0.00044562206083538893 0.0033273091432010514 0 -0.00057081997148242941 0.0032776029251678938 0 -0.00045262449615143688 0.0032152616137025667 0 -0.00054435573333759611 0.0031890557535694773 0 -0.00057081997148242941 0.0032776029251678938 0 -0.00044562206083538893 0.0033273091432010514 0 -0.00045262449615143688 0.0032152616137025667 0 -0.0003537347765127189 0.0032969905490377528 0 -0.00044562206083538893 0.0033273091432010514 0 -0.00045262449615143688 0.0032152616137025667 0 -0.00033408643181175452 0.0031970385813401042 0 -0.00045262449615143688 0.0032152616137025667 0 -0.00039359661152666678 0.003100056394103302 0 -0.00045262449615143688 0.0032152616137025667 0 -0.00051388971956216702 0.0031054940656259043 0 -0.00039359661152666678 0.003100056394103302 0 -0.00045262449615143688 0.0032152616137025667 0 -0.00054435573333759611 0.0031890557535694773 0 -0.00051388971956216702 0.0031054940656259043 0 -0.00051388971956216702 0.0031054940656259043 0 -0.00061602563259143081 0.0030616370094293356 0 -0.00055275546564416194 0.002974161104876315 0 -0.00051388971956216702 0.0031054940656259043 0 -0.00039359661152666678 0.003100056394103302 0 -0.00044302035718378604 0.0030244698991521357 0 -0.00025661710338372996 0.0013431097351031458 0 -0.00024925733248606707 0.0012553948672676138 0 -0.00017021437866720975 0.0014130688561057843 0 -0.00024778595887499079 0.0012506107645036944 0 -0.00015900230285076944 0.0012936079997884556 0 -0.00054435573333759611 0.0031890557535694773 0 -0.00051388971956216702 0.0031054940656259043 0 -0.00064239751998845503 0.0031563347728271038 0 -0.00051388971956216702 0.0031054940656259043 0 -0.00064239751998845503 0.0031563347728271038 0 -0.00061602563259143081 0.0030616370094293356 0 -0.00064239751998845503 0.0031563347728271038 0 -0.00061602563259143081 0.0030616370094293356 0 -0.00073338273178610619 0.0030210462459536562 0 -0.00024778595887499079 0.0012506107645036944 0 -0.00015900230285076944 0.0012936079997884556 0 -0.00024339434869717351 0.0012014978766929621 0 -0.0004012691526971725 0.0022409042568083985 0 -0.00047426255236811835 0.0020397405902821911 0 -0.00047426255236811835 0.0020397405902821911 0 -0.00076090691833683084 0.0024397988933995548 0 -0.00073338273178610619 0.0030210462459536562 0 -0.00065524770884404018 0.0029573223807689061 0 -0.00073236846513863633 0.0028491468223633236 0 -0.00061602563259143081 0.0030616370094293356 0 -0.00073338273178610619 0.0030210462459536562 0 -0.00065524770884404018 0.0029573223807689061 0 -0.00061602563259143081 0.0030616370094293356 0 -0.00065524770884404018 0.0029573223807689061 0 -0.00055275546564416194 0.002974161104876315 0 -0.00065524770884404018 0.0029573223807689061 0 -0.00062589615238486647 0.0028745043761615676 0 -0.00055275546564416194 0.002974161104876315 0 -0.00065524770884404018 0.0029573223807689061 0 -0.00062589615238486647 0.0028745043761615676 0 -0.00073236846513863633 0.0028491468223633236 0 -0.00062589615238486647 0.0028745043761615676 0 -0.00073236846513863633 0.0028491468223633236 0 -0.00066741621483973638 0.0027551385048499646 0 -0.00073338273178610619 0.0030210462459536562 0 -0.00073236846513863633 0.0028491468223633236 0 -0.0008239336000207797 0.0028600181116579765 0 -0.00073236846513863633 0.0028491468223633236 0 -0.00082476960766176101 0.0027986094756992652 0 -0.00083777564712318568 0.0028568265874921585 0 -0.00079070124996158864 0.002793209558383095 0 -0.00076090691833683084 0.0024397988933995548 0 -0.00035096599224539621 0.0029901109048152291 0 -0.00044302035718378604 0.0030244698991521357 0 -0.00044073076467689978 0.0029519396274565171 0 -0.00035096599224539621 0.0029901109048152291 0 -0.00039359661152666678 0.003100056394103302 0 -0.00044302035718378604 0.0030244698991521357 0 -0.00044302035718378604 0.0030244698991521357 0 -0.00055275546564416194 0.002974161104876315 0 -0.00044073076467689978 0.0029519396274565171 0 -0.00051388971956216702 0.0031054940656259043 0 -0.00044302035718378604 0.0030244698991521357 0 -0.00055275546564416194 0.002974161104876315 0 -0.00062589615238486647 0.0028745043761615676 0 -0.00050519979499876843 0.0029025115772032674 0 -0.00058940122074793027 0.0028091361782254399 0 -0.00062589615238486647 0.0028745043761615676 0 -0.00055275546564416194 0.002974161104876315 0 -0.00050519979499876843 0.0029025115772032674 0 -0.00055275546564416194 0.002974161104876315 0 -0.00050519979499876843 0.0029025115772032674 0 -0.00044073076467689978 0.0029519396274565171 0 -0.00035096599224539621 0.0029901109048152291 0 -0.00044073076467689978 0.0029519396274565171 0 -0.00040738835998150431 0.0028643948852318866 0 -0.00050519979499876843 0.0029025115772032674 0 -0.00044073076467689978 0.0029519396274565171 0 -0.00040738835998150431 0.0028643948852318866 0 -0.00025114523818281796 0.002781906113502495 0 -0.00035678974145413538 0.0027702099634027378 0 -0.00029319021168900473 0.0026947558157374815 0 -0.00035678974145413538 0.0027702099634027378 0 -0.00038117254840195399 0.002687428174387402 0 -0.00029319021168900473 0.0026947558157374815 0 -0.00025114523818281796 0.002781906113502495 0 -0.00035678974145413538 0.0027702099634027378 0 -0.00040738835998150431 0.0028643948852318866 0 -0.00035678974145413538 0.0027702099634027378 0 -0.00040738835998150431 0.0028643948852318866 0 -0.00049073559245255561 0.0027184244962963761 0 -0.00035678974145413538 0.0027702099634027378 0 -0.00049073559245255561 0.0027184244962963761 0 -0.00038117254840195399 0.002687428174387402 0 -0.00050519979499876843 0.0029025115772032674 0 -0.00040738835998150431 0.0028643948852318866 0 -0.00049073559245255561 0.0027184244962963761 0 -0.00050519979499876843 0.0029025115772032674 0 -0.00049073559245255561 0.0027184244962963761 0 -0.00058940122074793027 0.0028091361782254399 0 -0.00049073559245255561 0.0027184244962963761 0 -0.00058326468037089819 0.0027251027782474692 0 -0.00058940122074793027 0.0028091361782254399 0 -0.0010397398669573189 0.0020440335132969347 0 -0.00013905644390612139 0.0027377073577881843 0 -0.00049073559245255561 0.0027184244962963761 0 -0.00059083383142500168 0.0026265627493896448 0 -0.00038672035982699482 0.0025296884283024534 0 -0.00085501482577684152 0.002149332699066954 0 -0.00085760040875513394 0.0023071294159347278 0 -0.00038672035982699482 0.0025296884283024534 0 -0.00070123313349900363 0.0024679239454550653 0 -0.0003939010509878371 0.0025123276270037748 0 -0.00049073559245255561 0.0027184244962963761 0 -0.00058326468037089819 0.0027251027782474692 0 -0.00059083383142500168 0.0026265627493896448 0 -0.00085501482577684152 0.002149332699066954 0 -0.00038672035982699482 0.0025296884283024534 0 -0.00031427143869067865 0.0024948221248815754 0 -0.00049073559245255561 0.0027184244962963761 0 -0.00038117254840195399 0.002687428174387402 0 -0.00038672035982699482 0.0025296884283024534 0 -0.00038117254840195399 0.002687428174387402 0 -0.00038672035982699482 0.0025296884283024534 0 -0.00029319021168900473 0.0026947558157374815 0 -0.00038672035982699482 0.0025296884283024534 0 -0.00031427143869067865 0.0024948221248815754 0 -0.00029319021168900473 0.0026947558157374815 0 -0.00013905644390612139 0.0027377073577881843 0 -0.00025272193639810415 0.0026188605273097854 0 -0.00078579438967034539 0.0027644471952066986 0 -0.00074011381751435919 0.0026428720794283113 0 -0.00084255397894320309 0.0027136066864242672 0 -0.00078579438967034539 0.0027644471952066986 0 -0.00066741621483973638 0.0027551385048499646 0 -0.00074011381751435919 0.0026428720794283113 0 -0.00073236846513863633 0.0028491468223633236 0 -0.00078579438967034539 0.0027644471952066986 0 -0.00066741621483973638 0.0027551385048499646 0 -0.00073236846513863633 0.0028491468223633236 0 -0.00078579438967034539 0.0027644471952066986 0 -0.00082476960766176101 0.0027986094756992652 0 -0.00058326468037089819 0.0027251027782474692 0 -0.00059083383142500168 0.0026265627493896448 0 -0.00066741621483973638 0.0027551385048499646 0 -0.00062589615238486647 0.0028745043761615676 0 -0.00066741621483973638 0.0027551385048499646 0 -0.00058940122074793027 0.0028091361782254399 0 -0.00058326468037089819 0.0027251027782474692 0 -0.00066741621483973638 0.0027551385048499646 0 -0.00058940122074793027 0.0028091361782254399 0 -0.00059083383142500168 0.0026265627493896448 0 -0.00066741621483973638 0.0027551385048499646 0 -0.00074011381751435919 0.0026428720794283113 0 -0.00070123313349900363 0.0024679239454550653 0 -0.00086354325336270379 0.0024661906472271357 0 -0.00093704936256681654 0.0020964474889398426 0 -0.00085760040875513394 0.0023071294159347278 0 -0.001007021349788916 0.0022142370250121859 0 -0.0011394496675809819 0.0020808096348954273 0 -0.001007021349788916 0.0022142370250121859 0 -0.001157183681430164 0.0021998943104235831 0 -0.00074011381751435919 0.0026428720794283113 0 -0.00089068501113318563 0.0026482377546380169 0 -0.00084255397894320309 0.0027136066864242672 0 -0.00086354325336270379 0.0024661906472271357 0 -0.0010822966717908087 0.0019974492240277869 0 -0.0011150607410866399 0.0018968058348158064 0 -0.0010822966717908087 0.0019974492240277869 0 -0.00089307435365086564 0.0027527482274297258 0 -0.00087352668298922541 0.0027658973100512969 0 -0.0008818036325638558 0.002778731668281657 0 -0.00089068501113318563 0.0026482377546380169 0 -0.00084255397894320309 0.0027136066864242672 0 -0.00089307435365086564 0.0027527482274297258 0 -0.0010822966717908087 0.0019974492240277869 0 -0.0010027822866919109 0.0022296786411264854 0 -0.00084255397894320309 0.0027136066864242672 0 -0.00089307435365086564 0.0027527482274297258 0 -0.00087352668298922541 0.0027658973100512969 0 -0.00078579438967034539 0.0027644471952066986 0 -0.00087352668298922541 0.0027658973100512969 0 -0.00082476960766176101 0.0027986094756992652 0 -0.00078579438967034539 0.0027644471952066986 0 -0.00084255397894320309 0.0027136066864242672 0 -0.00087352668298922541 0.0027658973100512969 0 -0.0011253070073837372 0.0016194439657899544 0 -0.0011121855810074283 0.0015282524291310598 0 -0.0010533125104348114 0.0015492612021412832 0 -0.0010533125104348114 0.0015492612021412832 0 -0.00099198323832953806 0.0015109125392760317 0 -0.0010421462660777656 0.0014876390519092371 0 -0.0011121855810074283 0.0015282524291310598 0 -0.0010533125104348114 0.0015492612021412832 0 -0.0010421462660777656 0.0014876390519092371 0 -0.0010342350637335834 0.0017050782902996052 0 -0.0010982985613691696 0.0016392319528900057 0 -0.00097747646936181083 0.0016106305672407082 0 -0.0011253070073837372 0.0016194439657899544 0 -0.0010533125104348114 0.0015492612021412832 0 -0.00097747646936181083 0.0016106305672407082 0 -0.0010822966717908087 0.0019974492240277869 0 -0.00099264756083429842 0.0015332585484011236 0 -0.0008910238240457597 0.0016767731919090287 0 -0.00083054482582019154 0.0015571036803851755 0 -0.00090941351543436162 0.001502866437420739 0 -0.0008910238240457597 0.0016767731919090287 0 -0.00097747646936181083 0.0016106305672407082 0 -0.00090941351543436162 0.001502866437420739 0 -0.0010533125104348114 0.0015492612021412832 0 -0.00097747646936181083 0.0016106305672407082 0 -0.00099198323832953806 0.0015109125392760317 0 -0.00097747646936181083 0.0016106305672407082 0 -0.00090941351543436162 0.001502866437420739 0 -0.00099198323832953806 0.0015109125392760317 0 -0.00099198323832953806 0.0015109125392760317 0 -0.00095905431970008811 0.0014129401244945628 0 -0.0010421462660777656 0.0014876390519092371 0 -0.00090941351543436162 0.001502866437420739 0 -0.00099198323832953806 0.0015109125392760317 0 -0.00095905431970008811 0.0014129401244945628 0 -0.00057033261309183988 0.0012742813491154344 0 -0.00065078580669205091 0.0012510436500505222 0 -0.00083211710907964424 0.0013727225037749112 0 -0.00090941351543436162 0.001502866437420739 0 -0.00095905431970008811 0.0014129401244945628 0 -0.00031962101609972059 0.0011663225230342537 0 -0.00029197190460530551 0.0011781625377324774 0 -0.0003008583684231836 0.0011842229241917043 0 -0.00028296549364649227 0.0011978995491890995 0 -0.00029197190460530551 0.0011781625377324774 0 -0.00026758347739438135 0.0011981152580193021 0 -0.00028296549364649227 0.0011978995491890995 0 -0.00029197190460530551 0.0011781625377324774 0 -0.0003008583684231836 0.0011842229241917043 0 -0.00028296549364649227 0.0011978995491890995 0 -0.00026956190130055955 0.001208477415184024 0 -0.00026758347739438135 0.0011981152580193021 0 -0.00028656642154293563 0.0010638988107361559 0 -0.00054550781810250586 0.0016793290881592917 0 -0.00026956190130055955 0.001208477415184024 0 -0.00026758347739438135 0.0011981152580193021 0 -0.00026250579296221294 0.0012053907247577425 0 -0.00024339434869717351 0.0012014978766929621 0 -0.00026148320203214093 0.0012008763490393261 0 -0.0002645387912355559 0.0012035451733454989 0 -0.00026758347739438135 0.0011981152580193021 0 -0.00026250579296221294 0.0012053907247577425 0 -0.00026148320203214093 0.0012008763490393261 0 -0.00024339434869717351 0.0012014978766929621 0 -0.00026250579296221294 0.0012053907247577425 0 -0.00026148320203214093 0.0012008763490393261 0 -0.00026758347739438135 0.0011981152580193021 0 -0.00026148320203214093 0.0012008763490393261 0 -0.0002654148299436597 0.001202121849533627 0 -0.00026148320203214093 0.0012008763490393261 0 -0.0002645387912355559 0.0012035451733454989 0 -0.0002654148299436597 0.001202121849533627 0 -0.00076090691833683084 0.0024397988933995548 0 -0.00054550781810250586 0.0016793290881592917 0 -0.00078569493396874282 0.0027998619951226755 0 -0.00076090691833683084 0.0024397988933995548 0 -0.00087352668298922541 0.0027658973100512969 0 -0.00082476960766176101 0.0027986094756992652 0 -0.00083777564712318568 0.0028568265874921585 0 -0.00087352668298922541 0.0027658973100512969 0 -0.00086724641265251623 0.0027756976090435328 0 -0.0008818036325638558 0.002778731668281657 0 -0.00065078580669205091 0.0012510436500505222 0 -0.00054550781810250586 0.0016793290881592917 0 -0.0011121855810074283 0.0015282524291310598 0 -0.0010421462660777656 0.0014876390519092371 0 -0.0010970575367762949 0.0014414287254878729 0 -0.00095905431970008811 0.0014129401244945628 0 -0.0010421462660777656 0.0014876390519092371 0 -0.0010970575367762949 0.0014414287254878729 0 -0.0010027822866919109 0.0022296786411264854 0 -0.00054550781810250586 0.0016793290881592917 0 -0.00029197190460530551 0.0011781625377324774 0 -0.00026758347739438135 0.0011981152580193021 0 -0.00026794033817149036 0.0011858491410374787 0 
</DataArray>
</PointData>
<CellData Scalars="region_id,cross_section_updated," Vectors="" Tensors="stress,">
<DataArray type="Float64" Name="region_id" format="ascii">
5 5 5 5 5 5 5 5 6 5 5 5 5 6 6 6 5 5 5 5 5 6 5 6 5 5 5 5 5 5 5 5 6 5 5 5 5 6 5 5 5 5 5 5 5 5 5 5 5 6 5 5 5 6 5 5 6 5 6 5 5 6 5 5 5 6 6 5 6 6 5 6 5 5 5 5 5 5 5 5 6 5 5 6 5 6 5 5 5 5 5 6 5 5 6 5 5 6 5 5 5 5 5 5 5 5 5 5 6 5 5 5 5 6 5 5 5 5 5 6 5 6 5 5 5 6 6 6 5 5 5 5 6 5 5 5 5 6 5 5 5 5 5 5 5 6 5 5 5 5 5 6 5 5 5 5 5 5 5 5 5 5 5 5 5 5 5 5 5 5 5 6 6 5 5 5 5 5 5 5 5 5 5 5 5 5 5 6 5 5 5 5 5 6 5 5 5 5 5 5 6 5 5 5 5 5 5 5 5 6 5 5 5 5 6 5 5 5 5 5 6 5 5 5 6 5 5 5 5 5 5 5 6 5 5 5 6 6 5 5 5 5 5 5 5 6 5 5 6 5 5 5 5 5 5 5 5 5 5 6 5 5 5 5 5 6 5 6 5 5 6 5 5 5 5 5 5 5 5 6 5 5 6 5 5 5 6 5 6 5 5 5 5 5 6 5 6 6 5 5 5 5 5 5 6 5 5 5 5 5 5 5 5 5 5 5 5 5 5 5 5 5 5 5 5 5 5 5 5 5 5 6 5 5 6 5 5 5 5 5 5 5 5 5 5 5 5 5 5 5 5 6 5 5 5 5 5 5 5 6 5 5 5 5 5 5 5 5 5 5 5 5 5 5 5 5 5 5 5 6 5 5 5 5 5 5 6 5 5 5 5 5 5 5 5 5 5 5 5 5 5 5 5 5 6 6 5 5 5 5 5 5 5 5 6 5 5 6 5 5 6 5 5 5 5 5 6 5 5 5 5 6 5 5 5 5 5 5 6 5 5 5 5 5 5 5 5 5 5 6 5 5 5 6 5 5 5 5 5 6 5 5 5 5 6 5 5 5 5 5 5 5 6 5 5 5 5 5 5 6 5 5 6 5 5 5 5 5 5 5 5 5 5 5 5 5 6 5 5 5 5 6 5 5 5 5 6 5 5 6 5 6 5 5 5 6 5 5 5 5 5 6 5 5 5 5 5 5 6 5 5 5 5 5 5 5 5 6 5 5 6 5 5 6 5 5 6 5 5 6 5 5 5 5 6 5 5 5 5 5 5 5 6 5 5 6 5 5 5 5 6 5 5 5 5 5 5 6 6 6 5 5 5 5 5 5 6 5 5 5 5 5 5 5 5 5 5 5 5 5 5 5 5 5 5 5 5 5 5 5 5 5 5 5 5 5 5 5 5 5 5 6 5 5 5 5 5 5 5 6 5 5 5 5 6 5 5 5 5 5 5 5 5 5 5 5 5 5 5 5 5 5 5 5 5 5 5 6 5 5 6 5 5 5 5 5 6 5 5 6 5 5 6 5 6 5 5 5 5 5 6 5 5 5 5 6 5 5 5 5 5 5 5 5 6 5 5 5 6 6 6 6 5 5 5 5 5 5 5 5 5 5 6 5 6 5 5 6 5 5 5 5 5 5 5 5 5 5 5 5 5 5 6 6 6 5 5 6 5 5 6 6 5 5 5 5 6 5 5 6 5 5 6 5 5 5 5 5 5 5 5 5 5 5 5 6 5 5 5 5 5 6 5 6 5 5 6 6 5 5 5 5 5 6 5 5 6 5 5 6 5 5 6 5 5 6 6 5 5 6 5 5 6 5 6 6 5 5 5 5 6 5 5 5 6 5 6 5 5 5 6 5 5 5 6 5 5 5 6 5 5 6 6 5 5 5 6 5 5 5 5 6 5 6 5 5 5 6 5 6 5 5 5 5 5 5 5 5 5 5 5 5 5 5 5 5 5 6 5 5 5 5 5 5 5 6 5 5 5 5 5 5 5 5 5 5 5 5 5 5 5 5 5 5 5 5 5 5 5 5 5 5 5 5 5 5 5 5 5 5 5 5 5 5 6 5 5 5 5 5 5 5 5 5 5 5 5 5 5 5 5 5 5 5 5 5 5 5 5 5 5 5 5 5 5 5 5 5 5 5 5 5 5 5 5 5 6 5 5 6 5 6 5 5 5 5 5 6 6 6 5 5 5 5 5 5 5 5 6 5 5 5 5 5 5 5 5 5 5 6 5 5 5 5 5 6 5 5 5 5 5 5 6 5 5 5 5 5 6 6 5 5 5 5 5 5 5 5 5 5 5 5 6 6 5 5 5 5 5 5 5 5 6 5 5 5 5 5 5 6 5 5 5 5 5 5 5 5 5 5 5 5 5 5 5 5 5 5 5 5 5 5 5 5 5 5 5 5 5 5 5 6 5 5 5 5 5 5 6 5 5 5 5 5 6 5 5 5 5 6 5 6 5 5 5 5 6 5 5 5 5 5 6 5 5 5 5 5 6 5 5 5 6 5 5 5 6 5 5 5 5 5 5 5 5 5 5 5 5 5 5 5 5 6 5 6 5 5 5 5 6 5 5 5 6 5 5 6 5 5 5 6 6 5 5 5 5 5 5 5 5 5 5 5 5 5 5 5 5 5 5 5 5 6 5 5 6 5 5 5 5 6 5 5 5 6 5 5 5 5 6 5 5 5 5 5 5 5 5 5 5 5 5 5 5 5 5 5 5 5 5 5 5 5 6 5 5 5 5 5 5 5 5 5 5 5 5 5 5 5 5 5 5 5 5 5 5 5 5 5 6 6 5 5 5 5 5 5 5 5 5 5 5 5 5 5 5 5 5 5 5 5 5 5 5 5 5 5 6 5 5 5 5 5 5 5 5 5 5 5 5 5 5 5 5 5 5 5 5 5 5 5 5 5 5 5 6 5 5 5 5 5 5 5 6 5 5 5 5 5 5 5 5 5 5 5 5 5 5 5 5 5 5 5 5 6 6 5 5 5 5 5 5 5 5 5 5 5 5 5 5 5 5 5 5 6 6 5 5 6 5 5 5 5 5 5 5 5 5 6 6 6 5 5 5 5 6 5 5 6 5 5 5 5 6 5 5 5 5 5 5 5 6 5 5 5 5 5 5 6 6 6 5 5 5 5 5 5 5 5 5 5 5 5 5 5 5 6 5 5 5 5 5 5 6 5 5 5 5 5 5 5 5 5 5 5 6 6 5 5 5 5 6 5 5 5 6 5 5 5 5 5 5 5 5 5 5 5 5 5 5 5 5 6 6 5 6 6 5 5 5 6 5 6 5 5 5 5 5 6 5 5 5 5 5 5 5 5 5 6 5 5 5 5 5 6 5 5 5 6 5 6 5 5 5 5 6 5 6 5 5 5 5 5 6 5 5 5 5 5 5 5 5 5 5 5 5 5 5 5 6 5 5 5 5 6 5 5 5 5 5 5 5 5 5 5 5 5 5 5 5 5 5 5 5 5 5 5 5 5 5 5 5 5 5 5 5 5 5 5 5 5 5 5 5 5 5 5 5 6 5 6 5 6 5 5 5 5 5 5 5 6 5 5 5 6 5 5 5 5 5 5 5 5 6 5 5 5 5 5 5 5 5 6 5 5 5 5 5 5 5 5 5 5 5 5 5 5 5 5 5 5 5 5 5 5 5 5 5 5 5 5 5 5 5 5 5 5 5 5 5 5 5 5 5 5 5 5 5 5 5 5 5 5 5 5 5 5 5 5 5 6 5 5 5 5 5 5 5 5 5 6 5 5 6 5 5 6 5 5 5 6 6 5 6 6 5 5 5 6 5 5 6 5 5 5 5 5 5 6 5 5 5 5 5 5 5 5 5 5 5 5 5 6 6 5 5 5 6 5 5 5 5 5 6 5 5 5 5 6 5 5 6 5 6 5 6 5 6 5 6 5 6 5 5 5 5 5 5 5 5 6 6 5 5 5 5 5 5 5 5 5 5 5 5 5 5 5 5 5 5 5 5 5 5 5 5 5 5 5 5 5 5 5 6 5 5 5 5 5 5 6 5 5 5 5 5 5 6 5 5 5 5 6 5 6 5 5 5 5 5 5 5 5 5 5 6 5 5 5 6 5 5 5 5 5 5 5 5 5 5 5 6 5 5 5 5 5 5 5 5 5 5 5 5 5 5 6 5 5 5 6 6 5 6 5 5 6 5 5 5 6 6 5 5 5 5 5 6 5 5 6 5 5 6 5 5 5 5 6 5 5 5 5 5 5 5 5 5 5 5 5 5 5 5 6 5 5 5 5 5 5 5 6 5 5 5 5 5 5 5 6 5 5 5 5 5 5 5 5 5 5 5 5 5 5 5 5 5 5 5 5 5 6 5 5 5 5 5 6 5 5 6 5 5 6 5 5 5 5 5 5 5 5 5 5 5 5 5 5 5 5 5 5 5 5 5 5 5 5 5 5 5 5 5 5 5 5 5 5 5 5 5 5 5 5 5 5 5 5 5 5 5 5 5 5 6 5 5 6 5 5 5 6 5 5 5 5 5 5 5 5 5 5 5 5 5 6 5 5 5 5 5 5 6 5 5 5 6 5 5 5 6 5 5 6 5 5 5 5 6 5 5 5 5 5 5 5 5 6 5 5 5 5 5 5 5 5 5 5 5 6 5 5 5 5 5 5 5 5 5 5 6 5 5 5 6 5 5 5 5 5 5 5 5 5 5 5 6 5 6 5 5 5 6 5 5 5 5 5 5 5 5 6 5 5 5 5 5 5 5 6 5 5 5 5 6 5 6 5 5 5 5 6 5 5 5 5 5 5 6 5 5 5 5 5 5 5 5 5 5 5 5 5 6 5 5 5 5 6 5 5 5 5 5 6 5 5 5 5 5 5 5 5 5 5 5 5 5 6 5 5 6 5 5 5 5 5 5 5 5 5 5 5 5 5 5 6 6 5 5 5 5 5 5 5 5 5 5 5 5 5 5 5 5 5 5 5 5 5 5 5 5 6 5 5 5 5 5 6 5 5 5 5 5 5 5 5 6 5 5 5 5 6 5 5 5 5 5 5 5 5 5 5 5 5 5 5 5 5 5 5 5 5 6 5 5 6 5 6 5 5 5 5 5 5 5 5 5 5 5 5 5 5 5 5 5 5 5 5 5 5 5 5 6 5 5 5 5 5 5 5 5 5 5 5 6 5 5 5 5 5 6 5 5 5 5 5 5 5 5 5 5 5 5 5 5 5 5 5 5 5 5 5 5 5 5 5 5 5 5 5 5 5 5 5 5 5 5 5 5 5 5 6 5 5 5 5 5 5 5 5 5 5 5 6 5 5 6 5 5 5 6 5 5 5 5 5 5 5 5 5 5 5 5 5 5 5 5 5 5 5 5 5 5 5 5 5 5 5 5 5 5 5 5 5 6 5 5 5 6 5 6 5 5 5 6 5 5 5 5 6 5 5 5 5 5 5 5 5 5 5 6 5 5 5 5 5 5 6 6 5 5 5 5 6 5 5 5 5 6 5 5 5 5 5 5 5 5 5 6 5 5 5 5 5 5 5 6 5 5 6 6 5 5 5 5 5 5 5 5 5 5 5 6 5 6 5 6 5 5 5 5 6 5 5 5 5 5 6 5 6 5 6 5 5 5 5 5 5 5 5 5 5 6 5 6 5 5 6 5 6 5 5 5 5 6 5 5 5 5 5 5 5 5 5 5 5 5 5 6 5 5 5 5 5 5 6 5 5 6 5 5 5 5 5 5 5 5 5 6 5 5 5 5 5 5 5 6 5 5 5 5 5 6 5 5 5 5 5 5 5 5 5 5 5 5 6 5 5 6 5 5 5 5 6 5 5 5 5 5 5 5 5 5 5 5 5 5 5 5 5 5 5 5 5 5 5 5 5 5 5 5 5 5 5 5 5 5 5 5 5 5 5 6 6 5 5 5 5 5 5 5 5 5 5 5 5 5 6 5 5 5 5 5 5 5 5 5 5 5 5 5 6 5 5 5 5 5 5 5 5 5 5 5 5 5 5 5 6 5 5 5 5 5 5 5 5 5 6 5 6 5 5 5 6 5 5 6 5 5 5 5 5 5 5 5 5 5 5 5 5 5 5 5 5 5 5 5 6 5 6 5 5 6 5 5 5 5 5 5 5 5 5 5 6 6 5 5 6 5 5 5 5 5 5 5 5 6 5 5 5 6 5 5 5 6 5 6 5 6 5 6 5 5 5 5 5 5 5 5 5 5 5 5 5 5 5 6 5 5 5 5 5 5 5 5 5 5 5 5 5 5 5 5 5 5 5 6 5 5 5 5 5 5 5 5 5 6 5 5 5 5 5 6 5 5 5 5 5 5 5 5 5 5 6 5 6 5 5 5 5 6 6 5 5 5 5 5 5 5 5 5 5 5 5 5 5 5 6 5 5 5 5 5 6 5 5 5 5 5 5 5 5 5 5 5 5 6 5 5 5 5 6 5 5 5 5 5 5 5 6 6 5 5 5 6 5 5 5 5 5 5 5 5 5 5 5 6 5 6 5 5 5 5 6 5 5 5 5 5 5 6 5 5 5 5 5 5 6 5 5 5 5 5 5 6 5 5 6 5 5 5 5 5 5 5 5 5 5 5 5 5 5 5 5 6 5 5 5 5 5 5 5 5 5 6 5 5 5 5 5 5 5 5 5 5 5 5 5 5 5 5 5 5 5 5 5 6 5 5 6 5 5 5 6 5 5 6 5 6 5 5 5 5 5 5 5 6 5 5 5 5 5 5 5 5 5 5 5 5 6 6 5 5 5 5 5 6 5 5 6 5 5 6 5 5 5 5 5 6 5 6 5 5 5 5 6 5 5 5 5 5 5 5 5 6 5 6 6 5 5 5 5 6 5 6 5 5 6 5 5 5 6 5 5 6 5 6 5 5 6 5 6 6 5 6 5 5 5 6 5 6 5 5 5 6 6 5 5 5 5 5 6 5 5 6 5 6 5 5 5 5 6 5 6 5 5 6 5 6 5 5 5 6 5 5 6 6 5 6 6 5 5 5 6 5 6 5 5 6 5 5 5 6 6 6 5 6 5 5 6 6 5 5 6 5 5 5 5 6 5 6 5 5 5 5 6 5 5 5 5 5 5 5 5 6 5 6 5 6 5 5 5 5 5 6 6 5 6 5 5 5 5 5 5 5 5 5 5 6 6 6 5 5 5 5 5 5 5 5 5 5 6 5 6 5 5 6 6 5 5 5 5 6 5 5 5 5 5 5 5 5 5 5 5 6 5 5 5 5 5 6 5 5 5 5 5 6 5 5 5 5 6 5 6 5 6 5 5 6 5 5 6 5 5 5 5 5 5 5 6 5 5 5 5 5 5 5 5 5 5 5 5 5 5 5 5 5 5 5 5 5 6 5 5 5 5 5 6 5 5 5 6 6 5 5 5 5 5 5 5 5 5 5 5 5 6 5 5 5 5 5 5 5 6 5 5 5 5 5 5 5 5 5 6 5 6 5 5 6 6 6 5 5 6 5 5 5 5 5 5 5 5 6 5 5 5 5 5 5 5 6 5 6 5 6 5 5 5 5 5 5 6 6 5 5 6 5 5 5 5 5 5 5 5 5 5 5 5 5 6 5 5 5 6 5 5 5 5 5 5 5 5 5 5 5 5 5 5 5 5 5 5 5 5 5 5 5 5 5 5 5 5 5 5 5 5 5 6 5 5 6 5 5 5 5 5 5 5 5 5 5 6 5 5 5 5 5 5 5 5 5 5 5 5 5 6 5 6 5 5 5 6 5 5 5 5 6 5 5 5 5 5 5 5 5 5 5 5 6 5 5 5 5 5 5 5 5 5 5 5 5 5 5 6 6 5 5 5 5 6 5 5 5 5 5 5 5 6 5 5 5 6 5 5 5 5 5 5 5 5 5 5 5 5 5 5 5 5 6 5 5 5 5 6 5 6 5 5 5 5 5 5 5 6 5 5 5 5 5 5 5 5 5 5 5 5 5 5 5 5 5 5 5 5 5 5 5 5 6 5 6 6 5 5 5 5 5 5 5 5 5 5 5 5 5 6 5 5 5 5 5 5 6 5 5 5 6 5 5 5 5 5 5 5 5 6 5 5 5 5 6 6 6 5 6 5 5 5 5 5 6 5 5 5 5 5 5 5 6 5 5 5 5 5 5 5 5 5 6 6 5 5 5 5 5 5 5 5 5 5 5 5 5 5 5 5 5 5 5 5 5 5 5 6 5 5 5 5 5 5 6 6 5 5 5 5 6 5 6 5 5 6 5 5 5 5 6 5 5 5 6 5 5 5 5 5 5 5 5 6 5 6 6 5 5 5 5 5 5 5 6 5 5 5 5 6 5 5 5 5 5 5 5 5 5 5 5 5 5 5 5 5 6 6 5 6 5 6 5 6 5 5 5 5 5 5 5 6 5 5 5 5 5 5 5 5 5 5 5 5 5 5 5 5 5 5 5 5 5 5 5 5 5 5 6 5 6 5 5 5 6 5 6 5 5 5 5 5 5 5 5 5 5 5 5 5 5 5 5 5 5 5 5 5 5 5 5 5 6 6 5 5 6 5 6 5 5 5 5 5 5 5 5 6 5 5 5 5 6 5 6 5 5 5 5 5 5 5 6 5 5 6 5 5 5 5 5 5 5 5 5 5 5 5 5 5 5 5 5 5 5 5 5 5 5 5 5 5 5 5 5 5 6 5 6 5 5 5 5 5 5 6 6 5 5 5 5 6 5 5 5 5 6 6 5 6 5 5 5 5 6 5 5 5 5 5 6 6 5 5 6 5 5 5 6 5 5 6 5 5 5 5 5 5 5 5 5 5 6 5 5 5 6 5 6 5 5 6 5 5 5 5 5 6 5 6 5 5 6 6 5 5 5 6 6 5 5 6 6 5 6 5 5 5 6 6 6 5 6 5 5 6 5 5 5 5 5 5 5 5 5 6 6 5 5 5 6 5 5 6 6 6 6 5 5 5 6 6 5 5 5 5 5 6 5 5 5 5 5 5 5 5 5 5 5 5 5 6 5 5 5 6 5 5 5 6 5 5 5 5 5 5 6 5 5 5 5 5 5 5 5 5 5 5 5 5 6 5 6 5 5 5 5 5 6 5 5 5 5 5 5 6 5 6 5 5 5 5 5 5 5 5 5 5 5 5 5 6 5 5 5 5 5 5 5 5 5 5 5 5 5 5 5 5 5 6 5 5 5 6 5 5 5 5 5 5 5 5 5 5 5 5 5 6 5 5 6 6 5 6 5 5 6 5 5 5 5 5 5 5 5 5 5 5 5 5 5 5 5 5 5 5 5 6 5 5 5 5 5 5 5 5 5 5 5 5 5 5 5 6 5 6 5 5 5 5 6 5 5 6 5 6 5 5 5 5 5 5 5 6 5 5 5 5 5 6 5 5 5 5 5 5 5 5 5 5 5 5 5 5 5 5 5 5 5 5 5 5 5 5 6 5 5 5 5 5 6 5 5 5 5 5 5 5 5 5 5 5 5 5 5 5 5 5 5 5 5 5 5 5 5 5 5 5 5 5 5 5 5 5 5 5 5 5 5 5 5 5 5 5 5 5 5 6 5 5 5 5 6 5 6 5 5 5 6 5 5 5 5 5 5 6 5 5 6 5 5 5 5 5 5 5 6 5 5 5 5 5 5 5 5 5 5 5 5 5 5 5 5 5 5 5 5 5 5 5 5 5 5 5 5 5 5 5 5 5 5 5 5 5 5 5 5 5 5 6 5 5 6 5 5 5 5 5 5 6 5 5 5 5 6 5 6 5 5 6 5 5 6 5 5 5 5 5 5 5 6 5 5 5 5 5 5 5 5 5 5 5 6 5 5 5 5 6 5 5 5 6 6 5 5 6 5 5 5 6 5 5 6 5 5 5 5 5 5 5 5 6 5 5 6 5 5 6 5 5 5 6 5 5 5 6 5 5 5 5 5 6 5 5 5 5 5 6 5 5 5 5 5 5 5 5 5 6 5 5 5 5 6 5 5 5 5 5 5 5 5 6 5 6 5 5 5 5 5 5 5 5 5 5 6 5 5 5 5 5 5 6 5 5 6 5 5 6 5 5 5 5 5 5 5 5 5 6 5 5 5 5 5 5 6 5 5 6 5 5 5 5 5 5 5 5 5 5 6 6 5 5 5 6 6 5 5 5 5 6 5 5 6 6 5 5 6 5 5 5 6 5 5 6 6 5 5 5 5 5 5 5 6 5 5 5 5 5 5 5 5 5 5 5 5 5 5 5 6 5 5 5 5 5 5 5 6 5 5 6 6 5 6 5 6 5 5 6 5 5 5 6 6 5 5 5 5 6 5 5 6 5 5 6 5 5 6 5 5 5 5 6 6 5 5 5 6 5 5 5 5 5 5 5 5 5 5 5 5 5 5 5 5 5 5 5 5 5 5 5 5 5 5 5 5 5 5 5 5 5 5 5 5 5 5 5 5 5 5 5 5 5 5 5 5 6 5 5 5 5 6 5 5 5 5 5 5 6 5 5 5 5 6 6 5 5 5 5 5 5 5 5 5 5 5 5 5 5 5 5 5 5 5 5 5 5 6 5 5 5 5 5 5 5 5 5 5 5 5 5 5 5 5 6 5 5 5 5 6 5 5 5 5 5 5 5 5 6 5 5 5 5 5 5 5 5 6 5 5 5 5 6 5 6 5 5 5 5 5 5 5 5 5 5 5 5 5 5 5 5 5 5 5 5 5 5 5 5 5 5 5 6 5 5 5 5 5 5 5 6 5 5 5 5 5 5 5 5 5 5 5 6 5 5 5 5 5 5 5 5 6 5 5 5 5 5 5 5 5 5 5 6 5 6 5 5 5 5 6 5 5 5 5 6 5 5 6 5 5 5 5 5 5 6 5 5 5 5 5 5 5 5 5 6 5 5 5 6 5 6 5 5 6 5 6 5 5 6 5 5 5 5 5 5 5 6 5 5 5 5 5 6 5 5 5 5 5 5 5 5 5 5 5 5 6 5 5 5 6 5 5 5 5 6 5 5 5 5 5 6 5 5 6 5 5 5 6 5 5 5 5 6 5 5 6 6 5 5 5 5 5 5 5 5 5 5 5 6 5 5 5 5 5 5 5 5 5 5 5 5 5 5 6 5 6 5 5 5 5 5 5 5 5 5 5 5 5 5 5 5 5 5 5 5 5 5 5 5 6 5 5 5 5 5 5 5 5 5 5 5 5 5 5 6 5 5 5 5 5 5 5 5 5 5 5 5 5 5 5 5 5 5 5 5 5 5 5 5 5 5 5 5 5 5 5 5 5 5 5 5 5 5 5 5 6 5 5 5 5 5 5 5 5 5 5 6 5 6 5 5 5 5 5 6 5 5 5 5 5 5 5 5 5 5 6 5 5 6 5 5 6 5 5 5 5 5 6 5 5 5 6 6 5 5 6 5 5 5 5 5 5 5 6 6 5 6 5 5 5 5 5 6 5 5 5 5 5 5 5 5 5 5 5 5 5 5 6 5 5 5 6 5 6 5 5 5 5 5 6 5 5 5 5 5 5 5 5 5 5 5 5 5 5 6 5 5 5 6 5 5 5 5 5 6 5 5 5 6 6 5 5 5 5 5 5 5 5 5 5 5 5 5 5 5 5 6 6 5 5 5 6 5 5 6 5 6 5 6 5 5 5 6 5 6 5 5 5 5 5 5 6 5 5 5 5 5 5 5 5 6 5 5 5 5 5 6 5 6 5 5 5 5 5 5 5 5 5 6 5 6 5 5 5 5 5 5 5 5 5 5 5 5 5 5 5 5 6 5 5 5 5 5 5 5 5 5 6 5 5 5 5 5 5 5 5 5 5 5 6 5 5 5 5 5 5 5 5 6 5 5 5 5 5 5 6 5 5 5 5 5 5 5 5 5 5 5 5 5 6 5 5 5 5 5 5 5 5 5 5 5 5 5 5 5 5 5 6 5 5 5 5 5 5 5 5 5 5 5 5 5 5 5 5 5 5 5 5 5 5 5 5 5 5 5 5 5 5 6 5 5 5 5 5 5 5 5 5 5 5 5 6 5 6 5 5 5 5 5 5 5 5 5 5 6 5 5 5 5 5 5 5 5 5 5 5 6 5 6 6 5 5 6 5 5 6 6 5 5 6 5 5 6 5 5 5 5 5 5 5 5 6 5 5 5 5 5 5 5 5 5 6 5 5 5 5 5 5 5 6 6 5 6 5 5 5 6 5 5 5 5 5 6 5 5 5 5 5 5 6 5 5 5 5 5 5 6 5 5 6 5 5 5 5 5 6 5 6 5 6 5 5 5 5 5 5 5 5 5 5 6 5 6 5 5 6 5 5 5 6 6 5 5 5 5 6 5 6 5 5 6 5 5 5 5 5 5 5 5 5 5 5 5 5 5 5 5 5 5 5 5 5 5 5 5 6 5 5 5 5 5 5 5 6 5 5 5 5 6 5 5 5 6 5 5 6 5 6 5 5 5 5 5 5 5 5 6 5 5 5 6 5 5 5 5 6 5 6 5 5 5 5 5 5 6 5 5 5 6 5 5 6 5 5 5 5 5 6 5 5 5 5 5 6 6 5 5 5 5 5 5 5 5 5 5 5 5 5 5 5 5 5 5 5 5 5 5 5 5 5 5 5 5 5 5 5 5 5 5 5 5 5 5 5 5 5 5 5 5 5 5 5 6 5 5 5 5 5 5 5 5 5 5 5 5 5 5 5 5 5 5 6 5 5 5 5 5 5 5 6 5 5 5 5 6 5 5 5 5 5 5 5 5 5 5 5 6 5 5 5 5 5 5 6 5 5 6 5 6 6 6 5 5 5 5 5 5 5 5 5 5 5 5 5 5 5 5 5 5 5 5 5 5 5 5 5 5 5 5 5 5 5 5 5 5 5 5 5 5 5 5 5 5 5 5 5 5 5 5 5 5 5 5 5 5 5 5 6 5 5 5 6 5 6 5 5 5 5 5 5 5 5 5 5 5 6 5 5 5 6 5 6 5 6 5 5 5 5 5 5 5 5 5 5 5 5 5 5 5 5 5 5 5 5 5 5 6 5 5 5 5 5 5 5 5 5 5 5 5 5 5 5 6 5 5 5 5 6 6 5 5 6 5 5 5 5 6 5 6 5 6 5 5 5 6 5 6 5 5 5 5 5 5 5 5 6 5 5 5 6 5 5 5 6 5 5 5 5 5 5 5 5 5 5 5 5 5 5 5 5 5 5 5 6 5 5 5 5 5 5 5 5 5 5 5 5 5 5 5 5 6 5 5 5 6 5 5 5 5 5 5 6 5 5 5 5 5 5 5 5 5 5 6 5 5 5 5 5 5 5 5 5 5 5 5 5 5 5 5 5 5 5 5 5 5 5 5 5 5 5 5 5 6 5 5 5 5 6 6 5 5 5 6 5 5 5 5 5 5 5 6 5 5 5 6 5 5 5 5 6 5 6 6 5 5 6 5 5 5 5 5 6 5 6 5 5 6 5 6 6 5 5 6 6 5 5 5 5 6 5 6 5 5 5 6 6 5 5 5 5 5 6 5 5 5 6 5 5 5 5 5 6 5 5 5 5 5 5 6 5 5 5 5 5 5 5 5 6 6 6 5 6 5 5 6 5 5 5 5 5 5 5 5 5 5 5 6 5 5 5 5 5 5 5 5 5 6 5 5 5 5 5 5 5 5 6 5 5 5 5 5 6 5 5 5 5 5 5 5 6 5 5 5 6 5 5 6 5 5 5 5 5 5 5 5 5 5 5 5 5 5 5 5 5 5 5 5 5 5 5 6 5 5 5 5 5 6 5 5 5 5 5 5 5 5 5 5 5 5 5 5 6 5 5 5 5 5 5 5 5 5 6 5 6 5 5 5 5 5 6 5 6 6 5 5 5 5 5 5 5 6 5 5 5 5 5 5 6 5 6 5 6 5 5 5 5 5 5 5 5 5 5 5 5 5 5 5 5 5 5 5 5 5 5 5 5 5 5 5 5 5 5 5 5 5 5 5 5 5 5 5 5 5 5 6 5 5 5 5 5 5 5 5 5 6 5 5 5 5 5 5 6 5 5 6 5 5 5 5 5 5 5 5 5 5 5 5 6 5 5 6 5 5 5 5 6 5 6 5 5 5 5 6 5 6 5 5 5 5 6 6 5 6 5 5 5 5 5 5 5 5 5 5 5 5 5 5 6 5 5 5 5 5 5 5 5 5 5 5 5 5 5 5 5 5 5 5 6 5 5 6 5 5 5 6 5 5 5 5 5 6 5 5 5 5 5 5 5 5 5 5 5 5 6 5 6 5 5 5 6 5 5 5 6 5 6 5 5 5 5 5 6 5 5 5 6 5 5 5 5 6 5 5 5 5 6 5 5 6 5 5 5 6 5 5 5 5 5 5 5 5 5 6 5 5 6 5 5 5 6 5 5 5 5 5 5 5 5 5 5 5 5 5 5 5 5 5 5 5 5 5 5 5 5 5 5 5 5 5 5 5 5 5 5 5 6 5 5 5 5 5 5 5 5 5 5 5 5 5 5 5 6 6 5 5 5 5 5 5 5 6 5 5 5 5 5 5 5 5 5 5 5 5 5 5 5 5 5 5 5 5 5 5 5 5 5 5 5 5 5 5 5 5 5 5 5 5 6 5 5 6 5 5 5 5 5 5 5 5 5 6 5 5 5 5 5 5 5 5 5 5 5 5 5 5 6 5 5 5 5 5 5 5 6 5 5 5 5 6 5 6 5 5 5 5 5 5 5 5 5 5 6 5 5 5 5 6 5 5 5 5 5 5 6 5 5 6 5 5 5 6 5 5 5 5 6 5 5 5 6 5 5 5 5 5 5 5 5 5 6 6 5 5 5 5 5 5 5 6 5 5 5 5 5 6 5 5 6 5 5 5 5 5 5 5 5 6 5 5 5 5 5 6 5 5 5 5 5 5 5 5 5 5 5 5 5 5 5 5 5 5 5 5 5 6 5 5 5 5 5 5 5 6 5 5 5 5 5 5 5 6 5 6 6 5 5 5 5 5 5 5 5 5 5 5 5 5 5 5 5 5 5 5 5 5 5 5 5 5 5 5 5 5 6 5 5 5 5 5 5 5 5 5 5 5 5 5 5 5 5 5 5 5 5 5 5 5 5 6 5 5 5 5 6 5 5 5 5 5 5 5 5 5 5 5 5 5 5 5 5 5 5 5 5 5 5 5 5 5 5 5 5 5 5 5 5 5 5 5 5 5 5 6 5 5 5 5 5 5 5 5 5 6 5 6 6 5 5 5 5 5 6 5 5 5 6 5 5 5 5 5 5 5 5 5 5 5 5 5 5 5 5 5 5 5 5 5 5 5 5 5 5 5 5 5 5 5 5 5 5 5 5 5 5 5 5 5 5 5 5 6 5 5 5 5 5 5 5 5 5 5 5 5 5 5 5 5 5 5 5 6 5 5 6 5 6 5 5 5 5 5 5 5 6 5 5 5 5 5 5 5 5 5 6 5 5 5 5 5 5 5 5 5 5 5 5 6 5 5 5 5 5 5 5 5 5 5 5 5 5 5 5 5 5 5 6 5 5 5 5 5 6 6 5 5 5 6 5 5 5 5 5 6 5 6 5 5 5 5 5 6 6 5 6 5 5 5 5 5 5 5 5 5 5 5 5 5 5 6 5 5 5 5 5 5 5 5 5 5 5 5 5 5 5 5 5 5 5 5 5 6 5 5 5 5 5 6 5 5 5 5 5 5 6 5 6 6 5 5 5 5 5 5 5 5 5 5 5 5 5 5 5 5 5 5 5 5 5 5 5 5 6 5 5 5 5 5 5 5 5 6 5 5 5 5 5 5 5 5 5 6 5 5 5 5 5 5 5 5 6 5 5 6 5 5 5 5 6 6 5 5 6 6 5 5 5 5 5 6 5 5 5 5 5 6 5 5 5 5 5 5 5 5 6 5 5 5 5 5 5 5 5 5 5 6 6 5 5 5 5 5 5 6 5 5 5 5 5 5 5 5 5 5 6 5 5 5 5 5 5 5 5 5 5 5 5 6 5 5 5 5 5 5 5 5 5 5 5 5 5 5 5 5 5 5 5 5 5 5 5 5 6 5 5 5 5 5 5 5 5 5 5 5 5 5 5 6 5 5 5 5 5 5 5 5 5 5 5 5 5 5 5 5 5 5 5 5 5 5 5 5 5 5 5 5 5 5 5 5 5 5 5 5 5 5 5 6 5 5 5 5 5 5 5 5 5 5 5 5 5 5 5 5 6 5 5 6 5 5 5 5 5 6 5 5 5 5 5 5 5 5 5 5 5 5 5 5 5 5 5 5 5 5 5 5 5 5 5 6 5 5 5 6 5 5 5 5 5 6 5 5 5 5 5 5 5 5 5 5 5 5 5 5 5 5 5 5 5 5 5 5 5 5 5 5 5 5 5 5 5 5 5 5 5 5 5 5 5 5 5 5 5 5 5 5 5 5 5 6 5 6 5 5 5 5 5 5 5 5 5 5 5 5 5 5 5 5 5 6 5 5 5 5 5 5 5 5 5 6 5 5 5 5 5 5 5 5 6 5 5 5 5 5 5 5 5 5 5 5 5 5 5 5 5 5 5 5 5 5 5 5 5 5 5 5 6 6 5 5 5 6 5 5 6 5 5 6 5 5 5 5 6 5 5 6 5 6 5 5 5 5 5 5 5 5 5 5 5 5 5 5 5 5 5 5 6 5 5 5 5 5 5 5 5 5 5 5 5 5 5 5 5 5 5 5 5 5 5 5 5 5 5 6 5 5 5 5 5 5 6 5 5 5 5 5 6 6 5 5 5 5 6 6 5 5 6 5 5 6 5 5 6 5 5 5 5 6 5 5 5 5 5 5 5 5 5 5 5 6 5 5 5 6 5 5 6 5 5 5 6 5 5 6 6 6 5 5 5 5 5 5 5 5 5 5 5 5 6 5 5 5 5 5 5 5 5 5 5 5 5 5 5 5 5 5 5 5 6 5 5 5 6 5 5 5 5 6 5 5 5 5 5 5 5 6 5 5 5 5 6 5 5 5 5 5 5 5 5 5 5 5 5 5 5 5 5 6 5 6 5 6 5 5 6 5 5 6 5 5 5 5 5 6 5 6 5 5 6 5 5 5 5 5 5 5 5 5 5 5 5 5 5 5 5 5 5 5 5 5 5 5 5 5 5 5 6 5 5 5 5 6 5 5 5 5 5 5 5 6 5 5 6 6 5 5 5 6 5 5 6 5 6 6 6 5 5 6 6 5 5 5 6 5 5 6 5 5 5 6 5 5 6 5 5 5 6 5 5 5 5 5 5 5 6 5 6 5 5 5 5 5 6 5 6 5 5 5 5 5 5 5 5 5 5 5 6 5 5 6 5 5 5 5 6 5 6 5 5 5 5 5 5 5 5 6 6 5 5 5 5 5 5 5 5 5 5 5 5 5 5 5 5 5 5 5 5 5 5 6 5 5 5 6 5 5 5 5 5 5 5 5 5 5 5 6 5 5 5 5 5 5 5 6 5 5 6 5 5 5 5 5 5 6 5 5 5 5 5 5 5 5 5 5 5 5 5 5 6 5 5 5 5 5 5 5 5 5 5 5 5 5 5 5 5 5 5 6 5 5 6 5 5 5 5 5 5 5 5 5 5 5 6 5 5 6 5 6 5 5 6 5 5 5 6 6 5 6 5 5 5 5 6 5 5 5 5 5 5 5 5 5 6 5 5 5 5 5 5 5 5 5 5 5 5 5 6 5 5 5 5 5 5 5 5 5 5 5 5 5 6 5 5 5 5 5 5 5 6 5 5 5 5 5 6 5 5 5 5 5 5 5 5 5 5 5 5 5 5 5 5 5 5 5 6 6 5 5 5 5 5 5 6 5 5 5 5 6 5 5 5 5 6 5 5 5 5 6 5 6 5 5 5 5 5 5 5 5 5 5 5 5 5 5 5 6 5 5 6 6 5 5 5 5 5 5 5 5 5 6 5 5 5 5 6 5 6 6 5 5 5 5 5 5 6 5 5 5 5 6 6 5 6 5 5 6 5 5 5 5 5 5 6 5 5 5 5 6 5 5 5 5 5 6 5 5 5 5 5 5 6 5 5 5 5 6 5 5 5 5 5 5 5 5 5 5 5 5 5 5 5 6 5 5 5 5 5 5 5 5 5 5 5 5 6 5 5 5 5 5 5 5 5 5 5 6 5 5 5 5 5 5 5 5 5 5 5 5 5 5 5 5 5 5 5 5 5 5 5 5 5 5 5 5 6 5 5 5 5 6 5 5 5 5 5 5 5 5 5 5 5 5 5 5 5 5 6 5 5 5 5 5 5 5 5 5 6 5 5 5 5 5 5 6 5 5 6 5 5 5 5 5 5 5 5 5 5 5 6 5 5 5 6 5 5 5 5 5 5 5 5 5 5 5 5 5 5 6 5 5 6 5 6 5 5 5 6 5 5 5 5 5 6 5 5 5 5 5 5 5 5 5 5 5 5 5 5 5 5 5 5 5 5 5 5 5 5 5 5 5 5 5 5 5 5 5 5 5 5 5 5 6 5 5 6 5 5 5 5 5 5 5 5 5 5 5 5 5 5 5 5 5 5 6 5 5 5 5 5 5 6 5 5 5 6 5 5 5 5 5 5 5 5 5 5 5 6 5 5 5 5 5 5 5 5 5 5 6 5 5 5 5 5 5 5 5 6 5 6 5 5 6 5 5 6 6 6 5 5 5 6 5 5 5 5 6 5 5 5 5 5 5 6 6 5 5 5 5 5 5 5 5 5 5 5 5 6 5 5 5 5 5 5 6 5 5 5 5 5 5 5 5 5 6 5 5 5 5 5 5 5 5 5 6 5 5 5 5 6 5 5 5 5 5 6 5 5 6 5 5 5 5 5 6 5 5 5 5 5 5 5 5 5 5 5 5 5 5 6 5 5 5 5 5 6 6 5 5 5 6 5 5 5 5 6 5 5 6 5 5 5 5 5 5 5 5 5 5 5 5 5 6 5 5 5 5 5 5 5 6 5 5 5 5 5 5 5 5 5 5 5 6 5 5 5 5 5 5 5 5 5 5 5 5 5 5 5 5 5 6 5 5 5 5 5 5 6 5 5 5 6 5 5 5 5 5 6 5 5 5 6 5 5 5 5 5 5 5 6 5 5 6 5 5 5 5 5 5 5 5 5 5 6 6 5 5 5 5 5 5 5 5 5 5 5 5 5 5 5 5 5 6 5 5 5 5 5 5 6 5 5 5 6 5 5 5 6 5 5 5 5 5 5 5 5 5 6 5 5 5 5 5 5 6 5 5 5 5 5 5 5 5 5 5 5 5 5 5 5 5 6 5 5 6 5 6 5 5 5 5 5 5 5 6 5 6 5 5 5 5 5 5 6 5 5 6 5 5 5 5 5 5 5 5 5 6 5 5 5 5 5 6 5 5 5 5 5 5 6 5 5 5 5 5 5 5 5 6 5 5 5 5 5 5 5 5 5 5 5 5 5 6 5 6 5 5 6 5 5 6 5 5 5 5 5 5 5 5 6 5 5 6 5 5 5 5 5 5 5 5 5 5 5 5 5 5 5 5 5 5 5 5 5 5 5 5 5 5 5 5 5 5 6 5 5 5 5 5 5 5 5 5 5 5 5 5 5 5 5 5 5 5 5 5 5 5 5 5 5 5 5 5 5 5 5 5 5 5 5 5 5 5 5 5 5 5 5 5 5 5 5 5 5 5 5 5 6 5 5 5 5 5 5 5 5 5 5 6 6 5 5 5 5 6 5 5 6 5 6 5 5 5 5 5 5 5 5 6 5 5 5 5 5 5 5 5 5 5 5 5 5 5 5 5 5 5 5 5 5 5 5 5 5 5 5 5 6 5 5 5 5 6 5 5 6 5 5 5 5 5 5 5 5 5 5 5 6 5 6 5 5 5 5 5 5 5 5 5 5 5 5 5 6 6 5 5 5 5 5 6 5 5 5 5 5 6 5 5 6 5 5 6 5 5 6 6 6 6 5 5 6 5 5 5 5 6 5 5 6 5 5 5 6 5 5 5 6 5 5 5 5 5 6 6 5 6 5 5 5 5 5 5 5 5 5 5 5 5 5 5 5 5 5 5 5 5 5 5 6 5 5 5 6 5 5 5 5 5 5 5 5 5 5 5 5 5 5 5 5 5 6 5 5 5 5 5 5 5 5 5 5 5 5 5 5 5 5 6 5 6 5 5 5 5 5 5 5 5 6 6 6 5 5 6 5 5 5 6 5 5 6 5 6 5 5 5 5 5 5 5 5 6 5 5 5 5 5 5 5 6 5 5 5 5 5 5 5 5 6 5 5 5 6 5 5 5 5 5 5 5 5 5 5 5 5 5 6 5 6 5 6 5 5 5 5 5 6 5 5 5 5 5 5 6 6 6 5 5 5 5 5 5 5 5 5 5 5 5 5 5 5 5 5 5 5 5 5 5 5 5 5 5 5 5 5 5 5 5 5 5 5 5 5 5 6 5 5 6 5 5 5 5 5 5 5 5 5 5 5 5 6 5 5 5 6 5 5 5 5 5 5 5 5 5 5 5 5 5 5 5 5 5 5 5 5 5 5 5 6 5 5 5 5 5 5 5 5 5 5 6 5 5 5 5 5 5 5 6 6 5 6 5 5 5 5 5 5 5 5 5 5 5 5 5 5 5 6 5 6 5 5 5 6 5 5 6 5 5 5 5 5 5 5 5 5 5 5 5 5 5 5 5 5 6 5 5 5 5 5 5 5 6 5 5 5 5 5 5 5 5 5 6 5 6 5 5 5 5 5 5 5 5 5 5 5 6 5 6 5 5 5 5 5 5 5 5 5 5 5 5 5 5 5 5 5 5 5 5 5 5 5 5 5 5 5 5 5 5 5 5 5 5 5 5 5 5 5 5 5 5 5 5 5 6 6 5 5 5 6 5 6 5 6 5 6 5 5 5 5 6 6 6 5 6 5 5 5 5 6 5 5 5 5 6 5 5 5 6 5 6 6 6 5 5 6 5 5 5 5 6 5 5 5 5 5 5 5 5 5 5 5 5 5 5 6 5 5 6 5 5 5 5 5 6 5 5 6 5 5 5 5 5 5 5 5 5 5 5 5 5 5 5 5 5 5 5 6 5 5 5 5 5 5 5 5 5 5 5 6 5 5 5 5 5 5 6 5 5 5 5 5 5 5 5 5 5 5 5 5 5 6 5 5 6 5 5 5 5 5 5 5 6 5 6 5 6 5 6 5 6 5 5 6 5 5 5 5 5 5 5 5 5 5 5 5 5 5 5 5 5 5 5 5 6 5 5 6 5 5 5 5 5 5 5 5 5 5 5 5 5 5 5 5 5 5 5 5 5 5 5 5 5 5 5 5 5 6 5 5 6 5 5 5 5 5 5 5 5 5 5 5 5 5 5 5 6 5 5 5 5 5 5 5 5 5 5 5 5 5 5 5 5 6 5 6 6 5 5 5 5 5 6 6 5 5 5 5 6 5 5 5 5 5 5 5 5 5 5 5 5 5 5 5 5 5 5 5 5 5 6 6 5 6 6 5 5 5 6 5 5 6 6 5 5 6 5 5 5 5 5 5 6 6 5 5 6 5 5 5 6 5 5 5 5 6 6 5 5 5 5 5 5 5 5 6 5 5 6 5 6 5 6 5 5 5 5 5 5 6 5 5 5 5 6 5 5 5 5 5 5 5 5 5 5 6 5 5 5 6 5 6 5 6 5 6 5 5 5 6 5 5 5 5 5 5 5 5 5 5 6 5 5 5 5 6 5 5 5 5 5 5 5 5 6 5 5 5 5 5 5 6 5 5 5 5 5 5 6 5 5 6 5 5 5 5 5 5 6 5 5 5 5 5 5 5 5 5 5 5 6 5 5 5 5 6 6 5 5 6 5 5 5 6 5 5 5 6 6 5 6 5 6 5 5 5 5 5 5 5 5 6 5 5 5 5 5 5 5 5 5 5 5 5 5 5 5 5 5 5 6 5 5 5 5 5 5 6 5 5 5 5 6 5 5 5 5 5 5 5 5 5 5 6 5 6 5 5 5 5 5 5 5 5 5 5 5 5 5 6 5 5 5 5 5 5 5 5 5 5 5 5 6 5 6 5 5 5 5 5 6 5 6 5 5 5 6 5 5 5 5 5 5 5 5 5 5 5 5 5 5 5 5 5 5 5 5 5 5 5 5 5 5 5 5 5 5 5 5 5 5 5 5 5 5 5 5 5 5 5 5 5 5 5 5 5 5 5 5 5 5 5 5 5 5 5 5 5 5 5 5 5 5 5 5 5 5 5 5 5 5 5 5 5 5 5 5 5 5 5 5 5 5 5 5 5 5 5 5 5 5 5 5 5 5 5 5 6 5 5 6 5 5 5 5 5 5 5 5 5 5 5 5 5 5 5 5 5 5 5 5 5 5 5 5 5 5 5 5 5 5 5 5 6 5 5 5 5 5 5 5 6 5 5 5 5 5 5 5 5 5 5 5 5 5 5 5 5 5 5 5 5 5 5 5 5 6 5 5 6 5 6 5 6 5 6 5 5 6 5 5 5 5 5 5 5 5 5 5 5 5 6 5 5 5 5 5 5 5 5 5 5 5 5 5 5 5 6 5 5 5 6 5 5 5 5 5 5 6 5 5 5 5 5 5 5 5 5 5 5 6 5 5 5 6 5 5 6 5 5 5 5 5 5 6 5 5 5 5 5 5 5 5 5 5 5 5 6 6 5 5 5 5 5 6 5 5 5 5 5 6 6 5 5 5 6 6 6 5 5 5 5 5 6 5 5 6 5 5 6 5 5 5 6 5 5 6 5 5 6 5 5 5 5 5 5 5 5 5 5 5 5 5 5 5 5 5 5 5 5 5 5 5 5 5 5 5 5 5 5 5 5 5 5 5 5 5 5 5 5 5 5 5 5 5 5 5 5 5 5 5 5 5 5 5 5 5 5 5 5 6 5 5 5 5 5 6 5 5 5 5 5 5 5 5 5 5 5 5 6 5 5 5 5 5 6 5 5 5 6 5 6 5 5 6 5 5 5 5 5 5 5 5 5 5 5 5 5 5 5 5 5 5 5 5 5 5 5 5 6 5 6 5 5 6 5 5 5 5 5 5 5 5 5 5 5 5 5 5 5 6 5 5 5 5 5 5 5 5 5 5 5 5 5 5 5 5 5 5 5 5 5 5 5 5 5 5 6 5 5 6 5 5 5 5 5 5 5 5 5 5 5 5 5 5 5 5 5 6 6 5 5 5 6 5 5 5 5 5 5 5 5 5 6 5 5 5 6 6 5 5 5 6 5 5 6 5 6 5 5 5 5 5 5 5 5 5 5 6 5 5 5 6 5 5 5 5 5 5 5 5 6 5 5 6 6 5 5 5 6 5 5 5 6 5 5 6 5 5 6 5 5 5 5 5 5 6 5 5 5 5 5 5 5 5 5 5 5 5 5 5 5 5 5 5 5 5 5 5 5 5 5 5 5 5 5 5 5 5 5 5 5 5 5 5 5 5 5 5 5 5 5 5 5 5 5 5 5 5 5 5 5 5 5 5 5 5 6 6 5 5 5 5 5 5 5 5 5 5 5 5 5 5 5 5 5 5 5 5 5 5 5 5 5 5 6 5 5 5 5 5 5 5 5 5 6 5 5 5 5 6 5 5 5 5 5 5 5 5 5 5 6 5 5 5 5 5 6 5 6 5 5 5 5 5 5 5 5 5 5 5 5 5 5 5 5 5 5 5 5 5 5 6 5 6 5 5 5 5 5 5 6 5 5 5 5 5 5 5 5 6 5 5 6 5 5 5 5 6 5 5 5 6 5 5 5 5 5 5 5 5 5 5 5 5 6 5 6 5 5 5 5 5 5 5 5 5 5 5 5 6 5 5 5 6 5 5 6 5 6 5 5 5 5 5 5 6 5 5 5 5 5 5 5 5 5 5 5 5 5 5 5 5 5 5 5 6 5 6 5 5 5 5 5 5 6 5 5 5 5 5 5 5 5 5 5 5 5 5 5 5 5 5 5 5 5 5 5 5 5 5 5 5 5 5 5 5 5 5 6 5 5 5 5 5 5 5 5 5 5 6 5 5 5 6 5 5 5 5 6 5 6 5 5 5 5 6 5 5 6 5 5 5 5 5 5 5 5 5 5 5 5 5 5 5 5 5 5 5 5 5 5 5 5 5 5 5 5 6 5 5 5 6 5 5 5 6 5 5 6 5 5 5 5 5 5 5 5 5 6 5 5 5 5 5 6 6 5 5 5 5 5 5 5 5 6 5 5 5 5 5 5 5 5 5 5 5 5 5 5 5 5 5 6 5 5 6 5 5 5 5 5 6 5 5 5 5 5 5 5 5 6 5 5 5 6 6 5 5 6 5 5 5 5 5 5 5 5 6 5 5 5 5 5 5 6 5 5 5 5 5 6 5 5 5 5 5 5 6 6 5 5 6 5 5 6 5 
</DataArray>
<DataArray type="Float64" Name="stress" NumberOfComponents="9" format="ascii">
1.1552517141982033 1.9423151817522921 0 1.9423151817522921 -112.75613933557634 0 0 0 0 -0.1146767683381749 3.6639057213371871 0 3.6639057213371871 -45.921867827531969 0 0 0 0 33.427441882430912 47.11658169252587 0 47.11658169252587 -242.28109191795374 0 0 0 0 -21.157525534264487 253.80466444437116 0 253.80466444437116 -498.13429873118275 0 0 0 0 -9.7538458425151795 29.19562181768697 0 29.19562181768697 -19.023777993985277 0 0 0 0 -27.179547267691152 5.2852527066224866 0 5.2852527066224866 16.714211062495451 0 0 0 0 1.6219645575403181 8.2101611177313316 0 8.2101611177313316 -5.9871679109783145 0 0 0 0 -4.8709427923333379 7.2222216597438091 0 7.2222216597438091 -4.8348552692472708 0 0 0 0 0.0082088900539519487 -0.26692568366282998 0 -0.26692568366282998 -1.9049533251657564 0 0 0 0 4.5927974691350268 -0.2695644576522227 0 -0.2695644576522227 -16.430582239547221 0 0 0 0 -17.576065525283909 -5.0673120201327038 0 -5.0673120201327038 -0.88658914074039785 0 0 0 0 -4.9186398221866483 -4.6990271409249544 0 -4.6990271409249544 -6.5948527679138351 0 0 0 0 -36.586287065254837 17.441994333566527 0 17.441994333566527 -20.648102444218239 0 0 0 0 0.0063566788765047066 -0.0053265771488000269 0 -0.0053265771488000269 -3.5661755192903897 0 0 0 0 0.0026874278979256809 -0.52906118849984285 0 -0.52906118849984285 0.13790156647679197 0 0 0 0 -0.0063306576076448788 0.18400380262558569 0 0.18400380262558569 -3.0404118356775243 0 0 0 0 -11.188542466511194 -9.5641751301864133 0 -9.5641751301864133 -3.8562779383595398 0 0 0 0 24.284391958169891 2.9342106038574229 0 2.9342106038574229 -109.16139631970145 0 0 0 0 13.625457032365265 -60.090975683929173 0 -60.090975683929173 -111.13091626039204 0 0 0 0 -26.051204005733467 -2.1984788519093854 0 -2.1984788519093854 -3.0102293630042709 0 0 0 0 -11.18668058952079 4.6447347758612523 0 4.6447347758612523 -3.3738559765915852 0 0 0 0 -0.045281395347545182 0.16818715365675985 0 0.16818715365675985 -1.5560907864438391 0 0 0 0 -24.651270124216968 -39.397702800724801 0 -39.397702800724801 -460.0484372836072 0 0 0 0 -0.052686596515124778 -0.1987659139568283 0 -0.1987659139568283 -1.4430660913418123 0 0 0 0 -48.836593627404447 -235.32409280698812 0 -235.32409280698812 -498.35232837998228 0 0 0 0 -75.774056420639766 116.62788140871453 0 116.62788140871453 -64.113895573357695 0 0 0 0 52.596666966596132 -28.599149422288974 0 -28.599149422288974 -500.44330643687607 0 0 0 0 51.469560970197278 27.226157348203287 0 27.226157348203287 -219.63685872487531 0 0 0 0 50.017728966993424 116.09166315126686 0 116.09166315126686 -498.77719704024639 0 0 0 0 -5.6491913356260426 -162.1478002579679 0 -162.1478002579679 -320.14954490439413 0 0 0 0 17.484893314995357 -259.04183568120061 0 -259.04183568120061 -497.1354735073412 0 0 0 0 -47.076897397453529 175.47200356143048 0 175.47200356143048 -232.96800170080132 0 0 0 0 -0.22762591789815331 -0.36159889930201139 0 -0.36159889930201139 -3.5141900472577134 0 0 0 0 -237.59653322491909 -249.8443017463967 0 -249.8443017463967 -205.07671289186874 0 0 0 0 -85.879961700323264 -38.523119242896428 0 -38.523119242896428 29.582811979030339 0 0 0 0 -74.787295637247055 -127.11376335033333 0 -127.11376335033333 -192.94028848127164 0 0 0 0 73.631028626560123 8.9531918824259265 0 8.9531918824259265 -75.48447311514974 0 0 0 0 0.10122261890199537 -0.37064895744602755 0 -0.37064895744602755 -7.9125470863795044 0 0 0 0 26.327458061331665 -5.6224768037892545 0 -5.6224768037892545 -16.546701459946235 0 0 0 0 -19.360928816972255 -21.677572711328139 0 -21.677572711328139 8.0852471516755031 0 0 0 0 -33.15681715280828 -39.058325299803982 0 -39.058325299803982 -33.863819989042554 0 0 0 0 -40.57512346489473 14.213028377899718 0 14.213028377899718 -5.325579237567581 0 0 0 0 -10.759919422931484 -17.526691128722632 0 -17.526691128722632 -9.8342862718227479 0 0 0 0 -20.367530903140967 -2.7240482525910465 0 -2.7240482525910465 0.54700072373452713 0 0 0 0 -7.8289855997409621 -6.3023014308246275 0 -6.3023014308246275 -7.2827632161206566 0 0 0 0 -9.4580602008992471 -4.8675507879788711 0 -4.8675507879788711 -0.97984267301035288 0 0 0 0 -5.1002326205454231 -0.017979765215386578 0 -0.017979765215386578 1.0204229823029891 0 0 0 0 -9.4428163877632656 33.304466751348173 0 33.304466751348173 5.4785792674200309 0 0 0 0 48.768428887871949 6.242336206609707 0 6.242336206609707 -26.729217919402799 0 0 0 0 0.079980189040850969 -0.17812312392128993 0 -0.17812312392128993 -9.0980827351104878 0 0 0 0 9.4989020881992978 -9.7008708116777598 0 -9.7008708116777598 -8.1027084461929917 0 0 0 0 -0.60817519139613996 4.2005854136784819 0 4.2005854136784819 1.3479011055696901 0 0 0 0 -40.95365129898488 22.808586847990227 0 22.808586847990227 11.995085570806623 0 0 0 0 -0.053445556611427469 -0.03390740204242837 0 -0.03390740204242837 -0.13644090606977244 0 0 0 0 6.779749214489982 19.336574777708847 0 19.336574777708847 -12.32871815334056 0 0 0 0 2.1903964490016961 -19.120913646172994 0 -19.120913646172994 0.41903531104617286 0 0 0 0 -1.5425329452542782 -1.0166857511803435 0 -1.0166857511803435 -1.5039061778677372 0 0 0 0 -3.3781615699387846 -0.50909710985820311 0 -0.50909710985820311 2.0102937616993586 0 0 0 0 -0.73539834833313167 -0.053726918454664929 0 -0.053726918454664929 -0.4962483239478459 0 0 0 0 15.578262716020262 3.5664827689906815 0 3.5664827689906815 -11.530607111213612 0 0 0 0 -3.6115900230478886 -3.2062439632765063 0 -3.2062439632765063 -5.1020813298346184 0 0 0 0 0.081700521893922351 0.17857271798491881 0 0.17857271798491881 -9.3269021146592905 0 0 0 0 -12.412750205213516 1.5791313930212709 0 1.5791313930212709 -7.2799916707444936 0 0 0 0 3.4708616137968136 0.51251975160539587 0 0.51251975160539587 -20.698853955807863 0 0 0 0 0.99821879886218312 -0.92031352691356005 0 -0.92031352691356005 -4.3015655039698686 0 0 0 0 -1.1030090942901785 -1.0559117442653871 0 -1.0559117442653871 -6.4001549193692497 0 0 0 0 0.24051520208357646 0.55146851166190558 0 0.55146851166190558 -2.2476133261662028 0 0 0 0 8.790491327796758 6.0671402252219195 0 6.0671402252219195 -19.82826549953495 0 0 0 0 0.89302081696479774 1.0773089606235562 0 1.0773089606235562 -2.8858217967087683 0 0 0 0 -0.3920292918883852 -0.25696956298822426 0 -0.25696956298822426 -5.9727000822185161 0 0 0 0 6.3118065840474173 4.5259124194597007 0 4.5259124194597007 -19.298418212492834 0 0 0 0 0.52756155458099752 2.2993891815873617 0 2.2993891815873617 -5.4461462203642697 0 0 0 0 4.6925021419529855 7.8184668153813845 0 7.8184668153813845 -3.7068689206389536 0 0 0 0 -1.2776479662859401 -3.3294557031331351 0 -3.3294557031331351 -18.767628992898608 0 0 0 0 -2.9709023162989014 -1.7551470722000886 0 -1.7551470722000886 -2.8585703658736747 0 0 0 0 -2.7164785575781636 -2.0983455976220284 0 -2.0983455976220284 -5.2538007175744497 0 0 0 0 -2.4435907186151375 4.598467318503026 0 4.598467318503026 -15.975454598069518 0 0 0 0 -8.2808207929323459 -5.8487604280676351 0 -5.8487604280676351 -6.8855209271623607 0 0 0 0 5.8059039751839041 1.5149138328588378 0 1.5149138328588378 -9.426229506193522 0 0 0 0 -22.449961713712952 -2.7281222679307575 0 -2.7281222679307575 1.5625511086527695 0 0 0 0 -0.12526367444816999 0.67692191766903465 0 0.67692191766903465 -4.4154610262814202 0 0 0 0 -14.731685262660044 5.7103981016589387 0 5.7103981016589387 1.3386381110140064 0 0 0 0 6.1771363382350373 3.2106074450512097 0 3.2106074450512097 -10.740632150171223 0 0 0 0 0.033451417975169526 0.098517115330510219 0 0.098517115330510219 -1.5798053682863298 0 0 0 0 6.2172951621978569 -2.9571334958882289 0 -2.9571334958882289 -4.4654136033823306 0 0 0 0 -0.010633113178490704 -0.058749041118812517 0 -0.058749041118812517 0.019542858128360763 0 0 0 0 -0.71282529862085653 0.40040999471511896 0 0.40040999471511896 1.1005152408797585 0 0 0 0 2.8879943108795452 -3.9656389938863867 0 -3.9656389938863867 1.8308643467025831 0 0 0 0 -4.6888031198776901 6.1565947133731243 0 6.1565947133731243 -0.71901165427607339 0 0 0 0 6.5476385127002459 -7.6808100095104237 0 -7.6808100095104237 0.29753925068143872 0 0 0 0 0.22538807126156701 0.21636411818872148 0 0.21636411818872148 -2.0361005045615457 0 0 0 0 -0.0024831080967331956 -0.10114630332699504 0 -0.10114630332699504 -0.92192606611044425 0 0 0 0 6.8341363909128567 -7.4234219737563762 0 -7.4234219737563762 -1.41279192444199 0 0 0 0 0.45218712948748585 -1.5327387676588842 0 -1.5327387676588842 3.255009623549995 0 0 0 0 0.040041049665634869 0.10206128173851381 0 0.10206128173851381 0.036129514641785931 0 0 0 0 9.3755694870988666 -3.8329760369797441 0 -3.8329760369797441 -0.46981112849789497 0 0 0 0 2.1874755058341524 -2.0153968372287636 0 -2.0153968372287636 -0.88565284668402455 0 0 0 0 -0.0050336662217182384 -0.088337765121973888 0 -0.088337765121973888 -0.38270895111679692 0 0 0 0 -7.9075170977266822 -4.4942837805238014 0 -4.4942837805238014 2.2904472284553776 0 0 0 0 -0.064383368157091891 2.1859574887294002 0 2.1859574887294002 -6.4449291986238677 0 0 0 0 7.6623479831293979 -1.6076531996914127 0 -1.6076531996914127 -6.0024450436376355 0 0 0 0 1.4809691705381329 -7.0541888083917001 0 -7.0541888083917001 -3.8730672011843126 0 0 0 0 23.952630946623046 -3.8424413041802836 0 -3.8424413041802836 -5.0153571954651852 0 0 0 0 4.7153482910088265 -0.65875799982677563 0 -0.65875799982677563 4.8556849926017094 0 0 0 0 5.0596846905777824 -7.2520224447584951 0 -7.2520224447584951 3.0683130725246883 0 0 0 0 10.648506982981141 3.672940217949872 0 3.672940217949872 -0.055888384342324571 0 0 0 0 -3.1139865217034615 0.22398604720183357 0 0.22398604720183357 0.735562120553368 0 0 0 0 28.628377337010967 -12.603636392839235 0 -12.603636392839235 -10.661573144465365 0 0 0 0 0.020739921008202537 -0.1357563606252099 0 -0.1357563606252099 -1.5311310924828447 0 0 0 0 -3.749618025877925 -8.7846841106293141 0 -8.7846841106293141 -1.4225683615877642 0 0 0 0 12.778601565264797 -21.732917362500302 0 -21.732917362500302 -2.4904689034228795 0 0 0 0 -20.104659022620822 -8.0617959299379436 0 -8.0617959299379436 3.2120385674425052 0 0 0 0 -4.0978820862749528 1.6519791732553131 0 1.6519791732553131 -0.66354250617041544 0 0 0 0 -0.023789688428336286 -0.048286390391516942 0 -0.048286390391516942 -0.12425538876698283 0 0 0 0 18.215809993319489 11.702824659885664 0 11.702824659885664 -31.841581932023473 0 0 0 0 11.46132574851535 12.64355510624182 0 12.64355510624182 5.3527123660824145 0 0 0 0 9.9344959605539014 1.4534017979003693 0 1.4534017979003693 -44.645070541315363 0 0 0 0 -0.50279393857561416 0.98731796366064373 0 0.98731796366064373 4.5451833235129016 0 0 0 0 -1.5502521007376231 -3.6178777156692377 0 -3.6178777156692377 -13.696078270887483 0 0 0 0 0.035499263750725214 0.061652006844434393 0 0.061652006844434393 -1.8038368493975128 0 0 0 0 2.9638010692152896 -0.72203918951572632 0 -0.72203918951572632 -4.3079999923502328 0 0 0 0 -0.056592718819512507 0.39734177625123657 0 0.39734177625123657 -3.4930209509146124 0 0 0 0 -20.790879732581466 -2.2063215104362826 0 -2.2063215104362826 4.8341151293898292 0 0 0 0 -21.966297730245973 -7.2291906630911171 0 -7.2291906630911171 5.5269734770481591 0 0 0 0 3.2152547490293353 0.062616632339540956 0 0.062616632339540956 -3.6149696307647901 0 0 0 0 -0.099293524406893346 0.55434281151413245 0 0.55434281151413245 -3.8704488055544815 0 0 0 0 -0.017431726014234344 0.054974651031034272 0 0.054974651031034272 -1.7877223731514817 0 0 0 0 0.020725167112911766 0.18765628574493753 0 0.18765628574493753 -0.01005396844318085 0 0 0 0 1.8628942985862667 -0.52077693815226667 0 -0.52077693815226667 -4.9777035214683565 0 0 0 0 -0.22275906252568944 0.30959925773368013 0 0.30959925773368013 2.9482262415003788 0 0 0 0 146.15141919936636 38.559820380398946 0 38.559820380398946 -65.025307960936516 0 0 0 0 -39.179218654634013 -28.328427786142583 0 -28.328427786142583 1.8417267445142897 0 0 0 0 0.56457267732401795 0.41634190119644021 0 0.41634190119644021 -6.2441423566471315 0 0 0 0 56.496142664095899 -5.6817446354905314 0 -5.6817446354905314 -29.578366444840867 0 0 0 0 -0.27864011074937878 -66.302250235001111 0 -66.302250235001111 -69.365217866381499 0 0 0 0 29.063592137242164 -97.0267017302657 0 -97.0267017302657 -199.01201911738417 0 0 0 0 -15.806254948618424 -132.56118001342315 0 -132.56118001342315 -195.26294430049757 0 0 0 0 0.019508429100578317 0.042769771887571473 0 0.042769771887571473 -3.0416794605063266 0 0 0 0 -178.61595717226936 -355.09904166838987 0 -355.09904166838987 -499.00866749809029 0 0 0 0 -128.32024593325775 -50.059114470312352 0 -50.059114470312352 72.738548734993856 0 0 0 0 -103.07464749794005 -89.348426448898863 0 -89.348426448898863 52.030004946283498 0 0 0 0 -75.967576933692101 153.23720370656429 0 153.23720370656429 -498.62767594429806 0 0 0 0 -38.200175035123799 234.82973609098281 0 234.82973609098281 -342.39940809731797 0 0 0 0 56.573584619875263 43.489721740601453 0 43.489721740601453 -408.60472840721559 0 0 0 0 7.2003463802218697 149.46453252886658 0 149.46453252886658 -325.29786854887925 0 0 0 0 -0.27152549996721836 -0.60922060812772383 0 -0.60922060812772383 -2.1661504797906375 0 0 0 0 -87.362843072802292 -40.934222654548648 0 -40.934222654548648 67.815028691896259 0 0 0 0 -50.692461901889274 -83.203866664134694 0 -83.203866664134694 49.622344026775409 0 0 0 0 -24.956808037534792 -16.239544871645194 0 -16.239544871645194 -176.18527271366202 0 0 0 0 -88.653559445252597 3.3824695868156596 0 3.3824695868156596 53.57150544652859 0 0 0 0 154.556686816721 -42.204947840253226 0 -42.204947840253226 -82.687054836896095 0 0 0 0 -0.24527100393392051 -1.4757605390498512 0 -1.4757605390498512 -4.236497886979155 0 0 0 0 99.377112754906619 -138.14279166746769 0 -138.14279166746769 -147.36723798760795 0 0 0 0 26.774566197235202 54.085844751735749 0 54.085844751735749 -4.137286596433114 0 0 0 0 -78.770204880700135 -44.817668386621335 0 -44.817668386621335 -27.871653413185413 0 0 0 0 -68.153093841518825 -52.265044670692077 0 -52.265044670692077 -65.837735111825168 0 0 0 0 -38.134059582055784 -54.508330042341186 0 -54.508330042341186 -76.117080039458415 0 0 0 0 -26.726589614582167 -13.986226479510606 0 -13.986226479510606 -162.91711130881595 0 0 0 0 20.178897409584465 -19.577656849277446 0 -19.577656849277446 -165.18318175639615 0 0 0 0 -20.078577385605286 20.009441741004593 0 20.009441741004593 -54.213885525350179 0 0 0 0 27.446827552537371 -46.312588105407485 0 -46.312588105407485 -32.322446679191671 0 0 0 0 -5.7392721027160007 108.53048688302647 0 108.53048688302647 -89.539790924023691 0 0 0 0 61.69673541949291 27.963261033422896 0 27.963261033422896 -315.62102219951703 0 0 0 0 123.79838328427769 25.996556313647034 0 25.996556313647034 -500.31539438517848 0 0 0 0 68.201594917813637 84.177979269064053 0 84.177979269064053 -362.45662221498606 0 0 0 0 132.45385752424033 -22.814021858393517 0 -22.814021858393517 -341.06629130311376 0 0 0 0 61.774508185590697 30.201493015976155 0 30.201493015976155 -299.08401377624432 0 0 0 0 -35.846749851269408 -178.16826734156712 0 -178.16826734156712 -369.45608242592107 0 0 0 0 13.40517190138425 -49.685302767235953 0 -49.685302767235953 -278.0647628165425 0 0 0 0 139.89030858016883 -48.430262252827106 0 -48.430262252827106 -499.70172477107371 0 0 0 0 12.497017082089023 -59.776088845816957 0 -59.776088845816957 -280.54213683348462 0 0 0 0 0.48923772199983162 -0.12801827419637135 0 -0.12801827419637135 -0.70125900941710029 0 0 0 0 0.53239416644673576 -0.18237842448326091 0 -0.18237842448326091 -1.1035371557635223 0 0 0 0 -54.854547537319796 -185.14973147255296 0 -185.14973147255296 -499.94225704728132 0 0 0 0 -97.740719909802067 -129.37996842184884 0 -129.37996842184884 -211.74106051654599 0 0 0 0 -56.753812225021335 -89.619685251433111 0 -89.619685251433111 -260.89696329604431 0 0 0 0 -76.775374708115976 -46.374830108146853 0 -46.374830108146853 -42.416037702719223 0 0 0 0 -19.482639847224416 -14.199386527517618 0 -14.199386527517618 -74.942724753822404 0 0 0 0 -49.842897648933061 -80.901509078611525 0 -80.901509078611525 -207.68879966910038 0 0 0 0 -76.976114969206307 -82.179151604562321 0 -82.179151604562321 -118.94833842763546 0 0 0 0 -32.547273099140313 -28.266279656553706 0 -28.266279656553706 -97.719474011743159 0 0 0 0 -36.730605756993718 -44.849222015920532 0 -44.849222015920532 -71.329102284164037 0 0 0 0 -47.006819009855313 -1.8730435015631883 0 -1.8730435015631883 -7.0005301811761456 0 0 0 0 -20.545683604884594 17.303308215362449 0 17.303308215362449 -5.1845893605677702 0 0 0 0 -14.812711584538821 7.6975797619066952 0 7.6975797619066952 -24.67534443752993 0 0 0 0 -23.588163110378325 -2.551012637301028 0 -2.551012637301028 9.7526629244493961 0 0 0 0 -5.240312610950582 9.2357091499379749 0 9.2357091499379749 -30.567822932310719 0 0 0 0 -1.43852299607987 -1.1765519695843345 0 -1.1765519695843345 -0.76187280406426439 0 0 0 0 41.317937699174792 -2.0809207708609847 0 -2.0809207708609847 -29.433115583575272 0 0 0 0 19.951892974711768 -35.6205836260051 0 -35.6205836260051 17.547140580073574 0 0 0 0 -7.9368339583461562 -12.854374071266648 0 -12.854374071266648 10.727367901492471 0 0 0 0 -0.28600457362518483 5.6744335255871192 0 5.6744335255871192 -3.2337754301661334 0 0 0 0 19.095643691146847 -5.5381448620851188 0 -5.5381448620851188 -30.644139031159284 0 0 0 0 0.62324818250845171 0.26161134428865473 0 0.26161134428865473 0.2796972031849041 0 0 0 0 -0.66644230392279091 20.214136777946088 0 20.214136777946088 -34.670377842150629 0 0 0 0 -1.6799012420974009 -6.0486408667811702 0 -6.0486408667811702 -1.0707834814902526 0 0 0 0 19.644808722463864 -6.1544052730578187 0 -6.1544052730578187 2.6661592612836102 0 0 0 0 1.0589580873067348 5.9092987017297673 0 5.9092987017297673 -4.9236592555416792 0 0 0 0 -11.686834946876786 4.0967441501798021 0 4.0967441501798021 5.4919987177090661 0 0 0 0 10.325897050682261 39.000679781348708 0 39.000679781348708 -53.971042111192219 0 0 0 0 0.235118980294167 0.16031437555006534 0 0.16031437555006534 0.036990417750560667 0 0 0 0 7.2882983871633478 3.6932660075126478 0 3.6932660075126478 -2.194084599166672 0 0 0 0 24.073084861747105 16.182220741784135 0 16.182220741784135 6.4795999124617083 0 0 0 0 5.8640476134230681 -10.481553704265025 0 -10.481553704265025 11.992087946209722 0 0 0 0 -71.74764462945376 -126.5581957103939 0 -126.5581957103939 -52.954626207570982 0 0 0 0 -74.449614319685267 48.810650973932752 0 48.810650973932752 1.1547745272227985 0 0 0 0 48.959423527813307 72.803121788831959 0 72.803121788831959 -80.676924227118434 0 0 0 0 -18.147152956151999 -103.09829322334872 0 -103.09829322334872 19.003340346897858 0 0 0 0 79.483700737377546 36.182786145805039 0 36.182786145805039 -156.29879868003445 0 0 0 0 -0.18358844672119526 -0.74982781881108984 0 -0.74982781881108984 -2.128565712316373 0 0 0 0 5.4807448879118326 -52.241732633958236 0 -52.241732633958236 -146.84471871563983 0 0 0 0 24.435358155886444 5.5393167177990108 0 5.5393167177990108 17.032714048069465 0 0 0 0 -51.848274750773996 -74.147953578102715 0 -74.147953578102715 23.530499530226393 0 0 0 0 -8.3724986343601469 -47.63112402624229 0 -47.63112402624229 -80.730499757410144 0 0 0 0 -0.7296636737237171 -0.49769541179073684 0 -0.49769541179073684 -0.27793202808457806 0 0 0 0 -77.226534678569521 -117.30138173535352 0 -117.30138173535352 28.048926102615951 0 0 0 0 24.236494208896232 74.2995647592561 0 74.2995647592561 0.91265519986154686 0 0 0 0 48.830647054940997 72.795413828429446 0 72.795413828429446 -43.110369696330963 0 0 0 0 -118.85065155606678 -118.7858983603071 0 -118.7858983603071 -75.733762780779216 0 0 0 0 4.4569276943345528 50.114276044702365 0 50.114276044702365 -7.0288952569881076 0 0 0 0 -0.042873635620279238 0.17199880488070018 0 0.17199880488070018 -2.1707090479736166 0 0 0 0 39.102270886668123 3.0860146364111642 0 3.0860146364111642 5.6145807450398024 0 0 0 0 56.051828002649671 0.19843122918382505 0 0.19843122918382505 -47.744456594669828 0 0 0 0 81.718642238470352 22.881499628998426 0 22.881499628998426 -80.878740612014099 0 0 0 0 0.18253336218036906 -0.1150975094353095 0 -0.1150975094353095 0.53090521607809293 0 0 0 0 -74.982804702815272 -45.298781398449364 0 -45.298781398449364 0.36974736847878376 0 0 0 0 106.15873401292944 -19.170405043332721 0 -19.170405043332721 -24.16127997465901 0 0 0 0 12.29099198947722 -52.08922518570489 0 -52.08922518570489 -58.204648873052065 0 0 0 0 29.577409195514576 -6.5046662478748658 0 -6.5046662478748658 -19.34077881155099 0 0 0 0 -19.324330763192336 -1.1726595538084439 0 -1.1726595538084439 -11.35672957233237 0 0 0 0 6.1848668265666333 -26.361678230450707 0 -26.361678230450707 -11.282794877046399 0 0 0 0 70.020723936349768 12.695239875225525 0 12.695239875225525 -34.979171065666378 0 0 0 0 0.010721807979854392 0.90066285170006877 0 0.90066285170006877 -5.7384930184365857 0 0 0 0 19.130112294571518 12.096671107049588 0 12.096671107049588 -0.6021701185911752 0 0 0 0 -17.460249425685404 11.693119959474643 0 11.693119959474643 -3.4714456002539009 0 0 0 0 -0.16707606442194844 6.6026195354147603 0 6.6026195354147603 -2.0709907803807255 0 0 0 0 -1.5776937981740637 -0.64698480205772491 0 -0.64698480205772491 -2.800430665875588 0 0 0 0 -0.49398704565232054 0.74830672125025632 0 0.74830672125025632 -8.5911272620992278 0 0 0 0 -3.7442720053962102 2.3354726295084163 0 2.3354726295084163 -4.7547484717761108 0 0 0 0 -3.7458342797063846 2.4185376394691644 0 2.4185376394691644 -7.9948904496322939 0 0 0 0 45.460613573674038 -47.413352111858444 0 -47.413352111858444 -223.36175061630456 0 0 0 0 -156.03517800824406 -152.80670994422076 0 -152.80670994422076 -93.943788649332873 0 0 0 0 -51.200322458856206 -67.85124163424075 0 -67.85124163424075 -55.357590636042914 0 0 0 0 9.1367030214880103 -24.471925199038083 0 -24.471925199038083 -83.606963502363215 0 0 0 0 -55.744800273274095 -64.950888872988344 0 -64.950888872988344 -36.281527071625078 0 0 0 0 0.62259056985280026 0.4119713820846389 0 0.4119713820846389 -5.6833428552006424 0 0 0 0 -10.850735948312433 -36.229286388716673 0 -36.229286388716673 -89.075378814643955 0 0 0 0 -22.80682444899378 46.576466052077876 0 46.576466052077876 -119.27642158767503 0 0 0 0 -0.50569282190265619 0.19714777454126331 0 0.19714777454126331 -1.8521944846896332 0 0 0 0 -47.335794484082953 31.405209625385396 0 31.405209625385396 -31.381831241733835 0 0 0 0 11.07036922357895 17.498561632914743 0 17.498561632914743 -216.51768994290615 0 0 0 0 9.3399587752664956 21.020854886252437 0 21.020854886252437 -172.98525531265659 0 0 0 0 6.1045133486364307 -26.56497232525976 0 -26.56497232525976 -143.80759427506928 0 0 0 0 -94.448249924376796 63.411573441022483 0 63.411573441022483 -147.77808435546922 0 0 0 0 -44.774024227118616 24.86739766925939 0 24.86739766925939 -122.9734603509205 0 0 0 0 -81.506142583937617 6.572793508000359 0 6.572793508000359 -97.117519170784362 0 0 0 0 -51.911306427795353 36.579684300564622 0 36.579684300564622 -138.12894543033599 0 0 0 0 -54.273846833015796 -41.661060839599713 0 -41.661060839599713 -31.503899463838025 0 0 0 0 -41.720664452310189 -10.436334259879345 0 -10.436334259879345 -125.98627225995551 0 0 0 0 -1.0446290369573967 0.26614629000006484 0 0.26614629000006484 -0.40729220068948013 0 0 0 0 -44.189976179120777 -61.236898478785861 0 -61.236898478785861 -30.671158247409039 0 0 0 0 -9.0289102946962885 -55.760194921265793 0 -55.760194921265793 -66.438572689762623 0 0 0 0 -6.6057430112866768 12.030157146316014 0 12.030157146316014 -11.64777338199201 0 0 0 0 -38.126988865289377 5.1242315844392579 0 5.1242315844392579 5.2596780986996237 0 0 0 0 -5.1631592842637808 -0.77425856433541185 0 -0.77425856433541185 -2.4466781498408636 0 0 0 0 -3.2915389987921007 -1.5878128567737155 0 -1.5878128567737155 -1.5471615120862259 0 0 0 0 -4.9521489673638968 0.94407854176438377 0 0.94407854176438377 -3.0554356717530027 0 0 0 0 -1.1352889411856846 0.55584777383570128 0 0.55584777383570128 -4.1008491706883206 0 0 0 0 -7.0986455388343757 -3.4032228262295803 0 -3.4032228262295803 -2.3555873769691971 0 0 0 0 -4.6438795627434502 -0.90836946976787658 0 -0.90836946976787658 -6.4832885538946812 0 0 0 0 -1.1982693173505279 0.97871639786661735 0 0.97871639786661735 -2.5508957920908877 0 0 0 0 -6.3751556896793318 -1.9229021488017679 0 -1.9229021488017679 -3.542049901925111 0 0 0 0 -9.5477592171862398 -0.8155989731299087 0 -0.8155989731299087 -6.3708504603814617 0 0 0 0 -10.464360861586101 -0.077546008335957595 0 -0.077546008335957595 -0.55857323459895269 0 0 0 0 -9.7215818582662905 -0.019194058661014424 0 -0.019194058661014424 -5.4199046051126061 0 0 0 0 -12.030894696322321 -0.60243278774669307 0 -0.60243278774669307 1.4910739270985687 0 0 0 0 -12.640356821522801 -0.41310059472471039 0 -0.41310059472471039 29.922133694166405 0 0 0 0 -17.147471795705314 -19.139328676545574 0 -19.139328676545574 46.723752899019019 0 0 0 0 -15.438375330481449 -14.538076442120655 0 -14.538076442120655 -0.33353410066229117 0 0 0 0 1.4391837528645004 -0.21122788574004048 0 -0.21122788574004048 -1.0414856965640098 0 0 0 0 -12.298983000763656 -15.555797518400141 0 -15.555797518400141 -4.9093325525791442 0 0 0 0 -3.4454203524137483 -8.0594170218164436 0 -8.0594170218164436 -5.0193466802415969 0 0 0 0 -3.5554727499820502 -5.4046192278632166 0 -5.4046192278632166 -6.2820673668325373 0 0 0 0 -3.243504499815117 -5.7261189220953383 0 -5.7261189220953383 -1.3291970638174462 0 0 0 0 2.1405647381901076 -14.032945806022326 0 -14.032945806022326 -14.685112811009503 0 0 0 0 1.4881444613199619 -10.729300905192758 0 -10.729300905192758 -4.9328429753059027 0 0 0 0 -3.5233419324305988 -3.4329764989787286 0 -3.4329764989787286 -6.457837627320675 0 0 0 0 32.154265404128296 -14.810537860820205 0 -14.810537860820205 0.24505370156293793 0 0 0 0 -0.61446362210238026 -1.5604027530091593 0 -1.5604027530091593 1.2106096325118827 0 0 0 0 -16.401447516002179 -13.181989567075561 0 -13.181989567075561 1.4021254010240227 0 0 0 0 27.142736336356197 -12.583597480226217 0 -12.583597480226217 1.4510526715312153 0 0 0 0 24.440898719081588 -14.159470873732062 0 -14.159470873732062 2.569733249055389 0 0 0 0 1.4262074568814853 1.1697520889985071 0 1.1697520889985071 -3.7988923477287244 0 0 0 0 21.056440608754258 -12.535031670364333 0 -12.535031670364333 3.8712181992777914 0 0 0 0 -2.6852758757291317 -6.8295722662626641 0 -6.8295722662626641 -7.1495383865571682 0 0 0 0 12.593748763174517 4.213190231266708 0 4.213190231266708 -14.063126242331236 0 0 0 0 -2.5241823737478675 -5.0741007365716335 0 -5.0741007365716335 -7.4326394632425554 0 0 0 0 -0.50732011941748378 -1.4745354733960845 0 -1.4745354733960845 -1.5869898588008127 0 0 0 0 -10.861553840823149 -32.567871879428594 0 -32.567871879428594 20.75936737412303 0 0 0 0 18.013775344076265 -22.606007270255759 0 -22.606007270255759 -31.578634220746608 0 0 0 0 12.151115285980154 -8.8926828544454111 0 -8.8926828544454111 -2.1954969177031671 0 0 0 0 40.694748000456002 -50.074848694992397 0 -50.074848694992397 -124.8390714733323 0 0 0 0 -10.375010065793504 19.097289398187968 0 19.097289398187968 25.951581312688404 0 0 0 0 -10.537029915022686 17.216800084059287 0 17.216800084059287 4.240929393406077 0 0 0 0 -0.83670321448896989 -1.297517270794025 0 -1.297517270794025 1.4985414650025639 0 0 0 0 -9.6196079440073845 17.392438979097278 0 17.392438979097278 1.5546410325969191 0 0 0 0 -52.08214397356096 -40.587381181581804 0 -40.587381181581804 -31.049611896655534 0 0 0 0 16.133691083483768 -113.07729134498209 0 -113.07729134498209 82.479065963354515 0 0 0 0 -15.170000617324604 -50.183151668463324 0 -50.183151668463324 -29.642796799596908 0 0 0 0 -79.895872884349956 -18.883402914774706 0 -18.883402914774706 7.0401179850205153 0 0 0 0 -82.751668378427894 12.952538280578665 0 12.952538280578665 -89.030662027482322 0 0 0 0 -32.149857843439349 35.404129159662261 0 35.404129159662261 -94.118330792447523 0 0 0 0 29.644582942088164 42.483522259519304 0 42.483522259519304 -219.9341318087645 0 0 0 0 -63.531521436749244 28.415520225058572 0 28.415520225058572 -95.561987286936528 0 0 0 0 -124.99607979285611 36.510512780001591 0 36.510512780001591 -113.38896491463129 0 0 0 0 -90.64835323841362 -31.508463490325994 0 -31.508463490325994 -218.35975347464409 0 0 0 0 -32.183579560959515 44.935344864104991 0 44.935344864104991 78.38060814065426 0 0 0 0 109.3670667901888 94.672600873205738 0 94.672600873205738 -102.15252117010459 0 0 0 0 23.02051530917015 42.732058776944541 0 42.732058776944541 -125.62486076556434 0 0 0 0 -57.640067493945025 -1.7110288744470381 0 -1.7110288744470381 -9.8136392764754419 0 0 0 0 105.81937385149588 -20.67515302617123 0 -20.67515302617123 -92.698852544070178 0 0 0 0 33.888860316874116 18.683594996367901 0 18.683594996367901 -188.4431601750216 0 0 0 0 32.205005736767816 25.724574655487231 0 25.724574655487231 -101.33241385537121 0 0 0 0 -41.718803904367633 -44.171264913409686 0 -44.171264913409686 -87.377268082380397 0 0 0 0 -26.491568904752569 -27.935848135561969 0 -27.935848135561969 -1.0019552074481908 0 0 0 0 -41.737981987577314 -23.989928453165248 0 -23.989928453165248 35.051803496549837 0 0 0 0 -27.731804806501714 14.839397231075054 0 14.839397231075054 -36.275614704863983 0 0 0 0 -18.666163336461068 14.412723094420471 0 14.412723094420471 -15.346493513887253 0 0 0 0 15.98674991591065 48.83149930942318 0 48.83149930942318 -99.926273095758916 0 0 0 0 1.392310152510845 1.7346015369712404 0 1.7346015369712404 -77.521818004282068 0 0 0 0 -11.264528293455555 43.82656864069304 0 43.82656864069304 8.0296983118623757 0 0 0 0 -2.1025206639768732 -4.2287036907461983 0 -4.2287036907461983 -6.5403036397509311 0 0 0 0 -33.696996552453129 11.925580257251113 0 11.925580257251113 21.967652997631376 0 0 0 0 52.342395926035088 -60.160383889113291 0 -60.160383889113291 -65.60217788704449 0 0 0 0 -0.41794069301430753 -0.34396693473690831 0 -0.34396693473690831 -0.3197254545736925 0 0 0 0 10.06199355230935 30.042939542809108 0 30.042939542809108 -34.243570356269572 0 0 0 0 22.076602960151384 -40.71441866404939 0 -40.71441866404939 -2.7799877403995197 0 0 0 0 19.997226420874135 -37.782765148348517 0 -37.782765148348517 21.096567552074703 0 0 0 0 21.068748292322063 -25.265728507886706 0 -25.265728507886706 14.116403114899185 0 0 0 0 20.164759346471911 -19.623576514271008 0 -19.623576514271008 5.742886516793078 0 0 0 0 20.621097248495779 -13.082770925016348 0 -13.082770925016348 7.8541166382165102 0 0 0 0 18.237141696662732 -18.543714739921597 0 -18.543714739921597 24.503206038014469 0 0 0 0 20.316365754960998 -17.286794716337681 0 -17.286794716337681 7.3656859138891377 0 0 0 0 26.623558098428578 -15.674719824982617 0 -15.674719824982617 0.2208751495963952 0 0 0 0 21.416816766564104 -17.382636114282832 0 -17.382636114282832 1.201365782359062 0 0 0 0 26.631186173677488 -18.587415816375142 0 -18.587415816375142 4.9662050263377751 0 0 0 0 18.112462430150526 -6.3858273300649557 0 -6.3858273300649557 -8.1303997778104531 0 0 0 0 19.883249708750746 -15.680366781902194 0 -15.680366781902194 4.0837079823795648 0 0 0 0 13.981667297187698 -0.97833771213436194 0 -0.97833771213436194 0.86730313868201847 0 0 0 0 24.356413133793229 -16.974771159009379 0 -16.974771159009379 -3.6224264344964467 0 0 0 0 22.776150096663457 -19.256961291288007 0 -19.256961291288007 5.5221707445248285 0 0 0 0 -0.020774045512486017 -0.028896794466351849 0 -0.028896794466351849 -0.057901469241814496 0 0 0 0 22.646951345069009 -21.87119652032419 0 -21.87119652032419 3.9539007047569612 0 0 0 0 13.12046389834137 -21.561489752162743 0 -21.561489752162743 22.027553783333133 0 0 0 0 6.1112295615202967 -9.6136797871406543 0 -9.6136797871406543 1.7611194608707592 0 0 0 0 2.7246349330559099 16.381211335941771 0 16.381211335941771 -47.036256318818232 0 0 0 0 13.900205405207702 -8.7035415889021763 0 -8.7035415889021763 -22.12926132613029 0 0 0 0 1.0781959857198729 6.3621168020499681 0 6.3621168020499681 -14.680048547271326 0 0 0 0 -1.5642368858242435 -2.6659580955001729 0 -2.6659580955001729 -26.431149910835302 0 0 0 0 -0.16323130958834298 -0.1826315426333025 0 -0.1826315426333025 0.16448894211609755 0 0 0 0 9.0480111246391317 -5.0560579213909023 0 -5.0560579213909023 -6.3797752960226717 0 0 0 0 2.6189254757272806 10.96766806314281 0 10.96766806314281 -42.458492281793042 0 0 0 0 6.1236437426044574 -4.97138955688024 0 -4.97138955688024 -5.3296851059994879 0 0 0 0 22.648446101503993 -15.584541866975997 0 -15.584541866975997 -10.892773215891793 0 0 0 0 22.586924616969412 -6.006349576534376 0 -6.006349576534376 -15.175249903389158 0 0 0 0 20.937070686650486 -17.340666315165436 0 -17.340666315165436 -8.2246419981865984 0 0 0 0 21.315765257184978 -20.895579657507369 0 -20.895579657507369 3.6393026463979368 0 0 0 0 20.110564061865588 -30.083865386602156 0 -30.083865386602156 -9.2421285128348245 0 0 0 0 33.533125064803528 -17.122392298665545 0 -17.122392298665545 -21.738469740215805 0 0 0 0 37.965763628988071 -28.226485601159766 0 -28.226485601159766 -11.029946545102575 0 0 0 0 29.773297331265844 -43.771872480439924 0 -43.771872480439924 -38.383159356895703 0 0 0 0 39.417566049976131 -8.6915235728974949 0 -8.6915235728974949 -24.313618089262945 0 0 0 0 31.861215482959295 -7.4829970525192948 0 -7.4829970525192948 -23.992273589321485 0 0 0 0 13.269411629580873 -1.089507643804609 0 -1.089507643804609 -16.679346803703993 0 0 0 0 36.107499595643731 -25.016051152033469 0 -25.016051152033469 6.2418467443848158 0 0 0 0 27.354567939821138 -8.6425496090785145 0 -8.6425496090785145 4.9832957199614611 0 0 0 0 29.743674225497244 -6.5822328962867687 0 -6.5822328962867687 3.8299146764857142 0 0 0 0 19.844414251102876 -13.539898136893953 0 -13.539898136893953 36.558332647478892 0 0 0 0 53.193107129305155 -48.298372780614642 0 -48.298372780614642 33.959868272161657 0 0 0 0 -1.0497203449304056 -2.5895676995974979 0 -2.5895676995974979 -4.3479045907515825 0 0 0 0 48.457088183761918 -13.519747962563997 0 -13.519747962563997 16.943303877944345 0 0 0 0 -49.399883678164059 16.824159673632266 0 16.824159673632266 -104.24111381286548 0 0 0 0 27.027195579893259 -21.82896687172979 0 -21.82896687172979 49.441213846657774 0 0 0 0 29.259004891367965 -59.132863799994084 0 -59.132863799994084 51.809710491088367 0 0 0 0 27.82038660083748 -32.789267362009014 0 -32.789267362009014 6.4419716225656884 0 0 0 0 -40.986998961974507 122.28059692189345 0 122.28059692189345 -192.59221975198125 0 0 0 0 -0.29843100768369213 -0.78602208316903344 0 -0.78602208316903344 -1.4768314660949606 0 0 0 0 74.588026888636506 -92.077717918938106 0 -92.077717918938106 2.8164527814660687 0 0 0 0 13.003721620798387 -42.320562477922067 0 -42.320562477922067 -224.35895977055043 0 0 0 0 78.925011207798804 -50.55949873265331 0 -50.55949873265331 -89.763191494959756 0 0 0 0 -45.268952676899858 -62.848199980691788 0 -62.848199980691788 -174.28224227825558 0 0 0 0 -163.813508152248 21.608949834117084 0 21.608949834117084 -23.641992700271658 0 0 0 0 13.413720592358288 -10.482535488265057 0 -10.482535488265057 -177.40332406355446 0 0 0 0 39.108706572970732 76.736039855209128 0 76.736039855209128 -81.123564873458236 0 0 0 0 16.68764119900942 -7.6019919689533708 0 -7.6019919689533708 -80.683117975297137 0 0 0 0 -8.1715044300482305 7.4633009512726858 0 7.4633009512726858 -88.564106103447557 0 0 0 0 -5.2039731828416507 -16.596920220144057 0 -16.596920220144057 -90.682819342015136 0 0 0 0 30.704224041463945 -27.511190850377716 0 -27.511190850377716 -99.027147839962709 0 0 0 0 6.7961540016781328 -39.430976688263399 0 -39.430976688263399 -102.63330839146511 0 0 0 0 27.342315495530045 -8.4543191107086386 0 -8.4543191107086386 -88.727817762293853 0 0 0 0 15.424408357284733 -21.526907635371572 0 -21.526907635371572 -25.393323733678699 0 0 0 0 74.570206226921684 -22.540346692834646 0 -22.540346692834646 -38.290664514257514 0 0 0 0 37.750575062353903 12.8707356955465 0 12.8707356955465 -62.24551094538765 0 0 0 0 27.243311162360897 112.02288003456033 0 112.02288003456033 -117.11444500869948 0 0 0 0 0.29623507908315738 -1.5486881103665961 0 -1.5486881103665961 -2.7142234150053355 0 0 0 0 0.28293408818753252 -0.26869753244671468 0 -0.26869753244671468 -1.1265799664724661 0 0 0 0 -2.0182044492049727 -68.352203785856545 0 -68.352203785856545 -51.79280535023463 0 0 0 0 -111.54899780880186 98.729303471942785 0 98.729303471942785 -14.567875938408179 0 0 0 0 -88.834299816501755 14.97409401024106 0 14.97409401024106 42.940248866072579 0 0 0 0 19.559607005872635 83.534459516922198 0 83.534459516922198 -40.52193769222913 0 0 0 0 -25.869386812237735 33.054784395567367 0 33.054784395567367 -140.72443682961421 0 0 0 0 -31.446366918590797 38.017613249162196 0 38.017613249162196 -62.859420079172651 0 0 0 0 3.6511935447110204 -1.0178635555446363 0 -1.0178635555446363 -8.2934532287940783 0 0 0 0 -42.868324072698925 37.520803099050454 0 37.520803099050454 -41.234158519227094 0 0 0 0 0.36472684890891882 0.26351994953122748 0 0.26351994953122748 -0.30227866534935632 0 0 0 0 4.9734971755045763 2.549626201680212 0 2.549626201680212 -15.153739719808982 0 0 0 0 1.1264171959255691 5.6409702604660197 0 5.6409702604660197 -21.162218601344193 0 0 0 0 0.99529419440136735 0.4535334771420132 0 0.4535334771420132 0.1387321081374111 0 0 0 0 -4.2935526696833222 1.3521286950513058 0 1.3521286950513058 -1.9205281014546927 0 0 0 0 3.6503169086484277 1.3115094856330387 0 1.3115094856330387 -2.0642797463551688 0 0 0 0 0.78219334160119791 -0.76498138826554296 0 -0.76498138826554296 -2.2441850579218681 0 0 0 0 3.9683864243222615 -5.9240572874909958 0 -5.9240572874909958 -2.770729489419125 0 0 0 0 -46.847172242698662 96.711286672934079 0 96.711286672934079 -48.691757272938958 0 0 0 0 -31.414115759058859 76.292679826944095 0 76.292679826944095 -81.28766260406519 0 0 0 0 -53.334119496330004 44.491857295967748 0 44.491857295967748 -43.351288495077824 0 0 0 0 -5.1231759892417585 14.639009990788509 0 14.639009990788509 -61.640311136041419 0 0 0 0 0.41318561296241141 -0.57946222279250215 0 -0.57946222279250215 -2.0246875736465419 0 0 0 0 5.1349547479451303 16.506663862426649 0 16.506663862426649 -75.629829856447486 0 0 0 0 -44.209251346279302 46.438130767295661 0 46.438130767295661 -49.38768759650884 0 0 0 0 -54.527184421326638 51.166145750384658 0 51.166145750384658 -50.837498490785038 0 0 0 0 -61.343079148471361 50.346413754843979 0 50.346413754843979 -45.385173146919442 0 0 0 0 0.32094095881497031 -0.23642382986579502 0 -0.23642382986579502 -1.1883289209772094 0 0 0 0 -37.122142439083973 98.824903745911342 0 98.824903745911342 -129.28072890478506 0 0 0 0 -35.382318050160848 89.045870050652411 0 89.045870050652411 -160.23742651976681 0 0 0 0 -7.0952591532843599 -44.263062357399122 0 -44.263062357399122 -48.449755043110599 0 0 0 0 51.602324072777265 78.842283852543915 0 78.842283852543915 -241.1448088222387 0 0 0 0 36.715349500568664 -15.194021179215497 0 -15.194021179215497 1.9916994455297754 0 0 0 0 15.397293667213034 134.0504874742619 0 134.0504874742619 -227.62312791382351 0 0 0 0 0.53185590249748049 0.062476978330252564 0 0.062476978330252564 -0.61105335061746402 0 0 0 0 54.491418882186736 111.70159812609199 0 111.70159812609199 -193.9501641482384 0 0 0 0 -11.810451031358753 178.47741628960921 0 178.47741628960921 -222.39582325308766 0 0 0 0 -17.38376211886316 102.3169796534421 0 102.3169796534421 -355.48663846375712 0 0 0 0 -8.5991674666647668 64.405486573916278 0 64.405486573916278 -208.13022772476415 0 0 0 0 17.373507630370568 7.9040005377783018 0 7.9040005377783018 4.108509265279281 0 0 0 0 60.298081691695415 28.401791343381774 0 28.401791343381774 -32.467812734708787 0 0 0 0 9.1393604341062087 4.6830156902422004 0 4.6830156902422004 -1.2981502920529238 0 0 0 0 5.2543003500736631 -3.3979317311623163 0 -3.3979317311623163 6.2496364783696663 0 0 0 0 3.3257882629668529 -6.0811955902386217 0 -6.0811955902386217 3.3377688620157642 0 0 0 0 5.9704779022450793 -1.4146782273145391 0 -1.4146782273145391 -3.3525073076698391 0 0 0 0 0.98176528653937822 -0.1683135864502745 0 -0.1683135864502745 -1.3806193918261584 0 0 0 0 -1.2830120115982027 0.70837819745270281 0 0.70837819745270281 -2.3114199410365472 0 0 0 0 1.9886057312749017 -3.793566899704274 0 -3.793566899704274 -9.5474689628817941 0 0 0 0 5.0065235091495879 3.6935996343502211 0 3.6935996343502211 -17.468892061344377 0 0 0 0 1.4993800142292484 0.51672127108946064 0 0.51672127108946064 0.090546871224172598 0 0 0 0 3.0386991495988696 4.5442441170866914 0 4.5442441170866914 -24.187914191728396 0 0 0 0 0.51551238147203549 -1.379679579706135 0 -1.379679579706135 -4.6128389486984815 0 0 0 0 -0.46978592180903433 6.0180796793706577 0 6.0180796793706577 -0.61049804364574811 0 0 0 0 0.22218757114524124 5.9340780713405366 0 5.9340780713405366 -25.070853503393664 0 0 0 0 -0.043120869926724481 4.6504607710039636 0 4.6504607710039636 -23.208835573447914 0 0 0 0 1.8392755542438239 0.54261390417021182 0 0.54261390417021182 0.12429386214644111 0 0 0 0 -1.2224228046407006 4.3634688331801499 0 4.3634688331801499 4.4889846884416329 0 0 0 0 5.2089612723775645 4.6963177297729999 0 4.6963177297729999 -14.33863435576086 0 0 0 0 22.376685175584043 72.880273184122871 0 72.880273184122871 35.319304341333009 0 0 0 0 4.6260285170600355 11.003600233609063 0 11.003600233609063 5.9384952618192983 0 0 0 0 -2.5219660393232384 1.7895132509235552 0 1.7895132509235552 -1.2091246571469618 0 0 0 0 8.9376510025399512 0.11749687131623432 0 0.11749687131623432 4.7467008638432162 0 0 0 0 4.1606125630196402 5.6879730600076073 0 5.6879730600076073 -0.6556923321264776 0 0 0 0 -2.5352959798428856 7.3673319437893952 0 7.3673319437893952 6.6696236661709918 0 0 0 0 2.5862141434604382 5.5538097945095615 0 5.5538097945095615 7.2755068658843811 0 0 0 0 0.37512612679233825 2.9967282963400521 0 2.9967282963400521 11.805903553974531 0 0 0 0 -14.888713960194536 18.840082614468884 0 18.840082614468884 7.4385908376225416 0 0 0 0 12.544177799205499 48.141407212237027 0 48.141407212237027 -197.73771163024685 0 0 0 0 -0.95969050814385959 0.82260043657166371 0 0.82260043657166371 -0.7119717324214907 0 0 0 0 -34.299683433541475 46.045832029593612 0 46.045832029593612 -22.149036812399572 0 0 0 0 -23.298241238956052 49.420568654687486 0 49.420568654687486 -197.35193364459792 0 0 0 0 42.893667784111813 -77.445147876431292 0 -77.445147876431292 -193.89896369508006 0 0 0 0 29.331944249153366 36.966883905421128 0 36.966883905421128 -209.83605783010512 0 0 0 0 -47.749169505996008 -112.3374005142756 0 -112.3374005142756 -55.992570656179851 0 0 0 0 -28.350987486441277 29.788149258247358 0 29.788149258247358 -27.216639297139409 0 0 0 0 -0.002880758248663141 0.11435665999421918 0 0.11435665999421918 -0.40947753260788033 0 0 0 0 -2.6802173500561643 17.716355192881963 0 17.716355192881963 -56.865720469399093 0 0 0 0 -3.0042860936033549 20.45347231748201 0 20.45347231748201 -31.278286638149439 0 0 0 0 0.081351690171075464 0.20929055587518164 0 0.20929055587518164 -1.0345980545770495 0 0 0 0 12.486599987906004 8.4352811309036042 0 8.4352811309036042 -58.5950912461999 0 0 0 0 -26.376102202083246 -40.758910011763874 0 -40.758910011763874 -98.601510451193462 0 0 0 0 119.33808462180849 31.71527915738443 0 31.71527915738443 -124.85153986542355 0 0 0 0 37.537313613922606 64.366486851040463 0 64.366486851040463 -10.781833264569286 0 0 0 0 13.351063386727674 27.829588745720685 0 27.829588745720685 -65.558859362668045 0 0 0 0 8.2685648829274356 16.858552311832682 0 16.858552311832682 -47.952992858146899 0 0 0 0 5.3904291160894502 0.22222351605796575 0 0.22222351605796575 -38.292991726749733 0 0 0 0 5.1876062155733962 9.3393736045854894 0 9.3393736045854894 -9.6245303028428566 0 0 0 0 -29.630520830235653 15.12064638276388 0 15.12064638276388 -40.303018144037196 0 0 0 0 0.0044189098602128579 4.3551216333148659 0 4.3551216333148659 -26.037397828347821 0 0 0 0 -10.203310342584432 43.780877387871442 0 43.780877387871442 -63.791391658751309 0 0 0 0 -28.412358122014087 43.543207125388108 0 43.543207125388108 -29.860031222691759 0 0 0 0 -9.9031165735719462 49.379257753804268 0 49.379257753804268 -40.450729313995907 0 0 0 0 -0.013218895052518505 0.11606189698326519 0 0.11606189698326519 -0.45121929670403205 0 0 0 0 -23.051826808341854 10.413413911795942 0 10.413413911795942 31.918023400825405 0 0 0 0 -22.401168067878722 16.482055680362237 0 16.482055680362237 -52.755560690955463 0 0 0 0 -7.5875847739077775 -7.8129729511865662 0 -7.8129729511865662 -13.274319921429196 0 0 0 0 -6.9123641306645247 -0.0046677089721924858 0 -0.0046677089721924858 8.9544356653459545 0 0 0 0 -0.010523463865782446 -0.034340560169396017 0 -0.034340560169396017 -0.28162170091725613 0 0 0 0 -2.9532424930873229 1.5163466297351533 0 1.5163466297351533 3.0239044611953432 0 0 0 0 0.085821524486746598 -0.20218257064516365 0 -0.20218257064516365 0.5227783413574798 0 0 0 0 -0.8520755526911894 -2.6916523193985995 0 -2.6916523193985995 -11.137204458238557 0 0 0 0 41.289661211790886 -15.848094462363406 0 -15.848094462363406 -26.589143016751223 0 0 0 0 0.030820375836336268 0.062536600841431866 0 0.062536600841431866 -0.91644393990758743 0 0 0 0 0.23246122818119686 -0.12500317442209052 0 -0.12500317442209052 -1.4140749612270156 0 0 0 0 -0.83797814824496153 0.81877702968722588 0 0.81877702968722588 2.1766802889578685 0 0 0 0 0.0004363774542993129 -0.0034005700548327411 0 -0.0034005700548327411 0.024794089372576877 0 0 0 0 10.59356018381132 -6.9896171433688323 0 -6.9896171433688323 -2.3998005053799716 0 0 0 0 0.028942098512288558 -0.048524704619070214 0 -0.048524704619070214 -0.74459318283744835 0 0 0 0 12.461674345055442 -4.7941709762167193 0 -4.7941709762167193 -2.8062074540321191 0 0 0 0 0.33424807438075455 0.18667875425308011 0 0.18667875425308011 -2.2811511163363321 0 0 0 0 2.1296963796598298 3.4076804202277344 0 3.4076804202277344 -6.028125730337706 0 0 0 0 0.018438967633952974 0.066947575189220565 0 0.066947575189220565 -1.072682639516799 0 0 0 0 -9.4959060601640459 5.7531106998912946 0 5.7531106998912946 -3.1693842485001369 0 0 0 0 -5.4859935962135751 0.59243619656353985 0 0.59243619656353985 -2.4461315442349587 0 0 0 0 -7.8936757017792303 7.2578072054070617 0 7.2578072054070617 -8.1175660053031606 0 0 0 0 -10.365533941197242 3.7635918031410256 0 3.7635918031410256 -4.7612164046477119 0 0 0 0 -7.9646427088334733 5.9090000796602453 0 5.9090000796602453 -4.4662074035259138 0 0 0 0 -0.1622257546774252 1.0867544847237802 0 1.0867544847237802 -5.0074851937070832 0 0 0 0 -6.3742859759708068 1.6753298680353055 0 1.6753298680353055 -7.3772961819995544 0 0 0 0 -1.8269876906142795 1.6796884425434655 0 1.6796884425434655 -3.8219081542065396 0 0 0 0 1.3142440745070676 4.6878046693727811 0 4.6878046693727811 -8.0694525080325548 0 0 0 0 -3.5686627742597352 0.35206008556087909 0 0.35206008556087909 -21.373227463509465 0 0 0 0 -9.6465141288172447 18.863111725511772 0 18.863111725511772 -26.028570509319252 0 0 0 0 -3.2672244644472244 25.684240925425001 0 25.684240925425001 -21.098563702231331 0 0 0 0 -1.4412505360809706 0.98252767923411355 0 0.98252767923411355 0.79382300127756977 0 0 0 0 0.73127760277498055 -4.8537625039707564 0 -4.8537625039707564 -12.162385506222563 0 0 0 0 3.3712852606583326 -4.1578557982757047 0 -4.1578557982757047 -17.109356366592692 0 0 0 0 2.7893419494154159 -0.1164770687919372 0 -0.1164770687919372 -24.787192222902377 0 0 0 0 2.9640484003673464 1.2891347972290532 0 1.2891347972290532 -13.016355818301236 0 0 0 0 0.16591553663005243 -1.4824691241938126 0 -1.4824691241938126 -15.139938711881769 0 0 0 0 4.4101303748537362 -4.3589752047710135 0 -4.3589752047710135 -19.89147263738414 0 0 0 0 -3.8011084979452789 11.905443794492385 0 11.905443794492385 -25.847912031564192 0 0 0 0 -12.029008668375972 -2.6208531464299085 0 -2.6208531464299085 -6.7195230616762274 0 0 0 0 -3.8294963724060165 0.45344243278053398 0 0.45344243278053398 -2.1355623758654652 0 0 0 0 8.3057969110946885 -3.3509871931346424 0 -3.3509871931346424 -20.625514635321451 0 0 0 0 9.3033446942930595 -1.526196091695283 0 -1.526196091695283 -18.491281136204634 0 0 0 0 0.52396315316991626 1.1353066445168984 0 1.1353066445168984 -14.365059186096303 0 0 0 0 7.4250465878271825 -1.3362201432373695 0 -1.3362201432373695 -17.793446319356008 0 0 0 0 7.7688917893651706 3.1435110694474133 0 3.1435110694474133 -22.479187485234434 0 0 0 0 0.9580659139965042 -2.8357108680353855 0 -2.8357108680353855 -0.90384303106952046 0 0 0 0 3.2829275042647055 7.4029804911333486 0 7.4029804911333486 -27.560343237508278 0 0 0 0 2.7807663630683237 2.4401019845918199 0 2.4401019845918199 -21.160131097320118 0 0 0 0 1.5839577538863208 0.24762982691961888 0 0.24762982691961888 -16.124525357356099 0 0 0 0 7.1913278296203771 -3.8862334441691928 0 -3.8862334441691928 -20.580821434472455 0 0 0 0 -1.142699830648894 -0.91314298740508093 0 -0.91314298740508093 -18.426731201435359 0 0 0 0 -0.57772799956532483 0.52872425447016624 0 0.52872425447016624 -4.4273626905383754 0 0 0 0 -8.0563932885738723 7.7557647116918815 0 7.7557647116918815 -21.536454938516727 0 0 0 0 -0.77295387938164595 -0.0013255573790047492 0 -0.0013255573790047492 -10.657790966433822 0 0 0 0 1.6537054445186357 3.2640410845303904 0 3.2640410845303904 -11.184123244924194 0 0 0 0 0.098648907794995466 -2.2562153105418474 0 -2.2562153105418474 -7.3167874500722974 0 0 0 0 0.36888327004272942 -2.2218455504213761 0 -2.2218455504213761 -19.305585810783331 0 0 0 0 13.023364650332894 -26.69885343606984 0 -26.69885343606984 -12.019687574826094 0 0 0 0 -45.205104961736879 -33.848069183131884 0 -33.848069183131884 1.8574456788373936 0 0 0 0 -43.445426358205623 19.499121532482604 0 19.499121532482604 -18.859633168925939 0 0 0 0 -10.889265396987639 -2.9577387060589899 0 -2.9577387060589899 -4.0602491573736188 0 0 0 0 -2.2959892355813594 13.606000351025841 0 13.606000351025841 -27.347034464248281 0 0 0 0 4.7583005258713911 -11.291161421091601 0 -11.291161421091601 -16.728941666113769 0 0 0 0 12.233119745600163 -2.5821186636003404 0 -2.5821186636003404 -12.519261537700686 0 0 0 0 0.82265289028268929 -0.01728666732205042 0 -0.01728666732205042 0.15879635961145411 0 0 0 0 -87.993825036351154 -82.73715823647035 0 -82.73715823647035 -30.086363539800004 0 0 0 0 -54.232771285416334 22.75588943384173 0 22.75588943384173 -15.386536220637026 0 0 0 0 -0.3403100945298686 0.83852365408453666 0 0.83852365408453666 -0.49735304640680056 0 0 0 0 -0.47407235157970717 45.987212408046616 0 45.987212408046616 -19.371856749879953 0 0 0 0 29.342390214471834 13.031809718990189 0 13.031809718990189 -28.682313585248721 0 0 0 0 12.08190383759694 1.8806848750846257 0 1.8806848750846257 -32.599097368279672 0 0 0 0 5.5990213311325761 -3.1929591490170424 0 -3.1929591490170424 -17.015811036909327 0 0 0 0 2.4175367855495487 1.2874026350918051 0 1.2874026350918051 -4.7933319253219722 0 0 0 0 2.9717428644795518 -6.9089452310727211 0 -6.9089452310727211 -20.292520340492501 0 0 0 0 -1.1939060265366663 7.8305354264657581 0 7.8305354264657581 -25.002740234185694 0 0 0 0 2.789338908573086 1.2692169989022659 0 1.2692169989022659 -36.384216672749972 0 0 0 0 10.697693032126381 3.3044470058157458 0 3.3044470058157458 -35.882260137076628 0 0 0 0 7.0406346207400361 12.585360399792989 0 12.585360399792989 -51.691004480372612 0 0 0 0 16.72135790805936 -8.1202901846590976 0 -8.1202901846590976 -24.555417305798073 0 0 0 0 -0.15539561700985094 -3.2281415666404678 0 -3.2281415666404678 -19.656111709236924 0 0 0 0 -0.36230962085430107 -2.0185250141399504 0 -2.0185250141399504 -9.4067562588468903 0 0 0 0 -0.33172791549031322 -3.1893112100223711 0 -3.1893112100223711 -11.513447128537376 0 0 0 0 8.3764894780989891 -10.049369035064956 0 -10.049369035064956 -17.318340112173246 0 0 0 0 20.652299495481287 -16.026462513396837 0 -16.026462513396837 -19.412067418777269 0 0 0 0 15.817029966065206 -15.17952653652128 0 -15.17952653652128 2.8081219919567957 0 0 0 0 15.876423815641118 -11.731393477957639 0 -11.731393477957639 -28.627591596765342 0 0 0 0 -4.3341190633771589 -17.147475269378447 0 -17.147475269378447 4.510406989040348 0 0 0 0 -7.6059474590391005 -16.624464731159605 0 -16.624464731159605 -2.9808060865775587 0 0 0 0 -0.011513908868152067 1.0834720670098967 0 1.0834720670098967 -3.114208166612336 0 0 0 0 22.978282085648914 21.622350692329292 0 21.622350692329292 -64.479532261166241 0 0 0 0 -4.269975582976258 -28.369301527513926 0 -28.369301527513926 -25.851983192438638 0 0 0 0 0.20296318661016244 7.835173581673871 0 7.835173581673871 -74.305637278219365 0 0 0 0 2.2715504978237959 -13.109573482035557 0 -13.109573482035557 -1.7999228313251479 0 0 0 0 16.266817870042132 -11.346519244500087 0 -11.346519244500087 -5.1737488451408353 0 0 0 0 7.1026977061673051 -21.246280277454389 0 -21.246280277454389 -11.682760324480114 0 0 0 0 3.0901482362434081 -23.932627456046248 0 -23.932627456046248 0.54725748334976743 0 0 0 0 -5.2606665627852749 -21.29172426965215 0 -21.29172426965215 1.4041834979452688 0 0 0 0 0.81444602369617769 -27.991640948015629 0 -27.991640948015629 4.9506712712650369 0 0 0 0 9.8614761278709011 -27.949198731537763 0 -27.949198731537763 -0.78064034830276796 0 0 0 0 2.9176590268091331 -24.639584965403628 0 -24.639584965403628 -1.9676612269067846 0 0 0 0 37.524411901262326 -46.546468144912978 0 -46.546468144912978 -3.8544266632216022 0 0 0 0 9.5739313972150057 -26.73382745545041 0 -26.73382745545041 20.292596546327331 0 0 0 0 71.159721542602597 -32.787920187307463 0 -32.787920187307463 -128.10517449150757 0 0 0 0 3.3693993433776086 57.945172064486542 0 57.945172064486542 -179.69907084789702 0 0 0 0 26.603188511745088 -2.3029540794905188 0 -2.3029540794905188 -71.982545975941321 0 0 0 0 44.19930808057444 0.96948285572671011 0 0.96948285572671011 -100.56713459813909 0 0 0 0 24.191555671695017 -39.150355075763514 0 -39.150355075763514 -38.296529283263226 0 0 0 0 24.942691314155581 -26.173991108807968 0 -26.173991108807968 -74.720409063211264 0 0 0 0 20.11686959816609 -36.172332642525362 0 -36.172332642525362 -9.880418397986432 0 0 0 0 46.393373368555672 -58.819320935510405 0 -58.819320935510405 -28.906149451853707 0 0 0 0 18.658439845354906 -29.907864259610506 0 -29.907864259610506 -35.684998389788234 0 0 0 0 10.05673650702056 -18.849432405550033 0 -18.849432405550033 -32.808597243616532 0 0 0 0 8.1444024846558705 -34.106773254627569 0 -34.106773254627569 -6.4155801573269855 0 0 0 0 8.953440556297096 2.5974521559273853 0 2.5974521559273853 -50.917600586328717 0 0 0 0 20.897929167520935 -25.021524119500668 0 -25.021524119500668 -46.124900072700257 0 0 0 0 19.492788869746619 -13.464775670357994 0 -13.464775670357994 -77.013703523360164 0 0 0 0 9.7804181214662975 -19.631341571815426 0 -19.631341571815426 -11.09553022707405 0 0 0 0 18.695797074270672 -11.187830266201672 0 -11.187830266201672 -32.40507363704728 0 0 0 0 6.3451320968791833 15.879078932542143 0 15.879078932542143 -35.883036247304062 0 0 0 0 10.419857087381203 -0.32074053833616745 0 -0.32074053833616745 -21.296396462750636 0 0 0 0 12.350965728063052 7.8496419764549046 0 7.8496419764549046 -62.136022251303075 0 0 0 0 99.958034331548575 11.837768097414937 0 11.837768097414937 -76.695790616049635 0 0 0 0 -49.378110812210167 41.907853450695711 0 41.907853450695711 -32.720384408684367 0 0 0 0 -0.8325240348236973 0.62503109426328252 0 0.62503109426328252 0.43003258058703153 0 0 0 0 13.149450491288007 14.704940157633246 0 14.704940157633246 -86.947561441924336 0 0 0 0 -7.1471083199833174 22.079867610194924 0 22.079867610194924 -38.48878559923287 0 0 0 0 35.589781604354869 14.133837126859362 0 14.133837126859362 -106.72447097784607 0 0 0 0 -7.0094072705557906 48.627339633352918 0 48.627339633352918 -86.001719038058582 0 0 0 0 27.23410436331659 -18.825858071952098 0 -18.825858071952098 -13.309381317962107 0 0 0 0 -1.5813667106721141 -2.6291067386755458 0 -2.6291067386755458 -10.511754023331378 0 0 0 0 18.842314053287737 -7.9282204699857175 0 -7.9282204699857175 -4.4941719201974593 0 0 0 0 0.061830574574693431 -1.5104977637662849 0 -1.5104977637662849 -12.90693868056378 0 0 0 0 12.621855415798109 -0.47830004199067844 0 -0.47830004199067844 -16.905891101828729 0 0 0 0 35.352746855831981 -3.7797916910576532 0 -3.7797916910576532 -29.871682770298321 0 0 0 0 -1.7192500433793612 -0.73752844792943506 0 -0.73752844792943506 -15.089189020074627 0 0 0 0 -3.3875184732224284 -0.61367703834821441 0 -0.61367703834821441 -9.6840818524970018 0 0 0 0 0.74553062606575904 -3.1273398512201229 0 -3.1273398512201229 -7.6080708017463081 0 0 0 0 0.71991631016278579 -9.6160054371853221 0 -9.6160054371853221 1.716414841459482 0 0 0 0 15.681469295263369 -24.444590329354469 0 -24.444590329354469 -3.5813113557890119 0 0 0 0 -1.8618007120245892 -0.86058985823001422 0 -0.86058985823001422 -11.410293160279252 0 0 0 0 5.0211878475247502 -7.9011863422188071 0 -7.9011863422188071 2.3759181054683722 0 0 0 0 11.527401379604036 -2.7872301126658385 0 -2.7872301126658385 -10.48259089394378 0 0 0 0 4.9778712734234176 -11.107945570671291 0 -11.107945570671291 -18.693401908989472 0 0 0 0 7.7942052088576999 -6.0931607880700085 0 -6.0931607880700085 -42.812226168121924 0 0 0 0 2.3049148344907309 9.9355702517450482 0 9.9355702517450482 -53.525639784228588 0 0 0 0 -4.5849512472485721 1.4338725428588077 0 1.4338725428588077 -36.089777189974484 0 0 0 0 6.3742598105473434 3.1396881819937335 0 3.1396881819937335 -31.97970877361513 0 0 0 0 15.919670902646764 -4.5692806328784172 0 -4.5692806328784172 -35.208252629836352 0 0 0 0 4.9915278372881238 6.3610249478484775 0 6.3610249478484775 -90.449940322381735 0 0 0 0 -32.869662929034881 2.2669546490851644 0 2.2669546490851644 -37.331389795284849 0 0 0 0 -1.6552281904283674 2.0696623050043854 0 2.0696623050043854 -90.374590687427371 0 0 0 0 -11.455402318968279 -5.1409629788577149 0 -5.1409629788577149 -17.306740278037978 0 0 0 0 -5.2584385093499648 7.8568234664835472 0 7.8568234664835472 -36.402069488318148 0 0 0 0 1.4391944978397841 -8.8827307774090514 0 -8.8827307774090514 -8.7875792577615357 0 0 0 0 0.84133728537633701 -2.3087365416777175 0 -2.3087365416777175 -27.321560929723091 0 0 0 0 1.4012808337880536 -17.203278522925757 0 -17.203278522925757 -12.655603211447215 0 0 0 0 -0.0077876029680124907 -4.6029295430807906 0 -4.6029295430807906 -0.51358570258889813 0 0 0 0 -3.1839100562140779 -10.228511809547854 0 -10.228511809547854 9.8805066153363441 0 0 0 0 8.0882061323783034 -9.4930926549923242 0 -9.4930926549923242 9.9283848569303927 0 0 0 0 -0.015597391417443984 0.28065900544701705 0 0.28065900544701705 -0.9457704592902072 0 0 0 0 -2.737018627288041 -4.3864545773012651 0 -4.3864545773012651 -29.31226116993912 0 0 0 0 -0.6864145573653988 -7.0391645404688461 0 -7.0391645404688461 15.167185720760244 0 0 0 0 -0.30203281005602156 0.5893944204165269 0 0.5893944204165269 -0.98070354986433728 0 0 0 0 4.9833420263896224 42.390909393714537 0 42.390909393714537 -35.048554485925706 0 0 0 0 -2.2912129571843902 3.0566012601842658 0 3.0566012601842658 -12.40843536398279 0 0 0 0 -2.6202900640094526 4.5334154333249899 0 4.5334154333249899 -13.048318408746127 0 0 0 0 4.0610734601989336 -16.611131662064054 0 -16.611131662064054 7.5882136005184293 0 0 0 0 8.8058769455398362 -16.061032864447952 0 -16.061032864447952 7.5034159411516157 0 0 0 0 1.7680643465849388 -1.1599523205689604 0 -1.1599523205689604 -6.4090581776789115 0 0 0 0 -7.7578858544343046 17.030452114639729 0 17.030452114639729 -67.313289669125879 0 0 0 0 -1.5400089197346318 3.0768062289116642 0 3.0768062289116642 -51.055284782333274 0 0 0 0 -2.3189577415280849 2.677049977240884 0 2.677049977240884 0.56324384973031627 0 0 0 0 -3.984081978376949 0.99891377521726099 0 0.99891377521726099 -22.222273497729475 0 0 0 0 3.1392693098248117 2.5081330190078006 0 2.5081330190078006 -31.997799309683614 0 0 0 0 -0.27274549277991211 3.1694244997576639 0 3.1694244997576639 -2.9806700977419851 0 0 0 0 4.3703565479019026 1.0403384301616825 0 1.0403384301616825 -9.4239754927366448 0 0 0 0 0.48838846202948466 0.024652619502298023 0 0.024652619502298023 -2.2720911766614247 0 0 0 0 2.2482000630269532 2.1208139343580115 0 2.1208139343580115 -8.2519252350157331 0 0 0 0 2.6303007862136383 1.9963399478292558 0 1.9963399478292558 -24.28691356948184 0 0 0 0 -0.84513308047476698 0.9710882200870401 0 0.9710882200870401 -23.711026319708253 0 0 0 0 4.0576820953776149 -0.17522767780610593 0 -0.17522767780610593 -10.862763107403225 0 0 0 0 7.4395761536907834 10.61929603988392 0 10.61929603988392 1.1726066740775423 0 0 0 0 0.00081639177734274537 -0.10693189472386067 0 -0.10693189472386067 0.13591333914524739 0 0 0 0 0.77568987040066162 1.2759424437708731 0 1.2759424437708731 -5.258466334125842 0 0 0 0 -3.2110681147004825 -1.6737027079816471 0 -1.6737027079816471 -7.3743515348915025 0 0 0 0 1.9237561835046382 -1.0528068354205971 0 -1.0528068354205971 -8.4321535551789566 0 0 0 0 2.0853187377593798 0.79593679703611997 0 0.79593679703611997 -8.8678509086585109 0 0 0 0 -0.14556086815016378 -0.6508642315927311 0 -0.6508642315927311 -2.5849712903068927 0 0 0 0 -1.4591393622137048 2.0043227404603385 0 2.0043227404603385 -6.6709837446178426 0 0 0 0 2.46968801406303 2.6684994916977303 0 2.6684994916977303 -20.150856983881567 0 0 0 0 -12.958439874156209 13.455248182197465 0 13.455248182197465 -25.896405894814961 0 0 0 0 13.208296246798696 -12.362441597660109 0 -12.362441597660109 -26.246133439348341 0 0 0 0 8.7092624821415505 16.189077220882609 0 16.189077220882609 -64.197431178996339 0 0 0 0 0.0064299779540644758 0.19822583673067129 0 0.19822583673067129 -9.8488520637547481 0 0 0 0 3.8548816565116599 -1.6742226572096115 0 -1.6742226572096115 -17.04649362418877 0 0 0 0 -1.0315057231574416 -2.7112196930947903 0 -2.7112196930947903 3.4339499473753676 0 0 0 0 -0.11196005994028163 0.094953862937888545 0 0.094953862937888545 -0.33175266084765553 0 0 0 0 -2.5270858419740705 16.069727328382214 0 16.069727328382214 -34.96411274289494 0 0 0 0 3.5376866369539108 -3.7684206692379121 0 -3.7684206692379121 -4.9159332762483245 0 0 0 0 -1.4824061956661581 6.3193592520183302 0 6.3193592520183302 -8.9254708422486146 0 0 0 0 0.70269549068968951 -0.53664008066179747 0 -0.53664008066179747 -1.2120431001930889 0 0 0 0 -0.80881952775274857 0.49683299902894973 0 0.49683299902894973 0.33020912463840801 0 0 0 0 -0.069829321686220802 1.1565737716140916 0 1.1565737716140916 -1.4685651292894626 0 0 0 0 0.33406365519860848 -0.064901022457593438 0 -0.064901022457593438 -9.3052954806900132 0 0 0 0 4.9168976717056907 2.1195444704435431 0 2.1195444704435431 -14.328643705759532 0 0 0 0 -3.2861495581222471 0.98440996092449495 0 0.98440996092449495 -6.9687938335318904 0 0 0 0 1.875711816854789 -3.4267897857098433 0 -3.4267897857098433 -7.9118950136853528 0 0 0 0 -0.57899427139918203 5.8635293912639099 0 5.8635293912639099 -12.163143368750752 0 0 0 0 -4.5165245311565769 3.875470081583444 0 3.875470081583444 -15.408492138514703 0 0 0 0 0.62073197633807098 6.9750040477319999 0 6.9750040477319999 -22.039503386616161 0 0 0 0 1.2666911242957952 3.0748484367654214 0 3.0748484367654214 -18.734355304204655 0 0 0 0 5.5756267441866072 -6.4680369778943714 0 -6.4680369778943714 -12.876157177588539 0 0 0 0 1.8483397807374011 -3.1631174651256515 0 -3.1631174651256515 -4.5245866622135509 0 0 0 0 5.5214404438618274 -4.1151915116161035 0 -4.1151915116161035 -10.169004355584548 0 0 0 0 0.20169039129215049 0.2579644936427008 0 0.2579644936427008 -8.3013783779869712 0 0 0 0 -1.7584308989999293 -0.52757370017752692 0 -0.52757370017752692 -8.5850815707435686 0 0 0 0 0.0028872026395019568 -0.75788691818145715 0 -0.75788691818145715 -5.9897960427506689 0 0 0 0 2.2792364019136873 0.0075129077376914211 0 0.0075129077376914211 -8.859622035841312 0 0 0 0 5.505570887939065 -3.2352636470500329 0 -3.2352636470500329 -8.0059532824525377 0 0 0 0 0.17164600005368308 -0.092120558135139419 0 -0.092120558135139419 -1.6629426744657287 0 0 0 0 3.5870462944443551 -4.0921052394778599 0 -4.0921052394778599 -6.5888453527932143 0 0 0 0 0.005148895612224421 0.30880242819557679 0 0.30880242819557679 -11.285038029480347 0 0 0 0 -2.5505185223822249 0.13085506294783045 0 0.13085506294783045 -5.5144436443806626 0 0 0 0 -2.7231037582700375 4.7837762370463679 0 4.7837762370463679 -18.624355905794346 0 0 0 0 2.7110279723136586 -2.2973280275055004 0 -2.2973280275055004 -28.462816587254565 0 0 0 0 -3.2413687624244183 -3.4842800178936386 0 -3.4842800178936386 -15.84167854315092 0 0 0 0 -4.5660575851257583 0.83396428448031656 0 0.83396428448031656 -6.2322715134887403 0 0 0 0 3.3614161027039913 5.3367532026161371 0 5.3367532026161371 -16.994360277927626 0 0 0 0 2.2970950118651672 -0.48022494655651826 0 -0.48022494655651826 -6.1299588937263252 0 0 0 0 0.55913658496905327 0.95518130148047931 0 0.95518130148047931 -6.8552288779010269 0 0 0 0 1.5139807339782152 0.67081951787918115 0 0.67081951787918115 -2.9623305362965766 0 0 0 0 1.3350148110120301 -0.46548286594293131 0 -0.46548286594293131 -5.9681415052509692 0 0 0 0 1.2164412737965904 0.085649808532252791 0 0.085649808532252791 -5.9734523375809658 0 0 0 0 3.1696788767654311 0.98187170932851586 0 0.98187170932851586 -8.0605726490202869 0 0 0 0 0.10332637266055555 0.64020751018948374 0 0.64020751018948374 -3.4327795843609223 0 0 0 0 0.21016939508083998 0.32733657864464549 0 0.32733657864464549 -3.2181959387093499 0 0 0 0 1.7620069979209141 -1.7312796379184263 0 -1.7312796379184263 -2.2149769927286744 0 0 0 0 -2.7145488322181137 -1.7750833668751511 0 -1.7750833668751511 -2.5260570551308774 0 0 0 0 3.9885080729347209 -1.2163825558518511 0 -1.2163825558518511 -6.8924550724659639 0 0 0 0 0.25261634798415888 -0.012159578339209443 0 -0.012159578339209443 -1.7189616918253279 0 0 0 0 -0.78688274449973505 -0.64641062139253336 0 -0.64641062139253336 -1.8874599468472297 0 0 0 0 0.51635266890616549 -3.3876179223880172 0 -3.3876179223880172 -6.5849949817202287 0 0 0 0 0.22072004592024363 -0.24236894359207639 0 -0.24236894359207639 -1.1202077052388439 0 0 0 0 2.3954679556424781 -2.030384900033658 0 -2.030384900033658 -5.3543100658287841 0 0 0 0 3.6723423132441013 0.28123099525055295 0 0.28123099525055295 -5.9049458242807304 0 0 0 0 2.1161133392127454 2.1671429295565758 0 2.1671429295565758 -8.9723281634342129 0 0 0 0 1.7535754190884347 -1.069825730568482 0 -1.069825730568482 -6.8492751104731724 0 0 0 0 -0.55031567193015007 -0.40040074315311358 0 -0.40040074315311358 -4.5722672659903765 0 0 0 0 0.28673597321447702 -0.23908107883757523 0 -0.23908107883757523 -1.2791506734237981 0 0 0 0 2.6012018915862427 -0.7892381034207574 0 -0.7892381034207574 -10.520863363215994 0 0 0 0 0.19754078407618181 -0.19607495750460657 0 -0.19607495750460657 -8.2989738803098589 0 0 0 0 0.96031753337560311 -2.2398525470696633 0 -2.2398525470696633 -1.1845944281024732 0 0 0 0 -0.073132512586539633 -1.0410743025577176 0 -1.0410743025577176 -10.428634804190551 0 0 0 0 0.041499787471565242 -0.54448137833333021 0 -0.54448137833333021 -7.9997555058534999 0 0 0 0 -0.13343970926725329 0.34843641707216833 0 0.34843641707216833 -2.8948525051258258 0 0 0 0 -4.4314355694086025 -0.55935238409131216 0 -0.55935238409131216 -7.84354515135783 0 0 0 0 -1.1207692361058008 -2.2688557949531969 0 -2.2688557949531969 -7.6328857528333174 0 0 0 0 2.108822014353521 0.17872404832451139 0 0.17872404832451139 -7.7463156917192464 0 0 0 0 0.36452263190587075 -2.0589380873650498 0 -2.0589380873650498 -8.5888144365399057 0 0 0 0 5.490745062164109 -1.6311613520438186 0 -1.6311613520438186 -7.1951978293400316 0 0 0 0 -0.029546197238639271 -1.0275725465953656 0 -1.0275725465953656 1.1903194491223985 0 0 0 0 -1.3483305439185669 2.5198093636490739 0 2.5198093636490739 -7.9624503868038232 0 0 0 0 3.5883974302872694 3.2586764379520901 0 3.2586764379520901 -15.148209136716105 0 0 0 0 -5.2159522221767816 1.6410249901437055 0 1.6410249901437055 -6.745751701176232 0 0 0 0 4.2878604394544872 6.8987505163395326 0 6.8987505163395326 -10.298655592418072 0 0 0 0 1.9340966857231479 9.4157964320293104 0 9.4157964320293104 -6.5043731446376114 0 0 0 0 -18.594570281088366 -18.713646453846422 0 -18.713646453846422 -23.095914371639083 0 0 0 0 -0.17417023142459204 0.21053891899901522 0 0.21053891899901522 -0.18320318890253162 0 0 0 0 -3.3998255463871487 8.755067118986517 0 8.755067118986517 -5.910561818710903 0 0 0 0 -15.038007546982158 -7.6818191213442333 0 -7.6818191213442333 -4.6094000642187893 0 0 0 0 7.165133815582152 0.26988752125726023 0 0.26988752125726023 -2.1472639750900271 0 0 0 0 4.8820511021094681 4.5243924465899568 0 4.5243924465899568 -0.2946560237032827 0 0 0 0 1.8045196503082934 -1.5265100772649021 0 -1.5265100772649021 -1.9700016784408945 0 0 0 0 -0.11670332018560381 -0.27735384865209767 0 -0.27735384865209767 -0.20301269124655263 0 0 0 0 -4.4415146240577315 -7.7332447394428527 0 -7.7332447394428527 -3.9371079008487868 0 0 0 0 -0.38571014746180077 0.39558775294051252 0 0.39558775294051252 -0.7825878611508017 0 0 0 0 10.217951697778517 -6.8810720702595063 0 -6.8810720702595063 -9.0825570040287857 0 0 0 0 2.082098895079298 0.68864269786627119 0 0.68864269786627119 -4.7227219853803035 0 0 0 0 0.25537157826076162 -0.41872037227344944 0 -0.41872037227344944 -6.6828032745293058 0 0 0 0 0.39494156494345911 -0.9985283363609696 0 -0.9985283363609696 -2.5063272266578025 0 0 0 0 -2.5626407724341789 -5.2405319832796522 0 -5.2405319832796522 -6.4704939657895011 0 0 0 0 -0.49260420419281559 -12.833107074465715 0 -12.833107074465715 -3.7585251111995603 0 0 0 0 5.8318811393675105 7.9340191010505805 0 7.9340191010505805 0.6202443831225537 0 0 0 0 9.3456474228767661 7.9931406253444948 0 7.9931406253444948 -16.847053321551357 0 0 0 0 4.5751352269867311 0.55110701257217443 0 0.55110701257217443 -1.1306346250262322 0 0 0 0 0.14780176769262868 -0.25520845329978448 0 -0.25520845329978448 -5.4720941410855843 0 0 0 0 1.8009282535092552 -2.4773168607971456 0 -2.4773168607971456 -23.626668159122346 0 0 0 0 -7.5932637848262061 10.913363408506484 0 10.913363408506484 -13.967324415640178 0 0 0 0 -0.069315607159042614 -0.12053296194990892 0 -0.12053296194990892 -0.45881461947207036 0 0 0 0 1.3867993749321386 28.232621764858777 0 28.232621764858777 -63.771015790143792 0 0 0 0 -0.21982140289836138 1.2215067685331178 0 1.2215067685331178 -3.4822962436574016 0 0 0 0 1.4050607994687963 0.63010835063980508 0 0.63010835063980508 -1.0423708966304375 0 0 0 0 2.1465293612156984 1.8298444594956891 0 1.8298444594956891 -5.1186152592008511 0 0 0 0 0.87451223905608799 1.5168965510131898 0 1.5168965510131898 -1.6724485889426433 0 0 0 0 -0.082724255783435729 0.43365151439418614 0 0.43365151439418614 -5.8022817345367343 0 0 0 0 -1.3896720807883582 1.7207695818306092 0 1.7207695818306092 -7.9768564788591902 0 0 0 0 -1.2011341044597392 1.319921483606322 0 1.319921483606322 -7.1460740834008902 0 0 0 0 -0.19670497668312914 -0.2438097436111466 0 -0.2438097436111466 -4.0903185578516528 0 0 0 0 -0.19929944596227217 -1.2730272561639921 0 -1.2730272561639921 -3.5573878892068791 0 0 0 0 -1.0110689875516208 0.46480469585367246 0 0.46480469585367246 -6.9089358964088206 0 0 0 0 -0.22609872602242831 0.89306404894705338 0 0.89306404894705338 -5.7270581999346177 0 0 0 0 -0.03549289227207153 0.12812786081522631 0 0.12812786081522631 -3.9412213035215657 0 0 0 0 8.7246823535965117 -39.052380651544013 0 -39.052380651544013 -21.801862364425688 0 0 0 0 -1.0833862961882215 1.4272652920753899 0 1.4272652920753899 -6.5763505502518456 0 0 0 0 -0.89771129985288045 1.2616712171620321 0 1.2616712171620321 -1.4936539330368639 0 0 0 0 5.3161944708895348 10.755101151971758 0 10.755101151971758 -22.412292606086339 0 0 0 0 0.36411951981333035 -1.6451557361855897 0 -1.6451557361855897 -1.9893514027433081 0 0 0 0 0.3911788182633687 0.069121239897770081 0 0.069121239897770081 -1.7158527394638128 0 0 0 0 -0.075041962482451652 1.5512321280165224 0 1.5512321280165224 -5.5879443608664587 0 0 0 0 -1.821323317226728 8.4342356385595849 0 8.4342356385595849 -17.529896750496846 0 0 0 0 -3.4572172998711892 5.5173665974853066 0 5.5173665974853066 -13.753213360261725 0 0 0 0 -1.798784005789912 4.3008320854469275 0 4.3008320854469275 -13.736581042408943 0 0 0 0 -1.4426511566688744 2.1869352962268778 0 2.1869352962268778 -5.2649033873577551 0 0 0 0 -0.71686228414635877 6.1583425443409396 0 6.1583425443409396 -15.390252439214237 0 0 0 0 -1.3556999349829937 3.7774714778513498 0 3.7774714778513498 -13.712165642031323 0 0 0 0 6.3245218619183561 0.91946684721551719 0 0.91946684721551719 -47.257814199227141 0 0 0 0 0.12644427911034789 2.181762043962884 0 2.181762043962884 -1.1089080150076001 0 0 0 0 -1.2638691988699975 4.0766404434652941 0 4.0766404434652941 -14.061126362712457 0 0 0 0 0.37626280584763871 0.9668691197613386 0 0.9668691197613386 -11.912768699894514 0 0 0 0 1.8322433854666542 -6.6257709912388236 0 -6.6257709912388236 -5.6066407178586815 0 0 0 0 3.2163730963378612 2.4785457219977616 0 2.4785457219977616 -15.593376258073476 0 0 0 0 5.1201018942605003 5.5788390980251279 0 5.5788390980251279 -28.012095136076823 0 0 0 0 1.2986695488601623 1.6553024529094271 0 1.6553024529094271 -13.979570097980464 0 0 0 0 2.5253584902239936 4.5604375227380842 0 4.5604375227380842 -16.568415324156376 0 0 0 0 -0.95652151767194482 5.832707923201724 0 5.832707923201724 -13.882869404287703 0 0 0 0 -2.2342967921196077 4.1249762964216643 0 4.1249762964216643 -16.145710073294822 0 0 0 0 2.4564630097250038 4.7619035033058701 0 4.7619035033058701 -1.6892020986333316 0 0 0 0 14.950570415500181 9.3391968241872974 0 9.3391968241872974 -32.499479680651348 0 0 0 0 -1.2885373002699723 1.4770928326297508 0 1.4770928326297508 -12.789050239218341 0 0 0 0 -1.3799387873999933 2.443632511427495 0 2.443632511427495 -15.514582418001282 0 0 0 0 0.64439429376519108 -1.1886247824872127 0 -1.1886247824872127 -16.155388438435306 0 0 0 0 4.5733789631822219 7.9168705098290957 0 7.9168705098290957 -19.390595806424244 0 0 0 0 12.160325697615917 -10.546536295776605 0 -10.546536295776605 11.28712665157218 0 0 0 0 1.5901154360819652 -1.2803964646040296 0 -1.2803964646040296 -1.3782447647126901 0 0 0 0 -2.3461557073144337 8.7522193676701665 0 8.7522193676701665 -5.3585629475664902 0 0 0 0 5.8192877233232139 4.4688559923233697 0 4.4688559923233697 -5.6528968472339329 0 0 0 0 5.5135966015250233 0.32342395853993366 0 0.32342395853993366 -15.4701357726899 0 0 0 0 2.7137223278239162 1.7081963015689325 0 1.7081963015689325 -6.4429399475484388 0 0 0 0 -0.063018757794060937 2.2227618528626616 0 2.2227618528626616 -3.1253704277790746 0 0 0 0 2.8768804556192435 1.1355419590163365 0 1.1355419590163365 -4.5045944203011459 0 0 0 0 5.1222600910743381 0.41545249206183144 0 0.41545249206183144 -8.4140473511506571 0 0 0 0 -2.1605828876319038 15.051784228763609 0 15.051784228763609 -22.644696825785104 0 0 0 0 3.5938367581200055 -0.8013389023453783 0 -0.8013389023453783 -3.9242604180526541 0 0 0 0 0.48441995885774025 -0.25058358474112197 0 -0.25058358474112197 -0.47870103408330067 0 0 0 0 6.2423519069037638 15.804129650398863 0 15.804129650398863 -35.588699855354207 0 0 0 0 -1.4743667683246167 3.8960001818876115 0 3.8960001818876115 0.86693921885123792 0 0 0 0 -2.7258329208584655 4.9121800635311956 0 4.9121800635311956 -14.333234259865094 0 0 0 0 -20.293546277615206 17.799756998451358 0 17.799756998451358 -13.249156030523409 0 0 0 0 5.2787633145362634 10.303471783295208 0 10.303471783295208 -22.067953141292037 0 0 0 0 0.34932200270724251 2.0751497856438528 0 2.0751497856438528 -10.821800028076311 0 0 0 0 -3.2979893339602313 0.21317598769883261 0 0.21317598769883261 -68.645917595538776 0 0 0 0 -0.93533296146667888 -1.3622990394458778 0 -1.3622990394458778 -2.1069779707778693 0 0 0 0 -4.7161519514688734 5.1843726520110067 0 5.1843726520110067 -3.1837256243059073 0 0 0 0 52.35631919222574 -32.78078464315513 0 -32.78078464315513 -22.422900141499213 0 0 0 0 -134.08809484732399 -43.705395750399475 0 -43.705395750399475 23.310506939822517 0 0 0 0 -1.550987681170227 5.215215293908841 0 5.215215293908841 -7.8119503178786545 0 0 0 0 -1.1277126729858082 6.2645369800575281 0 6.2645369800575281 -8.0443947381827456 0 0 0 0 -0.26680060018293261 5.6484186807501828 0 5.6484186807501828 -12.084709937898879 0 0 0 0 -1.6998021146126376 8.8295299244499006 0 8.8295299244499006 -11.425361731333396 0 0 0 0 -1.639379798560185 8.2622398325656832 0 8.2622398325656832 -10.525644647230365 0 0 0 0 1.5581547345459512 6.8756392767754733 0 6.8756392767754733 -13.387371573267046 0 0 0 0 0.66298897883871177 6.7313761630048248 0 6.7313761630048248 -13.294790051808377 0 0 0 0 0.85110359348743714 6.2696914517400728 0 6.2696914517400728 -12.166457060728135 0 0 0 0 -6.8500004791181652 15.375004018621212 0 15.375004018621212 -10.55331236587881 0 0 0 0 -7.26556167178137 12.61298018018897 0 12.61298018018897 -4.9290953739337056 0 0 0 0 -2.5332348997463896 14.335161721726763 0 14.335161721726763 -20.213939462142662 0 0 0 0 -1.0511975768240518 10.141056287917309 0 10.141056287917309 -11.901406731310999 0 0 0 0 -16.685779857040359 -10.142683981427126 0 -10.142683981427126 10.228184698956284 0 0 0 0 1.8827452296472984 7.9219383020626992 0 7.9219383020626992 -21.829739745447569 0 0 0 0 -0.34325458445932311 0.11586456766132791 0 0.11586456766132791 0.052628786902264579 0 0 0 0 2.7309123036798155 1.5364413949346272 0 1.5364413949346272 -17.141460230431676 0 0 0 0 2.3596837205564043 5.6098484896901937 0 5.6098484896901937 -16.703914398419329 0 0 0 0 0.69792081277955731 8.7626619806233066 0 8.7626619806233066 -17.511204807695322 0 0 0 0 1.8917265366560514 6.0960803325378947 0 6.0960803325378947 -15.525215350451617 0 0 0 0 3.0605157176873945 3.6841750938947371 0 3.6841750938947371 -16.489835290461997 0 0 0 0 2.2055550613629293 5.05909363223941 0 5.05909363223941 -14.469137995649362 0 0 0 0 1.4930475057233252 3.6409269208085107 0 3.6409269208085107 -2.4847099388971401 0 0 0 0 -0.36538396101397341 1.4847328670923163 0 1.4847328670923163 -2.1890570252781885 0 0 0 0 1.5654188390262789 0.76314347075822297 0 0.76314347075822297 -5.9747362229027203 0 0 0 0 2.6573664995482886 1.9565454711955681 0 1.9565454711955681 -11.072188221307442 0 0 0 0 2.1230745944659475 -0.33044193746991368 0 -0.33044193746991368 -6.9516284722703858 0 0 0 0 1.3135810897949796 -1.2278371340630656 0 -1.2278371340630656 0.59410019287315663 0 0 0 0 3.540602750519156 -0.9976284025096902 0 -0.9976284025096902 -10.735660239010031 0 0 0 0 2.7371436553685271 -0.77151968844736984 0 -0.77151968844736984 -7.6567624624312884 0 0 0 0 4.1457341033019475 -2.9789499275566413 0 -2.9789499275566413 -5.7209339166856807 0 0 0 0 3.4462619813343736 -0.51931774971126288 0 -0.51931774971126288 -7.571018903687218 0 0 0 0 3.2974580202219386 1.4307224991516705 0 1.4307224991516705 -12.854527069372125 0 0 0 0 2.4935030238071931 1.9987417188376639 0 1.9987417188376639 -11.002133198435331 0 0 0 0 3.568232634933338 2.0512603945617229 0 2.0512603945617229 -11.950602300768878 0 0 0 0 3.0146089974964525 3.6879577801901178 0 3.6879577801901178 -14.296553116339055 0 0 0 0 2.0916160714016314 5.4091786101803336 0 5.4091786101803336 -13.612406652115169 0 0 0 0 1.6054955186459665 5.0359869907370012 0 5.0359869907370012 -13.579718179553311 0 0 0 0 1.3628152200456043 3.7232231879097526 0 3.7232231879097526 -12.619010594980864 0 0 0 0 0.75123023814080625 2.5100127349887771 0 2.5100127349887771 -10.079806166666458 0 0 0 0 1.6823679356746197 1.6381254973330215 0 1.6381254973330215 -11.608936135995464 0 0 0 0 0.31440310305015373 3.0094986673975654 0 3.0094986673975654 -12.639466748012637 0 0 0 0 0.7586589630986964 2.3945385248134698 0 2.3945385248134698 -14.193520150012773 0 0 0 0 -0.11312420569970527 4.1263063290948594 0 4.1263063290948594 -13.116471154193277 0 0 0 0 -1.2566578137279976 2.2119227960683929 0 2.2119227960683929 -14.120866832387037 0 0 0 0 -0.27572109506900233 3.4719955004102303 0 3.4719955004102303 -15.018106429841282 0 0 0 0 0.57211717991185651 2.5785998026185553 0 2.5785998026185553 -16.791658235008072 0 0 0 0 1.2121439400591498 5.0899835498566972 0 5.0899835498566972 -13.312618096893857 0 0 0 0 1.0072652312487662 5.6845675368385855 0 5.6845675368385855 -13.645774361606527 0 0 0 0 1.3363630565440872 3.5345566355772462 0 3.5345566355772462 -12.891950080789684 0 0 0 0 1.342397444767812 5.083727825234746 0 5.083727825234746 -13.448259829747258 0 0 0 0 -0.24781667754626824 4.7981132262166284 0 4.7981132262166284 -12.707197787909536 0 0 0 0 -0.65420761967243379 3.1391380873756134 0 3.1391380873756134 -13.906876627943348 0 0 0 0 0.16458916217516162 4.0456421524140751 0 4.0456421524140751 -9.5417217029025778 0 0 0 0 0.20750003137800377 3.93863143210001 0 3.93863143210001 -13.965312741103844 0 0 0 0 -0.80395581543143635 1.4196364113231539 0 1.4196364113231539 -8.8020238297558535 0 0 0 0 6.3241061253756925 -4.0142236731335288 0 -4.0142236731335288 -14.494565176646574 0 0 0 0 0.52758472676623569 0.017233055201359093 0 0.017233055201359093 -14.818948860638557 0 0 0 0 -0.54180266548428335 2.748369239638123 0 2.748369239638123 -13.022415766372433 0 0 0 0 -0.65191883417719509 3.5692162244686187 0 3.5692162244686187 -17.342586450766248 0 0 0 0 -8.4958711170838797 11.370088733825469 0 11.370088733825469 -29.371369314492767 0 0 0 0 0.49984015956113126 0.37866176802526752 0 0.37866176802526752 -17.952002559301036 0 0 0 0 -0.22937739849464989 0.025758648270397089 0 0.025758648270397089 0.21545014332873613 0 0 0 0 0.94359125249025055 1.196060672727981 0 1.196060672727981 -19.543845199084899 0 0 0 0 -0.36215392928625079 0.7336421795480419 0 0.7336421795480419 -17.827946588806299 0 0 0 0 -2.8267738570548318 1.449089480080147 0 1.449089480080147 -18.0261734040796 0 0 0 0 -3.9700215331631625 2.2379098418387002 0 2.2379098418387002 -14.979482965261127 0 0 0 0 1.7719958641609992 3.9148669065834838 0 3.9148669065834838 -20.598167942293912 0 0 0 0 -1.0971868032299881 5.580126560048484 0 5.580126560048484 -17.739830128315589 0 0 0 0 -2.0849384442233259 3.8366416741491776 0 3.8366416741491776 -12.313754722687918 0 0 0 0 1.4382708257180639 1.6567969808693306 0 1.6567969808693306 -14.301328018720596 0 0 0 0 1.3516320336295848 2.0617516068805344 0 2.0617516068805344 -15.424111784160232 0 0 0 0 0.23219472650930584 1.824966637383568 0 1.824966637383568 -14.323032624815824 0 0 0 0 0.86716977598280209 3.5791894345256878 0 3.5791894345256878 -17.308055270149453 0 0 0 0 -2.9972158275504626 4.9945951243703348 0 4.9945951243703348 -7.518566765691503 0 0 0 0 -3.0238207318966488 3.0462868761785558 0 3.0462868761785558 -14.018187048968684 0 0 0 0 -0.69010771861576359 2.6101768090511541 0 2.6101768090511541 -14.074221841187637 0 0 0 0 -3.8899008302597053 2.2196463803522875 0 2.2196463803522875 -7.2507747960844426 0 0 0 0 -1.8436553124229249 -0.40842607397007669 0 -0.40842607397007669 -2.9919918365158082 0 0 0 0 -3.5587586839031928 1.1827305486390287 0 1.1827305486390287 -4.1093028233699442 0 0 0 0 -0.59706235911789918 2.8501772361469193 0 2.8501772361469193 -10.805126762325017 0 0 0 0 1.1992986109530648 0.13985317414335441 0 0.13985317414335441 -8.5796755072515225 0 0 0 0 -1.1271102163000251 2.4247823211007926 0 2.4247823211007926 -8.6672465773781369 0 0 0 0 0.17070438219798234 0.65632679423742957 0 0.65632679423742957 -9.9883252296976934 0 0 0 0 0.035377764071654383 -0.26157592601430224 0 -0.26157592601430224 -5.1151662962947739 0 0 0 0 -1.8191834471563197 1.5273193916518721 0 1.5273193916518721 -3.227502073587857 0 0 0 0 0.45700629317207131 -0.4989640416979455 0 -0.4989640416979455 -2.655543654163921 0 0 0 0 0.64803606155857096 1.8502382058832154 0 1.8502382058832154 -6.8912824454673682 0 0 0 0 0.25548962411835419 6.093972990568318 0 6.093972990568318 5.9984077828175941 0 0 0 0 5.0372957085667025 7.9591136580403372 0 7.9591136580403372 3.2940484632508742 0 0 0 0 1.2954294682733973 3.4877459442830059 0 3.4877459442830059 0.22530019818987057 0 0 0 0 0.6695478605872438 -0.22958172157609624 0 -0.22958172157609624 -2.0153607333668333 0 0 0 0 -1.9046120290943236 1.1068774848963585 0 1.1068774848963585 -0.30591091345650057 0 0 0 0 3.8883148000927008 0.49774753719134424 0 0.49774753719134424 -0.9523695756415691 0 0 0 0 -0.66327512928592114 2.8178738776623504 0 2.8178738776623504 0.73593181951719089 0 0 0 0 -5.3549121785799798 -2.9252398398534751 0 -2.9252398398534751 -1.7001142742101365 0 0 0 0 -1.4678662021176478 0.91826080048303993 0 0.91826080048303993 -2.1382864105835324 0 0 0 0 0.085605779626575895 -0.266611496045698 0 -0.266611496045698 -3.7308429484182852 0 0 0 0 -4.9131550451725161 6.0556770549937937 0 6.0556770549937937 1.1642978868007958 0 0 0 0 -3.3850693097365365 2.6282299483582392 0 2.6282299483582392 7.728102645758554 0 0 0 0 -10.778229671011673 0.57049108038017948 0 0.57049108038017948 3.8872577056408772 0 0 0 0 7.6734863523063268 -0.47527808438826469 0 -0.47527808438826469 1.7336479805635463 0 0 0 0 -9.1799651642290314 -4.5458588918254463 0 -4.5458588918254463 -9.7904372493453593 0 0 0 0 4.7388829802560508 4.3246082035611835 0 4.3246082035611835 -2.8842080831277599 0 0 0 0 0.4417316665164801 1.7100299300027579 0 1.7100299300027579 -4.0914946478193492 0 0 0 0 0.49677666661057174 -1.7927646271900812 0 -1.7927646271900812 0.32010101316654982 0 0 0 0 2.2345446670370137 -2.2842072662091368 0 -2.2842072662091368 -5.7018859934814827 0 0 0 0 -0.13534237768625357 0.72991419110237654 0 0.72991419110237654 -2.4430459425629678 0 0 0 0 4.8873038437608329 0.19720927193156967 0 0.19720927193156967 -2.2046271163853817 0 0 0 0 0.49638468479727438 1.5968758791400184 0 1.5968758791400184 -5.2608600388169222 0 0 0 0 -1.7437096992130137 -0.94143452636308211 0 -0.94143452636308211 -2.8482760691149451 0 0 0 0 7.4746696374096047 7.495936887723019 0 7.495936887723019 -8.9919925551748747 0 0 0 0 -13.938762340712628 -3.7965881127865941 0 -3.7965881127865941 0.86106953284797783 0 0 0 0 8.9769566623190258 -1.8830546811150271 0 -1.8830546811150271 -1.1562506194823072 0 0 0 0 1.7905355845432496 3.5035140746913385 0 3.5035140746913385 -2.8644156186783221 0 0 0 0 0.020406085956866216 1.2823514102758011 0 1.2823514102758011 -4.5711716801957145 0 0 0 0 -0.031379984265910155 0.11360968476315669 0 0.11360968476315669 -0.34357355492138275 0 0 0 0 -0.58498226514644336 0.30768699479587802 0 0.30768699479587802 -0.060476341658315391 0 0 0 0 -1.0055767219096197 -9.6120644273687503 0 -9.6120644273687503 -19.665498004367691 0 0 0 0 -2.1598608239305577 -0.43622031410086493 0 -0.43622031410086493 6.6450623565235674 0 0 0 0 3.5640341679918492 -4.6540859615247427 0 -4.6540859615247427 -0.96817844847100787 0 0 0 0 1.1691125832592206 -5.0409785720021318 0 -5.0409785720021318 2.0279280217218911 0 0 0 0 0.032653643097091845 3.9115647876401454 0 3.9115647876401454 20.841292108145353 0 0 0 0 -2.0476922074477102 3.9421270337654732 0 3.9421270337654732 -26.263410056301836 0 0 0 0 -0.38390909192435174 7.7025137046358623 0 7.7025137046358623 -26.799112067701572 0 0 0 0 3.6043466748723176 8.1518249753794407 0 8.1518249753794407 -37.831356150277315 0 0 0 0 0.13016736352961811 -0.055588532792384626 0 -0.055588532792384626 -0.01846478062433965 0 0 0 0 -2.7576458128603463 3.7842689735289241 0 3.7842689735289241 36.164651056221146 0 0 0 0 -3.2035203044798664 8.7816072847685973 0 8.7816072847685973 9.4558568455477143 0 0 0 0 0.55386098999886713 4.0608403586983286 0 4.0608403586983286 -22.013520665069336 0 0 0 0 5.2283950320303347 14.809448756223219 0 14.809448756223219 -21.36881454368995 0 0 0 0 -1.3499705254482706 7.8749827081251169 0 7.8749827081251169 -13.344917147334854 0 0 0 0 -1.2967989299925193 3.9933447514849831 0 3.9933447514849831 -12.56131014494531 0 0 0 0 -2.824967742205672 7.5628370755648575 0 7.5628370755648575 -7.7921900618744075 0 0 0 0 -5.4586043707669205 5.3997446984244561 0 5.3997446984244561 1.7633381482792174 0 0 0 0 -9.3895019169618195 -0.00778079402948606 0 -0.00778079402948606 2.2428560760972687 0 0 0 0 -3.7939053042198339 4.0251267804223971 0 4.0251267804223971 4.0372468585428578 0 0 0 0 -0.10138925008104627 -0.18370252397888542 0 -0.18370252397888542 -0.0052734569205385995 0 0 0 0 -3.1407065256204874 -4.8728853980317126 0 -4.8728853980317126 -2.315789029111329 0 0 0 0 0.10930961306667086 1.1887073078305548 0 1.1887073078305548 3.8061264951431895 0 0 0 0 -0.64623324673539173 -0.80707902504354934 0 -0.80707902504354934 0.78464211171558418 0 0 0 0 -0.8888435015817322 -2.3044844062051197 0 -2.3044844062051197 0.44828352155036555 0 0 0 0 3.1425256518793958 1.130697152560515 0 1.130697152560515 0.62189217826380627 0 0 0 0 -0.31507847816499801 -0.22559450848158491 0 -0.22559450848158491 0.0092682849134999579 0 0 0 0 5.6798124264264516 9.1104343595108048 0 9.1104343595108048 15.28320721921591 0 0 0 0 -1.5137171293581559 -1.083819664989278 0 -1.083819664989278 3.0413476928598016 0 0 0 0 -0.27848841567606542 -1.035493292731644 0 -1.035493292731644 -0.20264431635587243 0 0 0 0 -1.22735341892826 1.3517288218936301 0 1.3517288218936301 2.334507001885413 0 0 0 0 -1.8830149002537837 -0.2808189356856019 0 -0.2808189356856019 4.3403005187965391 0 0 0 0 -2.440625485173598 4.0986667648705861 0 4.0986667648705861 26.953509281591323 0 0 0 0 -0.53265321607452965 -0.25946212636985777 0 -0.25946212636985777 0.013661277789225656 0 0 0 0 -3.5553415754898197 7.0262164398332061 0 7.0262164398332061 32.935609518927777 0 0 0 0 -35.521155259803436 -81.536773749993699 0 -81.536773749993699 24.634343037820145 0 0 0 0 23.231869407384579 29.466158084395829 0 29.466158084395829 -38.032276988462399 0 0 0 0 -1.8928978451268677 0.057396533357632507 0 0.057396533357632507 0.90664861973800726 0 0 0 0 -1.574880099672896 -0.13978549448461308 0 -0.13978549448461308 0.23767527273867017 0 0 0 0 -1.4338269528820895 -0.023142433130022511 0 -0.023142433130022511 0.066596037738884561 0 0 0 0 -1.8535129963534116 -0.2151063783928322 0 -0.2151063783928322 0.1176659676481524 0 0 0 0 -1.2294574167863175 0.55409379830416583 0 0.55409379830416583 -0.59215753479747946 0 0 0 0 -3.3719960751118379 -0.60247390482345509 0 -0.60247390482345509 1.1086325709256926 0 0 0 0 12.791600401340929 -25.186197008917588 0 -25.186197008917588 -75.115664722501606 0 0 0 0 -43.050756528642523 -20.917929248103064 0 -20.917929248103064 89.195765577919246 0 0 0 0 18.846074308822153 6.0092504518615897 0 6.0092504518615897 10.020357534084098 0 0 0 0 1.5101864174530419 -10.436754772927998 0 -10.436754772927998 9.0615923793853881 0 0 0 0 3.6425385025049763 -5.2580772941882969 0 -5.2580772941882969 2.2638389711610216 0 0 0 0 20.364736523886222 -22.15255307615098 0 -22.15255307615098 -25.993709747370303 0 0 0 0 7.5974166366140139 -19.363525732785433 0 -19.363525732785433 -9.3397457077007857 0 0 0 0 -4.3734466692935712 -10.588220324540998 0 -10.588220324540998 -15.414720802770717 0 0 0 0 -2.8624781122466629 -9.505364985830056 0 -9.505364985830056 12.449229581837244 0 0 0 0 34.345508869736477 -30.798904818168012 0 -30.798904818168012 22.43142221934977 0 0 0 0 -0.24591085431056836 0.26847418679131252 0 0.26847418679131252 0.064213596525860339 0 0 0 0 -2.4242830077470421 -0.34321080121747549 0 -0.34321080121747549 0.17963015247553549 0 0 0 0 -6.0123803302467422 -0.34368681060186645 0 -0.34368681060186645 2.0198274165586554 0 0 0 0 -2.1320083462517232 -1.6434501609955987 0 -1.6434501609955987 0.85609393496815755 0 0 0 0 -3.3212886699697037 -1.21072811549584 0 -1.21072811549584 1.0563496385802864 0 0 0 0 -2.7835719645490826 -0.77233079188135889 0 -0.77233079188135889 0.80038679439348925 0 0 0 0 -1.5452472623792346 -1.3521944663880276 0 -1.3521944663880276 0.87850490975506546 0 0 0 0 -1.6767800529045758 -2.1904728517063177 0 -2.1904728517063177 1.4038022667682526 0 0 0 0 -2.1850049731197032 -1.5266022659689042 0 -1.5266022659689042 1.0412987636991602 0 0 0 0 -2.6697928021380903 -1.021102144395627 0 -1.021102144395627 5.5522159832762554 0 0 0 0 -1.4711377305289917 -0.21828452026586831 0 -0.21828452026586831 -6.0309849224671197e-05 0 0 0 0 -2.0335068928432349 -0.37038027673520446 0 -0.37038027673520446 3.7795234701516165 0 0 0 0 -2.1330390629696012 -2.9915331726606382 0 -2.9915331726606382 0.60047873722214717 0 0 0 0 -1.9576784392170339 0.23481025461933314 0 0.23481025461933314 -0.89049638083724858 0 0 0 0 -4.5843264849008847 -3.2491551644461651 0 -3.2491551644461651 2.991095198183757 0 0 0 0 1.2739120798444219 -0.86708158225519583 0 -0.86708158225519583 3.8847651279365891 0 0 0 0 -4.1747277469739856 -0.14557705115657882 0 -0.14557705115657882 4.3228383011355618 0 0 0 0 -0.50687181512991142 -0.06103707714590989 0 -0.06103707714590989 0.28870313768111089 0 0 0 0 -9.5222112606415976 -19.232618469083718 0 -19.232618469083718 -45.016577199112362 0 0 0 0 -23.709640267773466 -11.23478020679795 0 -11.23478020679795 -2.888581986774625 0 0 0 0 -11.68924259269852 -21.422454125783588 0 -21.422454125783588 -17.580736634012283 0 0 0 0 -3.1259953102567124 -12.243212009685521 0 -12.243212009685521 -8.273905712805572 0 0 0 0 -5.4795529214597991 -15.377039714411694 0 -15.377039714411694 -2.719036519072688 0 0 0 0 -17.935046786864405 -19.278809443554564 0 -19.278809443554564 -3.9100702931973501 0 0 0 0 -11.139913984064151 -14.075838954566279 0 -14.075838954566279 -2.2465926557897546 0 0 0 0 -3.3994296703867803 -4.8606034875629121 0 -4.8606034875629121 -10.332384524454937 0 0 0 0 -5.6154973788795814 -8.9563356009463178 0 -8.9563356009463178 -11.308916444515489 0 0 0 0 0.45905974137616568 -7.538314975974572 0 -7.538314975974572 -25.164870885528217 0 0 0 0 -1.0832711539077309 -6.2018996256306309 0 -6.2018996256306309 -13.902791308428277 0 0 0 0 -1.039766129401869 2.6920491661621782 0 2.6920491661621782 -25.376167160993646 0 0 0 0 -14.711902932493558 15.084447565494884 0 15.084447565494884 -23.763444359528989 0 0 0 0 -7.2623435229002098 6.262792863298273 0 6.262792863298273 -24.854209087348067 0 0 0 0 -6.7965754500361868 11.416674196141571 0 11.416674196141571 -36.809308776488251 0 0 0 0 3.358261412158754 15.107896305952636 0 15.107896305952636 -38.990519817089989 0 0 0 0 -5.4062975498122796 40.391365911312278 0 40.391365911312278 -92.431321593865505 0 0 0 0 -20.434509636964776 34.324281093584432 0 34.324281093584432 -47.872053833324571 0 0 0 0 -1.2982386005854778 -1.0328588194404347 0 -1.0328588194404347 -37.892338161002044 0 0 0 0 2.4018031318569228 -14.228407439529292 0 -14.228407439529292 -19.973335936420881 0 0 0 0 1.357759992635593 4.600210321015453 0 4.600210321015453 -41.77382912028952 0 0 0 0 12.758613917069852 -7.7196450291339715 0 -7.7196450291339715 -64.66069870197316 0 0 0 0 -2.5957337608764419 13.719416625297526 0 13.719416625297526 -64.418333003448424 0 0 0 0 -44.16909608132346 67.575248365519656 0 67.575248365519656 -52.374224184118248 0 0 0 0 -28.863372364799943 98.493949882382367 0 98.493949882382367 -14.043163417615688 0 0 0 0 -44.196493512516099 139.25955520646471 0 139.25955520646471 20.722942559961666 0 0 0 0 -12.425579562405801 152.62620158425943 0 152.62620158425943 -166.3265947376708 0 0 0 0 -23.844771759384003 -62.604859656188637 0 -62.604859656188637 -234.74750038010166 0 0 0 0 -162.00042641180653 39.585638733356063 0 39.585638733356063 -37.257775146577842 0 0 0 0 -14.489703651794173 8.7509750055146469 0 8.7509750055146469 -0.41654101434687618 0 0 0 0 -20.240630132208594 -22.927695928316098 0 -22.927695928316098 -16.809612274006213 0 0 0 0 -0.090529997474043333 0.1705861007678191 0 0.1705861007678191 -0.46252126722284359 0 0 0 0 7.2587359392681492 -10.097693091260226 0 -10.097693091260226 -33.094017725817139 0 0 0 0 3.5262381461841414 -6.5354540944072141 0 -6.5354540944072141 -14.494103934981467 0 0 0 0 11.575919544302224 11.318247843628342 0 11.318247843628342 -1.7950118997550817 0 0 0 0 -4.1824708709287961 -1.7690600446276221 0 -1.7690600446276221 -0.70461598992733343 0 0 0 0 -5.4521317888419105 -6.0326809054618025 0 -6.0326809054618025 -7.5506028072995832 0 0 0 0 -5.1964072994260846 -0.88920273108487891 0 -0.88920273108487891 -6.3254567164349282 0 0 0 0 -0.23550985102176891 0.55258717678797797 0 0.55258717678797797 -1.3584714503650268 0 0 0 0 9.9816284338257653 -0.68978504492594084 0 -0.68978504492594084 -13.131494663050034 0 0 0 0 0.14629200954794896 3.9645086428758987 0 3.9645086428758987 1.0377457395343299 0 0 0 0 -6.7273836268141167 -8.3271473913810041 0 -8.3271473913810041 -17.54912135468112 0 0 0 0 -10.049592718272493 -9.3016573245440668 0 -9.3016573245440668 -14.04805925877281 0 0 0 0 0.088136854879564908 4.7454631131231508 0 4.7454631131231508 -6.309041118785899 0 0 0 0 0.64759278619088922 1.3489310495688258 0 1.3489310495688258 -4.3609308356656555 0 0 0 0 10.11498491388511 -21.668915687547269 0 -21.668915687547269 -30.285499077624991 0 0 0 0 -17.167031045168187 -15.188182248311932 0 -15.188182248311932 -14.595042495086091 0 0 0 0 -2.0626152244853984 6.5483383122618761 0 6.5483383122618761 5.1358304904051693 0 0 0 0 12.216776977225891 -21.677867968746796 0 -21.677867968746796 -34.011852689560328 0 0 0 0 -0.83020229057315298 0.30455219031415481 0 0.30455219031415481 -0.033070086115856157 0 0 0 0 2.3915837553743131 1.0012585085878527 0 1.0012585085878527 2.7919702183007757 0 0 0 0 0.97240856832545131 0.59031884422909542 0 0.59031884422909542 -1.2915839483426446 0 0 0 0 56.456935895515016 -10.173214586888207 0 -10.173214586888207 -6.5070921309379628 0 0 0 0 12.51726775973566 10.130304673570208 0 10.130304673570208 -3.7635942681845336 0 0 0 0 -65.153758491339431 -14.866063910949379 0 -14.866063910949379 -9.007801794065017 0 0 0 0 13.505140748768554 13.325807135504419 0 13.325807135504419 -46.688577141176211 0 0 0 0 -0.052883362280482515 0.062094152697421023 0 0.062094152697421023 -0.047642424882794909 0 0 0 0 -35.294016420312346 -58.933618659199055 0 -58.933618659199055 -39.655726466735359 0 0 0 0 -29.507660319356546 -50.739756013557781 0 -50.739756013557781 -93.036527814175543 0 0 0 0 -20.108735544931733 -32.915012955825659 0 -32.915012955825659 13.687478167110385 0 0 0 0 43.790304644518983 -7.5196413268295146 0 -7.5196413268295146 -24.777126087568831 0 0 0 0 4.2910832069346725 -11.757624543057318 0 -11.757624543057318 8.6817404348312266 0 0 0 0 0.15377970169676791 -0.64811964252838727 0 -0.64811964252838727 -0.95659377743909957 0 0 0 0 36.865792126299766 33.943687734008563 0 33.943687734008563 -4.8635924454794122 0 0 0 0 18.110584895611282 -13.29503547202512 0 -13.29503547202512 -2.5693135123055981 0 0 0 0 -20.18935909193101 0.65216515659176366 0 0.65216515659176366 20.404816811467754 0 0 0 0 16.385822707974967 4.2233102238724314 0 4.2233102238724314 0.50186202152326587 0 0 0 0 20.865134452672805 -0.040228879050118849 0 -0.040228879050118849 -6.9293862199657497 0 0 0 0 0.16269253637204995 -1.7224011710133968 0 -1.7224011710133968 -4.9070486771742168 0 0 0 0 3.9225747699299021 -6.612060646339927 0 -6.612060646339927 0.83675185439824418 0 0 0 0 9.1882947535855237 -10.660562415634558 0 -10.660562415634558 -1.5987924816154191 0 0 0 0 4.1227740969956699 22.573241319929366 0 22.573241319929366 -18.485782873151038 0 0 0 0 0.40873545035133307 -0.95265341611888044 0 -0.95265341611888044 -3.9316748454163033 0 0 0 0 10.634434327315148 -7.6491036973889095 0 -7.6491036973889095 -8.1931720784814388 0 0 0 0 11.227182769132753 -0.95056952659717808 0 -0.95056952659717808 -5.4647532707167557 0 0 0 0 8.8702651811593114 -6.9960174608340822 0 -6.9960174608340822 -4.9912765900298837 0 0 0 0 0.026057431278062815 -0.32869421294644852 0 -0.32869421294644852 -1.3261337935542699 0 0 0 0 -4.6779325439458717 -4.5831158581881937 0 -4.5831158581881937 -3.1727384672194603 0 0 0 0 6.8830146139930548 -0.90204908006126061 0 -0.90204908006126061 -10.41152466532094 0 0 0 0 9.2920965524772328 -7.4542400761893077 0 -7.4542400761893077 -6.3289925689841766 0 0 0 0 7.426074529409334 -8.2689324605962611 0 -8.2689324605962611 -6.6846287632788517 0 0 0 0 9.8617390512731617 -6.6809919714478383 0 -6.6809919714478383 -12.406000739067167 0 0 0 0 3.5147495528324271 -1.1017148018481748 0 -1.1017148018481748 -10.138599002992123 0 0 0 0 3.6748856598366046 -2.7013181522015657 0 -2.7013181522015657 -16.188971618563301 0 0 0 0 -2.1692242159854231 3.8468771159377866 0 3.8468771159377866 -17.786674877664154 0 0 0 0 4.757971661746069 0.012622800214103336 0 0.012622800214103336 -16.017231955423995 0 0 0 0 -1.3835064165766653 8.3707300394244157 0 8.3707300394244157 -18.550781783824959 0 0 0 0 9.9740542028596337 4.3719772839122015 0 4.3719772839122015 -12.899504843868272 0 0 0 0 12.089423876903766 -3.4827036249389494 0 -3.4827036249389494 -9.7519841475859721 0 0 0 0 3.1307964028952711 -5.2469729112408459 0 -5.2469729112408459 -2.8485864935555583 0 0 0 0 6.2029193357509484 -5.8049947118770433 0 -5.8049947118770433 -4.7539995263068704 0 0 0 0 4.3312701112304239 -1.1485726877563138 0 -1.1485726877563138 -5.3663738550012567 0 0 0 0 1.8592469397027571 -0.5032024492866185 0 -0.5032024492866185 -5.9744303393417795 0 0 0 0 0.50647744764015645 -1.3479093852352015 0 -1.3479093852352015 -4.1947910023562294 0 0 0 0 1.8156544269907613 -1.3860801382070349 0 -1.3860801382070349 -5.3659449023657544 0 0 0 0 1.0900139668097601 0.53037385827356154 0 0.53037385827356154 -2.0478239866316557 0 0 0 0 0.58004061662688855 -1.7879937774259815 0 -1.7879937774259815 -6.6714938395434729 0 0 0 0 -15.34456204012406 24.594982182760532 0 24.594982182760532 14.853479453133332 0 0 0 0 -0.71907337120228476 -44.487636827201641 0 -44.487636827201641 -8.521286116629085 0 0 0 0 1.4883890599980987 -0.42074843270529527 0 -0.42074843270529527 -6.3805931362294359 0 0 0 0 0.97393578365777556 0.55991501803167587 0 0.55991501803167587 -2.2792326689980413 0 0 0 0 1.3223854018625616 -0.11143243978403916 0 -0.11143243978403916 -5.9098562334202143 0 0 0 0 1.2101232264673172 -0.12857631003407732 0 -0.12857631003407732 -5.3919863818264275 0 0 0 0 1.8015871641170236 -0.62867000166897924 0 -0.62867000166897924 -4.4579038330691674 0 0 0 0 0.65647027053854723 -0.59915962912251075 0 -0.59915962912251075 -2.2154814760396953 0 0 0 0 1.5441311524760124 -1.8830410708110321 0 -1.8830410708110321 -2.7970175755663149 0 0 0 0 0.96094298207094653 -1.9836967008768625 0 -1.9836967008768625 -4.2300797326915927 0 0 0 0 0.99973220381274575 -0.065797430793649525 0 -0.065797430793649525 -2.77789656743413 0 0 0 0 -0.10262124017759966 3.197567195737065 0 3.197567195737065 -6.3949267738516937 0 0 0 0 -6.4636446288089484 6.0302323524529129 0 6.0302323524529129 -5.8938060281561775 0 0 0 0 1.5504942262244166 4.3527958371341811 0 4.3527958371341811 -9.8843875512384329 0 0 0 0 0.7836670502283194 -0.57506969384436424 0 -0.57506969384436424 -0.69058830936770832 0 0 0 0 1.1522555227631761 0.35163577308354022 0 0.35163577308354022 -3.1666521983939582 0 0 0 0 -0.15873823565982548 3.1220804544566363 0 3.1220804544566363 -9.2817734473574092 0 0 0 0 -2.7002893660203702 1.828632372645643 0 1.828632372645643 -6.8024159841661458 0 0 0 0 -2.8225500149501244 4.2932365941805131 0 4.2932365941805131 -4.9882915378020698 0 0 0 0 2.4355471579735877 6.8762720329837066 0 6.8762720329837066 -1.6573744776760577 0 0 0 0 -0.39435373804458962 5.167962583798726 0 5.167962583798726 -2.3342727281938096 0 0 0 0 1.4368432110308049 3.8666019914799108 0 3.8666019914799108 -8.0133928443574405 0 0 0 0 1.5212876487476334 4.1936393084306474 0 4.1936393084306474 -7.8516631231559586 0 0 0 0 4.6006270652013654 4.1011045224468035 0 4.1011045224468035 -8.4571092002088335 0 0 0 0 0.0033991884412287732 2.4831928032261885 0 2.4831928032261885 -8.3686601911031175 0 0 0 0 6.3879414473929614 1.0168780599481124 0 1.0168780599481124 -13.298069455828227 0 0 0 0 4.6185728153297418 4.5724849920516135 0 4.5724849920516135 -12.177478383766356 0 0 0 0 5.0404580744129817 6.2318076044161899 0 6.2318076044161899 -8.0311581418445712 0 0 0 0 -3.6883703657291562 4.3755701575751118 0 4.3755701575751118 -17.526693614283431 0 0 0 0 2.8510228957742356 11.09839822525646 0 11.09839822525646 -18.765636421447653 0 0 0 0 -4.9778681421939837 4.7991703467978368 0 4.7991703467978368 -20.4997872996355 0 0 0 0 -20.433887056714866 32.092326476153175 0 32.092326476153175 -14.615812660298616 0 0 0 0 -9.4039025886636409 5.9393280951881025 0 5.9393280951881025 26.886133220526972 0 0 0 0 3.0178326190238067 6.8820497411334145 0 6.8820497411334145 -8.1688406462358216 0 0 0 0 10.369840746560612 12.385342559303353 0 12.385342559303353 -127.62820553859092 0 0 0 0 -44.650004704178286 61.494906108483065 0 61.494906108483065 -69.531966238348105 0 0 0 0 -0.14039560202238688 -0.21248633119028426 0 -0.21248633119028426 -0.22601337331303739 0 0 0 0 -1.5072276672551652 62.175128170380049 0 62.175128170380049 -157.19380149697054 0 0 0 0 -78.434059466015697 -60.479872680988592 0 -60.479872680988592 -22.337791073655353 0 0 0 0 -4.0906967324978716 -1.4846128417459408 0 -1.4846128417459408 -0.61096459645395029 0 0 0 0 -36.072700041595681 12.266636736678265 0 12.266636736678265 -49.695010062185247 0 0 0 0 -23.908412448497984 48.543343371607079 0 48.543343371607079 -87.282987383870932 0 0 0 0 -24.198093006606655 17.144046784479542 0 17.144046784479542 -67.898663659478643 0 0 0 0 -1.7256303212804482 13.88508952392931 0 13.88508952392931 -108.1548569241013 0 0 0 0 -4.1374641620342292 -1.570632224640466 0 -1.570632224640466 -0.74100513337736018 0 0 0 0 0.38333502367115102 34.853658097966218 0 34.853658097966218 -128.96919013934348 0 0 0 0 -11.018365796297701 43.369272830362206 0 43.369272830362206 -98.322708343957856 0 0 0 0 -22.457156138826065 31.396020105449679 0 31.396020105449679 -76.678459449338334 0 0 0 0 -2.1846477015923025 0.10667240549269508 0 0.10667240549269508 -0.081337229658949184 0 0 0 0 -3.0171494579918772 1.7897874044838318 0 1.7897874044838318 -1.7147668052684821 0 0 0 0 -2.0763900496211818 1.9022094112724517 0 1.9022094112724517 -4.780578310990677 0 0 0 0 -1.4787894598185574 1.2021339881184758 0 1.2021339881184758 -2.2028964490091312 0 0 0 0 -2.1475283377674828 2.5156704539481325 0 2.5156704539481325 -2.990220761825185 0 0 0 0 -1.0550159537297676 0.02047767423887592 0 0.02047767423887592 -0.077337584468802234 0 0 0 0 -2.7099215046880545 44.132402118151731 0 44.132402118151731 -134.44632172117781 0 0 0 0 -2.0066163978187035 2.583307237918234 0 2.583307237918234 4.517641066352553 0 0 0 0 -23.696758388406124 79.645679956513277 0 79.645679956513277 -19.509782416685994 0 0 0 0 -5.0725099602457249 43.359190370112856 0 43.359190370112856 23.69453658326529 0 0 0 0 -30.327136333930866 93.962698186995567 0 93.962698186995567 17.392862837665234 0 0 0 0 -31.160472984275543 88.0609057542149 0 88.0609057542149 -18.071662244312392 0 0 0 0 -85.128128454131456 88.863058643531076 0 88.863058643531076 1.3424754900415792 0 0 0 0 -148.05365990262499 112.76808544371033 0 112.76808544371033 -27.988261403530487 0 0 0 0 -130.84772373062378 -11.576563433622141 0 -11.576563433622141 -36.726544156819728 0 0 0 0 -38.62209764405452 22.61148985199452 0 22.61148985199452 -24.096957370450582 0 0 0 0 -28.537416678472709 46.034333471870013 0 46.034333471870013 -23.70629824155003 0 0 0 0 -88.725776059233766 24.954398334453941 0 24.954398334453941 -19.028995413726079 0 0 0 0 -38.748410243743365 37.805914581748766 0 37.805914581748766 -20.649326993500836 0 0 0 0 -19.942915517759275 19.617607014926762 0 19.617607014926762 -32.014639616672866 0 0 0 0 -36.838325253068035 23.342474220987242 0 23.342474220987242 -25.781727911684357 0 0 0 0 -10.488870154933466 18.10409823949567 0 18.10409823949567 -31.325789556774907 0 0 0 0 -21.364357825995739 19.299691892556439 0 19.299691892556439 -23.769751572257519 0 0 0 0 -18.141213814039929 30.829637156930403 0 30.829637156930403 -63.156943560853051 0 0 0 0 -38.482462893493107 22.308349404650016 0 22.308349404650016 -31.029510358457628 0 0 0 0 2.5174859093367559 26.345855673615006 0 26.345855673615006 -64.324351088605454 0 0 0 0 25.08040333938402 44.439593470333421 0 44.439593470333421 -99.863333183395298 0 0 0 0 -128.1326175528468 116.16591952744238 0 116.16591952744238 -63.577759727407283 0 0 0 0 -21.467322701087483 -3.214583291872259 0 -3.214583291872259 -58.215292191754997 0 0 0 0 -1.8063570331634393 -0.64349926677581415 0 -0.64349926677581415 -0.3784592414749639 0 0 0 0 -141.65502563530544 28.118336572566562 0 28.118336572566562 -35.453856676898795 0 0 0 0 -7.452814972201395 3.3070255289412671 0 3.3070255289412671 -63.331209650195888 0 0 0 0 -136.29655780970643 102.29891747542842 0 102.29891747542842 -85.830017406968182 0 0 0 0 11.67930317084074 -33.102898012234391 0 -33.102898012234391 -35.553011048570625 0 0 0 0 66.341857736743805 9.3326248296398262 0 9.3326248296398262 -64.916942554623347 0 0 0 0 10.308783440840671 43.553964769039339 0 43.553964769039339 -31.291853983320834 0 0 0 0 -43.467472397436723 -24.609693262254041 0 -24.609693262254041 -79.413885873011168 0 0 0 0 26.310758342320241 50.476233012711418 0 50.476233012711418 -132.22524590309968 0 0 0 0 28.238621770401323 71.368542771180557 0 71.368542771180557 -33.836407838694868 0 0 0 0 32.60053122271529 -36.388051346641987 0 -36.388051346641987 -36.527805815530883 0 0 0 0 6.3652133076429891 -34.158675155355922 0 -34.158675155355922 -18.886070317525082 0 0 0 0 11.10006747413172 -61.575343411925587 0 -61.575343411925587 -33.179886874715521 0 0 0 0 43.042209088185245 -41.3348897594351 0 -41.3348897594351 -39.037615503761117 0 0 0 0 54.994694449157123 10.604710589929709 0 10.604710589929709 -21.631902042771344 0 0 0 0 -56.484916560496913 4.1811084322444003 0 4.1811084322444003 -45.578775148864224 0 0 0 0 6.7397824226375747 -39.159805670021342 0 -39.159805670021342 -79.400777400167499 0 0 0 0 -23.607810131771657 -63.155514307845806 0 -63.155514307845806 -46.431439180149937 0 0 0 0 -16.3203138278609 -81.091620377687832 0 -81.091620377687832 -165.99357619964485 0 0 0 0 -34.380870903096366 -31.860011648487671 0 -31.860011648487671 -73.914508253622444 0 0 0 0 -43.900791527296406 39.701318545431604 0 39.701318545431604 -84.144598308573791 0 0 0 0 -72.62897107529534 111.49162154439955 0 111.49162154439955 -228.04608935112446 0 0 0 0 -220.66584934576122 25.532578279899099 0 25.532578279899099 -98.367877978566412 0 0 0 0 -10.537931435305609 -21.789464308871629 0 -21.789464308871629 -264.93075351100561 0 0 0 0 -125.35545117394145 150.95753505387688 0 150.95753505387688 -177.36741176367832 0 0 0 0 -67.142764858026567 -79.647405474966035 0 -79.647405474966035 -48.469274411932929 0 0 0 0 -0.13902659266885831 -0.32845360636234888 0 -0.32845360636234888 -2.4152408900503559 0 0 0 0 -0.1791091480796676 -1.1559224858135377 0 -1.1559224858135377 -6.4474583723087022 0 0 0 0 33.388251900136765 -17.477394504150197 0 -17.477394504150197 -14.57173309826976 0 0 0 0 16.642693473863801 -6.0069998336525714 0 -6.0069998336525714 -6.7744667476545146 0 0 0 0 27.078041093091997 0.033380614360794425 0 0.033380614360794425 -11.027565610917009 0 0 0 0 18.464581962033833 -12.646249238280461 0 -12.646249238280461 -3.7547309513738583 0 0 0 0 18.183885917322812 -10.691903485352896 0 -10.691903485352896 -14.572305795527427 0 0 0 0 -7.2047387772336151 -23.415333127189115 0 -23.415333127189115 -16.07869182304421 0 0 0 0 -23.967771828018897 -43.873605403136253 0 -43.873605403136253 -21.548456516300575 0 0 0 0 -23.640684694766833 -65.836102666126408 0 -65.836102666126408 -47.662768887426864 0 0 0 0 -60.483234468073533 -25.389084704009292 0 -25.389084704009292 9.2498278109442253 0 0 0 0 -17.583489956344238 -16.564880327524406 0 -16.564880327524406 -6.5286344122650917 0 0 0 0 -11.877202464784318 -63.086356566696622 0 -63.086356566696622 -37.888882109218684 0 0 0 0 -19.263428363894036 -46.043734946119912 0 -46.043734946119912 -20.789183376280562 0 0 0 0 0.66981235378352721 -57.172492083208454 0 -57.172492083208454 -46.758327629156156 0 0 0 0 3.4342252596379694 -29.166124845902232 0 -29.166124845902232 -17.961317408888135 0 0 0 0 -0.41534730659168417 -34.188048137772057 0 -34.188048137772057 -24.463315139850238 0 0 0 0 1.8307054198103287 -41.240474714472839 0 -41.240474714472839 -44.046297067827254 0 0 0 0 10.316375713515299 -49.262423720327206 0 -49.262423720327206 -36.590986634970477 0 0 0 0 10.369278257745805 -48.851039758134931 0 -48.851039758134931 -65.753929627760954 0 0 0 0 13.969368471961388 -62.338740529295137 0 -62.338740529295137 -49.277722971156891 0 0 0 0 12.83005603376705 -57.335348435216019 0 -57.335348435216019 -46.767505166308183 0 0 0 0 -2.6047697626172521 -56.302028959672498 0 -56.302028959672498 -38.15378230614192 0 0 0 0 5.6520764317056091 -63.478559739341108 0 -63.478559739341108 -39.375591785823417 0 0 0 0 1.7010366994481956 -53.749571638342786 0 -53.749571638342786 -36.062989440493766 0 0 0 0 7.7535189696295674 34.520434396521523 0 34.520434396521523 -102.40054069213647 0 0 0 0 -5.9394467024901587 32.542235070060087 0 32.542235070060087 -89.892824527884841 0 0 0 0 -1.5666540069523762 33.059051788682609 0 33.059051788682609 -101.62114989635938 0 0 0 0 -3.2584733960293848 -1.1475232143470429 0 -1.1475232143470429 -0.59986502246609952 0 0 0 0 -5.4308226411826936 36.580062816916268 0 36.580062816916268 -103.31455650364296 0 0 0 0 6.0019040541010327 6.1919844899975942 0 6.1919844899975942 -89.835833888166235 0 0 0 0 -7.3135402917231147 24.041837873638315 0 24.041837873638315 -107.47511165673859 0 0 0 0 25.821840503055 12.184503273673727 0 12.184503273673727 -127.21530781437104 0 0 0 0 1.094871646050251 47.323615557242192 0 47.323615557242192 -110.64389585095023 0 0 0 0 -31.345574014273552 44.832995234404734 0 44.832995234404734 -57.824637685721427 0 0 0 0 9.1357156857925474 45.568080702424595 0 45.568080702424595 -141.81792805245641 0 0 0 0 -22.855579451731955 65.224959189438778 0 65.224959189438778 -96.414263169394872 0 0 0 0 -11.99636239659867 37.113547090614702 0 37.113547090614702 -64.749029685938694 0 0 0 0 -29.541071849420405 43.141204675408517 0 43.141204675408517 -59.389265455738041 0 0 0 0 -24.244787698906293 21.787112904918104 0 21.787112904918104 -19.274233371060291 0 0 0 0 -5.9240031434301272 36.943266948726887 0 36.943266948726887 -65.75603631532249 0 0 0 0 -16.093505515199013 32.552179503807565 0 32.552179503807565 -50.870069940788198 0 0 0 0 -15.725499245730362 29.046336132280885 0 29.046336132280885 -70.663421065090461 0 0 0 0 -6.3521146421683738 41.761153919154822 0 41.761153919154822 -88.388907516412473 0 0 0 0 -4.0612170020312988 30.414321023342382 0 30.414321023342382 -70.809364852033468 0 0 0 0 -5.7210218059269096 40.288042081882622 0 40.288042081882622 -82.065707698264305 0 0 0 0 23.250863067389673 33.082316057759272 0 33.082316057759272 -80.321286342208168 0 0 0 0 13.483702085992206 47.528422128798411 0 47.528422128798411 -85.498179911726766 0 0 0 0 6.417604312897538 65.993254575914762 0 65.993254575914762 -89.35347671755153 0 0 0 0 16.352805582605697 51.413106628032438 0 51.413106628032438 -80.345607766462876 0 0 0 0 -6.8622446425122234 48.949117269557973 0 48.949117269557973 -80.522978480280187 0 0 0 0 -5.5628237124639952 56.64780254658524 0 56.64780254658524 -67.506909086403539 0 0 0 0 2.7336599177503444 43.857690669556632 0 43.857690669556632 -84.184613932668071 0 0 0 0 -16.186326643510483 35.716022470417556 0 35.716022470417556 -83.163260924060125 0 0 0 0 -8.8943035046311252 45.228525334752703 0 45.228525334752703 -73.930461258214564 0 0 0 0 -23.646594278508129 26.249491464344828 0 26.249491464344828 -63.233373110490902 0 0 0 0 -2.0884079473887689 -0.63992867969345824 0 -0.63992867969345824 -0.38519890049852457 0 0 0 0 7.0256378538520945 23.260238486192975 0 23.260238486192975 -102.83658597536123 0 0 0 0 -16.114113667636957 8.5805433671648643 0 8.5805433671648643 -70.076875266476236 0 0 0 0 -4.7673261871827606 10.288346109863596 0 10.288346109863596 -48.592985296410916 0 0 0 0 -29.307058675004072 9.3379327476104663 0 9.3379327476104663 -93.63659218129942 0 0 0 0 -24.807784466372439 26.083281922668448 0 26.083281922668448 -51.136772776795624 0 0 0 0 -28.237639175058462 71.616896827664277 0 71.616896827664277 -87.866970006397878 0 0 0 0 -43.523926826068504 29.065844499230479 0 29.065844499230479 -8.3408549698087882 0 0 0 0 -0.63332335731087075 -0.30570580952668536 0 -0.30570580952668536 -0.26726304288487768 0 0 0 0 -65.904833344436327 52.636736541567188 0 52.636736541567188 -10.979965068763704 0 0 0 0 -40.683605963410258 65.877452839315083 0 65.877452839315083 -61.30388281013802 0 0 0 0 -39.887544302009807 55.993921854582027 0 55.993921854582027 -37.153504556918051 0 0 0 0 -13.034859326208363 38.897810899294655 0 38.897810899294655 -38.638440795975839 0 0 0 0 -13.886454440257353 48.342462657860324 0 48.342462657860324 -75.767763650243069 0 0 0 0 -5.159270441099693 66.782462207111166 0 66.782462207111166 -73.787008275256994 0 0 0 0 -29.244314190747772 73.965752235279069 0 73.965752235279069 -57.96342918037044 0 0 0 0 -13.568929281623411 80.171065932583588 0 80.171065932583588 -84.823323872671608 0 0 0 0 -43.937599441387377 93.137078520812338 0 93.137078520812338 -80.440769386381362 0 0 0 0 -76.921309136216067 84.568788724718615 0 84.568788724718615 -35.164350409057647 0 0 0 0 -71.700523027766991 73.244298611597515 0 73.244298611597515 -33.974503728302807 0 0 0 0 -54.388867318114194 38.471935514236975 0 38.471935514236975 -4.8908431793086038 0 0 0 0 -96.499143798248951 69.312411250173682 0 69.312411250173682 -7.2311544443693947 0 0 0 0 -64.321573931609009 28.438111766169641 0 28.438111766169641 4.768885373538069 0 0 0 0 -167.53426461751928 76.516019099861296 0 76.516019099861296 -5.9922476213860136 0 0 0 0 30.564709073867618 26.796436924944828 0 26.796436924944828 -59.696226999785722 0 0 0 0 -93.431061250140601 -25.275957678465602 0 -25.275957678465602 35.325004769045336 0 0 0 0 30.819125509460889 11.619906171646562 0 11.619906171646562 -28.769559494325222 0 0 0 0 -139.76728327309866 3.2120697041245876 0 3.2120697041245876 45.723171062430083 0 0 0 0 46.529249367701688 9.8583681389086451 0 9.8583681389086451 -7.4072478626403608 0 0 0 0 -0.04606859690155591 1.2127646635221963 0 1.2127646635221963 0.76221336698586839 0 0 0 0 0.29521167016444877 0.78647292295640692 0 0.78647292295640692 -8.5637336999781013 0 0 0 0 -25.218994648643132 58.25332994375276 0 58.25332994375276 -13.306857869225496 0 0 0 0 -54.757260335068338 55.801491601312591 0 55.801491601312591 -5.5248004127706736 0 0 0 0 -59.926920298813968 39.285946362144387 0 39.285946362144387 -14.662920798342384 0 0 0 0 -4.5721549841717959 -29.268668482585781 0 -29.268668482585781 -39.096127189120125 0 0 0 0 9.1172069490823304 9.9224808013495931 0 9.9224808013495931 -22.564388828383926 0 0 0 0 5.5709341201695537 -9.1745668027688225 0 -9.1745668027688225 36.651065895519423 0 0 0 0 11.575373395934953 -9.4144746495321669 0 -9.4144746495321669 -25.541147042178636 0 0 0 0 19.674224262909277 26.341501592356508 0 26.341501592356508 15.486479225548464 0 0 0 0 17.421210823321601 3.6399847553866493 0 3.6399847553866493 -1.1774279050605401 0 0 0 0 9.6818729181656806 14.65273716034153 0 14.65273716034153 -1.0507623395170356 0 0 0 0 8.7753871406571449 1.6771381128091889 0 1.6771381128091889 -1.4399572685870226 0 0 0 0 -0.039943651277237285 12.84611164407761 0 12.84611164407761 -5.5311309324461035 0 0 0 0 5.1224835582758779 7.630884666118618 0 7.630884666118618 -0.63156321156384365 0 0 0 0 0.016311993945291373 10.190188584679163 0 10.190188584679163 1.3219735009747637 0 0 0 0 5.6424946801976397 4.6599544358967933 0 4.6599544358967933 -1.2003990452249127 0 0 0 0 6.135234621873531 6.7707909531441146 0 6.7707909531441146 1.8277727719578252 0 0 0 0 -38.155922250062872 25.025800671494835 0 25.025800671494835 -8.490681354114713 0 0 0 0 65.213139636425808 -20.154988114324624 0 -20.154988114324624 -52.542328764540343 0 0 0 0 0.44236185551235141 -0.43153904466009041 0 -0.43153904466009041 -2.7391802788178126 0 0 0 0 0.20330096198281911 1.2172830793743223 0 1.2172830793743223 -7.4737376326386951 0 0 0 0 14.57328691065015 5.9273803172663975 0 5.9273803172663975 -2.703437988900987 0 0 0 0 15.657650945300269 -3.1530759545767069 0 -3.1530759545767069 -6.0412009155697888 0 0 0 0 -0.016662646520050069 -0.0036842264113146617 0 -0.0036842264113146617 -1.539405287984934 0 0 0 0 4.7423128204243419 3.3708738917557639 0 3.3708738917557639 0.82317332316779357 0 0 0 0 20.826699958435469 5.7752398158509095 0 5.7752398158509095 6.1801515825081879 0 0 0 0 29.047462024548565 -7.9888618355125232 0 -7.9888618355125232 -5.3734661140624667 0 0 0 0 50.900876188936365 -34.24393582747598 0 -34.24393582747598 -5.220932667706478 0 0 0 0 -3.1754879262739735 20.453435545430239 0 20.453435545430239 -26.967041870002504 0 0 0 0 0.75044827106216871 -11.18329395881301 0 -11.18329395881301 -1.2206448324404846 0 0 0 0 -1.1314584598398465 -5.4790037298602243 0 -5.4790037298602243 -34.92884372244589 0 0 0 0 28.590763628590928 -27.672695544238479 0 -27.672695544238479 -27.478793537142337 0 0 0 0 12.183208301958814 -52.201111351421787 0 -52.201111351421787 -36.599379011722704 0 0 0 0 0.24792366890199175 -0.39992778487756997 0 -0.39992778487756997 -9.6562207489738512 0 0 0 0 0.11919072285104815 0.070939515467252079 0 0.070939515467252079 -0.29089999100662567 0 0 0 0 -0.06353797038801931 0.017274808000154879 0 0.017274808000154879 -0.13986809539930078 0 0 0 0 -57.117857618749554 -66.556589602045221 0 -66.556589602045221 -2.3096683821568149 0 0 0 0 25.513953930428229 -0.4217024062809287 0 -0.4217024062809287 -19.169981075756368 0 0 0 0 -29.202274804495389 22.126025349293741 0 22.126025349293741 1.2656294070969238 0 0 0 0 35.383698555269596 -24.17914957389462 0 -24.17914957389462 -10.244584456508164 0 0 0 0 0.20511340241826581 -0.32482316082384788 0 -0.32482316082384788 -11.200198060335296 0 0 0 0 0.00015518892163835993 5.6958261048630447 0 5.6958261048630447 5.7680063055522623 0 0 0 0 3.0875737393656078 5.0983861835320567 0 5.0983861835320567 2.0671491954710746 0 0 0 0 -0.090302901087377263 0.23148735992907632 0 0.23148735992907632 -0.40584035583728095 0 0 0 0 3.9538073312485711 3.2507975117723618 0 3.2507975117723618 0.96630374360847782 0 0 0 0 -0.0047169713612333908 -9.8074269372618801 0 -9.8074269372618801 -33.532877309238756 0 0 0 0 -4.8841039184353505 -5.8449572765348421 0 -5.8449572765348421 -20.962758375404519 0 0 0 0 -1.176876509169869 -22.052521288767821 0 -22.052521288767821 -53.393203791138149 0 0 0 0 0.00045735291871154549 0.084642126505254822 0 0.084642126505254822 -0.14147413272334575 0 0 0 0 -0.031342149887659279 3.0691411637442712 0 3.0691411637442712 -4.9786292808639701 0 0 0 0 11.070638934882608 1.9783457989624367 0 1.9783457989624367 -39.315785789479378 0 0 0 0 -1.2152197197684131 3.9290044112149189 0 3.9290044112149189 -12.357412281142388 0 0 0 0 0.77849894438292688 11.094148166092054 0 11.094148166092054 -10.187830045146256 0 0 0 0 2.0740558102612567 6.3285229219272878 0 6.3285229219272878 -26.050099092069104 0 0 0 0 -4.2651777432877367 5.3633228345424868 0 5.3633228345424868 -3.2392830649787356 0 0 0 0 1.8816777423144915 -3.6208194201253718 0 -3.6208194201253718 -2.2409180135582574 0 0 0 0 0.094296863774321185 0.081049223990653729 0 0.081049223990653729 0.20709644290346674 0 0 0 0 8.3564120408145257 0.50809185073921981 0 0.50809185073921981 -6.1651856753551328 0 0 0 0 10.713022590836623 -12.266195923639202 0 -12.266195923639202 -5.5749474936365004 0 0 0 0 -1.1123291256606151 6.7141118711815579 0 6.7141118711815579 -9.9082888345824358 0 0 0 0 2.6338526092960279 0.18594674480527829 0 0.18594674480527829 -10.056585706961414 0 0 0 0 1.1375053643461861 -0.52094085914905008 0 -0.52094085914905008 -7.4400186362604472 0 0 0 0 7.3288026150268308 4.366817929237186 0 4.366817929237186 -13.574861419385343 0 0 0 0 0.40626074614728247 0.40637146598675145 0 0.40637146598675145 -2.3166479138223046 0 0 0 0 0.41132191266548002 -0.885565505498906 0 -0.885565505498906 -11.707071784417693 0 0 0 0 0.54030738181708204 -2.5044886885937387 0 -2.5044886885937387 -3.4271854704540257 0 0 0 0 0.54115972477003282 -8.0892407872540844 0 -8.0892407872540844 -0.87384713888059196 0 0 0 0 1.7028726975509016 -5.0328954437736684 0 -5.0328954437736684 -6.6667435792805918 0 0 0 0 1.3638555068779965 -7.3123671884577561 0 -7.3123671884577561 -5.5600026788511059 0 0 0 0 0.074930370860954554 -12.028961347881705 0 -12.028961347881705 -3.8727598549021423 0 0 0 0 -2.3041664651875067 -8.5676057510700048 0 -8.5676057510700048 -2.3638896710072004 0 0 0 0 -4.9954061085060175 -9.3286736408281286 0 -9.3286736408281286 -0.94299987647627859 0 0 0 0 -3.9135900598359719 -5.0585176893075641 0 -5.0585176893075641 -0.62617197463987395 0 0 0 0 -5.2783038786888881 -4.515919597393804 0 -4.515919597393804 0.96690525096255442 0 0 0 0 -0.43590825424809054 -4.4966722176995972 0 -4.4966722176995972 0.51537678783734009 0 0 0 0 -1.9582738129222506 -3.3011198844496903 0 -3.3011198844496903 0.816099563266107 0 0 0 0 -0.39808012932587644 -1.8826136363222759 0 -1.8826136363222759 2.0146687719789043 0 0 0 0 -0.037428739917899634 -5.0406619548934941 0 -5.0406619548934941 -2.7265000049064838 0 0 0 0 -1.6810864045606877 -1.5250807984948551 0 -1.5250807984948551 10.967560412984312 0 0 0 0 1.2090583707857832 0.59850576604003436 0 0.59850576604003436 -4.0774533255662391 0 0 0 0 -0.21821204612217571 -0.30294639363819442 0 -0.30294639363819442 5.1318834382473142 0 0 0 0 0.040930955939315089 -0.11707698032243385 0 -0.11707698032243385 0.045895091895260975 0 0 0 0 5.4829089601121268 -6.5487627043239627 0 -6.5487627043239627 5.104914472103701 0 0 0 0 1.1816045639190236 -1.1949147636332782 0 -1.1949147636332782 -0.51235572101904836 0 0 0 0 -2.1882869842702348 -4.3430016635902575 0 -4.3430016635902575 4.8229766939552974 0 0 0 0 1.9841584987411185 -1.4988110108442925 0 -1.4988110108442925 -1.8939606901003572 0 0 0 0 5.5936774959972144 -10.413845327568197 0 -10.413845327568197 4.1312152619866538 0 0 0 0 10.82209779103518 5.4387397195846461 0 5.4387397195846461 -6.8092206926630752 0 0 0 0 0.24972001176386485 -0.17493431291619987 0 -0.17493431291619987 -2.2014098713561978 0 0 0 0 2.9159327379493796 1.1794329694203043 0 1.1794329694203043 -3.7823720719575249 0 0 0 0 -3.2805194083865672 3.9061117436267523 0 3.9061117436267523 -0.95658440157512814 0 0 0 0 1.4573013430469359 1.3704515244253344 0 1.3704515244253344 -3.0227816338265256 0 0 0 0 -2.2822213259782416 1.9518749141880107 0 1.9518749141880107 -3.0537187345171333 0 0 0 0 -1.071886708339008 -1.0562886853358577 0 -1.0562886853358577 -1.9192644919876329 0 0 0 0 -1.9036285133960575 -1.0376540209490486 0 -1.0376540209490486 -0.42916098108753431 0 0 0 0 -5.2491806719999943 -2.4810336780774378 0 -2.4810336780774378 -2.2839980898784233 0 0 0 0 -8.0290223917302939 0.53465054598109418 0 0.53465054598109418 -5.394856344377331 0 0 0 0 -1.5115419929685459 -1.5207409423928766 0 -1.5207409423928766 -5.8640805051500138 0 0 0 0 -7.6893147132804529 -2.8758412015022259 0 -2.8758412015022259 -8.4493286184224417 0 0 0 0 -2.3323201303888084 1.4813012506401719 0 1.4813012506401719 -12.088225175633852 0 0 0 0 -0.083022116326217615 0.41179230300967973 0 0.41179230300967973 -0.54103834505655968 0 0 0 0 0.21844016158313612 1.2286763229023778 0 1.2286763229023778 -3.4219702488646533 0 0 0 0 0.95855464024543835 8.8631339020957967 0 8.8631339020957967 -8.2265218705579173 0 0 0 0 -2.7747702276191148 1.4871460421318261 0 1.4871460421318261 -2.9702459859599912 0 0 0 0 -3.0139463786053136 1.6361195450098194 0 1.6361195450098194 -3.4100977180423797 0 0 0 0 -19.859071121632837 34.680412387511751 0 34.680412387511751 -118.30605934846972 0 0 0 0 -0.95582777415599884 0.42226213264197554 0 0.42226213264197554 -1.3922460378353581 0 0 0 0 -19.562213407632317 30.842919840118611 0 30.842919840118611 -102.54721074471308 0 0 0 0 -3.9771342168368164 16.381720001762005 0 16.381720001762005 -107.35980907362591 0 0 0 0 -12.83591192011869 0.041125028192254831 0 0.041125028192254831 -7.8840461235555495 0 0 0 0 -0.24307857555199208 -0.19198283796385951 0 -0.19198283796385951 -0.45852672592197941 0 0 0 0 0.10335270514903527 35.605505336976421 0 35.605505336976421 -116.06967777082355 0 0 0 0 -15.287794368946876 3.5369812369090141 0 3.5369812369090141 -4.2827625001409615 0 0 0 0 -3.3401949789107448 -2.7717920170343859 0 -2.7717920170343859 -61.377172361272187 0 0 0 0 -25.580591799928413 -5.4749822385756488 0 -5.4749822385756488 -5.2350674846384209 0 0 0 0 -22.621039661040754 -21.624553936950178 0 -21.624553936950178 -23.052502042859487 0 0 0 0 -9.1522693080454474 3.3329508452893606 0 3.3329508452893606 -16.67031074089391 0 0 0 0 -5.8386476288781637 -20.329584013294152 0 -20.329584013294152 -9.0758087247754702 0 0 0 0 9.7551497914059837 -8.9774348478094907 0 -8.9774348478094907 -6.4253985070299677 0 0 0 0 -9.4630766899695118 -11.633239988022979 0 -11.633239988022979 -3.5697341251725447 0 0 0 0 -13.825085569914734 -5.6995025249361788 0 -5.6995025249361788 -0.65960359255518597 0 0 0 0 -15.105615926629334 -5.5384652275233748 0 -5.5384652275233748 -8.3046620542281744 0 0 0 0 31.537338665063317 -2.5065977214621853 0 -2.5065977214621853 -22.17129740602968 0 0 0 0 21.548924150128187 -12.487047557851383 0 -12.487047557851383 -13.466469324047466 0 0 0 0 -6.6440982833096314 2.9978977763821604 0 2.9978977763821604 -21.399705470859772 0 0 0 0 -1.6251379227196594 3.7213464742188762 0 3.7213464742188762 -9.9988898331275777 0 0 0 0 -3.4037129586163246 3.2399475760846599 0 3.2399475760846599 -9.6814803676538759 0 0 0 0 0.19763589581420682 1.1181443477885549 0 1.1181443477885549 -7.2815137637263883 0 0 0 0 1.5343475945988256 2.8131622800240432 0 2.8131622800240432 -8.4962560023437259 0 0 0 0 2.3319655222785514 2.377637487339598 0 2.377637487339598 -6.8569708031300252 0 0 0 0 0.23920843245928003 5.173040540323802 0 5.173040540323802 -5.1941325932886553 0 0 0 0 2.0768144736662801 2.0513533054227695 0 2.0513533054227695 -14.69498116689865 0 0 0 0 4.731878091239949 9.2551723299384321 0 9.2551723299384321 -23.613113665627679 0 0 0 0 1.5204354926811448 2.7349109184106055 0 2.7349109184106055 -6.6319995554098057 0 0 0 0 2.5285994583928186 1.7013811541147561 0 1.7013811541147561 -9.3653747541220582 0 0 0 0 1.3804862093527317 2.2084881476504519 0 2.2084881476504519 -10.975783389454772 0 0 0 0 5.7020061361290573 -10.369462081695019 0 -10.369462081695019 -24.022114099836472 0 0 0 0 2.9322387283432567 4.6002028510890085 0 4.6002028510890085 -3.791610290701275 0 0 0 0 -0.92158396026002265 3.4529474137088982 0 3.4529474137088982 -16.805960697058254 0 0 0 0 2.4329658027565984 2.618073332739641 0 2.618073332739641 -31.347229564798909 0 0 0 0 -2.5951468459724083 -1.254129304054004 0 -1.254129304054004 -29.984446211492468 0 0 0 0 -1.4290804226402543 -3.3106553640125185 0 -3.3106553640125185 -25.97481678373606 0 0 0 0 -2.9225743934232469 1.1050659669158449 0 1.1050659669158449 -34.254468336602258 0 0 0 0 0.34639395324011168 1.1244280374031099 0 1.1244280374031099 -2.0307821913291484 0 0 0 0 0.41387343843916824 9.4905210489423553 0 9.4905210489423553 -31.273188917408334 0 0 0 0 -6.0303564320520309 -11.235852618323406 0 -11.235852618323406 -45.604249726919079 0 0 0 0 -5.1335658973989666 2.9733847592974598 0 2.9733847592974598 -30.220073370114278 0 0 0 0 2.2443478607760881 4.1232661302415181 0 4.1232661302415181 -46.744836680274602 0 0 0 0 -18.254109412107027 -32.471679715707523 0 -32.471679715707523 -55.775109947455348 0 0 0 0 10.370926706706541 -59.187309056230333 0 -59.187309056230333 -37.618376005439899 0 0 0 0 -15.956348083510875 -46.763183715822379 0 -46.763183715822379 -87.830763765288793 0 0 0 0 10.850850891776645 1.9738825266194908 0 1.9738825266194908 -33.308994803435695 0 0 0 0 34.781634406576813 -23.207668284566353 0 -23.207668284566353 -33.949270366490964 0 0 0 0 0.55442737059485836 0.53872068584601251 0 0.53872068584601251 -1.989133449361322 0 0 0 0 22.849616885946119 25.992249293273289 0 25.992249293273289 -26.406228799101882 0 0 0 0 31.931770592714429 -2.0891756112168878 0 -2.0891756112168878 -48.570605176266781 0 0 0 0 30.84026240060922 -3.209398706828722 0 -3.209398706828722 -74.374612943645843 0 0 0 0 12.926693674363534 49.368771416648542 0 49.368771416648542 25.414966870332591 0 0 0 0 64.97646431599378 32.477124037596241 0 32.477124037596241 -37.612478632576767 0 0 0 0 -0.32631943567807031 7.10329331819604 0 7.10329331819604 -20.060814047201237 0 0 0 0 1.3022706517665483 4.7335588326527471 0 4.7335588326527471 -10.752688270361617 0 0 0 0 15.410658064003201 13.291248677718727 0 13.291248677718727 -22.499997942159638 0 0 0 0 -5.112068740052564 19.940845140742681 0 19.940845140742681 1.6754482274407607 0 0 0 0 -0.067331698809194762 6.2006394385681922 0 6.2006394385681922 -19.15129989775178 0 0 0 0 1.4870718939948802 27.601125520368853 0 27.601125520368853 -2.8972493361567615 0 0 0 0 0.2000620732050864 2.6565221746265069 0 2.6565221746265069 0.2509534456502735 0 0 0 0 0.58922396184719616 20.992097857490922 0 20.992097857490922 -9.503554481632051 0 0 0 0 -8.2756502380530605 10.566605077472781 0 10.566605077472781 -12.571084743170474 0 0 0 0 -1.2437583094120441 12.800344875868465 0 12.800344875868465 -34.535812210073772 0 0 0 0 -20.940051793629664 14.249046822251955 0 14.249046822251955 -11.649810398360572 0 0 0 0 0.75436605706665705 1.1336047368118787 0 1.1336047368118787 -1.779277476691471 0 0 0 0 -12.177826375707127 1.7985533919500014 0 1.7985533919500014 -1.3438769976323499 0 0 0 0 -1.3475166436844335 -0.38206305863938583 0 -0.38206305863938583 1.0009363549139114 0 0 0 0 -21.218144209925413 17.850504900914679 0 17.850504900914679 -20.968059873129917 0 0 0 0 -5.8554287221019194 3.5682378165088728 0 3.5682378165088728 -1.8462033273215024 0 0 0 0 -4.4692749405463132 2.5605373715348705 0 2.5605373715348705 -2.2090624368854961 0 0 0 0 -3.9718331341167854 1.9711560473208294 0 1.9711560473208294 -3.4927475993191686 0 0 0 0 -3.4131789254962541 8.5569558215653387 0 8.5569558215653387 -4.9349004636418385 0 0 0 0 -0.3909837264510545 -1.0500602863285342 0 -1.0500602863285342 -2.665085209277978 0 0 0 0 3.6384869977913183 -18.565429540115801 0 -18.565429540115801 11.28740842275247 0 0 0 0 41.737997015949418 4.0422837409382169 0 4.0422837409382169 -36.389638327497778 0 0 0 0 -0.71756965012423279 -2.070992573452016 0 -2.070992573452016 5.1762324487085154 0 0 0 0 -4.91328554023778 2.6286098312717145 0 2.6286098312717145 0.077701921240064697 0 0 0 0 -3.7899083913884084 -0.29228956081036067 0 -0.29228956081036067 1.7563045857751927 0 0 0 0 -25.871353452908124 23.105333952664409 0 23.105333952664409 -1.8991534011378235 0 0 0 0 -23.81525087246996 19.480660795971403 0 19.480660795971403 3.449640072569764 0 0 0 0 -18.802519142232541 17.204559410533193 0 17.204559410533193 3.7478350776380012 0 0 0 0 -24.755400120176688 16.104542211134877 0 16.104542211134877 -11.822178267590516 0 0 0 0 -14.95027872374294 12.126121489469597 0 12.126121489469597 -21.240436825506663 0 0 0 0 -20.758926897097354 14.758791530781764 0 14.758791530781764 -13.703219957644706 0 0 0 0 -18.754665864429398 20.475823183117484 0 20.475823183117484 -15.815999711881204 0 0 0 0 -20.657558037224817 18.288102652208863 0 18.288102652208863 -29.510850847492293 0 0 0 0 -25.251707186322164 11.090347507261583 0 11.090347507261583 -34.643424304832934 0 0 0 0 -0.46311123346356453 -2.6121972202831873 0 -2.6121972202831873 -0.71114265534154342 0 0 0 0 -0.42996308134881778 -1.1315676295107027 0 -1.1315676295107027 -2.7382794797269114 0 0 0 0 -65.298269388271365 20.133203538915041 0 20.133203538915041 2.8862875580125547 0 0 0 0 -46.690264475582808 6.1628820640521553 0 6.1628820640521553 -33.181435239776761 0 0 0 0 -96.246827584336643 50.1063269033898 0 50.1063269033898 -54.842831484449562 0 0 0 0 -14.243135933556914 50.844600760291542 0 50.844600760291542 -100.30393141147982 0 0 0 0 -0.06726138305797047 -0.40404000730885914 0 -0.40404000730885914 -0.43076251195162474 0 0 0 0 -6.4945477367609783 8.1511039980837268 0 8.1511039980837268 -42.858700231556213 0 0 0 0 -12.551518909566767 5.9978247473976012 0 5.9978247473976012 -28.893016262972196 0 0 0 0 -22.145519143746242 12.607631463167309 0 12.607631463167309 -26.444081326411947 0 0 0 0 -14.815191561604479 10.684137568095736 0 10.684137568095736 -28.896851973660205 0 0 0 0 -23.207561978291778 9.2269786713543454 0 9.2269786713543454 -20.477523175448368 0 0 0 0 -22.92376031501226 13.303934943017339 0 13.303934943017339 -26.668364765377646 0 0 0 0 -17.29027606562704 7.8849466162669728 0 7.8849466162669728 -22.099191133860131 0 0 0 0 -24.372772444220573 8.2411088122914862 0 8.2411088122914862 -20.081734860329334 0 0 0 0 -29.506727417918682 12.622149887411638 0 12.622149887411638 -23.815824660082399 0 0 0 0 -28.133931395296713 9.0843763373432012 0 9.0843763373432012 -18.44928872962987 0 0 0 0 -22.842793767859803 6.1675123245981922 0 6.1675123245981922 -16.876540233395417 0 0 0 0 -25.262549031441722 5.8893145705878851 0 5.8893145705878851 -18.50531214095372 0 0 0 0 -28.668994383679092 6.9392411865285339 0 6.9392411865285339 -21.7779020455487 0 0 0 0 -31.380071054515724 6.8287639807372216 0 6.8287639807372216 -18.591659668513785 0 0 0 0 -39.960499729475487 8.2878443569104547 0 8.2878443569104547 -21.652006603526388 0 0 0 0 -33.213356906558147 10.652738845630438 0 10.652738845630438 -27.08170231851318 0 0 0 0 -29.438079600968194 11.730969767526858 0 11.730969767526858 -24.262270710740495 0 0 0 0 -24.159792872124854 16.591198520089165 0 16.591198520089165 -31.433832325541516 0 0 0 0 -29.11869535236292 18.763885059096538 0 18.763885059096538 -32.344153348547934 0 0 0 0 -35.72370178363235 15.900681119489491 0 15.900681119489491 -26.993752919873714 0 0 0 0 -2.9543651810845404 18.053291908608799 0 18.053291908608799 -58.462804385473646 0 0 0 0 -28.929486559936095 17.977572982595518 0 17.977572982595518 -35.075828241770978 0 0 0 0 -40.158629855007348 20.277886611070699 0 20.277886611070699 -35.509143309477622 0 0 0 0 -13.147524183681981 43.517782439888379 0 43.517782439888379 -89.642660422996414 0 0 0 0 -37.119888745104618 16.489494779641973 0 16.489494779641973 -40.78233811181758 0 0 0 0 -47.964248578627121 18.624641120558351 0 18.624641120558351 -30.994342534420866 0 0 0 0 -43.326805924178643 2.4291708966363785 0 2.4291708966363785 -27.951715499177226 0 0 0 0 -27.219897534614574 8.2610421175747888 0 8.2610421175747888 -35.895653442284129 0 0 0 0 -21.864027786761653 4.2576904909435598 0 4.2576904909435598 -26.288800732655545 0 0 0 0 -27.401307890236694 8.9310714553416943 0 8.9310714553416943 -23.35068698048326 0 0 0 0 -24.505049563194689 4.3850920829491713 0 4.3850920829491713 -16.114993153665637 0 0 0 0 -24.402710419479263 4.1359935451073397 0 4.1359935451073397 -22.839397752968125 0 0 0 0 -29.512055314035933 5.0963324323895449 0 5.0963324323895449 -21.767358560137836 0 0 0 0 -28.941338222984086 5.5966938071042023 0 5.5966938071042023 -27.867124422758025 0 0 0 0 -30.477207937441335 3.5543711734674162 0 3.5543711734674162 -17.770374341168008 0 0 0 0 -23.31502372713112 4.3641602080524535 0 4.3641602080524535 -17.860915337053939 0 0 0 0 -27.576446726417089 4.8129025976393223 0 4.8129025976393223 -14.841603824880622 0 0 0 0 -22.466204942906302 0.67010501755191854 0 0.67010501755191854 -17.115869443452084 0 0 0 0 -19.501132600192705 3.8723269742849311 0 3.8723269742849311 -13.888337557057184 0 0 0 0 -15.321809367335845 1.3294905887405548 0 1.3294905887405548 -15.327859673225305 0 0 0 0 -15.84154355246892 7.4478848721698796 0 7.4478848721698796 -16.042000761114195 0 0 0 0 -18.754585283843653 5.7916370363712986 0 5.7916370363712986 -15.98917344335041 0 0 0 0 -19.191228799120381 7.5061592462088811 0 7.5061592462088811 -22.664025629288062 0 0 0 0 -1.9417544394366342 -1.22010128311773 0 -1.22010128311773 -2.0273413127310191 0 0 0 0 -3.7880647601197666 1.3924091625382102 0 1.3924091625382102 -4.0802718235655782 0 0 0 0 0.50119407253385218 0.33358499723558177 0 0.33358499723558177 -4.0636993489769422 0 0 0 0 -2.4174519015336955 -0.34773540666255265 0 -0.34773540666255265 -3.0762757688882481 0 0 0 0 -1.6105108156870083 -1.3430369831249476 0 -1.3430369831249476 -0.078159828235277728 0 0 0 0 -2.6952431808791744 -0.31007442265110186 0 -0.31007442265110186 -1.9209715355295955 0 0 0 0 -6.1670961861768774 2.769067897239097 0 2.769067897239097 -24.736315919135222 0 0 0 0 -6.9718406583633623 5.4433743644378865 0 5.4433743644378865 -31.476980954321832 0 0 0 0 0.4179049716881309 -2.4020692192994773 0 -2.4020692192994773 -26.084717373544891 0 0 0 0 -8.7497895186040751 1.7417625107664207 0 1.7417625107664207 -22.281250726060307 0 0 0 0 -9.6669362732868649 6.2373093278871465 0 6.2373093278871465 -25.132781085817442 0 0 0 0 -2.7926173450887291 -0.4012087815481209 0 -0.4012087815481209 -20.16801051290085 0 0 0 0 0.58121980551476016 -0.31041634898326631 0 -0.31041634898326631 -12.724718520245585 0 0 0 0 -0.55686507189943768 -0.83806200068147518 0 -0.83806200068147518 -23.889913953588803 0 0 0 0 6.5980513952707724 5.5484546067718838 0 5.5484546067718838 -30.190047190675614 0 0 0 0 -1.5620381289090801 -0.14499793050799781 0 -0.14499793050799781 -23.41429269040583 0 0 0 0 3.0448553797510396 3.4951039316217938 0 3.4951039316217938 -19.271311067588201 0 0 0 0 -1.578397404510298 0.16578459127800826 0 0.16578459127800826 -24.562293605614968 0 0 0 0 -3.5033770669853084 5.6544480719849162 0 5.6544480719849162 -23.288850678731251 0 0 0 0 -10.8839444759451 2.840897632403653 0 2.840897632403653 -22.416750336481186 0 0 0 0 -16.689659913792866 4.8286202482375984 0 4.8286202482375984 -19.056435701744249 0 0 0 0 -14.151914277788364 1.584622822239794 0 1.584622822239794 -18.261845792196482 0 0 0 0 -17.087058570199133 1.7401241830632443 0 1.7401241830632443 -18.204190742053754 0 0 0 0 -6.8122443076013042 -2.5293705031369313 0 -2.5293705031369313 -19.987839403074304 0 0 0 0 -9.9069358131423542 0.43506123570591626 0 0.43506123570591626 -20.31602331089266 0 0 0 0 3.4684329367345876 3.0556657418757478 0 3.0556657418757478 -16.39756046478287 0 0 0 0 -12.432080526928985 -0.95790006592585542 0 -0.95790006592585542 -18.521723605693296 0 0 0 0 -12.374709021769917 -0.20704816533735482 0 -0.20704816533735482 -18.760905138025009 0 0 0 0 -17.364824800786209 -1.1876957175636562 0 -1.1876957175636562 -18.796096799038651 0 0 0 0 -17.44714283668975 -1.2945447883942336 0 -1.2945447883942336 -17.616157317762827 0 0 0 0 -9.4248514733294542 -2.6302437999916037 0 -2.6302437999916037 -22.560443180215316 0 0 0 0 -14.696311964294409 -7.9906163754072281 0 -7.9906163754072281 -23.473182430449469 0 0 0 0 -22.544561709086111 -1.5259873856119839 0 -1.5259873856119839 -17.501193897383473 0 0 0 0 -3.2285159204092793 -9.2240892031898056 0 -9.2240892031898056 -32.077108552994559 0 0 0 0 -3.7082384445394991 0.10247602637123698 0 0.10247602637123698 -3.8070019345558128 0 0 0 0 -13.646450065578961 -6.8154904156726843 0 -6.8154904156726843 -17.769464707277621 0 0 0 0 -16.736954127953823 -0.30152911737140187 0 -0.30152911737140187 -10.878176826323624 0 0 0 0 -16.874854574411529 0.5333613947076401 0 0.5333613947076401 -13.000671128391787 0 0 0 0 -18.071588977287888 0.18282083238327118 0 0.18282083238327118 -10.859707305526626 0 0 0 0 -14.860418697874138 1.9431790660449906 0 1.9431790660449906 -12.72720332189283 0 0 0 0 -18.306772479638312 0.066592648280675348 0 0.066592648280675348 -13.042966232233312 0 0 0 0 -18.076422189306385 0.097618552372153999 0 0.097618552372153999 -12.237260259416416 0 0 0 0 -22.585651047147621 1.8935436672491051 0 1.8935436672491051 -12.163347955065547 0 0 0 0 -22.781190174297194 3.6160114927776874 0 3.6160114927776874 -13.755482813885919 0 0 0 0 -23.700799532532983 2.7997333001260358 0 2.7997333001260358 -14.476810091270409 0 0 0 0 -21.746120663538022 1.4174525628336596 0 1.4174525628336596 -12.759053580381874 0 0 0 0 -21.226992286728091 1.9571374404457629 0 1.9571374404457629 -12.246457222267509 0 0 0 0 -19.730277323677001 0.075492860358735925 0 0.075492860358735925 -11.753013282373331 0 0 0 0 -21.786302115670424 2.1332888424410612 0 2.1332888424410612 -12.941342746700684 0 0 0 0 -21.819603017477903 2.415681483239382 0 2.415681483239382 -13.998846146459755 0 0 0 0 -21.657952365675101 2.0698712362257083 0 2.0698712362257083 -13.309600780419032 0 0 0 0 -23.43048535051912 3.7835896105927418 0 3.7835896105927418 -13.801385201176345 0 0 0 0 -25.875309544641368 6.3033116689600206 0 6.3033116689600206 -15.578647585468389 0 0 0 0 -22.458090926599652 3.7964177929600282 0 3.7964177929600282 -14.347867256006339 0 0 0 0 -22.814735538344621 5.8147318794466258 0 5.8147318794466258 -17.073250477629244 0 0 0 0 -18.272229031249481 5.8622468905041387 0 5.8622468905041387 -18.291799308070495 0 0 0 0 -18.293745673967805 6.0249328641118609 0 6.0249328641118609 -19.511583764699935 0 0 0 0 -20.797434595060622 2.9395198903985147 0 2.9395198903985147 -15.998383524304018 0 0 0 0 -17.395101859350689 1.5085234197543969 0 1.5085234197543969 -15.966155942217938 0 0 0 0 -19.209656306343277 3.6313360162919253 0 3.6313360162919253 -15.752729296223038 0 0 0 0 -21.029668809057512 0.58460036573865182 0 0.58460036573865182 -16.200432281995461 0 0 0 0 -20.674723120245744 1.1553972749106833 0 1.1553972749106833 -15.48385199392942 0 0 0 0 -21.972372914917287 -0.88538399886010666 0 -0.88538399886010666 -16.435100400317879 0 0 0 0 -22.744437834980999 0.028799014059131878 0 0.028799014059131878 -17.191135483154767 0 0 0 0 -21.345698410267687 -1.6811559062214201 0 -1.6811559062214201 -21.54579450203255 0 0 0 0 -20.607010282743431 -0.41546760210462708 0 -0.41546760210462708 -18.120878714822084 0 0 0 0 -20.829140753964566 0.069127327572459762 0 0.069127327572459762 -15.187126273651756 0 0 0 0 -21.392163931738196 0.54922224750805526 0 0.54922224750805526 -19.101547195151397 0 0 0 0 -21.247645568821213 1.5591751970125642 0 1.5591751970125642 -14.20076350707086 0 0 0 0 -21.56047036583368 0.98338061210779415 0 0.98338061210779415 -14.344474234137579 0 0 0 0 -19.873467130276822 0.21591688833154876 0 0.21591688833154876 -12.924759076402591 0 0 0 0 -19.628143665833932 0.7654884111519209 0 0.7654884111519209 -12.076677935906446 0 0 0 0 -19.499429785658776 -0.92854822978551965 0 -0.92854822978551965 -14.448322719298673 0 0 0 0 -18.798895802754942 -2.2679901147914734 0 -2.2679901147914734 -14.54274510587868 0 0 0 0 -19.487349398096693 0.3244613127169087 0 0.3244613127169087 -13.898945122898567 0 0 0 0 -13.822523250403947 -2.7289539203480331 0 -2.7289539203480331 -14.533777168933966 0 0 0 0 -16.59558637998299 0.061181880773403918 0 0.061181880773403918 -12.056780211720707 0 0 0 0 -16.906449888366751 -1.0512304454730383 0 -1.0512304454730383 -13.574118472068221 0 0 0 0 -18.135150697049085 -7.2476896651322704 0 -7.2476896651322704 -19.051369779289303 0 0 0 0 -19.846422026045047 -4.724333461623246 0 -4.724333461623246 -13.581633836363665 0 0 0 0 -15.745759753807533 -0.49765464424774564 0 -0.49765464424774564 -15.761024983707557 0 0 0 0 -18.729987588208928 -2.2133435001692305 0 -2.2133435001692305 -17.969202690655948 0 0 0 0 -20.477722743468348 -7.5301862011390313 0 -7.5301862011390313 -21.736678920981717 0 0 0 0 -24.088573138664742 -7.2766151188648678 0 -7.2766151188648678 -19.275100404400064 0 0 0 0 -20.8471095224686 -2.8606153022967646 0 -2.8606153022967646 -16.69018596429828 0 0 0 0 -21.783133808797743 -5.1300405503420734 0 -5.1300405503420734 -21.444565681837503 0 0 0 0 -19.695593982216906 -7.4316415394174555 0 -7.4316415394174555 -36.232235234546806 0 0 0 0 -22.102024334677481 -4.0793058018150532 0 -4.0793058018150532 -23.572486873502839 0 0 0 0 -23.429931537228185 -0.56997181090309823 0 -0.56997181090309823 -22.092481727881705 0 0 0 0 -22.810227998997107 -7.4534930245940814 0 -7.4534930245940814 -28.853216503908016 0 0 0 0 -27.987798127307087 -11.213650781762226 0 -11.213650781762226 -22.452409247373367 0 0 0 0 -28.646319673012727 -15.160527576280913 0 -15.160527576280913 -27.713982621216701 0 0 0 0 2.2262415919108123 3.4204162898663544 0 3.4204162898663544 -15.223375177205876 0 0 0 0 -26.621007647074748 -20.252600054535947 0 -20.252600054535947 -25.468789894080913 0 0 0 0 -15.867430103737433 -5.9641360435409752 0 -5.9641360435409752 -13.180669166613825 0 0 0 0 -25.102844153615251 -14.790196520301095 0 -14.790196520301095 -8.0241133417617334 0 0 0 0 -6.6343648852327988 -7.411810232963262 0 -7.411810232963262 -18.51036421020035 0 0 0 0 -1.4714824012971803 -10.853280830403151 0 -10.853280830403151 -32.440122488475936 0 0 0 0 5.9068367613930377 1.5976464264397237 0 1.5976464264397237 -16.591124794717871 0 0 0 0 -15.496638635396607 -12.763685212992641 0 -12.763685212992641 -19.934473476240782 0 0 0 0 -6.9262688734734184 -0.3243838323151067 0 -0.3243838323151067 -21.544375732251865 0 0 0 0 -30.401730407307696 -12.368499281462391 0 -12.368499281462391 -31.564412575665301 0 0 0 0 1.0787774860119854 3.3666652950439779 0 3.3666652950439779 -16.319393356427319 0 0 0 0 -20.889501208908314 -0.29486494430670973 0 -0.29486494430670973 -32.213282997986425 0 0 0 0 -31.346737099848724 -8.8230990673228007 0 -8.8230990673228007 -19.608074108787605 0 0 0 0 0.055927717694101098 -0.9515598583611462 0 -0.9515598583611462 -4.8051445225960912 0 0 0 0 -0.21021966307193907 -1.5111128898543029 0 -1.5111128898543029 -21.637845337087867 0 0 0 0 -2.7300410173349974 -7.555783338312267 0 -7.555783338312267 -12.179111421832204 0 0 0 0 0.33003000814594952 0.12011026993434637 0 0.12011026993434637 -0.73076477854038213 0 0 0 0 2.0209465153004658 3.2943621358799646 0 3.2943621358799646 2.1353647914223757 0 0 0 0 -3.5056771438840997 8.3944148115053849 0 8.3944148115053849 -2.0924312194090362 0 0 0 0 0.40285626750642223 3.9907362577660024 0 3.9907362577660024 -8.3457731318790138 0 0 0 0 -0.0044558901430375997 0.11522608053174288 0 0.11522608053174288 -0.47100922995986627 0 0 0 0 0.59475751769855734 0.056597326496199862 0 0.056597326496199862 -2.8469242971143363 0 0 0 0 0.42452497168778791 1.0330415371781783 0 1.0330415371781783 -3.1830614672376214 0 0 0 0 0.07880137733954895 0.57312725224438354 0 0.57312725224438354 -4.1531253165003719 0 0 0 0 0.15573264447623991 1.6055748619161578 0 1.6055748619161578 -3.0514192327869774 0 0 0 0 -1.1889070480258397 5.0499037702202259 0 5.0499037702202259 -3.4318751995642742 0 0 0 0 -0.7783128985690837 3.1024741083219851 0 3.1024741083219851 -0.83469186244394677 0 0 0 0 0.071194015748005768 4.1379149656395384 0 4.1379149656395384 -12.606890953627044 0 0 0 0 -0.57958875764120954 -0.18135694131274249 0 -0.18135694131274249 -1.0830628068735422 0 0 0 0 0.19162156678203246 -0.1126543636810311 0 -0.1126543636810311 -10.621057618638588 0 0 0 0 -3.2002421059048629 0.33718531847364375 0 0.33718531847364375 -7.7898100830025214 0 0 0 0 -1.2853162496423822 3.0997998779570182 0 3.0997998779570182 -2.6428749427538314 0 0 0 0 -2.5819857595461144 3.8852255962838171 0 3.8852255962838171 -5.8570050379476015 0 0 0 0 -1.8534849798072628 0.125688891960408 0 0.125688891960408 -7.5170262140654813 0 0 0 0 0.39269365714449123 -0.14272387184792024 0 -0.14272387184792024 -17.455708733254141 0 0 0 0 -1.2277743724612264 0.80263554109433244 0 0.80263554109433244 -19.668628471536522 0 0 0 0 -2.4481170534298826 -2.4051762258391136 0 -2.4051762258391136 -11.66506296157695 0 0 0 0 -2.8418681729965556 -15.923057346779387 0 -15.923057346779387 -47.985577924689096 0 0 0 0 -2.5137267853957344 0.88747806229838666 0 0.88747806229838666 0.029645025134876768 0 0 0 0 -0.9953697454786834 -5.2155308250362395 0 -5.2155308250362395 -24.997251990056384 0 0 0 0 -12.16134573781288 -14.711014540735732 0 -14.711014540735732 -31.528601572304979 0 0 0 0 -4.0628981651886988 -2.233336191275157 0 -2.233336191275157 -16.554431007893982 0 0 0 0 -4.9330570683723636 -1.7578166732355385 0 -1.7578166732355385 -12.826029966505303 0 0 0 0 -4.4806557570649375 -25.424740012444204 0 -25.424740012444204 -68.415755078660368 0 0 0 0 -14.475405823272752 -11.697503482967022 0 -11.697503482967022 -39.691253039141884 0 0 0 0 -0.26174769811746046 -5.2806259481221787 0 -5.2806259481221787 -42.530041168237403 0 0 0 0 -3.3873712447980324 -4.2232008469873108 0 -4.2232008469873108 -28.841986521094896 0 0 0 0 -0.99120622251280111 -7.198309139266712 0 -7.198309139266712 -38.147149079365363 0 0 0 0 3.3879818770399197 -1.5834119730570819 0 -1.5834119730570819 -36.613874066533754 0 0 0 0 3.7951792821862682 -0.31081619381802739 0 -0.31081619381802739 -36.512492958247094 0 0 0 0 -2.6221762135187419 -4.3382301009282855 0 -4.3382301009282855 -42.82009525146168 0 0 0 0 -1.4862823011205819 -2.7424397710167341 0 -2.7424397710167341 -8.9462006545281838 0 0 0 0 -1.7690580834512302 -0.10024724126037299 0 -0.10024724126037299 -0.65864005290278271 0 0 0 0 0.53746152883479059 0.30401186195007668 0 0.30401186195007668 -5.2198490642739799 0 0 0 0 -3.4411014152345274 -1.6889535624093241 0 -1.6889535624093241 -5.5404787416637191 0 0 0 0 -3.7014061398635931 -2.3031578798090777 0 -2.3031578798090777 -13.204370384514732 0 0 0 0 5.3478484996453517 -1.5707813428116424 0 -1.5707813428116424 -60.378748621700197 0 0 0 0 -1.9521565080709493 0.43192417337475852 0 0.43192417337475852 -0.057959108206713239 0 0 0 0 -3.1029690053228478 -2.7305773826074073 0 -2.7305773826074073 -13.166650089960058 0 0 0 0 -4.3869825792662596 -2.6205535584085737 0 -2.6205535584085737 -12.211494904375286 0 0 0 0 -0.35066826308184318 3.8497893984958864 0 3.8497893984958864 -18.898532226573025 0 0 0 0 93.621345733341514 -34.890338306484409 0 -34.890338306484409 -75.037703779746153 0 0 0 0 1.0904759878644654 3.8923157116073526 0 3.8923157116073526 -12.956355271744087 0 0 0 0 0.012802735009794564 2.019722508120311 0 2.019722508120311 -6.7063466543600327 0 0 0 0 -72.537746356667412 -54.813165741182274 0 -54.813165741182274 45.028853420983069 0 0 0 0 85.764212439557468 68.477439428196249 0 68.477439428196249 -50.231970703067418 0 0 0 0 8.1854957179407393 10.567716247312092 0 10.567716247312092 -3.2893478263201814 0 0 0 0 0.77104439894083043 2.5838098934218579 0 2.5838098934218579 -2.9618969014882168 0 0 0 0 -0.4100413352301171 -0.19717217559946398 0 -0.19717217559946398 -1.3171319463309761 0 0 0 0 -0.82057366043409274 5.0393187848758316 0 5.0393187848758316 -6.8145780256138693 0 0 0 0 -0.50272663981650112 -1.7356102957728581 0 -1.7356102957728581 -6.6984586638191104 0 0 0 0 0.13817560103623272 2.5539412842112093 0 2.5539412842112093 -2.8677391973556325 0 0 0 0 -0.38852680298532505 2.6198161526745025 0 2.6198161526745025 -5.9081658975228493 0 0 0 0 0.091582552989341259 0.69025650438425323 0 0.69025650438425323 -1.5646072117479246 0 0 0 0 -0.30984410769406168 3.121716508175723 0 3.121716508175723 -6.0393334080654313 0 0 0 0 0.84818786916897082 1.9463608959284091 0 1.9463608959284091 -6.429746179633141 0 0 0 0 2.0502422662461868 -0.68994242971803033 0 -0.68994242971803033 -2.3048091083637701 0 0 0 0 0.86363109698813112 2.4728697577070982 0 2.4728697577070982 -5.0051791805516714 0 0 0 0 2.1707002915327394 1.0418404745842054 0 1.0418404745842054 -3.7819315208907938 0 0 0 0 0.53178759451929469 -0.43471148292607609 0 -0.43471148292607609 -0.54196814144701122 0 0 0 0 3.1181423272796565 1.2665804446887705 0 1.2665804446887705 -3.2689230716459861 0 0 0 0 0.79484059778802951 2.6516839886343941 0 2.6516839886343941 -4.8427262712798012 0 0 0 0 0.42817158251500587 2.7097062984648801 0 2.7097062984648801 -7.7655628467982751 0 0 0 0 1.6163251685844671 -3.4781080763211207 0 -3.4781080763211207 -7.9466857157267441 0 0 0 0 0.3747698004835911 3.5098260913400736 0 3.5098260913400736 -6.0905377152521396 0 0 0 0 -3.2339713527550771 -3.5234917581286709 0 -3.5234917581286709 -7.9322981217155757 0 0 0 0 -4.8540597514243018 3.6335488871136477 0 3.6335488871136477 -7.7021690257560067 0 0 0 0 1.8084697648741894 1.6211651008616172 0 1.6211651008616172 -14.337700471425705 0 0 0 0 1.528166832021725 -5.7074649571732152 0 -5.7074649571732152 -6.8771463525172294 0 0 0 0 1.6142439192327629 -1.0676452801289997 0 -1.0676452801289997 -4.7410695278813364 0 0 0 0 1.8380479719223475 -0.80735141638208496 0 -0.80735141638208496 -5.4271473223911499 0 0 0 0 1.6643216392344664 -2.3807007912408888 0 -2.3807007912408888 -5.3360686202019103 0 0 0 0 18.165277100334606 -17.451254555735431 0 -17.451254555735431 25.937071552916677 0 0 0 0 4.4742800776998592 5.8518996114198671 0 5.8518996114198671 -8.3838082779528804 0 0 0 0 4.6446221350997803 -2.3158390515063729 0 -2.3158390515063729 9.6811015926159598 0 0 0 0 14.528021594823713 -5.3155553170327039 0 -5.3155553170327039 -12.549991488920568 0 0 0 0 34.025342291495448 -15.634931275646323 0 -15.634931275646323 -7.3960632829366659 0 0 0 0 12.885230206140477 1.6986520165064576 0 1.6986520165064576 -10.051282768418332 0 0 0 0 13.223219652721582 -1.6416641561754659 0 -1.6416641561754659 -10.751528482083813 0 0 0 0 15.567188630678856 3.6556668048497158 0 3.6556668048497158 -19.71302683585418 0 0 0 0 30.240340264165752 -2.8806554032544227 0 -2.8806554032544227 -17.789273112472074 0 0 0 0 23.477395795579469 9.7045211770564492 0 9.7045211770564492 -27.982084987861526 0 0 0 0 16.807969275425194 1.3382806479130522 0 1.3382806479130522 -15.484340534152579 0 0 0 0 11.588530423177417 13.696379692963092 0 13.696379692963092 -19.417287006171136 0 0 0 0 22.658829987953141 7.649405427995589 0 7.649405427995589 -13.153041913558809 0 0 0 0 23.018344037733641 8.2518646277694643 0 8.2518646277694643 -28.759161296232378 0 0 0 0 24.508589461453539 11.041271535723354 0 11.041271535723354 -26.249780987514896 0 0 0 0 26.496673371029829 7.2972322390542104 0 7.2972322390542104 -27.645990801291873 0 0 0 0 27.522944476506382 5.7839062820396521 0 5.7839062820396521 -26.763032265258516 0 0 0 0 34.631484950748927 8.7861353284843062 0 8.7861353284843062 -25.939011569361355 0 0 0 0 26.839391156185911 23.899495657188481 0 23.899495657188481 -30.912194527107204 0 0 0 0 45.845133607346625 19.369571877412 0 19.369571877412 -31.86536190015795 0 0 0 0 39.504086384073389 26.003221052204026 0 26.003221052204026 -38.045178863130786 0 0 0 0 47.855571053035419 -2.0719219483271445 0 -2.0719219483271445 -23.752346100263821 0 0 0 0 33.569361286475655 -5.5362034204977704 0 -5.5362034204977704 -22.824170117732137 0 0 0 0 77.913786019245435 -37.308950570730303 0 -37.308950570730303 -4.7726913875385435 0 0 0 0 79.236564141229337 12.210229769401849 0 12.210229769401849 -65.362754016628969 0 0 0 0 79.278500623866307 6.0028457911777764 0 6.0028457911777764 -58.288932191167987 0 0 0 0 101.81168355060072 44.488247955976476 0 44.488247955976476 -62.880479298265755 0 0 0 0 -15.330912413693795 154.01967648347545 0 154.01967648347545 -126.89856119617252 0 0 0 0 -94.426027009072186 70.369775863528048 0 70.369775863528048 -23.568789044808 0 0 0 0 -12.336283106429164 31.479816278031649 0 31.479816278031649 -11.4856962230715 0 0 0 0 20.458836169651022 68.917091378255463 0 68.917091378255463 -63.638892519520226 0 0 0 0 -1.1177272660033974 2.1005258924881236 0 2.1005258924881236 -1.7603038515956868 0 0 0 0 -1.0082958920793317 -10.916050898806134 0 -10.916050898806134 -104.97525610485172 0 0 0 0 -57.022307944356953 7.5619772390900835 0 7.5619772390900835 -4.6276217782647109 0 0 0 0 -0.69326600905287705 -6.9692825198762876 0 -6.9692825198762876 -122.01474808284911 0 0 0 0 5.8617174928242548 -2.0292207386987684 0 -2.0292207386987684 -3.7334747954482737 0 0 0 0 -25.631349858552994 -3.480597247021251 0 -3.480597247021251 -1.1738703671476287 0 0 0 0 2.8612827589365679 3.0953417545397315 0 3.0953417545397315 -4.4160010403438719 0 0 0 0 3.2834852133083454 2.2389460347776318 0 2.2389460347776318 -2.5286302325355408 0 0 0 0 7.5491606299337946 19.48538816663131 0 19.48538816663131 -8.7738545150959908 0 0 0 0 8.570888768167606 17.458230548351366 0 17.458230548351366 -19.292903998593829 0 0 0 0 -6.896332774675102 28.203321497103389 0 28.203321497103389 -13.778001852859234 0 0 0 0 -11.966851918673001 11.02136240772461 0 11.02136240772461 -5.0109384825700545 0 0 0 0 3.7320922652597801 2.546783230627625 0 2.546783230627625 -2.8568462897724203 0 0 0 0 3.6831516063280674 3.4862450778493326 0 3.4862450778493326 -12.989364095974452 0 0 0 0 3.5172101681696271 0.1910088266383676 0 0.1910088266383676 -3.7358445477392088 0 0 0 0 1.4909040264134319 2.0426683311952729 0 2.0426683311952729 -7.0038296160164464 0 0 0 0 0.70496586305239362 1.6598843454917187 0 1.6598843454917187 -3.6288349078113242 0 0 0 0 -1.009714631499719 3.796405510522618 0 3.796405510522618 5.1215942018357055 0 0 0 0 0.00068014275802852353 4.3338091746227292 0 4.3338091746227292 5.4003129016487037 0 0 0 0 1.271829349616306 2.6007455170761524 0 2.6007455170761524 -1.4303600203970595 0 0 0 0 2.5578886628795772 -0.85818637783972918 0 -0.85818637783972918 15.929214000202592 0 0 0 0 0.84062202907624872 0.29243040387655395 0 0.29243040387655395 -0.72968241957998714 0 0 0 0 20.936403204158978 18.50559383080963 0 18.50559383080963 9.6722839949229638 0 0 0 0 29.563292108301994 11.33451638913175 0 11.33451638913175 2.2144895893125067 0 0 0 0 18.444043382586642 15.704120087402771 0 15.704120087402771 12.653963873402517 0 0 0 0 18.120788023915338 5.3199147165796603 0 5.3199147165796603 -7.2695636977750837 0 0 0 0 -1.0199793261249397 12.08771592382891 0 12.08771592382891 -3.9357024653463668 0 0 0 0 -17.870145408057851 -23.474161047066445 0 -23.474161047066445 -10.123416137779714 0 0 0 0 27.243194717526421 -16.167459727620553 0 -16.167459727620553 -41.940052299050876 0 0 0 0 18.550732520604015 16.2781910677204 0 16.2781910677204 26.498790445093618 0 0 0 0 28.244663138137184 26.869150828519196 0 26.869150828519196 0.50231083642847807 0 0 0 0 -74.093877811894345 31.437254605414637 0 31.437254605414637 -77.920477642054493 0 0 0 0 0.82397103631237645 -0.35984196474580443 0 -0.35984196474580443 0.18313285479695551 0 0 0 0 12.549364955990995 65.76717842903463 0 65.76717842903463 77.165570010584815 0 0 0 0 18.139575015393575 21.091424969695709 0 21.091424969695709 -49.608563758974924 0 0 0 0 35.119682063580512 -2.3791094035232163 0 -2.3791094035232163 -71.478585197840403 0 0 0 0 3.0560278832739369 -0.46959030909083843 0 -0.46959030909083843 -0.7801080198014434 0 0 0 0 25.615587395238663 10.393889924885571 0 10.393889924885571 -34.644285340194983 0 0 0 0 15.313170243136938 -6.7319901790597214 0 -6.7319901790597214 -4.3978441797353298 0 0 0 0 37.337497704489579 -11.336025629321739 0 -11.336025629321739 -35.578935520493133 0 0 0 0 34.277275886868665 -47.425364617616651 0 -47.425364617616651 -34.745668513924102 0 0 0 0 22.795772644971748 -63.313397374436136 0 -63.313397374436136 -48.422992189165598 0 0 0 0 11.420668086615478 -61.498293902177465 0 -61.498293902177465 -31.31569666935502 0 0 0 0 9.6421293856622015 -52.772153055771469 0 -52.772153055771469 -53.641868931270437 0 0 0 0 6.9593366010035425 -46.555370066755131 0 -46.555370066755131 -82.29986635458863 0 0 0 0 9.571717424084909 -66.995629880193519 0 -66.995629880193519 -89.944841233882471 0 0 0 0 -37.857511929858902 -48.662083652537149 0 -48.662083652537149 -20.026007011698312 0 0 0 0 -66.008193018658858 -103.6994734082507 0 -103.6994734082507 -109.82397551460963 0 0 0 0 0.13784665521856887 -0.31052307703733106 0 -0.31052307703733106 -0.56049353083344045 0 0 0 0 -60.95008844414383 -76.569061054232407 0 -76.569061054232407 -52.442030878698461 0 0 0 0 6.7396683394877073 -56.423708567224821 0 -56.423708567224821 -152.95056579042466 0 0 0 0 60.147942547802813 -5.7480644049865077 0 -5.7480644049865077 -17.258967768159891 0 0 0 0 73.95209465294738 32.83804572907502 0 32.83804572907502 11.775675533635876 0 0 0 0 -6.9288357728954679 -22.16507563163168 0 -22.16507563163168 -2.604518680163892 0 0 0 0 50.463283028474962 20.603215289569562 0 20.603215289569562 4.1393241264668177 0 0 0 0 67.260024065163179 25.887412073524501 0 25.887412073524501 5.616227494119812 0 0 0 0 37.809873166546822 19.38008902540605 0 19.38008902540605 12.336996617518935 0 0 0 0 39.582815353290471 27.661391591922438 0 27.661391591922438 11.523319035390159 0 0 0 0 25.335442052587041 22.529154715736695 0 22.529154715736695 4.9046175263774785 0 0 0 0 52.926137944180937 8.6912507506067413 0 8.6912507506067413 -2.6355580726431072 0 0 0 0 54.037668044089969 49.371300670580695 0 49.371300670580695 20.436631795870198 0 0 0 0 -1.4414528899576453 -5.3854134636899289 0 -5.3854134636899289 -60.572173789803855 0 0 0 0 76.708926623086654 25.929125815191583 0 25.929125815191583 -9.3118082207838597 0 0 0 0 0.26199739911970177 1.1845508391543103 0 1.1845508391543103 -0.91169219158587111 0 0 0 0 30.728441223477603 -18.426504703729734 0 -18.426504703729734 -3.7561055414917064 0 0 0 0 -3.764469008641754 8.2613038454983325 0 8.2613038454983325 10.861747981502049 0 0 0 0 2.5576467038322335 3.980496509947443 0 3.980496509947443 -2.5679508803696081 0 0 0 0 0.92664567599836989 1.8895504796360747 0 1.8895504796360747 -3.3855270050462956 0 0 0 0 0.016765488210605195 0.38990748523030128 0 0.38990748523030128 0.18551112202924003 0 0 0 0 23.379561268916405 10.270814124326535 0 10.270814124326535 -5.9391801762048999 0 0 0 0 -0.60760745758385193 1.7963805255874554 0 1.7963805255874554 -3.3479608309785931 0 0 0 0 1.1854884945102526 3.6812759149444219 0 3.6812759149444219 -2.9768634395259141 0 0 0 0 3.6339083622444832 4.0130980040753457 0 4.0130980040753457 -3.8871241819060742 0 0 0 0 1.2506098262781977 2.3963821809487555 0 2.3963821809487555 -2.5417141547182052 0 0 0 0 -0.0059029624976574269 8.1280159796488078 0 8.1280159796488078 0.077392250274897378 0 0 0 0 2.8406914661054543 2.1815126048086313 0 2.1815126048086313 -5.2673217365877463 0 0 0 0 9.5540961633170127 10.613839727526965 0 10.613839727526965 -9.7641731314215576 0 0 0 0 -0.74051697809427353 2.0289516983320013 0 2.0289516983320013 -3.2585120380981607 0 0 0 0 0.51446341450401079 0.48115735390385339 0 0.48115735390385339 -2.2420458216480625 0 0 0 0 48.910533802635655 43.972009403365519 0 43.972009403365519 34.437275098700411 0 0 0 0 9.7483655901260136 12.680248549315365 0 12.680248549315365 10.30750317570164 0 0 0 0 63.489407290037889 -3.0689591917926009 0 -3.0689591917926009 -46.983462957614393 0 0 0 0 111.41993892829942 73.807949675544478 0 73.807949675544478 30.118451514180833 0 0 0 0 11.590490895984658 -1.2091029928678836 0 -1.2091029928678836 -13.458677108392294 0 0 0 0 0.36885114983641287 -0.059187889703903096 0 -0.059187889703903096 -0.090492097988953191 0 0 0 0 7.0379498874469846 -26.726625849630636 0 -26.726625849630636 -34.391291449308483 0 0 0 0 -18.92532817742449 5.9765432588355907 0 5.9765432588355907 11.044570666615982 0 0 0 0 1.0642904453379964 -0.28246674313808384 0 -0.28246674313808384 -0.7322799826691373 0 0 0 0 55.632915503094864 43.400754614294783 0 43.400754614294783 42.302932361570129 0 0 0 0 38.010722664065725 26.523951779486197 0 26.523951779486197 26.881562113443579 0 0 0 0 0.33826791598015093 -0.34197256659766673 0 -0.34197256659766673 -1.1450665364940065 0 0 0 0 68.808242763957651 16.600420618813132 0 16.600420618813132 16.646359895548812 0 0 0 0 73.269145738547422 -12.016035047444348 0 -12.016035047444348 -22.518558656342066 0 0 0 0 61.918732347599871 -19.456893536531425 0 -19.456893536531425 4.8299379063373635 0 0 0 0 147.79986184157133 24.296323902308359 0 24.296323902308359 -41.70611797284073 0 0 0 0 0.34178232416164001 -0.042887054987520656 0 -0.042887054987520656 -1.270157660222516 0 0 0 0 159.86972097006401 36.175476171034461 0 36.175476171034461 -24.231121651123431 0 0 0 0 103.37675291253436 39.685456796392828 0 39.685456796392828 8.5295345754711889 0 0 0 0 80.638739036717425 12.701707429852831 0 12.701707429852831 12.322258417458215 0 0 0 0 102.22546598117788 29.432660963555463 0 29.432660963555463 -20.132699531124672 0 0 0 0 80.688882922319863 22.084891930528102 0 22.084891930528102 45.438673499564175 0 0 0 0 68.562735784531469 -12.092254990027868 0 -12.092254990027868 0.28117002024555404 0 0 0 0 151.91737670429939 0.73412938638011838 0 0.73412938638011838 -32.388846376915353 0 0 0 0 70.283088261476223 -12.00952141579819 0 -12.00952141579819 -21.09682753845118 0 0 0 0 35.381096483029069 -43.54417801629279 0 -43.54417801629279 -19.469873289670829 0 0 0 0 55.168324946497705 -14.752954182164103 0 -14.752954182164103 0.73554597653310339 0 0 0 0 86.808038934022534 -8.1170833062519705 0 -8.1170833062519705 -20.923304407257092 0 0 0 0 20.00958280431405 -34.891760328161581 0 -34.891760328161581 -16.025688290912512 0 0 0 0 68.318601832260242 -30.588018658201463 0 -30.588018658201463 -21.364121993803565 0 0 0 0 160.19410700266462 74.369466733458012 0 74.369466733458012 -59.911409353427189 0 0 0 0 99.180513135321689 19.07056898235578 0 19.07056898235578 -36.67920046987274 0 0 0 0 0.17541223904987779 0.17827369736002296 0 0.17827369736002296 -0.60368388772629089 0 0 0 0 78.303646532254561 56.284061343949361 0 56.284061343949361 35.010330531918953 0 0 0 0 88.593221136277862 -38.478413688688306 0 -38.478413688688306 2.7768295067653526 0 0 0 0 84.508886870262359 17.746564676278467 0 17.746564676278467 -0.62009020291407069 0 0 0 0 82.412459059034063 -0.087526027760759462 0 -0.087526027760759462 -10.330377454749851 0 0 0 0 10.34486772473872 10.108275903534377 0 10.108275903534377 -13.415092591723806 0 0 0 0 83.219397768994895 24.10967498890659 0 24.10967498890659 6.7887400573777086 0 0 0 0 191.48771138404982 -11.197402013681312 0 -11.197402013681312 -32.879324604749854 0 0 0 0 -0.32275934098932879 2.2715590752978478 0 2.2715590752978478 -7.5874161536652309 0 0 0 0 8.4292359394221421 -0.015822167471924331 0 -0.015822167471924331 -13.683462246718591 0 0 0 0 4.6950511166219258 3.8345354778816727 0 3.8345354778816727 -16.989798047998192 0 0 0 0 2.2826136635358125 -2.7269888410428393 0 -2.7269888410428393 -27.901579213053992 0 0 0 0 -0.88012673424964305 -2.1858381880019806 0 -2.1858381880019806 -12.508977959674496 0 0 0 0 3.2806047911826681 5.4104684248668491 0 5.4104684248668491 -12.967851365599302 0 0 0 0 2.1273883382859822 3.8180265765622607 0 3.8180265765622607 -0.56467689339297067 0 0 0 0 4.6107140595192959 5.1401618851473359 0 5.1401618851473359 -4.9792171754797891 0 0 0 0 0.019771456021156375 2.6766801961879025 0 2.6766801961879025 -7.8599414196757458 0 0 0 0 7.4958169387189173 10.647829879631445 0 10.647829879631445 -5.9390582057421852 0 0 0 0 2.6264853694724479 8.1663319132835568 0 8.1663319132835568 -6.4331040276292697 0 0 0 0 -0.2976944008605642 3.3172257805470622 0 3.3172257805470622 -9.1587866407844558 0 0 0 0 0.81216020929150545 8.3799098565705208 0 8.3799098565705208 -7.4773077650888808 0 0 0 0 1.306058730188056 1.192668124128204 0 1.192668124128204 -14.158992164557276 0 0 0 0 1.5053266372656253 2.3657163381512873 0 2.3657163381512873 -15.716206181806228 0 0 0 0 3.1929341521463357 -2.0412056756759966 0 -2.0412056756759966 -34.182920972534703 0 0 0 0 4.1622251714400136 -5.7079466606692222 0 -5.7079466606692222 -31.666189775767634 0 0 0 0 2.8560392085266813 -11.895814174309407 0 -11.895814174309407 -45.54398277371547 0 0 0 0 -2.7040188440018937 -16.094947968679207 0 -16.094947968679207 -44.999712428514385 0 0 0 0 -8.7529122326930064 -15.603567028804264 0 -15.603567028804264 -39.040892042728046 0 0 0 0 0.70894482217340737 -16.474869726601355 0 -16.474869726601355 -60.663470336020509 0 0 0 0 1.4966928360431666 -7.9888655273025506 0 -7.9888655273025506 -38.336792610490534 0 0 0 0 -3.1305085067554046 -8.0491403179071312 0 -8.0491403179071312 -25.937168238267986 0 0 0 0 -7.219807478952589 -9.2407400808046987 0 -9.2407400808046987 -19.550694138202743 0 0 0 0 -5.2769588872870372 -15.579089071457929 0 -15.579089071457929 -27.48535793746214 0 0 0 0 -2.9205449084661268 2.2105561948021659 0 2.2105561948021659 -7.0405592672468629 0 0 0 0 -0.16499205553759566 -6.9323595867413133 0 -6.9323595867413133 -58.649735708313528 0 0 0 0 -2.5159461906604292 -14.907378414141931 0 -14.907378414141931 -54.180961573014429 0 0 0 0 82.891368663605135 9.6979026170956786 0 9.6979026170956786 58.09547342003134 0 0 0 0 186.84503659402071 139.01781967483703 0 139.01781967483703 -25.321658658482193 0 0 0 0 -0.48049328799487956 2.1051482515263 0 2.1051482515263 -5.7260692495493615 0 0 0 0 90.275672855855646 80.138296224379701 0 80.138296224379701 -24.725309047133123 0 0 0 0 19.498712719477226 139.66950664978322 0 139.66950664978322 46.118209168691465 0 0 0 0 28.159071108716489 -5.4769597632484874 0 -5.4769597632484874 -14.905363344968009 0 0 0 0 5.9183344571051748 33.577118011263337 0 33.577118011263337 -27.725665325971931 0 0 0 0 -105.25063273587602 -101.95787066075491 0 -101.95787066075491 -108.54552970514305 0 0 0 0 0.029529224870031623 0.079897449726898273 0 0.079897449726898273 -0.94079587772551676 0 0 0 0 -58.353154657701907 -30.603878347408681 0 -30.603878347408681 -33.912029215452094 0 0 0 0 8.6789138629219451 -8.0577417633762707 0 -8.0577417633762707 -1.2933978406126698 0 0 0 0 -0.27964226394851455 0.29819801603585105 0 0.29819801603585105 -2.6446245767991563 0 0 0 0 -45.922216019000189 -52.651798313739619 0 -52.651798313739619 -25.292073017538087 0 0 0 0 22.481583733073876 1.9591025082545457 0 1.9591025082545457 -17.831039961416991 0 0 0 0 0.042038748619915189 -0.34884931845913769 0 -0.34884931845913769 -1.1645460757146875 0 0 0 0 32.677388217976272 3.0495629366739649 0 3.0495629366739649 -5.8847481468555998 0 0 0 0 25.251228267776696 -5.4149951824874734 0 -5.4149951824874734 0.53576726391111151 0 0 0 0 -1.3635102586222274 13.100107783891417 0 13.100107783891417 -4.7589708969298954 0 0 0 0 1.8174400238472117 12.406962234877938 0 12.406962234877938 -9.5145967360917894 0 0 0 0 4.2522816832570243 9.0388128476813563 0 9.0388128476813563 -9.7385635460632329 0 0 0 0 4.228181733897145 15.006116621349975 0 15.006116621349975 12.79807031452674 0 0 0 0 2.9127400181901066 8.3304150643111825 0 8.3304150643111825 -15.496561064998787 0 0 0 0 4.8422077942981332 4.5344818938968956 0 4.5344818938968956 -34.006384883516148 0 0 0 0 9.0612054035996152 3.2877197215730121 0 3.2877197215730121 -33.663704128992322 0 0 0 0 12.56048442215274 10.504234858730797 0 10.504234858730797 -39.735447494582331 0 0 0 0 10.062234379226538 13.888739933256147 0 13.888739933256147 -40.3828100374119 0 0 0 0 15.040751349062703 2.2222842183855391 0 2.2222842183855391 -74.784958620658472 0 0 0 0 6.945764001592579 -25.035052172600444 0 -25.035052172600444 -70.464689172913154 0 0 0 0 5.6336631888286774 -23.8257002320845 0 -23.8257002320845 -69.243815004140743 0 0 0 0 7.0703404222135759 -9.7694825524333737 0 -9.7694825524333737 -57.897706072877554 0 0 0 0 3.8205574942644489 -20.770867978344995 0 -20.770867978344995 -56.031153414387518 0 0 0 0 5.8019604580017585 -17.088504402391209 0 -17.088504402391209 -49.672972017721804 0 0 0 0 7.9331958673211602 -22.668531477007491 0 -22.668531477007491 -66.52073133378326 0 0 0 0 3.5630078603621769 -27.771387342987964 0 -27.771387342987964 -54.919161510089907 0 0 0 0 3.1743035823947139 -30.308130958796937 0 -30.308130958796937 -70.969735318527 0 0 0 0 -19.624709414601455 -31.799281018100146 0 -31.799281018100146 -44.695426437705464 0 0 0 0 -12.106873555581842 -1.9727792491794389 0 -1.9727792491794389 -30.611453331553093 0 0 0 0 -22.684000318198514 -59.276960236861214 0 -59.276960236861214 -112.90597019414872 0 0 0 0 -67.88360164022049 -3.2290274176202729 0 -3.2290274176202729 -59.590364063888046 0 0 0 0 24.393908198141617 14.827168156005882 0 14.827168156005882 -121.32559086617039 0 0 0 0 -25.737227989870007 6.0177596461840039 0 6.0177596461840039 -63.039140387733596 0 0 0 0 -10.988859171206059 -20.02297634446677 0 -20.02297634446677 -174.82032555549949 0 0 0 0 -12.88874246468913 28.606128079110931 0 28.606128079110931 -34.698688286881406 0 0 0 0 33.855140642425795 18.38004998992983 0 18.38004998992983 -35.036663728213171 0 0 0 0 -15.995617453543673 -19.859999970512945 0 -19.859999970512945 -54.528696550480618 0 0 0 0 18.262475002696192 0.30390500575845181 0 0.30390500575845181 -35.821903127944097 0 0 0 0 1.3672405408173063 21.957679961112717 0 21.957679961112717 -2.6682683878680109 0 0 0 0 54.480356866429247 19.568858859677675 0 19.568858859677675 -14.453511860629078 0 0 0 0 21.696223942927759 24.315768185434536 0 24.315768185434536 9.4183224100279404 0 0 0 0 38.282407379058441 15.879496139153616 0 15.879496139153616 -25.750243937039102 0 0 0 0 8.6135389089017735 -10.444793658102753 0 -10.444793658102753 -36.984619082760446 0 0 0 0 -0.99557168888077285 -9.9954037717538995 0 -9.9954037717538995 -22.719716040272942 0 0 0 0 1.7506259628576117 -25.123571257550793 0 -25.123571257550793 -46.83063105851943 0 0 0 0 2.0483903887466113 -22.746173003928561 0 -22.746173003928561 -52.674323119838391 0 0 0 0 -7.7684558255464253 -17.446846924008241 0 -17.446846924008241 -56.66676095692992 0 0 0 0 -0.23818056191748838 -25.981239673071968 0 -25.981239673071968 -53.253843985310596 0 0 0 0 3.8472857607125661 -6.1108839104267645 0 -6.1108839104267645 -63.060177916850762 0 0 0 0 -26.095658523539214 -16.590564610569118 0 -16.590564610569118 -45.72785533115939 0 0 0 0 11.606643269999722 -8.1797292780752286 0 -8.1797292780752286 -31.223004362030224 0 0 0 0 3.5600681994128536 -2.5737693263849906 0 -2.5737693263849906 -34.026088563665326 0 0 0 0 36.350396744198406 29.60883614672548 0 29.60883614672548 -30.768121662438716 0 0 0 0 3.5154002312772263 21.920949387751421 0 21.920949387751421 -4.7468847864056443 0 0 0 0 5.7703860956124231 25.922547698500694 0 25.922547698500694 -84.656261057360098 0 0 0 0 46.3285033206962 29.428691647172855 0 29.428691647172855 -19.244468677113673 0 0 0 0 58.634130073426149 62.588746408836869 0 62.588746408836869 7.1800386667692919 0 0 0 0 0.56466980595473526 5.3685827179067998 0 5.3685827179067998 -16.844887454437849 0 0 0 0 26.444754277276843 5.6233675622211194 0 5.6233675622211194 -21.966327724647613 0 0 0 0 70.82810193577086 51.531523181986358 0 51.531523181986358 -3.9355803933385687 0 0 0 0 0.071314476925762094 6.3814952068346757 0 6.3814952068346757 -18.942517852475287 0 0 0 0 34.27991987177893 20.977603198475663 0 20.977603198475663 3.2976786744644073 0 0 0 0 -21.69976520679711 113.40951280870081 0 113.40951280870081 -218.98549464274856 0 0 0 0 -25.764021098890225 -85.868166593545084 0 -85.868166593545084 -225.21854791087935 0 0 0 0 -0.41994304862346343 0.94009018096488184 0 0.94009018096488184 -2.1095526315738589 0 0 0 0 -4.1992230302284952 -21.185138098998777 0 -21.185138098998777 -68.863311937435356 0 0 0 0 -5.0231675242953315 -12.645644409263696 0 -12.645644409263696 -54.648318653470142 0 0 0 0 24.947150155107238 47.140301044364605 0 47.140301044364605 -115.97904731231938 0 0 0 0 20.008395175680334 15.68908960494764 0 15.68908960494764 -77.283720501774951 0 0 0 0 -24.460991476528307 52.701721146982209 0 52.701721146982209 -98.417363722475784 0 0 0 0 0.61217498363930645 36.464742534833022 0 36.464742534833022 -112.50802617626778 0 0 0 0 -9.0369496372777576 -9.382301808637294 0 -9.382301808637294 -60.43679668837818 0 0 0 0 3.4766377568437292 -6.3883344122637027 0 -6.3883344122637027 -114.17212993778776 0 0 0 0 -3.2071811263542713 -14.462471900444825 0 -14.462471900444825 -62.007719142142378 0 0 0 0 -49.880500428917458 18.747136784684699 0 18.747136784684699 -65.495943385565283 0 0 0 0 -68.169657599342372 39.923274506287726 0 39.923274506287726 -0.69206931820008322 0 0 0 0 -1.3296811972099931 -0.10475007572449613 0 -0.10475007572449613 -4.2005257963110125 0 0 0 0 -35.556887087050654 -6.1540305208516202 0 -6.1540305208516202 5.8998901741306327 0 0 0 0 -0.93654431306698349 0.21479939284943583 0 0.21479939284943583 -0.083999418726423691 0 0 0 0 -2.8745494224344839 56.767969629921026 0 56.767969629921026 -102.88311110037375 0 0 0 0 -0.075015372581219708 4.5565966977460448 0 4.5565966977460448 0.93220090634531516 0 0 0 0 0.64297792504044082 4.2287079626348714 0 4.2287079626348714 -1.7225712799936446 0 0 0 0 -1.3528846547865214 2.6219670443333598 0 2.6219670443333598 4.1784525512414348 0 0 0 0 0.46305489942824352 1.6397698874625348 0 1.6397698874625348 -0.57268108210155333 0 0 0 0 0.41191379123119987 1.5231805659932434 0 1.5231805659932434 -0.80227959668263793 0 0 0 0 -2.2150635679641866 0.3383864009456552 0 0.3383864009456552 0.015974148809208 0 0 0 0 -71.607271995099609 66.796396837769635 0 66.796396837769635 52.779383828149548 0 0 0 0 4.5269220230745759 0.091801988642600918 0 0.091801988642600918 26.662675882121221 0 0 0 0 0.21323962982569356 9.4983962044116197 0 9.4983962044116197 26.582494930937173 0 0 0 0 -0.82048943662170881 -0.063568338030647098 0 -0.063568338030647098 0.15415085979443965 0 0 0 0 -0.14157675659407687 1.2669128990946774 0 1.2669128990946774 -0.46678948957560351 0 0 0 0 0.14341012018212496 -2.4190675125291818 0 -2.4190675125291818 0.95327484518020356 0 0 0 0 1.2182755991032082 1.6784729988175968 0 1.6784729988175968 -4.5256370809584041 0 0 0 0 -0.59854149098549403 0.24627338247479003 0 0.24627338247479003 0.27650842590893099 0 0 0 0 -1.1535062062861812 0.99580264227125781 0 0.99580264227125781 2.7441190712133903 0 0 0 0 0.47737592371822757 -4.0756147878460069 0 -4.0756147878460069 -0.20291634220029664 0 0 0 0 -0.63627843663954398 -0.4170827399170367 0 -0.4170827399170367 0.14775710526995556 0 0 0 0 -12.246360794905286 3.5169693602942971 0 3.5169693602942971 51.456693623072169 0 0 0 0 1.1752291144662195 5.6477295138220143 0 5.6477295138220143 28.835378604042603 0 0 0 0 4.7746449771698281 19.189178507739598 0 19.189178507739598 35.022254767985942 0 0 0 0 -0.92736003924619581 -10.977489443906961 0 -10.977489443906961 90.229664972471255 0 0 0 0 0.0167841739842709 0.14568749634089251 0 0.14568749634089251 0.078485292914411531 0 0 0 0 -17.117291822201878 -1.761245921090449 0 -1.761245921090449 -3.0561638977105758 0 0 0 0 2.8920909409084743 -3.1489363839968973 0 -3.1489363839968973 -12.014890664529958 0 0 0 0 -40.312552652317663 12.375237721592384 0 12.375237721592384 -2.7180887336289743 0 0 0 0 -5.7470202044928556 9.9958493082845052 0 9.9958493082845052 -7.8300294536202273 0 0 0 0 -23.856661236544369 26.215017580579115 0 26.215017580579115 1.4575247882057738 0 0 0 0 -21.650800310132581 22.35627185936255 0 22.35627185936255 -17.324059645638044 0 0 0 0 -38.745497827051963 21.572516973432244 0 21.572516973432244 2.4581640773667459 0 0 0 0 -29.811159234469415 30.244500848787538 0 30.244500848787538 -1.3567108774404915 0 0 0 0 -0.66311253860248343 -0.13425989993380938 0 -0.13425989993380938 0.18833940422802942 0 0 0 0 1.6047657128101491 12.241662403771443 0 12.241662403771443 43.290635218814714 0 0 0 0 -32.905555294159967 -15.929127944640641 0 -15.929127944640641 63.508819561625387 0 0 0 0 4.047524453312235 -13.945879264943869 0 -13.945879264943869 56.729787958678571 0 0 0 0 -1.3707580662085093 53.626698123204733 0 53.626698123204733 98.771703210990381 0 0 0 0 -64.320208254348927 1.6220655170995997 0 1.6220655170995997 94.810290281031484 0 0 0 0 20.427281697126546 27.24552942301716 0 27.24552942301716 -58.300754562754264 0 0 0 0 -17.831422412815755 17.038987665061541 0 17.038987665061541 39.242647788203612 0 0 0 0 29.888926546715993 47.176085394665279 0 47.176085394665279 4.0886220202983168 0 0 0 0 -17.582043286897544 14.556887658673077 0 14.556887658673077 27.755689986637663 0 0 0 0 1.3158843283654278 36.209437425259239 0 36.209437425259239 -0.09246877910936746 0 0 0 0 49.185297376873677 17.893168890886955 0 17.893168890886955 -5.6601260952556913 0 0 0 0 0.18663691414866701 -0.094245139629723695 0 -0.094245139629723695 -0.036183480903212217 0 0 0 0 -47.071546093733104 25.529618172561641 0 25.529618172561641 3.0327762480592355 0 0 0 0 -38.881700735853883 27.521287483298693 0 27.521287483298693 56.730102554472978 0 0 0 0 18.866210968203177 29.8777703860369 0 29.8777703860369 -8.2633066837358626 0 0 0 0 14.286911870429776 5.2868783349358637 0 5.2868783349358637 -7.6184917769780327 0 0 0 0 15.737683438453587 5.595623182595773 0 5.595623182595773 -25.866380290366578 0 0 0 0 -17.525995960691773 -2.5940972261242905 0 -2.5940972261242905 25.341202762701869 0 0 0 0 -11.637882129634363 21.484133151408969 0 21.484133151408969 27.341641913732246 0 0 0 0 1.1814103125684596 -10.70281162111678 0 -10.70281162111678 -9.0524500318679202 0 0 0 0 3.8025031118954757 11.351430155646995 0 11.351430155646995 -13.639708698210598 0 0 0 0 -8.721009958566583 3.7167899922037577 0 3.7167899922037577 26.229566520049048 0 0 0 0 0.32595501336716293 0.11806549501697106 0 0.11806549501697106 -0.0047184755891533925 0 0 0 0 1.6910949537275428 6.8916869363038131 0 6.8916869363038131 -27.311918920077915 0 0 0 0 1.4470411995457653 13.819655814418638 0 13.819655814418638 -10.801623291243232 0 0 0 0 1.7547454196744638 6.4532962083949315 0 6.4532962083949315 -26.210448507078581 0 0 0 0 0.28423712809206148 0.090969785671708436 0 0.090969785671708436 0.00065249985765891694 0 0 0 0 1.0668937657574133 9.2028283159979765 0 9.2028283159979765 15.128428152603647 0 0 0 0 -3.4961699797868278 -0.61772807346142145 0 -0.61772807346142145 -20.95753824114604 0 0 0 0 -2.4457033650189715 -3.2501878485338693 0 -3.2501878485338693 -21.051597517870505 0 0 0 0 -2.0414579471603247 -2.3551768036040812 0 -2.3551768036040812 -19.130622327422998 0 0 0 0 0.94123863446898781 -0.6495147640479928 0 -0.6495147640479928 -25.000613674345686 0 0 0 0 1.615267932067411 2.2450558628437847 0 2.2450558628437847 -19.807102386661882 0 0 0 0 7.1302372269760781 49.278411795284228 0 49.278411795284228 18.257281567490281 0 0 0 0 1.5150024032454894 16.581043159986621 0 16.581043159986621 -4.3321944580284253 0 0 0 0 -29.396934355693176 15.266113139696174 0 15.266113139696174 3.8065424106898718 0 0 0 0 15.338041620409285 48.171144482551881 0 48.171144482551881 81.158143362355077 0 0 0 0 54.54263642320484 41.061342199599494 0 41.061342199599494 -15.71952305938612 0 0 0 0 0.88611029259159491 0.57288341923252339 0 0.57288341923252339 -3.4758701584256766 0 0 0 0 -3.9857190071153354 -1.8214733419153788 0 -1.8214733419153788 -19.964207690961757 0 0 0 0 1.0282363342669978 3.6976322604326981 0 3.6976322604326981 -14.90963865784658 0 0 0 0 28.533053952252885 49.114790681362592 0 49.114790681362592 17.647795353366973 0 0 0 0 5.7551246024806915 21.464252448312436 0 21.464252448312436 -12.838247842282726 0 0 0 0 -17.037660888488347 -17.736121224638737 0 -17.736121224638737 14.620311396512989 0 0 0 0 -1.4905020488499745 0.92046024611124899 0 0.92046024611124899 -3.7092111230328797 0 0 0 0 -3.5019556676497814 -7.4013455390995659 0 -7.4013455390995659 -1.903481750593528 0 0 0 0 49.022152971082505 40.542598521049513 0 40.542598521049513 11.6731282625733 0 0 0 0 16.661261214916522 15.755053851271441 0 15.755053851271441 -6.0436551523398521 0 0 0 0 25.620109354056694 2.0598818890575785 0 2.0598818890575785 -19.966320901055042 0 0 0 0 -7.4580686985568718 14.23468455461807 0 14.23468455461807 1.7332601899033762 0 0 0 0 3.0034138500423069 16.249592892181681 0 16.249592892181681 -2.1722835901528015 0 0 0 0 -2.055608857007428 12.197881103142208 0 12.197881103142208 -3.8897015006914444 0 0 0 0 -7.6974157700697106 -9.4963709531384666 0 -9.4963709531384666 -8.3162967713585658 0 0 0 0 -0.51720302603174684 0.70354489975644086 0 0.70354489975644086 -0.7607333732446655 0 0 0 0 -4.4067182802709794 17.865354867884889 0 17.865354867884889 2.7676690003754629 0 0 0 0 -5.0617039168985229 -31.349544201684239 0 -31.349544201684239 -42.102880512551565 0 0 0 0 -6.6883459279360977 -36.2386073526568 0 -36.2386073526568 -55.986384611056565 0 0 0 0 9.5810915196270798 0.91989269952546238 0 0.91989269952546238 -45.674754344007852 0 0 0 0 6.6290511173956475 17.838835432712756 0 17.838835432712756 -103.16422295510529 0 0 0 0 7.2359228652976526 -31.880677413091689 0 -31.880677413091689 -49.915479876559402 0 0 0 0 -56.94456860199989 14.03194216003385 0 14.03194216003385 -2.1185208853198674 0 0 0 0 -2.9212624272717056 -4.9844301295679001 0 -4.9844301295679001 -5.0947538006715787 0 0 0 0 -3.3244411472810498 -1.1451376606762551 0 -1.1451376606762551 -20.439425219865825 0 0 0 0 -4.4828422033401694 -2.0786020302459747 0 -2.0786020302459747 -14.630920768106762 0 0 0 0 -2.6853168839386399 0.052143590374384985 0 0.052143590374384985 -18.409069745162014 0 0 0 0 12.206612538794388 -16.081612537485171 0 -16.081612537485171 -7.0377156704889785 0 0 0 0 -1.1799564511944682 -3.5742154789982159 0 -3.5742154789982159 -5.3728333388279417 0 0 0 0 4.0414705788535343 6.2267495893307228 0 6.2267495893307228 -10.965272219246543 0 0 0 0 -0.32519729575926659 1.2046229002733209 0 1.2046229002733209 -3.8111540142603757 0 0 0 0 -7.9990169980477503 -2.5202677976537871 0 -2.5202677976537871 -18.054584583474821 0 0 0 0 -9.3590350565578433 -13.26122536474935 0 -13.26122536474935 -18.503368269075963 0 0 0 0 -12.489449365394591 -9.689932121796005 0 -9.689932121796005 -11.388501480287232 0 0 0 0 9.3856642498560063 1.3317630544318604 0 1.3317630544318604 -36.447989368725644 0 0 0 0 -1.7628809814467603 2.6961481484772167 0 2.6961481484772167 -6.3268977768017223 0 0 0 0 -5.2025484676692031 -3.663564164759066 0 -3.663564164759066 -17.452497727747414 0 0 0 0 -21.562408305223585 -34.594974764036124 0 -34.594974764036124 -44.785089382430471 0 0 0 0 -34.941834653192927 9.6486982574303966 0 9.6486982574303966 -39.316278641477012 0 0 0 0 -10.064713233387408 -17.757068494617101 0 -17.757068494617101 -11.393778914698601 0 0 0 0 -41.878455483026876 -36.275941164061827 0 -36.275941164061827 -30.117365586655069 0 0 0 0 -25.427638316675541 -19.912041725767665 0 -19.912041725767665 -12.539241653071372 0 0 0 0 -1.0640508506883473 2.0785157101737659 0 2.0785157101737659 -3.5379316435215822 0 0 0 0 6.8146220387870642 14.924319509934094 0 14.924319509934094 -11.208662328576906 0 0 0 0 -13.307992268371891 17.930865939947239 0 17.930865939947239 -0.65355488359296032 0 0 0 0 -2.2798562036271051 -4.1147012051369529 0 -4.1147012051369529 -17.42946350142342 0 0 0 0 -10.858111915923132 -15.321922207652221 0 -15.321922207652221 -30.778771112018603 0 0 0 0 -2.1289487509416176 -1.9517140954142178 0 -1.9517140954142178 -29.300269771349654 0 0 0 0 3.8614349666363808 -8.0510277352549338 0 -8.0510277352549338 -23.631993727168947 0 0 0 0 5.4971058212970547 4.2960454570015827 0 4.2960454570015827 -19.871360461742711 0 0 0 0 -3.0221376389215493 1.3480357058980417 0 1.3480357058980417 -18.350705334971508 0 0 0 0 15.911523212002976 -14.249841257823562 0 -14.249841257823562 -7.9363087407028843 0 0 0 0 -0.44197639442342052 10.605552344109071 0 10.605552344109071 -36.619164291284278 0 0 0 0 -4.3451157726522069 4.8963243823451421 0 4.8963243823451421 5.9037146986540563 0 0 0 0 -20.933747036326054 -71.272125046725989 0 -71.272125046725989 -88.968993994531843 0 0 0 0 -16.726693563893718 -10.764634656945077 0 -10.764634656945077 -28.478010113074788 0 0 0 0 -0.27660142991418035 0.59232590265134655 0 0.59232590265134655 -1.4406096776376378 0 0 0 0 -58.19383266273087 23.973138736551732 0 23.973138736551732 3.785914004697247 0 0 0 0 -24.283133781769465 96.782736478638071 0 96.782736478638071 43.559561579280398 0 0 0 0 38.097579784475556 -43.122298427443837 0 -43.122298427443837 -12.45122647969691 0 0 0 0 -148.45765474326151 -102.24388092832476 0 -102.24388092832476 -21.240155292312011 0 0 0 0 -1.8731390561500434 -1.4178877047486116 0 -1.4178877047486116 -0.98797163291482715 0 0 0 0 73.841215644427962 4.4811785764915157 0 4.4811785764915157 -84.729853896148057 0 0 0 0 10.692251722676019 41.455216353122353 0 41.455216353122353 17.738314704371192 0 0 0 0 0.92627824843987128 18.114779891636068 0 18.114779891636068 -54.707119549865581 0 0 0 0 11.750223670200796 27.116705840715767 0 27.116705840715767 -106.75477898496825 0 0 0 0 -19.834714933226905 4.393662874077819 0 4.393662874077819 27.802067439180234 0 0 0 0 -0.97735950119254866 -0.52188106105845045 0 -0.52188106105845045 -0.3305275517427706 0 0 0 0 31.79176030981489 4.0762009082671256 0 4.0762009082671256 -68.838635060777165 0 0 0 0 7.0091962273245372 1.0688368778711776 0 1.0688368778711776 -16.279829160426466 0 0 0 0 7.3681354297273174 14.082621964306981 0 14.082621964306981 -61.709645571002682 0 0 0 0 -1.7823249795960692 16.239520114065542 0 16.239520114065542 -36.56058370029244 0 0 0 0 15.591341841094732 5.7213545756431898 0 5.7213545756431898 -53.340954456332611 0 0 0 0 9.9548422821073927 -26.803932597527648 0 -26.803932597527648 -99.206005007103556 0 0 0 0 0.25869477391597684 -9.9954228588723453 0 -9.9954228588723453 -23.925509915933389 0 0 0 0 11.164473815503015 -3.3097015164717476 0 -3.3097015164717476 -68.664062462922999 0 0 0 0 -29.624870103577678 -38.12441871771739 0 -38.12441871771739 10.056081380180501 0 0 0 0 19.523456897893766 29.441247744174689 0 29.441247744174689 12.084892137382667 0 0 0 0 62.637203168773794 64.203268533779465 0 64.203268533779465 -1.8481271049940915 0 0 0 0 -11.336454321233532 -18.198583395210903 0 -18.198583395210903 -5.6125182715676374 0 0 0 0 59.791390946397314 70.303586179902112 0 70.303586179902112 -91.845455219295275 0 0 0 0 -0.29461256285224513 7.1319809270126235 0 7.1319809270126235 -20.187992880063195 0 0 0 0 -23.819216600821164 -5.5815299742143338 0 -5.5815299742143338 3.0474469772103419 0 0 0 0 -22.224405113263884 -70.942712600945484 0 -70.942712600945484 -145.21552026388935 0 0 0 0 -0.036137195356239715 -0.15554142263740189 0 -0.15554142263740189 -0.44028881878579085 0 0 0 0 -31.542904438101658 -31.382558734356149 0 -31.382558734356149 -21.89680205202005 0 0 0 0 -10.119729051948298 26.013481743407823 0 26.013481743407823 -123.46434385367021 0 0 0 0 -176.62484746408063 -58.878433294912156 0 -58.878433294912156 -159.14528133612021 0 0 0 0 8.3140605238094167 20.885971860078129 0 20.885971860078129 -143.91564504220315 0 0 0 0 36.227842818910176 -28.616737657724144 0 -28.616737657724144 -196.56319506109975 0 0 0 0 35.958624894360014 -28.886625980447128 0 -28.886625980447128 -183.27828229801034 0 0 0 0 -3.5660183547161068 8.8055344374794231 0 8.8055344374794231 -76.746800308606552 0 0 0 0 -6.4875580550593668 19.501822462162181 0 19.501822462162181 -20.099969856675159 0 0 0 0 -22.427592471166435 -5.9176690683646811 0 -5.9176690683646811 19.517148467452721 0 0 0 0 -21.737001071489885 6.9292133668017115 0 6.9292133668017115 8.0750699613545294 0 0 0 0 -19.942827598318786 10.116711512216355 0 10.116711512216355 -2.7073229347577694 0 0 0 0 -4.8584719486001404 17.901879702142896 0 17.901879702142896 -6.2481786567339839 0 0 0 0 -36.352072882182256 -7.8785912018762616 0 -7.8785912018762616 -14.351855102683842 0 0 0 0 -28.55617314091586 19.343863421142743 0 19.343863421142743 -0.098105756991657245 0 0 0 0 -0.65418844225837391 -0.22800785129050505 0 -0.22800785129050505 -0.89548451919135652 0 0 0 0 -0.35076826166857855 0.2999903964308781 0 0.2999903964308781 0.21555701031506025 0 0 0 0 -60.253196512810916 61.28965783448956 0 61.28965783448956 -56.233994123392321 0 0 0 0 2.1016298586673656 6.6641725637298634 0 6.6641725637298634 -3.6479891214987195 0 0 0 0 -6.6019002481043572 3.0486461057968341 0 3.0486461057968341 4.0256798173268749 0 0 0 0 -39.012008016932441 28.531696211329532 0 28.531696211329532 -21.753673276671186 0 0 0 0 -7.330453467780444 31.535783999864027 0 31.535783999864027 -60.05980555132254 0 0 0 0 12.248053094542684 19.087317149404271 0 19.087317149404271 -62.361633767296865 0 0 0 0 -18.791866043414302 43.759083003599613 0 43.759083003599613 -78.412597729159387 0 0 0 0 24.728246145681851 9.4821198333533232 0 9.4821198333533232 -86.394649128840328 0 0 0 0 -19.070910051710598 41.688047429669695 0 41.688047429669695 -90.098765208023593 0 0 0 0 -36.158499151172691 44.317056908641433 0 44.317056908641433 -90.020311742681429 0 0 0 0 -25.473055100637339 59.444814649159063 0 59.444814649159063 -244.16194208948693 0 0 0 0 -111.79859657558842 -124.49290228225578 0 -124.49290228225578 -185.07977524249162 0 0 0 0 -7.7202866563461612 6.4363776947619726 0 6.4363776947619726 -170.9543760718272 0 0 0 0 -89.429685904641815 -58.474612442221371 0 -58.474612442221371 -33.925127446229396 0 0 0 0 -75.709947362323646 -31.352159727553953 0 -31.352159727553953 -3.302528706517819 0 0 0 0 70.640893862792154 -16.68783424451442 0 -16.68783424451442 -58.175444058715982 0 0 0 0 19.223408728603772 -0.73635765366844907 0 -0.73635765366844907 -40.697111916561198 0 0 0 0 -7.480486768477661 12.068640329542388 0 12.068640329542388 -61.656631409679733 0 0 0 0 21.944840536923493 -9.4943694680546287 0 -9.4943694680546287 -70.412119117151292 0 0 0 0 -19.978629776591788 25.928889043939989 0 25.928889043939989 47.158482299085449 0 0 0 0 -74.861237459537733 -19.210533201661065 0 -19.210533201661065 10.087301469376484 0 0 0 0 56.390934871516947 30.132411926431985 0 30.132411926431985 -28.352086012701648 0 0 0 0 31.130319502466477 -11.640343435188186 0 -11.640343435188186 -100.12926612705951 0 0 0 0 68.288480921808741 55.401107306174026 0 55.401107306174026 -42.0970858349026 0 0 0 0 -1.1061066296880346 -0.78150616845209153 0 -0.78150616845209153 -0.53736095674160445 0 0 0 0 -110.59172723476604 -42.463539560440097 0 -42.463539560440097 59.696058404417414 0 0 0 0 -143.77544024831377 -79.08345455122975 0 -79.08345455122975 29.930655612888302 0 0 0 0 -143.93983865399514 -49.171698423307816 0 -49.171698423307816 45.40356307840409 0 0 0 0 90.029496307180295 -22.346059043585953 0 -22.346059043585953 -147.54671835095044 0 0 0 0 -178.92561483356212 -84.500014725163993 0 -84.500014725163993 13.393428584318897 0 0 0 0 -0.41645543124637385 -0.82975477843447787 0 -0.82975477843447787 -1.3829799973671926 0 0 0 0 -2.1864265102605032 -83.003503981895818 0 -83.003503981895818 -187.42192745021703 0 0 0 0 -9.1093944391966488 -25.260716321747438 0 -25.260716321747438 -84.334964739429495 0 0 0 0 53.55546223952274 -0.00070320610257113003 0 -0.00070320610257113003 -175.5235954663479 0 0 0 0 -17.015299949337873 -42.025532149799403 0 -42.025532149799403 20.365089031033207 0 0 0 0 31.629262223549517 43.680810888703661 0 43.680810888703661 -36.82502538805511 0 0 0 0 66.401001540064499 -38.152735008690492 0 -38.152735008690492 -1.649640901420554 0 0 0 0 -6.929502714464661 -10.565020806164974 0 -10.565020806164974 17.179018754429485 0 0 0 0 57.730068716094763 -21.126601585388414 0 -21.126601585388414 -87.727882672737792 0 0 0 0 -0.71646128869212666 -1.7073892046742249 0 -1.7073892046742249 -3.0020155778155404 0 0 0 0 -103.34477225286309 10.454764326990244 0 10.454764326990244 10.075196928394462 0 0 0 0 -17.30000912159403 28.672140210462203 0 28.672140210462203 -0.0016532606342423151 0 0 0 0 26.659246530297423 -23.978374966567905 0 -23.978374966567905 5.794405964910105 0 0 0 0 25.568102564328854 -0.96680365905436361 0 -0.96680365905436361 -8.723387961785761 0 0 0 0 -0.72676997534959842 -1.6454558862434614 0 -1.6454558862434614 -2.859852488141597 0 0 0 0 9.1910371290533703 -18.306210568108327 0 -18.306210568108327 -46.705380571589671 0 0 0 0 -15.199035052542001 3.9209634210391187 0 3.9209634210391187 -63.961975343777567 0 0 0 0 -46.817434113281024 -72.533634343903032 0 -72.533634343903032 -98.441033496487435 0 0 0 0 -112.30563852409432 -69.342346965854688 0 -69.342346965854688 -35.500508773143451 0 0 0 0 -56.095109285379635 -23.910542716338682 0 -23.910542716338682 1.2128190659741449 0 0 0 0 -65.191192381895007 -16.740720572465591 0 -16.740720572465591 -4.2986855996885538 0 0 0 0 -23.665478308567117 -19.505553926735644 0 -19.505553926735644 -17.105126431301073 0 0 0 0 -47.641349171634943 -44.753680600965538 0 -44.753680600965538 -43.325537223053182 0 0 0 0 -41.923783694841916 -18.080943102638514 0 -18.080943102638514 -26.983222177895072 0 0 0 0 -37.82013370738764 -24.980329082443859 0 -24.980329082443859 -15.409480290167096 0 0 0 0 -34.014312393034743 0.502732127193255 0 0.502732127193255 3.5834325516644867 0 0 0 0 -25.495500974430513 6.8550858334605209 0 6.8550858334605209 -14.046703817342973 0 0 0 0 -24.051236043556429 10.236045961937606 0 10.236045961937606 -11.545515285446527 0 0 0 0 -25.707553022620345 7.5628350297523639 0 7.5628350297523639 -13.228796494808989 0 0 0 0 -13.23777890262852 2.8322933358797968 0 2.8322933358797968 -18.204162955584735 0 0 0 0 -20.978527161790851 -13.715524395341333 0 -13.715524395341333 -46.96413805043133 0 0 0 0 -10.435496805650359 10.529742730357611 0 10.529742730357611 -3.854814740381812 0 0 0 0 -25.221598607049202 3.8854267887699052 0 3.8854267887699052 4.7121927919396285 0 0 0 0 -18.622027360312472 16.074992624994593 0 16.074992624994593 -30.998391716348493 0 0 0 0 -9.6214087483315893 -4.1621368137995205 0 -4.1621368137995205 4.2152932406085029 0 0 0 0 -0.078906561946833653 0.057376849367998917 0 0.057376849367998917 -0.012447676057840695 0 0 0 0 7.7526705777903828 0.35672467159272969 0 0.35672467159272969 -2.6201395773118747 0 0 0 0 2.9705290420287156 7.7956785846861862 0 7.7956785846861862 -5.4157162207683314 0 0 0 0 -0.79176692667836324 -1.3719956113487415 0 -1.3719956113487415 -2.0361989452131586 0 0 0 0 -10.002010206007981 0.74091944050110214 0 0.74091944050110214 -27.83776122824429 0 0 0 0 -0.015851235585577328 -0.22019001412972772 0 -0.22019001412972772 -0.47773721409361725 0 0 0 0 -3.9026596420437727 3.8220358599103292 0 3.8220358599103292 -30.975394108885212 0 0 0 0 -3.9026596420449096 3.8220358599096471 0 3.8220358599096471 -30.975394108885666 0 0 0 0 -5.5131378532390727 -3.6655905249791374 0 -3.6655905249791374 -42.166187577226538 0 0 0 0 -1.5571602505590363 1.345188895403794 0 1.345188895403794 -32.634290312451753 0 0 0 0 -9.7366492092840815 2.2851217930369785 0 2.2851217930369785 -31.293536739047795 0 0 0 0 -14.445270916732284 -3.12198032016056 0 -3.12198032016056 -33.456039443425084 0 0 0 0 -3.9955658418595021 -6.3933339791797152 0 -6.3933339791797152 -39.773047198413678 0 0 0 0 -25.221122154272223 3.4548453907463568 0 3.4548453907463568 -21.71237319270432 0 0 0 0 -27.92533825727628 10.031755213505221 0 10.031755213505221 -15.97620142720416 0 0 0 0 -25.657691211098836 -9.3171397833742162 0 -9.3171397833742162 -32.167625760039044 0 0 0 0 -25.544549812153051 -0.087628770568557002 0 -0.087628770568557002 -17.418682567770929 0 0 0 0 -21.849669814504608 -7.9044142712644145 0 -7.9044142712644145 -33.213942316941484 0 0 0 0 -32.52744543125516 -12.206144112781544 0 -12.206144112781544 -29.936496057695081 0 0 0 0 -19.507190840069569 -17.244301195139968 0 -17.244301195139968 -38.187068968908761 0 0 0 0 -12.311740052310526 -11.556377641259147 0 -11.556377641259147 -42.536056817625649 0 0 0 0 -8.1161946744582565 -15.344043240465396 0 -15.344043240465396 -39.996181509314283 0 0 0 0 -11.478850763606999 -2.1552128713638581 0 -2.1552128713638581 -55.441449021986841 0 0 0 0 -23.700138140921183 -10.597842771244046 0 -10.597842771244046 -43.927202466551989 0 0 0 0 -24.236418854421771 -31.721439834599039 0 -31.721439834599039 -46.120206287014867 0 0 0 0 -10.326399053133628 -25.426386800659031 0 -25.426386800659031 -87.565807349709189 0 0 0 0 -21.359451052844406 -25.435839798809866 0 -25.435839798809866 -87.443969408824188 0 0 0 0 -10.980089001410725 -29.046305065857027 0 -29.046305065857027 -92.567905284525182 0 0 0 0 -32.309103025161107 -12.207755662691511 0 -12.207755662691511 -77.217403021666371 0 0 0 0 -8.577762845533357 -32.2111830249641 0 -32.2111830249641 -90.586962314073617 0 0 0 0 -0.071654858514052899 -0.21181082019912445 0 -0.21181082019912445 -0.84410743167105418 0 0 0 0 -72.095906349164267 -78.540067714925897 0 -78.540067714925897 -77.814272256892195 0 0 0 0 -43.533243672718342 -19.643064785663782 0 -19.643064785663782 -0.27896067511164802 0 0 0 0 -28.173347449185087 -45.831636203889332 0 -45.831636203889332 -94.930888507615762 0 0 0 0 -51.913834848994611 -38.736667504794525 0 -38.736667504794525 -16.742303649037922 0 0 0 0 -23.646080019010469 -14.156854722208891 0 -14.156854722208891 -28.055630137328563 0 0 0 0 -18.692337073494024 6.9129209395461046 0 6.9129209395461046 -2.6029318583131271 0 0 0 0 14.974943945731752 -6.2721455536002964 0 -6.2721455536002964 -15.810338718926801 0 0 0 0 -32.209139477166104 -3.4687192233452606 0 -3.4687192233452606 -5.700344072408484 0 0 0 0 -20.47338501860628 4.1088940328015724 0 4.1088940328015724 -17.955712158774929 0 0 0 0 -25.200115544293137 4.0799184802619557 0 4.0799184802619557 -12.456092989475678 0 0 0 0 -20.631874539505034 -0.5143622692432297 0 -0.5143622692432297 7.9924724216120921 0 0 0 0 -0.080209626472408091 -0.1991368428586896 0 -0.1991368428586896 -0.58521239082511878 0 0 0 0 -64.614257641940782 -31.982963506657541 0 -31.982963506657541 -8.7210136629942099 0 0 0 0 5.9772843495335337 11.927666177997935 0 11.927666177997935 -24.624118262739273 0 0 0 0 -29.49342517228223 -8.8694203061742769 0 -8.8694203061742769 6.4666752766793252 0 0 0 0 -38.752730074752606 -13.511734850460357 0 -13.511734850460357 -1.8278258294466241 0 0 0 0 -34.815733395389032 -20.305150057741088 0 -20.305150057741088 -7.2518521104259435 0 0 0 0 -0.079899918993785402 -0.42396040511761013 0 -0.42396040511761013 -1.4270221145721633 0 0 0 0 12.039101820953704 -20.704864527738152 0 -20.704864527738152 -11.739622124811717 0 0 0 0 -5.5962346817720032 7.9755021314151548 0 7.9755021314151548 -13.426322065342674 0 0 0 0 -19.732313789068215 4.9529298510870063 0 4.9529298510870063 -8.7304885404003016 0 0 0 0 -23.386914867458245 -9.249228068544312 0 -9.249228068544312 -14.953104495507375 0 0 0 0 -8.7993019866339637 -3.1749256528721617 0 -3.1749256528721617 -13.11292821686061 0 0 0 0 -33.126796865426059 -20.698670399107868 0 -20.698670399107868 -13.972778913975617 0 0 0 0 -12.58905991475126 -17.989416602078109 0 -17.989416602078109 -20.754261569489984 0 0 0 0 -17.02388594866818 -15.1903147405651 0 -15.1903147405651 -14.929628300861509 0 0 0 0 -22.543090748885049 -10.897131894257598 0 -10.897131894257598 -11.891896829482903 0 0 0 0 -42.599446416292096 -3.2672521176800728 0 -3.2672521176800728 -13.224284164586663 0 0 0 0 -13.294471909262597 -1.6775631541332814 0 -1.6775631541332814 -16.569686083223928 0 0 0 0 -28.777116638613847 5.6231947812433418 0 5.6231947812433418 -49.680491222949684 0 0 0 0 -29.066730142984753 -8.2273533697314747 0 -8.2273533697314747 -45.500519269732877 0 0 0 0 -36.914623915186894 -0.32822483358410182 0 -0.32822483358410182 -11.195377584058406 0 0 0 0 -38.277792178447484 4.5433915416188881 0 4.5433915416188881 -33.467822686570571 0 0 0 0 -30.514167054884226 18.212904693097755 0 18.212904693097755 -82.305667394306056 0 0 0 0 -22.055862416619334 11.846557249523585 0 11.846557249523585 -83.046794481006259 0 0 0 0 0.82920134488415442 -7.9503550727076231 0 -7.9503550727076231 -91.879370403234589 0 0 0 0 -28.352895013964371 -3.1829486587334941 0 -3.1829486587334941 -89.372382418747293 0 0 0 0 -27.817409219902629 -22.527407469561297 0 -22.527407469561297 15.917120317627905 0 0 0 0 -38.134062411813375 9.627826922145573 0 9.627826922145573 -29.072506869842869 0 0 0 0 -37.093755905261901 33.713070288384642 0 33.713070288384642 -83.785479484573671 0 0 0 0 -31.05538863142354 13.146793214698164 0 13.146793214698164 -85.787402697019388 0 0 0 0 14.936578084420844 20.869402198851361 0 20.869402198851361 -137.46452854650965 0 0 0 0 -1.6492928092804391 46.834260597659295 0 46.834260597659295 -76.164495360982073 0 0 0 0 -38.979726393905878 35.371093807434931 0 35.371093807434931 -3.2680456406037024 0 0 0 0 -35.056747485544918 -32.282305527631138 0 -32.282305527631138 -180.16321979169879 0 0 0 0 -8.5276704631786515 -2.9693165839303219 0 -2.9693165839303219 -168.07500573724155 0 0 0 0 -50.991679820518584 -20.848042920241369 0 -20.848042920241369 -158.5041663203051 0 0 0 0 -14.965759409087696 7.885043835178692 0 7.885043835178692 -153.98753438109907 0 0 0 0 -15.977136402912549 4.7803002229939011 0 4.7803002229939011 -151.20395432252985 0 0 0 0 -32.944292959392669 33.797968905490848 0 33.797968905490848 -101.55885103252433 0 0 0 0 -46.602433634379281 13.803753140723416 0 13.803753140723416 -98.515039887859871 0 0 0 0 -28.799447398594936 14.772440433558927 0 14.772440433558927 -157.48985092605085 0 0 0 0 -75.183609431590241 47.354859264423112 0 47.354859264423112 -166.6459980199179 0 0 0 0 -38.342194269514778 -5.8788296243509421 0 -5.8788296243509421 -159.90637712556668 0 0 0 0 -26.329006322163991 53.788405686300052 0 53.788405686300052 -95.672588851310593 0 0 0 0 -24.659467298184865 22.773859679192014 0 22.773859679192014 44.086304797201592 0 0 0 0 -29.364573719101145 -85.590014148583577 0 -85.590014148583577 -273.69226502866059 0 0 0 0 -12.665944396204793 -15.441588488996558 0 -15.441588488996558 -318.33478894887116 0 0 0 0 -0.8774116140677154 -0.52803573669586257 0 -0.52803573669586257 -1.3181607731598641 0 0 0 0 -81.46450992388867 -5.1799783581018346 0 -5.1799783581018346 -71.154377884084738 0 0 0 0 -51.057565189127473 -10.637920870338821 0 -10.637920870338821 -146.48051066402331 0 0 0 0 -23.865121150228845 16.785620201654979 0 16.785620201654979 -173.90266125785695 0 0 0 0 -30.772568137966402 19.62130556767795 0 19.62130556767795 -108.24973795534788 0 0 0 0 -6.201448584391386 8.0711065209413277 0 8.0711065209413277 -126.40769255415489 0 0 0 0 7.7461329291228367 -14.398955616645253 0 -14.398955616645253 -140.0181872779583 0 0 0 0 -4.1969752980170369 0.54546608189616563 0 0.54546608189616563 -122.03041179197271 0 0 0 0 -30.671455385942778 36.095375500241346 0 36.095375500241346 -134.03042264511851 0 0 0 0 -24.948671801632628 -10.963171613064617 0 -10.963171613064617 -145.41037964466841 0 0 0 0 -4.1976897556984341 -2.9224954224353041 0 -2.9224954224353041 -167.46906532028561 0 0 0 0 -0.9441705912577163 -20.501436248279333 0 -20.501436248279333 -117.64965439398566 0 0 0 0 -3.0142978021166367 -0.98045852074037576 0 -0.98045852074037576 1.2199564947991481 0 0 0 0 -12.515989500577007 -29.384688747069276 0 -29.384688747069276 -120.21864962875952 0 0 0 0 5.2194930456259954 -88.182023286751217 0 -88.182023286751217 -250.65923644967143 0 0 0 0 -0.44322902245706286 -0.50198552588133705 0 -0.50198552588133705 -0.094865107171650642 0 0 0 0 5.8922343948333662 -29.467757685747472 0 -29.467757685747472 -110.50099539953749 0 0 0 0 6.272304340532628 -8.0094190942680257 0 -8.0094190942680257 -111.75254785558081 0 0 0 0 -5.3310573175537002 -5.5731578650797928 0 -5.5731578650797928 1.4378931520132028 0 0 0 0 0.21770337936141271 -2.2576840503987627 0 -2.2576840503987627 -7.7571281184919458 0 0 0 0 -0.89989941630710746 -7.4696309580647267 0 -7.4696309580647267 -5.5630608133860733 0 0 0 0 -4.1501320158265571 -4.048393009539268 0 -4.048393009539268 1.6634522005836629 0 0 0 0 -5.0547577447294998 -5.3917480415027512 0 -5.3917480415027512 0.297826365443143 0 0 0 0 -68.315348702945812 35.437179970973034 0 35.437179970973034 -0.45043706172577913 0 0 0 0 -16.029411373546452 18.85183915719972 0 18.85183915719972 -23.396199169462363 0 0 0 0 -64.162352284397258 27.009845694722003 0 27.009845694722003 -55.838996816383826 0 0 0 0 -73.546950491199368 45.417556319377439 0 45.417556319377439 -12.420658831824767 0 0 0 0 55.458859899607347 17.342181208792027 0 17.342181208792027 -42.136718017490239 0 0 0 0 -8.2519820019429773 37.223777819850056 0 37.223777819850056 5.493917765838205 0 0 0 0 8.7802437322577305 -13.820724367163848 0 -13.820724367163848 3.2396561757877649 0 0 0 0 -10.19236734947691 28.476737488132812 0 28.476737488132812 -62.214913592525704 0 0 0 0 -65.276441826311526 36.763263370207937 0 36.763263370207937 -10.112443615329994 0 0 0 0 -68.37244624502874 28.000321770167318 0 28.000321770167318 -27.277370670495429 0 0 0 0 -66.37388972967949 49.382603457580444 0 49.382603457580444 -8.3372354312500647 0 0 0 0 -73.224976138029064 41.86663435643095 0 41.86663435643095 -9.593769281154664 0 0 0 0 -77.209722430637385 38.400647145606513 0 38.400647145606513 -3.7508488848462207 0 0 0 0 -39.17628304310653 37.728269759284899 0 37.728269759284899 -18.619510124873386 0 0 0 0 -58.946205139787587 33.103435476627226 0 33.103435476627226 -12.657136236582573 0 0 0 0 -50.787963869365797 40.089056202586278 0 40.089056202586278 -9.0651921118881091 0 0 0 0 -47.913143056219496 32.905656886495876 0 32.905656886495876 -20.357869382172908 0 0 0 0 -79.965016486601087 52.312400852509825 0 52.312400852509825 -22.694392521331217 0 0 0 0 -64.327848902232802 28.414356171716292 0 28.414356171716292 -12.981436327149993 0 0 0 0 -49.696132331272956 -20.717734856558423 0 -20.717734856558423 -4.6846549102531299 0 0 0 0 4.5686313677172379 -6.7353779378264846 0 -6.7353779378264846 -9.5244909800699133 0 0 0 0 1.4891548846758837 -11.534182286023452 0 -11.534182286023452 7.4326862124507898 0 0 0 0 -24.256690802537747 -15.025627268910057 0 -15.025627268910057 11.191835642925071 0 0 0 0 -6.1894234199514386 -16.594003384811685 0 -16.594003384811685 26.157339585745831 0 0 0 0 -42.751220701339406 4.9169805981102854 0 4.9169805981102854 5.0316265957288806 0 0 0 0 -22.708514534750588 10.276576491992028 0 10.276576491992028 -0.97913955849367085 0 0 0 0 -17.154190265657256 -9.3650602902501419 0 -9.3650602902501419 25.661016182828803 0 0 0 0 -12.289088820526516 -2.2853592272469427 0 -2.2853592272469427 32.800420498411313 0 0 0 0 -7.4485704522221852 -6.1937302132018885 0 -6.1937302132018885 3.3568655311175348 0 0 0 0 -16.261341136701631 -13.514308101055462 0 -13.514308101055462 20.375971343734363 0 0 0 0 0.15504326847845298 -1.1987899501628354 0 -1.1987899501628354 -3.228113338209516 0 0 0 0 8.7300893297351827 -29.159298646633992 0 -29.159298646633992 22.805132109041097 0 0 0 0 11.736906514544614 -9.2188190957716643 0 -9.2188190957716643 19.618696212138957 0 0 0 0 -18.522272262197703 -9.1620144161441885 0 -9.1620144161441885 -24.793246042837268 0 0 0 0 -1.4568590674366901 1.3015131944207146 0 1.3015131944207146 -0.6306903017101595 0 0 0 0 -3.5322525310818378 2.6325309304220639 0 2.6325309304220639 -34.526180405159721 0 0 0 0 -0.35273631610714151 0.21395800616904909 0 0.21395800616904909 -0.28546504313729426 0 0 0 0 13.216455708597948 -4.8593401656293622 0 -4.8593401656293622 -112.73944735240661 0 0 0 0 -16.576762138179561 -34.728962126587589 0 -34.728962126587589 -85.595161295494449 0 0 0 0 8.0473170501569484 -14.610826504234637 0 -14.610826504234637 -79.227007601092566 0 0 0 0 -0.964769580642169 -0.50023091634903172 0 -0.50023091634903172 -0.59708353934138181 0 0 0 0 -9.6292419283252855 -23.941589978576872 0 -23.941589978576872 -95.550357382627396 0 0 0 0 -17.833363657461319 -36.132102318277987 0 -36.132102318277987 -83.185864227162767 0 0 0 0 -0.75708872344898737 -40.812068630968525 0 -40.812068630968525 -170.53447327590641 0 0 0 0 -7.0663255552289002 -27.165974225317939 0 -27.165974225317939 -98.892272157916182 0 0 0 0 -0.45400438129125487 -0.18039479870679886 0 -0.18039479870679886 -0.03305210131958955 0 0 0 0 -111.0203511267058 -30.094128762010996 0 -30.094128762010996 -160.07566088117539 0 0 0 0 -108.79559473300662 -22.283987706256767 0 -22.283987706256767 -147.09182373118392 0 0 0 0 -76.923558451265819 37.069655003185403 0 37.069655003185403 5.7161615794941625 0 0 0 0 -115.87588901730908 -27.724253090530055 0 -27.724253090530055 -73.138919376723834 0 0 0 0 -84.742460143674208 19.122226759782201 0 19.122226759782201 -30.306964208449699 0 0 0 0 -74.425841383013022 32.383763358084366 0 32.383763358084366 -35.466820432143777 0 0 0 0 -2.3536513218439694 12.283056265088589 0 12.283056265088589 -9.4750136494168693 0 0 0 0 -30.718862334946238 45.834646537207334 0 45.834646537207334 -21.988244301812301 0 0 0 0 23.798523781304993 -82.06534522144284 0 -82.06534522144284 -126.34460744931198 0 0 0 0 14.766447252477292 -79.230546163518738 0 -79.230546163518738 -39.201958814033787 0 0 0 0 -0.11217625864238467 -0.77736565131818525 0 -0.77736565131818525 -2.2013791258728297 0 0 0 0 2.8395852875414676 113.7183012031669 0 113.7183012031669 -127.90927247170009 0 0 0 0 -122.02870901370193 -97.214483271963218 0 -97.214483271963218 3.2494957316553155 0 0 0 0 34.696694582700275 -6.007296942037101 0 -6.007296942037101 -172.71208748264689 0 0 0 0 3.7090561743193575 28.044201997855453 0 28.044201997855453 28.058366297949306 0 0 0 0 72.607189695168472 32.910973764680421 0 32.910973764680421 -204.62069447687259 0 0 0 0 1.8545568847960112 7.4170884149726817 0 7.4170884149726817 -2.9312801156456771 0 0 0 0 2.0045252683161614 0.7424645992198915 0 0.7424645992198915 -0.036799868751710818 0 0 0 0 -2.5981248574466109 1.7778230100178671 0 1.7778230100178671 -0.38945920003996015 0 0 0 0 0.96007786006839524 5.4853492840925355 0 5.4853492840925355 -23.631898351182826 0 0 0 0 1.1873013408902011 6.5789037837080286 0 6.5789037837080286 -26.087116703321044 0 0 0 0 1.4838281840845866 4.9446797330338086 0 4.9446797330338086 -26.372155479044977 0 0 0 0 9.6680128943139607 -28.395545152351588 0 -28.395545152351588 7.8900635558709382 0 0 0 0 0.4747913352162394 1.1157575922795306 0 1.1157575922795306 0.43335420439385164 0 0 0 0 -25.067868067422864 -25.972223216932207 0 -25.972223216932207 9.6412420218921397 0 0 0 0 43.653379172272707 15.634447698799704 0 15.634447698799704 -12.904519864751819 0 0 0 0 20.862661131773166 24.168263713518172 0 24.168263713518172 -38.164759338857039 0 0 0 0 8.5002846136938501 -7.1968860118877274 0 -7.1968860118877274 -61.277220375002798 0 0 0 0 0.16078556966852986 0.000394728040280512 0 0.000394728040280512 0.4833076934865872 0 0 0 0 -116.45544584388722 7.995580726200842 0 7.995580726200842 -12.983844970387509 0 0 0 0 -8.5077557837175846 77.926799596679302 0 77.926799596679302 -92.355003881244556 0 0 0 0 16.175595449293724 -41.025730335942171 0 -41.025730335942171 -123.75934026369305 0 0 0 0 -1.9471782897525713 30.178018410466223 0 30.178018410466223 -9.5040230666800198 0 0 0 0 15.28543985127817 2.2858439077684238 0 2.2858439077684238 -20.112633881724832 0 0 0 0 15.381988712452767 3.0108730101060246 0 3.0108730101060246 -32.811943786478878 0 0 0 0 32.657904489092743 12.68267747458367 0 12.68267747458367 -28.025649985258042 0 0 0 0 8.5585717734365971 40.667820605300449 0 40.667820605300449 -52.371490313343202 0 0 0 0 34.382635006862586 56.811867931316954 0 56.811867931316954 -88.781805463053843 0 0 0 0 -2.3480794940456939 3.9146089836849631 0 3.9146089836849631 -6.7905297711913724 0 0 0 0 4.924319271476179 33.364153393976949 0 33.364153393976949 -0.65651184839271082 0 0 0 0 20.782875611404734 -1.1267363707678442 0 -1.1267363707678442 -56.971283862239716 0 0 0 0 -57.924454897962733 30.831591818334687 0 30.831591818334687 31.375467801364493 0 0 0 0 -115.52945108012489 9.2486820052683925 0 9.2486820052683925 -21.370897315780212 0 0 0 0 -33.70429707050539 -22.034958322444027 0 -22.034958322444027 -10.563221302523743 0 0 0 0 -10.255658381868471 2.1588941976505112 0 2.1588941976505112 10.772229290111568 0 0 0 0 -11.11777066924185 4.1597446517140497 0 4.1597446517140497 9.2987829825083281 0 0 0 0 -3.308191201926979 8.0247206564800972 0 8.0247206564800972 -0.11063381591048582 0 0 0 0 9.712124888574408 46.829206175935269 0 46.829206175935269 19.28713264468729 0 0 0 0 17.247493755211281 6.9347570060720045 0 6.9347570060720045 -9.8994315827667378 0 0 0 0 -3.6154375611747658 7.7322853655999664 0 7.7322853655999664 -8.1392802323931832 0 0 0 0 3.0413693543996541 2.6899603576687463 0 2.6899603576687463 -0.95419768921833192 0 0 0 0 -34.635438982722917 -4.2373406425958819 0 -4.2373406425958819 34.998300395015804 0 0 0 0 29.099750183784408 30.418525102060357 0 30.418525102060357 -21.009280333973038 0 0 0 0 8.0182905242436391 16.360382100475817 0 16.360382100475817 -136.82198681900809 0 0 0 0 -4.4995419841475268 -40.610780956598319 0 -40.610780956598319 -91.973622919587797 0 0 0 0 1.1161567330475464 -5.4916648422563412 0 -5.4916648422563412 -14.498544996025885 0 0 0 0 8.2500275776847047 11.857446520123631 0 11.857446520123631 -75.794597638085179 0 0 0 0 23.38356944392217 -12.381194934907398 0 -12.381194934907398 -65.034285784366148 0 0 0 0 15.680071220324407 -28.43512558607199 0 -28.43512558607199 -98.33679566648425 0 0 0 0 20.374776757714102 -21.997549049725365 0 -21.997549049725365 -83.231329738540808 0 0 0 0 20.787758184960921 -5.4917174249715117 0 -5.4917174249715117 -82.131502327993076 0 0 0 0 19.628651571124919 -26.115439169573619 0 -26.115439169573619 -73.127124595434452 0 0 0 0 -0.028318991805411642 0.24935047789212383 0 0.24935047789212383 -0.83079335744748306 0 0 0 0 -4.330247712123537 5.1919588194834887 0 5.1919588194834887 7.9231545463348994 0 0 0 0 -0.84500396439761438 2.1641596309462336 0 2.1641596309462336 0.23659396852704617 0 0 0 0 -0.21593385519781805 6.4554620602170871 0 6.4554620602170871 3.9189097992353936 0 0 0 0 -2.6661041419703215 6.848676957590186 0 6.848676957590186 -11.629626499088527 0 0 0 0 1.1682670639775097 40.528474202219513 0 40.528474202219513 -1.8333757513898945 0 0 0 0 -34.596450011341119 44.433798871561066 0 44.433798871561066 -1.6446222146851142 0 0 0 0 -54.3827025523251 3.8426388932416558 0 3.8426388932416558 3.9652725930004635 0 0 0 0 30.181503639545326 9.8270403457349857 0 9.8270403457349857 -71.419896331430436 0 0 0 0 -2.4064879905251439 6.3741844173735434 0 6.3741844173735434 -14.039229514887461 0 0 0 0 31.067997639126133 16.711187584979598 0 16.711187584979598 -27.699227325850416 0 0 0 0 -1.1204419466652489 6.8290234111564025 0 6.8290234111564025 -11.252917460789604 0 0 0 0 -1.1896347623032284 8.111364169799856 0 8.111364169799856 -22.689922547968763 0 0 0 0 -21.755511450887752 14.760785786827114 0 14.760785786827114 -14.157023842718445 0 0 0 0 -14.345641339622603 -20.493515955229782 0 -20.493515955229782 -68.099366191185084 0 0 0 0 -0.13924470203257067 0.02989982642066602 0 0.02989982642066602 -0.1308723648518566 0 0 0 0 2.5787290528597282 0.75195820590238327 0 0.75195820590238327 -59.476494423562599 0 0 0 0 -0.47233355923571496 0.77244519297985992 0 0.77244519297985992 -2.1671923101876001 0 0 0 0 -4.5466277660316905 -8.8349749803824125 0 -8.8349749803824125 -46.886221759179762 0 0 0 0 -0.86101182236092577 0.43338338620766592 0 0.43338338620766592 1.4787055904093789 0 0 0 0 -11.315457801527828 -7.0681814655324615 0 -7.0681814655324615 -20.380720809825391 0 0 0 0 -14.538253542368579 -50.671247007863485 0 -50.671247007863485 -88.670585957603635 0 0 0 0 -5.4452017145322316 -13.226781319977931 0 -13.226781319977931 -45.725926804619974 0 0 0 0 -11.206848610822362 -32.971348799972475 0 -32.971348799972475 -81.110595839993493 0 0 0 0 22.812251297191665 -10.555211087023963 0 -10.555211087023963 -118.9928681902411 0 0 0 0 0.90580698963611894 -15.322113701845808 0 -15.322113701845808 -119.38752067778728 0 0 0 0 21.484791682564151 -21.293485700677479 0 -21.293485700677479 -175.55526834777811 0 0 0 0 -7.76948190506603 43.490635324275019 0 43.490635324275019 -92.703334896782053 0 0 0 0 -9.446532231385163 2.9386629975555252 0 2.9386629975555252 -44.301073918527663 0 0 0 0 -5.3464619631037209 -5.7222672587687384 0 -5.7222672587687384 -0.0053758700310027052 0 0 0 0 -1.0325606259805475 -2.4036490834825677 0 -2.4036490834825677 1.1107248190961503 0 0 0 0 -6.2194480261946907 -4.6433152202926067 0 -4.6433152202926067 0.52981644041187792 0 0 0 0 -2.0343396054998912 -1.9728426882567063 0 -1.9728426882567063 -0.20649170744268552 0 0 0 0 -2.0232596008885437 -58.479967544796523 0 -58.479967544796523 40.034593347257214 0 0 0 0 -18.790605370330383 7.8113415379848448 0 7.8113415379848448 74.207229551962882 0 0 0 0 0.96157944291039554 -1.1932407026302521 0 -1.1932407026302521 -0.85423696794343495 0 0 0 0 2.5887973597918954 -0.79336503739324371 0 -0.79336503739324371 42.618282833033845 0 0 0 0 -2.4443851064448712 -3.4628786568149064 0 -3.4628786568149064 -2.697073452241046 0 0 0 0 -4.8805662762847959 -7.0311754083575124 0 -7.0311754083575124 -3.3153833721426054 0 0 0 0 -2.6987044660754691 -6.7278067214238035 0 -6.7278067214238035 -58.714876947357652 0 0 0 0 -28.537918126512864 -16.541622216362839 0 -16.541622216362839 -5.7937361616486669 0 0 0 0 -5.5384648732206614 -2.5068331461866364 0 -2.5068331461866364 -14.917240025983347 0 0 0 0 0.79871692513216863 0.18225666658565043 0 0.18225666658565043 -0.27064020538794331 0 0 0 0 -9.4980145079808835 59.914728184474825 0 59.914728184474825 116.34482467174348 0 0 0 0 -5.3506460345474807 -14.625938857498113 0 -14.625938857498113 -6.1913512572893978 0 0 0 0 -94.138831250540079 2.1231886145465069 0 2.1231886145465069 107.26203226214193 0 0 0 0 1.0396060095807229 -36.246222733490299 0 -36.246222733490299 -18.19266140468153 0 0 0 0 -18.326083874679625 -38.306298049690668 0 -38.306298049690668 -12.157933648288235 0 0 0 0 4.4503574198970455 -71.733683466029788 0 -71.733683466029788 -63.327659753131229 0 0 0 0 -3.4101822722842599 -62.677833163186506 0 -62.677833163186506 10.009468091669078 0 0 0 0 -58.193072519813313 -46.523091855385701 0 -46.523091855385701 6.6941040717931628 0 0 0 0 -20.581431920298314 -33.64551688669826 0 -33.64551688669826 -0.10376177701800771 0 0 0 0 -38.639233336565212 -25.904738953250444 0 -25.904738953250444 -1.4161954906430765 0 0 0 0 -45.313648231612319 -81.980042709563122 0 -81.980042709563122 62.161219882967998 0 0 0 0 16.774010862449472 -51.666099587665485 0 -51.666099587665485 -245.93763293119582 0 0 0 0 -90.671988739257699 -59.538748757809003 0 -59.538748757809003 -19.564037844960808 0 0 0 0 -1.2037671916613055 -0.99922679013002957 0 -0.99922679013002957 -1.1736809592379451 0 0 0 0 -86.670164994556558 2.4874490129196829 0 2.4874490129196829 9.5969702379096589 0 0 0 0 -14.103898973457831 73.773934480808379 0 73.773934480808379 -233.90008278693676 0 0 0 0 -20.074206937703536 -83.062766726944517 0 -83.062766726944517 -224.64867101639697 0 0 0 0 -41.194664265598362 85.427325400448638 0 85.427325400448638 -176.32678984631502 0 0 0 0 -19.426385837352427 -219.14092474219115 0 -219.14092474219115 -362.30800884703649 0 0 0 0 51.529417760346405 -43.895196893775619 0 -43.895196893775619 -147.39684565899654 0 0 0 0 -0.8953487238210025 1.2584194597350766 0 1.2584194597350766 -2.4522255845439975 0 0 0 0 -126.40436999807889 -21.383408216258431 0 -21.383408216258431 92.604541519901431 0 0 0 0 0.91194582650632583 92.313868394404381 0 92.313868394404381 41.013793990161957 0 0 0 0 -0.7814939098910294 -2.0465841792918624 0 -2.0465841792918624 -4.3129190257028203 0 0 0 0 32.325288600352678 -2.8671402592549384 0 -2.8671402592549384 -24.529779758331973 0 0 0 0 -118.74422374227015 -249.24860131722653 0 -249.24860131722653 -489.10513140042167 0 0 0 0 343.52942193684873 196.38103533983826 0 196.38103533983826 -471.7051126065162 0 0 0 0 4.9065638423735436 99.902556800513139 0 99.902556800513139 167.56980194769153 0 0 0 0 22.2953650942612 -16.549753906767393 0 -16.549753906767393 -172.66074667962994 0 0 0 0 5.656477553493005 93.246527657807746 0 93.246527657807746 40.025747917744297 0 0 0 0 6.8298098816101174 -107.38018404924787 0 -107.38018404924787 89.607506268919224 0 0 0 0 11.42252768997605 -92.197429755818121 0 -92.197429755818121 -11.727205016425614 0 0 0 0 -18.769967101623479 73.176476811487191 0 73.176476811487191 -72.624570743197182 0 0 0 0 -0.88927062082095532 -1.3327552683729191 0 -1.3327552683729191 -1.9233768221632506 0 0 0 0 -20.148948676139298 -55.413987800429823 0 -55.413987800429823 9.1686129027710876 0 0 0 0 -10.40186039513992 -4.1639651981431598 0 -4.1639651981431598 199.839907826483 0 0 0 0 181.44612022399713 -66.225388559974363 0 -66.225388559974363 -267.50990945491867 0 0 0 0 -212.53951354942092 192.70153587684581 0 192.70153587684581 -34.879653368521986 0 0 0 0 0.22853771123390132 -9.380327724536528 0 -9.380327724536528 1.6462818263044028 0 0 0 0 18.366073203945689 -67.26501689885913 0 -67.26501689885913 12.770624789582143 0 0 0 0 -16.020379158540695 -13.877481704914771 0 -13.877481704914771 18.684809498531877 0 0 0 0 -5.4748857381608858 -3.0021391034227403 0 -3.0021391034227403 -1.5161364722909374 0 0 0 0 10.689904761829439 8.4929261633783426 0 8.4929261633783426 -27.570004966013585 0 0 0 0 -8.8071933721487312 2.6102476668233976 0 2.6102476668233976 -24.560725711098712 0 0 0 0 -10.847356284892157 20.998931461645043 0 20.998931461645043 -14.59791182178742 0 0 0 0 -31.965148932338479 13.491993572649562 0 13.491993572649562 -12.153844085827586 0 0 0 0 12.858238835673319 12.632872723370383 0 12.632872723370383 -25.705495155438257 0 0 0 0 -4.3387606441619644 -2.5460187402653336 0 -2.5460187402653336 -1.3429570995960747 0 0 0 0 -7.3971573307291685 5.9407949904834823 0 5.9407949904834823 -2.1054234838984485 0 0 0 0 -5.5475013884938846 -0.079798095850037498 0 -0.079798095850037498 4.7395047474619787 0 0 0 0 -4.6829676437043304 1.6586007393389082 0 1.6586007393389082 -5.1267326143922674 0 0 0 0 -10.284508343904008 26.831708254910154 0 26.831708254910154 -23.942209257621471 0 0 0 0 -0.86038754221124236 12.293348492744826 0 12.293348492744826 -23.730671069582058 0 0 0 0 27.688115767029103 23.947417642225446 0 23.947417642225446 -25.45349095877873 0 0 0 0 -3.0893038671906652 16.848925850553314 0 16.848925850553314 1.5631110814260865 0 0 0 0 -9.9723893393891103 0.74346705887774078 0 0.74346705887774078 -35.082817868285701 0 0 0 0 58.640008105726707 -69.999620306537963 0 -69.999620306537963 -69.419841745059784 0 0 0 0 46.864907877685738 57.489037784542688 0 57.489037784542688 46.93801225547486 0 0 0 0 -84.597192582210852 32.859726831765443 0 32.859726831765443 -104.91261034366016 0 0 0 0 -19.897615643329075 -66.051428365576385 0 -66.051428365576385 -175.30961235753966 0 0 0 0 -0.61813603949036833 -0.72650059921278221 0 -0.72650059921278221 -0.99281361887796926 0 0 0 0 154.79339293256896 128.40980908075471 0 128.40980908075471 -184.48458208590631 0 0 0 0 -52.258770990601974 -52.369536955838498 0 -52.369536955838498 -49.003754179134376 0 0 0 0 0.19046788947300841 0.18865620546286488 0 0.18865620546286488 -2.3754615897177409 0 0 0 0 132.09618125408241 158.1149513198543 0 158.1149513198543 -102.95852165233509 0 0 0 0 -376.94891838646618 -256.7713342418574 0 -256.7713342418574 -264.66725303443673 0 0 0 0 204.08668232461321 319.24332007377598 0 319.24332007377598 200.24662501723651 0 0 0 0 6.8457251200507585 -0.64205943995693815 0 -0.64205943995693815 -8.1769753548633162 0 0 0 0 -1.5591028889039404 -1.5968489811495363 0 -1.5968489811495363 -1.4750716031726405 0 0 0 0 -4.7089495357818762 15.662558786828868 0 15.662558786828868 -3.4624315680221116 0 0 0 0 9.5782675786243772 8.8984601843640121 0 8.8984601843640121 -13.981306524767206 0 0 0 0 2.1731281819189974 7.0722158230828427 0 7.0722158230828427 -10.24324089887341 0 0 0 0 -3.4099190149618401 9.6301942830830285 0 9.6301942830830285 -9.1106908581896278 0 0 0 0 -0.33376481380312839 3.1185545931966772 0 3.1185545931966772 -6.9434604235366351 0 0 0 0 -11.846086811177557 3.407892498444653 0 3.407892498444653 -3.0003311059010684 0 0 0 0 -10.483725980897422 5.5035527710433598 0 5.5035527710433598 -13.78281666739349 0 0 0 0 -34.419594125215824 -15.56695163988843 0 -15.56695163988843 -5.6385319225382773 0 0 0 0 -31.662013788347764 -7.67698336704143 0 -7.67698336704143 -10.310208402845092 0 0 0 0 -22.588988863447021 9.0583161549848228 0 9.0583161549848228 -3.5243156606247794 0 0 0 0 -21.166489937413033 -3.6631860842326205 0 -3.6631860842326205 -33.802743075763829 0 0 0 0 -33.856002906774073 -15.945432713563832 0 -15.945432713563832 -19.192787386692544 0 0 0 0 -9.9410411840066644 -6.7591883701834377 0 -6.7591883701834377 -20.488462404320671 0 0 0 0 -14.986750476104078 -4.612169921714667 0 -4.612169921714667 2.6687030087014136 0 0 0 0 -21.407987189807653 -1.4759624753091884 0 -1.4759624753091884 -1.0246716067454145 0 0 0 0 12.272888570400625 1.1774551425073696 0 1.1774551425073696 -15.633971000839665 0 0 0 0 -10.936917925651642 7.9228149483760717 0 7.9228149483760717 14.040395216310799 0 0 0 0 -3.3450649617462034 -18.74811601143665 0 -18.74811601143665 -28.779136171787286 0 0 0 0 3.2496835668510755 -9.4277061527845945 0 -9.4277061527845945 -39.166583540312786 0 0 0 0 -3.7781095534022882 -24.253238573402768 0 -24.253238573402768 -73.262681479751336 0 0 0 0 -5.6408905156438607 -18.262219200737036 0 -18.262219200737036 -42.183483682870246 0 0 0 0 -1.6047151375512243 -24.897068444860906 0 -24.897068444860906 -83.52635964883666 0 0 0 0 -17.869344087013033 -13.333093398613528 0 -13.333093398613528 -73.055562872423479 0 0 0 0 -6.9487416336915686 -10.851337133966808 0 -10.851337133966808 -162.35399447513873 0 0 0 0 -26.727935282684911 -2.1240148815786597 0 -2.1240148815786597 -84.89414019186097 0 0 0 0 -16.031426664632022 29.029925491701761 0 29.029925491701761 -104.80093690130684 0 0 0 0 -25.460942067730556 2.2482319998773619 0 2.2482319998773619 -145.60368456836977 0 0 0 0 -13.604655172591109 13.396431147420117 0 13.396431147420117 -4.2184728927754804 0 0 0 0 17.325432707448016 -2.5141661513857798 0 -2.5141661513857798 -13.606985606843637 0 0 0 0 -17.768341057611948 0.63633176426378668 0 0.63633176426378668 -13.760503744040761 0 0 0 0 0.21871386599394782 -20.899123675489591 0 -20.899123675489591 -75.93861968809415 0 0 0 0 2.8428025481820214 -24.304024530432343 0 -24.304024530432343 -74.22327267018386 0 0 0 0 1.1616024528801745 -29.360772926302161 0 -29.360772926302161 -70.834084085476206 0 0 0 0 6.9499854065499846 -21.515542357449704 0 -21.515542357449704 -75.935517147670453 0 0 0 0 3.4567909821448524 -0.4024870991647731 0 -0.4024870991647731 -40.83673152396841 0 0 0 0 -8.194368840841797 -17.85461743768974 0 -17.85461743768974 -24.734775581374379 0 0 0 0 -9.6949017468632519 -4.7003671365282571 0 -4.7003671365282571 106.39582250282899 0 0 0 0 -0.2076815836911976 -16.819484530575892 0 -16.819484530575892 -24.639430423201702 0 0 0 0 -4.682175029444771 -2.1008570379963132 0 -2.1008570379963132 -0.87381890723429301 0 0 0 0 -1.6621325671156324 -0.5277416585870256 0 -0.5277416585870256 -0.2576500442514309 0 0 0 0 -7.5962825974781083 42.91493581919076 0 42.91493581919076 -17.997722131048704 0 0 0 0 -23.073908406156306 -38.573695783103176 0 -38.573695783103176 45.729755278362518 0 0 0 0 -0.85352604038961744 -41.134274990721224 0 -41.134274990721224 -111.37896237262203 0 0 0 0 5.6217577516663084 7.4582193889662562 0 7.4582193889662562 -129.38178518255017 0 0 0 0 -90.837382248121472 11.599022842763588 0 11.599022842763588 41.069633141514714 0 0 0 0 -51.522914293070954 -99.847147993823569 0 -99.847147993823569 -91.904706504134992 0 0 0 0 21.566182264446638 -4.550998101542973 0 -4.550998101542973 27.607127607016764 0 0 0 0 23.358065787902092 22.415978551842272 0 22.415978551842272 -124.588638381637 0 0 0 0 20.123958085255637 -9.8139027858119334 0 -9.8139027858119334 -41.147759547578971 0 0 0 0 -53.237763092242233 34.011948232041277 0 34.011948232041277 -30.600963871527256 0 0 0 0 -57.364799950181975 -43.379595307982072 0 -43.379595307982072 -53.224306107450047 0 0 0 0 2.6559368447784664 18.118782086815372 0 18.118782086815372 -0.7558072875972357 0 0 0 0 -6.9850016912769206 1.8763229432504431 0 1.8763229432504431 -8.4119204864855419 0 0 0 0 0.62204671903442021 1.2725882201034047 0 1.2725882201034047 0.35589553519274642 0 0 0 0 -24.08061405707803 5.6090555206951649 0 5.6090555206951649 38.596910481247505 0 0 0 0 -16.948916822709499 69.233152697893956 0 69.233152697893956 -155.23612754038504 0 0 0 0 0.16187435668856942 83.744404332529086 0 83.744404332529086 -224.37410687228657 0 0 0 0 -9.5598643825448271 19.94538356859465 0 19.94538356859465 -79.788851080583299 0 0 0 0 -33.548166348997071 188.99549840712928 0 188.99549840712928 -258.05567831071039 0 0 0 0 29.421862655634246 147.36195064255662 0 147.36195064255662 -318.27471920213475 0 0 0 0 -68.549452850971917 149.39154632108807 0 149.39154632108807 -144.49449722268037 0 0 0 0 12.966791577308477 210.33621470404864 0 210.33621470404864 -482.17595912106935 0 0 0 0 55.501499858271153 145.93304434414631 0 145.93304434414631 -499.76764623316058 0 0 0 0 65.973506523256447 80.498569149443028 0 80.498569149443028 -305.48550651011601 0 0 0 0 71.746191178787583 57.992292462541286 0 57.992292462541286 -499.94628240689508 0 0 0 0 8.1362119847954375 73.092510708430609 0 73.092510708430609 -305.33431341247046 0 0 0 0 -26.143624642953597 -19.820468804992288 0 -19.820468804992288 46.004197070963983 0 0 0 0 0.054973597930822071 0.39118253743209586 0 0.39118253743209586 -0.075557276387729466 0 0 0 0 5.3959742863681726 53.871967906055488 0 53.871967906055488 -240.10544085514402 0 0 0 0 -1.3815014924572893 -0.85560639174786957 0 -0.85560639174786957 -145.38591271100222 0 0 0 0 55.617431581426885 -67.467330944814876 0 -67.467330944814876 -312.22847261327775 0 0 0 0 -0.48735616329151199 -4.1839956680418027 0 -4.1839956680418027 -202.25911938750414 0 0 0 0 4.6026910141697286 42.515898641995364 0 42.515898641995364 -303.07412113253486 0 0 0 0 83.922050495257679 -17.096895575522012 0 -17.096895575522012 -298.56578816871706 0 0 0 0 89.836207136779862 -39.455527147077305 0 -39.455527147077305 -499.83816793155711 0 0 0 0 66.101580098606092 -91.472511396540085 0 -91.472511396540085 -302.35423816323407 0 0 0 0 55.854666040155706 -79.700110494590263 0 -79.700110494590263 -279.98893100325779 0 0 0 0 66.11709751187432 -101.80724393139184 0 -101.80724393139184 -285.43184730905341 0 0 0 0 55.964651014038125 -189.3833037284312 0 -189.3833037284312 -500.15288120771118 0 0 0 0 10.301140885353888 -125.77617350285163 0 -125.77617350285163 -185.72555049651783 0 0 0 0 -15.266799488562114 -40.4476008085785 0 -40.4476008085785 -130.82084090732724 0 0 0 0 -10.052192823564472 -23.357147881528931 0 -23.357147881528931 -89.712891190492883 0 0 0 0 -10.274999385679195 -31.272683388691235 0 -31.272683388691235 14.838641193578869 0 0 0 0 -0.062723045568451707 0.25323679309983405 0 0.25323679309983405 -1.0870681900326282 0 0 0 0 -14.2187641934891 -56.250632250656622 0 -56.250632250656622 -19.378540228626775 0 0 0 0 -9.7755205913961838 -34.333206760887833 0 -34.333206760887833 8.1551586951634363 0 0 0 0 -9.5057566488772096 -34.136961055198128 0 -34.136961055198128 4.295966549920422 0 0 0 0 -10.846018927909682 -28.032711755313585 0 -28.032711755313585 10.318747007447428 0 0 0 0 -18.213249956127513 -29.242756165689684 0 -29.242756165689684 21.175359678510972 0 0 0 0 13.735912633316602 -15.558788085386936 0 -15.558788085386936 15.59913398407457 0 0 0 0 -4.3448158683488316 -40.334871625014443 0 -40.334871625014443 14.30971802836325 0 0 0 0 79.685978674647572 -30.653812395904879 0 -30.653812395904879 -9.576431104224298 0 0 0 0 11.74560682442727 12.120333564588577 0 12.120333564588577 -2.8496310225376646 0 0 0 0 0.25592213521796647 -0.71095497350894232 0 -0.71095497350894232 -6.5470488096050996 0 0 0 0 -206.13570721478914 -1.0537787527744058 0 -1.0537787527744058 -145.72232490440393 0 0 0 0 1.2107500067584474 1.0039580758722628 0 1.0039580758722628 -1.203054927002805 0 0 0 0 -58.169910178581361 206.14704813526836 0 206.14704813526836 -202.6214976540125 0 0 0 0 -8.7118320874088226 132.09202117128939 0 132.09202117128939 -277.87431484759861 0 0 0 0 -152.73861877126276 208.53710485662069 0 208.53710485662069 16.845238721455701 0 0 0 0 -0.78672450001680017 0.92708540306002996 0 0.92708540306002996 -1.0080341634166716 0 0 0 0 -157.38682692070316 175.03187580234595 0 175.03187580234595 -58.174707413248328 0 0 0 0 -265.04889873971007 215.69261826065707 0 215.69261826065707 -37.929679765717651 0 0 0 0 0.18050819767955559 0.53394508601698831 0 0.53394508601698831 -2.1460936967429012 0 0 0 0 -3.5794056320903782 -22.87306203536232 0 -22.87306203536232 -145.23846842296382 0 0 0 0 -4.6433203583747513 -42.056273698662267 0 -42.056273698662267 -131.85700974703494 0 0 0 0 -120.85259232187755 151.63847799587424 0 151.63847799587424 -187.70961807434753 0 0 0 0 -37.853565665820923 4.5981974738490408 0 4.5981974738490408 72.241820528804794 0 0 0 0 -14.824966949712291 -7.841517074547582 0 -7.841517074547582 -33.700177776714554 0 0 0 0 -142.79876087789555 -39.408152676230657 0 -39.408152676230657 -34.995908947488488 0 0 0 0 -176.80900573746013 73.555766865820402 0 73.555766865820402 -38.469520496106497 0 0 0 0 -63.855181975805621 26.840944105222263 0 26.840944105222263 -19.156638650686659 0 0 0 0 -33.975223685958085 66.032374182311571 0 66.032374182311571 -78.895275435287658 0 0 0 0 -34.140043125962862 34.102074633756189 0 34.102074633756189 -51.877769109366227 0 0 0 0 -60.97757551442988 100.48749093012316 0 100.48749093012316 -191.22533691621004 0 0 0 0 -1.678174704625139 30.159308199003306 0 30.159308199003306 -122.92244783595487 0 0 0 0 37.29199114694606 60.117455223997808 0 60.117455223997808 -64.734349635010744 0 0 0 0 1.6688145557782299 7.2890072985774523 0 7.2890072985774523 8.4863355330811601 0 0 0 0 -25.983360201449635 26.489676907646256 0 26.489676907646256 -62.736719577535041 0 0 0 0 -57.218352781779956 -53.261011008133778 0 -53.261011008133778 -53.080721887083804 0 0 0 0 -7.6208404296209764 -4.0643850633611436 0 -4.0643850633611436 11.463585824140409 0 0 0 0 6.7633168036280154 -14.493391073398698 0 -14.493391073398698 -32.114407182645095 0 0 0 0 -9.5552998421908519 4.0431428213363318 0 4.0431428213363318 -9.5813765568652798 0 0 0 0 10.465864070286329 -26.692863421572042 0 -26.692863421572042 0.90023360878086578 0 0 0 0 0.13102514509115309 -0.092048166202009618 0 -0.092048166202009618 -0.6797262371083459 0 0 0 0 -53.766417730239368 11.452160254630599 0 11.452160254630599 6.4661560202931696 0 0 0 0 -0.97500456457006979 -0.6327990967752033 0 -0.6327990967752033 -0.18622849299494248 0 0 0 0 49.375914104000131 -70.615715751153346 0 -70.615715751153346 -66.096908078413435 0 0 0 0 61.235864232255153 -29.662315279709446 0 -29.662315279709446 -25.752349623875944 0 0 0 0 0.5873623228122028 -2.0783379424902235 0 -2.0783379424902235 -11.781059956384439 0 0 0 0 -50.555481255408267 -112.9003229645441 0 -112.9003229645441 1.4671806681726594 0 0 0 0 80.779366245028669 0.53511727296245226 0 0.53511727296245226 -50.082801035920397 0 0 0 0 -13.258040103356166 93.284199807701498 0 93.284199807701498 -10.420941363390313 0 0 0 0 23.702548768212978 -16.98234253409737 0 -16.98234253409737 -60.101904348793596 0 0 0 0 12.502349768702629 -23.096923375480856 0 -23.096923375480856 -40.162048090225653 0 0 0 0 25.274772131862051 -0.14564470621439796 0 -0.14564470621439796 16.05978138674709 0 0 0 0 15.941490876432738 22.40804351217821 0 22.40804351217821 -31.617004633014631 0 0 0 0 10.757658022094574 -12.649125328558057 0 -12.649125328558057 -18.228043825164605 0 0 0 0 50.930014978964437 -12.690154046169084 0 -12.690154046169084 -29.935342135408519 0 0 0 0 100.82568890498862 29.095058973787445 0 29.095058973787445 -55.882994140704795 0 0 0 0 0.4284584472077706 -1.7068986990092716 0 -1.7068986990092716 -13.368403148190231 0 0 0 0 0.94956502045980684 -1.9035160849313042 0 -1.9035160849313042 -12.821617055009227 0 0 0 0 14.695788720584169 -7.842729036771658 0 -7.842729036771658 -17.833463954530998 0 0 0 0 27.789847358094221 18.87318370650496 0 18.87318370650496 -7.565852779596753 0 0 0 0 0.28485457532069808 -0.055181330339002965 0 -0.055181330339002965 -1.5795968476835069 0 0 0 0 25.281219104058735 -29.965892421270723 0 -29.965892421270723 -32.924086416390992 0 0 0 0 46.581582482724116 1.8640869408571916 0 1.8640869408571916 -11.696483381836288 0 0 0 0 -4.6513440525742169 1.1880542050283793 0 1.1880542050283793 -4.8328552908635629 0 0 0 0 -35.51983454616736 -39.087734136305926 0 -39.087734136305926 -14.93110569104141 0 0 0 0 4.9601884164128478 -17.124368427832906 0 -17.124368427832906 -15.859794149082632 0 0 0 0 -4.7720432578405507 -8.2078247171258454 0 -8.2078247171258454 0.59530108018560668 0 0 0 0 0.44188544240432748 -9.7890234280403092 0 -9.7890234280403092 -3.1100435718062727 0 0 0 0 -10.924992726311046 -16.059263571773158 0 -16.059263571773158 -8.7912906447149908 0 0 0 0 0.39132991006484985 -0.62590299691182627 0 -0.62590299691182627 -2.7264326195761877 0 0 0 0 5.5221864732833339 -2.9260638916331914 0 -2.9260638916331914 -5.7053385665242331 0 0 0 0 -36.524876243791475 -37.799732137555225 0 -37.799732137555225 -15.354219456242618 0 0 0 0 5.6950267104461858 13.927310220865763 0 13.927310220865763 -51.623840714312792 0 0 0 0 -1.0081014976759402 0.047152265826384987 0 0.047152265826384987 -1.9359272026525955 0 0 0 0 -21.341556663880986 -10.208300183181677 0 -10.208300183181677 -77.107872636199318 0 0 0 0 -57.066348255509752 23.274486063953191 0 23.274486063953191 -15.450609398707684 0 0 0 0 9.9262255735829967 10.86378589253377 0 10.86378589253377 6.196782044497013 0 0 0 0 2.512249922692126 1.4075512991430159 0 1.4075512991430159 -1.0027713143637667 0 0 0 0 -1.8470426135734215 -2.3147158910774124 0 -2.3147158910774124 -8.0374983133371529 0 0 0 0 1.410362239967611 -4.390451350417238 0 -4.390451350417238 -5.1783743525210095 0 0 0 0 52.385664460149655 -9.1413032623759136 0 -9.1413032623759136 -20.480866815531954 0 0 0 0 0.14152207836969644 -0.28930823606902356 0 -0.28930823606902356 0.49665047098547177 0 0 0 0 -36.108988189643924 -28.643312642800993 0 -28.643312642800993 16.121734814822048 0 0 0 0 -0.58466769496976423 2.5308041222689877 0 2.5308041222689877 -9.5229379154296119 0 0 0 0 9.5913064212775225 8.4642876685211377 0 8.4642876685211377 -16.870099788749485 0 0 0 0 -8.2060477172586275 43.873267420069396 0 43.873267420069396 -60.94792987089204 0 0 0 0 -66.508177680848235 36.264332822426567 0 36.264332822426567 -28.911901948490595 0 0 0 0 -62.725076255118609 117.93856411974366 0 117.93856411974366 -179.38517436671191 0 0 0 0 -63.964426272370929 174.45012408144794 0 174.45012408144794 -226.86487398225745 0 0 0 0 -138.84883561069114 230.11514640858104 0 230.11514640858104 -235.13854987588911 0 0 0 0 -207.348678964192 186.79702857144366 0 186.79702857144366 -38.844492499300031 0 0 0 0 -232.17636663667614 40.682507666930348 0 40.682507666930348 16.31723642507859 0 0 0 0 -97.677929630321614 115.17301947938358 0 115.17301947938358 -81.476318751598228 0 0 0 0 -227.59290201578688 212.33616316994721 0 212.33616316994721 -141.9366021518199 0 0 0 0 -172.04265185146716 -24.465969688440964 0 -24.465969688440964 59.817300159140359 0 0 0 0 29.372487982806547 -76.636533081777088 0 -76.636533081777088 23.721372548866384 0 0 0 0 -172.16178225579893 -266.68566822651508 0 -266.68566822651508 -388.42202467415927 0 0 0 0 -459.80251536575912 45.565143462930507 0 45.565143462930507 -500.18869698270078 0 0 0 0 -321.99760488801485 150.37392329002205 0 150.37392329002205 -117.19375360282174 0 0 0 0 -0.88748786107216993 1.3097261401729701 0 1.3097261401729701 -3.4903738525381556 0 0 0 0 -274.6988773105931 44.262841178641338 0 44.262841178641338 -1109.9766392498532 0 0 0 0 -321.48042996158631 316.89616105482571 0 316.89616105482571 -357.43241909178869 0 0 0 0 -59.606410098626924 246.63840925465274 0 246.63840925465274 -500.2204317357232 0 0 0 0 -251.8412701399352 195.54306342868085 0 195.54306342868085 -151.67998269650343 0 0 0 0 -170.89626505989997 324.11499805901246 0 324.11499805901246 -442.72717961774651 0 0 0 0 -239.95906931651561 197.99417170842059 0 197.99417170842059 -437.71350401700056 0 0 0 0 -1.6056379945365489 -74.822209905108778 0 -74.822209905108778 -223.61243126448358 0 0 0 0 -27.120871566346075 -64.197137105654292 0 -64.197137105654292 -205.19770636288104 0 0 0 0 -63.738125696982117 2.9527925112456614 0 2.9527925112456614 -22.344238321466491 0 0 0 0 -104.98753471526915 -123.36109702872977 0 -123.36109702872977 -92.944490596719334 0 0 0 0 -51.499825315239107 -180.03874259410691 0 -180.03874259410691 -259.37370327691235 0 0 0 0 37.679625166442875 -132.95267960641354 0 -132.95267960641354 -573.78650218790744 0 0 0 0 45.786977205241172 -50.635508597024398 0 -50.635508597024398 -403.23187697401818 0 0 0 0 66.161001237123017 -86.265100284578224 0 -86.265100284578224 -499.97702719838298 0 0 0 0 47.630754366595895 30.672718227860855 0 30.672718227860855 -305.07748320911605 0 0 0 0 76.449498242858866 118.73096705681726 0 118.73096705681726 -498.99912750151941 0 0 0 0 21.115250462782271 -50.285124023975925 0 -50.285124023975925 -41.848640499526482 0 0 0 0 -33.315577969825924 -8.3263296479588007 0 -8.3263296479588007 -222.42706877937479 0 0 0 0 62.634486065456997 72.274024712858591 0 72.274024712858591 -191.9138718646609 0 0 0 0 -0.4819677731563542 -0.032569908625816879 0 -0.032569908625816879 -0.00024858521162796077 0 0 0 0 -21.685665590329592 -45.623938885554935 0 -45.623938885554935 -102.82127438815201 0 0 0 0 13.950984061595861 -46.258826166505628 0 -46.258826166505628 -92.399812235893478 0 0 0 0 -32.957474669441908 41.299745524233231 0 41.299745524233231 -56.451478314787209 0 0 0 0 22.163330222548339 -57.081184601680434 0 -57.081184601680434 0.49507543045069724 0 0 0 0 31.917133999520914 -3.3957182026876467 0 -3.3957182026876467 9.4739283287635772 0 0 0 0 -22.426855119540733 8.2961293601190391 0 8.2961293601190391 0.37260663539751704 0 0 0 0 -13.70834480932654 -26.248972342417574 0 -26.248972342417574 9.2754739324541333 0 0 0 0 -71.690454452595773 -40.480606985958559 0 -40.480606985958559 6.4203598534890034 0 0 0 0 -15.52224392703306 12.271090114518273 0 12.271090114518273 5.4258212011117166 0 0 0 0 0.11340530089024678 -0.48184502057656653 0 -0.48184502057656653 -6.2344863496255245 0 0 0 0 45.758905899979226 -2.6610351196306681 0 -2.6610351196306681 -38.017342285486393 0 0 0 0 153.6891810450158 -13.933885471014548 0 -13.933885471014548 -77.513272045184181 0 0 0 0 4.5266630155104082 43.72312599960005 0 43.72312599960005 -90.195155537608002 0 0 0 0 -127.71567887612449 -153.71623131003693 0 -153.71623131003693 -75.498046684879512 0 0 0 0 -61.016814460933936 208.09685621560072 0 208.09685621560072 -146.09947734093879 0 0 0 0 -0.15512817863007203 -0.10770798462820165 0 -0.10770798462820165 -2.8576703937515555 0 0 0 0 52.696898870444095 -99.173816088335585 0 -99.173816088335585 -498.63521582546264 0 0 0 0 66.128473963892191 -40.847103838060661 0 -40.847103838060661 -249.17213844811351 0 0 0 0 -3.9211234153216239 40.897414283195218 0 40.897414283195218 -203.59915126736894 0 0 0 0 92.341382156111223 -6.5501050286492841 0 -6.5501050286492841 -425.22497023675174 0 0 0 0 111.92520194254739 60.381000232648717 0 60.381000232648717 -500.32532702362016 0 0 0 0 45.584617911898377 62.843374759183803 0 62.843374759183803 -211.13114098033179 0 0 0 0 -11.688369490410551 12.293173452345144 0 12.293173452345144 -68.50489788239156 0 0 0 0 -3.7333781986179559 38.116883504746284 0 38.116883504746284 -125.99953698188082 0 0 0 0 -87.976835825376412 243.25194962125858 0 243.25194962125858 -499.43828740026208 0 0 0 0 -29.257098966136624 74.893291355846941 0 74.893291355846941 -114.17873471792655 0 0 0 0 0.33086533501182641 0.19911395237397045 0 0.19911395237397045 -1.3864108554735726 0 0 0 0 0.23096913527679888 -1.5583616353969774 0 -1.5583616353969774 -6.8140531921708316 0 0 0 0 0.12591183666823233 -0.14018528358691373 0 -0.14018528358691373 -1.4984555295883988 0 0 0 0 -8.7137760821262908 130.87207653897821 0 130.87207653897821 -358.61192292684461 0 0 0 0 -7.926512588683579 121.18735025734247 0 121.18735025734247 -334.88288635287631 0 0 0 0 -48.182915324475886 84.900665875036566 0 84.900665875036566 -99.402402700036419 0 0 0 0 -40.051922220763565 19.740250744399077 0 19.740250744399077 -17.453449533824823 0 0 0 0 0.75332095240368879 -0.94688096532050592 0 -0.94688096532050592 -2.8174069125757391 0 0 0 0 -0.17271994068790419 0.38053885598766257 0 0.38053885598766257 -1.0670639613170598 0 0 0 0 -48.814909786437404 63.698611182441681 0 63.698611182441681 -96.387173781757838 0 0 0 0 -26.837519422546265 68.720885119571221 0 68.720885119571221 -95.938038764878229 0 0 0 0 -18.911024830321622 55.854782624962354 0 55.854782624962354 -92.46652204449947 0 0 0 0 -43.776988864676568 63.49617060422338 0 63.49617060422338 -76.569561933183081 0 0 0 0 -74.473969943982041 97.236776990170597 0 97.236776990170597 -102.72971110572234 0 0 0 0 -37.008152161378561 69.542216091023988 0 69.542216091023988 -99.307748192667162 0 0 0 0 -10.223921142986313 62.379779132734598 0 62.379779132734598 -107.9115492745882 0 0 0 0 -14.066793130060191 55.748087783120923 0 55.748087783120923 -118.6856379157075 0 0 0 0 -7.154105564289722 18.704128052988722 0 18.704128052988722 -50.784749130636101 0 0 0 0 -9.3274573988944631 -1.4228800923197582 0 -1.4228800923197582 -21.826108116036266 0 0 0 0 -1.7299651416830759 16.292495906803765 0 16.292495906803765 -56.194894088893761 0 0 0 0 -50.72131026299909 3.5605019910140783 0 3.5605019910140783 1.0355419896610556 0 0 0 0 17.330702522230879 -4.148502398870562 0 -4.148502398870562 -112.12104552363516 0 0 0 0 9.8643843890538676 -29.020299361602838 0 -29.020299361602838 -69.516954297133452 0 0 0 0 -79.137475296952402 83.43353197883846 0 83.43353197883846 -89.930955108822445 0 0 0 0 0.23212318929783921 -1.0579138498380911 0 -1.0579138498380911 -2.4275733189325912 0 0 0 0 -150.93246509975958 100.85802151876101 0 100.85802151876101 -92.985347449820381 0 0 0 0 7.7662228038313401 33.627160910787893 0 33.627160910787893 -149.61933290501293 0 0 0 0 -61.950624936118928 117.75735387398618 0 117.75735387398618 -162.26734146459808 0 0 0 0 -75.58144265664852 147.09172228763316 0 147.09172228763316 -116.16249151232796 0 0 0 0 -55.623865792218211 110.67085736060062 0 110.67085736060062 -106.03870340886704 0 0 0 0 0.19050059441734873 -0.59355329277324409 0 -0.59355329277324409 -1.397423295266961 0 0 0 0 -10.24488738579166 -9.1369560572094102 0 -9.1369560572094102 3.9580710437186895 0 0 0 0 -62.702965919630671 82.214766114200131 0 82.214766114200131 -198.82898295320274 0 0 0 0 -55.326167822558347 169.24481446236166 0 169.24481446236166 -106.36313655094592 0 0 0 0 -40.781236493219538 148.88628830251002 0 148.88628830251002 -153.51734613904705 0 0 0 0 -34.214498845249445 102.77913976354029 0 102.77913976354029 -77.640317695915655 0 0 0 0 -9.5713859299851265 83.99280281639011 0 83.99280281639011 -155.97088483452728 0 0 0 0 0.088952680677463647 25.639209147937464 0 25.639209147937464 -44.867213308348369 0 0 0 0 -1.8650820113683153 97.615590827620849 0 97.615590827620849 -137.9525091051303 0 0 0 0 -16.881523885138918 -0.59558862744944463 0 -0.59558862744944463 -208.95183828870501 0 0 0 0 -14.99027313454279 -19.055619377384858 0 -19.055619377384858 -55.53467885102117 0 0 0 0 -18.400997327313839 8.7566678020473887 0 8.7566678020473887 33.358016902064492 0 0 0 0 -7.2355378747742947 -26.798766576432399 0 -26.798766576432399 26.476267727314905 0 0 0 0 0.43924609111322793 -0.24780909712469024 0 -0.24780909712469024 0.038419683195305282 0 0 0 0 4.4541212108974086 6.4776583382868012 0 6.4776583382868012 -0.99262668829081235 0 0 0 0 43.811589454053987 -0.78924116567549163 0 -0.78924116567549163 -67.783158284922024 0 0 0 0 -78.074573130425108 69.572437199007666 0 69.572437199007666 -25.162186706512898 0 0 0 0 -16.39893478816596 -2.0674578900744081 0 -2.0674578900744081 11.104250548634127 0 0 0 0 -0.7207703344853319 0.60696158078347395 0 0.60696158078347395 -0.55351158110167242 0 0 0 0 -49.56969562213898 81.519258736504639 0 81.519258736504639 -91.502080418918013 0 0 0 0 -14.429936663671675 -14.4288652956036 0 -14.4288652956036 11.663256015599472 0 0 0 0 21.01354424756039 -16.283625906552743 0 -16.283625906552743 -62.07569780526137 0 0 0 0 2.4384731599702789 21.656367458931868 0 21.656367458931868 19.384010521988728 0 0 0 0 -3.9270372817717298 -5.9028943955126181 0 -5.9028943955126181 12.281948487573345 0 0 0 0 19.891453384443707 4.6545724448188821 0 4.6545724448188821 -4.5510958891322275 0 0 0 0 14.838787050751989 -19.349894057364338 0 -19.349894057364338 -4.6974865965477193 0 0 0 0 1.2879293549925022 0.04742691977086988 0 0.04742691977086988 -0.5872485134126415 0 0 0 0 -1.2067441611388541 1.5770328527573791 0 1.5770328527573791 -1.3741847982026885 0 0 0 0 1.1702117810894981 2.0009267279243659 0 2.0009267279243659 -5.9732977230394226 0 0 0 0 3.8803304109341568 0.19584107027611708 0 0.19584107027611708 -9.5590534630256716 0 0 0 0 9.3716738202887147 4.4612670318932146 0 4.4612670318932146 -8.1389452761656571 0 0 0 0 -0.67192790231921951 0.92280357389003043 0 0.92280357389003043 -0.73035038220623161 0 0 0 0 -1.1045803711249818 -5.5676057932155487 0 -5.5676057932155487 -8.119588784372354 0 0 0 0 -1.8443471250711667 -3.2959127549183336 0 -3.2959127549183336 -7.8923300836121371 0 0 0 0 1.4345353976589479 -1.0164501949773239 0 -1.0164501949773239 -4.2143896866857631 0 0 0 0 7.8986208220228917 -0.20449971041318804 0 -0.20449971041318804 -9.8520077604344749 0 0 0 0 10.579003309728432 0.94895422774536442 0 0.94895422774536442 -10.512887454822589 0 0 0 0 16.781917914643262 3.8905764712042128 0 3.8905764712042128 -7.1999071033066571 0 0 0 0 6.4090511651575639 0.75568834382045225 0 0.75568834382045225 -4.490001042142012 0 0 0 0 9.6211068372077904 5.0977685697370134 0 5.0977685697370134 -7.3503062395216148 0 0 0 0 12.120743683573753 -0.52761470954021661 0 -0.52761470954021661 -4.3885398360729937 0 0 0 0 12.185956750441292 8.9480443757398689 0 8.9480443757398689 3.5439644794038543 0 0 0 0 7.4068631849614448 14.284061262593156 0 14.284061262593156 6.6699376214626227 0 0 0 0 0.29599071831445872 0.40503473545831337 0 0.40503473545831337 -0.95081175446814892 0 0 0 0 7.3708570749549942 6.1540452835947974 0 6.1540452835947974 -4.1250480896109423 0 0 0 0 -0.88162460928473318 2.0443331124821467 0 2.0443331124821467 -3.5684115582296903 0 0 0 0 55.312006182059065 7.0908324735342205 0 7.0908324735342205 -10.55351984016454 0 0 0 0 -12.053014566526691 -20.69624707978673 0 -20.69624707978673 -7.960885680202864 0 0 0 0 35.248860307778386 -21.862740786825668 0 -21.862740786825668 -25.360199641722772 0 0 0 0 154.99167763442819 44.527002363001998 0 44.527002363001998 -46.605108221148612 0 0 0 0 -1.1222257027804416 1.911123912931419 0 1.911123912931419 -2.7703934208480492 0 0 0 0 -5.056642654942384 16.375248490367994 0 16.375248490367994 -6.2341362832747791 0 0 0 0 10.274416372155383 -16.0059487012511 0 -16.0059487012511 20.18224979761429 0 0 0 0 6.0405737956685126 7.7325349221749775 0 7.7325349221749775 -4.9178932266522679 0 0 0 0 7.0291564534482553 8.0241752850539001 0 8.0241752850539001 -5.0450916632962617 0 0 0 0 -5.1875839729245286 -7.3866019716829783 0 -7.3866019716829783 -61.02333851353842 0 0 0 0 -7.3052315159930288 1.9919620399360554 0 1.9919620399360554 -17.793706339580581 0 0 0 0 -0.45581121934228452 0.53164189688795249 0 0.53164189688795249 -0.44465384388744522 0 0 0 0 -1.4977126375854368 -5.5018331696595055 0 -5.5018331696595055 -21.266449787718813 0 0 0 0 20.238270263807365 30.869866441945998 0 30.869866441945998 9.0412088019601242 0 0 0 0 8.4964144288638792 0.029219396708441536 0 0.029219396708441536 36.284741661009889 0 0 0 0 -21.701035597847522 42.659226263644882 0 42.659226263644882 -18.358978249489262 0 0 0 0 -21.82563010343722 2.2978353401423988 0 2.2978353401423988 24.155187849857953 0 0 0 0 2.563211010111246 -2.6258740249613766 0 -2.6258740249613766 -22.832665978409295 0 0 0 0 -0.43268305448898847 0.26337822034083458 0 0.26337822034083458 -0.16170105553169423 0 0 0 0 -7.4360682266974436 -12.5067522500309 0 -12.5067522500309 -35.078861518265299 0 0 0 0 -9.3965215287703927 -6.8238313832366657 0 -6.8238313832366657 -8.3067885447153458 0 0 0 0 10.609925324430861 22.211158624290448 0 22.211158624290448 15.134129178981425 0 0 0 0 12.436161523409545 14.060173040350492 0 14.060173040350492 -11.859151242865607 0 0 0 0 44.135727681075196 -7.3731130168739583 0 -7.3731130168739583 -97.31451690900758 0 0 0 0 -19.292763198926821 40.934452054835219 0 40.934452054835219 45.783892035904046 0 0 0 0 -0.31959467793333185 0.16328482127456612 0 0.16328482127456612 -0.083667796495290325 0 0 0 0 8.299397259031096 -0.41096979512190046 0 -0.41096979512190046 4.2203621950002344 0 0 0 0 -41.247892552982762 -1.454907310117278 0 -1.454907310117278 -3.0587587536089131 0 0 0 0 0.35934895914021614 0.20959017584792461 0 0.20959017584792461 -0.40046599386138715 0 0 0 0 -10.369701169232833 1.6812549356372983 0 1.6812549356372983 23.126672787852002 0 0 0 0 -0.44757871488516443 6.6051741012212233 0 6.6051741012212233 13.982616641541199 0 0 0 0 -6.114142224657634 2.8119479690749358 0 2.8119479690749358 -3.7234918008239219 0 0 0 0 -5.7379976439841656 -3.84321828082102 0 -3.84321828082102 9.8774776251228786 0 0 0 0 0.86484084754690116 0.54490741808467646 0 0.54490741808467646 -1.8967190771945752 0 0 0 0 -13.547720308818342 -1.834017409092894 0 -1.834017409092894 -1.798886760756595 0 0 0 0 -10.900539084420586 7.3367158817262634 0 7.3367158817262634 -4.9236490894232929 0 0 0 0 -0.198805037018424 -7.1043101982002099 0 -7.1043101982002099 -12.80671436521402 0 0 0 0 3.3475949906754749 -0.20580883315983556 0 -0.20580883315983556 -4.6927230997259812 0 0 0 0 3.1754560366202327 -4.8752056987539554 0 -4.8752056987539554 -1.1454241571705097 0 0 0 0 -1.2076777169824879 -5.4542959854932178 0 -5.4542959854932178 3.44098435776516 0 0 0 0 5.1180479289355958 -1.5000661597565568 0 -1.5000661597565568 -9.5801611189269806 0 0 0 0 5.3197977746140737 -0.39344356158846949 0 -0.39344356158846949 -3.5831966146385241 0 0 0 0 -1.277698556580674 3.3621345382919117 0 3.3621345382919117 7.8045761001030769 0 0 0 0 -1.7661180432181141 6.5925572389848526 0 6.5925572389848526 -2.3948887672208912 0 0 0 0 -1.6073656537655268 -3.7580452736913799 0 -3.7580452736913799 16.631471009582924 0 0 0 0 -0.045423332115967163 -0.083777683989595175 0 -0.083777683989595175 0.034444281891237244 0 0 0 0 -1.334024087405254 6.6767363162045683 0 6.6767363162045683 -10.869318636842081 0 0 0 0 0.54711216936311757 -1.1388785722239163 0 -1.1388785722239163 -16.953092123142198 0 0 0 0 -0.76226512090102005 2.0632003536950378 0 2.0632003536950378 -2.5178620908729954 0 0 0 0 -0.76472530531074767 6.9693503317242005 0 6.9693503317242005 -12.314718975518872 0 0 0 0 -2.5566696602127763 4.1884370142582839 0 4.1884370142582839 -1.1524409154765181 0 0 0 0 -5.802887053970764 12.489195179176917 0 12.489195179176917 0.70297676532618425 0 0 0 0 -3.375419149555114 8.1784991455697309 0 8.1784991455697309 -8.3799232419626151 0 0 0 0 -6.7989508983305313 18.220071110443996 0 18.220071110443996 -14.629838718633323 0 0 0 0 -12.84621799257669 16.466465295985117 0 16.466465295985117 -10.534100173387742 0 0 0 0 0.10360797625446921 0.12595199581530292 0 0.12595199581530292 -0.028412384016725412 0 0 0 0 53.233369764650057 -6.9792650192151697 0 -6.9792650192151697 -25.049884902544363 0 0 0 0 -7.2154370204714269 24.748263194805304 0 24.748263194805304 -13.340395404870492 0 0 0 0 2.7531508288779492 2.7658289007360963 0 2.7658289007360963 1.4967718574209812 0 0 0 0 3.3116962634443894 13.693260142713818 0 13.693260142713818 -50.715413137424548 0 0 0 0 -19.444427802310393 -0.93573187568358662 0 -0.93573187568358662 -13.503126898385062 0 0 0 0 -11.617418554777913 23.629646748612458 0 23.629646748612458 -45.943715616724035 0 0 0 0 2.9075141160670626 -2.3962843778389242 0 -2.3962843778389242 -9.9364551009559818 0 0 0 0 1.0669699606709742 3.0648500873203375 0 3.0648500873203375 -17.369486308955686 0 0 0 0 -22.638078319897922 -4.477782177815584 0 -4.477782177815584 18.407260247963222 0 0 0 0 -37.366194036413162 42.280775423404066 0 42.280775423404066 -25.999678040438738 0 0 0 0 -38.334016232077943 62.061353356268341 0 62.061353356268341 -72.84693497853641 0 0 0 0 -23.804645853556593 27.86432013235796 0 27.86432013235796 -36.084215020396641 0 0 0 0 -29.502634607084957 41.064065138171316 0 41.064065138171316 -56.721888531737022 0 0 0 0 -59.849945168319977 94.462413667666851 0 94.462413667666851 -66.564108318383092 0 0 0 0 -102.62422919159958 43.006272911539398 0 43.006272911539398 6.7354546707088048 0 0 0 0 -173.10424519380464 170.57024979628295 0 170.57024979628295 -126.81814285081009 0 0 0 0 6.4144861032622806 78.306061391227331 0 78.306061391227331 -191.2157509999081 0 0 0 0 -33.11138119634019 203.8651883776115 0 203.8651883776115 -496.85394010119035 0 0 0 0 -96.434333299483015 148.44083453360832 0 148.44083453360832 -145.49450068929355 0 0 0 0 -28.431433888249813 75.999413098458263 0 75.999413098458263 -149.31891493464491 0 0 0 0 -4.9765768971700446 57.454468488900432 0 57.454468488900432 -136.28927041124325 0 0 0 0 0.19060949076118458 -0.044900925744277842 0 -0.044900925744277842 -0.72802336976373949 0 0 0 0 1.6880525809291655 7.5275020779308761 0 7.5275020779308761 -498.6143725472175 0 0 0 0 -8.096443982513847 -0.42981839530796151 0 -0.42981839530796151 36.606491071551318 0 0 0 0 -1.1097718319495755 3.0912437385214755 0 3.0912437385214755 -3.9421557368719338 0 0 0 0 -8.6006428259129279 -42.866525428184104 0 -42.866525428184104 -12.155171292411524 0 0 0 0 5.3637087927224911 -2.6783469746272885 0 -2.6783469746272885 -4.8513122120307344 0 0 0 0 -1.4103589501357305 37.562852575838633 0 37.562852575838633 -26.771512951132081 0 0 0 0 -0.26943750064719729 1.0382806841111238 0 1.0382806841111238 0.29897419320541374 0 0 0 0 74.915780468686023 -17.327568753544256 0 -17.327568753544256 -57.455309240956467 0 0 0 0 -95.654505228973477 30.176260621725987 0 30.176260621725987 52.030173825813108 0 0 0 0 -0.99233058152832421 0.77383992125768852 0 0.77383992125768852 -0.86755423783298369 0 0 0 0 -1.1918490322148765 2.8351178595671627 0 2.8351178595671627 -498.28089701430417 0 0 0 0 -0.61950105618263673 0.65025355170261134 0 0.65025355170261134 -0.98116822879316778 0 0 0 0 -40.809960575154207 -87.200721690488535 0 -87.200721690488535 -223.14913271730848 0 0 0 0 -249.51191718051868 -302.32881410209723 0 -302.32881410209723 -247.12840935112899 0 0 0 0 30.584513733166602 -180.58310151232399 0 -180.58310151232399 -499.28490156105158 0 0 0 0 77.356051806967656 -62.793725240338972 0 -62.793725240338972 -323.70436551746116 0 0 0 0 5.6211835866356239 -5.9430770206777197 0 -5.9430770206777197 -162.02792991564161 0 0 0 0 -15.523786664865582 -137.87104532220269 0 -137.87104532220269 -269.70801555979415 0 0 0 0 0.33433794620440693 59.150361005541967 0 59.150361005541967 -41.529489490824517 0 0 0 0 -1.5713938162781904 4.0663809159590532 0 4.0663809159590532 -4.4186180174890852 0 0 0 0 23.658457142316664 -48.997342060619758 0 -48.997342060619758 -245.00357144934947 0 0 0 0 100.83016468622449 -36.209521107206001 0 -36.209521107206001 -500.08046196227542 0 0 0 0 66.818723306480109 71.065431983965482 0 71.065431983965482 -292.15151295824808 0 0 0 0 63.765547568826534 66.001661602818103 0 66.001661602818103 -241.78410501786311 0 0 0 0 52.59143660126874 111.12789501343877 0 111.12789501343877 -352.7705828332787 0 0 0 0 -9.4185747782471161 279.14578782219542 0 279.14578782219542 -499.15803649557711 0 0 0 0 -79.019889506768777 5.4937676262838977 0 5.4937676262838977 19.856717126909643 0 0 0 0 -155.22145229486802 188.63457675104166 0 188.63457675104166 -141.56400735311308 0 0 0 0 -11.995251387788102 30.574919511216649 0 30.574919511216649 -48.391860795773937 0 0 0 0 0.059407682321495514 16.377425888218568 0 16.377425888218568 -73.795439502887803 0 0 0 0 -55.686882422972985 55.416414099904387 0 55.416414099904387 -44.261356259014974 0 0 0 0 -22.997691636639559 30.574606218742247 0 30.574606218742247 -42.38460584619861 0 0 0 0 -0.10231778686798743 0.079566892746148712 0 0.079566892746148712 0.11516232697066009 0 0 0 0 -0.19381135115266879 -0.063453235060030089 0 -0.063453235060030089 0.071395283652258001 0 0 0 0 2.6892298583673977 4.894921630883573 0 4.894921630883573 -64.421213017317314 0 0 0 0 6.1038550317319107 64.600930975153915 0 64.600930975153915 -241.43241048510549 0 0 0 0 -6.1559809985384257 40.871369739193007 0 40.871369739193007 -46.644201730927762 0 0 0 0 -5.8526259099332067 -9.2447479829124006 0 -9.2447479829124006 -23.576750297877879 0 0 0 0 -12.958075007172312 2.8887800314060996 0 2.8887800314060996 21.27819101695377 0 0 0 0 -0.1560934342291227 0.56233017200854096 0 0.56233017200854096 0.37243697742160187 0 0 0 0 2.3537275033401244 -2.0357880447497791 0 -2.0357880447497791 -8.8282446535640702 0 0 0 0 -21.472466372054836 19.468892483775107 0 19.468892483775107 7.7343848872078524 0 0 0 0 -0.69859043791222586 3.2799338707458077 0 3.2799338707458077 -4.5709396885573144 0 0 0 0 -2.2045244762323932 -1.2160647505692168 0 -1.2160647505692168 -9.1743578346475942 0 0 0 0 -2.169274922672173 -2.4686922004061671 0 -2.4686922004061671 -13.986500223960945 0 0 0 0 -1.0933576862237977 1.2306906512095663 0 1.2306906512095663 -1.2351224656820694 0 0 0 0 10.629585384613051 1.3352694538998549 0 1.3352694538998549 -0.032879825838563193 0 0 0 0 -3.5374107594277007 5.3628394506678205 0 5.3628394506678205 4.7977764834279242 0 0 0 0 1.6537950081389567 1.0207740008204382 0 1.0207740008204382 8.1627015234332703 0 0 0 0 -6.4364891676526099 18.956235616736876 0 18.956235616736876 6.9459114298816615 0 0 0 0 -3.4012398848213934 -26.361247826953218 0 -26.361247826953218 -20.880770229797918 0 0 0 0 -0.37489828082324972 0.39482678564912943 0 0.39482678564912943 -0.45359417028301507 0 0 0 0 -3.2650549168747034 4.2288575850864163 0 4.2288575850864163 -10.509218202567581 0 0 0 0 -1.3283956118783984 4.0924138302827213 0 4.0924138302827213 -4.3618595780218046 0 0 0 0 -15.118442220103653 -44.876125913062424 0 -44.876125913062424 -65.657380617606577 0 0 0 0 21.680387813517846 3.6508945631929635 0 3.6508945631929635 -102.00237735984865 0 0 0 0 21.962637027335813 9.4632892957521335 0 9.4632892957521335 -26.421245055404142 0 0 0 0 -0.97850026037045956 113.71082909759662 0 113.71082909759662 -500.35236638649758 0 0 0 0 -0.22447015433373455 0.70449540528973209 0 0.70449540528973209 -0.57947582068308012 0 0 0 0 0.56057642527987284 67.069502486036981 0 67.069502486036981 -70.737298373750491 0 0 0 0 -5.5009120332198336 39.75031110768532 0 39.75031110768532 18.255856990648681 0 0 0 0 36.149799490109523 -2.078922341366706 0 -2.078922341366706 -291.53323098717192 0 0 0 0 38.917806019818514 -2.8404929028133665 0 -2.8404929028133665 -401.79440019671938 0 0 0 0 -5.7940154301911626 9.5111794104700493 0 9.5111794104700493 -59.892566435190247 0 0 0 0 -92.078484806947017 -117.25837986806619 0 -117.25837986806619 -74.966886745290935 0 0 0 0 -98.864481067791147 -209.82098566849049 0 -209.82098566849049 -348.83350849357475 0 0 0 0 36.777211821797913 -114.08024760976446 0 -114.08024760976446 -499.11585481123802 0 0 0 0 0.28453106729120115 -0.30663029669724828 0 -0.30663029669724828 -1.2790320317513633 0 0 0 0 -11.208871512016891 8.1382200685161479 0 8.1382200685161479 -16.165596313023343 0 0 0 0 -0.342588931006022 0.22689563616548331 0 0.22689563616548331 -0.45798683734940937 0 0 0 0 -0.56701449877883103 0.59550340786085432 0 0.59550340786085432 -1.3093008074815167 0 0 0 0 -40.012215254034999 -138.91538993341373 0 -138.91538993341373 -479.26401811644649 0 0 0 0 -2.1493978271593654 5.5305789731778532 0 5.5305789731778532 -492.61083034532976 0 0 0 0 -10.746287680243995 -10.843643243188126 0 -10.843643243188126 -1.1082600899389945 0 0 0 0 -264.00766688218062 166.07045316504559 0 166.07045316504559 -109.0845626331884 0 0 0 0 0.16750600700473151 -0.28844780041725349 0 -0.28844780041725349 -0.13909936868950545 0 0 0 0 32.398046130739317 2.9576685956458277 0 2.9576685956458277 -24.952299868608861 0 0 0 0 -0.4715228417948113 1.201519343918052 0 1.201519343918052 -2.2388227772425857 0 0 0 0 12.348592387833833 -9.7023538674302472 0 -9.7023538674302472 -6.9374769391583868 0 0 0 0 1.2740522357394441 1.1722470188560123 0 1.1722470188560123 -3.8364714229774108 0 0 0 0 -0.055600833185935769 0.44719020190193737 0 0.44719020190193737 -2.5579236415651714 0 0 0 0 -23.163815993584464 -18.816583693655048 0 -18.816583693655048 10.037906355737505 0 0 0 0 -14.277651200114931 -7.9646139263502533 0 -7.9646139263502533 0.49384051855849975 0 0 0 0 1.4457204140844055 1.9580806997960281 0 1.9580806997960281 -2.0798532797853113 0 0 0 0 -0.057504443791529886 0.46309279400503345 0 0.46309279400503345 -2.0260373304970543 0 0 0 0 0.05834667995841869 -0.029651413700776175 0 -0.029651413700776175 -0.060997754510026425 0 0 0 0 5.0644626584627304 -5.5259269927639707 0 -5.5259269927639707 -3.2876686435934062 0 0 0 0 0.24271316051808906 0.012217927916186255 0 0.012217927916186255 -2.6061625340838148 0 0 0 0 0.010507156170813658 0.86337729453512679 0 0.86337729453512679 -1.0923411601861517 0 0 0 0 -0.29228223643127166 -0.13306071847147027 0 -0.13306071847147027 0.23972625689384941 0 0 0 0 0.81119820206384929 0.79180499838776086 0 0.79180499838776086 -2.8562887210482586 0 0 0 0 0.63990333820811429 0.78625672377665978 0 0.78625672377665978 -3.1081570059577643 0 0 0 0 0.31684980359070036 0.116105572341894 0 0.116105572341894 -2.4526746818378857 0 0 0 0 1.9185821720524245 -0.061081194364305702 0 -0.061081194364305702 -2.6538414850567733 0 0 0 0 0.13732176134383361 0.36809394182354616 0 0.36809394182354616 -2.1275953016087108 0 0 0 0 0.068164928220484255 0.15533671006082006 0 0.15533671006082006 -2.6154748331182756 0 0 0 0 -1.3472845966087643 -0.49395907440884912 0 -0.49395907440884912 0.78952223125270393 0 0 0 0 0.03275837088935174 0.56354846178543205 0 0.56354846178543205 -2.2430056732993364 0 0 0 0 -1.1209548827713434 -5.7753109456093625 0 -5.7753109456093625 -10.476311353362689 0 0 0 0 0.35572954149174763 0.924484312463278 0 0.924484312463278 -4.6175108086699765 0 0 0 0 -16.999308985514318 -10.747947350188952 0 -10.747947350188952 2.276882171692705 0 0 0 0 0.53225577258396228 0.0033107484160455058 0 0.0033107484160455058 -1.2410377419587029 0 0 0 0 -2.0496158416777916 2.7811676674955379 0 2.7811676674955379 -14.561257437987479 0 0 0 0 0.032992198771907483 0.46063655709280216 0 0.46063655709280216 -2.3519136308204054 0 0 0 0 -41.824227552485574 -19.680199347013286 0 -19.680199347013286 -2.9404933017167423 0 0 0 0 -1.2292812609530053 -3.0199652865513258 0 -3.0199652865513258 -9.3123278598941397 0 0 0 0 0.17166095727897623 -2.9161286610487878 0 -2.9161286610487878 1.4446896953716077 0 0 0 0 0.4835231928173675 -2.186825597117708 0 -2.186825597117708 -1.9187077664367393 0 0 0 0 -0.34031773410937383 -6.4666846913542582 0 -6.4666846913542582 -12.218698420673693 0 0 0 0 -9.961505224652246 -24.279596616087474 0 -24.279596616087474 5.1439283600611816 0 0 0 0 7.8461051442745884 -5.5832991392280746 0 -5.5832991392280746 -18.671986735396786 0 0 0 0 8.7531770215788782 -5.4816930366141605 0 -5.4816930366141605 -7.1762571430581374 0 0 0 0 2.3600638655232729 -15.061357969499113 0 -15.061357969499113 -14.963071510555892 0 0 0 0 -3.8820172405698941 -2.384370198873512 0 -2.384370198873512 -13.19122165562294 0 0 0 0 0.34202014413138693 1.570402173696178 0 1.570402173696178 -11.442742617455202 0 0 0 0 12.338227846065422 -3.9631435296792006 0 -3.9631435296792006 -19.07553209996513 0 0 0 0 -1.0937345649138024 -0.66408937503410925 0 -0.66408937503410925 -10.349793987854355 0 0 0 0 -1.7737524125377795 -1.372556586027061 0 -1.372556586027061 -6.1491178882947022 0 0 0 0 -4.8090182061006885 -3.7093073805781387 0 -3.7093073805781387 -8.3527091949890746 0 0 0 0 -0.53281978688536336 0.96544815114189753 0 0.96544815114189753 0.91982628647825138 0 0 0 0 -2.5004976231152654 -0.35035235377563367 0 -0.35035235377563367 -10.259138598168647 0 0 0 0 -0.49001453147905494 0.27919665136818139 0 0.27919665136818139 -1.3733303142544173 0 0 0 0 1.0085395216721906 3.5838883633846308 0 3.5838883633846308 -6.815136838638864 0 0 0 0 0.20798432653390009 8.311243270489328 0 8.311243270489328 -16.020100098315197 0 0 0 0 0.27657074346987948 2.3263770986158576 0 2.3263770986158576 -7.4724757045306252 0 0 0 0 0.6715688541379734 -1.5246496442239277 0 -1.5246496442239277 -12.664919146682223 0 0 0 0 0.95480295850914454 -0.31997299132338064 0 -0.31997299132338064 -4.522114475607161 0 0 0 0 -5.5657752407496446 9.0771802935669257 0 9.0771802935669257 -19.438951081964092 0 0 0 0 0.89658982869181614 -2.3015850859346756 0 -2.3015850859346756 -20.490617844695009 0 0 0 0 -0.070234459168934726 -0.22505735403614047 0 -0.22505735403614047 -0.25865159056003151 0 0 0 0 0.19415475329913079 0.49012815860987757 0 0.49012815860987757 -5.5212692361210429 0 0 0 0 0.21937019183182638 0.4293043142689843 0 0.4293043142689843 -2.2665969674202389 0 0 0 0 1.41107943485639 2.4724889364010778 0 2.4724889364010778 -1.2769524968243786 0 0 0 0 -5.0979501110600722 -5.6942548815532064 0 -5.6942548815532064 -8.5296869099774995 0 0 0 0 3.26254207851008 2.3797589213791071 0 2.3797589213791071 -3.0051846827045665 0 0 0 0 0.50068184514589198 2.2041380770617405 0 2.2041380770617405 -3.5346620795629136 0 0 0 0 0.37065461406029954 0.37853284767447803 0 0.37853284767447803 -3.291352518088388 0 0 0 0 -0.88298628556420056 -0.34276227531609038 0 -0.34276227531609038 -5.2179654024289448 0 0 0 0 -0.23829519833217583 0.3226798658720238 0 0.3226798658720238 -2.3642962338296449 0 0 0 0 1.4275296936389217 -0.20470723439648575 0 -0.20470723439648575 -6.235672090583888 0 0 0 0 2.7434653607723902 1.1450665089505492 0 1.1450665089505492 -3.7534962144345627 0 0 0 0 0.053079063748479621 -0.26471046987035241 0 -0.26471046987035241 -2.7874090391272865 0 0 0 0 0.1616262856751412 0.70537464110215797 0 0.70537464110215797 -2.3877086364231062 0 0 0 0 -0.048622396308644511 1.5926764674343303 0 1.5926764674343303 -3.2212220572428123 0 0 0 0 1.5552349852301575 1.5406358103285953 0 1.5406358103285953 -5.0569073843107617 0 0 0 0 1.4969695249315293 -0.48475257643758596 0 -0.48475257643758596 -5.43360724523518 0 0 0 0 0.031830188239375314 0.79797193990608706 0 0.79797193990608706 -3.6810134456956281 0 0 0 0 0.84720786713725715 1.8102975232632161 0 1.8102975232632161 -4.9631393613526598 0 0 0 0 0.22625637648544836 0.19241611118405927 0 0.19241611118405927 -4.1618537637600959 0 0 0 0 -1.3279406059818939 0.57165670372774002 0 0.57165670372774002 -2.9805269822913942 0 0 0 0 2.5844057646280003 0.55592149040275274 0 0.55592149040275274 -7.4342064932079666 0 0 0 0 0.46776589210338493 0.18388822433382224 0 0.18388822433382224 -4.4924899528001054 0 0 0 0 1.0617882764984756 -1.3414673523413967 0 -1.3414673523413967 -4.8557670190234603 0 0 0 0 1.4628368334172137 1.4026262924530783 0 1.4026262924530783 -5.0149980991359371 0 0 0 0 0.97630053424043695 3.113832698316628 0 3.113832698316628 -5.2894878526903994 0 0 0 0 1.6282414669945484 0.11596255449771231 0 0.11596255449771231 -5.6636040670730052 0 0 0 0 0.30955628125523604 2.3354699244199359 0 2.3354699244199359 -5.1776738623525507 0 0 0 0 0.90093467314086073 2.5833810853848842 0 2.5833810853848842 -7.1253892065347362 0 0 0 0 3.9127241727761088 0.81505484151421115 0 0.81505484151421115 -3.2656748233039252 0 0 0 0 2.1676168378262299 1.5709746977688961 0 1.5709746977688961 -6.690271537928103 0 0 0 0 0.96386890542105164 3.8646752430151707 0 3.8646752430151707 -9.1090902163668943 0 0 0 0 1.0484385607579965 1.8122132061878062 0 1.8122132061878062 -3.0176488364750185 0 0 0 0 0.24666168547313408 2.0765609492533068 0 2.0765609492533068 -3.2280262853405031 0 0 0 0 -0.51080503975423774 2.4146577064307522 0 2.4146577064307522 -4.5423091798276545 0 0 0 0 0.56814891187309513 5.611120598888192 0 5.611120598888192 -8.4934612249307975 0 0 0 0 1.3992848995784914 2.4301548460656335 0 2.4301548460656335 -5.9825787385143485 0 0 0 0 0.031163683028309463 1.3370769044619459 0 1.3370769044619459 -2.2422921813252583 0 0 0 0 0.16863811108913751 1.8434855596030957 0 1.8434855596030957 -3.810027479436485 0 0 0 0 -2.7141784906111148 2.6082415701294011 0 2.6082415701294011 -2.9966814575691387 0 0 0 0 -2.8084014088756959 8.1349291505253056 0 8.1349291505253056 -7.1404642088873516 0 0 0 0 1.1448128209817696 4.7241292343412624 0 4.7241292343412624 -4.2267800132945013 0 0 0 0 0.32641943523788608 2.9738139893036664 0 2.9738139893036664 -2.1922009987394802 0 0 0 0 1.3879303843773947 7.9341149528621173 0 7.9341149528621173 -6.8211337056918637 0 0 0 0 0.58260697047876242 3.3836335070590766 0 3.3836335070590766 -5.8917261688800435 0 0 0 0 0.75669389375707397 6.4294777082427572 0 6.4294777082427572 -5.9698965691802641 0 0 0 0 0.36966622509550007 1.5351080841110161 0 1.5351080841110161 -6.2972635215653554 0 0 0 0 0.99139297032934337 5.9243339736353846 0 5.9243339736353846 -10.446257698363297 0 0 0 0 -2.5472112267489719 3.0943492875405809 0 3.0943492875405809 -7.2503468003014859 0 0 0 0 0.29666523266355649 1.2039986738517898 0 1.2039986738517898 -2.3732515724150565 0 0 0 0 0.75725708253412449 5.2217946071507413 0 5.2217946071507413 -9.9321267538743996 0 0 0 0 0.28385062689676488 4.437526173209335 0 4.437526173209335 -9.4103638106598737 0 0 0 0 -0.93198431505948065 3.7898018323630822 0 3.7898018323630822 -9.5654628353968292 0 0 0 0 -0.81280200847925244 2.6263213735346653 0 2.6263213735346653 -11.811115012993469 0 0 0 0 -7.2487012102717676 5.7429362300990761 0 5.7429362300990761 -8.0498498426795777 0 0 0 0 1.9555477041688789 0.99632108167816114 0 0.99632108167816114 -7.8604961823748454 0 0 0 0 -0.94694974246404229 -3.4979872568987957 0 -3.4979872568987957 -8.4116916860202764 0 0 0 0 -9.4570944752837747 6.7855737281965958 0 6.7855737281965958 -9.2152102918807941 0 0 0 0 0.44285638254437265 -0.46158418273031021 0 -0.46158418273031021 -0.64577230101329519 0 0 0 0 3.7273070692789574 1.2885947684299026 0 1.2885947684299026 -6.9379139397715335 0 0 0 0 0.71234395194593825 -1.6284790975068262 0 -1.6284790975068262 -5.1659150860818528 0 0 0 0 0.74169335700489114 -2.9440190170269034 0 -2.9440190170269034 -8.263548372954574 0 0 0 0 0.53610377530229325 1.5738247483624992 0 1.5738247483624992 -6.6569299685455654 0 0 0 0 0.94064970359634259 4.4532245929714804 0 4.4532245929714804 -4.989416492446253 0 0 0 0 -4.4112736046942018 2.0867046701314393 0 2.0867046701314393 -6.1349305463259043 0 0 0 0 1.2505485267140948 -2.933665336361571 0 -2.933665336361571 -10.313112001405898 0 0 0 0 -4.6850771969843663 -1.1988428126528561 0 -1.1988428126528561 -10.263108512544022 0 0 0 0 -4.102411133478995 -1.6522537319688126 0 -1.6522537319688126 -10.364833847783302 0 0 0 0 0.41288896290021604 1.5075409557070536 0 1.5075409557070536 -5.2332717295998492 0 0 0 0 0.73386507013992408 1.7446419048787769 0 1.7446419048787769 -8.6915749655888668 0 0 0 0 -3.0635639310706893 -0.91847206325587649 0 -0.91847206325587649 -12.949076443228478 0 0 0 0 0.46132024695128615 -0.19262347326784734 0 -0.19262347326784734 -1.7877774590405249 0 0 0 0 5.5648019813745293 5.3360044474410415 0 5.3360044474410415 -5.8750258660288637 0 0 0 0 4.246758619957518 1.2158403067655854 0 1.2158403067655854 -9.241392189124781 0 0 0 0 4.0916215389180479 1.2014914303003934 0 1.2014914303003934 -8.9161209442535778 0 0 0 0 0.56578618805440328 2.3260286726839468 0 2.3260286726839468 -9.2642170930290035 0 0 0 0 -0.75726340117477664 3.7116015509804634 0 3.7116015509804634 -2.652787295938424 0 0 0 0 5.8921423348773487 5.2271282938069135 0 5.2271282938069135 -2.9534144815741001 0 0 0 0 10.177878353507939 11.403734299843419 0 11.403734299843419 2.3287152955022066 0 0 0 0 3.3137381480719341 4.1828176146814258 0 4.1828176146814258 2.0261348028054442 0 0 0 0 -2.8971330992975766 0.38868461749734706 0 0.38868461749734706 -4.9789757782797892 0 0 0 0 -3.7482660810993877 1.3196137321224342 0 1.3196137321224342 -5.2728960983451998 0 0 0 0 0.19180973262421647 0.68657480369722224 0 0.68657480369722224 -4.9024530477341317 0 0 0 0 -0.66038786974139707 0.44058857914152261 0 0.44058857914152261 -3.9999502023518554 0 0 0 0 -1.6930053502534466 1.7423449012614678 0 1.7423449012614678 -2.6429065654147479 0 0 0 0 2.886675698764293 4.5251277091829252 0 4.5251277091829252 -4.1497636140933878 0 0 0 0 4.8546136534159814 5.9198705570597667 0 5.9198705570597667 -4.5335635331327921 0 0 0 0 5.6530336468414362 3.6287885342337063 0 3.6287885342337063 -4.8676118370610766 0 0 0 0 3.4120684498529954 4.1469012438878963 0 4.1469012438878963 -4.9846404866154899 0 0 0 0 4.8636754229652297 4.275043677501003 0 4.275043677501003 -7.5266812319214296 0 0 0 0 2.4446992612004692 1.5995584281035065 0 1.5995584281035065 -9.3387776600789039 0 0 0 0 4.3488439981248348 3.8571433103256823 0 3.8571433103256823 -7.8273180731775938 0 0 0 0 3.0670447233145524 4.087661510655721 0 4.087661510655721 -7.7643284844887148 0 0 0 0 4.5261298237624032 2.5988726098501047 0 2.5988726098501047 -10.508165118483362 0 0 0 0 1.1234467990016128 2.5049086932189084 0 2.5049086932189084 -6.3309588364791125 0 0 0 0 -0.092704229927804749 1.5030440072716562 0 1.5030440072716562 -4.7259911930933391 0 0 0 0 4.7653002344397919 1.5486418566057409 0 1.5486418566057409 -6.0981484775292074 0 0 0 0 -0.44810493649810068 0.88063311982579284 0 0.88063311982579284 -1.4228091815534327 0 0 0 0 2.2964125874407273 1.5565070887689672 0 1.5565070887689672 -10.017798821972598 0 0 0 0 2.9958464462504253 3.2293628313069576 0 3.2293628313069576 -10.031701644437021 0 0 0 0 1.9231459349798665 -0.95555691474846149 0 -0.95555691474846149 -2.7443912861152873 0 0 0 0 1.0311443727798468 1.762020770100019 0 1.762020770100019 -5.4738505025595394 0 0 0 0 -0.85974351536101068 5.0557885983655417 0 5.0557885983655417 -10.885886974868527 0 0 0 0 2.9875316434903425 2.4985155348229 0 2.4985155348229 -13.41150283547347 0 0 0 0 1.3863250244589835 2.5369946900868854 0 2.5369946900868854 -10.289757147318937 0 0 0 0 0.15457705927474308 -1.8625348188637645 0 -1.8625348188637645 -15.362712830601197 0 0 0 0 0.064140125071803222 -0.14086855787427122 0 -0.14086855787427122 -0.72050142610609047 0 0 0 0 -1.0382023817579693 0.75647899036363242 0 0.75647899036363242 -10.951930248281542 0 0 0 0 0.16192647646812475 -1.1418891194552998 0 -1.1418891194552998 -12.907272141879446 0 0 0 0 -0.056369505450220458 0.40147663280129109 0 0.40147663280129109 -12.540718575910006 0 0 0 0 1.5857870145839001 -1.8124671750734933 0 -1.8124671750734933 -12.593222159215884 0 0 0 0 3.7604846167291726 1.4698889561946089 0 1.4698889561946089 -11.229594351593789 0 0 0 0 1.8025807968905951 1.8005043825154416 0 1.8005043825154416 -9.0649739033012793 0 0 0 0 3.2393049911183311 -0.24009443867109326 0 -0.24009443867109326 -14.071594905267943 0 0 0 0 0.44606129216140289 -2.6462408633178711 0 -2.6462408633178711 -12.95949070350639 0 0 0 0 -0.13625338724273206 -0.13787450487473052 0 -0.13787450487473052 -10.803006745228259 0 0 0 0 -1.1096581979191598 -2.7254719455764231 0 -2.7254719455764231 -11.228750505457583 0 0 0 0 0.1440668865693624 -1.4968388666532064 0 -1.4968388666532064 -10.478629485141425 0 0 0 0 -0.42156025414648668 0.70466778934347474 0 0.70466778934347474 -0.41294788687434003 0 0 0 0 6.8973348540439474 10.907243126218532 0 10.907243126218532 13.976576973099554 0 0 0 0 4.1765227181969777 13.087860779539096 0 13.087860779539096 12.246615214626729 0 0 0 0 0.28080360974649921 0.047929136786535764 0 0.047929136786535764 4.5131935610438632 0 0 0 0 2.8982632678992672 -1.6126284649740441 0 -1.6126284649740441 -13.012977245549621 0 0 0 0 -10.365859659354669 7.2211411596456969 0 7.2211411596456969 1.4006547514132279 0 0 0 0 2.8288718314411372 1.5188859316090526 0 1.5188859316090526 0.90526986220803596 0 0 0 0 12.298250600659912 14.864129559121977 0 14.864129559121977 -31.666227499278136 0 0 0 0 2.0711012481477269 -1.0735129597155719 0 -1.0735129597155719 7.8131133584388976 0 0 0 0 -1.7978268754598048 18.637733752040546 0 18.637733752040546 -10.720690488959121 0 0 0 0 -11.851959303545073 -3.3790678360035145 0 -3.3790678360035145 0.13105652388043154 0 0 0 0 0.74507895105000443 14.051827085692011 0 14.051827085692011 10.961982416178614 0 0 0 0 -0.14005278055216985 -0.077191224959386961 0 -0.077191224959386961 0.37427341065677699 0 0 0 0 1.3713171318350632 10.048870023889808 0 10.048870023889808 11.542506561872983 0 0 0 0 18.793754491945037 16.096733976034216 0 16.096733976034216 -0.54110411987596763 0 0 0 0 13.572755034052079 3.5398163018145397 0 3.5398163018145397 -14.514701421230541 0 0 0 0 0.80440986005805826 4.695587934622381 0 4.695587934622381 34.618049750260525 0 0 0 0 0.008886906973412767 0.058000933370831564 0 0.058000933370831564 -0.14896650471344253 0 0 0 0 -1.0118913013790234 0.6718241709479571 0 0.6718241709479571 -2.7181372678603566 0 0 0 0 -0.14873228686175821 1.0379864689140905 0 1.0379864689140905 -0.94755295409060114 0 0 0 0 -3.8751052750774306 1.1030348525691807 0 1.1030348525691807 1.8990700031903884 0 0 0 0 -1.0868815538396259 4.3941383841566033 0 4.3941383841566033 -3.2261042448662973 0 0 0 0 -0.43933821248091931 5.9796665006662195 0 5.9796665006662195 -6.7743411159575544 0 0 0 0 -4.1524888431290492 16.685074666657044 0 16.685074666657044 -5.6960386889571026 0 0 0 0 0.36212027897054622 -0.4442196110273755 0 -0.4442196110273755 -0.45203955841467192 0 0 0 0 -0.41534566948209317 -5.357236854752955 0 -5.357236854752955 -11.006734835263842 0 0 0 0 24.789588280311477 7.3415283387339514 0 7.3415283387339514 -24.199663666946435 0 0 0 0 2.6385441319704017 4.6339597105345893 0 4.6339597105345893 -6.8209259321675839 0 0 0 0 104.35316829121746 69.587753352890559 0 69.587753352890559 -1.7451387245309888 0 0 0 0 5.7853135426923927 7.51395419924404 0 7.51395419924404 9.3329233530870965 0 0 0 0 1.7861185391637946 2.3833708624723329 0 2.3833708624723329 2.8023740425844608 0 0 0 0 3.3535388805803166 1.6563608942033738 0 1.6563608942033738 3.0965345779883364 0 0 0 0 3.1656693091759962 2.7695866435059315 0 2.7695866435059315 -1.2413215191996301 0 0 0 0 -0.35871924899629448 2.8056172068469891 0 2.8056172068469891 3.460709256371203 0 0 0 0 0.12307723051981156 1.3269332766064963 0 1.3269332766064963 5.6583620626454945 0 0 0 0 3.7338482217736173 2.4854292724501237 0 2.4854292724501237 -0.31754396078570069 0 0 0 0 0.13622722370575957 4.3255910640988304 0 4.3255910640988304 5.2366792492824601 0 0 0 0 0.076483679367839841 1.5983977816786847 0 1.5983977816786847 1.0801827134083624 0 0 0 0 2.4715912426190698 4.9422496856425937 0 4.9422496856425937 -0.70963846067706982 0 0 0 0 7.4356556776013747 3.9082919179608098 0 3.9082919179608098 -1.9839344165000625 0 0 0 0 4.4052605200973005 7.9927501582314164 0 7.9927501582314164 -6.1828478006914338 0 0 0 0 2.470573274370981 -0.10186588238474091 0 -0.10186588238474091 -5.0307593580487264 0 0 0 0 6.7982217169735009 4.7839735016453346 0 4.7839735016453346 -21.625431491293455 0 0 0 0 0.33980373356700966 -1.2141534040614061 0 -1.2141534040614061 -8.0755117550190505 0 0 0 0 3.1436425891396311 0.20959197684928199 0 0.20959197684928199 -12.57590494288479 0 0 0 0 -4.9470607523499552 0.47006264271733755 0 0.47006264271733755 -12.474938758693128 0 0 0 0 -0.73741521883800942 2.7613326344931863 0 2.7613326344931863 -1.2404710401792087 0 0 0 0 16.57865042292508 -15.337731143407638 0 -15.337731143407638 -74.861670504306034 0 0 0 0 10.226946970516593 2.6257282516569376 0 2.6257282516569376 -44.066117815055378 0 0 0 0 21.04195651544876 1.4771723371081862 0 1.4771723371081862 -47.652797347888821 0 0 0 0 11.478443454372325 9.12776412438736 0 9.12776412438736 -20.076935316650783 0 0 0 0 9.9943069740943784 13.351845024667945 0 13.351845024667945 -31.155837134206273 0 0 0 0 0.68167043114128489 15.498182149681412 0 15.498182149681412 -11.710683943137241 0 0 0 0 2.5365573169882225 10.674161130293925 0 10.674161130293925 -6.7998300916465553 0 0 0 0 -8.0799874770193156 28.298537712218753 0 28.298537712218753 -22.055603654049033 0 0 0 0 -9.8257914982556436 8.2212711970590586 0 8.2212711970590586 -3.1886688038881346 0 0 0 0 1.8755060986076835 11.622694635217339 0 11.622694635217339 -5.650537923984075 0 0 0 0 1.6979386556049809 0.91396937303223935 0 0.91396937303223935 0.43734950930503802 0 0 0 0 -4.563427922616107 -2.1178355330445804 0 -2.1178355330445804 22.274192083668282 0 0 0 0 0.26052685316115287 9.7699394624787317 0 9.7699394624787317 3.9037121771722951 0 0 0 0 5.833197384787276 6.231177937206354 0 6.231177937206354 -9.3465960806921657 0 0 0 0 1.3450015629176733 1.743812331346362 0 1.743812331346362 -8.4956343626777198 0 0 0 0 6.2127423622849278 3.6498565101535405 0 3.6498565101535405 -6.5232213337310441 0 0 0 0 1.2094185314366368 1.7034760009863197 0 1.7034760009863197 -7.3711954862085793 0 0 0 0 1.6419665969336279 1.0790927994171398 0 1.0790927994171398 -12.927092669498961 0 0 0 0 1.8684154731136573 6.0911161864437418 0 6.0911161864437418 -3.7674526919836353 0 0 0 0 9.4610472557357923 4.2851742227776413 0 4.2851742227776413 -11.26359544749721 0 0 0 0 0.37994209583149086 1.5247996091914349 0 1.5247996091914349 -7.0197589596925987 0 0 0 0 0.93043866715410251 2.8107439875504605 0 2.8107439875504605 -6.0830923386655096 0 0 0 0 3.6526587518019369 1.6935272256819189 0 1.6935272256819189 -7.7299361895518359 0 0 0 0 3.0648657237451857 1.9079325011083483 0 1.9079325011083483 -8.9203971199767693 0 0 0 0 1.8788733338253678 2.1317536739963998 0 2.1317536739963998 -8.9020162071662696 0 0 0 0 2.0130485345234206 1.4732974898753355 0 1.4732974898753355 -6.4678160880314408 0 0 0 0 2.635360116759756 -0.80580077719787369 0 -0.80580077719787369 -11.522332095058118 0 0 0 0 3.0872701681207388 1.955405102170289 0 1.955405102170289 -8.8244222079947576 0 0 0 0 3.0444555446750599 4.1087908902995878 0 4.1087908902995878 -14.417582895197484 0 0 0 0 -13.753518455917131 9.4594943891295316 0 9.4594943891295316 -6.8068932133153339 0 0 0 0 0.11174790020601222 6.0120772971627048 0 6.0120772971627048 -10.369796790128476 0 0 0 0 -0.93326237544602009 11.784479463461366 0 11.784479463461366 -18.911997663183683 0 0 0 0 -62.490704734271162 -33.040485229355454 0 -33.040485229355454 -18.903385740381054 0 0 0 0 -7.7338716721740184 8.4083929778726088 0 8.4083929778726088 -0.55317498136582799 0 0 0 0 1.7079660646135677 4.283966325068981 0 4.283966325068981 -5.8723149004254651 0 0 0 0 2.5790749860300792 13.11430273756825 0 13.11430273756825 10.993832982364836 0 0 0 0 -5.6024815491356321 -6.8759405425456492 0 -6.8759405425456492 -7.7324202320470405 0 0 0 0 -6.5957823474993802 3.2037311787852047 0 3.2037311787852047 9.5223680641510313 0 0 0 0 3.9302550733385715 3.825581161564017 0 3.825581161564017 -23.625673063392 0 0 0 0 -36.55071580773847 -15.538930934653393 0 -15.538930934653393 -30.599710139181326 0 0 0 0 -6.8519917347204 22.209943264302247 0 22.209943264302247 -50.661193470164989 0 0 0 0 -0.6697277436587683 -1.2976226185668764 0 -1.2976226185668764 -14.658697058836822 0 0 0 0 1.7984194012904968 4.2173542034205278 0 4.2173542034205278 -5.7978044362914272 0 0 0 0 2.541844719894371 25.266377237745921 0 25.266377237745921 1.9281948119315757 0 0 0 0 12.971274372458197 13.328588408800965 0 13.328588408800965 -9.9117952847172859 0 0 0 0 14.666524675454298 12.50282573996315 0 12.50282573996315 -23.707602870906925 0 0 0 0 8.9893000820745783 -7.5683625430571055 0 -7.5683625430571055 -34.547284977449706 0 0 0 0 12.044944229276325 1.7934627149065534 0 1.7934627149065534 -9.9941779540614846 0 0 0 0 6.1490851816124632 9.2502192614122123 0 9.2502192614122123 -0.52684457552749109 0 0 0 0 20.034261867449004 -1.738750557786318 0 -1.738750557786318 -11.0952367292698 0 0 0 0 21.129726791821668 2.7478555183840285 0 2.7478555183840285 -13.081667886196513 0 0 0 0 2.0513318769590114 -1.1125406555260042 0 -1.1125406555260042 -5.3983936477953307 0 0 0 0 -0.0072353384677481536 0.65417511926843397 0 0.65417511926843397 -2.2676383698637164 0 0 0 0 2.0449495230514003 2.1954247318335547 0 2.1954247318335547 -6.3078473189480064 0 0 0 0 2.545139843420789 2.8736969784258459 0 2.8736969784258459 -4.9851129756669046 0 0 0 0 1.0420409986638788 2.2836284305840309 0 2.2836284305840309 -2.9358871382210054 0 0 0 0 1.9420621537083207 6.5698830271845168 0 6.5698830271845168 -6.4666369487560473 0 0 0 0 1.3327398585586456 3.9251360613627302 0 3.9251360613627302 -2.1986208711115864 0 0 0 0 1.9042172352606981 1.2722200858493584 0 1.2722200858493584 -9.2324842316729363 0 0 0 0 0.67481632989886453 -0.35247418359872329 0 -0.35247418359872329 -1.6196312281651428 0 0 0 0 3.1970758448262586 3.5165123169044818 0 3.5165123169044818 -9.7067248896573801 0 0 0 0 2.0207382720886926 5.2397740099263501 0 5.2397740099263501 -7.852369544582416 0 0 0 0 2.3576190477289458 4.1347079531926898 0 4.1347079531926898 -5.8693845191904206 0 0 0 0 0.44122059564392657 3.8273394652028401 0 3.8273394652028401 -9.4166893053643435 0 0 0 0 9.439053766222905 3.8762356708302477 0 3.8762356708302477 -71.133379783217947 0 0 0 0 -22.667244517184145 -34.521809341900848 0 -34.521809341900848 -35.962419964727417 0 0 0 0 -21.897290691537592 36.369550920514229 0 36.369550920514229 -50.079874314054507 0 0 0 0 -2.1163923246356262 11.097843722666596 0 11.097843722666596 -18.412103730376202 0 0 0 0 -0.97948552196530159 7.9004715973177255 0 7.9004715973177255 -18.892949903671592 0 0 0 0 18.360671172396877 5.9789770656512999 0 5.9789770656512999 -7.2254103003851355 0 0 0 0 6.2804638274142235 -29.188264111570618 0 -29.188264111570618 -1.51797975412466 0 0 0 0 -0.52772557190323122 -0.27997448148737636 0 -0.27997448148737636 0.14703523208802061 0 0 0 0 3.731365564101452 -14.394841277331523 0 -14.394841277331523 -24.513569518359532 0 0 0 0 7.5522794968269409 -32.546730005260343 0 -32.546730005260343 -54.221289436249322 0 0 0 0 -7.9841261575516 -16.529964670450852 0 -16.529964670450852 -61.357886529698902 0 0 0 0 -26.337551425197915 -3.7803563470820549 0 -3.7803563470820549 -17.997246634126441 0 0 0 0 -10.063162998203097 -10.769301534144006 0 -10.769301534144006 -9.3949950811966119 0 0 0 0 0.22738643215902243 -31.314247752441528 0 -31.314247752441528 -82.116928575049428 0 0 0 0 -44.520353407042307 -48.105238574599696 0 -48.105238574599696 -43.515241471322099 0 0 0 0 0.078772728345330278 -0.013455581168836162 0 -0.013455581168836162 -0.6784371348956747 0 0 0 0 31.561479594066576 31.028650312270436 0 31.028650312270436 -42.226538413909111 0 0 0 0 0.2715310747674069 -0.97831777237857709 0 -0.97831777237857709 -2.2935929695980173 0 0 0 0 13.557934670986185 -16.936594990916227 0 -16.936594990916227 4.1688711697245253 0 0 0 0 -0.52074645586589052 -1.111012011920018 0 -1.111012011920018 -2.2040708153291613 0 0 0 0 33.34773016483814 28.672165987214811 0 28.672165987214811 18.914968581867186 0 0 0 0 52.220865444495075 -25.364718846088408 0 -25.364718846088408 -20.239701274549148 0 0 0 0 59.784253792407469 26.730003480942685 0 26.730003480942685 -4.4995657724352043 0 0 0 0 33.48929734758849 10.826120007201894 0 10.826120007201894 -13.780660921105891 0 0 0 0 6.9229322838054941 5.608564123178212 0 5.608564123178212 0.91426040521923824 0 0 0 0 -5.354131084986534 -13.320793300229525 0 -13.320793300229525 -39.324232193372154 0 0 0 0 -3.3527391228366081 -6.1979739868499797 0 -6.1979739868499797 2.6196654804862343 0 0 0 0 1.3540169017675372 -3.4611210606789227 0 -3.4611210606789227 -16.532919764862307 0 0 0 0 0.19514412625779087 -19.58612126530511 0 -19.58612126530511 -35.489156720248502 0 0 0 0 -2.2730099053569006 -39.205515454726992 0 -39.205515454726992 -4.1970292078476632 0 0 0 0 3.4203337387306587 2.0137203936411616 0 2.0137203936411616 -4.0445055992284527 0 0 0 0 -3.349006788579004 -7.766995142426822 0 -7.766995142426822 -6.5809384059302829 0 0 0 0 -0.75566653404072426 -6.845793310397994 0 -6.845793310397994 -27.819296630093959 0 0 0 0 -13.357835755852257 -15.800370070377539 0 -15.800370070377539 -28.20667434875395 0 0 0 0 4.8020046116117925 -18.385983012927682 0 -18.385983012927682 -35.567191881415056 0 0 0 0 -2.1019651129937245 -6.3396280867098653 0 -6.3396280867098653 -15.002545812506014 0 0 0 0 -8.0211004566447173 2.4854081746866541 0 2.4854081746866541 6.2999539671277489 0 0 0 0 -12.400086824361779 -2.1871479846806778 0 -2.1871479846806778 4.5483646140110636 0 0 0 0 -13.214404319358749 -9.8403473997852728 0 -9.8403473997852728 -2.1001845149435212 0 0 0 0 -8.8151216685639611 -6.8639782122056658 0 -6.8639782122056658 -18.27986305662678 0 0 0 0 -15.91086502287169 -6.2925494061632179 0 -6.2925494061632179 -0.54897865568545967 0 0 0 0 -1.8814764859207571 -3.1486108381716349 0 -3.1486108381716349 -0.34583609797982717 0 0 0 0 -9.2617357166536749 -13.079206113551095 0 -13.079206113551095 4.3985161750345014 0 0 0 0 -6.7199372810953832 -25.802085963998707 0 -25.802085963998707 -46.86646579686203 0 0 0 0 -3.0250703203798177 -5.9163580436049941 0 -5.9163580436049941 3.5413474776450893 0 0 0 0 -5.6446393142894067 -10.675811740881386 0 -10.675811740881386 5.9544328983419064 0 0 0 0 -12.863335239724785 -25.34201986959863 0 -25.34201986959863 -37.085071276291274 0 0 0 0 -8.0265698215248449 -14.669804694203776 0 -14.669804694203776 -45.030503065806442 0 0 0 0 -2.2770234095982085 -6.7064164593066682 0 -6.7064164593066682 -10.372208066169897 0 0 0 0 10.74890474872916 -13.310602276940699 0 -13.310602276940699 -15.298457156941367 0 0 0 0 -7.996700998838719 -1.4100449128541186 0 -1.4100449128541186 -8.2648702770604814 0 0 0 0 2.9238562567888948 -22.676316326206575 0 -22.676316326206575 2.1629035296980419 0 0 0 0 -13.000683867709711 -20.625732538814233 0 -20.625732538814233 2.8731186396635167 0 0 0 0 7.0042055648427777 -9.0106317278486472 0 -9.0106317278486472 -20.96799935153814 0 0 0 0 10.322413254862056 27.90166961951406 0 27.90166961951406 -45.436636449434502 0 0 0 0 0.88159404049626744 10.684050874387548 0 10.684050874387548 -68.794278939825944 0 0 0 0 -13.951031661167633 14.687995639422496 0 14.687995639422496 -65.409439888235767 0 0 0 0 -10.791233587749616 41.836589009617462 0 41.836589009617462 -49.274394405158816 0 0 0 0 7.6187665340009971 21.047789610246838 0 21.047789610246838 -32.154255975173513 0 0 0 0 5.8717473764469332 25.692137513850106 0 25.692137513850106 -36.736583553976701 0 0 0 0 24.353738492753706 29.227055854616381 0 29.227055854616381 -46.976723048942347 0 0 0 0 39.457128476383616 20.784724231415339 0 20.784724231415339 -59.377177675288479 0 0 0 0 33.691043381444842 5.7786536848519887 0 5.7786536848519887 -78.099144669034871 0 0 0 0 34.624803818449209 31.584950003224762 0 31.584950003224762 -15.886201060380699 0 0 0 0 66.407217024556871 -4.6696062214793415 0 -4.6696062214793415 -22.433234356427079 0 0 0 0 18.526424072035979 21.131802552257653 0 21.131802552257653 -43.261692790041778 0 0 0 0 34.58985518481856 27.51358375442657 0 27.51358375442657 -41.820679516975247 0 0 0 0 14.796939433085697 1.6361012278150042 0 1.6361012278150042 -16.955140070551522 0 0 0 0 16.169625840520666 12.702237449069031 0 12.702237449069031 9.655554622312593 0 0 0 0 28.617740799767375 -39.920143701610925 0 -39.920143701610925 -14.630453832150266 0 0 0 0 70.107245250652824 16.90182498755135 0 16.90182498755135 -37.934851578326743 0 0 0 0 30.34972138708639 -26.682902278930726 0 -26.682902278930726 -42.55030998775112 0 0 0 0 26.468619071645207 -5.9957562730885456 0 -5.9957562730885456 -38.678438574861957 0 0 0 0 4.5510753853254471 -27.085530044981112 0 -27.085530044981112 -49.655867355642897 0 0 0 0 -32.917559892044224 -13.258408087845169 0 -13.258408087845169 -22.122063389119944 0 0 0 0 15.159273356546862 0.33803925671870161 0 0.33803925671870161 -60.137282761792079 0 0 0 0 -3.8826712407457897 -9.4988717202506621 0 -9.4988717202506621 -39.319361964762493 0 0 0 0 -7.6421660999913925 -26.661686695713922 0 -26.661686695713922 -102.68641162477422 0 0 0 0 -33.652500925417613 -18.472119372151724 0 -18.472119372151724 -24.891879473263373 0 0 0 0 -59.097755036511657 -32.734083836480323 0 -32.734083836480323 -32.527620625171835 0 0 0 0 42.70068283279528 47.346986691812923 0 47.346986691812923 -4.8960805910824075 0 0 0 0 5.8434423558551885 41.51793656735822 0 41.51793656735822 -78.202982424319529 0 0 0 0 0.015665815981798031 -0.0090086570988605619 0 -0.0090086570988605619 -0.41620325587525542 0 0 0 0 16.048352416050818 2.779889605012035 0 2.779889605012035 14.818169474664334 0 0 0 0 38.770351842259672 23.908128185304669 0 23.908128185304669 -140.27558573571474 0 0 0 0 0.11838577980603404 0.0061375717662931206 0 0.0061375717662931206 -1.1969395395542444 0 0 0 0 -83.007492321649821 -79.110810105298143 0 -79.110810105298143 -96.205935733738826 0 0 0 0 -67.674884162903737 33.509637589455934 0 33.509637589455934 -68.235360646360306 0 0 0 0 -9.9264128594056835 -1.8621847413009944 0 -1.8621847413009944 -167.01895371258388 0 0 0 0 -28.999025452518424 -18.51719615752393 0 -18.51719615752393 -90.371507035455465 0 0 0 0 2.3012224254953821 15.911533724598794 0 15.911533724598794 -130.97811334388908 0 0 0 0 -4.3149236610823323 5.6009388221061442 0 5.6009388221061442 -78.089499787383858 0 0 0 0 -32.931588582907409 7.2529110131878447 0 7.2529110131878447 -15.217810979952148 0 0 0 0 -14.301004657795545 27.648554726115997 0 27.648554726115997 -67.812288935466611 0 0 0 0 -26.590093030340711 11.542588441129187 0 11.542588441129187 -26.709831527526468 0 0 0 0 1.9787407301457165 2.3627301474723481 0 2.3627301474723481 -10.509897762391915 0 0 0 0 -0.18502390661715423 -0.3007503812142856 0 -0.3007503812142856 -0.51161120250754766 0 0 0 0 -34.710471871460342 -31.114908088902652 0 -31.114908088902652 -13.48447694328604 0 0 0 0 -10.531812836351165 5.1755401988913814 0 5.1755401988913814 -10.687324052625684 0 0 0 0 14.174039687074355 16.070364065187412 0 16.070364065187412 -98.078091654373964 0 0 0 0 -11.126269005989229 -12.610088248596426 0 -12.610088248596426 -104.41373801857939 0 0 0 0 -48.985362637844609 -12.628448041412778 0 -12.628448041412778 -68.61681984434432 0 0 0 0 -43.365115751937175 12.853987226682413 0 12.853987226682413 -49.733015698927204 0 0 0 0 5.9350631531822984 4.0455359133331399 0 4.0455359133331399 -92.497597375666587 0 0 0 0 -20.203766653214302 22.852010419640607 0 22.852010419640607 -44.925964924915917 0 0 0 0 -19.740429729809705 16.965220713030519 0 16.965220713030519 -98.51382683825581 0 0 0 0 -15.877870591701679 53.923176155407916 0 53.923176155407916 -55.767845899409011 0 0 0 0 -41.753516582317026 35.541892104731609 0 35.541892104731609 2.5048392919458706 0 0 0 0 -41.676584678512597 39.791427864976839 0 39.791427864976839 -57.593028485197323 0 0 0 0 -18.200867475728955 -3.7501141888341181 0 -3.7501141888341181 -107.76616055699816 0 0 0 0 -0.32259356902771552 0.43859225992505091 0 0.43859225992505091 -0.51549150138072042 0 0 0 0 -13.60020011526376 1.5263226257299891 0 1.5263226257299891 -109.89558847504399 0 0 0 0 -0.51524039844960901 -0.17624391732470546 0 -0.17624391732470546 -0.12824298662225847 0 0 0 0 9.6494614759747037 -16.278043256728097 0 -16.278043256728097 -161.31161883637432 0 0 0 0 -20.315054246368391 -90.946734829087632 0 -90.946734829087632 -54.247748628687418 0 0 0 0 -24.682428971436309 -2.3091193824344032 0 -2.3091193824344032 -28.316115658394594 0 0 0 0 -0.54964324100875928 0.69699269085330551 0 0.69699269085330551 -0.79726599861954606 0 0 0 0 18.676341691763184 -3.7056931986072073 0 -3.7056931986072073 -52.79585344598209 0 0 0 0 17.667063952224083 -19.637100319489832 0 -19.637100319489832 -63.357667393029061 0 0 0 0 -17.252811521735197 -18.780451529697487 0 -18.780451529697487 -17.047490348465473 0 0 0 0 1.5918890561873695 -6.2607756624896638 0 -6.2607756624896638 -67.844204147728078 0 0 0 0 -1.4594917148362248 -0.71611625146669444 0 -0.71611625146669444 -0.31764562150157666 0 0 0 0 -5.6786437304810988 -11.139070604656922 0 -11.139070604656922 -52.631682051893165 0 0 0 0 -3.9026596420439432 3.8220358599094766 0 3.8220358599094766 -30.975394108885666 0 0 0 0 -2.2946853261612432 2.1699072255601095 0 2.1699072255601095 -52.533166529312965 0 0 0 0 -4.8316027351938828 -14.104384771871338 0 -14.104384771871338 -47.70932631391338 0 0 0 0 -10.171437119694019 -5.1395108404894359 0 -5.1395108404894359 -63.884344147814772 0 0 0 0 -2.5218648353993558 -14.238867540197646 0 -14.238867540197646 -61.047090905819005 0 0 0 0 2.1789572597456299 -22.006667242330082 0 -22.006667242330082 -58.988629378747675 0 0 0 0 -5.8254783023995742 -28.176456045641885 0 -28.176456045641885 -29.860448304076215 0 0 0 0 -8.0756391953309503 -16.123087509132517 0 -16.123087509132517 -48.116758893759652 0 0 0 0 -6.3960277952158719 -46.291219856305787 0 -46.291219856305787 -109.01306891248475 0 0 0 0 -12.544002898808685 -2.3581070734272203 0 -2.3581070734272203 -19.621006531531179 0 0 0 0 -0.20299808208016934 0.24070860660971394 0 0.24070860660971394 -0.38774132758495039 0 0 0 0 -12.346337285853252 -32.344079683659075 0 -32.344079683659075 -68.20956317763563 0 0 0 0 -11.712051728112897 -18.183409970930825 0 -18.183409970930825 -66.222715287726601 0 0 0 0 1.9195484782133008 -3.8974062522784152 0 -3.8974062522784152 -68.73526085086587 0 0 0 0 8.9453707896226433 -11.048756054481373 0 -11.048756054481373 -69.047590254057582 0 0 0 0 1.1118009269079039 -10.488093747363109 0 -10.488093747363109 -108.34400015936779 0 0 0 0 -18.838653606654134 7.0631207813735273 0 7.0631207813735273 -77.002087822182631 0 0 0 0 2.3332833807950806 -38.740453930509403 0 -38.740453930509403 -84.386239209825447 0 0 0 0 5.2965787962936588 -0.40354859005336152 0 -0.40354859005336152 -90.421960768211164 0 0 0 0 3.8910085501790945 -18.913987143001123 0 -18.913987143001123 -59.187153831963599 0 0 0 0 4.532580212363996 -14.646876081458004 0 -14.646876081458004 -55.450086280637947 0 0 0 0 8.5218508060510487 -24.251417097695793 0 -24.251417097695793 -53.320216610087186 0 0 0 0 7.5229550785769561 -7.6053785798218883 0 -7.6053785798218883 -42.211279806201333 0 0 0 0 4.383359224923538 -9.6809480258549172 0 -9.6809480258549172 -40.335028325161375 0 0 0 0 -16.982516131470618 -1.6477664579193174 0 -1.6477664579193174 -6.2527396058060276 0 0 0 0 -0.45682407655842372 1.2053369477833078 0 1.2053369477833078 0.22036756031497429 0 0 0 0 -0.98220949836198013 1.2280804013182558 0 1.2280804013182558 0.025800473135383452 0 0 0 0 0.7901880985548928 -4.7534427802593768 0 -4.7534427802593768 -17.176131935865783 0 0 0 0 6.7014567959466831 3.0982805283617836 0 3.0982805283617836 -42.761147946793642 0 0 0 0 4.0234448408840535 0.00074026744391630928 0 0.00074026744391630928 -41.202376365265081 0 0 0 0 6.1553881988045305 6.5388182255902052 0 6.5388182255902052 -13.837716822223683 0 0 0 0 -1.2193163827593141 1.5335123396717327 0 1.5335123396717327 -0.42667986859259127 0 0 0 0 5.8689538517954247 10.287060488387127 0 10.287060488387127 -17.223705899725644 0 0 0 0 1.0138256329441333 7.4987434773041031 0 7.4987434773041031 -3.5675017362760855 0 0 0 0 -1.6919127433353367 3.3401620038736581 0 3.3401620038736581 0.35763405515670854 0 0 0 0 1.0688453560888007 2.4287055722223556 0 2.4287055722223556 -10.882812580046988 0 0 0 0 0.87344332440642347 -2.9328026197266297 0 -2.9328026197266297 -12.888589721471106 0 0 0 0 -21.636680839161286 2.8531672193370454 0 2.8531672193370454 17.001457741540776 0 0 0 0 7.1677061121420174 5.6594409570507231 0 5.6594409570507231 -24.15141246600038 0 0 0 0 0.14448041799691214 0.089212146323479624 0 0.089212146323479624 -0.37547779759659961 0 0 0 0 3.6839826764078225 3.4177660451143765 0 3.4177660451143765 -18.567271419439578 0 0 0 0 -20.235736052112088 -3.081723743127327 0 -3.081723743127327 -49.564210494041049 0 0 0 0 -7.7723510276982779 9.7034687337107925 0 9.7034687337107925 -77.59325373257235 0 0 0 0 -1.5096360161275584 1.2493125145702457 0 1.2493125145702457 0.16584084979642494 0 0 0 0 -10.744496157774734 -6.2089860653267124 0 -6.2089860653267124 -48.597426580469062 0 0 0 0 -0.77886138201472477 2.2594569720442053 0 2.2594569720442053 -6.0933858010979627 0 0 0 0 12.129115243173715 1.6505789935825987 0 1.6505789935825987 -54.557978237455075 0 0 0 0 2.913141248225763 -12.44334416867666 0 -12.44334416867666 -56.175613965175785 0 0 0 0 -1.5246062981072157 3.9141646058836415 0 3.9141646058836415 -3.3570206334695776 0 0 0 0 -1.551451273620666 2.7073482828690896 0 2.7073482828690896 -6.3301307505516604 0 0 0 0 -0.046867981599291397 2.4576157503261271 0 2.4576157503261271 -7.0083811609610223 0 0 0 0 1.178807574182386 1.4823743497270954 0 1.4823743497270954 -6.3095125609706173 0 0 0 0 0.33045419759556793 1.4704512290333298 0 1.4704512290333298 -6.2193679171502367 0 0 0 0 -1.0914100048556392 0.78696578615695501 0 0.78696578615695501 -6.2878213974460291 0 0 0 0 -0.99342065089970077 1.0582487052129039 0 1.0582487052129039 -5.3623730369251632 0 0 0 0 -1.5744740600771649 1.3872996151988843 0 1.3872996151988843 -5.51160483058365 0 0 0 0 -0.76285059520091636 1.9128135649607998 0 1.9128135649607998 -6.3983458747476618 0 0 0 0 -3.4422016144196874 -25.014682164630614 0 -25.014682164630614 9.5488766381755568 0 0 0 0 33.156922224556183 -29.074210368256956 0 -29.074210368256956 4.8306071183396853 0 0 0 0 1.0078042011588337 -0.41706169713714303 0 -0.41706169713714303 -5.0888308826259756 0 0 0 0 0.59788475891394155 -1.213681027154085 0 -1.213681027154085 -3.1363751786507952 0 0 0 0 0.85370441022828114 0.9666798746325691 0 0.9666798746325691 -6.8788395425961824 0 0 0 0 0.018696910180921122 -0.43566165360060438 0 -0.43566165360060438 -2.9721089126613833 0 0 0 0 30.183641442837171 -12.373515621770167 0 -12.373515621770167 -7.3194121137075854 0 0 0 0 0.20958259639840549 -2.7725065332111853 0 -2.7725065332111853 -3.520938783299723 0 0 0 0 0.69689600409445129 -0.64199938643810373 0 -0.64199938643810373 -3.3388778971846924 0 0 0 0 31.011089662498875 -13.10402511154399 0 -13.10402511154399 -11.215869772474434 0 0 0 0 -0.1789108894473882 0.16153320878292388 0 0.16153320878292388 -0.05925003695299158 0 0 0 0 -1.9714941466330203 -10.37331919790013 0 -10.37331919790013 -26.009291659684287 0 0 0 0 -2.0393191481455517 21.423367981494437 0 21.423367981494437 5.6555261630283553 0 0 0 0 -3.3891114767291839 -3.313034504224305 0 -3.313034504224305 -7.8266456577133283 0 0 0 0 1.4636100690220246 -0.20424366246561476 0 -0.20424366246561476 -7.5339609051113712 0 0 0 0 0.15431533479168991 -0.96060450498579542 0 -0.96060450498579542 -7.7508207523672752 0 0 0 0 -1.0619404344670045 -0.70977916274550523 0 -0.70977916274550523 -4.9291631845863435 0 0 0 0 14.817896575926689 14.995915976189139 0 14.995915976189139 -2.1815165313278158 0 0 0 0 -0.039536554039139471 0.10876073547636701 0 0.10876073547636701 -0.93356484946356344 0 0 0 0 0.28176153436972129 -1.6506165602628045 0 -1.6506165602628045 -4.6199775394146414 0 0 0 0 21.943192533211949 5.6777728722869938 0 5.6777728722869938 2.6580985417741658 0 0 0 0 -0.80303050343657389 11.828134538867772 0 11.828134538867772 -0.068699300894081716 0 0 0 0 14.510505872626485 2.3905795908283207 0 2.3905795908283207 5.3417682076620849 0 0 0 0 -0.11396880187308511 10.914948662426923 0 10.914948662426923 -11.937613554147902 0 0 0 0 -6.5793984824823326 10.324260608670642 0 10.324260608670642 -9.1618484680273298 0 0 0 0 -6.32519917571571 13.086929763404186 0 13.086929763404186 -43.239446097467976 0 0 0 0 -13.431924079333413 13.884883393027152 0 13.884883393027152 3.942285030283557 0 0 0 0 -3.0411278109661026 17.308628915020215 0 17.308628915020215 -8.2861988588479676 0 0 0 0 -1.2019919887022184 12.89220131306169 0 12.89220131306169 2.079810312078763 0 0 0 0 -6.8028021775838852 5.4309372246116823 0 5.4309372246116823 1.4032176563663654 0 0 0 0 -7.4249969144062433 -3.3190021409068668 0 -3.3190021409068668 6.8729152061495711 0 0 0 0 -9.3724560011943083 4.5066939793942922 0 4.5066939793942922 2.6597248108845974 0 0 0 0 0.6129585312307313 -0.20565690812645698 0 -0.20565690812645698 5.2268969718305982 0 0 0 0 -19.432418037836442 -24.479494195426668 0 -24.479494195426668 -20.078778853792745 0 0 0 0 -30.25480850299013 19.413009451437972 0 19.413009451437972 -6.4850795269705372 0 0 0 0 7.9866200888655499 4.0354417657329975 0 4.0354417657329975 1.969716235189253 0 0 0 0 12.764324850977346 -0.1086344899820233 0 -0.1086344899820233 4.093783099231338 0 0 0 0 8.1838781767469655 -1.019065442748385 0 -1.019065442748385 5.6297818170164646 0 0 0 0 -4.9292290486639558 1.5652552958076527 0 1.5652552958076527 -2.3401662128588931 0 0 0 0 -0.75470672525932514 5.5593419093227112 0 5.5593419093227112 2.8589953067182989 0 0 0 0 0.60878575552874281 15.185492400330631 0 15.185492400330631 -23.67796492484359 0 0 0 0 11.540239386377152 -8.8027213648214797 0 -8.8027213648214797 -5.024671422155869 0 0 0 0 14.280997364812038 -3.6921905337492333 0 -3.6921905337492333 -4.9215856406578666 0 0 0 0 0.11038209538568955 0.091617060370190684 0 0.091617060370190684 -0.0041359737742917568 0 0 0 0 -1.0469364882708874 0.63744342495148487 0 0.63744342495148487 -0.77500225183479188 0 0 0 0 0.25803870191809003 0.41234895042364339 0 0.41234895042364339 0.0333062480623037 0 0 0 0 0.57673496639586541 0.2604561713803677 0 0.2604561713803677 0.13285461859299841 0 0 0 0 -5.3536302498609984 5.4742279979839736 0 5.4742279979839736 -25.181629222752349 0 0 0 0 6.5741115461620439 10.327349221786967 0 10.327349221786967 -23.350392326397262 0 0 0 0 10.077494096092138 -3.949237656952068 0 -3.949237656952068 7.2076797512553128 0 0 0 0 -5.0585546138275674 15.813523807991139 0 15.813523807991139 3.4819235752642044 0 0 0 0 -3.5400349137148623 20.518917970881887 0 20.518917970881887 -24.683851091864248 0 0 0 0 -24.226222934567005 17.115195082108613 0 17.115195082108613 3.7833174271382148 0 0 0 0 -8.4633262336317046 8.5515455872509243 0 8.5515455872509243 21.464727923988633 0 0 0 0 -11.446149557353053 -18.340279732085889 0 -18.340279732085889 42.960961358129012 0 0 0 0 -5.1606176833101358 -1.3772459018121452 0 -1.3772459018121452 -14.977904848273173 0 0 0 0 14.412224581157858 -15.119817323981906 0 -15.119817323981906 -10.761469097744945 0 0 0 0 5.2534327649694887 -9.1542823044855766 0 -9.1542823044855766 35.261777495600313 0 0 0 0 6.7400308152230242 -1.2391809347544864 0 -1.2391809347544864 -6.3272316562657807 0 0 0 0 1.3874039815617252 0.57223251837021394 0 0.57223251837021394 -0.93235614945876932 0 0 0 0 -0.14477240410197523 -0.54883904397861794 0 -0.54883904397861794 -1.4397068932809516 0 0 0 0 -2.1602712308103378 -2.5079295174756453 0 -2.5079295174756453 -8.9594987150399561 0 0 0 0 5.3918364365509461 1.7998472556511445 0 1.7998472556511445 -11.07936266892716 0 0 0 0 -2.6104477784782034 4.4405005683867103 0 4.4405005683867103 -4.6544335046556853 0 0 0 0 6.9080731862708813 -4.4496339223178847 0 -4.4496339223178847 2.5432726034863435 0 0 0 0 6.8750896479425876 1.0476046013314715 0 1.0476046013314715 -17.390561146101902 0 0 0 0 -1.4291334825607009 7.6585927899959074 0 7.6585927899959074 -7.8925979371414599 0 0 0 0 0.431758831584793 1.1371442784083099 0 1.1371442784083099 0.086592355182071881 0 0 0 0 0.019090704432073835 -3.7695908636050817 0 -3.7695908636050817 10.672454196438565 0 0 0 0 4.92011387340807 -6.1286875814740469 0 -6.1286875814740469 4.9271299466056746 0 0 0 0 1.8421252969737907 0.11367182541839327 0 0.11367182541839327 4.5030766098078061 0 0 0 0 -0.021125900766795214 -0.046826684631463861 0 -0.046826684631463861 -0.11115773849266838 0 0 0 0 49.685355531329833 7.9347401630637933 0 7.9347401630637933 -196.44528591413064 0 0 0 0 0.70321154394667928 -54.291157205736454 0 -54.291157205736454 -163.06575877606292 0 0 0 0 -0.38535615770187803 -18.001433129381439 0 -18.001433129381439 -92.337418720350797 0 0 0 0 -20.882903317719627 -30.223716197995941 0 -30.223716197995941 -25.040578351527074 0 0 0 0 0.002978762296878025 -9.1616287632677995 0 -9.1616287632677995 -85.288805556819625 0 0 0 0 -12.452325828020031 -2.554796521983917 0 -2.554796521983917 -4.7611336636127817 0 0 0 0 1.7199069929055071 -3.6738136014955671 0 -3.6738136014955671 -13.461559051116637 0 0 0 0 16.09903092166622 6.0853685050442436 0 6.0853685050442436 -6.6360654279214941 0 0 0 0 0.63725721810835734 -0.54969680207274685 0 -0.54969680207274685 -0.7669524797032139 0 0 0 0 11.302972499164895 -2.3567331611229747 0 -2.3567331611229747 -4.4477894193987595 0 0 0 0 -0.44505304113029354 1.5501887958471343 0 1.5501887958471343 -3.7412175385470618 0 0 0 0 10.823173068334938 -11.079986781259777 0 -11.079986781259777 -16.325719399517766 0 0 0 0 -4.9758832653479317 -4.0631201707869877 0 -4.0631201707869877 -6.1752821352092724 0 0 0 0 0.36594354141348684 0.13252499789051697 0 0.13252499789051697 -0.69769121605794027 0 0 0 0 0.078664767562838633 0.91860680623534918 0 0.91860680623534918 -0.73029819810780339 0 0 0 0 -1.1884082508513598 1.9391162654716592 0 1.9391162654716592 -4.6405988717924842 0 0 0 0 5.2300254237516413 1.2416755294316317 0 1.2416755294316317 -13.692423923710521 0 0 0 0 -0.53523665425595102 -0.20588933853108315 0 -0.20588933853108315 -1.2831333072749391 0 0 0 0 0.13311621738421309 -9.124478967354662 0 -9.124478967354662 -4.7548591590311844 0 0 0 0 -0.97465244829169251 1.0381683604641694 0 1.0381683604641694 -7.277185189368538 0 0 0 0 -10.505224013460065 4.8740238119353307 0 4.8740238119353307 -20.414998886422836 0 0 0 0 -86.875216507429911 -39.115926694814334 0 -39.115926694814334 -66.850192201000027 0 0 0 0 -0.44220360349071086 -8.6104620145433728 0 -8.6104620145433728 -14.915379473012763 0 0 0 0 -0.33520840191678475 -0.15739482438809205 0 -0.15739482438809205 0.062051839107931883 0 0 0 0 -4.9738423554510973 -4.4786622946612624 0 -4.4786622946612624 -5.0541615993879532 0 0 0 0 -3.1242210995192625 38.881346060998339 0 38.881346060998339 -183.35372629191261 0 0 0 0 10.950423143211218 -62.293676908547809 0 -62.293676908547809 -188.69179861287193 0 0 0 0 1.558218808822069 -25.186520533936346 0 -25.186520533936346 -178.32804769110953 0 0 0 0 -3.6655965778475377 -110.12368076920393 0 -110.12368076920393 -314.53721749088072 0 0 0 0 13.262146790238845 51.879970857609806 0 51.879970857609806 -364.38395636469886 0 0 0 0 -97.455014955588354 -164.47554554370072 0 -164.47554554370072 -130.19607326778168 0 0 0 0 -0.3170891842927519 -0.76093054876441713 0 -0.76093054876441713 -1.0576020355992632 0 0 0 0 -7.5170892583438889 -211.45991482417784 0 -211.45991482417784 11.990626692586375 0 0 0 0 -3.541604215161561 -2.227821499147467 0 -2.227821499147467 -73.973992209639619 0 0 0 0 4.8835474865472239 12.863316097143979 0 12.863316097143979 -107.64540521035792 0 0 0 0 -11.727887695291498 -37.102455354422773 0 -37.102455354422773 -123.47803247146658 0 0 0 0 0.025096080638765575 -9.4743642292914956 0 -9.4743642292914956 -119.07889448218884 0 0 0 0 -1.2138353341929431 11.73254042959752 0 11.73254042959752 -52.073274532905998 0 0 0 0 76.668959837495436 -21.822362319250715 0 -21.822362319250715 -499.86817157123505 0 0 0 0 38.597836322099766 92.756647754594724 0 92.756647754594724 -562.43138852523407 0 0 0 0 -0.021121387962022429 -10.813271490742409 0 -10.813271490742409 -20.151087160294992 0 0 0 0 -0.32350503217383864 -1.3942846713006496 0 -1.3942846713006496 -2.1762798823259075 0 0 0 0 -0.03967753856136972 -0.51230948159949818 0 -0.51230948159949818 -1.3889122209180336 0 0 0 0 -0.1070369072059158 -28.727297275735328 0 -28.727297275735328 -465.99460087519947 0 0 0 0 35.139881762040865 -67.00742688813034 0 -67.00742688813034 -434.73173053033429 0 0 0 0 79.908470124222617 41.833810030057975 0 41.833810030057975 -375.18159620439383 0 0 0 0 33.017559360103547 20.073359361825169 0 20.073359361825169 -258.84603422624969 0 0 0 0 105.41758363535564 -21.962656688548122 0 -21.962656688548122 -246.58782657530446 0 0 0 0 49.879409419175119 62.041909881381798 0 62.041909881381798 -150.2425800653441 0 0 0 0 -1.7306452798419869 -35.793867627004602 0 -35.793867627004602 -281.53723899987472 0 0 0 0 -46.835585315847467 -101.61901158400678 0 -101.61901158400678 -323.89723300519427 0 0 0 0 -47.201662358124565 21.071363257785379 0 21.071363257785379 -293.96311853893349 0 0 0 0 -48.351684443920718 -110.82564093024985 0 -110.82564093024985 -317.58495566242891 0 0 0 0 -114.98971756368248 -68.341540458021882 0 -68.341540458021882 -280.82270618495386 0 0 0 0 41.274140822136332 -90.58808172276747 0 -90.58808172276747 -346.28946191452815 0 0 0 0 45.050076481482556 -161.35828121090822 0 -161.35828121090822 -499.85661314601703 0 0 0 0 -17.758709308526615 -265.698342012583 0 -265.698342012583 -325.87776182044274 0 0 0 0 -12.232413615207376 -125.21620826866592 0 -125.21620826866592 -323.13115743366416 0 0 0 0 -32.506569672304998 -131.75758823103661 0 -131.75758823103661 -260.50606592919758 0 0 0 0 -9.8213104780423333 -50.549233076799283 0 -50.549233076799283 -276.76603184129772 0 0 0 0 -42.610467376020551 -53.281564874666401 0 -53.281564874666401 -170.37523777995921 0 0 0 0 -18.467440338624236 -15.158227963453101 0 -15.158227963453101 -137.76866944265203 0 0 0 0 1.7772221672345814 6.4771978242945352 0 6.4771978242945352 -189.90943279891144 0 0 0 0 -11.352118648718555 21.39810467332768 0 21.39810467332768 -93.924401962576667 0 0 0 0 -23.112670606467844 31.691568132305065 0 31.691568132305065 -46.053110801680305 0 0 0 0 -9.4987792028880484 -0.89546460087876767 0 -0.89546460087876767 -3.9451545652632376 0 0 0 0 0.030081971332490728 0.10877510006162083 0 0.10877510006162083 -0.060400826219749959 0 0 0 0 -27.618773005232164 38.912371917313521 0 38.912371917313521 -97.0725089875923 0 0 0 0 23.203125567316533 87.254522905073827 0 87.254522905073827 -278.24925578294733 0 0 0 0 10.793101917440277 -7.24413150897999 0 -7.24413150897999 -150.64284884461267 0 0 0 0 -21.263636317021707 78.899071377226846 0 78.899071377226846 -63.103807380688522 0 0 0 0 -15.530491444509426 -109.02695650846942 0 -109.02695650846942 -160.02987957089863 0 0 0 0 -123.37718709614032 -244.90596390151313 0 -244.90596390151313 -327.57757401178037 0 0 0 0 -0.16165175122723874 0.428955160193361 0 0.428955160193361 -1.724396456731597 0 0 0 0 -0.52955800955403864 1.2371846455206317 0 1.2371846455206317 -4.4848970923257667 0 0 0 0 0.29374508442924707 3.4005930164712481 0 3.4005930164712481 -8.4706567280809395 0 0 0 0 1.2087543924754414 3.7360586067197801 0 3.7360586067197801 -12.869318711309461 0 0 0 0 -25.688450625038584 -46.553818639882593 0 -46.553818639882593 -200.77536214094471 0 0 0 0 -0.18583153955171383 -0.90655947844061302 0 -0.90655947844061302 3.1951662803439831 0 0 0 0 -0.17157890952605925 0.042583871682943197 0 0.042583871682943197 0.46279596813881696 0 0 0 0 5.704826786342986 -11.229586364472084 0 -11.229586364472084 4.7587031660987122 0 0 0 0 0.32411680783513874 -0.24238504975296493 0 -0.24238504975296493 -0.46247787748020386 0 0 0 0 -45.553815321809765 -18.84742439422007 0 -18.84742439422007 6.1316623032998905 0 0 0 0 -0.53772083279966409 0.90492848853682517 0 0.90492848853682517 -7.3772325513982651 0 0 0 0 -1.0589858547882449 -1.4070555451294879 0 -1.4070555451294879 -0.99399421509010111 0 0 0 0 -0.99833738190284294 2.0198607228448964 0 2.0198607228448964 -7.67743972229664 0 0 0 0 2.1939314079390519 -3.9788446755655968 0 -3.9788446755655968 -2.8675009104622404 0 0 0 0 -2.839632589017981 -17.691063632295936 0 -17.691063632295936 -12.113776180354762 0 0 0 0 -4.4787060061089505 -2.9253151889824949 0 -2.9253151889824949 11.386956847471083 0 0 0 0 -1.0420837894257151 -1.2891677215331576 0 -1.2891677215331576 -2.8274485752292957 0 0 0 0 -1.3423661289982647 -1.065832769336339 0 -1.065832769336339 -11.766675729813869 0 0 0 0 3.7568961135729069 -1.3475278649530082 0 -1.3475278649530082 -20.683828865834585 0 0 0 0 -3.8663405669879012 6.5309925742185442 0 6.5309925742185442 -8.4841748544440634 0 0 0 0 0.17428623749399152 0.43489867401371463 0 0.43489867401371463 -0.34505862904133267 0 0 0 0 -3.4910877428325193 2.1276546640510787 0 2.1276546640510787 0.63281374646248878 0 0 0 0 -2.8991440624710094 3.7387968887082934 0 3.7387968887082934 -1.1437113457614032 0 0 0 0 -2.5817573084023877 1.1668739984925196 0 1.1668739984925196 -3.2131894764115714 0 0 0 0 -2.333856008107972 4.1519628212336102 0 4.1519628212336102 -4.0350345408260182 0 0 0 0 -2.1624751283447949 1.5217423336835054 0 1.5217423336835054 -2.1021789380884002 0 0 0 0 -2.2723011547461738 3.0352284410924995 0 3.0352284410924995 -2.2187671095089172 0 0 0 0 -1.5781025414104519 3.0811119826394133 0 3.0811119826394133 -3.160641145244881 0 0 0 0 -2.0526190959313482 1.443575271084228 0 1.443575271084228 -0.47360441106138751 0 0 0 0 -0.11278244794948547 -0.48871662495720614 0 -0.48871662495720614 -0.88990878794251316 0 0 0 0 0.00042543520895321763 2.6031776450181496 0 2.6031776450181496 -3.1075497434967474 0 0 0 0 -2.2243757583014667 1.1667281793459345 0 1.1667281793459345 -0.61254568302139134 0 0 0 0 -0.45535120300590526 0.20760139818175993 0 0.20760139818175993 -0.42266980520431829 0 0 0 0 -2.5529147725795269 -8.7531447311739612 0 -8.7531447311739612 -8.8139378905780177 0 0 0 0 0.42639974081061638 8.3778439865316159 0 8.3778439865316159 2.4069257550763723 0 0 0 0 -8.198353698741272 -8.291639358327302 0 -8.291639358327302 3.8502034035172983 0 0 0 0 2.3230070681724611 1.8620746038416911 0 1.8620746038416911 -4.9713852570093877 0 0 0 0 -0.74214619334748022 11.974961636928128 0 11.974961636928128 -14.170743711414616 0 0 0 0 -28.300573610883532 30.215984375163316 0 30.215984375163316 -25.916767540271394 0 0 0 0 -41.506788600620666 -8.5822821255133022 0 -8.5822821255133022 -6.517650517213383 0 0 0 0 -0.12452486805783697 0.12902066586634398 0 0.12902066586634398 -0.16746199406455986 0 0 0 0 3.923614080031598 20.971545832350785 0 20.971545832350785 -61.120631719937592 0 0 0 0 -7.47159393416797 -9.982930512238454 0 -9.982930512238454 -6.4600983003452939 0 0 0 0 -11.56076156960183 -6.3812433583484562 0 -6.3812433583484562 0.2914549425477162 0 0 0 0 10.615192943444526 -13.939735098385427 0 -13.939735098385427 2.6784962333222211 0 0 0 0 -0.65718347869827043 -0.10815405080522567 0 -0.10815405080522567 -0.34557935058307621 0 0 0 0 -24.582307797103226 15.167209047545839 0 15.167209047545839 -5.0117230495166041 0 0 0 0 -16.166662671892709 -2.3206199100441154 0 -2.3206199100441154 24.143211611319202 0 0 0 0 -10.725573267015477 -3.0858112720197823 0 -3.0858112720197823 -2.7375331588991685 0 0 0 0 -42.297188031876772 2.6357967122439732 0 2.6357967122439732 37.189458789209311 0 0 0 0 -3.2197406416478316 -3.807941380491684 0 -3.807941380491684 4.0217459478817545 0 0 0 0 34.645352306941646 -3.5696968334541452 0 -3.5696968334541452 2.8060994574116194 0 0 0 0 1.0959306829244895 -70.536006666854519 0 -70.536006666854519 120.39515977632254 0 0 0 0 -4.0316861544409903 11.803140960432302 0 11.803140960432302 10.705340055032138 0 0 0 0 9.055936036863045 14.271528972390115 0 14.271528972390115 11.152541334744456 0 0 0 0 -0.42951721278200239 9.9858633940802974 0 9.9858633940802974 3.6757900106022134 0 0 0 0 -20.362025760889097 14.121249507550601 0 14.121249507550601 2.9068743992320378 0 0 0 0 -2.7377651492918744 12.12146096978995 0 12.12146096978995 8.4426325177646504 0 0 0 0 8.8058097212945086 1.4327294056383835 0 1.4327294056383835 4.9537597067392198 0 0 0 0 10.163697432854065 12.471796404033739 0 12.471796404033739 -2.7889059530789382 0 0 0 0 12.497022163647529 3.9962653107459118 0 3.9962653107459118 0.14195789178302221 0 0 0 0 4.6674144164967117 -1.8204249083801187 0 -1.8204249083801187 0.71516735905970563 0 0 0 0 0.49078150170873464 0.47130453548741968 0 0.47130453548741968 0.50517721112641567 0 0 0 0 0.30396920967785751 -0.64004109303005641 0 -0.64004109303005641 -1.8950379065652498 0 0 0 0 10.778663882066553 4.2583772917246279 0 4.2583772917246279 -7.1833584071919176 0 0 0 0 0.4801735449340061 0.70997084313972714 0 0.70997084313972714 -1.4759757143890937 0 0 0 0 -10.999508467270914 10.358778374170015 0 10.358778374170015 8.3088637913861021 0 0 0 0 0.129737999048881 -0.33444239136530607 0 -0.33444239136530607 0.04465315915727075 0 0 0 0 -56.298180389165111 31.303591054495371 0 31.303591054495371 -22.774615903959784 0 0 0 0 -0.039875758090057944 0.00028666061668403131 0 0.00028666061668403131 0.3264256606343281 0 0 0 0 43.943736626167833 -7.4233063191722977 0 -7.4233063191722977 -12.511851312200633 0 0 0 0 -1.034321462427755 13.34273791063697 0 13.34273791063697 -1.7921643903719087 0 0 0 0 28.166926880315998 18.297462269180869 0 18.297462269180869 -32.063298816116003 0 0 0 0 9.4797640870735336 -8.5354659200256719 0 -8.5354659200256719 -17.996818470359813 0 0 0 0 38.716987268240558 -19.611000438231713 0 -19.611000438231713 -112.60236541369704 0 0 0 0 -76.190782612108364 53.800859358546745 0 53.800859358546745 -43.131641736988968 0 0 0 0 6.2571651505462569 -13.547575370663253 0 -13.547575370663253 -20.8350602339342 0 0 0 0 0.092448707361508342 -0.17414244364883569 0 -0.17414244364883569 -1.1666067042082773 0 0 0 0 -29.055598577608691 56.786821744281042 0 56.786821744281042 -132.34265703468009 0 0 0 0 -1.3131651970602434 -21.518972896569721 0 -21.518972896569721 -132.53580004979267 0 0 0 0 -54.19868478033294 -25.002804821613609 0 -25.002804821613609 -63.407570191886407 0 0 0 0 24.512098980539491 7.1529312939101146 0 7.1529312939101146 -110.04847905374299 0 0 0 0 13.149571293574581 20.985901756102976 0 20.985901756102976 -126.85041216653099 0 0 0 0 -2.013413807586204 6.9292697792425315 0 6.9292697792425315 -73.288909847062314 0 0 0 0 -21.655372333436219 30.562915844586314 0 30.562915844586314 -101.71130481027649 0 0 0 0 24.130474445605842 1.3069433606697203 0 1.3069433606697203 -98.594548082002348 0 0 0 0 10.827781206232409 -8.0651664155163871 0 -8.0651664155163871 -74.691269789716898 0 0 0 0 -13.141176997690764 10.100189680626499 0 10.100189680626499 -88.456396784436038 0 0 0 0 6.6661266324749135 11.841862464209953 0 11.841862464209953 -89.471897666286168 0 0 0 0 -10.128590042543351 19.143738936681075 0 19.143738936681075 -61.34341931265908 0 0 0 0 -4.3709794269473434 -16.055592712954422 0 -16.055592712954422 -147.53433041040807 0 0 0 0 25.238354548206132 -11.986895337542592 0 -11.986895337542592 -115.47609309804284 0 0 0 0 -2.1278707586969414 6.024259388276846 0 6.024259388276846 -92.04283548354033 0 0 0 0 16.854694652369915 -6.6123924456887835 0 -6.6123924456887835 -39.885728648268923 0 0 0 0 2.9245601275823105 -85.173428358374622 0 -85.173428358374622 -77.421594994515999 0 0 0 0 0.85381520062263405 -90.988745686780362 0 -90.988745686780362 15.503474817436654 0 0 0 0 -67.122782773156018 -147.22010243196473 0 -147.22010243196473 -198.26255263281178 0 0 0 0 -43.121317688215605 -71.485871180140293 0 -71.485871180140293 -35.477869213437771 0 0 0 0 -122.072400051169 -359.37694729667783 0 -359.37694729667783 -225.7652272940345 0 0 0 0 -214.92238906858358 -64.658665496910771 0 -64.658665496910771 20.512579597449076 0 0 0 0 -58.159066655865651 -174.92693849728585 0 -174.92693849728585 -521.38961283932622 0 0 0 0 -291.69556797129889 -235.56475794971902 0 -235.56475794971902 -500.45017650255522 0 0 0 0 14.417216018578291 -40.466998995707399 0 -40.466998995707399 -347.47505725104202 0 0 0 0 33.194291134357364 53.955758294579937 0 53.955758294579937 -697.95004552523369 0 0 0 0 -2.2872354352040372 -0.95142409493774949 0 -0.95142409493774949 -0.89474872990602705 0 0 0 0 -162.95166178845693 -24.650370127021233 0 -24.650370127021233 38.697412733498822 0 0 0 0 1.4652551883768647 -0.1199552881370316 0 -0.1199552881370316 0.16782389550976085 0 0 0 0 21.044687404459637 27.231564580046324 0 27.231564580046324 -13.132908123163361 0 0 0 0 -127.42823280275888 -68.653189644034683 0 -68.653189644034683 -74.778347285902782 0 0 0 0 -8.2287830111691278 -11.031776155573425 0 -11.031776155573425 62.454334663198097 0 0 0 0 4.0378492048083023 -1.9473243567897072 0 -1.9473243567897072 -1.0830721263364378 0 0 0 0 36.324329442328832 -24.529174521836921 0 -24.529174521836921 -9.6901437268934387 0 0 0 0 -5.6518972740987961 -3.6317356430954799 0 -3.6317356430954799 -1.0182798771449697 0 0 0 0 2.1545606717299961 -31.605070767620873 0 -31.605070767620873 -7.535877101970982 0 0 0 0 -5.1938724082583576 -20.493346331913017 0 -20.493346331913017 23.530901328831533 0 0 0 0 10.697437279453766 -31.004256257845555 0 -31.004256257845555 28.401139491474169 0 0 0 0 -22.67044598702978 -16.36371311999028 0 -16.36371311999028 161.32901741092337 0 0 0 0 19.68878457847228 -9.1986299329894337 0 -9.1986299329894337 20.473339695383402 0 0 0 0 -2.6878697895392634 -16.714015121864577 0 -16.714015121864577 26.993890604188891 0 0 0 0 29.304636383335577 -26.694304079529047 0 -26.694304079529047 -41.971748149182531 0 0 0 0 8.6108917155302152 6.4753377275774255 0 6.4753377275774255 -73.913046058095006 0 0 0 0 5.7381834053921068 -24.01877731020295 0 -24.01877731020295 -20.148313637480896 0 0 0 0 -8.8041696923985455 -26.391063945962287 0 -26.391063945962287 -19.78067267386723 0 0 0 0 -16.126990253794958 -30.061653026858039 0 -30.061653026858039 -23.334956989481725 0 0 0 0 0.28196048554218578 -16.969895852314949 0 -16.969895852314949 -62.311952893762282 0 0 0 0 2.5314370607427463 -23.595886805120244 0 -23.595886805120244 -29.141592388248228 0 0 0 0 6.0077298856667198 -30.855516126210205 0 -30.855516126210205 -30.18101909060897 0 0 0 0 -5.9260323725990816 -32.570939688574072 0 -32.570939688574072 -6.7318732567800907 0 0 0 0 0.7374876906407053 -21.636995307235338 0 -21.636995307235338 -19.657060932930108 0 0 0 0 9.3279195496655802 -28.44234886594586 0 -28.44234886594586 -35.613759541231047 0 0 0 0 1.9221587924861581 -25.218399752699952 0 -25.218399752699952 -8.1828479907871952 0 0 0 0 10.431164038523434 -18.99582110033225 0 -18.99582110033225 -25.040093038327541 0 0 0 0 5.7397867411619217 -30.929921554459384 0 -30.929921554459384 -7.3224539870279841 0 0 0 0 20.310689691279663 -15.908707497233991 0 -15.908707497233991 5.8064540226632744 0 0 0 0 -7.1932872781212893 -28.678003930863269 0 -28.678003930863269 22.227342758009399 0 0 0 0 2.0764539301027298 -20.105888470129685 0 -20.105888470129685 -1.5321692406932925 0 0 0 0 66.375713407987249 -135.91400382036772 0 -135.91400382036772 -499.22479246544918 0 0 0 0 8.6064270432540297 -12.142466805839831 0 -12.142466805839831 19.629395993664275 0 0 0 0 -1.1499402370440273 -1.8900234931012783 0 -1.8900234931012783 -2.7653255386182964 0 0 0 0 0.022562490723482487 -3.9437799535873275 0 -3.9437799535873275 -2.7204224108244492 0 0 0 0 0.14084610937806019 -3.8671102550315481 0 -3.8671102550315481 -5.8196328326730509 0 0 0 0 -1.6412598381331236 -21.853029528274419 0 -21.853029528274419 11.965205057087587 0 0 0 0 0.027904514046275961 -3.4492806433882111 0 -3.4492806433882111 -8.9559703292361519 0 0 0 0 -145.20993252969006 -229.25989660916105 0 -229.25989660916105 -242.23127482315067 0 0 0 0 -0.33980043969038276 -0.0039638698735640077 0 -0.0039638698735640077 -1.6744077265464981 0 0 0 0 -89.257265989449436 -30.888759848851805 0 -30.888759848851805 -76.561381343501125 0 0 0 0 42.859481779472205 -23.067405909936952 0 -23.067405909936952 -384.75852536890852 0 0 0 0 35.97684821215767 -42.669303804715128 0 -42.669303804715128 -600.97502820157797 0 0 0 0 15.584396309030609 -4.2455266735669284 0 -4.2455266735669284 -17.215023497502443 0 0 0 0 37.511043440752708 -94.596714389563658 0 -94.596714389563658 -376.47177681710491 0 0 0 0 1.9192046514913272 2.7777141141277752 0 2.7777141141277752 -10.284855426945342 0 0 0 0 -70.878646629494853 85.961640440269548 0 85.961640440269548 -224.01048040397654 0 0 0 0 56.232862230385727 44.424533976183739 0 44.424533976183739 -499.29193794962993 0 0 0 0 -0.41606154148720059 1.4673372828836175 0 1.4673372828836175 -2.2174543231450645 0 0 0 0 -49.978073795736051 166.85537738353855 0 166.85537738353855 -362.6709060446683 0 0 0 0 -17.046802992129301 -10.707939162774892 0 -10.707939162774892 -14.853514151675881 0 0 0 0 -21.258382531277391 -24.556065951358505 0 -24.556065951358505 15.885319228190383 0 0 0 0 24.771392071687409 6.2515613767927789 0 6.2515613767927789 -35.86358029621988 0 0 0 0 -0.66375902772482309 -7.7338819228721771 0 -7.7338819228721771 -8.2327275348180553 0 0 0 0 16.371657207227315 -5.9302675342696602 0 -5.9302675342696602 -38.117505383055686 0 0 0 0 -1.3225786288901331 -0.94195874785748757 0 -0.94195874785748757 3.4870791707042574 0 0 0 0 3.8971642595070648 4.6683425206301763 0 4.6683425206301763 -37.662260993812993 0 0 0 0 20.315337483077357 -4.0589471203225003 0 -4.0589471203225003 -28.24550766432003 0 0 0 0 17.278337325840099 -0.8017059391577277 0 -0.8017059391577277 -28.211796486959429 0 0 0 0 23.839498956722252 -0.2308646147394029 0 -0.2308646147394029 -39.816305808027323 0 0 0 0 14.320650142186444 -25.004034207089944 0 -25.004034207089944 -39.405003854990355 0 0 0 0 20.045858442128988 -15.575710112324487 0 -15.575710112324487 -28.783421419160732 0 0 0 0 16.538033069980301 -16.409963738474289 0 -16.409963738474289 -9.1723926316899451 0 0 0 0 -0.30854621441403346 -7.5500569030725551 0 -7.5500569030725551 -10.243291012946891 0 0 0 0 5.6674181249600792 -18.686432210228304 0 -18.686432210228304 -8.6251971082147065 0 0 0 0 -17.972992251522328 -14.809512325454307 0 -14.809512325454307 5.9717844717101798 0 0 0 0 -0.62152707773796978 -2.3396739080952287 0 -2.3396739080952287 0.7225712376713247 0 0 0 0 5.4168469790230844 -20.235201027248195 0 -20.235201027248195 -11.936749893793603 0 0 0 0 10.893520020803123 -20.901299605328859 0 -20.901299605328859 -21.058741441327584 0 0 0 0 6.9067373441756672 -16.967454100826217 0 -16.967454100826217 -12.231854488949239 0 0 0 0 6.6160332461094242 -9.7378895401188856 0 -9.7378895401188856 -17.570145217968275 0 0 0 0 7.0593476183108805 -15.417527733447059 0 -15.417527733447059 -8.4667190094039029 0 0 0 0 13.939472544333171 -9.5252656798056705 0 -9.5252656798056705 -20.833158793228904 0 0 0 0 11.561973528473814 -5.7485986688539015 0 -5.7485986688539015 -23.057915219722418 0 0 0 0 17.754428400014206 2.8262961702857865 0 2.8262961702857865 -15.586200058112354 0 0 0 0 17.177710647572084 -3.876357488565418 0 -3.876357488565418 -37.420429060433889 0 0 0 0 11.598157819618052 1.3156778729962753 0 1.3156778729962753 -24.580542938350845 0 0 0 0 14.720563754847433 -12.540269860578519 0 -12.540269860578519 -29.47873800911475 0 0 0 0 14.966167668441472 -12.394573549335519 0 -12.394573549335519 -29.402917722318307 0 0 0 0 10.179740719680296 -8.6749344456433164 0 -8.6749344456433164 -42.939347820396506 0 0 0 0 14.280093446049761 -9.698312602176884 0 -9.698312602176884 -47.693255392238825 0 0 0 0 9.0873273952345244 -0.86483098149892612 0 -0.86483098149892612 -87.534392904337437 0 0 0 0 5.2816078298988032 -32.464524142968003 0 -32.464524142968003 -61.542949011156452 0 0 0 0 -3.0668359220067032 -14.116690819033465 0 -14.116690819033465 -57.554967947241266 0 0 0 0 -10.810372560654514 23.569756752076501 0 23.569756752076501 -56.49503743093419 0 0 0 0 -11.012714096562149 18.055398590401637 0 18.055398590401637 -54.03517838492553 0 0 0 0 -5.3676824404344643 11.18405205520321 0 11.18405205520321 -29.206696762796128 0 0 0 0 10.110644595125507 8.0220398793635468 0 8.0220398793635468 -53.643878872136156 0 0 0 0 -0.47717673582818065 9.1770458123141907 0 9.1770458123141907 -11.56731972979469 0 0 0 0 -7.6527677050672196 20.766699347282156 0 20.766699347282156 -30.283538680866286 0 0 0 0 -19.776477201405896 6.6509906532583045 0 6.6509906532583045 -7.2492650519279778 0 0 0 0 -23.526839987469714 9.8035765064951192 0 9.8035765064951192 -3.2553647638596885 0 0 0 0 -9.7313694289817931 3.2244097873372084 0 3.2244097873372084 -6.5834639758249978 0 0 0 0 -9.0265477197744985 10.903464439013078 0 10.903464439013078 7.8784981839580723 0 0 0 0 15.593182143964953 15.142193875644807 0 15.142193875644807 -12.241317582302372 0 0 0 0 10.907729697200352 15.919738746461007 0 15.919738746461007 3.0066282881562074 0 0 0 0 19.065670675207059 21.029951531152619 0 21.029951531152619 -6.0586111753952991 0 0 0 0 1.0168225623719613 1.1942358592410756 0 1.1942358592410756 -6.5095773457830646 0 0 0 0 -7.181464172373353 -3.492733666327922 0 -3.492733666327922 -7.82385080709264 0 0 0 0 -0.50149070110849792 1.2313527290318458 0 1.2313527290318458 -6.8845784848765099 0 0 0 0 -2.9058649649912418 -8.1695626509617227 0 -8.1695626509617227 -11.605915092904979 0 0 0 0 25.917418227685801 8.7494091432472487 0 8.7494091432472487 -19.178197945433567 0 0 0 0 14.724357128734539 8.5890063461761201 0 8.5890063461761201 -3.2965645636486443 0 0 0 0 15.816664072580295 13.976211542128112 0 13.976211542128112 -28.102727513505442 0 0 0 0 7.0347314328706645 10.932713988693024 0 10.932713988693024 -27.393364132793067 0 0 0 0 4.3725750440693218 -0.26315992730587823 0 -0.26315992730587823 -11.694471222974244 0 0 0 0 1.6716138133021179 1.6900554807101527 0 1.6900554807101527 -5.9396383343957311 0 0 0 0 0.87482473546291639 2.0480413300296858 0 2.0480413300296858 -8.194950319522512 0 0 0 0 8.0130450892385028 2.7174621892811501 0 2.7174621892811501 -35.681244053819682 0 0 0 0 0.60749533389858357 4.5678511758605964 0 4.5678511758605964 -3.9261615000359598 0 0 0 0 0.45611613396931716 5.894966297413248 0 5.894966297413248 -11.861808291385614 0 0 0 0 5.8993282158870102 11.524156177145869 0 11.524156177145869 -10.833784010830641 0 0 0 0 0.4619382339055319 2.6935338122592762 0 2.6935338122592762 -5.9322243254305427 0 0 0 0 -0.63904433182858611 3.9208132038029362 0 3.9208132038029362 -17.954107505256616 0 0 0 0 -1.0859939347581076 0.83366588828357635 0 0.83366588828357635 -1.9039867521482847 0 0 0 0 1.7389236402995998 7.161968821108303 0 7.161968821108303 -22.965566493356164 0 0 0 0 -0.46401319126860585 19.150237308730993 0 19.150237308730993 4.6949368666846567 0 0 0 0 0.84365533932069758 1.3429833441545576 0 1.3429833441545576 -2.0843284591947118 0 0 0 0 0.77746110080309017 2.4107397045814007 0 2.4107397045814007 -11.833304230726846 0 0 0 0 -9.0110979723059472 -1.5180995250993874 0 -1.5180995250993874 -10.652833839656978 0 0 0 0 0.20687235719877911 -1.592636084816812 0 -1.592636084816812 -2.8523430597483355 0 0 0 0 1.8582291890775195 8.3556643306183105 0 8.3556643306183105 -42.763404287077719 0 0 0 0 24.855254096148144 1.2373414455687453 0 1.2373414455687453 -9.7411246529900382 0 0 0 0 15.208008625050354 20.483743971053627 0 20.483743971053627 -2.3521962915647237 0 0 0 0 -11.624054916432954 14.0413184062254 0 14.0413184062254 1.9705293161905502 0 0 0 0 1.0820480878623377 0.88814971635948137 0 0.88814971635948137 -0.72146497587776537 0 0 0 0 -4.5598711440139255 6.8733973036914904 0 6.8733973036914904 -6.1300887690667878 0 0 0 0 5.5280430023854663 0.1270707675862468 0 0.1270707675862468 -1.3683131572615821 0 0 0 0 4.2700712075420597 2.9797406685743226 0 2.9797406685743226 -7.3533810722929047 0 0 0 0 5.9702583082296314 -2.5085194644389048 0 -2.5085194644389048 0.7941734669948346 0 0 0 0 5.1040152969650308 -0.030085115671226959 0 -0.030085115671226959 5.1278409647420631 0 0 0 0 0.99159223376594019 0.73406358166789687 0 0.73406358166789687 -0.43960072180815501 0 0 0 0 2.1025784231219902 1.9251343815912918 0 1.9251343815912918 1.0115145445888576 0 0 0 0 7.9700434759068344 9.2566928506075783 0 9.2566928506075783 -10.862947582206289 0 0 0 0 3.7291711766345941 3.6032711420639316 0 3.6032711420639316 -9.3374689408781251 0 0 0 0 4.1106663571745123 1.9263849086676039 0 1.9263849086676039 -1.5107480222797562 0 0 0 0 5.779445402096826 4.0063956909898479 0 4.0063956909898479 -10.341130953278935 0 0 0 0 2.0271537982068821 2.9981574410458052 0 2.9981574410458052 -6.8660148168964952 0 0 0 0 8.3374091913333359 1.2520082875380467 0 1.2520082875380467 -9.0546118901565933 0 0 0 0 -0.21129884121704978 4.8309538607799301 0 4.8309538607799301 -8.0468267778765323 0 0 0 0 6.3960581409874067 13.455163786941739 0 13.455163786941739 -18.087046047916374 0 0 0 0 15.068766209440128 1.8886938107152673 0 1.8886938107152673 -12.401370759015663 0 0 0 0 0.52111242611685826 0.17208783722490129 0 0.17208783722490129 -0.4440197809697537 0 0 0 0 1.6088226013266649 8.9186295331182919 0 8.9186295331182919 -8.1023226382892517 0 0 0 0 9.2904249221282491 -2.8244631145370533 0 -2.8244631145370533 -7.7515777164753672 0 0 0 0 9.5160158737785423 0.60711295865257853 0 0.60711295865257853 -10.887167214827059 0 0 0 0 7.8121169168501865 -0.40626842137226049 0 -0.40626842137226049 -9.9347804388598888 0 0 0 0 9.2793200753999372 -2.5172823852553847 0 -2.5172823852553847 -14.231120360902423 0 0 0 0 10.467562412533425 -0.30149852946487954 0 -0.30149852946487954 -10.11284904160857 0 0 0 0 14.158887468920511 -1.4885260571008985 0 -1.4885260571008985 -16.518833172864106 0 0 0 0 11.289348083583548 -8.1680287604531259 0 -8.1680287604531259 -12.586731790754129 0 0 0 0 -1.145343681914369 1.5401659939007004 0 1.5401659939007004 -7.6840491348557407 0 0 0 0 12.380268865656717 -3.9260120360468136 0 -3.9260120360468136 -19.704744163740543 0 0 0 0 1.9466389260247117 3.6048395573966632 0 3.6048395573966632 -2.4164788545354305 0 0 0 0 1.9639876637399993 6.8170812005978405 0 6.8170812005978405 -9.1530299775810988 0 0 0 0 2.8302013111506312 4.1913719596013834 0 4.1913719596013834 -8.97613133332095 0 0 0 0 36.724059946097896 -9.2559439018968988 0 -9.2559439018968988 -18.675133557799199 0 0 0 0 2.1237545189800042 2.140832574048094 0 2.140832574048094 -4.8032790587430689 0 0 0 0 3.6597868063345231 6.0873630653832151 0 6.0873630653832151 -8.5647039507039153 0 0 0 0 0.35226209044180212 3.0735346594421191 0 3.0735346594421191 -5.0509714221896971 0 0 0 0 2.958078761486604 3.0571961309656217 0 3.0571961309656217 -4.3299643002121684 0 0 0 0 3.4997498920195085 5.9458451034538484 0 5.9458451034538484 -8.014827930202955 0 0 0 0 0.24289786003871328 1.507636951787755 0 1.507636951787755 -5.0323692608393262 0 0 0 0 3.4781640033461372 4.985075121774571 0 4.985075121774571 -9.1086982574988724 0 0 0 0 3.4028762231841938 5.2766637591921608 0 5.2766637591921608 -5.8536028230264492 0 0 0 0 2.9228506074955476 3.7134508738708973 0 3.7134508738708973 -6.6921527328595403 0 0 0 0 2.6158092497130383 3.7504501710773184 0 3.7504501710773184 -5.3484884661347678 0 0 0 0 2.4396887207831242 4.2491151414565138 0 4.2491151414565138 -6.2556674574152566 0 0 0 0 1.2901273477374711 3.2865594116747605 0 3.2865594116747605 -3.8058499682891984 0 0 0 0 5.6679229072205999 3.2123100054568567 0 3.2123100054568567 -6.557012529820895 0 0 0 0 0.60005336146129418 0.99845148085044144 0 0.99845148085044144 -3.8915428202893096 0 0 0 0 2.2413585798504965 1.7478636856788299 0 1.7478636856788299 -3.758970625949587 0 0 0 0 2.0678120337420296 1.8056743481820376 0 1.8056743481820376 -3.3692984128501848 0 0 0 0 1.3695978107108648 2.2624531390502653 0 2.2624531390502653 -8.5858226263009279 0 0 0 0 1.7618044204634482 2.6770629705410993 0 2.6770629705410993 -5.3127625753611483 0 0 0 0 -6.0753243846793676 6.6703707629618378 0 6.6703707629618378 -1.000459621718619 0 0 0 0 0.21649868741326372 8.8337025041312245 0 8.8337025041312245 -5.0723877369709953 0 0 0 0 -1.3329819503585441 3.6431373455825451 0 3.6431373455825451 -1.6920082247579558 0 0 0 0 3.7560079987188284 1.0763784093164688 0 1.0763784093164688 -7.6384452170579387 0 0 0 0 0.60971468588076327 1.133125765028058 0 1.133125765028058 -0.057346292648770003 0 0 0 0 1.5410633178920534 -0.7894480100931105 0 -0.7894480100931105 1.3313659650521004 0 0 0 0 -1.8000035163819348 0.61165945479910988 0 0.61165945479910988 -11.410039981932641 0 0 0 0 1.8415605554468066 3.0017091052995926 0 3.0017091052995926 -7.0363473143284558 0 0 0 0 1.4502537763596124 0.8651389888869101 0 0.8651389888869101 -7.8916502679924569 0 0 0 0 4.8828257232880787 3.2952756305785442 0 3.2952756305785442 -2.4725707669822441 0 0 0 0 2.0141616027502636 6.9968332765728798 0 6.9968332765728798 -9.5170761156226291 0 0 0 0 1.8096670508903117 1.7549167056604347 0 1.7549167056604347 -4.4496001529078058 0 0 0 0 2.2793714280401218 1.85189424672717 0 1.85189424672717 -4.6904553660078818 0 0 0 0 -0.28093608661197322 3.3360658473925469 0 3.3360658473925469 -6.7381286999484473 0 0 0 0 0.40239448302436043 1.4532214506628049 0 1.4532214506628049 -3.7470954303029416 0 0 0 0 0.20560700162365864 3.3305153827827922 0 3.3305153827827922 -5.1953352063183154 0 0 0 0 0.87173082286809889 1.2963618756992608 0 1.2963618756992608 -5.3995173813594359 0 0 0 0 1.1074431246609038 3.2706370485275329 0 3.2706370485275329 -9.6045905089731605 0 0 0 0 0.57534125461328012 1.5499257429963365 0 1.5499257429963365 -4.1837300566440581 0 0 0 0 1.3402423849407796 2.3081162892501652 0 2.3081162892501652 -9.1859485821501039 0 0 0 0 0.37007381174851162 2.2211248111011628 0 2.2211248111011628 -8.7566186827975798 0 0 0 0 1.2274109230206323 3.0600157110396671 0 3.0600157110396671 -6.8760192563636444 0 0 0 0 4.7312988592302645 5.5828495632943032 0 5.5828495632943032 -19.243010800794195 0 0 0 0 9.5931896471374785 -3.4473085522063229 0 -3.4473085522063229 -18.157602529152314 0 0 0 0 3.7011320680410336 3.916919992976716 0 3.916919992976716 -17.526411843472147 0 0 0 0 -0.97902012360722779 7.9495789471384271 0 7.9495789471384271 -20.069045978889449 0 0 0 0 12.253153005656714 2.1028238167035624 0 2.1028238167035624 -28.075007551156659 0 0 0 0 -0.69845137101174259 12.021175754744888 0 12.021175754744888 -26.811994718070991 0 0 0 0 10.156843174145706 5.5044019016376069 0 5.5044019016376069 -33.069493905982768 0 0 0 0 0.23086763081960271 4.5534577761982291 0 4.5534577761982291 -6.5140359182514658 0 0 0 0 -0.041518423632169288 0.49208192026071629 0 0.49208192026071629 -7.2576079796199338 0 0 0 0 -0.41687605657844268 3.7134948503011769 0 3.7134948503011769 -2.2672939459315078 0 0 0 0 -0.047259424377172454 1.8962977226028421 0 1.8962977226028421 -4.2173829261835873 0 0 0 0 6.3709530778951873 4.4242422636763905 0 4.4242422636763905 -2.2131613056481001 0 0 0 0 1.6041668762072732 -2.9645364071343465 0 -2.9645364071343465 -17.354906773305739 0 0 0 0 -2.646573034073981 -1.598278278224825 0 -1.598278278224825 1.2831196190977607 0 0 0 0 1.7758811315719962 -2.6347068529236757 0 -2.6347068529236757 -11.563081754928653 0 0 0 0 3.7503484962826406 -0.99225211994507845 0 -0.99225211994507845 -3.8650115755226579 0 0 0 0 1.6378029102506844 -4.5662405833936646 0 -4.5662405833936646 -3.8714140414376743 0 0 0 0 1.9961118243158413 -2.634295319302189 0 -2.634295319302189 -9.6342088072106407 0 0 0 0 -0.19149625927654013 -0.28792056072060301 0 -0.28792056072060301 -5.6818929296021174 0 0 0 0 0.37488287107241369 -0.010710904577397429 0 -0.010710904577397429 -1.0593664514537053 0 0 0 0 0.19998125294528535 -0.26001245197614509 0 -0.26001245197614509 -7.213270477125695 0 0 0 0 -22.4637942995613 -16.04435000393255 0 -16.04435000393255 6.4977375846283394 0 0 0 0 -7.1936642712105314 5.4639818491030354 0 5.4639818491030354 -34.485818641629521 0 0 0 0 -7.9519004589419637 -2.6225905381611483 0 -2.6225905381611483 7.7854250065774977 0 0 0 0 -0.51906182118077304 -1.2734250898222175 0 -1.2734250898222175 -0.41703754169338936 0 0 0 0 -1.9549529303043975 -5.2046890171871301 0 -5.2046890171871301 -12.542027318023178 0 0 0 0 17.336977453848704 -9.3659125684484934 0 -9.3659125684484934 -22.16657806301447 0 0 0 0 12.245545391643645 -0.24874655835151316 0 -0.24874655835151316 -21.01223666121939 0 0 0 0 8.3496865268040352 -5.8885212548167125 0 -5.8885212548167125 -26.998096219456443 0 0 0 0 13.199709178396859 -31.266913117561799 0 -31.266913117561799 -10.26463059177172 0 0 0 0 5.3814527213495467 -21.288819837007395 0 -21.288819837007395 -5.2894043852902541 0 0 0 0 -2.3532034337749019 -6.1193109681975759 0 -6.1193109681975759 -11.439974694547296 0 0 0 0 5.3463681651646766 -3.5755406914236119 0 -3.5755406914236119 -55.008239790132393 0 0 0 0 -30.020896324105088 3.3238388855349257 0 3.3238388855349257 -32.032563120544182 0 0 0 0 -29.366443511402732 16.800309680601586 0 16.800309680601586 -18.264399659086848 0 0 0 0 -20.876689649888817 11.807063415116318 0 11.807063415116318 -14.007286516448403 0 0 0 0 -16.422534254472453 20.115854375128038 0 20.115854375128038 -30.147904382622073 0 0 0 0 5.9447815844825413 4.471371279328423 0 4.471371279328423 -30.261874948529112 0 0 0 0 -24.904592207650694 11.118076950315753 0 11.118076950315753 -23.714111405528456 0 0 0 0 -13.72994333144311 -9.0723271022161498 0 -9.0723271022161498 -12.17711513815857 0 0 0 0 -33.644804871269116 9.8108170355953916 0 9.8108170355953916 -22.607523026887293 0 0 0 0 -14.305822215315629 21.306708615598382 0 21.306708615598382 -66.816064868413378 0 0 0 0 -7.0362097323147736 2.9461128478201317 0 2.9461128478201317 -40.238058471750719 0 0 0 0 17.783054712366663 52.795287914738083 0 52.795287914738083 -45.595704505104095 0 0 0 0 -3.3869193558873576 -16.569978563381483 0 -16.569978563381483 -13.400435317583288 0 0 0 0 0.85578678093361393 2.9865001513367 0 2.9865001513367 -13.879688290036647 0 0 0 0 62.150576649105801 35.450243621761047 0 35.450243621761047 -46.082921543048997 0 0 0 0 -14.782303644920489 -0.58573798017914669 0 -0.58573798017914669 28.905318079240715 0 0 0 0 -0.85547156396478385 0.31451561082485568 0 0.31451561082485568 -53.788929289597945 0 0 0 0 -0.17416806608870949 0.15705046586692095 0 0.15705046586692095 -0.32952074232164463 0 0 0 0 -70.498426569570029 -7.1087660121324916 0 -7.1087660121324916 3.309765844456706 0 0 0 0 -10.766137928290391 4.8045024509283394 0 4.8045024509283394 -5.6954141487592551 0 0 0 0 -28.635378150886027 -5.8759449097312881 0 -5.8759449097312881 4.0600595719097328 0 0 0 0 -0.54900641105803061 -0.16473056499603445 0 -0.16473056499603445 -1.6375921005011058 0 0 0 0 8.9589959820642662 15.896851525318652 0 15.896851525318652 -3.3808121960937569 0 0 0 0 -1.720371978062758 4.7882780359650496 0 4.7882780359650496 -4.3940243016404565 0 0 0 0 -2.6100994802982314 4.3703860113855626 0 4.3703860113855626 -3.7493355731312477 0 0 0 0 8.0787046265792242 33.312068709565665 0 33.312068709565665 10.439454788045623 0 0 0 0 -24.020501865805272 -9.0751320879116975 0 -9.0751320879116975 -8.8175903199207823 0 0 0 0 32.248572094211397 -30.742922051330424 0 -30.742922051330424 -48.608680938516045 0 0 0 0 0.70877038571874507 3.858679037779444 0 3.858679037779444 -14.944829817190641 0 0 0 0 45.79409005071625 10.626522085393844 0 10.626522085393844 -26.136704546696819 0 0 0 0 0.2089698387687946 19.899404301228969 0 19.899404301228969 -39.283296511686785 0 0 0 0 1.235479892892954 21.203663210295417 0 21.203663210295417 -54.448819230563458 0 0 0 0 -1.4913497368955415 -5.3972532284982435 0 -5.3972532284982435 -21.260120542443474 0 0 0 0 -1.5947183947455414 -2.5818193185086784 0 -2.5818193185086784 -52.331861684738442 0 0 0 0 -0.16923885629373103 -0.44765633803126548 0 -0.44765633803126548 -13.159397721419737 0 0 0 0 0.32202771080795856 60.305324299822587 0 60.305324299822587 -12.408815666194641 0 0 0 0 -15.16016949479382 -11.256478231377514 0 -11.256478231377514 -11.639682215507491 0 0 0 0 -5.4685218211546456 -8.0444269477511625 0 -8.0444269477511625 -6.0641924302872212 0 0 0 0 -11.139177430234554 1.0091242837320351 0 1.0091242837320351 8.2530214019825507 0 0 0 0 4.2285487738487859 8.0982924273343997 0 8.0982924273343997 4.2340727123923898 0 0 0 0 1.9555315048586124 2.3837552075981421 0 2.3837552075981421 -8.4804038085203501 0 0 0 0 37.502790618655922 0.76666473882096398 0 0.76666473882096398 -23.469024435657047 0 0 0 0 1.5176187971346775 1.6691537936735799 0 1.6691537936735799 -11.410538084106211 0 0 0 0 2.7954105727568503 5.0169658611362138 0 5.0169658611362138 6.7981037913232285 0 0 0 0 0.025742909330377095 -0.15040064034763745 0 -0.15040064034763745 -0.99163971788498628 0 0 0 0 22.731142400581376 -4.2796652195338538 0 -4.2796652195338538 -5.5579612610054028 0 0 0 0 13.696229993548286 -7.100951599648397 0 -7.100951599648397 0.59699947439821699 0 0 0 0 6.1597464235890129 -1.7604747277655406 0 -1.7604747277655406 4.162883614074417 0 0 0 0 3.5407741172049896 -0.48807886990834959 0 -0.48807886990834959 -8.4556217786375782 0 0 0 0 5.164448969864182 -3.9632745510962195 0 -3.9632745510962195 -1.0903611012872716 0 0 0 0 -0.22001940988674551 -0.86293064474373971 0 -0.86293064474373971 -5.8392379960982197 0 0 0 0 3.0717322953707509 -0.69664951478625881 0 -0.69664951478625881 -0.61179722423457861 0 0 0 0 1.8317048590348612 -6.2995424715924173 0 -6.2995424715924173 -0.28897791462077294 0 0 0 0 1.1671355552038847 -2.5249956712978019 0 -2.5249956712978019 1.313319661557216 0 0 0 0 -2.8474068801326382 -3.5174037252427297 0 -3.5174037252427297 1.3023131808949984 0 0 0 0 -0.58024975547348845 -6.900943210788455 0 -6.900943210788455 -0.1138178856617742 0 0 0 0 15.399454384748793 -22.570780438366455 0 -22.570780438366455 -5.0296197197239962 0 0 0 0 0.029953268375222331 -0.16870953194220384 0 -0.16870953194220384 -1.0907099767922119 0 0 0 0 1.384155217396966 16.251516475208064 0 16.251516475208064 0.84371226045863068 0 0 0 0 0.028186674813398788 -0.25640945061451692 0 -0.25640945061451692 -3.5162529367920925 0 0 0 0 12.639150094052638 -4.0512662750995787 0 -4.0512662750995787 -15.122317486431712 0 0 0 0 10.309720603457606 1.6720187010132577 0 1.6720187010132577 -12.636014161469575 0 0 0 0 0.12137420262769183 -2.8921098185737719 0 -2.8921098185737719 -9.9576144926704728 0 0 0 0 3.7194804688461147 1.8977532642311417 0 1.8977532642311417 -3.6147782520324654 0 0 0 0 7.9722194038274097 -2.6010073917332193 0 -2.6010073917332193 -20.119318663200829 0 0 0 0 -0.21258740654479169 15.777988247423309 0 15.777988247423309 -21.397430628971051 0 0 0 0 -7.5023965151523804 9.6718431417830288 0 9.6718431417830288 -14.579900325161361 0 0 0 0 -0.65595797385014976 -2.7636268519413534 0 -2.7636268519413534 3.3138152241936041 0 0 0 0 -26.863520340869172 19.536822917753852 0 19.536822917753852 -4.3078004874114413 0 0 0 0 14.685502428966942 -12.856285346652612 0 -12.856285346652612 4.25303399888071 0 0 0 0 2.912037775580643 17.14950438552205 0 17.14950438552205 -1.158505961562696 0 0 0 0 -13.971391128084235 -2.6565618894819636 0 -2.6565618894819636 -17.792852392158238 0 0 0 0 -34.917232717496717 32.84644957801379 0 32.84644957801379 -22.916231186627556 0 0 0 0 0.023656727973284997 0.10417569429528317 0 0.10417569429528317 -1.2412407126451583 0 0 0 0 2.3541959095839502 -9.7069960960034223 0 -9.7069960960034223 -33.911090744062676 0 0 0 0 -4.9587053662883136 -27.007988014246166 0 -27.007988014246166 -41.411603531032597 0 0 0 0 14.896414889544836 3.2328440481189773 0 3.2328440481189773 -115.99651843894389 0 0 0 0 -18.222745997435538 32.963349975984784 0 32.963349975984784 -57.685761779096538 0 0 0 0 -21.581463375824484 -7.6265290215842469 0 -7.6265290215842469 -83.422828792594373 0 0 0 0 -89.434922364139425 -5.3552662523998151 0 -5.3552662523998151 -23.164350726621478 0 0 0 0 -49.547780205601953 63.480948039381474 0 63.480948039381474 -78.406931637509842 0 0 0 0 4.354345339871486 2.7728043659517425 0 2.7728043659517425 -34.217178789899663 0 0 0 0 -14.668564760416871 12.822076462844052 0 12.822076462844052 -25.996614402171872 0 0 0 0 -4.4423131218570333 15.271091446998071 0 15.271091446998071 -51.06827674451597 0 0 0 0 -6.714976258175966 17.238589163320285 0 17.238589163320285 -19.446059945501474 0 0 0 0 -17.865854181453898 27.864190892563784 0 27.864190892563784 -25.150857155869744 0 0 0 0 -7.265028083311563 27.082594521859846 0 27.082594521859846 -26.226228529762011 0 0 0 0 -7.2919637567591025 27.01310281883525 0 27.01310281883525 -25.100115035182625 0 0 0 0 -5.8005481601842348 13.767961597856811 0 13.767961597856811 -1.677676369130495 0 0 0 0 -7.5640664097002741 26.943958630875386 0 26.943958630875386 -24.93243870374863 0 0 0 0 -14.74934324753292 -22.599202009478176 0 -22.599202009478176 -12.94058663614851 0 0 0 0 -0.1464268179575503 0.29268113691720865 0 0.29268113691720865 -0.92733349818596622 0 0 0 0 -17.466374304734643 30.42639825740207 0 30.42639825740207 -23.460412768409697 0 0 0 0 18.861228010018181 -4.1535982109780889 0 -4.1535982109780889 -11.660633685678476 0 0 0 0 20.433506838346602 -0.79333610658250109 0 -0.79333610658250109 -7.6432186880592781 0 0 0 0 0.62760058633416016 0.56931198837951014 0 0.56931198837951014 -2.5322103498412361 0 0 0 0 -2.6562668586340692 11.119553579226249 0 11.119553579226249 -13.123519496773952 0 0 0 0 12.970689067293733 -5.5531442451883777 0 -5.5531442451883777 -7.9456492382942088 0 0 0 0 5.9100260886200431 -1.9481159166452926 0 -1.9481159166452926 -7.1154604077964905 0 0 0 0 15.001864794690391 1.5059226446737739 0 1.5059226446737739 -10.547235560428817 0 0 0 0 4.1297343227297176 -1.0633714069090274 0 -1.0633714069090274 -8.264370753093317 0 0 0 0 5.2898133394032811 6.8390866359450229 0 6.8390866359450229 -21.850617113779663 0 0 0 0 8.2550727620256907 -11.222938685146801 0 -11.222938685146801 10.178808902803667 0 0 0 0 11.782474994728659 -11.738554224670224 0 -11.738554224670224 -2.3706760459663201 0 0 0 0 9.7495776742475826 0.019254405254287121 0 0.019254405254287121 -9.5140503391776292 0 0 0 0 11.390223103289998 -5.6212855279402447 0 -5.6212855279402447 -4.2587823906178528 0 0 0 0 6.4219887965194289 0.47585771256251519 0 0.47585771256251519 -4.2664728418239974 0 0 0 0 13.867401452959712 0.14188064585960092 0 0.14188064585960092 4.2838578048122145 0 0 0 0 2.9917917307931532 0.57153521917462058 0 0.57153521917462058 -1.2982242010712071 0 0 0 0 2.2901201374288802 1.1352322849844647 0 1.1352322849844647 -1.5912151899857925 0 0 0 0 5.2467486056295058 1.9108497329173133 0 1.9108497329173133 -4.9451818741872557 0 0 0 0 4.5937618996035194 3.7774596000462566 0 3.7774596000462566 -3.4865594155035069 0 0 0 0 1.8957119796545971 1.1715232244456937 0 1.1715232244456937 -1.6089118747195315 0 0 0 0 1.4977376314850446 0.30420602132680641 0 0.30420602132680641 -1.6874381541905947 0 0 0 0 5.0950538086843267 -0.67225031450470851 0 -0.67225031450470851 -2.8022098998262663 0 0 0 0 2.6582343961824164 1.0206172191380496 0 1.0206172191380496 -0.40110831148462722 0 0 0 0 0.59361218722341391 6.4517448732030971 0 6.4517448732030971 8.3421803656033546 0 0 0 0 15.118801087677014 -26.672182837115542 0 -26.672182837115542 19.990861829764981 0 0 0 0 0.88342748591585352 0.24687439462378791 0 0.24687439462378791 0.15421754909092655 0 0 0 0 -10.007356039255029 -8.4749364739218436 0 -8.4749364739218436 20.304564877577292 0 0 0 0 -1.9492736092304312 7.660407117898103 0 7.660407117898103 16.092791100445993 0 0 0 0 52.516975351061888 9.8771144137772353 0 9.8771144137772353 -34.097534886561334 0 0 0 0 41.360129927130401 54.394352840899955 0 54.394352840899955 -59.160249243377621 0 0 0 0 -35.630195146514893 44.375539719119843 0 44.375539719119843 -11.77197400626028 0 0 0 0 12.744797453957744 7.678038730242406 0 7.678038730242406 7.2565163379367732 0 0 0 0 -43.157221211693169 10.532641170590523 0 10.532641170590523 18.125407491355872 0 0 0 0 -19.569820558643187 7.4737098510358919 0 7.4737098510358919 14.147051559464671 0 0 0 0 -17.610387548561448 8.1977087075529198 0 8.1977087075529198 9.1374684865040763 0 0 0 0 -5.5976169560622395 8.7218351899655318 0 8.7218351899655318 5.1229850092149718 0 0 0 0 -18.057466219629646 6.8455712445793324 0 6.8455712445793324 9.7826465113885206 0 0 0 0 -21.697432971092738 -0.58635218461915883 0 -0.58635218461915883 -0.15931292337336345 0 0 0 0 -22.393292539386255 15.754474098488089 0 15.754474098488089 3.0732357170636533 0 0 0 0 -13.484223931404813 12.462086293135144 0 12.462086293135144 -3.7021418476824692 0 0 0 0 -28.451399702548088 3.3380376762797823 0 3.3380376762797823 -22.37255108986551 0 0 0 0 -42.852175592624803 15.841359149715572 0 15.841359149715572 -3.8163553626982321 0 0 0 0 -33.603448809519335 5.7040232255858427 0 5.7040232255858427 -2.588856212740211 0 0 0 0 6.7320688501504407 0.950700676343331 0 0.950700676343331 -3.9390881084036664 0 0 0 0 -8.361138521541136 -6.0065992368536172 0 -6.0065992368536172 -38.256898920379172 0 0 0 0 -9.1406633291105379 -3.7198132220455591 0 -3.7198132220455591 -5.2483983495039865 0 0 0 0 1.0342066055591683 1.0684192923607689 0 1.0684192923607689 0.29485571326542015 0 0 0 0 8.6040287859314333 2.5314842043374028 0 2.5314842043374028 -0.0029857483095838688 0 0 0 0 -3.8602127800063499 7.6341177634776614 0 7.6341177634776614 -14.518120002561773 0 0 0 0 9.7419484811338179 8.0457337624891352 0 8.0457337624891352 -4.1589896595360187 0 0 0 0 3.9550885078136844 7.9814378754472273 0 7.9814378754472273 -1.5556477977825125 0 0 0 0 -12.711619814097503 29.897101352740719 0 29.897101352740719 -26.126258612239326 0 0 0 0 10.210329280740098 8.8891931164707785 0 8.8891931164707785 -12.095600881911196 0 0 0 0 -11.299157631366398 18.326253031145598 0 18.326253031145598 -5.485743691730022 0 0 0 0 2.8393910331228653 11.52949467178405 0 11.52949467178405 -2.2212545523580047 0 0 0 0 1.4416378299329153 9.4897625919984421 0 9.4897625919984421 -0.88889141301660857 0 0 0 0 1.4276949343735055 7.3383465128765692 0 7.3383465128765692 5.3270920558497892 0 0 0 0 0.11884911499475947 7.7645374212306706 0 7.7645374212306706 5.5677275547259342 0 0 0 0 -1.3475850452530267 0.47603123185035656 0 0.47603123185035656 12.636730017205991 0 0 0 0 -6.8924609502951171 13.626826222405725 0 13.626826222405725 0.88229116498951043 0 0 0 0 -11.823354937013846 8.383582009404563 0 8.383582009404563 8.119261535581245 0 0 0 0 4.6244505535557892 7.8618276538527425 0 7.8618276538527425 -0.10594312496959901 0 0 0 0 -2.0378011709732049 1.6656587332541104 0 1.6656587332541104 -0.09261687980373523 0 0 0 0 4.1927233255659644 4.5567162815811457 0 4.5567162815811457 0.39321558457049832 0 0 0 0 0.035847626679242461 1.1964255765183758 0 1.1964255765183758 1.2821498915916933 0 0 0 0 -3.0984984880700495 3.6931794962929416 0 3.6931794962929416 -0.093400472771463683 0 0 0 0 -0.93445043614258338 3.1944413878036357 0 3.1944413878036357 0.34713353061124508 0 0 0 0 -2.1447030198859807 0.97802986269925896 0 0.97802986269925896 0.39724272043963538 0 0 0 0 -0.92930731567068392 -2.2967037896978582 0 -2.2967037896978582 -21.771126549469045 0 0 0 0 0.072218862534555117 -0.10506527892714601 0 -0.10506527892714601 -2.799690396566362 0 0 0 0 12.734762874873269 11.782394384577174 0 11.782394384577174 -8.624845660495339 0 0 0 0 -20.408866834329018 10.239515157586425 0 10.239515157586425 6.6071893937787536 0 0 0 0 0.89867501312044173 -0.44604198151756158 0 -0.44604198151756158 -7.5970566997228417 0 0 0 0 -3.6992170341646897 11.715647331335276 0 11.715647331335276 -19.455265590338968 0 0 0 0 -0.1456866241524446 0.19616241051297756 0 0.19616241051297756 0.45993172035678143 0 0 0 0 -17.45151301575234 7.7422713948230921 0 7.7422713948230921 -4.396210311253526 0 0 0 0 -13.030837621333148 -6.1425048198125296 0 -6.1425048198125296 9.9081767092793598 0 0 0 0 -1.5304683436472715 -15.568043084911551 0 -15.568043084911551 3.5119877215529414 0 0 0 0 -2.3242456525337616 2.6284301136820432 0 2.6284301136820432 -17.515955550377839 0 0 0 0 18.790628112013451 -13.968383091407304 0 -13.968383091407304 -17.151110098124263 0 0 0 0 2.4020240048668029 -4.7362170086871629 0 -4.7362170086871629 -6.1876329754959443 0 0 0 0 5.820547858987311 -6.3820617420760755 0 -6.3820617420760755 -16.901336952807469 0 0 0 0 0.023441312459387187 -0.056761907016095847 0 -0.056761907016095847 -1.0385617073807509 0 0 0 0 -20.838063322173909 12.990957154399666 0 12.990957154399666 -7.379627225396689 0 0 0 0 9.7051460330838317 -4.0394929758485887 0 -4.0394929758485887 -9.1389962115536036 0 0 0 0 1.8096978421717331 -3.7764941309451387 0 -3.7764941309451387 -5.8350272820571263 0 0 0 0 9.3537019213901047 -1.3331820771436469 0 -1.3331820771436469 -10.342706989074941 0 0 0 0 3.6387947237996716 -1.49334362816262 0 -1.49334362816262 -9.4806443187153491 0 0 0 0 0.64464626096014277 -0.48376286103373367 0 -0.48376286103373367 -8.9958258095996513 0 0 0 0 64.015085992973013 27.549371613247786 0 27.549371613247786 -139.57319493141404 0 0 0 0 12.110432073756442 -2.9673379417649812 0 -2.9673379417649812 -23.619363516811063 0 0 0 0 -15.686671089124843 -0.92995089174200984 0 -0.92995089174200984 -13.419454028620748 0 0 0 0 -35.516094669520044 -47.455903566578854 0 -47.455903566578854 87.419715435875332 0 0 0 0 0.68014106575711253 -9.4415778085263469 0 -9.4415778085263469 -19.079206781156245 0 0 0 0 1.011378618437675 -2.2371481824175135 0 -2.2371481824175135 -22.424813917435131 0 0 0 0 0.061983403429735517 -10.503432783698372 0 -10.503432783698372 -15.324514202475257 0 0 0 0 3.2390391902188185 -13.377034718374489 0 -13.377034718374489 -19.823623796557513 0 0 0 0 4.3286515701192911 -16.312860266481948 0 -16.312860266481948 -11.844375904303888 0 0 0 0 3.1240254991666916 -12.002823886734404 0 -12.002823886734404 -17.414728567116981 0 0 0 0 5.7607332241506128 -14.791536916491168 0 -14.791536916491168 -26.278020390902384 0 0 0 0 7.9407808985004067 -12.910417556391621 0 -12.910417556391621 -25.903622541132791 0 0 0 0 5.6777576430099543 -9.9361151932080247 0 -9.9361151932080247 -23.815899888831154 0 0 0 0 3.0498373220823396 -10.040392404034719 0 -10.040392404034719 -23.756507240053907 0 0 0 0 4.4655189176385193 -1.7094220407579996 0 -1.7094220407579996 -33.012612887247087 0 0 0 0 -2.8551352293661694 12.248658363522736 0 12.248658363522736 -36.735100620251615 0 0 0 0 6.8115532154652101 -8.5709517019063242 0 -8.5709517019063242 -43.182630255192635 0 0 0 0 -0.83916057514909426 5.9119857930872968 0 5.9119857930872968 -18.389709427196067 0 0 0 0 -1.7334934857489088 3.9418138670316694 0 3.9418138670316694 -14.652685763819306 0 0 0 0 36.793382171694475 17.413297973012959 0 17.413297973012959 -79.995273670370807 0 0 0 0 -5.585757333670017 12.107584599485563 0 12.107584599485563 -27.789095526801248 0 0 0 0 38.584434673412261 -28.127627896725244 0 -28.127627896725244 -11.041480228771889 0 0 0 0 -34.244998566813592 -1.4744170210105949 0 -1.4744170210105949 -77.309319885913283 0 0 0 0 4.8305669142229135 22.413456082551875 0 22.413456082551875 -68.180887259361043 0 0 0 0 0.59322989049814612 0.2334788109280268 0 0.2334788109280268 -0.017059327597831242 0 0 0 0 201.80317134430516 62.674163814612257 0 62.674163814612257 -63.086416280293633 0 0 0 0 42.477418576913578 18.659727859576378 0 18.659727859576378 -51.7880530209477 0 0 0 0 14.341544549351433 -2.3408181832877517 0 -2.3408181832877517 -20.186825930075429 0 0 0 0 17.215744988175629 -34.960657807409007 0 -34.960657807409007 -41.167836832792091 0 0 0 0 38.786668662822194 -40.283994852288743 0 -40.283994852288743 -40.154134963177057 0 0 0 0 0.021823309456017514 -0.075791071998625448 0 -0.075791071998625448 -0.49746200738017876 0 0 0 0 18.323516130289363 -17.723865081142776 0 -17.723865081142776 -22.523012666393697 0 0 0 0 15.59301610412291 1.1965730266620085 0 1.1965730266620085 -24.93642926143184 0 0 0 0 15.528737872103761 3.8830496706523263 0 3.8830496706523263 -33.91859922610638 0 0 0 0 16.740042380150612 -10.998613684882002 0 -10.998613684882002 -50.604158600614028 0 0 0 0 6.4388098039710258 -12.201244604264502 0 -12.201244604264502 -23.746313005503907 0 0 0 0 10.860178787422115 -13.879134737677305 0 -13.879134737677305 -25.431653570722119 0 0 0 0 11.325980456420012 -18.032030965271133 0 -18.032030965271133 -2.775987566978074 0 0 0 0 9.1252026744363093 -16.826065346955147 0 -16.826065346955147 -17.997107963135932 0 0 0 0 4.5249665600349545 -9.0591505817155848 0 -9.0591505817155848 12.827330609328783 0 0 0 0 15.102374869994719 5.3819261216995073 0 5.3819261216995073 9.0028054181912012 0 0 0 0 4.474644908063965 -1.2259560654365487 0 -1.2259560654365487 6.1263173475235817 0 0 0 0 24.538246198506044 5.9659513157876063 0 5.9659513157876063 1.1545502856479288 0 0 0 0 -3.4268540441648838 -4.4728619139823422 0 -4.4728619139823422 -8.6875146758502524 0 0 0 0 1.9342058952177013 -10.87426030423012 0 -10.87426030423012 -15.255457902660964 0 0 0 0 1.8353398502054006 -9.1060541929000465 0 -9.1060541929000465 -8.2622723162567127 0 0 0 0 6.9706616890911164 -11.393761919211101 0 -11.393761919211101 -7.3052895788314345 0 0 0 0 4.7053563162185128 -3.1405584323001676 0 -3.1405584323001676 -3.4394447926388239 0 0 0 0 -1.9377377259583 -8.4740251101720787 0 -8.4740251101720787 -1.2817525793743698 0 0 0 0 -2.7769125240504309 -4.3975487196812537 0 -4.3975487196812537 -4.545708878467849 0 0 0 0 9.1166828044518979 -1.6734663913775876 0 -1.6734663913775876 -3.5879616078964318 0 0 0 0 -0.30834066275576788 -0.1602187819480605 0 -0.1602187819480605 1.3874540034466918 0 0 0 0 2.3593824397516983 1.6330625596237951 0 1.6330625596237951 -0.99613857134227146 0 0 0 0 -6.5776357451595686 -0.13515951493900502 0 -0.13515951493900502 -0.24212767885364883 0 0 0 0 1.8193115087481999 0.13113869597736993 0 0.13113869597736993 -3.8376737704747939 0 0 0 0 31.824403603771287 -4.3237173630036523 0 -4.3237173630036523 -4.7981813850456092 0 0 0 0 19.906228723812887 -0.54037180297018494 0 -0.54037180297018494 -1.1629162725294009 0 0 0 0 9.1470363662731415 -1.30612402789302 0 -1.30612402789302 0.76147657272485958 0 0 0 0 9.3797807950953711 -2.5325462109367436 0 -2.5325462109367436 -1.7473308172957331 0 0 0 0 15.512033210849381 1.0789777551781299 0 1.0789777551781299 -3.0321486013781396 0 0 0 0 18.927986766288996 -7.8933377091398143 0 -7.8933377091398143 3.7041954979376897 0 0 0 0 13.45351670977027 1.3030479220324196 0 1.3030479220324196 4.0873268050727347 0 0 0 0 16.314395906257005 1.1114335141446645 0 1.1114335141446645 -5.2646788653619296 0 0 0 0 17.712714234640202 3.5430787564182538 0 3.5430787564182538 -1.0909238895819726 0 0 0 0 11.288291673125514 -2.2165117873519193 0 -2.2165117873519193 -1.6318085827169853 0 0 0 0 4.9528284753426988 3.4966228537950883 0 3.4966228537950883 -0.96449754293280421 0 0 0 0 3.6471077833815002 0.95126090056692192 0 0.95126090056692192 -5.924171614307852 0 0 0 0 -5.0957351292314002 4.5953768565914288 0 4.5953768565914288 -4.003658763715066 0 0 0 0 -5.5720781126399288 1.5195736009009124 0 1.5195736009009124 -1.8258641866614198 0 0 0 0 1.5949711671105433 7.573523822833522 0 7.573523822833522 -7.7245222840315364 0 0 0 0 6.9741070618379126 2.5920536120620454 0 2.5920536120620454 -9.0657307573928847 0 0 0 0 13.611876952097418 0.46199955980409868 0 0.46199955980409868 -5.5279498479603717 0 0 0 0 4.2531049743279254 6.4472356278474763 0 6.4472356278474763 -3.0941704076576571 0 0 0 0 5.8149707431093702 2.2706246835441561 0 2.2706246835441561 -3.2590374319643161 0 0 0 0 11.303566268753258 -13.6007744876988 0 -13.6007744876988 -15.639065867044337 0 0 0 0 -1.8689810488233221 -0.62333868870518927 0 -0.62333868870518927 -4.7509180479364659 0 0 0 0 -13.746821031918557 8.7060408955494495 0 8.7060408955494495 -8.0225200252298237 0 0 0 0 0.44243196271351137 -1.5516361901608402 0 -1.5516361901608402 -8.0080746543225487 0 0 0 0 -4.2559821121150208 4.812404018612142 0 4.812404018612142 -12.079058897516006 0 0 0 0 -12.32393460293747 0.28013520073000109 0 0.28013520073000109 -7.3114955521796219 0 0 0 0 -5.5642858934403421 2.1715301694002846 0 2.1715301694002846 -7.4018275452035596 0 0 0 0 -15.372288387617772 4.2415274296438383 0 4.2415274296438383 -7.0763942721550848 0 0 0 0 0.11412457385692967 -0.33215843026899794 0 -0.33215843026899794 -1.368256339852735 0 0 0 0 -0.71527991794981238 -8.4791609309959313 0 -8.4791609309959313 -2.137260840721865 0 0 0 0 0.35652396963568955 -0.68197531354715579 0 -0.68197531354715579 -8.1434745524008747 0 0 0 0 -9.7254012695931351 -4.0888746810705925 0 -4.0888746810705925 -9.7879858598475948 0 0 0 0 -11.131690349990208 2.0940408847764047 0 2.0940408847764047 -10.920577456519823 0 0 0 0 -3.4344740951768244 -6.5257519781534938 0 -6.5257519781534938 -9.9607844191668846 0 0 0 0 -0.13172523381430562 1.5341618007249842 0 1.5341618007249842 -9.3422452457042553 0 0 0 0 -6.6808768046727209 -1.4313622324389144 0 -1.4313622324389144 -5.5139444630858634 0 0 0 0 -10.099077778322339 -0.97570583426022495 0 -0.97570583426022495 -3.5621591911058204 0 0 0 0 -10.860251713059256 -3.1305007271785144 0 -3.1305007271785144 -5.7214039897080511 0 0 0 0 -11.214160267353691 -2.8291803041083767 0 -2.8291803041083767 -3.4267832666428149 0 0 0 0 -5.3592510102612891 -0.50765844927536818 0 -0.50765844927536818 -8.3662845303369977 0 0 0 0 -19.568436896197454 -3.5898548261793621 0 -3.5898548261793621 -4.5081004954436139 0 0 0 0 0.061208480100887419 1.5142775533968376 0 1.5142775533968376 -1.3487373814955532 0 0 0 0 -6.2399306958356533 -6.5209115590250804 0 -6.5209115590250804 -6.0574986204010202 0 0 0 0 -7.5566813652468454 -2.8290203398232734 0 -2.8290203398232734 -14.815841165007441 0 0 0 0 -0.42445226995533175 2.1383045996522103 0 2.1383045996522103 -9.0786588472603782 0 0 0 0 12.025239183311374 7.1306923900301626 0 7.1306923900301626 -16.664845040060754 0 0 0 0 -6.7128819171198142 14.379515264887459 0 14.379515264887459 -8.8485414213682816 0 0 0 0 2.3302150463010776 9.6063420161995055 0 9.6063420161995055 -23.409842787743401 0 0 0 0 10.017437115026317 3.1049322302114888 0 3.1049322302114888 -24.735903665237856 0 0 0 0 -13.999284209936377 -10.385159780876165 0 -10.385159780876165 -9.1059562951340922 0 0 0 0 7.3076500315402075 -2.7914462868366172 0 -2.7914462868366172 -14.226553610791598 0 0 0 0 7.8094492577175103 -4.859746107036699 0 -4.859746107036699 -6.234868363244459 0 0 0 0 -0.03183839506884286 0.60775668458012078 0 0.60775668458012078 -0.80486241973549255 0 0 0 0 2.2458840864461651 -1.9504711932240753 0 -1.9504711932240753 -6.0155559517734218 0 0 0 0 5.4006220683669213 -2.3630569038787144 0 -2.3630569038787144 -6.4691857378566056 0 0 0 0 5.8834028501894604 0.38159439694572939 0 0.38159439694572939 -2.0553534347673121 0 0 0 0 7.2830863374035211 -3.1781541858281344 0 -3.1781541858281344 -2.3177684349011543 0 0 0 0 12.426290765919626 1.180509779975182 0 1.180509779975182 -4.9250507164479131 0 0 0 0 0.96383070021864781 0.17049643263726466 0 0.17049643263726466 -2.7013557409445639 0 0 0 0 1.1276685900042696 -0.026199027547363585 0 -0.026199027547363585 -7.5896075935070257 0 0 0 0 1.3228036237008491 6.4469067233258102 0 6.4469067233258102 -14.394214071351598 0 0 0 0 -0.56086036719620846 4.6447750195293338 0 4.6447750195293338 2.415170943882913 0 0 0 0 3.7449385630564054 13.337981048731308 0 13.337981048731308 -10.453269329394061 0 0 0 0 -0.30766847999876601 3.8134211240057994 0 3.8134211240057994 -14.149750174536166 0 0 0 0 0.28954919568681114 3.8953962690484332 0 3.8953962690484332 -6.4070899887501582 0 0 0 0 0.088648386420616343 1.7650540796312271 0 1.7650540796312271 -12.730119143394404 0 0 0 0 -0.0039850851389657514 0.57151787019211042 0 0.57151787019211042 -9.1678012047086668 0 0 0 0 -0.15476955602765108 0.70946327082583593 0 0.70946327082583593 -8.8955445619276361 0 0 0 0 -0.2614828578082492 -0.05943211942576454 0 -0.05943211942576454 -6.0245378834970325 0 0 0 0 1.7453550563741378 -0.073126911086546897 0 -0.073126911086546897 -10.594570545551505 0 0 0 0 2.2361458963455161 -1.6032885345543946 0 -1.6032885345543946 -9.6795085733938322 0 0 0 0 1.3891308724106217 0.1379322422981204 0 0.1379322422981204 -9.9995958281397179 0 0 0 0 -0.0011192754973743677 0.44917083643213118 0 0.44917083643213118 -8.5652398894981161 0 0 0 0 0.07286959011589067 1.1596231632529452 0 1.1596231632529452 -10.349778367526596 0 0 0 0 -0.1041046514350823 0.37220481140411721 0 0.37220481140411721 -11.818515542810928 0 0 0 0 0.0073955089824670759 1.1882785830552967 0 1.1882785830552967 -10.316948532377864 0 0 0 0 2.2515904532414566 1.7528264878110349 0 1.7528264878110349 -10.723043409154343 0 0 0 0 -0.71147060053467337 1.7181611633095599 0 1.7181611633095599 -10.086963357530294 0 0 0 0 2.0999617947727334 2.3018069285344609 0 2.3018069285344609 -12.670388699463729 0 0 0 0 2.816521380844156 3.7180399131893864 0 3.7180399131893864 -18.163928968570872 0 0 0 0 4.0007182147707621 0.75522898755207279 0 0.75522898755207279 -12.018631396962519 0 0 0 0 -5.4790226859404401 3.2167331322407335 0 3.2167331322407335 -10.397892255681654 0 0 0 0 1.3759097733192096 -5.9757878101645474 0 -5.9757878101645474 -18.346743139654791 0 0 0 0 1.8388530462476389 0.32466445783211384 0 0.32466445783211384 -9.6078028705842371 0 0 0 0 3.3306048015812504 1.2231196946195269 0 1.2231196946195269 -9.2147323936587782 0 0 0 0 2.5606146196681543 -0.83764222430363589 0 -0.83764222430363589 -7.6546583154104155 0 0 0 0 0.7089658388757627 2.3410368360978282 0 2.3410368360978282 -9.5173868364072405 0 0 0 0 2.5105321928319668 0.51462362447637133 0 0.51462362447637133 -10.043700064739369 0 0 0 0 3.4143680360415702 0.2105675023689173 0 0.2105675023689173 -10.103360002049158 0 0 0 0 2.1374216296118522 -5.223510907326272 0 -5.223510907326272 -14.505544410323637 0 0 0 0 7.4037514653291252 1.2505279645893097 0 1.2505279645893097 -8.3219029309184407 0 0 0 0 1.3386899054866461 -2.5849855110227509 0 -2.5849855110227509 -2.3338359122917609 0 0 0 0 -10.964843125818561 9.0923926605601082 0 9.0923926605601082 2.9822599111844283 0 0 0 0 5.2966939269627922 -6.4491438817194648 0 -6.4491438817194648 -6.6554500745805854 0 0 0 0 4.6599727704763758 -2.4188244277013382 0 -2.4188244277013382 -4.6771445792401209 0 0 0 0 0.85811696128804649 0.31011775509264439 0 0.31011775509264439 -6.260659023684731 0 0 0 0 15.610608473437738 13.36368730443246 0 13.36368730443246 -4.105549864423665 0 0 0 0 5.5520354304215971 -8.1194356262235488 0 -8.1194356262235488 -8.0181470055395039 0 0 0 0 -0.072838739473085931 0.033938702316781644 0 0.033938702316781644 0.084953185178136437 0 0 0 0 -7.5495957761727048 -10.059281635247316 0 -10.059281635247316 -7.7841765466837387 0 0 0 0 -2.0288102822327252 -2.5759964588519324 0 -2.5759964588519324 -6.7507766611252009 0 0 0 0 0.59447268617403881 -2.7646633584263327 0 -2.7646633584263327 -22.568151464357584 0 0 0 0 -0.02589127920480095 1.1074631472460967 0 1.1074631472460967 -12.595426840476648 0 0 0 0 2.8384202816625952 3.3572497508812376 0 3.3572497508812376 -9.9305289909552812 0 0 0 0 -0.077162455388978923 -1.5934316719003618 0 -1.5934316719003618 -2.2556752581176625 0 0 0 0 0.17369873248770965 -0.58200946354358507 0 -0.58200946354358507 -2.0400153212133887 0 0 0 0 -0.14342779646870452 0.26723155575746205 0 0.26723155575746205 -4.1364711931564671 0 0 0 0 0.00082265545217453809 -1.1891508673334101 0 -1.1891508673334101 -6.6697273295540072 0 0 0 0 0.004309849513355779 1.6151261860868544 0 1.6151261860868544 -7.2007685414391744 0 0 0 0 0.6960344990203029 -1.8941926831939782 0 -1.8941926831939782 -11.952920167248521 0 0 0 0 0.068227491629270734 -0.67937245352138675 0 -0.67937245352138675 -0.013179504406600984 0 0 0 0 1.1767532026345862 -4.3925839458252085 0 -4.3925839458252085 -1.6531716381741717 0 0 0 0 0.30318559552645197 -1.5470652045836388 0 -1.5470652045836388 -3.8267872695976948 0 0 0 0 -0.74880259403976179 -7.6951063488158979 0 -7.6951063488158979 -6.7960277567490266 0 0 0 0 3.1473501111709794 -2.6255272235011944 0 -2.6255272235011944 -5.8457533281234646 0 0 0 0 0.40530953693167937 -1.3079736815206493 0 -1.3079736815206493 -2.0512254109246513 0 0 0 0 -2.4633808403702346 -3.4379188810544292 0 -3.4379188810544292 -2.5376145038990217 0 0 0 0 3.7888859676145117 1.4335056556610652 0 1.4335056556610652 -3.8865929850871908 0 0 0 0 0.51717321151415196 -0.50456438029332951 0 -0.50456438029332951 -1.685168784508086 0 0 0 0 -2.8560032739399048 -3.323578696074037 0 -3.323578696074037 -1.4007384149238078 0 0 0 0 6.5197746577121904 -2.1474147539775004 0 -2.1474147539775004 -4.8868673209726694 0 0 0 0 10.953278342346252 -4.1663505956671543 0 -4.1663505956671543 -9.0636082386627095 0 0 0 0 -2.7100099304826415 -8.4242982460746134 0 -8.4242982460746134 -9.1539824011051678 0 0 0 0 3.9655438799661056 -2.2291981472317275 0 -2.2291981472317275 -11.571479102404282 0 0 0 0 5.5071864479071593 -5.8712674053067531 0 -5.8712674053067531 -5.4960731366081745 0 0 0 0 -7.960073538855255 -8.1707615786435781 0 -8.1707615786435781 -11.030233156780469 0 0 0 0 0.090492892443772788 -0.23263451875896379 0 -0.23263451875896379 -0.68773455821852636 0 0 0 0 -13.253058436401318 -2.5611938998627011 0 -2.5611938998627011 -0.78372152320662281 0 0 0 0 -7.9864618124165698 -4.1738831220124055 0 -4.1738831220124055 -5.7153383720542479 0 0 0 0 -11.38637273349616 -10.416282761761977 0 -10.416282761761977 -4.2067620129801071 0 0 0 0 -16.241714548138205 -3.5913549602082639 0 -3.5913549602082639 -7.3253153447949444 0 0 0 0 16.250353090818493 2.3686268489145732 0 2.3686268489145732 -7.5579210928708562 0 0 0 0 9.5191636340585433 3.5973735368247617 0 3.5973735368247617 -3.7692879105325119 0 0 0 0 5.3183366233672871 -4.7012722515410132 0 -4.7012722515410132 -11.252079049028907 0 0 0 0 7.7296065051000014 3.909693420413987 0 3.909693420413987 -2.4805259466756979 0 0 0 0 0.0020192054334131626 -0.091014663452369859 0 -0.091014663452369859 -2.9248109473919612 0 0 0 0 0.055911611961988683 -0.02072724999015918 0 -0.02072724999015918 -2.8342400001420174 0 0 0 0 0.31882276011833621 -1.0592973668959758 0 -1.0592973668959758 -1.7705078972248884 0 0 0 0 0.046204230006295734 -0.55718332716237606 0 -0.55718332716237606 -2.9921511232795979 0 0 0 0 0.24409785212748147 -0.47870864467859064 0 -0.47870864467859064 -2.9089231352663774 0 0 0 0 -0.00054510976765818095 -1.316665442566773 0 -1.316665442566773 -1.3463929380504851 0 0 0 0 0.22181852633939769 -0.75397385114047211 0 -0.75397385114047211 -2.3532204863040533 0 0 0 0 0.84075252191046657 -1.3735766543177306 0 -1.3735766543177306 -2.0373757001507329 0 0 0 0 -0.019232158426698044 -1.0454742572063971 0 -1.0454742572063971 -1.6305584238398438 0 0 0 0 -0.1142357933298704 2.9037066260417532 0 2.9037066260417532 -2.1775353052871651 0 0 0 0 0.087317257381809732 -0.075690159700570803 0 -0.075690159700570803 -2.976255272365961 0 0 0 0 -0.15217883572194424 -0.10560477997296402 0 -0.10560477997296402 -2.4223540120124198 0 0 0 0 -0.079066736381641967 0.36790519861496129 0 0.36790519861496129 -2.7555099792301547 0 0 0 0 0.6092673838096373 -10.109775399053115 0 -10.109775399053115 46.6469519145082 0 0 0 0 1.9547173357804231 -1.9253178788831065 0 -1.9253178788831065 -5.4411098439632042 0 0 0 0 0.3170764140967175 0.24920170497989602 0 0.24920170497989602 -3.2497281758642202 0 0 0 0 0.051550661667051162 0.019200523552903803 0 0.019200523552903803 -3.253397203742999 0 0 0 0 0.098306464490093504 -0.018551266033682623 0 -0.018551266033682623 -2.9365017178151902 0 0 0 0 0.30182129707156724 0.10459814182013361 0 0.10459814182013361 -3.5571705434231262 0 0 0 0 0.018965934180592114 -0.086210236217084457 0 -0.086210236217084457 -3.0358535211380513 0 0 0 0 0.10208064335852095 -0.15161722306525838 0 -0.15161722306525838 -2.8887862139198646 0 0 0 0 0.097119004788950747 -0.0055341081460937858 0 -0.0055341081460937858 -3.0629160177140875 0 0 0 0 0.07364801562687262 -0.10408075691429985 0 -0.10408075691429985 -3.3221911255423038 0 0 0 0 0.44682373285370452 -0.80098488018040825 0 -0.80098488018040825 -2.0162173350863029 0 0 0 0 -1.2231663191121243 2.2412035341303636 0 2.2412035341303636 -9.2013159216912754 0 0 0 0 -1.8229132819745502 2.9135370348958531 0 2.9135370348958531 -9.1215252993479226 0 0 0 0 2.098129238055094 0.68462862896194565 0 0.68462862896194565 -8.4512548469056128 0 0 0 0 0.11192320266152933 -1.0208773444855979 0 -1.0208773444855979 -7.0895175124969683 0 0 0 0 -2.8207856778600444 2.2008768881523793 0 2.2008768881523793 -7.6443644228420453 0 0 0 0 -1.3454504325066523 2.0292169394006123 0 2.0292169394006123 -8.9776546532884822 0 0 0 0 -0.90460389273300734 2.1892482652647232 0 2.1892482652647232 -9.2017638086508668 0 0 0 0 -0.0010540852528523352 -0.37109462719254621 0 -0.37109462719254621 -4.1840215588999854 0 0 0 0 0.17312264648848977 1.2553454972254592 0 1.2553454972254592 -5.5583613664898976 0 0 0 0 -1.5065161118380956 2.0945534698430492 0 2.0945534698430492 -9.0016781132899268 0 0 0 0 0.59639510415493113 1.2285525289044017 0 1.2285525289044017 -5.2303421509895998 0 0 0 0 0.0036988790971983635 0.39703775838356847 0 0.39703775838356847 -2.8274664295053817 0 0 0 0 0.35834697877429145 0.93377424363097816 0 0.93377424363097816 -4.9543647873924783 0 0 0 0 0.00083880546625866967 1.1868777255858731 0 1.1868777255858731 -4.9928081876605575 0 0 0 0 -0.014627608701729298 0.26997267710983053 0 0.26997267710983053 -1.489817515713028 0 0 0 0 0.31933409831143567 1.3745684935356621 0 1.3745684935356621 -5.2154822566444636 0 0 0 0 0.28192989431759208 9.5253164533260133 0 9.5253164533260133 -41.472510525636608 0 0 0 0 -3.1034848337902865 -4.6474195714072266 0 -4.6474195714072266 -19.045446899799572 0 0 0 0 -0.54893887383543138 0.96753307418614831 0 0.96753307418614831 0.44628952537908617 0 0 0 0 3.183903171878967 2.0116087019614497 0 2.0116087019614497 -10.814699030677843 0 0 0 0 4.4801999769358059 -2.015258791375345 0 -2.015258791375345 -17.274852121133335 0 0 0 0 -0.1628511678993263 4.2266490086185513 0 4.2266490086185513 -23.589474691758369 0 0 0 0 -0.68604659038213001 2.7510673569200108 0 2.7510673569200108 -0.26520069605296714 0 0 0 0 4.7369384578759481 3.1263899504023964 0 3.1263899504023964 -17.624314687662263 0 0 0 0 -0.72151473426604884 -1.3636424721717049 0 -1.3636424721717049 -21.260209643313829 0 0 0 0 -0.71751085030760775 -1.3486579736108979 0 -1.3486579736108979 -21.643721611559158 0 0 0 0 -3.244577325582183 2.6347101045657837 0 2.6347101045657837 -14.553435832214745 0 0 0 0 0.0032723859474922236 2.9530682425479959 0 2.9530682425479959 -24.962483019702631 0 0 0 0 -0.046684724520309792 0.14981030569826537 0 0.14981030569826537 -0.31311719951714423 0 0 0 0 -19.033411881252356 -18.138974983881326 0 -18.138974983881326 -15.128238632156354 0 0 0 0 7.8100182797115574 11.060490185776871 0 11.060490185776871 -33.309628130113197 0 0 0 0 4.7352492424357946 4.7607598718250301 0 4.7607598718250301 -15.145907950096444 0 0 0 0 10.770501351157565 -5.4790226190089015 0 -5.4790226190089015 -32.439280253075538 0 0 0 0 -6.1767196912200149 18.574590430418539 0 18.574590430418539 10.085815002390518 0 0 0 0 -0.45998823984004666 2.8138128703210157 0 2.8138128703210157 0.39840537872018844 0 0 0 0 -25.265082817167972 7.4465346701672388 0 7.4465346701672388 -3.5398209910981677 0 0 0 0 22.58789128625682 9.3753332924134156 0 9.3753332924134156 -14.478622649928184 0 0 0 0 6.119346583199075 0.73054975563263724 0 0.73054975563263724 -11.237418012562557 0 0 0 0 9.2816930184216631 10.426178442934543 0 10.426178442934543 -14.542061342843226 0 0 0 0 18.380114630772397 -2.0050612579461813 0 -2.0050612579461813 -11.31014598829006 0 0 0 0 8.27062525942614 0.59160772469840595 0 0.59160772469840595 -11.556659378302356 0 0 0 0 4.011604242959578 -2.4353582997400736 0 -2.4353582997400736 -8.112757278540812 0 0 0 0 8.4812622748671345 -3.7799226522192839 0 -3.7799226522192839 -6.5706085737747344 0 0 0 0 8.7187164074699837 6.4211342532589697 0 6.4211342532589697 2.6961737983019702 0 0 0 0 0.21182024969115126 0.072563202518459491 0 0.072563202518459491 -0.6024758337242222 0 0 0 0 -0.36955664994469828 -19.225886210097542 0 -19.225886210097542 -10.50593531202685 0 0 0 0 7.2021366403538991 15.328593173972877 0 15.328593173972877 -7.0888997121473949 0 0 0 0 -35.443167649704122 -26.624628627726452 0 -26.624628627726452 -15.586087921672515 0 0 0 0 -17.46216127840637 18.764166524469601 0 18.764166524469601 -14.854554781193656 0 0 0 0 -0.14453183677050499 0.21806097930709445 0 0.21806097930709445 -0.57081444093990541 0 0 0 0 7.5007448160316308 9.0275810825798999 0 9.0275810825798999 -42.863685952002925 0 0 0 0 9.5632135166564041 1.5504293056683309 0 1.5504293056683309 -17.050851990694355 0 0 0 0 8.4035321933718876 4.2935702278036842 0 4.2935702278036842 2.4820041022449004 0 0 0 0 -5.3564102360316213 -22.795338333082327 0 -22.795338333082327 -33.751436206926883 0 0 0 0 -2.7616039026285719 -7.9723047513352867 0 -7.9723047513352867 -54.719151775134378 0 0 0 0 -30.12208599163975 -32.892305704653154 0 -32.892305704653154 3.4716397813917865 0 0 0 0 -4.4352807836399393 37.62415420065372 0 37.62415420065372 -24.147568905823391 0 0 0 0 7.5253874293702552 2.6938463615397268 0 2.6938463615397268 -13.171708637619304 0 0 0 0 1.0144954605091923 -1.7699429187107043 0 -1.7699429187107043 -8.5836409961370421 0 0 0 0 -23.305556373344189 -13.468186386739035 0 -13.468186386739035 25.24121273176479 0 0 0 0 0.42911984611505261 2.6743591420581403 0 2.6743591420581403 -0.57360901129708686 0 0 0 0 5.5156871629467616 3.3139246547652874 0 3.3139246547652874 -11.955820653653063 0 0 0 0 5.035643981167226 -1.7991343644089284 0 -1.7991343644089284 -35.86487134807976 0 0 0 0 2.3611441626734404 4.5384283786015658 0 4.5384283786015658 -16.997315102258653 0 0 0 0 5.7795080181283822 9.1646054433326753 0 9.1646054433326753 -11.699989318478401 0 0 0 0 7.8745366848670528 8.3112424256164559 0 8.3112424256164559 -19.063036023992026 0 0 0 0 9.0179528692508484 8.5750361847385648 0 8.5750361847385648 -19.08437618566677 0 0 0 0 6.2040150152693627 4.399664728353855 0 4.399664728353855 -10.6262777630036 0 0 0 0 -3.2183612915714548 2.2998724779354234 0 2.2998724779354234 -13.35529827890241 0 0 0 0 2.5096786895824152 6.7689728604382253 0 6.7689728604382253 -13.856034055790701 0 0 0 0 -3.5094687355016276 3.4409882732416008 0 3.4409882732416008 -15.545835930352041 0 0 0 0 2.5627124655900602 -1.9356024974734858 0 -1.9356024974734858 -2.5527245764059026 0 0 0 0 3.258616814540801 -5.6127025030546065 0 -5.6127025030546065 -26.532857712787518 0 0 0 0 4.982548057616782 1.7165003784175497 0 1.7165003784175497 -17.67137598737645 0 0 0 0 9.3290470095394085 4.1335472065138674 0 4.1335472065138674 -20.173338686308853 0 0 0 0 9.8481712734701432 5.6919150284047646 0 5.6919150284047646 -24.067075972521707 0 0 0 0 12.23509772821069 6.6533386508181138 0 6.6533386508181138 -31.588441763080482 0 0 0 0 41.52419182548158 6.6626119215666222 0 6.6626119215666222 -36.415931125411589 0 0 0 0 0.32390778430154299 0.082855269226691064 0 0.082855269226691064 -0.082774576595376459 0 0 0 0 6.252144154265693 -1.6256273576436797 0 -1.6256273576436797 -10.12346257201898 0 0 0 0 6.4567795610183794 -1.9468659631220362 0 -1.9468659631220362 -9.7879612440137862 0 0 0 0 1.0818790646397594 -0.88628258578709662 0 -0.88628258578709662 -8.4909327740124709 0 0 0 0 0.36191761193697403 -3.6646225543099717 0 -3.6646225543099717 -5.3847916366970594 0 0 0 0 25.011877455545914 -4.9305289722897214 0 -4.9305289722897214 -13.53816835015823 0 0 0 0 0.45544732130496107 0.30605993026748202 0 0.30605993026748202 -0.428023505090529 0 0 0 0 7.374546880944763 1.4604913182647579 0 1.4604913182647579 -15.298050803727619 0 0 0 0 8.9337283445500759 -0.54204597519901654 0 -0.54204597519901654 -14.693074532377068 0 0 0 0 5.2003766784709455 2.9917861906451435 0 2.9917861906451435 -13.429858145100297 0 0 0 0 6.5056319535761702 6.2298038163216916 0 6.2298038163216916 -20.331614232522952 0 0 0 0 4.2518972414528378 1.267527238992443 0 1.267527238992443 -10.876204248639624 0 0 0 0 5.589844506023482 2.7123729836753228 0 2.7123729836753228 -13.332865716605738 0 0 0 0 1.5841684861111389 -0.75467908048631216 0 -0.75467908048631216 -13.65583347629763 0 0 0 0 2.4764105067715434 1.287091595676884 0 1.287091595676884 -9.0328264882264193 0 0 0 0 0.553240128774803 1.4091274266811524 0 1.4091274266811524 -8.9079747769214919 0 0 0 0 0.13137904509972742 0.6942413460586252 0 0.6942413460586252 -6.8882472929150751 0 0 0 0 0.21421848266913912 1.6511854713471621 0 1.6511854713471621 -7.0572801698299372 0 0 0 0 -0.87738090384878831 2.671177199318663 0 2.671177199318663 -7.9527620049238976 0 0 0 0 1.2704565205429503 3.5531061222172866 0 3.5531061222172866 -12.832349239713949 0 0 0 0 1.0765343465456381 3.6828645982395756 0 3.6828645982395756 -7.4473337192903273 0 0 0 0 -4.330433110962403 9.4029969017710755 0 9.4029969017710755 -12.360359209550552 0 0 0 0 -3.908310681087154 3.7932279775799032 0 3.7932279775799032 -3.075510798025789 0 0 0 0 0.16657982267087373 0.48087731498134545 0 0.48087731498134545 -1.8255266766405356 0 0 0 0 0.40480236048779261 1.0978457111541502 0 1.0978457111541502 -5.5280743233124667 0 0 0 0 1.0287021959073215 1.79404838449409 0 1.79404838449409 -4.8823651116126712 0 0 0 0 0.94293814783372798 -0.38390943990570392 0 -0.38390943990570392 -0.47185380300459201 0 0 0 0 -0.43784487245051906 1.2279080174166666 0 1.2279080174166666 -3.945664193981429 0 0 0 0 -1.1686715174408775 0.63293165354207304 0 0.63293165354207304 -4.3900026287783476 0 0 0 0 -0.19519833901106409 -6.1656520796889254 0 -6.1656520796889254 -10.991766808214379 0 0 0 0 -3.474151643744861 2.6234053703474274 0 2.6234053703474274 -3.4290486891304681 0 0 0 0 -0.36990270754725429 -0.54843496639750811 0 -0.54843496639750811 -0.70745968829578487 0 0 0 0 1.8360924897980055 -1.9331588074273895 0 -1.9331588074273895 -2.9611756646645517 0 0 0 0 -1.7310789342536026 -6.0595845356019709 0 -6.0595845356019709 -6.9185713300666976 0 0 0 0 2.0341075964132855 -1.4934954276561712 0 -1.4934954276561712 -11.095858163098455 0 0 0 0 -1.7455494366932789 -1.6412548552752924 0 -1.6412548552752924 -5.1865560596146736 0 0 0 0 1.2992795657328031 -3.1862403692703083 0 -3.1862403692703083 -14.745404065560024 0 0 0 0 -0.074719878833392997 -0.28648721015361289 0 -0.28648721015361289 -1.2762926952018323 0 0 0 0 -0.43032818748518764 -2.0958622223267298 0 -2.0958622223267298 -1.8322008641253187 0 0 0 0 -1.9652619311639228 -4.1820908328354562 0 -4.1820908328354562 -6.5274767435277568 0 0 0 0 -1.9657357534964319 -3.9170055666745611 0 -3.9170055666745611 -7.2032244232177618 0 0 0 0 0.434524013137775 -1.1694106668082895 0 -1.1694106668082895 -11.728534015268451 0 0 0 0 0.73657517519279836 0.14541017278986956 0 0.14541017278986956 -6.4309662420762521 0 0 0 0 -0.61196897212126733 -0.86112341088285405 0 -0.86112341088285405 -1.5638826254490361 0 0 0 0 -2.051114033741996 -4.4775970279933972 0 -4.4775970279933972 -5.8300249410222023 0 0 0 0 -0.38643935926768691 -0.58592115895226016 0 -0.58592115895226016 -8.5323928753714426 0 0 0 0 42.724126301735851 -10.839218261814949 0 -10.839218261814949 -2.1938210613916453 0 0 0 0 -27.148739461974856 -47.919750862884939 0 -47.919750862884939 42.087105546824205 0 0 0 0 -1.5726852926668817 -1.0184008421587674 0 -1.0184008421587674 -2.1296507182822015 0 0 0 0 -1.656117679334784 -2.2861614352605102 0 -2.2861614352605102 -10.446388428248611 0 0 0 0 1.286476633203165 -1.258259987225756 0 -1.258259987225756 -10.381498167967948 0 0 0 0 -1.0039559786810055 -2.6507218646962332 0 -2.6507218646962332 -7.5556333145490235 0 0 0 0 -0.48492765686487704 -2.0073638058180343 0 -2.0073638058180343 -3.9067245129930779 0 0 0 0 -2.3638046684924348 -6.0983127357194462 0 -6.0983127357194462 -12.494754373657997 0 0 0 0 -1.0755964304055396 -1.625498688841617 0 -1.625498688841617 -11.513356658615521 0 0 0 0 -2.528721352281142 -2.2954039801649664 0 -2.2954039801649664 -2.8232727996513081 0 0 0 0 -2.1656039198247754 -4.7593546904881805 0 -4.7593546904881805 -10.571994862933934 0 0 0 0 4.6698491538968483 -2.9125220399018872 0 -2.9125220399018872 -20.491173725976296 0 0 0 0 1.9773310823470638 -1.2302326801900563 0 -1.2302326801900563 -17.810852595767756 0 0 0 0 0.11377452199643212 -0.43533831017468927 0 -0.43533831017468927 -2.6161986886046238 0 0 0 0 -4.4325220211333232 -5.6087223133890802 0 -5.6087223133890802 -9.2425565743233165 0 0 0 0 1.1387647602139737 0.092728764971752753 0 0.092728764971752753 -17.271335634924071 0 0 0 0 -1.0327085639749534 -4.3018220604808066 0 -4.3018220604808066 -11.252011482599183 0 0 0 0 -1.8178570461369294 -2.4934363009295364 0 -2.4934363009295364 -7.4324099089075872 0 0 0 0 3.1559777841684991 -4.7975550568462495 0 -4.7975550568462495 -18.758175065175692 0 0 0 0 21.6158382028907 10.008216533793529 0 10.008216533793529 -46.310127624273491 0 0 0 0 3.3016749244993662 -6.1077054069719452 0 -6.1077054069719452 -19.118818685684346 0 0 0 0 -18.173215694783721 -3.3582230032261577 0 -3.3582230032261577 -13.870815667643853 0 0 0 0 3.401261268386861 -6.3654249565261125 0 -6.3654249565261125 -20.788596659225277 0 0 0 0 3.5981751711256038 -4.6238002444370068 0 -4.6238002444370068 -20.411508674395463 0 0 0 0 6.0741358232193647 -2.9801794531101677 0 -2.9801794531101677 -44.342210859599618 0 0 0 0 -1.2634846181630639 -0.4784485488330894 0 -0.4784485488330894 -0.012998478650779077 0 0 0 0 -18.478422662499952 8.4853936418362537 0 8.4853936418362537 -42.967479085540617 0 0 0 0 4.9272356290930475 -13.971354754867207 0 -13.971354754867207 -31.964199929105234 0 0 0 0 -6.6770172855962073 -8.1142770472629309 0 -8.1142770472629309 56.597287407537806 0 0 0 0 21.555288786684855 10.678211079652556 0 10.678211079652556 5.7710809379495913 0 0 0 0 1.958308739847098 -9.2499643881142219 0 -9.2499643881142219 -8.6029585070828034 0 0 0 0 -30.814833507612548 31.687170396875445 0 31.687170396875445 -4.3057587520875131 0 0 0 0 11.023115109524497 -37.77572990729368 0 -37.77572990729368 21.426134638677468 0 0 0 0 5.6982805312159144 18.839399794840574 0 18.839399794840574 -1.798954086674712 0 0 0 0 -61.882483577379389 -19.029715912676693 0 -19.029715912676693 18.037269095048259 0 0 0 0 11.323408043659811 -17.357404928920914 0 -17.357404928920914 -70.243156646554326 0 0 0 0 15.677596168358832 -2.8409512730443112 0 -2.8409512730443112 -35.041860622852255 0 0 0 0 1.1863395540488 -4.8256662230787697 0 -4.8256662230787697 -31.930968119401768 0 0 0 0 -5.146310823361091 -13.554227664667451 0 -13.554227664667451 -18.829566032606635 0 0 0 0 -11.594571269171183 -20.765516915681701 0 -20.765516915681701 -18.082848944055513 0 0 0 0 -6.4429262673684207 -5.3007618011829436 0 -5.3007618011829436 1.0434574111177426 0 0 0 0 -0.24042646012386459 -0.47553534002175746 0 -0.47553534002175746 -0.90577210535261798 0 0 0 0 0.89494892897312184 -1.7681904048249635 0 -1.7681904048249635 -10.974258281134098 0 0 0 0 -31.548553655492469 25.655751215115743 0 25.655751215115743 -7.4470266983134934 0 0 0 0 1.3474854605882456 -54.905961930508056 0 -54.905961930508056 -44.246442849001141 0 0 0 0 5.731070597889584 27.966957683400778 0 27.966957683400778 -40.4816696620519 0 0 0 0 47.026364679383278 -0.56240997676741245 0 -0.56240997676741245 -27.566473051453613 0 0 0 0 4.0421869552337739 -2.2103800821623736 0 -2.2103800821623736 -8.3527918484228394 0 0 0 0 -2.2153920219614065 -2.1279430605663947 0 -2.1279430605663947 -8.053659704135498 0 0 0 0 0.74625500137112399 -1.1166077851211036 0 -1.1166077851211036 -9.4267499249131035 0 0 0 0 4.384376352590948 1.6492358822533788 0 1.6492358822533788 -12.728264533061065 0 0 0 0 10.188115372411858 16.367462210014764 0 16.367462210014764 -11.647308071107545 0 0 0 0 0.76063220642800511 -0.23715025640433041 0 -0.23715025640433041 -8.0022875894622985 0 0 0 0 1.0203666246773393 0.40134186532106053 0 0.40134186532106053 -9.1267238918558036 0 0 0 0 7.3129038025582531 -1.437708398978657 0 -1.437708398978657 -8.2261310828744172 0 0 0 0 2.0236798947258898 -1.3414336322388216 0 -1.3414336322388216 -8.5592847525532321 0 0 0 0 2.7420138329206338 -0.7347921983755441 0 -0.7347921983755441 -7.6827882310376481 0 0 0 0 0.76405405091212919 0.27615513820839532 0 0.27615513820839532 -3.2400407264342732 0 0 0 0 1.677109252299033 7.2766498471410159 0 7.2766498471410159 0.27274073381704511 0 0 0 0 2.5655072692899239 -1.5216911313091259 0 -1.5216911313091259 -11.156835840301937 0 0 0 0 1.8752233246030836 -0.60627876645390799 0 -0.60627876645390799 -8.5012878275878343 0 0 0 0 0.40380199472247114 0.96305162162389024 0 0.96305162162389024 -12.486185503810702 0 0 0 0 2.8069952687362729 3.1196832263458418 0 3.1196832263458418 -7.0017957759264391 0 0 0 0 5.2713059511033862 1.0957390638686775 0 1.0957390638686775 -5.4122299030786962 0 0 0 0 5.6060260909550266 1.8786985905997908 0 1.8786985905997908 -8.2965439626160062 0 0 0 0 2.0216313478268559 0.17006006966373377 0 0.17006006966373377 -6.5663677242961818 0 0 0 0 5.2948442259312287 0.33978359721140805 0 0.33978359721140805 -11.737058635084395 0 0 0 0 4.171541325127464 -0.56444717694375868 0 -0.56444717694375868 -12.431230478307953 0 0 0 0 16.008790992328954 16.524998787428558 0 16.524998787428558 -26.167142019512539 0 0 0 0 -36.248698499861007 -16.861935813594755 0 -16.861935813594755 -10.924798462191575 0 0 0 0 2.8570657976855474 1.8484553846450886 0 1.8484553846450886 -2.338405317664821 0 0 0 0 12.04675100613872 9.1533184298114065 0 9.1533184298114065 -23.281265843885194 0 0 0 0 7.205697733893885 16.999016403589849 0 16.999016403589849 -25.37896714753515 0 0 0 0 0.74360978615650197 -0.79928246473235154 0 -0.79928246473235154 -8.6299417924791229 0 0 0 0 20.358337782127961 -29.202481074898969 0 -29.202481074898969 -36.633485389931138 0 0 0 0 5.443434052082921 -0.095157166443186725 0 -0.095157166443186725 -6.5133160567299342 0 0 0 0 5.0020622023624277 -2.3247432356323561 0 -2.3247432356323561 -15.798264567563741 0 0 0 0 5.5833569262858482 -0.2263333592275103 0 -0.2263333592275103 -8.7863383514068119 0 0 0 0 -2.34082713794038 15.070250177826892 0 15.070250177826892 -14.922114736455114 0 0 0 0 0.0035944086950318588 -0.056453040166871027 0 -0.056453040166871027 -0.39821500468433868 0 0 0 0 11.52097686398119 -10.878470586090543 0 -10.878470586090543 -2.2964411779794318 0 0 0 0 0.33022315636821986 8.6108198226693276 0 8.6108198226693276 -4.2707178710888911 0 0 0 0 9.1984548154414369 -6.4958094402186362 0 -6.4958094402186362 -11.945769996759736 0 0 0 0 5.4642243068982133 -0.31980518017491022 0 -0.31980518017491022 -7.8417825701617403 0 0 0 0 0.49332546476864803 -0.45200614163207042 0 -0.45200614163207042 -2.8215630608856932 0 0 0 0 2.7427366635384773 -0.019059216868551943 0 -0.019059216868551943 -8.8230947097595447 0 0 0 0 6.7570678518859495 -3.6492434452732141 0 -3.6492434452732141 -11.485675859596995 0 0 0 0 5.7356017503767873 -6.5332963139833851 0 -6.5332963139833851 -11.413573823145271 0 0 0 0 11.383251137322304 -14.545856853418627 0 -14.545856853418627 -0.71578217215170525 0 0 0 0 0.13352460386560239 0.39788822918632505 0 0.39788822918632505 0.080486813687383862 0 0 0 0 0.30915700449168071 1.8732183909664855 0 1.8732183909664855 -7.5497789007604297 0 0 0 0 2.5978100827054504 3.414948243148956 0 3.414948243148956 -9.6374706713213527 0 0 0 0 4.217376317254093 0.94310094818320067 0 0.94310094818320067 -12.489321703715063 0 0 0 0 3.6818729074775547 -0.79698010934498598 0 -0.79698010934498598 -10.592900254273445 0 0 0 0 3.0649312794971593 -1.1214600436805995 0 -1.1214600436805995 -8.1622837112313391 0 0 0 0 3.6461160902238134 5.1491159062361476 0 5.1491159062361476 -3.6751452153412174 0 0 0 0 10.802519720229668 1.1605985106052685 0 1.1605985106052685 -9.6949816893793468 0 0 0 0 -2.5315689370809196 -0.94462018792501112 0 -0.94462018792501112 -7.6058376743994813 0 0 0 0 0.63950279748064531 -1.7172595890920093 0 -1.7172595890920093 -10.720434236722213 0 0 0 0 -2.2852315126651774 -7.3256559791611835 0 -7.3256559791611835 -14.162527265491008 0 0 0 0 -2.698755980252713 -4.5456035322386015 0 -4.5456035322386015 -20.072958678203577 0 0 0 0 -6.2066034111426234 -9.9125416997749198 0 -9.9125416997749198 -11.877628658896583 0 0 0 0 -7.0391032251270644 -12.526050758901874 0 -12.526050758901874 -13.031663059045741 0 0 0 0 -9.959876495321339 -14.088355469999669 0 -14.088355469999669 -8.8522439638963988 0 0 0 0 -14.913698365460959 -9.4397040007588657 0 -9.4397040007588657 -5.5033095587950811 0 0 0 0 2.6584958109373247 -17.460110576999796 0 -17.460110576999796 -6.3716013560115243 0 0 0 0 12.271028845428873 -2.9988387932871774 0 -2.9988387932871774 -12.919356003895928 0 0 0 0 -6.2680569111457771 -5.4960076044658308 0 -5.4960076044658308 4.1241068525541777 0 0 0 0 13.709649372060312 -3.2194527432689029 0 -3.2194527432689029 -12.915847359035979 0 0 0 0 -14.633131772360343 -9.6907100283283398 0 -9.6907100283283398 -10.413733915121156 0 0 0 0 -7.0061903914292998 -8.9217892978756481 0 -8.9217892978756481 -11.656532775517917 0 0 0 0 -6.8236431670026718 -0.18432248279214036 0 -0.18432248279214036 -19.269389430080992 0 0 0 0 -3.2048343186450552 -8.0734615444251858 0 -8.0734615444251858 -13.403295990727202 0 0 0 0 8.6216739894094871 -4.4218389762208972 0 -4.4218389762208972 -19.403140319541762 0 0 0 0 -25.085631750410265 10.053532021727392 0 10.053532021727392 -49.546650345563648 0 0 0 0 -18.057562273905774 9.9500749787925997 0 9.9500749787925997 -41.127228848678442 0 0 0 0 -16.910713728867222 0.8856181044461664 0 0.8856181044461664 -15.915331268522095 0 0 0 0 -19.413097712032055 -3.0652061083486615 0 -3.0652061083486615 -13.494825567733642 0 0 0 0 -21.498702772011484 -9.271191172131239 0 -9.271191172131239 -24.146557462383498 0 0 0 0 -21.054317097063233 -4.7850388333913543 0 -4.7850388333913543 -10.147562183437003 0 0 0 0 -17.214309042801688 -10.761946663428262 0 -10.761946663428262 -9.8319652980408137 0 0 0 0 -14.6311447929736 -9.4013480380344845 0 -9.4013480380344845 -13.263762228364953 0 0 0 0 -12.792343155199319 -11.117337929585574 0 -11.117337929585574 -11.849800556179389 0 0 0 0 -13.145326249871573 -10.546189093760404 0 -10.546189093760404 -12.020834181452301 0 0 0 0 -10.213626249002687 -6.5345982817243566 0 -6.5345982817243566 -11.255161869116364 0 0 0 0 -11.947673175631735 -6.4752974593384351 0 -6.4752974593384351 -10.807890792929356 0 0 0 0 -7.0817150455596902 -4.6623073054406632 0 -4.6623073054406632 -16.94748607740803 0 0 0 0 -5.9494283111187087 -2.9745407952696041 0 -2.9745407952696041 -15.2623360476382 0 0 0 0 -3.8230138214071303 -1.3571994234853264 0 -1.3571994234853264 -17.265861785209381 0 0 0 0 -4.2727876524985504 -1.3369085683061712 0 -1.3369085683061712 -17.054122487995301 0 0 0 0 -2.8088327668793909 -2.9227089592905031 0 -2.9227089592905031 -18.907034670799931 0 0 0 0 -12.226665955071041 -10.561325236607672 0 -10.561325236607672 -17.142659864625784 0 0 0 0 -5.5621460124690216 -6.0558999447492283 0 -6.0558999447492283 -21.326358404841812 0 0 0 0 -9.3984867467088407 -9.0567680433407531 0 -9.0567680433407531 -17.909975839172148 0 0 0 0 0.84489637780143312 -5.1985714288857707 0 -5.1985714288857707 -21.082771990248148 0 0 0 0 -16.75657060481069 4.9387772322165802 0 4.9387772322165802 -21.697187483294329 0 0 0 0 -4.9387074224027856 -9.7317486136907974 0 -9.7317486136907974 -40.266209728932608 0 0 0 0 -18.936149976857223 -13.982021348297167 0 -13.982021348297167 -19.52337565360358 0 0 0 0 -0.57845841172319012 0.24759237236050957 0 0.24759237236050957 0.26914126949362061 0 0 0 0 -9.7670415730319178 5.634217732599609 0 5.634217732599609 -14.685796197253694 0 0 0 0 5.1606933543466766 -11.608912358713496 0 -11.608912358713496 -55.932419448970904 0 0 0 0 -33.489750086171171 2.8983216151873421 0 2.8983216151873421 16.274433973076825 0 0 0 0 15.85571378356849 -2.4370031475659744 0 -2.4370031475659744 -100.57072703830636 0 0 0 0 -0.48497323941775772 -0.063459108240442319 0 -0.063459108240442319 -0.02736003147899968 0 0 0 0 -32.480273451086759 -26.50106730486732 0 -26.50106730486732 65.3127394830708 0 0 0 0 -50.654893514271862 -79.742861831276969 0 -79.742861831276969 -26.484816386623606 0 0 0 0 -12.947820026966269 -8.7433308262916398 0 -8.7433308262916398 -9.3455776222153872 0 0 0 0 -6.8336610827359436 -7.432601385495218 0 -7.432601385495218 -12.447416869650624 0 0 0 0 -2.3724109316958675 -25.286873328345791 0 -25.286873328345791 16.177344043080037 0 0 0 0 21.109030025464961 26.949056017494399 0 26.949056017494399 -14.318721053632544 0 0 0 0 -2.4900185838086886 -0.95139190763449299 0 -0.95139190763449299 1.3774724893060508 0 0 0 0 -7.3724676725218163 -7.3996038249935339 0 -7.3996038249935339 -11.861146087843736 0 0 0 0 -7.4325098826570866 -8.5662532211272264 0 -8.5662532211272264 -15.272555611338703 0 0 0 0 -1.9037732424524165 -10.61719223028058 0 -10.61719223028058 -16.638443720097712 0 0 0 0 -3.9727357733174813 -8.999476887700439 0 -8.999476887700439 -15.874634213273566 0 0 0 0 -4.0114785583889265 -0.78045076570836613 0 -0.78045076570836613 -1.7373965516053591 0 0 0 0 -1.482051969880485 0.052852254792494335 0 0.052852254792494335 -1.4489754860951134 0 0 0 0 0.71315565998634156 2.6621178644454631 0 2.6621178644454631 -13.666679934241074 0 0 0 0 -3.7426770104937077 -0.75292040266413096 0 -0.75292040266413096 -16.030135587757286 0 0 0 0 -2.2822581887573961 -0.11069370578024973 0 -0.11069370578024973 -19.008527476496511 0 0 0 0 2.8270284892813606 -3.5846610455678274 0 -3.5846610455678274 -8.9643175335149863 0 0 0 0 -11.613428971602389 -11.251334766001037 0 -11.251334766001037 -13.752371444123128 0 0 0 0 -13.934295384221343 -11.365413920984793 0 -11.365413920984793 -10.570636380351061 0 0 0 0 -10.116584221694069 -10.002451647205817 0 -10.002451647205817 -12.744089131858345 0 0 0 0 -17.063712635107777 -16.773415308631229 0 -16.773415308631229 -19.24929005838203 0 0 0 0 -11.756341066788593 -14.730149928197989 0 -14.730149928197989 -20.544202794604644 0 0 0 0 -10.74707140288865 -14.745660618315014 0 -14.745660618315014 -21.533864082661893 0 0 0 0 -5.0240542685077116 -16.45285358598403 0 -16.45285358598403 -16.821691008199195 0 0 0 0 -4.9571431172309985 -17.245348314451803 0 -17.245348314451803 -21.535963095665245 0 0 0 0 -5.616062581288304 -10.475389617252006 0 -10.475389617252006 -13.528550520572026 0 0 0 0 -5.3882623444823707 -11.885523292668211 0 -11.885523292668211 -17.045107713311154 0 0 0 0 -9.8058205815897281 -11.743298262140343 0 -11.743298262140343 -13.65888126081154 0 0 0 0 -10.974368564738885 -8.2617928582294553 0 -8.2617928582294553 -10.600233898469014 0 0 0 0 -7.6196587825006787 -7.7765946728704876 0 -7.7765946728704876 -11.994025470941324 0 0 0 0 -8.1247480680355793 -7.0600600622365164 0 -7.0600600622365164 -10.803145874748225 0 0 0 0 -4.559538877116438 -6.513764368088232 0 -6.513764368088232 -12.109919498205272 0 0 0 0 -3.1462817006249679 -4.8833141871245971 0 -4.8833141871245971 -11.743474426246394 0 0 0 0 -3.7963394749136796 -6.8982000651249109 0 -6.8982000651249109 -10.456912292959032 0 0 0 0 -5.3241368186804721 -5.3891958398917268 0 -5.3891958398917268 -10.247218887394411 0 0 0 0 -0.37858160007426322 -1.7725855648296047 0 -1.7725855648296047 1.6456294581384707 0 0 0 0 -28.818325560083849 7.3860580362115797 0 7.3860580362115797 -1.5673631111440045 0 0 0 0 2.163448422170859 -6.4199741196484865 0 -6.4199741196484865 -11.82812503907553 0 0 0 0 -1.4197843072967657 -7.2894868753301125 0 -7.2894868753301125 -12.011283211115369 0 0 0 0 -2.6289695280274827 -9.9776370264262368 0 -9.9776370264262368 6.9524300231987581 0 0 0 0 -3.5093906489295819 -5.6767130917569375 0 -5.6767130917569375 -5.6422016288597661 0 0 0 0 1.3267375400214405 -9.670274577314558 0 -9.670274577314558 -7.1475417392771305 0 0 0 0 -8.6785948605727583 -5.4746759624360948 0 -5.4746759624360948 -7.2648097528181097 0 0 0 0 -5.5276077700542601 -5.116213269842774 0 -5.116213269842774 -0.58290513493011531 0 0 0 0 -10.900034989542462 -12.486157470045327 0 -12.486157470045327 -15.415619592438816 0 0 0 0 -12.121395109239614 -12.303751675417516 0 -12.303751675417516 -7.9554607721361208 0 0 0 0 -14.00686806720779 -21.801556237700424 0 -21.801556237700424 -10.262832230712775 0 0 0 0 -15.827043822753708 -24.737737699087347 0 -24.737737699087347 -14.108536672272749 0 0 0 0 -17.483763959070004 -19.119082804172422 0 -19.119082804172422 -0.62774966386677988 0 0 0 0 -2.5105933434632561 -4.3232376213909447 0 -4.3232376213909447 13.978800471839349 0 0 0 0 -18.783337503183134 -46.359738449797078 0 -46.359738449797078 12.266737815620218 0 0 0 0 5.6385656493997658 -20.403271158862481 0 -20.403271158862481 5.4680493644937087 0 0 0 0 -3.6125668719141046 -2.6351104921856425 0 -2.6351104921856425 -2.0297246534507458 0 0 0 0 -3.3776350283485002 -9.0725950173577985 0 -9.0725950173577985 -14.28635897024833 0 0 0 0 4.6557391802319543 -6.5951102129865831 0 -6.5951102129865831 -110.60104760337708 0 0 0 0 59.43010549683747 -11.797860577442407 0 -11.797860577442407 -251.35203674554577 0 0 0 0 -49.370189800881057 0.48204185598478944 0 0.48204185598478944 13.486311532054742 0 0 0 0 -1.5342015839031173 -0.85591194606291765 0 -0.85591194606291765 -0.50453857147074288 0 0 0 0 -62.564123844651334 -25.144240217206516 0 -25.144240217206516 66.670332923120441 0 0 0 0 19.406370135299539 -16.350090241467115 0 -16.350090241467115 -277.41533582471851 0 0 0 0 191.10652087980293 -178.91777110264957 0 -178.91777110264957 -271.67530162359884 0 0 0 0 -345.54199060858434 -7.3558299596406869 0 -7.3558299596406869 -19.275610122370381 0 0 0 0 -95.204003468097426 -119.44292674368171 0 -119.44292674368171 -96.088544153601106 0 0 0 0 32.528219798933435 -219.24352118296247 0 -219.24352118296247 -49.106886491128535 0 0 0 0 1.7728072312140739 -34.806282491342245 0 -34.806282491342245 -80.447339305896094 0 0 0 0 -18.805210460789567 -48.958853425187044 0 -48.958853425187044 -30.535963857470051 0 0 0 0 2.0713784956780197 0.21938469388167192 0 0.21938469388167192 0.20423502587569953 0 0 0 0 -11.731677871457691 -19.475883861488001 0 -19.475883861488001 -33.043349447059882 0 0 0 0 -7.8008681354563123 -10.304982315038842 0 -10.304982315038842 -30.220802808600638 0 0 0 0 -2.7019876845963609 -18.488067061678521 0 -18.488067061678521 -29.681084631012709 0 0 0 0 -5.3868385366345137 -6.8316584770200279 0 -6.8316584770200279 -46.667806202055544 0 0 0 0 -10.955479232441348 -21.772452031073044 0 -21.772452031073044 -37.749521076115343 0 0 0 0 -97.932695495800658 43.672448913858148 0 43.672448913858148 -64.373825352089625 0 0 0 0 130.65539341450622 -42.990338316894849 0 -42.990338316894849 -108.37909031178424 0 0 0 0 26.894319664312036 188.10310568990826 0 188.10310568990826 -227.48661446356891 0 0 0 0 -0.22715365031579193 -0.42353786727288956 0 -0.42353786727288956 -1.6199115522647531 0 0 0 0 -143.65666316030575 240.2103827486826 0 240.2103827486826 -119.83972152062779 0 0 0 0 11.755019177240456 6.154982185242261 0 6.154982185242261 -12.903491854328422 0 0 0 0 29.926871838361166 -39.305989527631027 0 -39.305989527631027 29.964135637233994 0 0 0 0 24.890634779057109 46.258835547800118 0 46.258835547800118 -90.436986923908989 0 0 0 0 1.3640604569430959 0.16043907834079718 0 0.16043907834079718 -1.934342047571608 0 0 0 0 -50.167806048584822 75.913538470454114 0 75.913538470454114 -62.56811459689925 0 0 0 0 -0.09685561270228249 -1.6742315462089081 0 -1.6742315462089081 -4.7527716845424379 0 0 0 0 15.49341884742546 -0.27247619271656731 0 -0.27247619271656731 -7.7751562612229463 0 0 0 0 18.458644546147667 -15.646789121745314 0 -15.646789121745314 57.446125476439192 0 0 0 0 45.148265382190232 -25.24509047194897 0 -25.24509047194897 9.1918138531145814 0 0 0 0 20.133488305758299 -19.439858789704886 0 -19.439858789704886 10.890885719295511 0 0 0 0 27.236751979085902 -18.538596614632297 0 -18.538596614632297 -18.315024650821215 0 0 0 0 26.019039976445328 -21.519887063903298 0 -21.519887063903298 19.804581406658144 0 0 0 0 30.791728169324553 -29.722258079923449 0 -29.722258079923449 -5.7307199940314604 0 0 0 0 7.4675387733627003 -25.519953871572397 0 -25.519953871572397 -11.442929756025478 0 0 0 0 28.44336456780157 -29.698103478645749 0 -29.698103478645749 -8.31729754596563 0 0 0 0 29.003898792638175 -18.761090350110379 0 -18.761090350110379 -10.848418603902246 0 0 0 0 7.9116008163332845 -7.7993820388619497 0 -7.7993820388619497 -14.418739946950154 0 0 0 0 -6.4671952760894929 5.6091444739367944 0 5.6091444739367944 -31.578921840000419 0 0 0 0 16.368646636964829 -7.9733515814348266 0 -7.9733515814348266 -30.851513543535475 0 0 0 0 -4.797041122675993 -33.013679490877621 0 -33.013679490877621 -34.527100095458081 0 0 0 0 34.9524572126886 -22.952521498891656 0 -22.952521498891656 -32.715111969922873 0 0 0 0 -7.2565754786233398 -10.173763614388918 0 -10.173763614388918 -32.63919512346024 0 0 0 0 4.9338342066579841 -12.311080896795829 0 -12.311080896795829 -32.325980426271371 0 0 0 0 10.00253764303959 -1.6706314697574953 0 -1.6706314697574953 -29.899901605520427 0 0 0 0 -8.5686643808367897 -13.722095367208567 0 -13.722095367208567 -19.687790861398753 0 0 0 0 -8.4241115975260037 -12.472362088386376 0 -12.472362088386376 -47.343774702723749 0 0 0 0 -12.631064056023206 -40.968259062608922 0 -40.968259062608922 -10.705259214150828 0 0 0 0 -9.8388060553525634 -30.219035275378701 0 -30.219035275378701 -41.497406751352173 0 0 0 0 8.7965279055774719 -16.52421831448919 0 -16.52421831448919 -29.697906487663204 0 0 0 0 8.9054708311069568 -11.856624994162303 0 -11.856624994162303 5.8994585230357188 0 0 0 0 14.785987742935767 -40.952261178086701 0 -40.952261178086701 -2.0218067876371606 0 0 0 0 -104.05841995607702 -33.603899602188903 0 -33.603899602188903 -206.89300196526528 0 0 0 0 -6.0486166013426406 -88.289360900946122 0 -88.289360900946122 82.442152226372855 0 0 0 0 0.14266487312848153 -0.028051876387337416 0 -0.028051876387337416 0.074316129116688501 0 0 0 0 2.5800229811550821 -29.216367126781734 0 -29.216367126781734 -3.2830473837457248 0 0 0 0 0.16311485488247612 -102.66859194838571 0 -102.66859194838571 -12.001120186672779 0 0 0 0 -8.1433035501357409 -38.053249440087257 0 -38.053249440087257 -60.208967418138855 0 0 0 0 4.2018159218233251 -59.80331538905466 0 -59.80331538905466 -55.750120503254948 0 0 0 0 11.884087162127166 -76.289165558400782 0 -76.289165558400782 -124.14423368440316 0 0 0 0 -10.074793339030784 -44.524158058861303 0 -44.524158058861303 -61.759700460661406 0 0 0 0 -32.446861832913328 -66.477970604541952 0 -66.477970604541952 -82.480685720820475 0 0 0 0 -0.11192865365817789 -0.24844955426287285 0 -0.24844955426287285 -0.88026914551251423 0 0 0 0 14.942321226931959 1.4851520651827741 0 1.4851520651827741 -65.794680538038392 0 0 0 0 -58.984163699428109 -46.011251670101046 0 -46.011251670101046 -56.509695037482743 0 0 0 0 -9.3136199214865485 -26.304086086716779 0 -26.304086086716779 -99.119036627703281 0 0 0 0 -26.017446945685862 1.047017104693623 0 1.047017104693623 -61.610353032824605 0 0 0 0 -10.321735072819976 -6.7930462837232426 0 -6.7930462837232426 -29.613347974727731 0 0 0 0 -24.265395085263457 -10.591835041678678 0 -10.591835041678678 -29.412189080598182 0 0 0 0 0.22324677452914976 -17.249684141269881 0 -17.249684141269881 -42.742496567495436 0 0 0 0 -28.951416976888559 -26.443397772755816 0 -26.443397772755816 -12.922854622677733 0 0 0 0 -29.9498443364342 -13.568771278384702 0 -13.568771278384702 -22.477050881941977 0 0 0 0 -19.793555558151279 -22.043089753185086 0 -22.043089753185086 -8.8460436888235563 0 0 0 0 16.96601591559067 6.2704793023467573 0 6.2704793023467573 -16.673013363523978 0 0 0 0 0.030489958011050991 -0.090475628707419098 0 -0.090475628707419098 -0.40126622668482526 0 0 0 0 -59.86003203034695 -65.313111913899775 0 -65.313111913899775 -46.293172158908419 0 0 0 0 -12.132090288504008 -8.1535925898946289 0 -8.1535925898946289 -51.677387600409929 0 0 0 0 -9.7581899620917198 -38.273598622619829 0 -38.273598622619829 -78.574654825673861 0 0 0 0 -1.7512228560145862 -37.100406152606411 0 -37.100406152606411 -86.613317725690649 0 0 0 0 6.5784567357292332 -4.9456030755077336 0 -4.9456030755077336 -55.865810116491957 0 0 0 0 -9.1667834539106892 1.5255099794972011 0 1.5255099794972011 -6.0281706144432974 0 0 0 0 -4.7916715188258081 -8.2692875654129239 0 -8.2692875654129239 3.0919345765878461 0 0 0 0 5.0947087389453758 -9.7828283828466738 0 -9.7828283828466738 0.37580333063488069 0 0 0 0 -0.42654407932277738 -1.157585636139201 0 -1.157585636139201 -1.9886652693258569 0 0 0 0 -4.1672767680458733 -8.8090688368392875 0 -8.8090688368392875 4.5062962705942482 0 0 0 0 -4.3949455314230477 11.681862474054014 0 11.681862474054014 -16.727142014753554 0 0 0 0 -37.37676017969163 -4.736095871238831 0 -4.736095871238831 -0.84062989317681058 0 0 0 0 -78.568845952171586 -38.16023034279624 0 -38.16023034279624 -27.450695993955378 0 0 0 0 -13.257359008492315 -40.544122195833552 0 -40.544122195833552 -62.443151080748521 0 0 0 0 -3.9698138493896522 -29.599273146711312 0 -29.599273146711312 -10.047277698467042 0 0 0 0 -11.745998069413702 3.7685620405563895 0 3.7685620405563895 9.1783856431029562 0 0 0 0 -6.7292097776694106 1.0701304332887958 0 1.0701304332887958 -3.5116977849775139 0 0 0 0 -7.9877523971493645 0.044277739718836528 0 0.044277739718836528 4.7121109752642951 0 0 0 0 -7.8068842647142844 -7.2005588825802533 0 -7.2005588825802533 13.476586792063245 0 0 0 0 -5.4158148580559082 -4.6625246475594615 0 -4.6625246475594615 -1.9183797117282211 0 0 0 0 -4.909586131488922 -3.6995256534073633 0 -3.6995256534073633 -2.5308655256885686 0 0 0 0 -2.2904449276628367 -3.8371757385443388 0 -3.8371757385443388 -2.9095580825431444 0 0 0 0 0.22534949471400978 -3.9873989086763686 0 -3.9873989086763686 -3.2517688759799057 0 0 0 0 3.4994233235335059 -12.379508224101755 0 -12.379508224101755 -3.4894440544176177 0 0 0 0 21.483489710541562 -18.877845285988769 0 -18.877845285988769 -32.932506752284098 0 0 0 0 -8.4282508749629415 -8.2458792464476574 0 -8.2458792464476574 -2.2216139468901019 0 0 0 0 1.7155038533474398 -3.9067614578773693 0 -3.9067614578773693 0.3396054484364246 0 0 0 0 0.9780117896025331 -11.763847400817667 0 -11.763847400817667 -9.409243037487613 0 0 0 0 1.7347634093705437 -9.3983005681029681 0 -9.3983005681029681 -16.555444110781536 0 0 0 0 -2.3003413117903619 -5.5501022940643452 0 -5.5501022940643452 -17.371294004051379 0 0 0 0 -1.3809779086725484 -4.7647203561518836 0 -4.7647203561518836 -1.6312901472301746 0 0 0 0 -2.3376819156123827 -3.826899486748033 0 -3.826899486748033 -2.5989257176947973 0 0 0 0 1.6863198068701877 -3.0776237436766678 0 -3.0776237436766678 -11.253508703121042 0 0 0 0 -1.585511387079098 -6.4804666080590323 0 -6.4804666080590323 -7.1317792947356793 0 0 0 0 -1.7139374423098439 -4.3095164116495237 0 -4.3095164116495237 -4.7136518350980126 0 0 0 0 -3.2707553136165188 -4.8554103470196424 0 -4.8554103470196424 -8.7587189216865227 0 0 0 0 -1.7194781060736091 -6.0160480938520777 0 -6.0160480938520777 -8.3733940285055724 0 0 0 0 -3.6854094607111136 -6.0902916251995975 0 -6.0902916251995975 -7.6503352804866154 0 0 0 0 -3.1975919670286714 -5.9661143478447229 0 -5.9661143478447229 -6.4003781191404414 0 0 0 0 -3.1843134690898864 -5.57762468691908 0 -5.57762468691908 -6.8991722379760176 0 0 0 0 -2.9270947971670012 -5.9783018847720086 0 -5.9783018847720086 -7.661050165411325 0 0 0 0 -0.79971944518575899 -1.6382119876639472 0 -1.6382119876639472 0.70387940006341232 0 0 0 0 -1.0978615492980834 -5.06854663937429 0 -5.06854663937429 5.431954874990879 0 0 0 0 -3.5260424581879342 -5.4394703740231307 0 -5.4394703740231307 -4.4500702316490788 0 0 0 0 -3.1356621994810894 -5.1236326851935701 0 -5.1236326851935701 -6.3644719568492292 0 0 0 0 -2.4654153175506615 -6.7006880362960146 0 -6.7006880362960146 -5.6075776470825076 0 0 0 0 -4.2679584884726864 -6.253620071503974 0 -6.253620071503974 -6.1586364464301369 0 0 0 0 -2.6711789978680827 -4.9579273090448623 0 -4.9579273090448623 -8.0655365921525117 0 0 0 0 -2.4186828151428728 -4.0730558836830824 0 -4.0730558836830824 -5.4532893893210712 0 0 0 0 -2.9109348540209794 -5.5625211295246118 0 -5.5625211295246118 -7.5699466361293162 0 0 0 0 -0.98906591639894259 -3.3320014405362599 0 -3.3320014405362599 -6.5871273819348062 0 0 0 0 1.3423555221745562 -0.52406825697056014 0 -0.52406825697056014 -3.2113517128193365 0 0 0 0 -3.3735719677298448 -2.7899824821552102 0 -2.7899824821552102 -3.350452696051434 0 0 0 0 1.4342398966991539 -3.3068256672486314 0 -3.3068256672486314 -4.5920857124528993 0 0 0 0 -0.17347103941295772 -1.1529306489946975 0 -1.1529306489946975 -7.9586893158302701 0 0 0 0 -0.16849777760630649 -2.1395268136690753 0 -2.1395268136690753 -4.5909881328071123 0 0 0 0 -0.36024491058983443 -4.4407828422963576 0 -4.4407828422963576 -2.2088582335372848 0 0 0 0 1.1520921000126589 -1.3611187302845256 0 -1.3611187302845256 -3.1181869570486072 0 0 0 0 0.18549989946303214 -2.6911974441263737 0 -2.6911974441263737 -3.4816184020030505 0 0 0 0 -4.0505497585871097 -5.1146842367782028 0 -5.1146842367782028 -8.2716841736091737 0 0 0 0 1.7807200236830072 0.030219084124473383 0 0.030219084124473383 -6.9966329681810251 0 0 0 0 -5.1255603156858456 -6.1571897776398146 0 -6.1571897776398146 -10.977071794100993 0 0 0 0 -3.1039074277969161 -0.69820097772663914 0 -0.69820097772663914 -0.46082482095705757 0 0 0 0 -1.1352664375404349 -1.5141928332986936 0 -1.5141928332986936 -7.7215707168338668 0 0 0 0 12.220017100434404 8.0629871387491221 0 8.0629871387491221 -13.607347032705547 0 0 0 0 -0.33854497225184765 -0.30431503175088181 0 -0.30431503175088181 -1.3329487993090119 0 0 0 0 0.83699797429123635 -2.8537911476623776 0 -2.8537911476623776 -10.571162609856401 0 0 0 0 -0.31791191212391845 -1.1315140008687194 0 -1.1315140008687194 -8.4086257448107062 0 0 0 0 -0.98772648251564021 4.3356430056883255 0 4.3356430056883255 -8.3777508082021086 0 0 0 0 -11.476812642433838 2.897301772197352 0 2.897301772197352 10.652093672549199 0 0 0 0 5.1780573594943888 -8.6515838171567339 0 -8.6515838171567339 -46.373111904695179 0 0 0 0 -3.9818609968326655 -4.1677768690706216 0 -4.1677768690706216 -9.3473019777566151 0 0 0 0 -4.5654420643377307 -5.9101392685715837 0 -5.9101392685715837 -8.3470474398791339 0 0 0 0 -1.8922711781053434 -0.7065456031557602 0 -0.7065456031557602 1.1348206966845336 0 0 0 0 -7.1361244714225691 6.2245667264778604 0 6.2245667264778604 11.430188822070704 0 0 0 0 -14.093790328429591 -12.90508105868139 0 -12.90508105868139 0.33264350662011566 0 0 0 0 2.7393641686132426 -1.3100896529622332 0 -1.3100896529622332 -25.885928996092844 0 0 0 0 11.295682101236267 6.3442350243094552 0 6.3442350243094552 -31.876426812919817 0 0 0 0 -5.2687691363454476 -3.844364425913227 0 -3.844364425913227 -26.196051713448128 0 0 0 0 0.03984367019022475 0.02660727804356533 0 0.02660727804356533 -0.2511121182371383 0 0 0 0 -16.812469325330483 -29.347595746926345 0 -29.347595746926345 -21.905946300539654 0 0 0 0 10.965274791997167 15.904934927844806 0 15.904934927844806 -16.081472359557665 0 0 0 0 -5.5285378741871156 -26.951015822614863 0 -26.951015822614863 -27.176503610379768 0 0 0 0 -2.5991582082768616 -6.6381154644413982 0 -6.6381154644413982 -2.8366169971886848 0 0 0 0 -7.287563033041943 -17.413397478727916 0 -17.413397478727916 -36.850919089805757 0 0 0 0 -3.0908045112656595 -19.234555274771992 0 -19.234555274771992 -36.840978392621082 0 0 0 0 -3.2827527962238605 -35.289161268536191 0 -35.289161268536191 -49.674619061218436 0 0 0 0 -33.01176243637105 -36.769855650938098 0 -36.769855650938098 -25.395968983726561 0 0 0 0 -2.6997239281305383 -27.245156829118059 0 -27.245156829118059 -28.671843477424773 0 0 0 0 -14.222362522042605 -35.008258266266466 0 -35.008258266266466 -33.665600526372145 0 0 0 0 -13.605411158067064 -35.454576719006582 0 -35.454576719006582 -33.364579083827266 0 0 0 0 -8.3050767003919503 -22.507896974393589 0 -22.507896974393589 -19.954209301142782 0 0 0 0 0.02327246700252722 -0.024537769086236949 0 -0.024537769086236949 -0.21519637142679926 0 0 0 0 -15.601483473572237 -7.9750646723687169 0 -7.9750646723687169 -7.6744506329578144 0 0 0 0 -17.456299554711865 -23.440599201650457 0 -23.440599201650457 -24.930295671552813 0 0 0 0 -34.742649818814769 -40.374612902030549 0 -40.374612902030549 -40.183096475475395 0 0 0 0 0.067959127845502093 0.031381986410533358 0 0.031381986410533358 -0.4297571788703749 0 0 0 0 -3.7916439181740724 -20.15215567424309 0 -20.15215567424309 -26.433835280671701 0 0 0 0 -13.866425252639921 -10.25807414218616 0 -10.25807414218616 -6.0877982705169416 0 0 0 0 -14.289692388196094 -16.222665586650294 0 -16.222665586650294 -12.451219237451369 0 0 0 0 -21.933949114992238 -16.938559579764842 0 -16.938559579764842 -11.116555241304013 0 0 0 0 -0.13282735088834358 0.17570288617962504 0 0.17570288617962504 -0.10358479837922374 0 0 0 0 1.1091866352499977 -12.99948044352368 0 -12.99948044352368 -13.020622529670391 0 0 0 0 -14.750466672914285 -6.4370877808642035 0 -6.4370877808642035 -10.665474627239746 0 0 0 0 -27.72381346729987 -5.4616693996104004 0 -5.4616693996104004 -8.313571183494787 0 0 0 0 -17.900574013843446 -18.927383243637053 0 -18.927383243637053 -26.67031603909345 0 0 0 0 -14.914998840164895 -21.914848894155512 0 -21.914848894155512 -23.800233768523867 0 0 0 0 -0.17418615706055898 0.73710168160059375 0 0.73710168160059375 -4.5114426350414405 0 0 0 0 -15.065992561637193 9.0699717459700722 0 9.0699717459700722 -6.3813897377440298 0 0 0 0 -3.268402223856036 -1.1791124678193228 0 -1.1791124678193228 -4.6769270777140264 0 0 0 0 -0.037244096186580242 0.1344247860560408 0 0.1344247860560408 0.07258756203304273 0 0 0 0 0.55357735913625916 -5.4922234762198059 0 -5.4922234762198059 -13.825328716735385 0 0 0 0 0.19638580574306985 -1.9725676822645255 0 -1.9725676822645255 -4.4829120126487396 0 0 0 0 -0.11849871782856702 0.20898413232362145 0 0.20898413232362145 -9.6409709993713477 0 0 0 0 0.4516531849660973 0.76327733832478195 0 0.76327733832478195 -4.136449164000318 0 0 0 0 -1.6062275598190006 6.420836208480182 0 6.420836208480182 -5.6455239400202117 0 0 0 0 4.8620606682783212 2.3698028963217439 0 2.3698028963217439 -7.3090898276109328 0 0 0 0 -0.43475179878515746 -7.077743521596858 0 -7.077743521596858 -9.5281693613983407 0 0 0 0 -13.117313828858684 -7.1198251962200629 0 -7.1198251962200629 -9.880855685687493 0 0 0 0 -0.55733664990029796 0.18403076957549303 0 0.18403076957549303 -1.0672718367682954 0 0 0 0 4.0197092208913361 4.5401532823470916 0 4.5401532823470916 -3.8524144579210997 0 0 0 0 1.1488150652564633 0.28321993000508883 0 0.28321993000508883 -4.2156412102249305 0 0 0 0 0.36753363712525516 0.53430284152573826 0 0.53430284152573826 -3.5097322616715161 0 0 0 0 0.027215449284496776 -0.44270159381787977 0 -0.44270159381787977 -1.0330521082871797 0 0 0 0 -15.394194081037242 -4.8352645034738089 0 -4.8352645034738089 -10.594743564337023 0 0 0 0 0.0018097922436247954 2.050748373467286 0 2.050748373467286 -5.2054003937482776 0 0 0 0 0.4153073274553537 2.1242499699569635 0 2.1242499699569635 -5.5090223918650736 0 0 0 0 0.48415443914481493 5.0799850779558255 0 5.0799850779558255 -0.58802930504134565 0 0 0 0 -0.29068221338267364 2.9540784492296552 0 2.9540784492296552 -6.1083419730730384 0 0 0 0 0.094929858608737261 2.3819611740827895 0 2.3819611740827895 -7.8588869258019258 0 0 0 0 -0.0083359362501053032 1.2788265802571839 0 1.2788265802571839 -10.251449423640224 0 0 0 0 -1.8494489969279648 0.023721775120975508 0 0.023721775120975508 -5.4923378027395344 0 0 0 0 0.49075334713395735 -4.3645439145366254 0 -4.3645439145366254 -18.95538676311844 0 0 0 0 -2.7176150485021471 -3.2849334582933807 0 -3.2849334582933807 -8.435326161265948 0 0 0 0 -0.0014855196924751914 -0.60971071333733562 0 -0.60971071333733562 -4.3273899184350739 0 0 0 0 -0.010608237998407174 0.015724927160679414 0 0.015724927160679414 -0.059452545943781132 0 0 0 0 -0.61163520523742498 -1.9267089931563532 0 -1.9267089931563532 -5.7488078339774802 0 0 0 0 -0.0008428879627766716 -0.83818579005310312 0 -0.83818579005310312 -6.0218125317016984 0 0 0 0 0.0068256165147194689 -1.3628924717645532 0 -1.3628924717645532 -7.331482899355251 0 0 0 0 -1.0069259185538073 -1.130796201337489 0 -1.130796201337489 -5.9791349510796863 0 0 0 0 -0.07469881155679392 -1.1767428309594834 0 -1.1767428309594834 -6.0679410745960922 0 0 0 0 -0.28352196634940685 -1.3346819989956202 0 -1.3346819989956202 -7.902810955325549 0 0 0 0 -0.71111349912394139 -0.62655656111019198 0 -0.62655656111019198 -7.1630328030032615 0 0 0 0 -0.30335323008524429 -1.1166720216033355 0 -1.1166720216033355 -6.9372589217655332 0 0 0 0 0.051634652478605769 -0.84719741305161733 0 -0.84719741305161733 -7.7012501033823355 0 0 0 0 -1.0786469972120214 -0.29268076936295984 0 -0.29268076936295984 -7.3903731783648254 0 0 0 0 -0.24748508274312586 -0.49821546775365277 0 -0.49821546775365277 -7.962427359096182 0 0 0 0 -0.23244799740108188 -0.45182224424490869 0 -0.45182224424490869 -7.1844937139958347 0 0 0 0 -0.18590338108653937 -1.1706357717148421 0 -1.1706357717148421 -5.8439536162768491 0 0 0 0 0.43799194452300982 -5.2875574737427087 0 -5.2875574737427087 -8.0583044659433654 0 0 0 0 -0.5318822962077413 -2.6093262662504788 0 -2.6093262662504788 -4.3373794870870768 0 0 0 0 1.5023055732845592 -4.2907811665609188 0 -4.2907811665609188 -4.8235456702764168 0 0 0 0 0.27919934612912223 -1.4380405238197902 0 -1.4380405238197902 -0.8574995286120668 0 0 0 0 4.5229303826371723 3.1533332327196604 0 3.1533332327196604 -7.090074597937928 0 0 0 0 -3.2611096125021497 -0.014058720568755234 0 -0.014058720568755234 -7.8201311141183396 0 0 0 0 -3.105152049811903 -3.3407939637963864 0 -3.3407939637963864 -9.1103604176996669 0 0 0 0 0.001100017013056079 -1.6860049584965964 0 -1.6860049584965964 -9.3855117619841621 0 0 0 0 0.76470212892901923 -0.51295198098523542 0 -0.51295198098523542 -8.7322176625239081 0 0 0 0 -0.87389201961047425 -1.6078517756441215 0 -1.6078517756441215 -7.7769583685440011 0 0 0 0 -1.1993589900007473 -1.8871777407666741 0 -1.8871777407666741 -7.5236551637290177 0 0 0 0 0.35522644721476127 -14.495372287551845 0 -14.495372287551845 -23.618997655847693 0 0 0 0 -10.236828584324527 -6.6862168757545817 0 -6.6862168757545817 -28.571466291276181 0 0 0 0 -16.670292581484318 8.4731090448432838 0 8.4731090448432838 -33.102278904868626 0 0 0 0 1.2390868278392766 -3.0510870531021981 0 -3.0510870531021981 -42.858451481054431 0 0 0 0 -9.0205434811279304 -2.008127531184428 0 -2.008127531184428 -18.807692189409664 0 0 0 0 19.187586190674551 -11.530920775090209 0 -11.530920775090209 -24.382866653993972 0 0 0 0 29.412938578654359 8.6490181863218396 0 8.6490181863218396 2.5296594782436728 0 0 0 0 16.344689520328956 -9.2739619748891187 0 -9.2739619748891187 -16.661694668214864 0 0 0 0 23.685921540251272 -22.186885699523799 0 -22.186885699523799 5.8408253277281688 0 0 0 0 -6.4695966563584761 -16.907375921498357 0 -16.907375921498357 -4.6286485367274963 0 0 0 0 0.93262855471303396 -9.5783977134227598 0 -9.5783977134227598 -53.228366069323442 0 0 0 0 -3.8226916901535049 -23.380661035969467 0 -23.380661035969467 -15.442988103446254 0 0 0 0 25.898989375342989 -6.0122085197111801 0 -6.0122085197111801 -25.095109416898367 0 0 0 0 -2.0292944366653956 -68.462568710068808 0 -68.462568710068808 -66.08164888421976 0 0 0 0 28.773700354924038 20.725955253860384 0 20.725955253860384 -22.24747876031347 0 0 0 0 -71.41960765652999 -53.379114123758427 0 -53.379114123758427 120.42937597959985 0 0 0 0 -0.49103230370174222 -0.13969963577269717 0 -0.13969963577269717 -0.039191387210870898 0 0 0 0 -43.101105228428935 -56.646325846685841 0 -56.646325846685841 75.189056963043072 0 0 0 0 21.959905069286364 -23.67624392161747 0 -23.67624392161747 -116.8816405702471 0 0 0 0 9.816557317140564 -23.45826486186354 0 -23.45826486186354 -18.437757774800389 0 0 0 0 1.1338688219830333 -15.702401799136648 0 -15.702401799136648 -25.09389327631402 0 0 0 0 16.763067129139301 1.1439839273376151 0 1.1439839273376151 -22.307160884118559 0 0 0 0 -25.392281927190197 -12.649465849369903 0 -12.649465849369903 30.065235191165357 0 0 0 0 -27.88319905757794 -26.415740303202369 0 -26.415740303202369 -27.177236320849261 0 0 0 0 -42.025402622494084 -39.59100873447079 0 -39.59100873447079 -38.639003465804763 0 0 0 0 -36.805872175580703 -39.385735080253426 0 -39.385735080253426 -60.55636142137746 0 0 0 0 -14.067367883069323 -3.5865704073369784 0 -3.5865704073369784 -47.013423489379882 0 0 0 0 -32.36836116006387 -18.005188137186821 0 -18.005188137186821 -55.506289279851273 0 0 0 0 -12.275836644745709 -11.859089424156849 0 -11.859089424156849 -28.120817783000973 0 0 0 0 -80.535853465115679 -68.66046599610965 0 -68.66046599610965 -26.621137225945262 0 0 0 0 -111.81834746401501 -30.693740582270379 0 -30.693740582270379 21.161997784149776 0 0 0 0 -0.27089810045611395 -0.54349610634383927 0 -0.54349610634383927 -1.233050976568578 0 0 0 0 -88.054668241612376 -16.189537105190283 0 -16.189537105190283 -70.133860679888812 0 0 0 0 -41.327362195663454 -47.116923260280885 0 -47.116923260280885 -73.338888474619409 0 0 0 0 -45.91270506194752 -46.566991656734189 0 -46.566991656734189 -177.62971850181907 0 0 0 0 -34.683055017356764 -11.938008422219355 0 -11.938008422219355 -71.189147603743564 0 0 0 0 -95.332263197569773 34.214008660469524 0 34.214008660469524 -61.885093225871685 0 0 0 0 -32.753994774656348 -64.008186105934612 0 -64.008186105934612 -147.82893015903119 0 0 0 0 -45.672081900038563 22.115806748238338 0 22.115806748238338 -13.521654807063584 0 0 0 0 -37.28294727853978 19.422807977914481 0 19.422807977914481 4.3902219816187369 0 0 0 0 -33.913398156350468 -0.45972380993930528 0 -0.45972380993930528 -43.112607649594324 0 0 0 0 -22.92855323981837 23.406817145333704 0 23.406817145333704 -65.714920733875772 0 0 0 0 -18.573738459037628 8.6271414232884069 0 8.6271414232884069 -21.321565386357918 0 0 0 0 -23.833245495962416 4.2399079711980043 0 4.2399079711980043 0.79740640554823727 0 0 0 0 -28.858481491359498 14.97443325367257 0 14.97443325367257 -21.326627037403085 0 0 0 0 -33.631218375823323 13.896756947001451 0 13.896756947001451 0.34865638007988053 0 0 0 0 -21.351264780214137 5.631233651599274 0 5.631233651599274 0.68665732704077076 0 0 0 0 -40.515933189475959 9.5421922585221886 0 9.5421922585221886 0.55651328432815461 0 0 0 0 -7.5392778388314809 -14.024460652739819 0 -14.024460652739819 5.8329086237374721 0 0 0 0 -25.093896245978385 7.0372161657019738 0 7.0372161657019738 -9.0515036757494283 0 0 0 0 -30.632623827276518 5.986602350472868 0 5.986602350472868 8.8401342728770587 0 0 0 0 -3.5686735199284385 -7.7848727335276919 0 -7.7848727335276919 5.6201844411026727 0 0 0 0 -1.6091884736952125 -5.4611811242940007 0 -5.4611811242940007 6.2721658636151574 0 0 0 0 7.0902860036296715 -13.297590700345154 0 -13.297590700345154 4.6163760632712183 0 0 0 0 -21.928264451333121 5.4651139375616964 0 5.4651139375616964 3.1994982350271073 0 0 0 0 -0.065060985373186497 -2.0311697787207175 0 -2.0311697787207175 -4.1979199387366464 0 0 0 0 4.3057584565196976 -12.574324782950406 0 -12.574324782950406 1.9103660528721633 0 0 0 0 -1.6838860281823145 -10.644510815268873 0 -10.644510815268873 14.117149688722748 0 0 0 0 11.192306096655216 -12.004127627702232 0 -12.004127627702232 4.0434161544971516 0 0 0 0 -1.3492101298633372 -10.744304175058899 0 -10.744304175058899 7.9786369430518107 0 0 0 0 7.3793168801230422 -7.4797978819196373 0 -7.4797978819196373 8.6167257383832521 0 0 0 0 -31.579688178268668 17.48357283569198 0 17.48357283569198 -4.1141016958494561 0 0 0 0 -19.832962885304482 -2.4344489901625792 0 -2.4344489901625792 24.676043558067303 0 0 0 0 -21.586656286494758 -22.36748806175882 0 -22.36748806175882 -43.851379439649293 0 0 0 0 -47.911576863458663 19.748768504600122 0 19.748768504600122 -4.1142405047712032 0 0 0 0 -50.631771325987849 2.1273352999506887 0 2.1273352999506887 -3.5114788782293829 0 0 0 0 -64.417586895669729 41.226972371378835 0 41.226972371378835 -53.801766157564174 0 0 0 0 -55.406528666938385 -16.817418371171097 0 -16.817418371171097 2.5942353998620149 0 0 0 0 -37.033166370241538 2.5601719500897353 0 2.5601719500897353 6.5425166752729824 0 0 0 0 20.938485290489737 -15.133061809663573 0 -15.133061809663573 -15.021216202534944 0 0 0 0 -34.807754023227005 5.7006998815083225 0 5.7006998815083225 -2.7290797179870614 0 0 0 0 -9.361187157752326 -13.561019978043586 0 -13.561019978043586 0.33848095625583863 0 0 0 0 -0.037379559947817831 -0.14714785419246657 0 -0.14714785419246657 -0.23311688508295692 0 0 0 0 -23.045698879956433 2.8130979856328544 0 2.8130979856328544 -19.245772973341001 0 0 0 0 32.288950676121225 5.7624179313764969 0 5.7624179313764969 6.4258453806512534 0 0 0 0 30.457633402390414 -1.3890510321512863 0 -1.3890510321512863 -8.9324704087860027 0 0 0 0 17.144698461715393 12.357155079007555 0 12.357155079007555 -19.739419943324247 0 0 0 0 -10.790556208598851 9.2184530949698757 0 9.2184530949698757 0.26708434422124583 0 0 0 0 18.211053263117776 -1.3872479838894591 0 -1.3872479838894591 -5.1104879194748634 0 0 0 0 22.22449800067157 14.573649696646736 0 14.573649696646736 0.98187012764191195 0 0 0 0 45.561437457946496 15.177083596170831 0 15.177083596170831 -4.2356123500183571 0 0 0 0 33.383267767626648 4.8473181463437385 0 4.8473181463437385 5.1812310359951823 0 0 0 0 50.595012032568974 21.05682216761425 0 21.05682216761425 -1.9976156507568703 0 0 0 0 0.11123322632200439 -0.060893221046379606 0 -0.060893221046379606 -0.34499223677160562 0 0 0 0 12.268087068729614 6.7942588285893377 0 6.7942588285893377 -0.23612173868358743 0 0 0 0 0.0076544580859500694 -0.13138888224662809 0 -0.13138888224662809 -0.65463147189474846 0 0 0 0 26.143427979084237 -2.4095022826722463 0 -2.4095022826722463 -14.86312196611404 0 0 0 0 16.275733787861441 -6.2718713650903064 0 -6.2718713650903064 -7.7359329559372298 0 0 0 0 47.991581885853122 30.157374399302142 0 30.157374399302142 -17.111158023726986 0 0 0 0 24.983350004982867 -19.312249119009419 0 -19.312249119009419 2.8627546436363214 0 0 0 0 -59.334440371767286 -24.422323460837958 0 -24.422323460837958 -11.514314700941554 0 0 0 0 0.30232703835754049 0.15494497462258744 0 0.15494497462258744 -2.9576155095561818 0 0 0 0 -29.023888974043864 -43.923473252191741 0 -43.923473252191741 3.9295374754699282 0 0 0 0 20.222101483070013 -16.524963060154732 0 -16.524963060154732 -22.623535024141347 0 0 0 0 -5.3602473533894965 -12.384408624403022 0 -12.384408624403022 -23.298718969803986 0 0 0 0 -43.552873219766326 -2.2917380881286817 0 -2.2917380881286817 -7.5955239418435667 0 0 0 0 -3.0796322396463154 -10.671759289518263 0 -10.671759289518263 -24.047013777945153 0 0 0 0 -2.7939942895001071 -17.520948864907815 0 -17.520948864907815 -27.011051571590542 0 0 0 0 63.275440702366382 -17.311058178335088 0 -17.311058178335088 -42.793057413976726 0 0 0 0 42.845655852590824 9.3201222189982218 0 9.3201222189982218 -11.522412336450884 0 0 0 0 5.8162146346917325 -28.218315256840469 0 -28.218315256840469 21.932252151891589 0 0 0 0 51.355324989751466 -35.21177319234215 0 -35.21177319234215 -60.106729237108084 0 0 0 0 -0.2313084219161492 -0.50529876012331365 0 -0.50529876012331365 -0.26456629183929881 0 0 0 0 -13.006651761977366 11.79091033813188 0 11.79091033813188 -6.7390131589718294 0 0 0 0 41.562697811196358 -26.47949351945374 0 -26.47949351945374 19.918759144615137 0 0 0 0 -0.81728215366500767 -1.419474320086811 0 -1.419474320086811 -2.0388021551223021 0 0 0 0 -5.43504104972767 -20.661112573821566 0 -20.661112573821566 18.351019631212239 0 0 0 0 57.67458660062681 -32.712345294460988 0 -32.712345294460988 -8.5597587157675434 0 0 0 0 -0.31063990235168537 -0.8253694284045392 0 -0.8253694284045392 -0.78641062849547616 0 0 0 0 59.088010403997828 3.2680978774533287 0 3.2680978774533287 62.411703011087639 0 0 0 0 67.048527260635012 -55.833682156424402 0 -55.833682156424402 -3.7363123921700208 0 0 0 0 -29.699302454863869 46.633525106874856 0 46.633525106874856 -70.757187513227109 0 0 0 0 -13.178265658424152 5.6093115001713159 0 5.6093115001713159 -9.7637433675251941 0 0 0 0 -22.227702758030489 -35.462530511045543 0 -35.462530511045543 -76.302943065810709 0 0 0 0 0.12975180237434103 -0.014296061868118493 0 -0.014296061868118493 -0.27770050452595996 0 0 0 0 26.842532828968046 40.352579499902632 0 40.352579499902632 -48.225580111236923 0 0 0 0 59.634683306245847 -15.646794262701583 0 -15.646794262701583 -167.08748750884661 0 0 0 0 -29.084049653176066 43.046121564474333 0 43.046121564474333 -94.820415901855995 0 0 0 0 -0.25786680508529441 -0.5438626950920773 0 -0.5438626950920773 -0.34426194319830561 0 0 0 0 -0.22019897925791498 -0.38556496046824607 0 -0.38556496046824607 -0.76176905570615538 0 0 0 0 27.027924585307119 -15.91948238233681 0 -15.91948238233681 -105.14059373960606 0 0 0 0 26.623705336485429 59.237508904495819 0 59.237508904495819 -120.59096745643637 0 0 0 0 0.48257248139274433 0.35064989793348134 0 0.35064989793348134 -5.1441771342042664 0 0 0 0 -0.40486698193032566 -11.329462464663635 0 -11.329462464663635 -4.0008871008985807 0 0 0 0 -0.95346330802092893 -6.4529662047658576 0 -6.4529662047658576 0.19143006437343502 0 0 0 0 6.8893082750862504 -39.868460761554275 0 -39.868460761554275 -2.8320216552757529 0 0 0 0 9.9947639204743837 -2.9359178026293193 0 -2.9359178026293193 -4.7241588427987153 0 0 0 0 1.3899960164414651 -2.3415707138756972 0 -2.3415707138756972 2.1673452453992468 0 0 0 0 -6.2757480298414805 -1.5646982243586081 0 -1.5646982243586081 3.0318660451951871 0 0 0 0 -4.5639084451415926 -10.35576189257597 0 -10.35576189257597 -22.2061485403799 0 0 0 0 0.27033403528057715 -0.1692596673145175 0 -0.1692596673145175 -1.0289822715637538 0 0 0 0 0.4593066506282753 0.1435246266043434 0 0.1435246266043434 -4.0953570325361124 0 0 0 0 26.659672968251982 7.0190583380507121 0 7.0190583380507121 -25.362246518940083 0 0 0 0 0.076072767048992518 -0.12338988503438628 0 -0.12338988503438628 -0.037579682616034615 0 0 0 0 -14.853686904493046 11.337783784271096 0 11.337783784271096 13.903645405192265 0 0 0 0 -54.526377595140573 -36.072002550057505 0 -36.072002550057505 11.671369446297604 0 0 0 0 -21.213552673334959 -4.567269807997036 0 -4.567269807997036 -16.664530605367872 0 0 0 0 -12.395286995957804 0.66262253513104952 0 0.66262253513104952 -36.975963355886051 0 0 0 0 -5.712986687583566 -22.833680727352657 0 -22.833680727352657 -61.866658558054951 0 0 0 0 -0.39024007713341669 -0.58784553346394475 0 -0.58784553346394475 -2.2816789998650657 0 0 0 0 -16.33701713305004 -22.141037324177887 0 -22.141037324177887 -44.291212183907192 0 0 0 0 -10.218757022219222 -16.579708514715094 0 -16.579708514715094 -50.438330178029901 0 0 0 0 -6.3506614417384242 -9.2544313202702142 0 -9.2544313202702142 -40.088913818044603 0 0 0 0 -9.5787405749955106 -8.5041987893914666 0 -8.5041987893914666 -29.611461190126647 0 0 0 0 -8.0265698215275734 -14.669804694198319 0 -14.669804694198319 -45.030503065800076 0 0 0 0 -16.418465450189597 -18.256793102769805 0 -18.256793102769805 -40.951473320996229 0 0 0 0 -8.0265698215268344 -14.669804694198319 0 -14.669804694198319 -45.030503065811899 0 0 0 0 0.17605578105468922 -14.108440628198878 0 -14.108440628198878 -35.439865933561919 0 0 0 0 -6.2393919973972967 -19.706687842735391 0 -19.706687842735391 -33.812196616714573 0 0 0 0 0.24395140194899412 -7.4238953571539241 0 -7.4238953571539241 -32.615088417765037 0 0 0 0 6.6836347645713801 0.20579687478493724 0 0.20579687478493724 -16.57201516578084 0 0 0 0 -13.031643342662695 0.71529707015417898 0 0.71529707015417898 -12.755426152969449 0 0 0 0 24.319849350085235 10.799932086458966 0 10.799932086458966 -17.397305981754243 0 0 0 0 15.731713468742072 11.516968019744581 0 11.516968019744581 -14.199830303083218 0 0 0 0 0.60419236599215576 -0.30450294913182741 0 -0.30450294913182741 -12.443459654379355 0 0 0 0 14.094216157398591 -11.961263579665228 0 -11.961263579665228 -29.711788503530443 0 0 0 0 19.747035757907156 -0.08535458301230392 0 -0.08535458301230392 -29.247662160427353 0 0 0 0 -0.4113000915458187 -5.9142756479504328 0 -5.9142756479504328 -5.7171005706104552 0 0 0 0 0.059138859879947547 -1.4564598295696727 0 -1.4564598295696727 -11.28246278359989 0 0 0 0 -2.2726143114259578 -5.0898229758186062 0 -5.0898229758186062 -26.625497764642205 0 0 0 0 -0.46264885760108698 -1.2793467396158269 0 -1.2793467396158269 -5.1773281902687565 0 0 0 0 3.879521206701753 8.7460471671385562 0 8.7460471671385562 -9.6976695572711833 0 0 0 0 -6.0314864817515854 -0.18907069298325041 0 -0.18907069298325041 -6.5023204208435459 0 0 0 0 -2.6269064989608353 16.928463027136729 0 16.928463027136729 -14.86122341500095 0 0 0 0 -9.1030543262289143 -7.4790966626388808 0 -7.4790966626388808 -18.389163514927986 0 0 0 0 8.316286767296674 -13.721014063765324 0 -13.721014063765324 -28.508867562071146 0 0 0 0 0.505819335523776 -0.4255588074883927 0 -0.4255588074883927 -13.517345734368979 0 0 0 0 28.487009199495049 3.2902071378764504 0 3.2902071378764504 -22.439406165855871 0 0 0 0 -7.1452284252813456 1.4106902368725969 0 1.4106902368725969 -8.2165111742665431 0 0 0 0 8.7149511440190324 4.4299215047572034 0 4.4299215047572034 -13.29738447997488 0 0 0 0 -3.1547333627719158 -0.51022121466974113 0 -0.51022121466974113 -11.815031856497626 0 0 0 0 -12.71259705039882 -0.82846642896743106 0 -0.82846642896743106 -9.7759933113857187 0 0 0 0 -3.1819540623865237 -0.36186277323622562 0 -0.36186277323622562 -12.582506108144116 0 0 0 0 -7.7567354577550702 -4.0715567363540686 0 -4.0715567363540686 -14.090818556343947 0 0 0 0 -12.092608274080291 -0.063773734479354971 0 -0.063773734479354971 -17.551240443124698 0 0 0 0 -0.33493542060648451 2.0716025833403364 0 2.0716025833403364 -16.563993282716183 0 0 0 0 -3.9979429295141387 -0.60838597082914703 0 -0.60838597082914703 -14.848702509812938 0 0 0 0 -1.5735554336498012 -0.61074620828094339 0 -0.61074620828094339 -15.758524780906555 0 0 0 0 -6.7092192405844955 -1.3297414582389138 0 -1.3297414582389138 -12.44742967140337 0 0 0 0 -0.99366927877202649 2.3524731933774774 0 2.3524731933774774 -11.809186445382693 0 0 0 0 4.5220295782704092 1.9806364594574006 0 1.9806364594574006 -15.317581058395263 0 0 0 0 0.95964197180650523 0.003284684461763554 0 0.003284684461763554 -14.036863384437876 0 0 0 0 -0.40715005663338388 2.0190221435259446 0 2.0190221435259446 -13.693806071595191 0 0 0 0 11.193348487928006 -4.2669756948666873 0 -4.2669756948666873 -19.447010599579585 0 0 0 0 0.13566364003145281 -1.2298542777843977 0 -1.2298542777843977 -6.652155736419445 0 0 0 0 0.27102330269357511 -1.3132899616633251 0 -1.3132899616633251 -2.5839456461820332 0 0 0 0 -0.97554759144168202 -1.2889767987398955 0 -1.2889767987398955 -2.4712077927470091 0 0 0 0 -2.9860021373822292 -9.0431466328136594 0 -9.0431466328136594 -10.362539813721014 0 0 0 0 -0.36792224011389862 -13.140228060013214 0 -13.140228060013214 -14.505822108339089 0 0 0 0 -11.468345923406559 -18.862289612811765 0 -18.862289612811765 -20.515443088609572 0 0 0 0 -2.8802288445388626 -8.0995905666939052 0 -8.0995905666939052 -16.307002728726275 0 0 0 0 0.12247154845582309 -0.10769245672836103 0 -0.10769245672836103 -0.71344956372422619 0 0 0 0 -32.46784716583872 -9.7001394497262936 0 -9.7001394497262936 -10.175854009295108 0 0 0 0 -0.29759283019842542 -12.562907686803896 0 -12.562907686803896 -20.776533703848145 0 0 0 0 -0.40665120749838479 -1.8606830498401905 0 -1.8606830498401905 -4.8563530385117701 0 0 0 0 0.41186318132686117 0.01851803665092433 0 0.01851803665092433 -1.8070873851120952 0 0 0 0 -0.46684070251380305 -0.53250521772632542 0 -0.53250521772632542 0.070686783825926192 0 0 0 0 -39.775481045974288 -36.333383052515046 0 -36.333383052515046 -11.877006588531913 0 0 0 0 -15.746535918637733 -29.685110977903719 0 -29.685110977903719 6.783151837146761 0 0 0 0 -21.521617625317958 -18.067137200768684 0 -18.067137200768684 -16.145730883991064 0 0 0 0 -41.840700998803982 -17.017772459557591 0 -17.017772459557591 9.5118893540288809 0 0 0 0 -27.661103560065357 -27.394741896946229 0 -27.394741896946229 16.948022681869588 0 0 0 0 -27.050084988263272 -18.599601294695177 0 -18.599601294695177 12.796186517215119 0 0 0 0 28.462285532060491 -10.55860346222164 0 -10.55860346222164 -6.9592543045596358 0 0 0 0 -16.818806363225576 -56.764307980197827 0 -56.764307980197827 -38.513878200399631 0 0 0 0 12.312250799425328 -6.1198330268512109 0 -6.1198330268512109 -32.383983827626082 0 0 0 0 -36.481780571806496 -75.439091939899868 0 -75.439091939899868 -130.08856480051872 0 0 0 0 -105.24969290188437 -21.219751833235932 0 -21.219751833235932 -8.5926164678334658 0 0 0 0 -51.376562658073908 -32.533424639153509 0 -32.533424639153509 -10.965462697176235 0 0 0 0 -59.029741173110438 -33.997066304239524 0 -33.997066304239524 15.606491994710268 0 0 0 0 -14.672490600530026 6.801934270924562 0 6.801934270924562 -96.909397422305119 0 0 0 0 -7.9618731041510955 -25.892066175972104 0 -25.892066175972104 -30.858184843181334 0 0 0 0 -58.842469183979972 47.276766484521659 0 47.276766484521659 -122.2278247716954 0 0 0 0 -0.1455713612951377 0.9717934341896024 0 0.9717934341896024 -1.5179318010288241 0 0 0 0 -0.065021814729782079 0.31720978958106638 0 0.31720978958106638 -0.64788926876743758 0 0 0 0 -60.739595051243782 -36.759566887744541 0 -36.759566887744541 87.38145109468951 0 0 0 0 -0.19902234452831635 1.6885806466511895 0 1.6885806466511895 -4.0150024866343301 0 0 0 0 -43.876216075279217 -1.6841982388943961 0 -1.6841982388943961 -2.9501521720712844 0 0 0 0 0.12661335247155259 0.90341885591333737 0 0.90341885591333737 -2.2270638207225861 0 0 0 0 -0.23103666557153346 0.66264050729524371 0 0.66264050729524371 -3.2506960760210859 0 0 0 0 0.3633104733319783 0.043626733106634674 0 0.043626733106634674 -9.0870867853136588 0 0 0 0 0.60012507688396932 2.2146267304794698 0 2.2146267304794698 -5.7157698893813595 0 0 0 0 -0.23169857190259791 -0.22782042176913819 0 -0.22782042176913819 -8.5611286293278681 0 0 0 0 0.52985417880837749 1.3719997683940988 0 1.3719997683940988 -4.4441857572351129 0 0 0 0 -0.33316464404106227 2.1044490135254819 0 2.1044490135254819 -5.5160654666970004 0 0 0 0 0.73690939415185386 2.6926821304393469 0 2.6926821304393469 -4.2832896178230211 0 0 0 0 -8.437393391104024 7.4661164803746942 0 7.4661164803746942 -6.1201835273482175 0 0 0 0 -11.752949910523057 7.1111698128925127 0 7.1111698128925127 -5.7621331135587752 0 0 0 0 -8.6325642703908443 12.400679555915531 0 12.400679555915531 -9.5407111546483065 0 0 0 0 -0.28258393057356745 0.60501718053250864 0 0.60501718053250864 0.29165362708748788 0 0 0 0 -5.4536745557096538 -3.3040372272723744 0 -3.3040372272723744 -4.6076808211848856 0 0 0 0 -0.35771108084723702 0.59330187174397775 0 0.59330187174397775 -0.71029586393437683 0 0 0 0 -34.094458366302206 7.0346741978391947 0 7.0346741978391947 14.912854941623664 0 0 0 0 -32.987463430352364 10.147822714267932 0 10.147822714267932 2.7167305007678806 0 0 0 0 -4.5210527935437312 39.53234345856572 0 39.53234345856572 0.71859439404033765 0 0 0 0 -20.693831130993203 32.352658689677469 0 32.352658689677469 2.1323111819365295 0 0 0 0 3.6301015485446442 12.827883191250294 0 12.827883191250294 -10.823073717222542 0 0 0 0 53.603239003905855 -2.9793845039632743 0 -2.9793845039632743 -28.768830696736586 0 0 0 0 -2.1852641937982415 -6.6028904674242952 0 -6.6028904674242952 -19.068142632473826 0 0 0 0 -13.410115211569689 16.931173292667381 0 16.931173292667381 -7.8607964902148524 0 0 0 0 15.802507272974708 11.676943688332358 0 11.676943688332358 -15.56669647767194 0 0 0 0 8.9894772987769329 14.895083125479687 0 14.895083125479687 -16.225181253403207 0 0 0 0 4.7666900756457835 9.7652071752772827 0 9.7652071752772827 -12.144185284654668 0 0 0 0 9.0880786031204934 24.708243330185724 0 24.708243330185724 -7.9321547281097082 0 0 0 0 24.474569425358368 50.178474621173109 0 50.178474621173109 -54.803276993779036 0 0 0 0 51.44502744700435 17.287524004846091 0 17.287524004846091 -33.562911892659486 0 0 0 0 23.927852143783866 -0.88890890627408226 0 -0.88890890627408226 -13.36560088672104 0 0 0 0 1.1683302856025515 4.8730702644767785 0 4.8730702644767785 -6.8258303474039419 0 0 0 0 -1.017993905788444 -0.8664257968775928 0 -0.8664257968775928 -16.686736440642562 0 0 0 0 13.282427973972062 3.1162497081504625 0 3.1162497081504625 -13.773391270999355 0 0 0 0 11.610605941196809 7.7145617663409212 0 7.7145617663409212 -11.826598783796726 0 0 0 0 1.9704916131156551 8.1221073779142898 0 8.1221073779142898 -11.272188887143102 0 0 0 0 1.9894393128556658 9.8054473649208376 0 9.8054473649208376 -9.0943446798673904 0 0 0 0 -2.2321863674153293 -4.6370800759043327 0 -4.6370800759043327 -8.1862122382367168 0 0 0 0 8.0393549318849864 13.452344804902509 0 13.452344804902509 -1.5551167456507073 0 0 0 0 0.17913924827989569 -0.18794369472418149 0 -0.18794369472418149 -0.094455247874704273 0 0 0 0 -7.238004958412489 -9.0597340409630078 0 -9.0597340409630078 3.4170099438233592 0 0 0 0 -10.615366490333656 12.191625491391733 0 12.191625491391733 2.7575763750585338 0 0 0 0 10.248614311956544 0.69900794784632581 0 0.69900794784632581 -4.0538405664478887 0 0 0 0 11.706276712627556 -0.54045225860920709 0 -0.54045225860920709 -3.1761306877701827 0 0 0 0 -7.7644094954091827 -1.40287448458173 0 -1.40287448458173 5.291476569968836 0 0 0 0 -1.8343375710842906 -7.2289099908198864 0 -7.2289099908198864 1.4790068359097859 0 0 0 0 -2.0360162571759872 6.057993181930442 0 6.057993181930442 2.1528592688227945 0 0 0 0 6.0609189989301768 3.7621513942149818 0 3.7621513942149818 0.14370348843908687 0 0 0 0 2.4426018713029691 -4.2176970027122991 0 -4.2176970027122991 -4.080566422861466 0 0 0 0 0.074614627529488498 -0.21370246792738234 0 -0.21370246792738234 -1.8738843108281191 0 0 0 0 48.665176446134517 0.99862416768704065 0 0.99862416768704065 -13.130914457958795 0 0 0 0 0.30248164672755096 -0.45631008257836003 0 -0.45631008257836003 -0.061421000275274196 0 0 0 0 8.985654514666976 -13.192413546773423 0 -13.192413546773423 -132.70570431323722 0 0 0 0 10.540275986815288 -8.3063052782719069 0 -8.3063052782719069 -7.7688257286936278 0 0 0 0 7.6190951068724502 -12.085309519283499 0 -12.085309519283499 -3.8565738364222852 0 0 0 0 -2.9818087269629245 8.1123874396465112 0 8.1123874396465112 11.18592206803396 0 0 0 0 -4.5691975265811777 14.109253559394176 0 14.109253559394176 -11.46663107482982 0 0 0 0 6.7276404004697383 -8.8201632923920101 0 -8.8201632923920101 -15.767240739990939 0 0 0 0 37.490731221196739 -118.12851496351834 0 -118.12851496351834 -24.198056331575572 0 0 0 0 -0.3847222829057273 -35.193479627207353 0 -35.193479627207353 -2.2955461430192372 0 0 0 0 23.723002696202457 -2.9172535121151668 0 -2.9172535121151668 -92.107633621205423 0 0 0 0 3.9939802195042944 -44.874606377632517 0 -44.874606377632517 -25.077408966084477 0 0 0 0 12.278364204490003 -27.976155631126403 0 -27.976155631126403 7.0973413422625526 0 0 0 0 6.6549992046990383 -17.089083337328702 0 -17.089083337328702 -11.04167920527766 0 0 0 0 15.15658433756937 -13.349977174887954 0 -13.349977174887954 -1.3721713084830895 0 0 0 0 -8.9769519149140251 -22.681275151247291 0 -22.681275151247291 141.79491412026437 0 0 0 0 11.242786192530957 -44.246159298300427 0 -44.246159298300427 -39.936654171343889 0 0 0 0 4.0532323858910786 -11.678269123667178 0 -11.678269123667178 23.319956074142738 0 0 0 0 -0.0041409540349235385 -0.15492944763807426 0 -0.15492944763807426 -0.27014823082869954 0 0 0 0 24.746241785959633 -30.751401304295214 0 -30.751401304295214 4.7436073071489773 0 0 0 0 -5.7805898430264051 -38.914855095807297 0 -38.914855095807297 5.2034452378256901 0 0 0 0 12.669252036053422 -12.182356266340321 0 -12.182356266340321 -39.293051535176161 0 0 0 0 28.360014533366325 -15.489971916170362 0 -15.489971916170362 -15.117524010862326 0 0 0 0 11.053019861885275 -19.499289266433607 0 -19.499289266433607 -3.8896760442739833 0 0 0 0 41.018378606938313 1.8541977961308476 0 1.8541977961308476 -13.888485123093005 0 0 0 0 18.642265237344191 -11.482077286063031 0 -11.482077286063031 -14.8206373560663 0 0 0 0 76.168729719924784 50.022361105135587 0 50.022361105135587 22.991420867382203 0 0 0 0 -9.5938853684842798 -3.4562596388146858 0 -3.4562596388146858 3.2452620544399906 0 0 0 0 0.27571307921043853 0.7754717648288556 0 0.7754717648288556 -5.1780052363786755 0 0 0 0 80.677389273042138 11.976816067108757 0 11.976816067108757 -13.278137262609107 0 0 0 0 19.044488041733075 8.0394279375213955 0 8.0394279375213955 37.877500212362975 0 0 0 0 54.677123371043194 -15.357643859435029 0 -15.357643859435029 -4.7153091639493141 0 0 0 0 -4.7600595475157377 3.8930670445506053 0 3.8930670445506053 2.0848039805041481 0 0 0 0 5.0978298951798138 -8.7621694763446385 0 -8.7621694763446385 -2.7027346551928986 0 0 0 0 31.215453636660754 -10.293118143279344 0 -10.293118143279344 6.7299309718948734 0 0 0 0 15.753319050569871 -2.3311414688275818 0 -2.3311414688275818 6.1266119058241202 0 0 0 0 113.26415062776124 30.537843439296921 0 30.537843439296921 -8.3752491991497777 0 0 0 0 16.335328232791881 -22.678227522784027 0 -22.678227522784027 22.434396700129582 0 0 0 0 61.070405958908225 -40.893073926769603 0 -40.893073926769603 -18.748995772331 0 0 0 0 -1.0154450959975065 7.7917074958344301 0 7.7917074958344301 -14.507710596172501 0 0 0 0 0.16041846052397357 0.77625576506010807 0 0.77625576506010807 -4.1289424216419697 0 0 0 0 -9.3625028611249377 8.0734904204896338 0 8.0734904204896338 -9.6101755302422589 0 0 0 0 -11.895618204953394 -1.1455387925432206 0 -1.1455387925432206 -9.7240760507712594 0 0 0 0 -5.1335116671649814 3.377555884400067 0 3.377555884400067 -7.5804252409077435 0 0 0 0 -2.6568233493389357 4.5717540809238244 0 4.5717540809238244 -8.118784340563252 0 0 0 0 -1.6543367476638764 -4.4969415115185711 0 -4.4969415115185711 -3.8229610943233183 0 0 0 0 -6.7172114598924821 -0.2606342865536817 0 -0.2606342865536817 1.4852005192688011 0 0 0 0 15.964396973443577 -10.149856936201616 0 -10.149856936201616 -1.8164068134988156 0 0 0 0 53.842333968870598 -6.0996882613654293 0 -6.0996882613654293 -27.289537019294812 0 0 0 0 0.01466094321955233 -0.42695217881305603 0 -0.42695217881305603 -2.1177456440856557 0 0 0 0 -2.2190997987745504 -8.2077228657390151 0 -8.2077228657390151 4.8608363449875469 0 0 0 0 7.9331562001139844 -10.279358979641756 0 -10.279358979641756 -0.08957097692109528 0 0 0 0 0.51701402661672091 -8.4050875878556326 0 -8.4050875878556326 2.9036076953771044 0 0 0 0 1.7869869807225349 -13.879248454388545 0 -13.879248454388545 12.840049991497381 0 0 0 0 8.4553993555588534 13.695743892640394 0 13.695743892640394 -24.16562324642814 0 0 0 0 -38.077438565843003 -19.426270734513764 0 -19.426270734513764 -43.417557544446936 0 0 0 0 -0.05418318229942843 -0.41154339464278666 0 -0.41154339464278666 -1.0175193058767746 0 0 0 0 -8.2931850538083722 2.1074985393709085 0 2.1074985393709085 7.7558550227361138 0 0 0 0 -6.0784392653815189 -2.9046536532928258 0 -2.9046536532928258 14.284108004220315 0 0 0 0 10.308191914471223 7.7771994294674869 0 7.7771994294674869 -53.016903057015497 0 0 0 0 5.0614177998426158 -19.388594199545764 0 -19.388594199545764 -83.97387957219064 0 0 0 0 -35.767299131440424 -33.24482304930757 0 -33.24482304930757 -63.894646669811209 0 0 0 0 -17.22662834638831 -36.989838919904059 0 -36.989838919904059 -78.417886724947266 0 0 0 0 -7.5338304303317614 -19.917085237472747 0 -19.917085237472747 -58.980689905118652 0 0 0 0 -2.320301980781835 -23.977624241291096 0 -23.977624241291096 -69.700624045208542 0 0 0 0 -7.5343428427415802 -10.343181791742609 0 -10.343181791742609 -34.438948822333259 0 0 0 0 4.9186521767721079 -2.098240093915174 0 -2.098240093915174 -60.135426313260268 0 0 0 0 -10.121020916629789 -3.4681061595645133 0 -3.4681061595645133 1.2822324289843436 0 0 0 0 -15.179359425708441 -35.728473669661923 0 -35.728473669661923 -72.875372015823586 0 0 0 0 127.57622805457993 91.573306475712911 0 91.573306475712911 -57.308143518964698 0 0 0 0 0.055317333252705603 0.40554700237739949 0 0.40554700237739949 -1.7169726362616107 0 0 0 0 31.104887617744339 88.58361659933712 0 88.58361659933712 8.712067223078094 0 0 0 0 16.437347886319799 5.86230902063744 0 5.86230902063744 -121.25160554387094 0 0 0 0 34.468420650943244 114.88951249404317 0 114.88951249404317 -48.312596907400803 0 0 0 0 65.067248440607273 -93.562773322719607 0 -93.562773322719607 -83.427369373711372 0 0 0 0 -4.0997491779826873 -20.023015061037086 0 -20.023015061037086 -63.298973849987306 0 0 0 0 -3.0262113760943343 -3.2728705490558951 0 -3.2728705490558951 -50.626381875014886 0 0 0 0 -32.911793409150164 -18.624544556036312 0 -18.624544556036312 -53.315024322979298 0 0 0 0 -16.189536261962871 -27.697720848888025 0 -27.697720848888025 -68.735768875097619 0 0 0 0 -18.430119788018828 -27.723717586028897 0 -27.723717586028897 -68.643847439130241 0 0 0 0 32.849292009222609 168.94758093777256 0 168.94758093777256 86.264560951114618 0 0 0 0 -35.763532395864331 6.8470726871814804 0 6.8470726871814804 155.68144319825683 0 0 0 0 -34.510699471964699 -19.642620833002638 0 -19.642620833002638 14.547005454596501 0 0 0 0 -34.43433165227276 -13.550316829215262 0 -13.550316829215262 -5.8218548316990564 0 0 0 0 -0.18987968114424802 -68.546348864342235 0 -68.546348864342235 -66.58896766106318 0 0 0 0 -2.3174757615392991 -0.75031360655839308 0 -0.75031360655839308 -57.853035791807088 0 0 0 0 93.544897238210751 -68.469912867569519 0 -68.469912867569519 -10.048863796207115 0 0 0 0 20.947705818474901 -9.4439086606994351 0 -9.4439086606994351 -248.67182229248556 0 0 0 0 -1.1061378934972197 0.018726298682510745 0 0.018726298682510745 -0.10785644441829989 0 0 0 0 -59.41531844468409 -71.800370394487345 0 -71.800370394487345 -86.043859997777872 0 0 0 0 -23.083294322388156 -26.957127494995802 0 -26.957127494995802 -102.99132201330531 0 0 0 0 3.7445275449075552 -84.250095210211839 0 -84.250095210211839 -189.26355549609661 0 0 0 0 -16.005490526143603 -50.888748546314901 0 -50.888748546314901 -106.96142764921797 0 0 0 0 -18.223454492635142 2.3005599550983789 0 2.3005599550983789 -124.2183401692829 0 0 0 0 -9.9274796482076795 -14.493410229847541 0 -14.493410229847541 -90.278891136593302 0 0 0 0 -4.5575364567451402 -6.3675039371328239 0 -6.3675039371328239 -97.724020855584286 0 0 0 0 -9.0159697271648724 -14.181652841913092 0 -14.181652841913092 -90.314695696438321 0 0 0 0 -12.67011354858812 -31.820095737968131 0 -31.820095737968131 -81.54135778357761 0 0 0 0 -8.4586379837003847 -18.320051391362085 0 -18.320051391362085 -76.245384146987817 0 0 0 0 -7.1799150238643961 -15.15959526054894 0 -15.15959526054894 -69.00589010146723 0 0 0 0 -3.993698540113428 1.9302268562123572 0 1.9302268562123572 -63.250750969021283 0 0 0 0 -3.8570884167982058 0.11739343322733475 0 0.11739343322733475 -84.319784392304996 0 0 0 0 -9.521079725434447 -0.29747109344975797 0 -0.29747109344975797 -47.718610683031102 0 0 0 0 -7.2143087655765541 -10.968080386133806 0 -10.968080386133806 -57.597473310710939 0 0 0 0 -6.4895766724560655 -6.2452319617530065 0 -6.2452319617530065 -49.518559283993454 0 0 0 0 -10.859275662162801 -19.412212094532151 0 -19.412212094532151 -62.186950070496209 0 0 0 0 -6.1511797082283692 -10.51746487668288 0 -10.51746487668288 -58.842832395153891 0 0 0 0 -7.6294195699838951 -15.373282414618643 0 -15.373282414618643 -67.948544066116369 0 0 0 0 -9.9584643051619253 -20.31467380171739 0 -20.31467380171739 -61.315097747871278 0 0 0 0 -17.321489060192626 -17.969311718033623 0 -17.969311718033623 -56.275257161338232 0 0 0 0 -8.7780537648788517 -12.365101261793029 0 -12.365101261793029 -55.21153422280031 0 0 0 0 -17.606120081364026 -25.40010029607356 0 -25.40010029607356 -61.681002410227393 0 0 0 0 -12.760007111507164 -23.784865136028316 0 -23.784865136028316 -63.876334653579761 0 0 0 0 -14.803838374807526 -30.447877691898157 0 -30.447877691898157 -66.739930856972819 0 0 0 0 -15.207827932817054 -23.3276260064913 0 -23.3276260064913 -59.659505750541484 0 0 0 0 -10.950459319481297 -29.132195662317372 0 -29.132195662317372 -67.77003644534625 0 0 0 0 -12.131448861609726 -25.212234605271306 0 -25.212234605271306 -69.087977336319454 0 0 0 0 -11.79168982637043 -25.059429797673829 0 -25.059429797673829 -70.328858494531858 0 0 0 0 6.591003823342362 -10.02477900563099 0 -10.02477900563099 -21.989212333417527 0 0 0 0 -2.8976679730857819 -7.9946336754569796 0 -7.9946336754569796 -22.143278370232238 0 0 0 0 65.819332031259648 -68.730835379156474 0 -68.730835379156474 -20.617511501164699 0 0 0 0 60.661857996160165 -37.901305043394416 0 -37.901305043394416 -139.85658829822569 0 0 0 0 7.0282584418569058 -15.095111342418932 0 -15.095111342418932 -18.26393872726112 0 0 0 0 -20.028736187451557 -3.870978451313249 0 -3.870978451313249 -8.1993104062594284 0 0 0 0 -65.316389483581588 57.929783718262115 0 57.929783718262115 -1.9918779006093246 0 0 0 0 -11.820512202331656 -7.9195292248809892 0 -7.9195292248809892 -82.190628175727397 0 0 0 0 -12.425625194269742 -8.6909131461280822 0 -8.6909131461280822 -82.54483022792283 0 0 0 0 24.307565473081695 -42.662192316597157 0 -42.662192316597157 -4.6838578582028276 0 0 0 0 -24.068646908344853 -8.6102276708238108 0 -8.6102276708238108 -4.0823770407741904 0 0 0 0 -22.242651458096134 -38.536618111850657 0 -38.536618111850657 13.09608754804276 0 0 0 0 -17.885605215230157 -15.623346011117974 0 -15.623346011117974 2.2649638178004352 0 0 0 0 4.8153807976678706 -2.5589052293212262 0 -2.5589052293212262 -8.6938012297098339 0 0 0 0 0.083481207476758162 -0.84870195105896995 0 -0.84870195105896995 -4.5728614392003202 0 0 0 0 -45.23430181400829 -23.014550045536907 0 -23.014550045536907 -8.2379911270719504 0 0 0 0 -0.37034504668325696 0.70929326147567773 0 0.70929326147567773 -0.96791385357827053 0 0 0 0 -49.711809089302932 -49.7315160316723 0 -49.7315160316723 -87.099730457289297 0 0 0 0 -13.257433416787222 3.3720239214271714 0 3.3720239214271714 -162.22168439753023 0 0 0 0 -44.935952077996262 37.869664246039122 0 37.869664246039122 -18.170440022274761 0 0 0 0 36.2094309424931 73.663709738450734 0 73.663709738450734 -97.906667874858044 0 0 0 0 32.934074018254478 10.937054139042402 0 10.937054139042402 -9.8603680938456364 0 0 0 0 50.927036557212887 15.105783901231234 0 15.105783901231234 -126.5198096263357 0 0 0 0 32.510618747104672 -76.222042793007859 0 -76.222042793007859 -20.477290591859401 0 0 0 0 44.129175844248493 4.5535473670984175 0 4.5535473670984175 -48.084936231608481 0 0 0 0 5.6206390167285463 40.862703060067815 0 40.862703060067815 24.089775927555365 0 0 0 0 12.40551468121501 -24.805526878595629 0 -24.805526878595629 13.418329695442935 0 0 0 0 2.7501725116578299 -0.93508065117542127 0 -0.93508065117542127 -3.5445087025732613 0 0 0 0 52.650270765110065 60.989220516265561 0 60.989220516265561 -27.935795276287536 0 0 0 0 -14.373085636069447 39.268879984995465 0 39.268879984995465 -78.427266294072069 0 0 0 0 17.683482544186973 8.4519905013016796 0 8.4519905013016796 -49.59053285615505 0 0 0 0 18.931470152389238 -53.839558949468937 0 -53.839558949468937 -162.16643668865345 0 0 0 0 22.237151566868079 -21.226238901014085 0 -21.226238901014085 -44.235844650950185 0 0 0 0 28.807563122010379 -14.329331856593399 0 -14.329331856593399 -66.352043759233311 0 0 0 0 25.817762107926683 27.906571579089587 0 27.906571579089587 -48.961006437518336 0 0 0 0 29.470113768162378 -7.9200809584939407 0 -7.9200809584939407 -33.463658789601141 0 0 0 0 21.11889842486346 -4.5112271271365216 0 -4.5112271271365216 -31.866168828518767 0 0 0 0 18.374917179268323 1.7734718207302649 0 1.7734718207302649 -0.75020773023084075 0 0 0 0 -4.6605560889862545 -17.536644566771201 0 -17.536644566771201 -14.60415110045642 0 0 0 0 0.038050856375923425 -12.791962715361807 0 -12.791962715361807 -5.541397954109069 0 0 0 0 13.244878943204924 0.44449832646478171 0 0.44449832646478171 9.8328699890098505 0 0 0 0 1.9938254862901523 0.35626843571481714 0 0.35626843571481714 -4.4286386938781988 0 0 0 0 2.6917795080330338 -0.46211967072247973 0 -0.46211967072247973 -27.750886316712005 0 0 0 0 181.13904127033675 -119.99253848076296 0 -119.99253848076296 -407.67227982592158 0 0 0 0 -49.189361076886598 46.603407326944307 0 46.603407326944307 -18.384936512875356 0 0 0 0 0.36625453393700458 -2.3466746896311799 0 -2.3466746896311799 -1.1140771625564909 0 0 0 0 85.407355178571777 -36.263027811822212 0 -36.263027811822212 -51.471216661725521 0 0 0 0 16.842473942804418 -15.442163659992275 0 -15.442163659992275 -32.581619448508718 0 0 0 0 6.7020909754888311 -2.2986250671759727 0 -2.2986250671759727 -3.3013279331001097 0 0 0 0 -1.4025209581053755 -11.238749714629963 0 -11.238749714629963 -23.308560369950193 0 0 0 0 6.1062668826907611 -17.030320732879773 0 -17.030320732879773 -31.128200770890544 0 0 0 0 31.134580467575049 -24.644007560211776 0 -24.644007560211776 -3.6718863866644824 0 0 0 0 0.018291449923030334 -2.155942265211463 0 -2.155942265211463 -7.363120055975255 0 0 0 0 10.554420497965225 -1.9670558749867268 0 -1.9670558749867268 -17.740377612193697 0 0 0 0 4.7242549099914868 -3.192836846503269 0 -3.192836846503269 -14.764879199696225 0 0 0 0 0.039439745953879335 -0.54908441122916507 0 -0.54908441122916507 -2.330574171185571 0 0 0 0 61.102137744103857 -4.2113724862811068 0 -4.2113724862811068 -54.831468409944137 0 0 0 0 30.289160061714369 11.185719720454472 0 11.185719720454472 -49.817846389278202 0 0 0 0 33.111152867878275 -37.747454892688893 0 -37.747454892688893 4.8543194405756367 0 0 0 0 -17.719945899407918 20.531352062525912 0 20.531352062525912 -44.702035917460307 0 0 0 0 68.419880252825521 -8.3477466333906705 0 -8.3477466333906705 -73.031491716590608 0 0 0 0 34.062667815944678 18.539309680983934 0 18.539309680983934 -37.065107374724903 0 0 0 0 -31.045508827176945 28.835411458685485 0 28.835411458685485 -21.9409561439752 0 0 0 0 -4.4543923738274316 11.809586112563011 0 11.809586112563011 -21.555544020757225 0 0 0 0 -0.94562320775636577 -1.2297150611065604 0 -1.2297150611065604 -2.5398697883897512 0 0 0 0 -132.16617185385076 -340.2550189652975 0 -340.2550189652975 -294.47440927131174 0 0 0 0 -169.18376639966903 9.1993781628516444 0 9.1993781628516444 48.336195509674326 0 0 0 0 -15.428101678869211 -24.949062068157218 0 -24.949062068157218 -29.131931750363947 0 0 0 0 6.4915071163500215 -14.261250960550569 0 -14.261250960550569 -38.68881647271246 0 0 0 0 -18.00623309134312 70.605255265094456 0 70.605255265094456 -60.289955872933206 0 0 0 0 -13.041052587883087 11.544928251489182 0 11.544928251489182 -15.970397284425417 0 0 0 0 194.77008439371048 167.47760312868559 0 167.47760312868559 -208.31330863267067 0 0 0 0 13.302734111311793 -0.04130103562874865 0 -0.04130103562874865 -28.044521700428959 0 0 0 0 19.886144646763341 -29.912727823285195 0 -29.912727823285195 -21.199465163776608 0 0 0 0 -2.2668524559828374 -9.7999863760417707 0 -9.7999863760417707 -11.7371148177515 0 0 0 0 -4.7695648077054784 -12.172422647237454 0 -12.172422647237454 -22.061625091713722 0 0 0 0 20.598965774234557 -34.742384130933715 0 -34.742384130933715 -52.58990785012179 0 0 0 0 -26.109509351644363 -22.5387642746864 0 -22.5387642746864 35.257048945857605 0 0 0 0 -1.0570734336281475 2.7450682048115596 0 2.7450682048115596 -19.710098053997172 0 0 0 0 -2.4384462542121241 2.6509941290048573 0 2.6509941290048573 -5.2409049858943035 0 0 0 0 -3.2192947207928171 -8.5615247620543187 0 -8.5615247620543187 -0.25303243434245815 0 0 0 0 2.6633758451217773 18.385422394606394 0 18.385422394606394 -53.927164183869991 0 0 0 0 -0.22476446612727008 -0.32346529885191266 0 -0.32346529885191266 -0.31364465128577734 0 0 0 0 -0.083632911114328135 0.45000123941276549 0 0.45000123941276549 -0.81862319864440991 0 0 0 0 -15.630769793327772 11.947484622586671 0 11.947484622586671 -3.5364122120226966 0 0 0 0 0.487436300807083 -0.045612500403596101 0 -0.045612500403596101 -1.7651303170995511 0 0 0 0 -4.3000834319890373 -1.9191742565722052 0 -1.9191742565722052 -0.3733567132958342 0 0 0 0 1.1633732343025258 -2.0465118745041764 0 -2.0465118745041764 -2.1441476451918788 0 0 0 0 -65.001445975227966 -54.958003548952547 0 -54.958003548952547 -14.555024167979354 0 0 0 0 2.1618987470317315 0.36041489008370853 0 0.36041489008370853 -2.3993105754920308 0 0 0 0 14.335865205193045 -1.8851061134073461 0 -1.8851061134073461 -24.487933226075256 0 0 0 0 7.7145771564713073 -13.669314938316802 0 -13.669314938316802 -1.1062889723943954 0 0 0 0 3.7951215971816055 -4.8781772734109836 0 -4.8781772734109836 8.7486108538678309 0 0 0 0 -2.9363645174962585 -3.0786280041434111 0 -3.0786280041434111 -18.491565985963462 0 0 0 0 -9.4304850772924738 17.153837879634921 0 17.153837879634921 -29.532423974890889 0 0 0 0 -0.90817588833351892 -0.78236025779595053 0 -0.78236025779595053 -0.45240974404210732 0 0 0 0 -0.16240407127656908 15.494409752627689 0 15.494409752627689 -29.137021957183606 0 0 0 0 0.6064600047584463 11.618100507734198 0 11.618100507734198 -30.545547175791398 0 0 0 0 4.3221779160069218 -3.1479906475324242 0 -3.1479906475324242 -26.198340283930975 0 0 0 0 1.5590404989034141 7.5287714501173468 0 7.5287714501173468 -8.0606506375679601 0 0 0 0 4.2120136069014791 2.2176352539067921 0 2.2176352539067921 -18.006997247339314 0 0 0 0 -1.4300921902162713 -7.104742714310305 0 -7.104742714310305 -0.51589925160442363 0 0 0 0 0.62154003379448897 -2.8245476004179828 0 -2.8245476004179828 -8.9252645142589309 0 0 0 0 9.9627209232723999 -12.148778960297022 0 -12.148778960297022 -9.0544558398742083 0 0 0 0 8.5786019899893518 -4.7433234801383151 0 -4.7433234801383151 -2.0887248170893145 0 0 0 0 11.509964050578901 -8.7943061302685237 0 -8.7943061302685237 -19.717122497644596 0 0 0 0 40.133089230181191 -12.8362269770696 0 -12.8362269770696 -13.035809686565699 0 0 0 0 27.80763085333421 -0.28495065305605749 0 -0.28495065305605749 -18.086360991245783 0 0 0 0 41.958826695724625 -14.900680926241421 0 -14.900680926241421 -47.487473142793533 0 0 0 0 1.9474442749267125 -4.8712708846576973 0 -4.8712708846576973 3.8075940851656327 0 0 0 0 -2.7625084454878106 -8.5230277121991094 0 -8.5230277121991094 7.0128541878489159 0 0 0 0 -9.304032953755268 -8.332614019538596 0 -8.332614019538596 7.0625284335754941 0 0 0 0 -7.0789720571746901 -1.3688660938077994 0 -1.3688660938077994 1.0944745050811198 0 0 0 0 -46.828854542847012 -18.706382345465499 0 -18.706382345465499 7.6372884796201106 0 0 0 0 -12.156199030343487 -22.890187610344583 0 -22.890187610344583 -16.756298396190687 0 0 0 0 -8.8639391591963985 -3.0913158418774742 0 -3.0913158418774742 -45.66818252575149 0 0 0 0 -5.3798395260495511 -0.52764205175435563 0 -0.52764205175435563 -41.006023575419022 0 0 0 0 -8.2374337039064756 -0.064920396308934869 0 -0.064920396308934869 -31.060799728522397 0 0 0 0 -5.0832886885435622 -3.1758120765394651 0 -3.1758120765394651 4.1378864208647723 0 0 0 0 -1.7133098239046376 -2.1595079045746388 0 -2.1595079045746388 1.7241615093407745 0 0 0 0 -4.2812366977165954 -3.0412720816271914 0 -3.0412720816271914 -0.64640792785319778 0 0 0 0 -31.779718468850291 -83.967411621312294 0 -83.967411621312294 60.961175451824602 0 0 0 0 -3.7360746608798654 -0.61284804211747179 0 -0.61284804211747179 -0.21946650352590091 0 0 0 0 193.09148599315131 17.972620918881148 0 17.972620918881148 -29.025781340719277 0 0 0 0 -73.413165851366017 15.835807078666676 0 15.835807078666676 77.839917691176197 0 0 0 0 -56.112251127447834 -34.546184247431938 0 -34.546184247431938 29.186070608860973 0 0 0 0 -14.49001676575952 -8.3902565149870725 0 -8.3902565149870725 33.31819266142702 0 0 0 0 -43.016379859660788 37.834896741653665 0 37.834896741653665 76.917871854846283 0 0 0 0 -23.806650274761523 -32.230896154040238 0 -32.230896154040238 17.907534089423734 0 0 0 0 -52.154655739721534 -56.594158065422107 0 -56.594158065422107 -1.940024428295601 0 0 0 0 -25.528049459351223 -14.084804936697765 0 -14.084804936697765 33.947740282332234 0 0 0 0 -5.9479864503814497 -22.421865485826856 0 -22.421865485826856 4.4098364109859176 0 0 0 0 -6.0225460418124896 -28.173750938252851 0 -28.173750938252851 36.342340791094443 0 0 0 0 0.72907146325655958 -8.3176331671875197 0 -8.3176331671875197 -8.838144688908681 0 0 0 0 30.576226831851869 -0.069271962906441331 0 -0.069271962906441331 32.469295764317849 0 0 0 0 1.7097352738785814 -2.1347535463662002 0 -2.1347535463662002 -1.5411497531087903 0 0 0 0 18.557635794864382 5.2528095320858483 0 5.2528095320858483 -4.6930655532632954 0 0 0 0 2.5584153283830346 42.250928760234729 0 42.250928760234729 54.99293384478915 0 0 0 0 0.78676093625043175 -2.5251943971975521 0 -2.5251943971975521 3.1228047870633215 0 0 0 0 -4.160382535638746 -37.517443971801185 0 -37.517443971801185 -15.630859670422069 0 0 0 0 3.5005182729651096 1.1253510716123856 0 1.1253510716123856 6.6292552831291687 0 0 0 0 -18.480718032120308 -16.881167041242406 0 -16.881167041242406 -10.422155716835732 0 0 0 0 0.33335978906759456 0.26351121064461047 0 0.26351121064461047 -2.3925236885013721 0 0 0 0 0.22254273096922955 0.3535178422839067 0 0.3535178422839067 0.59257126043398856 0 0 0 0 -3.9728247714342615 -21.043161982764559 0 -21.043161982764559 -9.5825137633692066 0 0 0 0 6.1830611358704459 1.8779054066117169 0 1.8779054066117169 13.857885758187876 0 0 0 0 43.097209868586731 -3.1366126830239409 0 -3.1366126830239409 -56.941481046910667 0 0 0 0 -2.6158063912890697 -7.3778730448625538 0 -7.3778730448625538 -17.146296229408108 0 0 0 0 -0.95045883564437039 -1.2848038026283604 0 -1.2848038026283604 0.28091890577632483 0 0 0 0 -3.1353230940824233 -1.8946607549000873 0 -1.8946607549000873 -26.624027257794296 0 0 0 0 1.7803418856871038 3.0045228336569334 0 3.0045228336569334 -11.849644960929993 0 0 0 0 -9.8547722592954727 9.5003192582598786 0 9.5003192582598786 -27.613892519431829 0 0 0 0 0.9911636648816966 -0.15252080477876007 0 -0.15252080477876007 -7.876135291198807 0 0 0 0 0.1572465112448318 0.032170880939474955 0 0.032170880939474955 -1.3912073597494388 0 0 0 0 -10.004255719977778 -53.744407958663942 0 -53.744407958663942 -54.280666297455355 0 0 0 0 -0.8869923823285788 -19.54571034815217 0 -19.54571034815217 -29.584939745454903 0 0 0 0 4.8646313476883734 -8.7766282278416838 0 -8.7766282278416838 -54.352133533897359 0 0 0 0 3.6591768906503148 -8.3005931053594395 0 -8.3005931053594395 -75.218986136925196 0 0 0 0 -11.706882573095982 -19.157857128403975 0 -19.157857128403975 -34.993813237872018 0 0 0 0 -0.97336776401948555 -10.646455821672134 0 -10.646455821672134 -31.215406790085581 0 0 0 0 -7.4093287222926847 -6.3540398079321676 0 -6.3540398079321676 -12.53770896777678 0 0 0 0 -2.429780192943781 5.3528446668597098 0 5.3528446668597098 3.7645551075420371 0 0 0 0 -12.671599051937164 -14.554180717140298 0 -14.554180717140298 3.7247444102031295 0 0 0 0 -7.4234405925398859 -17.164885271327638 0 -17.164885271327638 -25.315767091646194 0 0 0 0 -7.3355259403829223 -3.7621346467112744 0 -3.7621346467112744 -9.310830509751213 0 0 0 0 1.5685353627507084 -8.4860287860218477 0 -8.4860287860218477 -6.9954253566611442 0 0 0 0 -4.5733975206919695 -3.5980557469133601 0 -3.5980557469133601 -8.6912828984523003 0 0 0 0 -3.7857363598725442 -12.590532603153179 0 -12.590532603153179 -23.298095861668116 0 0 0 0 -9.9308039596705839 -3.7181101912556187 0 -3.7181101912556187 -44.874572000639091 0 0 0 0 1.1360870823350524 -7.0676321677055967 0 -7.0676321677055967 -43.502100086023347 0 0 0 0 -1.002380986197295 -7.5752583910971225 0 -7.5752583910971225 -45.76765237341715 0 0 0 0 -7.4444085079285287 -9.8217382603279475 0 -9.8217382603279475 -23.822992047122398 0 0 0 0 -9.1200050917459521 -17.601300514751529 0 -17.601300514751529 -50.115183596672068 0 0 0 0 -1.7467503232201125 -13.143495969576179 0 -13.143495969576179 -43.892923303938005 0 0 0 0 -7.1259193332798532 -1.0729874579719763 0 -1.0729874579719763 -17.061604232954778 0 0 0 0 -1.6244370833273933 -0.10113955018550769 0 -0.10113955018550769 -55.963453314308481 0 0 0 0 -8.9415262529755637 -19.784603492533279 0 -19.784603492533279 -63.550141657919994 0 0 0 0 0.4368663001710047 -8.3811746632954964 0 -8.3811746632954964 -54.47907318835496 0 0 0 0 0.13939845040075571 0.38477896450411286 0 0.38477896450411286 -0.038068983175371329 0 0 0 0 -16.484363527897585 -46.360795751634214 0 -46.360795751634214 -97.053807109636352 0 0 0 0 -9.5959743638086366 17.273139730284129 0 17.273139730284129 -13.185038782567062 0 0 0 0 -8.5697983951738479 -20.676677969704997 0 -20.676677969704997 -61.41027424891945 0 0 0 0 30.821197006219336 -47.850982737216327 0 -47.850982737216327 -64.600123718530085 0 0 0 0 -5.0367014528401342 20.097536371892602 0 20.097536371892602 -23.189868574128923 0 0 0 0 -10.106771100508467 4.455207359036649 0 4.455207359036649 -10.058572181222189 0 0 0 0 3.6373927305776306 7.4090134055004455 0 7.4090134055004455 -97.709804526386691 0 0 0 0 -2.6069892972747959 -5.1170269814140212 0 -5.1170269814140212 -7.9487738813717232 0 0 0 0 8.6914024932491429 -19.041880691099777 0 -19.041880691099777 -14.240901050383741 0 0 0 0 -6.9347662218701771 -34.455516579352661 0 -34.455516579352661 39.137103073614526 0 0 0 0 5.529271157456833 -4.3022022071986612 0 -4.3022022071986612 -17.870574382726545 0 0 0 0 -0.27757839807281925 0.94627912232181188 0 0.94627912232181188 -14.855840403172124 0 0 0 0 0.29631354380926567 -1.4491173685370595 0 -1.4491173685370595 -11.394020848913392 0 0 0 0 0.24979566235197126 -0.1347311962575759 0 -0.1347311962575759 -13.514295052224668 0 0 0 0 1.4754177038767011 -0.67282086113709738 0 -0.67282086113709738 -19.328178455144098 0 0 0 0 8.9318394879692278 -9.7942827207079972 0 -9.7942827207079972 -6.3207283170135042 0 0 0 0 3.0335889847129258 -1.5782789700586006 0 -1.5782789700586006 -11.426060184831858 0 0 0 0 -1.3260825769467601 -1.1132493487124862 0 -1.1132493487124862 -10.80527547765837 0 0 0 0 26.905699170931257 -47.606094088412647 0 -47.606094088412647 -33.803211280977848 0 0 0 0 -1.8860541235659598 -4.9364448925690487 0 -4.9364448925690487 -11.367581045918097 0 0 0 0 17.709463050223349 7.9396357361911214 0 7.9396357361911214 -0.70844838697212253 0 0 0 0 5.4853761393855827 -0.27842662194147938 0 -0.27842662194147938 -15.479871061643362 0 0 0 0 21.562696909986698 5.5113792980191647 0 5.5113792980191647 -63.609460220679068 0 0 0 0 -3.8714052680875284 -2.9569528340930447 0 -2.9569528340930447 -10.430464362536213 0 0 0 0 -0.3367018923759133 -3.3100902973014854 0 -3.3100902973014854 -10.451200332538065 0 0 0 0 36.530543978729384 -15.114230093295987 0 -15.114230093295987 -71.035898060079489 0 0 0 0 -27.497018439912381 26.189058499150747 0 26.189058499150747 50.528676025333425 0 0 0 0 0.82761822643919913 1.2559931596036904 0 1.2559931596036904 -27.13853510682759 0 0 0 0 0.023385822512722143 4.19081678947272 0 4.19081678947272 -23.488717827718574 0 0 0 0 13.66662567467165 15.184585197349747 0 15.184585197349747 -0.10741359763778746 0 0 0 0 0.15311133478296535 0.032183910063350529 0 0.032183910063350529 -9.2961391019899935 0 0 0 0 -20.499922165526641 2.2298061035376122 0 2.2298061035376122 19.031960893978066 0 0 0 0 -4.1985532364853952 -2.8254408384395902 0 -2.8254408384395902 -9.9909771129723595 0 0 0 0 -13.141038430631511 -4.9348109332412378 0 -4.9348109332412378 3.7849617449778634 0 0 0 0 -0.26476549569340868 0.33436287122826769 0 0.33436287122826769 -0.27119019772782949 0 0 0 0 11.289247234866934 0.39114512395508427 0 0.39114512395508427 -9.5586425065357616 0 0 0 0 4.2086594330085063 1.9697164950607657 0 1.9697164950607657 -12.206285336716064 0 0 0 0 -1.9956443152359498 -1.8804489574511081 0 -1.8804489574511081 -13.690249382090769 0 0 0 0 0.25448226423782216 3.0794877782243475 0 3.0794877782243475 -10.922911386525811 0 0 0 0 -0.45502890324393608 0.21386401080767903 0 0.21386401080767903 0.53925695715736488 0 0 0 0 -0.70157383002924689 0.83787359085090429 0 0.83787359085090429 2.9139159961587211 0 0 0 0 -1.0553286421697181 -0.059659011230699832 0 -0.059659011230699832 -5.3866076304763313 0 0 0 0 3.6303153791808427 -5.2102503534103164 0 -5.2102503534103164 -6.6369961522777885 0 0 0 0 0.64360294288235309 1.2883055710149165 0 1.2883055710149165 -5.7821749069926227 0 0 0 0 0.64946814005473641 0.72160439433683976 0 0.72160439433683976 -10.550938887237862 0 0 0 0 5.4691339616679215 6.2117378756342987 0 6.2117378756342987 -3.2806031676841485 0 0 0 0 -3.8250071945860782 -2.3621981359665369 0 -2.3621981359665369 -10.626432886117072 0 0 0 0 -10.579382915222823 -5.3553921221152905 0 -5.3553921221152905 -5.3422433741969826 0 0 0 0 -4.2745804951341144 -2.2440366571030497 0 -2.2440366571030497 -1.597084360458763 0 0 0 0 -1.8014708429954567 -0.66527488390789813 0 -0.66527488390789813 -20.613619922137786 0 0 0 0 -3.4178452832372841 -2.152311473961845 0 -2.152311473961845 -4.5715432824664504 0 0 0 0 -2.1973657970016802 0.073345975428082966 0 0.073345975428082966 -9.243125975788189 0 0 0 0 -0.78517340583601225 -0.4246293820894903 0 -0.4246293820894903 -2.7653681163739474 0 0 0 0 -6.1215290886298703 -7.9597801790704921 0 -7.9597801790704921 8.2154694163400563 0 0 0 0 0.19557861883015448 -17.203718317677044 0 -17.203718317677044 9.2580592012136549 0 0 0 0 -1.7652913282665308 -4.7301213645950497 0 -4.7301213645950497 -5.8552249984962419 0 0 0 0 -3.4474735865634329 -3.7673491688749436 0 -3.7673491688749436 -8.9035707505699975 0 0 0 0 -4.0891998090787638 -2.0489566238902626 0 -2.0489566238902626 -8.731112196565249 0 0 0 0 -1.7308443228727697 -10.024426206877479 0 -10.024426206877479 -32.199109953703555 0 0 0 0 1.2623158470975682 -4.8312226036799757 0 -4.8312226036799757 -29.346098871455979 0 0 0 0 -4.3369437651897442 -3.1235141554159327 0 -3.1235141554159327 -6.3638390544897447 0 0 0 0 -4.4030318753005409 -2.5366621207466382 0 -2.5366621207466382 -1.2298238776752668 0 0 0 0 -7.2330571426817869 0.21257645029254491 0 0.21257645029254491 -20.292577135926877 0 0 0 0 -3.3505091183296827 -1.4728553801596718 0 -1.4728553801596718 -3.6809803394207847 0 0 0 0 -7.7018831882870131 -6.2340594350507672 0 -6.2340594350507672 -23.353832842689144 0 0 0 0 -5.1247192146109626 -2.9159871511637903 0 -2.9159871511637903 -33.259197087783832 0 0 0 0 -2.9960748648009314 2.4603467522042592 0 2.4603467522042592 -36.420190522877419 0 0 0 0 -3.7763311063015417 -4.7713391162848691 0 -4.7713391162848691 -4.9143105768948701 0 0 0 0 -0.53449626409960571 -0.59751975887764619 0 -0.59751975887764619 -0.6500089595794325 0 0 0 0 -0.37663865678602804 0.61729493244638434 0 0.61729493244638434 -40.462843560928377 0 0 0 0 -6.0997079562018541 -8.2892084757495468 0 -8.2892084757495468 -46.072633080614594 0 0 0 0 -6.2116448397663362 -2.6112992614807808 0 -2.6112992614807808 -38.746443675842784 0 0 0 0 -4.5272456339291978 0.29614090966401818 0 0.29614090966401818 -35.449434000805013 0 0 0 0 -3.2406567152903847 -3.5056428658076584 0 -3.5056428658076584 -46.499652395200428 0 0 0 0 -3.2706053248838032 -4.4683896482470118 0 -4.4683896482470118 -48.102991308912351 0 0 0 0 -2.5544982729639116 -4.9685553127349067 0 -4.9685553127349067 -42.289107051122301 0 0 0 0 -4.8667694512038224 -7.3065605100164248 0 -7.3065605100164248 -39.438142989554763 0 0 0 0 -3.9272953508759798 -6.8938183541927174 0 -6.8938183541927174 -51.107600160788024 0 0 0 0 -2.6427486482812128 -10.748716552097903 0 -10.748716552097903 -45.49795867048033 0 0 0 0 -7.8611397527569977 -10.11686174038141 0 -10.11686174038141 -47.121739781386736 0 0 0 0 -5.703811979387666 -12.929616091505977 0 -12.929616091505977 -55.887850641928026 0 0 0 0 0.75720077643524064 -12.105505354844354 0 -12.105505354844354 -56.35365342719706 0 0 0 0 -11.520420357793228 -7.4823671977369486 0 -7.4823671977369486 -57.47380065071593 0 0 0 0 -8.2488026269551398 -12.551373570965552 0 -12.551373570965552 -60.226237697019315 0 0 0 0 8.8086231311292522 -14.602450489647254 0 -14.602450489647254 -66.259889138866356 0 0 0 0 0.183585905321479 -11.227943912504315 0 -11.227943912504315 -50.841366486736206 0 0 0 0 11.889353898647016 -21.568936760460133 0 -21.568936760460133 -54.969605796490214 0 0 0 0 0.55802638602079924 -13.542863522439688 0 -13.542863522439688 -41.752076056513033 0 0 0 0 -2.6936585536831519 -9.6629287273992901 0 -9.6629287273992901 -38.495483706577943 0 0 0 0 0.84116894918929574 -13.593699309642034 0 -13.593699309642034 -49.147867178605338 0 0 0 0 -3.3559699672495356 -4.8170270385675167 0 -4.8170270385675167 -37.064104227959433 0 0 0 0 -3.1292542143811488 -16.240509839351034 0 -16.240509839351034 -37.979499975217323 0 0 0 0 -4.9511024270379949 -11.177153127939619 0 -11.177153127939619 -19.940737606358965 0 0 0 0 -10.927007555792329 -14.782131052639897 0 -14.782131052639897 -16.901792184596161 0 0 0 0 -9.2224665995397572 -22.103324516208204 0 -22.103324516208204 -35.497983584941039 0 0 0 0 -20.539675078309074 -14.971192368747779 0 -14.971192368747779 -4.9469120194611378 0 0 0 0 -13.716770373386794 -21.303550625674461 0 -21.303550625674461 -28.646110868886353 0 0 0 0 -22.198330642802148 -20.586329498805753 0 -20.586329498805753 -11.1336996430623 0 0 0 0 -17.256463058812187 -16.998936088579967 0 -16.998936088579967 -21.785529227487132 0 0 0 0 -33.963330891895566 -35.156956643614535 0 -35.156956643614535 -29.786065069040433 0 0 0 0 -7.52486447980516 -40.65415035569356 0 -40.65415035569356 -59.107114491547691 0 0 0 0 -85.562699500407689 -48.038866003585781 0 -48.038866003585781 -25.288204269309972 0 0 0 0 -27.947751831616017 -16.801916326595062 0 -16.801916326595062 -15.099250677759301 0 0 0 0 -0.32615611693739766 -20.237202485146554 0 -20.237202485146554 -39.55932967855324 0 0 0 0 1.1699345902177356 -21.551010545656254 0 -21.551010545656254 -53.68584022852292 0 0 0 0 -3.3231420483934926 -31.242145609818181 0 -31.242145609818181 -48.09601994573427 0 0 0 0 6.7570360206132136 -31.088800175963797 0 -31.088800175963797 -70.65068177288731 0 0 0 0 25.794727785755754 -22.880746926776737 0 -22.880746926776737 -70.873846944921667 0 0 0 0 14.900096852463946 -43.016523812622097 0 -43.016523812622097 -97.558483391223035 0 0 0 0 -16.951121885169073 -64.77549518502201 0 -64.77549518502201 -100.45319109742468 0 0 0 0 -10.669830329812953 -44.377301021120275 0 -44.377301021120275 -60.638746924169482 0 0 0 0 -30.815295191042196 -48.447031303233643 0 -48.447031303233643 -84.389510144888618 0 0 0 0 17.394838763342364 5.2745087296372049 0 5.2745087296372049 -70.051368285744559 0 0 0 0 5.2836464811609858 -35.943499529924054 0 -35.943499529924054 -172.78742397635892 0 0 0 0 21.676170439440284 -12.492714527552948 0 -12.492714527552948 -150.51320998529843 0 0 0 0 12.665129858617661 -24.709799462191938 0 -24.709799462191938 -12.838306482987491 0 0 0 0 -0.93141968170250489 -0.58111573603142452 0 -0.58111573603142452 -0.25510035026195399 0 0 0 0 31.875179317936016 -19.517186780782936 0 -19.517186780782936 -65.074035122018586 0 0 0 0 21.00809653515185 1.6903267997869307 0 1.6903267997869307 -14.242607535017328 0 0 0 0 -37.689078821975059 -82.360076767527616 0 -82.360076767527616 -0.041469984346804267 0 0 0 0 23.404642875729877 -23.191714454235694 0 -23.191714454235694 -104.37299342959045 0 0 0 0 -14.694538222046305 6.390651438459372 0 6.390651438459372 -77.147162160787957 0 0 0 0 -39.876786475204966 -10.416011133325014 0 -10.416011133325014 -59.265481181721043 0 0 0 0 17.299817823527803 -17.474108214536727 0 -17.474108214536727 -65.328933807776934 0 0 0 0 17.725715164544624 -17.202719961063394 0 -17.202719961063394 -65.415992725314027 0 0 0 0 12.893239443291122 -7.098630156370632 0 -7.098630156370632 -72.744543201001534 0 0 0 0 12.060410082880026 4.3176610341299693 0 4.3176610341299693 -8.4383971150859907 0 0 0 0 -7.7269478178800455 -6.673613259117019 0 -6.673613259117019 11.13902981505754 0 0 0 0 -29.750045127501494 13.569456788624109 0 13.569456788624109 1.6756288113178925 0 0 0 0 -20.512921282764182 21.854758695213945 0 21.854758695213945 -2.9381939658786251 0 0 0 0 -23.806334354897217 22.539619282374986 0 22.539619282374986 2.2408334212666432 0 0 0 0 -18.153273221050767 24.233136435592201 0 24.233136435592201 2.7251076097575719 0 0 0 0 -58.981339920963592 46.705111201598697 0 46.705111201598697 -7.1960599730003878 0 0 0 0 -58.636482837609947 7.5379981800762721 0 7.5379981800762721 8.0000425366555703 0 0 0 0 17.800009846550836 55.526891792063481 0 55.526891792063481 -78.454042235288853 0 0 0 0 -0.19893741020475275 0.36861068317678392 0 0.36861068317678392 -0.7903273675124356 0 0 0 0 -19.159503680719951 -57.459464914981126 0 -57.459464914981126 -72.980044475178829 0 0 0 0 -12.29445684535915 -28.739818728192233 0 -28.739818728192233 -72.325075562127722 0 0 0 0 -19.582590639078944 -58.71530451643082 0 -58.71530451643082 -69.4508944522143 0 0 0 0 -32.558175542760637 -87.49635199939263 0 -87.49635199939263 -121.18977410137336 0 0 0 0 -60.01925506844043 -80.405699392593306 0 -80.405699392593306 -12.070662101958305 0 0 0 0 -29.242409630045813 -23.926490197066869 0 -23.926490197066869 -98.990610015180778 0 0 0 0 -68.941440044900673 -64.107436121029423 0 -64.107436121029423 -174.23101880106617 0 0 0 0 -0.54787161045224941 -0.24679612206794621 0 -0.24679612206794621 -0.14789678563002628 0 0 0 0 -45.385844601446252 -50.062894676626229 0 -50.062894676626229 42.944129110414679 0 0 0 0 -36.415813492599 -89.412511121753369 0 -89.412511121753369 -154.88933791100976 0 0 0 0 10.272438362644095 0.70146605842768395 0 0.70146605842768395 -61.913657592418758 0 0 0 0 -127.89161423987116 -106.7156932149901 0 -106.7156932149901 -79.893127704360268 0 0 0 0 0.038895793596812833 -0.19785614003789409 0 -0.19785614003789409 -0.85830427919145613 0 0 0 0 -43.615882208596332 -90.979260857655504 0 -90.979260857655504 -170.51989489547123 0 0 0 0 21.319700712774875 -1.426367543112292 0 -1.426367543112292 -126.90107762580146 0 0 0 0 7.4179833792068166 22.304596236070665 0 22.304596236070665 -18.147182162069385 0 0 0 0 -25.431031951397699 -24.323854747298356 0 -24.323854747298356 -13.412946959195096 0 0 0 0 -14.702315803440172 -37.602196883933004 0 -37.602196883933004 -87.377728935020514 0 0 0 0 -35.42603156329892 -30.921576025837567 0 -30.921576025837567 -53.03835702987044 0 0 0 0 -21.634318184753283 1.2334377181527998 0 1.2334377181527998 -51.474363800749643 0 0 0 0 -14.656059679932241 -8.5227481874837849 0 -8.5227481874837849 -41.732092898208521 0 0 0 0 -2.5998179389077904 -14.911455966764834 0 -14.911455966764834 -47.244049516819359 0 0 0 0 -14.436931347513337 7.8056343293119426 0 7.8056343293119426 -19.874936559531534 0 0 0 0 -13.492284277606359 18.166846068998439 0 18.166846068998439 -9.076704439079748 0 0 0 0 -0.59726999744327092 1.0261246007273535 0 1.0261246007273535 -1.6219879449020453 0 0 0 0 4.4762177715960547 -16.218821362855977 0 -16.218821362855977 4.6745124154858786 0 0 0 0 8.6015074364420343 -4.7837124628367746 0 -4.7837124628367746 -13.022768356951701 0 0 0 0 -7.999976771644846 -4.8633891490072898 0 -4.8633891490072898 12.174791805370205 0 0 0 0 8.9019373147364149 -8.1812457851803515 0 -8.1812457851803515 -13.622583326487074 0 0 0 0 -27.451570308478267 10.278596965828001 0 10.278596965828001 23.496152782449826 0 0 0 0 -0.20437269579269923 -3.2130576220625926 0 -3.2130576220625926 -16.954467068345366 0 0 0 0 -0.0032394279463730663 -0.16556216850040251 0 -0.16556216850040251 0.067805961566038242 0 0 0 0 -7.87904364142193 -7.1795228575817873 0 -7.1795228575817873 10.214564418424743 0 0 0 0 -11.732883868934437 -0.90394210396743802 0 -0.90394210396743802 -0.13397628619190982 0 0 0 0 0.19762211590108214 -0.10071713581868347 0 -0.10071713581868347 -1.9857843645110149 0 0 0 0 -1.3771196725676873 3.7936660584003903 0 3.7936660584003903 6.3534679823165732 0 0 0 0 -0.32231030610498801 0.0692833572405116 0 0.0692833572405116 0.079373668818711884 0 0 0 0 -0.6970064965991889 1.16834430313365 0 1.16834430313365 -2.003828579040984 0 0 0 0 0.028055082719297797 0.035497089056943931 0 0.035497089056943931 -0.12668839465108839 0 0 0 0 -0.0025299112414813862 5.7447728348096234 0 5.7447728348096234 -4.9504560268303521 0 0 0 0 11.54428193973763 16.749312337520223 0 16.749312337520223 -0.086723463172461379 0 0 0 0 -3.4048001139994994 5.6306247240104312 0 5.6306247240104312 13.768101915136327 0 0 0 0 4.0906037948038829 5.4149156363408792 0 5.4149156363408792 10.295185492312839 0 0 0 0 4.6187322548319116 6.1330356039783283 0 6.1330356039783283 -4.7496967501691643 0 0 0 0 -0.81952088694870895 4.9840492479567615 0 4.9840492479567615 -0.79147040384168577 0 0 0 0 -5.3356104613121715 3.7299435057259416 0 3.7299435057259416 -4.6906680953813975 0 0 0 0 -1.1312126695011102 2.7178338762000749 0 2.7178338762000749 -8.2713135195629093 0 0 0 0 2.7428571581626784 12.676927918233787 0 12.676927918233787 -3.1345094539152001 0 0 0 0 0.13453425598277136 5.4701182683005669 0 5.4701182683005669 -8.2572364950956398 0 0 0 0 -0.052260541580324116 6.2432392451223819 0 6.2432392451223819 -0.89045538384561951 0 0 0 0 10.695072306331895 8.5356642341444058 0 8.5356642341444058 -9.0718362763709592 0 0 0 0 4.6503892184123288 24.709991200180298 0 24.709991200180298 -13.63009728546831 0 0 0 0 1.137744601592658 6.6058865981539299 0 6.6058865981539299 -7.4223344008885306 0 0 0 0 -0.20152021054445868 10.764996037497156 0 10.764996037497156 -8.1132046605919186 0 0 0 0 1.4986194317323225 7.020944245827593 0 7.020944245827593 -6.7027243680925039 0 0 0 0 -17.202599116271358 16.646435566792491 0 16.646435566792491 -7.6802257229865063 0 0 0 0 -18.017864577227556 17.264276983771992 0 17.264276983771992 -3.1183091842268738 0 0 0 0 -9.1592721038418858 5.7663030163876101 0 5.7663030163876101 3.0947140280432848 0 0 0 0 -11.737587887708287 7.9343031376678255 0 7.9343031376678255 -6.4990888612763626 0 0 0 0 -15.047652799662387 12.479073641463316 0 12.479073641463316 -12.509116519471263 0 0 0 0 -13.421430293530648 3.9684708356382998 0 3.9684708356382998 -12.571498835119712 0 0 0 0 -5.5207162632336804 9.0128618264326406 0 9.0128618264326406 -4.38156529470848 0 0 0 0 -5.4827238089847015 9.0171855074876248 0 9.0171855074876248 -11.786227570486744 0 0 0 0 -9.9158958253406126 4.5421583951703042 0 4.5421583951703042 -6.8129058748870648 0 0 0 0 -5.3434372341134804 3.9786946343623413 0 3.9786946343623413 -11.293978850796748 0 0 0 0 -10.090255882747897 5.6774802124327834 0 5.6774802124327834 -14.171912912235712 0 0 0 0 -14.855221305188934 3.0807188158303234 0 3.0807188158303234 -9.1176880396747038 0 0 0 0 -10.062693052219402 1.3764355844959937 0 1.3764355844959937 -12.472102631263851 0 0 0 0 -14.687502721390558 1.1194218335564017 0 1.1194218335564017 -9.6716175207061497 0 0 0 0 -11.348668961778458 -2.1094108264321676 0 -2.1094108264321676 -10.950996862880402 0 0 0 0 -13.432631539974864 0.55131688584719996 0 0.55131688584719996 -12.217998367310315 0 0 0 0 -9.3835545241490763 0.47359147473332541 0 0.47359147473332541 -10.748444156712452 0 0 0 0 -5.910579688674602 -2.4576563513882945 0 -2.4576563513882945 -9.3557004453762147 0 0 0 0 -5.6817963773924021 1.6507894081953509 0 1.6507894081953509 -10.487080964511165 0 0 0 0 -10.04004169763715 1.0295195886332351 0 1.0295195886332351 -7.180551040393766 0 0 0 0 -5.3084791949858072 0.12798016207577234 0 0.12798016207577234 -5.0435049868469832 0 0 0 0 -0.61368886135778666 -0.022563897858731252 0 -0.022563897858731252 -9.151579471128116 0 0 0 0 0.029853732531591959 -2.002090122836762 0 -2.002090122836762 -3.0750153544421437 0 0 0 0 0.74750348131919964 -3.8729060667903923 0 -3.8729060667903923 -5.3573875018498711 0 0 0 0 5.4083649368019451 0.76459821999748101 0 0.76459821999748101 -6.0667329418640747 0 0 0 0 -4.8607580107584454 -0.052252886476082949 0 -0.052252886476082949 -7.866833396669108 0 0 0 0 -0.23472078308031996 -1.8556196818619242 0 -1.8556196818619242 -8.9473511492947182 0 0 0 0 -0.88078554977346357 -3.8185126245534775 0 -3.8185126245534775 -10.681362464218694 0 0 0 0 3.2871310734085455 -3.0864938536328737 0 -3.0864938536328737 -13.218965314467368 0 0 0 0 4.3287452439390108 -5.1775984313042045 0 -5.1775984313042045 -9.6071023825802513 0 0 0 0 3.8618875648317044 -6.2768889190123218 0 -6.2768889190123218 -12.94428972307486 0 0 0 0 1.3912828873001306 -3.3063437801540667 0 -3.3063437801540667 -16.460036438357065 0 0 0 0 1.3910234869922533 -3.2816354868419921 0 -3.2816354868419921 -16.257856752518592 0 0 0 0 -4.5325198233472292 -1.6285110894834816 0 -1.6285110894834816 -14.468044372563327 0 0 0 0 -4.2282100458010063 -3.5231958316002192 0 -3.5231958316002192 -12.11199663704997 0 0 0 0 -12.278600309090052 0.38938834888017482 0 0.38938834888017482 -13.184560727854887 0 0 0 0 -11.342431722081301 -0.013979433164394095 0 -0.013979433164394095 -12.152717637975002 0 0 0 0 -11.643022632767952 -1.1496382519696908 0 -1.1496382519696908 -12.980643762175873 0 0 0 0 -6.0958097075190381 -3.0758563978849907 0 -3.0758563978849907 -11.468228727200113 0 0 0 0 -4.3323128137585627 -1.006651662323975 0 -1.006651662323975 -12.553553178753191 0 0 0 0 -0.49215019249955749 0.42646164652022911 0 0.42646164652022911 -1.1872624146950899 0 0 0 0 -3.2497954735802779 -5.1451030492823691 0 -5.1451030492823691 -2.836170335686802 0 0 0 0 -0.13209657450715895 0.46875661743445107 0 0.46875661743445107 -1.8471724433625241 0 0 0 0 0.9481633963657714 -1.6068496351142585 0 -1.6068496351142585 -1.3429136936144346 0 0 0 0 -0.45825915258541139 0.62756433611680085 0 0.62756433611680085 -1.3501982178472955 0 0 0 0 14.775397779214245 9.9291402249987186 0 9.9291402249987186 0.76371679889598454 0 0 0 0 0.14133084076740321 0.029840142015542526 0 0.029840142015542526 -0.44801243408703417 0 0 0 0 7.1680969372073378 5.6858063169801198 0 5.6858063169801198 5.3260998569636513 0 0 0 0 16.434193943212108 2.8538665477392158 0 2.8538665477392158 -2.8492190375845894 0 0 0 0 5.4070162586945116 -0.44853200052159536 0 -0.44853200052159536 0.50228527610534002 0 0 0 0 13.151668036691717 -1.0503051276764381 0 -1.0503051276764381 -0.75064593295746818 0 0 0 0 5.2265200816023025 -1.4089596645824258 0 -1.4089596645824258 -4.5148407211376025 0 0 0 0 9.5184396504869255 4.8927387613596238 0 4.8927387613596238 -0.7931208023671843 0 0 0 0 5.468652166094671 -1.5209472936314796 0 -1.5209472936314796 -4.4825190154379015 0 0 0 0 5.2010664201225154 -7.2489206394139956 0 -7.2489206394139956 -11.83649857078251 0 0 0 0 4.3862051291353055 -3.7201271078686204 0 -3.7201271078686204 -14.653931436332982 0 0 0 0 3.1097404305194232 -2.4453964758947677 0 -2.4453964758947677 0.95456324123438208 0 0 0 0 3.2226352403189367 -7.5288848013836969 0 -7.5288848013836969 -12.784493974193538 0 0 0 0 -0.048280266010705564 0.051358671701568159 0 0.051358671701568159 -0.14991153990487227 0 0 0 0 -1.1211949350879422 3.5135090281914358 0 3.5135090281914358 -26.319863115922999 0 0 0 0 -1.3731786085400017 0.12943587318653726 0 0.12943587318653726 0.467618138322905 0 0 0 0 -1.7866420146974633 2.0031563689537961 0 2.0031563689537961 -26.926139759774742 0 0 0 0 0.19153998581932585 0.32557617102228598 0 0.32557617102228598 -1.8573105840388449 0 0 0 0 -1.14035503666355 0.013852113012490008 0 0.013852113012490008 -1.8438622652065533 0 0 0 0 -0.024099871839965203 0.087271039101203929 0 0.087271039101203929 -0.095441923326232914 0 0 0 0 0.59527906214589166 2.4319784883291504 0 2.4319784883291504 -12.384259826846346 0 0 0 0 -0.18829069726754843 0.6294473348528582 0 0.6294473348528582 -1.7344637032019921 0 0 0 0 -2.2164132098912432 -2.0920352438262171 0 -2.0920352438262171 14.141260029498056 0 0 0 0 0.45836128684823052 1.2437864428502508 0 1.2437864428502508 -11.858943867933704 0 0 0 0 -0.064244473000144353 0.59134105662133152 0 0.59134105662133152 -1.8956904053691233 0 0 0 0 -4.0286982571144563 -3.1827837512987571 0 -3.1827837512987571 -22.664400490860885 0 0 0 0 0.28447373289805 2.8782944568998801 0 2.8782944568998801 -30.789928901685926 0 0 0 0 5.6467521240329006 1.6283703422878943 0 1.6283703422878943 -28.287150528337236 0 0 0 0 7.6948905788667616 -5.0243466379731672 0 -5.0243466379731672 -25.986195769924052 0 0 0 0 6.1966197776050649 -6.442815830568577 0 -6.442815830568577 -17.77227550565749 0 0 0 0 5.7702445213508327 -3.2167117438303876 0 -3.2167117438303876 -21.555559112369792 0 0 0 0 6.3641669275282879 -1.4753382419117003 0 -1.4753382419117003 -20.468374002319251 0 0 0 0 2.7365003973577586 2.4087482241473026 0 2.4087482241473026 -19.22853479477169 0 0 0 0 4.3152839671847687 -0.51672905882946907 0 -0.51672905882946907 -20.911772971968617 0 0 0 0 4.6254805669598227 -1.6800233182841566 0 -1.6800233182841566 -17.608852902952378 0 0 0 0 -4.9227757979427906 -0.85943146190294328 0 -0.85943146190294328 -10.624644670262455 0 0 0 0 -7.6483788626740079 4.2362977819669823 0 4.2362977819669823 -20.215725329506427 0 0 0 0 -3.4876244623626462 0.53988465993745649 0 0.53988465993745649 -13.547663171810882 0 0 0 0 -18.056339190472308 -0.80857041341371394 0 -0.80857041341371394 -10.08130265019804 0 0 0 0 -2.2026997836344435 1.4337850059981747 0 1.4337850059981747 -15.447824602827268 0 0 0 0 -0.36734132214610327 -3.2986206695670433 0 -3.2986206695670433 -16.015685991827695 0 0 0 0 4.7905476028054181 -4.2787284184596501 0 -4.2787284184596501 -16.693690839349557 0 0 0 0 1.5688344552766011 -2.275875262957527 0 -2.275875262957527 -17.415969237469881 0 0 0 0 4.310953246477311 -0.99746744373726415 0 -0.99746744373726415 -17.059890935644887 0 0 0 0 0.83727651376084467 0.17363904307367317 0 0.17363904307367317 0.26218684100017614 0 0 0 0 3.4970607917375673 0.27187245193817944 0 0.27187245193817944 -18.147762456859141 0 0 0 0 3.2035891559619358 0.85161371013145981 0 0.85161371013145981 -17.272437271028139 0 0 0 0 3.3540147073622393 14.460729270690763 0 14.460729270690763 0.8059816274668492 0 0 0 0 -37.622865179772134 -10.768476777650108 0 -10.768476777650108 28.118483175068604 0 0 0 0 -74.505242148841944 -65.21863316012093 0 -65.21863316012093 -25.250320655663586 0 0 0 0 -9.5019833284795823 -24.94001475021804 0 -24.94001475021804 -104.30146587964236 0 0 0 0 -36.623114174265481 78.126482993189427 0 78.126482993189427 -25.922717898985866 0 0 0 0 4.2840818723223038 37.574371098417714 0 37.574371098417714 13.76961069060178 0 0 0 0 55.110641063027742 33.854981625084065 0 33.854981625084065 -26.639007465738814 0 0 0 0 6.8848501478752411 27.232546826388742 0 27.232546826388742 -8.326776468177286 0 0 0 0 7.5636159966675223 37.876397780212073 0 37.876397780212073 -104.13632347131329 0 0 0 0 -20.856024859152058 -59.398110688819997 0 -59.398110688819997 -80.702493115733319 0 0 0 0 -16.73255678954456 -24.940669304758217 0 -24.940669304758217 -6.0366049101144199 0 0 0 0 28.412010372498116 -42.839235412071503 0 -42.839235412071503 -29.188101174344865 0 0 0 0 21.123725734224308 -6.849851287866727 0 -6.849851287866727 -17.332870787275624 0 0 0 0 -0.34893555912663743 0.27869776962369341 0 0.27869776962369341 -5.4082960476761954 0 0 0 0 -84.444778245794112 13.788584585591849 0 13.788584585591849 -26.500451218868193 0 0 0 0 -97.067361885840683 -23.641466877206312 0 -23.641466877206312 -8.5142993268518694 0 0 0 0 9.2352251119742448 -2.9714695457246876 0 -2.9714695457246876 -24.423038179756645 0 0 0 0 -1.4631994657140774 -4.2083648369834705 0 -4.2083648369834705 -12.20110551757773 0 0 0 0 2.3211326503215313 0.067825724354151573 0 0.067825724354151573 -1.8034216393254865 0 0 0 0 0.32405344175811268 0.31240681242675228 0 0.31240681242675228 -2.254720542179474 0 0 0 0 68.325739732312741 13.419476042128736 0 13.419476042128736 -6.7712382774584512 0 0 0 0 16.184235907442371 7.8128291597934094 0 7.8128291597934094 -22.811959745804472 0 0 0 0 0.048990502105656031 0.30335685619087194 0 0.30335685619087194 0.16917102811188156 0 0 0 0 -15.679104864075953 -8.1077298628393919 0 -8.1077298628393919 7.3202686068510729 0 0 0 0 84.020087502777983 -13.940716780558034 0 -13.940716780558034 -19.413427851325196 0 0 0 0 53.384264163464408 17.487580741208632 0 17.487580741208632 -0.87435749452083655 0 0 0 0 4.1854345067561098 -0.20270229922698491 0 -0.20270229922698491 -21.086761250821979 0 0 0 0 0.9528236723024317 -0.32672012525738281 0 -0.32672012525738281 -1.6697108376107368 0 0 0 0 69.606563992208976 -13.83612312414823 0 -13.83612312414823 -36.036523343311728 0 0 0 0 0.74161185242669114 -2.5534182772548002 0 -2.5534182772548002 -6.4399334130438532 0 0 0 0 -1.2827618784631341 0.94942645162586814 0 0.94942645162586814 -11.467991698932337 0 0 0 0 -0.43893343126750972 2.4357283787330783 0 2.4357283787330783 -3.3561803914083006 0 0 0 0 -1.1098091911194032 1.4239968896093274 0 1.4239968896093274 -3.9294122393584985 0 0 0 0 -4.5121646371715087 -1.8887692695566329 0 -1.8887692695566329 -16.342799290922756 0 0 0 0 -1.6172621230419395 3.9613956594794786 0 3.9613956594794786 -15.240578664751865 0 0 0 0 -0.066113859430501964 0.44725777900820241 0 0.44725777900820241 -0.82494106354096952 0 0 0 0 30.243617769442608 -5.1381898486793034 0 -5.1381898486793034 -4.6070329239051375 0 0 0 0 -0.90409698683301043 -0.32507466597447632 0 -0.32507466597447632 -1.2534254579216872 0 0 0 0 31.842699231908341 -19.347123600902478 0 -19.347123600902478 -21.048189123124928 0 0 0 0 -5.1821002068851101 9.0310291154820561 0 9.0310291154820561 -34.065888217091924 0 0 0 0 -4.8536257768512314 12.535507944813617 0 12.535507944813617 -71.209460787674288 0 0 0 0 4.9831030549567004 -6.4458288866819657 0 -6.4458288866819657 -68.145437886657874 0 0 0 0 4.4605742678769467 -3.3904309938992299 0 -3.3904309938992299 -38.432702126034201 0 0 0 0 3.625869178317771 1.384830435782078 0 1.384830435782078 -39.686284338858513 0 0 0 0 -50.871326122621134 -0.91362804551406462 0 -0.91362804551406462 -20.328361354479512 0 0 0 0 -13.181698739058447 66.686612706782398 0 66.686612706782398 26.894430697137977 0 0 0 0 0.95725897426987316 5.7153402200941148 0 5.7153402200941148 -20.235576379230867 0 0 0 0 -50.32221367752868 -37.465796968689347 0 -37.465796968689347 -5.4438912132079054 0 0 0 0 -26.507759999156406 -18.022272336632568 0 -18.022272336632568 15.962077258372119 0 0 0 0 -25.55379803711071 -25.55987375197401 0 -25.55987375197401 -14.474382712587158 0 0 0 0 1.6126838462250277 6.4364637058516285 0 6.4364637058516285 -22.478257217995839 0 0 0 0 -30.340548241873648 -56.162514593959941 0 -56.162514593959941 -22.638722321633679 0 0 0 0 -47.762191929843084 -7.0821991116717982 0 -7.0821991116717982 -96.925359022077828 0 0 0 0 0.80672398215551766 14.450828888869751 0 14.450828888869751 -135.60039069925278 0 0 0 0 -0.66602450749014608 -0.33794308083633329 0 -0.33794308083633329 0.10865271425117307 0 0 0 0 -30.335245696076981 -47.662135334644745 0 -47.662135334644745 8.9298322008223181 0 0 0 0 -27.797964440883788 -64.784034939907542 0 -64.784034939907542 -84.165034101094761 0 0 0 0 82.549968848233675 131.54896728088173 0 131.54896728088173 3.7149590950812126 0 0 0 0 101.10775898291067 -1.1527472795123686 0 -1.1527472795123686 -24.176210972731496 0 0 0 0 12.050236832244536 -41.772602220079989 0 -41.772602220079989 20.79698770050345 0 0 0 0 17.210468541933551 31.818670548919727 0 31.818670548919727 -1.276878161706918 0 0 0 0 10.15866785668635 -10.933618728736747 0 -10.933618728736747 12.17048575105764 0 0 0 0 -0.52634476545381403 24.466400542312385 0 24.466400542312385 -11.739237456640694 0 0 0 0 -3.9186186053219672 17.607780688495836 0 17.607780688495836 -13.072480724065827 0 0 0 0 1.2202958574398508 20.005203679580518 0 20.005203679580518 -2.6372545517901926 0 0 0 0 23.888510305279624 30.965022273851901 0 30.965022273851901 -17.132341748107137 0 0 0 0 1.506631865762273 36.303032117339171 0 36.303032117339171 -18.069087867158487 0 0 0 0 39.878939025391674 26.381543716859596 0 26.381543716859596 -31.971798514084185 0 0 0 0 -42.901591860868393 35.791231290881115 0 35.791231290881115 -14.449594640976557 0 0 0 0 -35.153579845795406 19.75418734143453 0 19.75418734143453 -35.330298882592615 0 0 0 0 -36.756111125743928 67.270498246623447 0 67.270498246623447 -32.778993548932704 0 0 0 0 84.330462438296991 55.80711988734447 0 55.80711988734447 -75.398449731551409 0 0 0 0 43.123650585479936 99.901554951118442 0 99.901554951118442 -66.056866997996622 0 0 0 0 -45.782444750075911 48.753138290884181 0 48.753138290884181 -39.426900668415783 0 0 0 0 0.44603813839553841 -0.32431052192745513 0 -0.32431052192745513 -1.9375818168898356 0 0 0 0 18.913558789620993 -44.884229623937244 0 -44.884229623937244 -11.589868310407383 0 0 0 0 95.237672720118368 110.12292475218334 0 110.12292475218334 -69.55008050340075 0 0 0 0 115.25513465089134 24.529124976173648 0 24.529124976173648 -37.718283745026383 0 0 0 0 34.883915511850546 22.342887633109058 0 22.342887633109058 -5.8399510777499017 0 0 0 0 143.18415079246972 -95.107112664733904 0 -95.107112664733904 -87.70547369768974 0 0 0 0 -147.75347112157522 141.67411839243414 0 141.67411839243414 55.118207140212689 0 0 0 0 -14.760070115848521 -11.714083105443024 0 -11.714083105443024 -28.04849160307765 0 0 0 0 -27.040254758292349 -34.838173238242916 0 -34.838173238242916 -19.289517346881439 0 0 0 0 -6.0824197848589847 -30.654727209815519 0 -30.654727209815519 -76.888994339829537 0 0 0 0 -3.663378695845978 -20.375505537553067 0 -20.375505537553067 -46.268488425021133 0 0 0 0 -2.4132693440332105 -13.530685732699567 0 -13.530685732699567 -40.211212301976047 0 0 0 0 3.720321847272686 -8.3356278746093722 0 -8.3356278746093722 -46.264694036696483 0 0 0 0 -2.4063421171657695 -11.145724935222164 0 -11.145724935222164 -40.892127898525359 0 0 0 0 0.93115009277482841 -6.1768819713702214 0 -6.1768819713702214 -32.731602701009706 0 0 0 0 -7.8744066450733499 -8.9450320435787489 0 -8.9450320435787489 -33.58725597810826 0 0 0 0 2.5971897956652015 -9.8244459736429235 0 -9.8244459736429235 -40.585822627313519 0 0 0 0 2.4274476399481211 5.7136428758015549 0 5.7136428758015549 -22.47195338223959 0 0 0 0 -14.587513478172923 -14.079228882939105 0 -14.079228882939105 -35.392014638705177 0 0 0 0 25.74763620774921 21.734736316346073 0 21.734736316346073 -4.0495035923158866 0 0 0 0 22.742848524157409 8.5482519395264944 0 8.5482519395264944 -2.8577353727291666 0 0 0 0 3.600936749684406 4.3600427677692224 0 4.3600427677692224 -20.633228837671901 0 0 0 0 6.4108878596580041 -5.8493151600503097 0 -5.8493151600503097 -33.75537202543137 0 0 0 0 22.809991722347831 21.404571881126344 0 21.404571881126344 1.4693383430890208 0 0 0 0 44.528223826362307 16.719551351463792 0 16.719551351463792 -10.018710515034627 0 0 0 0 20.687560125519894 17.214249049803016 0 17.214249049803016 -5.8463565465652039 0 0 0 0 30.850821851692473 -1.6832439393340337 0 -1.6832439393340337 8.6843918291547197 0 0 0 0 102.81075988494723 -17.314372147363883 0 -17.314372147363883 -71.618264633803619 0 0 0 0 0.61630539704420162 -0.40853340655779125 0 -0.40853340655779125 -3.7822239402519591 0 0 0 0 -78.418574020369803 -35.097108384719093 0 -35.097108384719093 24.238488494790545 0 0 0 0 -36.780187350743859 -109.07880472231454 0 -109.07880472231454 -61.067168389459312 0 0 0 0 -35.157882179570606 -54.065952449904216 0 -54.065952449904216 -104.35640876236198 0 0 0 0 -115.25841260045706 -134.49283248428139 0 -134.49283248428139 -51.201457340143861 0 0 0 0 -97.229606207749157 -155.12805425382976 0 -155.12805425382976 -263.83321999785221 0 0 0 0 -141.07902934021649 89.776624601655385 0 89.776624601655385 -166.24361877708816 0 0 0 0 -37.339238278384414 32.032231371882176 0 32.032231371882176 -135.1031484608684 0 0 0 0 -8.8142708954775344 -103.02664743721732 0 -103.02664743721732 -18.705364871213987 0 0 0 0 6.2887658402943885 110.20499431618373 0 110.20499431618373 21.313714925981913 0 0 0 0 -34.044798465481222 -39.58754779767105 0 -39.58754779767105 12.814457473322136 0 0 0 0 -0.57144922257648556 -0.26979896024565697 0 -0.26979896024565697 -0.12235389802104102 0 0 0 0 -8.4149422614550531 -4.439505819738315 0 -4.439505819738315 6.3542467378845799 0 0 0 0 -2.6868193184025131 19.367726345019946 0 19.367726345019946 -87.142371111730881 0 0 0 0 10.687210183354352 -6.2856673491187394 0 -6.2856673491187394 -85.215346198320276 0 0 0 0 13.270930107872658 -19.53220902269004 0 -19.53220902269004 -33.750814009311398 0 0 0 0 41.26071888316087 14.786622866484322 0 14.786622866484322 -26.199700776520558 0 0 0 0 43.644471795040644 -12.859457824703895 0 -12.859457824703895 -36.279542618834057 0 0 0 0 24.030101544865602 -4.258714695614799 0 -4.258714695614799 -34.523084511623892 0 0 0 0 8.7787819335623567 -0.69601869049847664 0 -0.69601869049847664 -23.470500734588313 0 0 0 0 -0.24064568650588569 -18.711495233510959 0 -18.711495233510959 -37.212716458597924 0 0 0 0 24.169220659041443 -15.796978528773025 0 -15.796978528773025 -46.625093350984571 0 0 0 0 1.6606425142409904 -26.576772986408741 0 -26.576772986408741 -23.621184045498012 0 0 0 0 -17.708950410611621 -54.253608137031165 0 -54.253608137031165 -53.950637382145032 0 0 0 0 -12.2840684458792 -5.3635192911406193 0 -5.3635192911406193 -16.87520329119161 0 0 0 0 -17.889315428211262 -21.026804046570987 0 -21.026804046570987 -21.4153711313229 0 0 0 0 6.6512452289878432 -14.790895152927192 0 -14.790895152927192 -36.213537511526738 0 0 0 0 1.0684037976474769 -12.467234418368207 0 -12.467234418368207 -36.292201502294645 0 0 0 0 3.920167956293426 -6.5952165245082597 0 -6.5952165245082597 -38.304907223526243 0 0 0 0 -0.66453192448007314 -9.4785210557336086 0 -9.4785210557336086 -40.077892918738144 0 0 0 0 -2.3140705053808404 -7.7590015996261172 0 -7.7590015996261172 -36.333058155036952 0 0 0 0 -1.808072839192036 -6.8250153475411253 0 -6.8250153475411253 -37.064481991687899 0 0 0 0 -8.029576192119805 -10.636017700785715 0 -10.636017700785715 -21.373001927267978 0 0 0 0 -10.835548599792332 2.2840933148204385 0 2.2840933148204385 -29.170548152629181 0 0 0 0 13.652189303948347 -20.840098991205082 0 -20.840098991205082 3.7251256860954527 0 0 0 0 16.001012055748106 -11.485332147363579 0 -11.485332147363579 -12.667593605624006 0 0 0 0 9.3901425858189214 1.0781445404825263 0 1.0781445404825263 -14.584298652551638 0 0 0 0 12.033149446944407 4.6513242817688933 0 4.6513242817688933 -37.313298598048277 0 0 0 0 11.259003419864996 4.1069350439215384 0 4.1069350439215384 -13.906331441780821 0 0 0 0 -0.18757132735278503 2.2000348560207499 0 2.2000348560207499 2.4301942996071375 0 0 0 0 -4.1702165322877818 16.994156727985001 0 16.994156727985001 -14.786065423663331 0 0 0 0 5.2054129938677232 2.5179944249378003 0 2.5179944249378003 -2.1974161790317188 0 0 0 0 3.6459072828517947 6.1645323024550862 0 6.1645323024550862 -3.2619694068423541 0 0 0 0 -1.0587725668015082 -5.8249600290314447 0 -5.8249600290314447 -33.392602744115266 0 0 0 0 -0.35555073912115631 -2.3712528590597231 0 -2.3712528590597231 -31.575732843678793 0 0 0 0 -1.6278430748550079 -6.9037725063649305 0 -6.9037725063649305 -63.667004205943613 0 0 0 0 0.24387993827683241 0.26056532610390803 0 0.26056532610390803 -0.50237488133965513 0 0 0 0 2.0225864003484233 2.2736644912424193 0 2.2736644912424193 0.40260108406694206 0 0 0 0 -40.360613193654899 7.139035019748917 0 7.139035019748917 -0.12705750443274155 0 0 0 0 1.3571441273359195 2.3169613607972224 0 2.3169613607972224 0.7162357913177857 0 0 0 0 -0.74443964946499364 -1.0547226270944066 0 -1.0547226270944066 -20.530174061342677 0 0 0 0 0.070616286274129303 0.68441173279557521 0 0.68441173279557521 -0.15847032679759288 0 0 0 0 4.3995488535179845 -1.2986568720007199 0 -1.2986568720007199 -10.889751955137399 0 0 0 0 7.9982046849626158 3.3701781902805124 0 3.3701781902805124 -8.4997360995321287 0 0 0 0 8.9207313392929919 -0.86415501083524759 0 -0.86415501083524759 -13.058986861013182 0 0 0 0 0.024369914865587816 -9.1861873844636648 0 -9.1861873844636648 -17.854737675489559 0 0 0 0 4.0032153211455181 -8.8949730157430622 0 -8.8949730157430622 -24.493167114237622 0 0 0 0 -9.5066389088109133 12.075351928705572 0 12.075351928705572 -4.3191147450625067 0 0 0 0 -7.8129304166525628 -9.6673294466486368 0 -9.6673294466486368 -8.3635910943153249 0 0 0 0 0.67983452321516058 0.51263349575126793 0 0.51263349575126793 -0.26883592586512073 0 0 0 0 7.7534538814462621 1.9147721083709257 0 1.9147721083709257 -0.52957209780049652 0 0 0 0 28.902887946098417 11.963919526438985 0 11.963919526438985 -23.303510182220634 0 0 0 0 5.3231265024376171 0.88725715551674966 0 0.88725715551674966 -8.0336762823289973 0 0 0 0 9.714453025066307 5.738205348430057 0 5.738205348430057 -9.199562896107377 0 0 0 0 -5.6867520215201068 -5.0239803407391719 0 -5.0239803407391719 -4.8872879371992894 0 0 0 0 -0.7949019111688358 1.085745669132848 0 1.085745669132848 -22.120152895332922 0 0 0 0 2.7389905437475477 -5.1821537912983331 0 -5.1821537912983331 -12.024078523734715 0 0 0 0 0.86483310863241059 -0.42218771851185011 0 -0.42218771851185011 -14.760873617603011 0 0 0 0 1.7941630137931837 -0.56364271495906149 0 -0.56364271495906149 -7.7037843379381066 0 0 0 0 -4.4442699416706546 -2.6981766395483646 0 -2.6981766395483646 -1.0268209109663076 0 0 0 0 1.5000117748542539 -1.3357255215520336 0 -1.3357255215520336 -6.2320381030060954 0 0 0 0 2.0598371998279292 -3.779166016298122 0 -3.779166016298122 -5.5102839124927909 0 0 0 0 7.4612431806317545 1.3349864544213688 0 1.3349864544213688 -12.74171278837639 0 0 0 0 7.209946585851867 2.2075146913584831 0 2.2075146913584831 -5.8576993461210805 0 0 0 0 3.0542674079796477 3.0529078527325382 0 3.0529078527325382 -8.8600915358327157 0 0 0 0 16.796274253967169 6.8199177161468469 0 6.8199177161468469 -9.5742202888554857 0 0 0 0 14.491619753090276 -1.9583179271307927 0 -1.9583179271307927 -11.32096488990237 0 0 0 0 2.9612316444656699 20.641275749759643 0 20.641275749759643 -23.375101038955108 0 0 0 0 38.735650555974871 6.1504820039408514 0 6.1504820039408514 -35.771461627519329 0 0 0 0 1.5751639789486944 0.24635852573192096 0 0.24635852573192096 -20.603744000089023 0 0 0 0 3.4631218616162176 2.1623707453222369 0 2.1623707453222369 -3.4162974447835701 0 0 0 0 -0.4042778100856026 7.9815127699121149 0 7.9815127699121149 0.73495607864879275 0 0 0 0 4.4289259986591727 4.0852900736263464 0 4.0852900736263464 -1.932032781314682 0 0 0 0 12.853673891240874 11.237570082078491 0 11.237570082078491 -10.459053336665193 0 0 0 0 1.9204909335421689 1.7202678512767307 0 1.7202678512767307 -20.563252759355237 0 0 0 0 0.61925995814901302 -3.7330181147466934 0 -3.7330181147466934 -11.414829819099303 0 0 0 0 2.2841339259211964 -2.5836962267312629 0 -2.5836962267312629 -28.624993799792719 0 0 0 0 0.21603154881990339 0.093431213306051308 0 0.093431213306051308 0.022710454142323755 0 0 0 0 -0.058166847201816196 0.22156676616767967 0 0.22156676616767967 -0.60053806518546793 0 0 0 0 -4.4810807130597823 3.7786896962752508 0 3.7786896962752508 -6.4828824911674019 0 0 0 0 2.7662368604142102 0.20134486536335316 0 0.20134486536335316 -12.587546136076526 0 0 0 0 1.6853494068997232 2.7217986720753222 0 2.7217986720753222 -3.2557385255480291 0 0 0 0 -1.8975234181585412 -0.32203417741130913 0 -0.32203417741130913 -1.6911682841759803 0 0 0 0 -8.7229393361631082 -12.394403649897868 0 -12.394403649897868 -56.118103713888559 0 0 0 0 0.8033067288527036 -13.995301194288004 0 -13.995301194288004 -61.237485288833341 0 0 0 0 -3.8933214391024649 -5.2310704370406711 0 -5.2310704370406711 -9.006095695895965 0 0 0 0 4.5060343671082137 6.7766561439066209 0 6.7766561439066209 -5.3087458354679029 0 0 0 0 3.2825985948359619 0.95608915916360804 0 0.95608915916360804 -7.6413297335523396 0 0 0 0 6.4631225326243111 3.8851059813214306 0 3.8851059813214306 -2.1552981677159551 0 0 0 0 2.57054972758168 2.5340270946861505 0 2.5340270946861505 -6.2945317436882 0 0 0 0 3.9712589924456552 -5.9010605524945277 0 -5.9010605524945277 -14.594608726541992 0 0 0 0 4.8094169898745349 -2.4401200387633253 0 -2.4401200387633253 -30.338644897925406 0 0 0 0 -0.81634247588681319 -2.7414039844588842 0 -2.7414039844588842 -15.240536446429132 0 0 0 0 0.12684187000418756 0.14690702183872162 0 0.14690702183872162 -3.8614385675197465 0 0 0 0 3.0529186377366098 2.3203746388797342 0 2.3203746388797342 -7.7975728827663104 0 0 0 0 6.5658601168361201 3.6716237975147124 0 3.6716237975147124 -8.778927534185641 0 0 0 0 4.341587779258024 5.7481114545352057 0 5.7481114545352057 -52.258112871939375 0 0 0 0 0.27863516469869865 -9.6244860547521967 0 -9.6244860547521967 -14.766710507092284 0 0 0 0 4.8998945955342492 -24.280346333217494 0 -24.280346333217494 -89.457005914546244 0 0 0 0 -10.648623378928448 -8.2976692540878503 0 -8.2976692540878503 10.747151373202541 0 0 0 0 -0.97780732596288189 0.30903177768937695 0 0.30903177768937695 0.076403031424396417 0 0 0 0 1.2339232809806049 0.83756024576746313 0 0.83756024576746313 -11.522123012495285 0 0 0 0 -21.400912015538779 -12.855685228118091 0 -12.855685228118091 -54.954081467682727 0 0 0 0 12.504666972266136 -14.367849321420181 0 -14.367849321420181 -130.39522421149559 0 0 0 0 -0.24236389611168097 0.5468802106570898 0 0.5468802106570898 -0.16743655070128494 0 0 0 0 -18.696114080724556 -14.478017331959563 0 -14.478017331959563 46.628752044294743 0 0 0 0 -24.819768239410791 -35.828291100277966 0 -35.828291100277966 3.2320528428836042 0 0 0 0 -29.101937229315539 -9.7493836360889645 0 -9.7493836360889645 16.404804260617311 0 0 0 0 -10.646690936202731 -23.801397891382294 0 -23.801397891382294 23.52622442251959 0 0 0 0 6.0898917637077261 -10.343856607821181 0 -10.343856607821181 23.188630479269705 0 0 0 0 -0.15343308646061882 0.83289062170047146 0 0.83289062170047146 0.21477755362943007 0 0 0 0 13.456426854504429 -20.161894535139254 0 -20.161894535139254 -26.73530664926966 0 0 0 0 33.773924288761805 -45.16532159797498 0 -45.16532159797498 -15.543439820158028 0 0 0 0 13.782496106190251 -43.220181408662029 0 -43.220181408662029 29.108542383266013 0 0 0 0 18.43728310327225 -45.762366339781238 0 -45.762366339781238 -15.550408463057465 0 0 0 0 34.922559153038605 -37.258977780704754 0 -37.258977780704754 -49.440423370009739 0 0 0 0 -82.468541663336055 -14.897702001525076 0 -14.897702001525076 24.9972320234574 0 0 0 0 -1.7621267953825028 -1.0984067623159515 0 -1.0984067623159515 -0.84638712764789759 0 0 0 0 -80.343022822786835 -145.67059239173801 0 -145.67059239173801 -87.279816941339959 0 0 0 0 -73.480197321984235 107.73876473977361 0 107.73876473977361 -242.59242072756115 0 0 0 0 -176.63713573466268 -112.61802266070117 0 -112.61802266070117 -60.518843980375095 0 0 0 0 24.212450673019475 30.818250965539846 0 30.818250965539846 23.201673194231262 0 0 0 0 110.65615807497346 79.981867132873049 0 79.981867132873049 -69.431355279031777 0 0 0 0 77.758257641190994 -96.747785016795319 0 -96.747785016795319 31.192880313141359 0 0 0 0 6.9996128289391208 7.3271996071862304 0 7.3271996071862304 -7.9811288257533306 0 0 0 0 8.6023040534390134 5.2025576871112662 0 5.2025576871112662 -11.990540117762066 0 0 0 0 4.656428798158661 3.4220337621750101 0 3.4220337621750101 -12.399241349356728 0 0 0 0 3.4534682650752826 2.4803470859320873 0 2.4803470859320873 -12.066563508079055 0 0 0 0 3.8357189031627978 2.4967858099788263 0 2.4967858099788263 -10.987416046751122 0 0 0 0 8.2590853624925273 4.7090663522808427 0 4.7090663522808427 -9.1771284913118052 0 0 0 0 5.0167278270181246 2.4355518292721365 0 2.4355518292721365 -12.155372564273943 0 0 0 0 9.1926670350707695 3.9087069036313551 0 3.9087069036313551 -11.943715742176209 0 0 0 0 13.234274674620906 12.729917493530593 0 12.729917493530593 -16.221270600471144 0 0 0 0 4.437230348639309 -0.22170262226189763 0 -0.22170262226189763 -16.466022250327594 0 0 0 0 18.437216059676075 -5.7382170765049523 0 -5.7382170765049523 -16.505129524856102 0 0 0 0 15.577169793682287 -15.996403732035105 0 -15.996403732035105 -14.164965021227545 0 0 0 0 21.703183275248247 -7.5313870933202907 0 -7.5313870933202907 -19.096681033221103 0 0 0 0 17.407409907760062 11.687336434457848 0 11.687336434457848 -23.719343812170337 0 0 0 0 36.157677704026582 10.923723844425695 0 10.923723844425695 -50.504064649904194 0 0 0 0 25.189830066605055 14.119672507735231 0 14.119672507735231 -55.695245678361971 0 0 0 0 7.6560411829670443 25.652740093577449 0 25.652740093577449 -49.698173974029487 0 0 0 0 12.014791901106946 15.981887911249942 0 15.981887911249942 -54.237600826219932 0 0 0 0 34.432952960736607 13.88645894555475 0 13.88645894555475 -67.09928700888122 0 0 0 0 2.7528440776785885 7.4354379806572979 0 7.4354379806572979 -11.435474763511593 0 0 0 0 74.148871849171798 -12.651730574068097 0 -12.651730574068097 -60.295991860439244 0 0 0 0 1.5566109301899034 0.27714210957138619 0 0.27714210957138619 -2.2799326732788323 0 0 0 0 37.775406692579054 -31.647956316912314 0 -31.647956316912314 -22.075849110849958 0 0 0 0 -24.104078924680152 -0.8354970849431993 0 -0.8354970849431993 -30.692784318422127 0 0 0 0 35.514178253531298 9.8307760008337937 0 9.8307760008337937 -53.732668670134444 0 0 0 0 15.738493519813346 -1.6970675654738443 0 -1.6970675654738443 -41.217270272405585 0 0 0 0 -4.1016192606675759 5.6506141433765151 0 5.6506141433765151 -41.510516468522837 0 0 0 0 -34.662944969614188 30.914753210773597 0 30.914753210773597 -31.926927562992205 0 0 0 0 15.18166628941708 -26.635487782878045 0 -26.635487782878045 17.084768149739602 0 0 0 0 28.58395348475824 -46.541488894285067 0 -46.541488894285067 -5.525889311084029 0 0 0 0 7.5392906354063598 -7.2081861596088856 0 -7.2081861596088856 16.374314442859031 0 0 0 0 7.8793715020172268 2.4411122897907127 0 2.4411122897907127 -5.6142478804786684 0 0 0 0 9.8156639426833863 2.717096970332932 0 2.717096970332932 -13.37050217327851 0 0 0 0 11.641816798653963 -0.073919940521591343 0 -0.073919940521591343 -22.6324384695763 0 0 0 0 11.919382411801962 -7.3997224640024797 0 -7.3997224640024797 -7.2989556166412513 0 0 0 0 22.490502064285465 -16.510161072539631 0 -16.510161072539631 -23.294187108647748 0 0 0 0 36.166288267293567 -30.802963446833019 0 -30.802963446833019 -27.727092435863597 0 0 0 0 23.295090734114183 -13.93088204374726 0 -13.93088204374726 -36.365357432267047 0 0 0 0 -11.437204902006613 47.693360392264367 0 47.693360392264367 -62.062675147484697 0 0 0 0 2.7079793553687068 38.04599739973844 0 38.04599739973844 -72.162130691782295 0 0 0 0 -5.4551468902686677 -6.0744143470452432 0 -6.0744143470452432 -5.71534542588984 0 0 0 0 45.887472778840674 -49.876249982737136 0 -49.876249982737136 -38.887205334147438 0 0 0 0 -10.616349733336733 32.781524843259376 0 32.781524843259376 -51.530128465237794 0 0 0 0 1.1581587776397555 22.76671820986121 0 22.76671820986121 -49.134929225133419 0 0 0 0 5.7758636097659064 27.431487229443519 0 27.431487229443519 -42.070172071331399 0 0 0 0 -4.9472367303640112 10.175189009478345 0 10.175189009478345 -69.138676751290859 0 0 0 0 -4.3717103166055873 -3.4953941379055617 0 -3.4953941379055617 -2.9580082783568997 0 0 0 0 -3.9930454323662161 -48.625644259404908 0 -48.625644259404908 40.191786986443134 0 0 0 0 -40.45028882927727 -9.8632342106611759 0 -9.8632342106611759 41.727020456863102 0 0 0 0 -17.782962468998448 27.814346284818384 0 27.814346284818384 -15.694204420400638 0 0 0 0 50.049465371226688 -39.156015428523915 0 -39.156015428523915 -59.101847053385427 0 0 0 0 40.383767561938384 -18.220531711404647 0 -18.220531711404647 -74.671774640479271 0 0 0 0 -7.0986637846017402 32.110387512500893 0 32.110387512500893 -53.794958802199289 0 0 0 0 11.973215255542243 3.4949680050568759 0 3.4949680050568759 -18.309543805313297 0 0 0 0 5.0272082777974205 -1.4108200127637822 0 -1.4108200127637822 -3.3516686944935277 0 0 0 0 2.8659875801481576 8.5310232669908146 0 8.5310232669908146 -18.190132527746755 0 0 0 0 7.5444316414414061 3.8888650469052664 0 3.8888650469052664 -13.855540399672464 0 0 0 0 0.64918651252907011 -3.6147950778887434 0 -3.6147950778887434 -4.6537980964858434 0 0 0 0 0.12860072558905955 -0.11033404079883269 0 -0.11033404079883269 -0.28249992405957158 0 0 0 0 -26.140519275539191 -50.564556283257843 0 -50.564556283257843 -98.709760783189267 0 0 0 0 -3.6326138034345945 8.8413575451164661 0 8.8413575451164661 -3.6542227534773701 0 0 0 0 0.33537385781790796 0.19324362200624279 0 0.19324362200624279 -0.90935083586912668 0 0 0 0 -9.2570577022033831 -37.335620382122215 0 -37.335620382122215 -116.90661802147224 0 0 0 0 -12.094301996730309 -11.340302590118995 0 -11.340302590118995 -41.24922374126254 0 0 0 0 2.7714376615623451 -21.790560138275396 0 -21.790560138275396 -47.890737417823402 0 0 0 0 -24.480990953307355 -9.0958430460696036 0 -9.0958430460696036 -41.086436756466355 0 0 0 0 -7.0902146308981173 -40.309737244080679 0 -40.309737244080679 -82.091591312197124 0 0 0 0 -9.4141970916998616 -31.490582420155988 0 -31.490582420155988 -34.670700203430897 0 0 0 0 -9.2545525364351988 -9.3570500359935522 0 -9.3570500359935522 4.4213887239566247 0 0 0 0 -1.6025683597367788 -21.318272016291303 0 -21.318272016291303 -36.785391916597291 0 0 0 0 15.462452401161954 -14.054130714221174 0 -14.054130714221174 4.2212363881329793 0 0 0 0 -10.86069561574061 4.0331705674029763 0 4.0331705674029763 22.865666060564763 0 0 0 0 -44.496664868726128 22.386295739506295 0 22.386295739506295 -58.300685294972936 0 0 0 0 -15.16033078101799 -19.004413294314872 0 -19.004413294314872 -123.95917145325893 0 0 0 0 -21.125811826710105 35.824684116592834 0 35.824684116592834 -242.98437006481981 0 0 0 0 -19.576141103354587 -29.422737063434397 0 -29.422737063434397 -21.000160851165674 0 0 0 0 -12.800222243321855 17.322390345641907 0 17.322390345641907 -66.262877342186584 0 0 0 0 -47.183255080250177 22.879697647892954 0 22.879697647892954 -39.822539228829555 0 0 0 0 -34.782856496991883 57.873256509348721 0 57.873256509348721 -81.809393708688731 0 0 0 0 -28.109938255045705 7.2542874837281488 0 7.2542874837281488 -69.64214841642206 0 0 0 0 20.20669447479986 -5.7885922298473815 0 -5.7885922298473815 -40.374561413438641 0 0 0 0 0.5244079054164672 30.73515998350922 0 30.73515998350922 -52.47922840350293 0 0 0 0 -2.3792638997517912 -16.1608759571061 0 -16.1608759571061 -18.102366752829766 0 0 0 0 37.727491835209605 5.282059478759038 0 5.282059478759038 -20.038100321738057 0 0 0 0 43.677365825218359 -3.0895234697077285 0 -3.0895234697077285 -24.684822297253049 0 0 0 0 0.019169571434174859 -0.60122716424071854 0 -0.60122716424071854 -1.7179286362333173 0 0 0 0 69.238137131054202 -53.953458501007844 0 -53.953458501007844 4.0104312665375801 0 0 0 0 25.244703451824194 11.650345758768708 0 11.650345758768708 -4.145806090116821 0 0 0 0 68.575099090210969 -17.18849484872635 0 -17.18849484872635 -33.062585898476755 0 0 0 0 19.639144070495938 15.857001867859253 0 15.857001867859253 -44.595442029039987 0 0 0 0 14.778342674224547 -82.265174569562532 0 -82.265174569562532 -5.7052218537683075 0 0 0 0 -0.037448275358625827 -0.29521491623057017 0 -0.29521491623057017 -0.73345589575021819 0 0 0 0 -8.7291026302520436 -31.724493248018916 0 -31.724493248018916 34.33671315447009 0 0 0 0 20.855104062093176 22.790037927380808 0 22.790037927380808 -99.646896011025092 0 0 0 0 6.1842583465322889 -59.379778784577411 0 -59.379778784577411 -59.351899236442478 0 0 0 0 16.035030552828289 12.202101186652726 0 12.202101186652726 -55.660345632364056 0 0 0 0 -16.599094142539457 -52.136583640394747 0 -52.136583640394747 -26.250475279629882 0 0 0 0 -8.750493347299134 -36.086390487733297 0 -36.086390487733297 -37.616090613273627 0 0 0 0 -73.474109481122355 -41.479941404377314 0 -41.479941404377314 -15.629659021160478 0 0 0 0 -1.9944478550758333 -15.922526764649774 0 -15.922526764649774 -12.942876956931286 0 0 0 0 -9.1633688383653933 -10.263696951859629 0 -10.263696951859629 2.8499959286564263 0 0 0 0 -12.128275585193279 -15.987959554633562 0 -15.987959554633562 17.45301113298774 0 0 0 0 21.271297405203683 -2.6749522159736898 0 -2.6749522159736898 -25.284044684613036 0 0 0 0 29.44979577596888 33.035223771879487 0 33.035223771879487 11.013205600987931 0 0 0 0 15.781658370954801 16.225904324119711 0 16.225904324119711 8.9351481276099776 0 0 0 0 25.471647398026789 48.167620544594229 0 48.167620544594229 25.306063095897116 0 0 0 0 4.060336756970556 4.6677646619859932 0 4.6677646619859932 -16.737709129920358 0 0 0 0 18.613355565551217 36.217860541589289 0 36.217860541589289 -0.1117014862452379 0 0 0 0 -8.5909227284700762 22.608792235793771 0 22.608792235793771 -23.491876698077249 0 0 0 0 -3.8473694968097334 8.624517287413255 0 8.624517287413255 10.365868283482541 0 0 0 0 0.39464735000939299 -29.853700215683602 0 -29.853700215683602 -73.949612092587813 0 0 0 0 -29.623928217675171 -8.8939162762633259 0 -8.8939162762633259 -16.24840134340775 0 0 0 0 18.376586059320402 9.7584066987301412 0 9.7584066987301412 -15.910969706947981 0 0 0 0 10.40293939992862 0.028458508005087424 0 0.028458508005087424 -33.527729118632124 0 0 0 0 12.382701191453492 -7.4835963444961635 0 -7.4835963444961635 -33.2331372570643 0 0 0 0 -2.0927281360764027 3.556811790995198 0 3.556811790995198 -12.308786022892093 0 0 0 0 -1.360039621025027 -0.30134190881658496 0 -0.30134190881658496 -3.012183488989062 0 0 0 0 -5.1578554197692483 1.328238553092433 0 1.328238553092433 -11.890258930195785 0 0 0 0 -1.1501502721673389 -0.85239252787057662 0 -0.85239252787057662 -0.37021073299719731 0 0 0 0 8.9435937077421386 -1.987026488305446 0 -1.987026488305446 -2.6888641042331756 0 0 0 0 11.570158217810103 1.0321193980016687 0 1.0321193980016687 -18.996677038188864 0 0 0 0 9.5462098964752382 -8.8249294980689434 0 -8.8249294980689434 -13.867673140404804 0 0 0 0 8.8249858045395371 -3.7436124431542623 0 -3.7436124431542623 -11.607174495781237 0 0 0 0 11.101727447639689 -0.12931877304313844 0 -0.12931877304313844 -12.114565515840241 0 0 0 0 6.3736276244810748 3.0239803970021732 0 3.0239803970021732 -14.656711020667821 0 0 0 0 17.806425923477946 11.055963885565689 0 11.055963885565689 -5.167759078225572 0 0 0 0 7.3319741362517927 6.5819734451896448 0 6.5819734451896448 -9.4035526774627094 0 0 0 0 3.9504750293651236 0.5356413472253827 0 0.5356413472253827 -6.0889387089947249 0 0 0 0 268.46297627429374 37.777157198344867 0 37.777157198344867 -17.954974693300755 0 0 0 0 16.110668552674724 13.98664934276303 0 13.98664934276303 -6.0518228998998893 0 0 0 0 42.701824492759528 71.676212311322161 0 71.676212311322161 -3.4777575384418924 0 0 0 0 -80.383598286679728 59.483337263787689 0 59.483337263787689 8.5809169924896196 0 0 0 0 8.1754205770812973 14.592854608532434 0 14.592854608532434 -17.793998436639413 0 0 0 0 -3.9366987017562565 -22.29475264786015 0 -22.29475264786015 4.7598371256335668 0 0 0 0 -1.1275538285169375 8.0957799141479541 0 8.0957799141479541 -7.2475330667821254 0 0 0 0 -1.7712207805174049 4.0020991903712124 0 4.0020991903712124 -6.5594789159352089 0 0 0 0 19.005337905649412 12.622768212162555 0 12.622768212162555 -5.4639423767912376 0 0 0 0 19.720218805427521 10.087117361136734 0 10.087117361136734 -4.690593442835052 0 0 0 0 -7.0396431753738398 1.8245097887020165 0 1.8245097887020165 -3.783046498409476 0 0 0 0 -1.1503305005513766 -0.90822941649349787 0 -0.90822941649349787 -19.083030294228593 0 0 0 0 -2.835259522667684 -4.9035755088962105 0 -4.9035755088962105 -15.393419367594106 0 0 0 0 20.77232752725763 20.375141379920478 0 20.375141379920478 9.7410307222207848 0 0 0 0 -1.617918927232552 2.7942796990344085 0 2.7942796990344085 -4.7243961901370959 0 0 0 0 20.526098757492719 22.857261763334918 0 22.857261763334918 3.5647778467086937 0 0 0 0 4.5940920851146752 3.8754856031393672 0 3.8754856031393672 -15.8386024554176 0 0 0 0 -17.869448682473603 -23.394573331180027 0 -23.394573331180027 -33.509900717600431 0 0 0 0 -0.84021903826146271 1.5924533744092297 0 1.5924533744092297 -2.9190766377071498 0 0 0 0 -0.80227930814044157 -12.714518564610671 0 -12.714518564610671 -38.957482921835435 0 0 0 0 -8.6464741393315308 -9.5832030028332156 0 -9.5832030028332156 -15.362483763756018 0 0 0 0 5.110535537406804 -13.029855217026125 0 -13.029855217026125 -39.068478066604257 0 0 0 0 4.9270935115082466 -14.574219339540832 0 -14.574219339540832 -52.04740941152761 0 0 0 0 3.8806005436282476 -3.4090280508866044 0 -3.4090280508866044 -48.680193992172917 0 0 0 0 1.215699088327483 -6.3667637364837901 0 -6.3667637364837901 -28.009351704024084 0 0 0 0 0.32858572253394414 -2.7887654898242999 0 -2.7887654898242999 -28.777787933680884 0 0 0 0 -4.1384012484978712 2.9670425351134782 0 2.9670425351134782 -17.223943520606554 0 0 0 0 -2.600356442695329 3.6495414103328585 0 3.6495414103328585 -33.677731394705575 0 0 0 0 -3.206761168522462 5.6804474724583542 0 5.6804474724583542 -32.167973878968041 0 0 0 0 -2.9314821948182725 6.3166685460219014 0 6.3166685460219014 -34.736850457412402 0 0 0 0 -2.8372193731944435 2.9747527986246496 0 2.9747527986246496 -31.298913597245019 0 0 0 0 4.6636488939561787 -17.645838014866968 0 -17.645838014866968 -49.005578400116974 0 0 0 0 11.816561614354669 -11.532667018079337 0 -11.532667018079337 -45.527083508692158 0 0 0 0 3.8204534778242305 -18.577572774774126 0 -18.577572774774126 -32.740685238929927 0 0 0 0 4.5506535405829709 -15.638351522581161 0 -15.638351522581161 -45.753332854837481 0 0 0 0 9.1225181384620555 -17.449695121973491 0 -17.449695121973491 -48.548444296105117 0 0 0 0 -3.7762623818894099 -22.097706080699481 0 -22.097706080699481 -46.80536977413658 0 0 0 0 -5.6980619249364963 -17.785202530210881 0 -17.785202530210881 -39.654672611518436 0 0 0 0 -15.831084662508374 -23.421626174166704 0 -23.421626174166704 -41.630156068976703 0 0 0 0 -36.213467366935674 -44.612827194114743 0 -44.612827194114743 -63.656537977424705 0 0 0 0 1.708414496593889 -10.723069139013489 0 -10.723069139013489 -50.159533939860921 0 0 0 0 -8.6880380434458857 -3.0588289800252824 0 -3.0588289800252824 -54.585514678631625 0 0 0 0 1.627148295533317 -12.227491088677482 0 -12.227491088677482 -75.278166716334454 0 0 0 0 8.5719949118224577 -11.937401913406575 0 -11.937401913406575 -58.591780640723812 0 0 0 0 -1.9503321943820993 -27.272966001672557 0 -27.272966001672557 -57.236739735413721 0 0 0 0 5.0120808857827797 -11.880065967876817 0 -11.880065967876817 -38.530067149570641 0 0 0 0 4.3041806522639945 -2.514890838050178 0 -2.514890838050178 -26.882663703272556 0 0 0 0 10.356877114157214 -6.9636886092421264 0 -6.9636886092421264 -39.668734673478866 0 0 0 0 5.0224909539640521 -5.8608372262957573 0 -5.8608372262957573 -39.839300734351127 0 0 0 0 1.6128291505365269 -0.60621798424836015 0 -0.60621798424836015 -25.744376651131461 0 0 0 0 -1.450468988884495 -2.5515902916549749 0 -2.5515902916549749 -25.085568894775861 0 0 0 0 0.56029373484443568 -0.81355893738509621 0 -0.81355893738509621 -8.3127362518971495 0 0 0 0 9.2716502352495809 -3.0973011181413312 0 -3.0973011181413312 -26.815266782054778 0 0 0 0 -18.004873373133705 15.138549006431276 0 15.138549006431276 -26.577927269130669 0 0 0 0 -1.7910963473452171 -2.6268633180583265 0 -2.6268633180583265 -55.577433379135982 0 0 0 0 6.0130939329537796 -1.4161054492160474 0 -1.4161054492160474 -49.456723300287649 0 0 0 0 -0.99730829244845154 1.2269698882118973 0 1.2269698882118973 -37.884062617131349 0 0 0 0 -10.758847651216229 0.13819583458234774 0 0.13819583458234774 -6.6494764323406343 0 0 0 0 9.9702528022344268 7.7239073243595158 0 7.7239073243595158 -4.3738258076102738 0 0 0 0 -17.553231643853906 -6.3267557304618549 0 -6.3267557304618549 11.99695271931887 0 0 0 0 -4.2048445707669089 16.658241048350646 0 16.658241048350646 9.3920999857673451 0 0 0 0 -1.5124713910136633 -1.6014889930900083 0 -1.6014889930900083 2.7384960650915939 0 0 0 0 6.9733154338523491 -8.7597561778297859 0 -8.7597561778297859 -8.184729224358307 0 0 0 0 -5.2204082835023655 3.1456104206463351 0 3.1456104206463351 15.543929475756158 0 0 0 0 -0.4572769996561874 7.9649330988368092 0 7.9649330988368092 -15.333479546656235 0 0 0 0 -0.83090446121423156 10.155614536003668 0 10.155614536003668 -5.6652742435967411 0 0 0 0 1.41139568668018 -3.8594904144874818 0 -3.8594904144874818 -3.7549075611066769 0 0 0 0 4.9457044411717561 -1.257023828462934 0 -1.257023828462934 -3.3737405829973568 0 0 0 0 1.4693827371598545 -4.3127259520446728 0 -4.3127259520446728 -2.1502028329341556 0 0 0 0 3.2168021041289414 -6.9503331143742173 0 -6.9503331143742173 -14.355268145282025 0 0 0 0 5.1818372681142648 -4.7735923877093143 0 -4.7735923877093143 -13.300668760457484 0 0 0 0 0.05864608118348924 -0.36658421557101484 0 -0.36658421557101484 -0.90041915189547339 0 0 0 0 8.0092670208405821 -1.3955829981372574 0 -1.3955829981372574 -20.165497838847841 0 0 0 0 3.6331302272558332 -5.7992058738809646 0 -5.7992058738809646 -18.971150543294243 0 0 0 0 6.9798000077662863 8.9984976157379606 0 8.9984976157379606 -7.5530662725068396 0 0 0 0 6.8593609246221092 11.263419986580629 0 11.263419986580629 -14.676043561114057 0 0 0 0 2.2380935205254957 8.1272299765405478 0 8.1272299765405478 -2.898582618950968 0 0 0 0 13.960040536182774 19.166857770811475 0 19.166857770811475 -4.9108971236219077 0 0 0 0 4.0787402452997608 4.893113974359359 0 4.893113974359359 -17.083395152414038 0 0 0 0 58.826629237205225 76.502833762472619 0 76.502833762472619 -67.386113564482343 0 0 0 0 -24.05778588519604 -2.2584121340760248 0 -2.2584121340760248 27.752735026603659 0 0 0 0 -0.26213781470924413 0.4513458584336032 0 0.4513458584336032 -1.0325409682563134 0 0 0 0 -11.040472162454535 -23.885133084105746 0 -23.885133084105746 -118.25926210068451 0 0 0 0 -43.934874682037616 -70.472818628064033 0 -70.472818628064033 -99.329470821034192 0 0 0 0 -26.172151849895442 -14.697567367399245 0 -14.697567367399245 -13.801518297585972 0 0 0 0 -49.317031343153531 22.607136191655854 0 22.607136191655854 -49.080849115554884 0 0 0 0 -4.7520083084314138 -5.1426250675590381 0 -5.1426250675590381 -10.85349617114889 0 0 0 0 -13.296684118679394 -2.6826269820888911 0 -2.6826269820888911 7.8873970098566133 0 0 0 0 -18.540992846318659 -45.624047806613362 0 -45.624047806613362 -40.485308946378041 0 0 0 0 24.078226724132037 -17.220827297122014 0 -17.220827297122014 -25.7263568306671 0 0 0 0 -6.8599602583187789 -32.863850952718622 0 -32.863850952718622 -0.17757690887265198 0 0 0 0 14.08895334755789 -18.749571241575723 0 -18.749571241575723 -25.934567474608798 0 0 0 0 14.360122898493962 -6.4196761733209442 0 -6.4196761733209442 -24.569896541300295 0 0 0 0 -2.9979722160429674 -2.1356206505870432 0 -2.1356206505870432 -11.257113471942375 0 0 0 0 -3.44526174492978 -5.5755031153599264 0 -5.5755031153599264 -9.0527543312101013 0 0 0 0 23.927454395011701 -6.342971200055235 0 -6.342971200055235 -24.962200899604795 0 0 0 0 6.5738987852485593 12.106823921882096 0 12.106823921882096 -7.6520195535204323 0 0 0 0 4.1446307741683608 3.9743518329568666 0 3.9743518329568666 -17.35992524947817 0 0 0 0 -28.011719619709424 21.872105490848298 0 21.872105490848298 -73.938164907265673 0 0 0 0 -18.875173742066259 44.206308739105225 0 44.206308739105225 -100.68822116339834 0 0 0 0 -5.8019753885311047 -2.0081524856000215 0 -2.0081524856000215 -8.5697658011540625 0 0 0 0 -3.7466850440075632 -2.6078659891527423 0 -2.6078659891527423 -10.96984067232188 0 0 0 0 -3.3872840435716984 -5.3965680051532399 0 -5.3965680051532399 -5.2770044664710873 0 0 0 0 -5.1887093587596382 -1.1337766190690672 0 -1.1337766190690672 -10.152686197290677 0 0 0 0 -4.1580678700246496 -3.7809123534189073 0 -3.7809123534189073 -2.2347654708539295 0 0 0 0 -5.6003594117664761 -2.8417231502471623 0 -2.8417231502471623 -8.1292520009242253 0 0 0 0 -4.3722195478867434 -1.3971144075144366 0 -1.3971144075144366 -7.6871989916307939 0 0 0 0 -3.4050220270290765 -1.4279179156883401 0 -1.4279179156883401 -7.6115747666826792 0 0 0 0 -4.5998524653381594 -0.98603989872697184 0 -0.98603989872697184 -7.5647353604344971 0 0 0 0 -4.4638264358163671 -4.0380975561471644 0 -4.0380975561471644 -3.7054233812839765 0 0 0 0 -5.1064782062226186 -2.8497801215071377 0 -2.8497801215071377 -6.0926253284205814 0 0 0 0 -2.4603638417707514 -4.7005330344184078 0 -4.7005330344184078 -4.7602645090133304 0 0 0 0 -5.1967658006215061 -3.2697938142446219 0 -3.2697938142446219 -9.4478370801571145 0 0 0 0 -6.7895597108035872 -14.143958122459935 0 -14.143958122459935 15.964620357373406 0 0 0 0 -4.9934390551559318 1.1915394694261749 0 1.1915394694261749 13.908072906524467 0 0 0 0 -1.3497730305358573 2.9997498420913189 0 2.9997498420913189 -11.731531869981154 0 0 0 0 -0.49970260658474919 0.13013218742462485 0 0.13013218742462485 0.16296007576170268 0 0 0 0 -1.221764288054545 -0.24954189330079757 0 -0.24954189330079757 -4.229986633072901 0 0 0 0 2.1585133328881057 -3.9790226494087619 0 -3.9790226494087619 -8.3509481433502515 0 0 0 0 -4.1256651186812814 -4.7735704502408218 0 -4.7735704502408218 -2.9879850118406832 0 0 0 0 -22.67150784480253 15.680810149519402 0 15.680810149519402 -91.238182262140981 0 0 0 0 1.4766302326498817 21.276953535909797 0 21.276953535909797 -139.37657491475875 0 0 0 0 -17.549766109644878 35.589685786952032 0 35.589685786952032 -187.1578304758915 0 0 0 0 4.5154637477337554 33.271901695225097 0 33.271901695225097 -187.27240162986709 0 0 0 0 -18.527954196712471 38.686200479313356 0 38.686200479313356 -139.82868754772608 0 0 0 0 -15.593701752801024 39.58973140349508 0 39.58973140349508 -164.38530507674113 0 0 0 0 -1.891862224164754 27.17001959893696 0 27.17001959893696 -189.99815650721939 0 0 0 0 -16.148232996002491 12.45817828624331 0 12.45817828624331 -192.39830409494289 0 0 0 0 -12.452470006587305 34.10186900300323 0 34.10186900300323 -203.96911337891288 0 0 0 0 -25.81925231099558 25.719145340295654 0 25.719145340295654 -173.49906996545542 0 0 0 0 -26.244705600825966 10.003774127227189 0 10.003774127227189 -64.233719875952374 0 0 0 0 -7.3087423350535232 9.1110378513440082 0 9.1110378513440082 -87.017669844584816 0 0 0 0 -13.322694427223723 11.583770825918691 0 11.583770825918691 -144.51784038767528 0 0 0 0 -18.661480013643541 41.464061277745259 0 41.464061277745259 -112.00814715382512 0 0 0 0 -5.2186397614437725 -4.8288659274474313 0 -4.8288659274474313 -2.5580642100308477 0 0 0 0 -6.6793156437316554 30.178360117644388 0 30.178360117644388 -114.11432144838363 0 0 0 0 -31.92055261232079 45.72648745396873 0 45.72648745396873 -93.802809485530815 0 0 0 0 -38.533085103797475 22.364197549677556 0 22.364197549677556 -115.59187753457718 0 0 0 0 -16.659487032690656 37.238512043254104 0 37.238512043254104 -150.64795487692754 0 0 0 0 -35.949107308452199 16.33739865550524 0 16.33739865550524 -159.70700524946915 0 0 0 0 -48.119552460892919 11.291057185775571 0 11.291057185775571 -181.44151983973279 0 0 0 0 -24.440964865779875 35.452426190274309 0 35.452426190274309 -174.15719459471075 0 0 0 0 -54.362070659200867 23.110866292376159 0 23.110866292376159 -138.97983555584324 0 0 0 0 -39.466686459001664 20.645917215022564 0 20.645917215022564 -196.50998052200703 0 0 0 0 -48.947610298359677 36.91624011393651 0 36.91624011393651 -149.95283038063053 0 0 0 0 -62.365434907858344 13.965467977792287 0 13.965467977792287 -159.94867044112038 0 0 0 0 -33.186889900619008 24.709609135590654 0 24.709609135590654 -159.00335982052729 0 0 0 0 -37.306103772988713 44.245739380856094 0 44.245739380856094 -152.21678315630925 0 0 0 0 -43.012213051989605 49.25607412266254 0 49.25607412266254 -110.19071963242459 0 0 0 0 -27.611687602750564 42.542785035697761 0 42.542785035697761 -136.16719833182287 0 0 0 0 -31.192229031859426 24.685088317133705 0 24.685088317133705 -113.81284512832462 0 0 0 0 -0.14639178410220666 -4.836544270122431 0 -4.836544270122431 -4.2712434474397014 0 0 0 0 0.14668542375784455 -2.6822454244329492 0 -2.6822454244329492 -4.9331084890457078 0 0 0 0 -0.40555565872452348 -5.1337092040823791 0 -5.1337092040823791 -4.2356418828831011 0 0 0 0 -0.26789636209362611 -2.3794485617425893 0 -2.3794485617425893 -3.1965307572360153 0 0 0 0 2.3335840579008789 -5.4518519595413863 0 -5.4518519595413863 -4.3901178946798609 0 0 0 0 0.3689775357598819 -3.1301131834227363 0 -3.1301131834227363 -0.51947019753788481 0 0 0 0 -1.5932179429357229 -2.5638216558182227 0 -2.5638216558182227 -3.1355495515902732 0 0 0 0 -1.5746584492286502 -6.919357504888012 0 -6.919357504888012 -1.1542855166871959 0 0 0 0 -1.5036525739300473 -5.2387040701717922 0 -5.2387040701717922 -0.70325133608457691 0 0 0 0 -6.6241557407233813 -6.7691195862289533 0 -6.7691195862289533 -0.98334650232095555 0 0 0 0 -1.8156450245910705 -1.8365736332103246 0 -1.8365736332103246 2.1553769955201467 0 0 0 0 -3.3178492553969363 -2.2825631493533365 0 -2.2825631493533365 -1.4092378560071666 0 0 0 0 -16.385746025972139 -7.3889918296645192 0 -7.3889918296645192 -1.0569314066236757 0 0 0 0 0.96784062856997366 -9.6211623279913283 0 -9.6211623279913283 -20.759084998746403 0 0 0 0 0.1448922017325458 -5.5478213627989135 0 -5.5478213627989135 -6.749280128722603 0 0 0 0 1.8231536009141109 -5.2205270735257727 0 -5.2205270735257727 -6.9524954686467026 0 0 0 0 -2.3579987704928849 -3.9621831202161442 0 -3.9621831202161442 -2.8060822709004523 0 0 0 0 0.86233110217551712 -1.8569249400884473 0 -1.8569249400884473 -3.9821760027389246 0 0 0 0 -2.5380153512469406 -2.0958378837976852 0 -2.0958378837976852 3.4055555769355124 0 0 0 0 1.3468871373303273 -1.538693148713719 0 -1.538693148713719 -10.032754924917754 0 0 0 0 -0.19587245852039814 4.8646089823705552 0 4.8646089823705552 -0.47943112609027594 0 0 0 0 -15.711147142840218 -20.135672739088477 0 -20.135672739088477 -6.6030026445389467 0 0 0 0 4.369602779628849 8.2030139428316033 0 8.2030139428316033 -16.75500217312424 0 0 0 0 -4.343024928065641 64.298038134313174 0 64.298038134313174 -126.4326031509072 0 0 0 0 18.918673864277494 19.492199414645484 0 19.492199414645484 -159.30954802580527 0 0 0 0 -21.671136459197442 18.665725452975494 0 18.665725452975494 -222.15298591714537 0 0 0 0 -61.131352664904625 18.271751602861514 0 18.271751602861514 -37.635425004518765 0 0 0 0 -9.4362159218106854 50.528365613305141 0 50.528365613305141 -272.9987279328443 0 0 0 0 -76.219109010345903 89.401626970977759 0 89.401626970977759 -49.507204248522612 0 0 0 0 -0.60162972360766875 -0.60521640484686934 0 -0.60521640484686934 -1.8781603264374134 0 0 0 0 -2.5560077573121589 86.948025089142902 0 86.948025089142902 -216.38023689126385 0 0 0 0 -2.1889566815333064 -3.1279840197231366 0 -3.1279840197231366 -2.1897496637276337 0 0 0 0 -3.2241079674233788 -5.5168687224054338 0 -5.5168687224054338 -5.5749284247176547 0 0 0 0 -18.405251896668119 20.114145711335368 0 20.114145711335368 -186.06329409018463 0 0 0 0 -0.50537325878536876 -4.6663972017340711 0 -4.6663972017340711 -5.6814411602790642 0 0 0 0 0.96011395682827061 -1.2757246015014925 0 -1.2757246015014925 -1.0084607756496773 0 0 0 0 -1.2202659598091259 -3.3746754489516206 0 -3.3746754489516206 -3.7067807574512699 0 0 0 0 1.2719362609752807 -3.4098897970025064 0 -3.4098897970025064 -5.2664557263306051 0 0 0 0 2.4246259402066244 -9.7433461695086407 0 -9.7433461695086407 -8.5590003997940585 0 0 0 0 1.8631248397248177 -1.9223764848592992 0 -1.9223764848592992 -0.59591232228654967 0 0 0 0 -2.5312308752376111 -3.1639541248470096 0 -3.1639541248470096 -0.15154788891595672 0 0 0 0 -1.6089754015896052 -2.4087180509226442 0 -2.4087180509226442 -1.8487840299353326 0 0 0 0 8.440196217386756 -7.4584415336316852 0 -7.4584415336316852 -0.06763922390746302 0 0 0 0 23.329232921156745 9.0950193132571258 0 9.0950193132571258 0.60695264795714365 0 0 0 0 -16.474039175616383 36.833475165224513 0 36.833475165224513 -0.87265696979920904 0 0 0 0 39.7704656942376 -12.478608477361718 0 -12.478608477361718 -7.2246193145747384 0 0 0 0 29.454255011286477 34.539620027985507 0 34.539620027985507 11.664236165184775 0 0 0 0 -2.1327729900357872 -3.9599020374437188 0 -3.9599020374437188 -3.9758119355704551 0 0 0 0 1.3897933270466183 0.42328250951595692 0 0.42328250951595692 -0.086639223691008738 0 0 0 0 3.4329890016550735 -2.3133465870901091 0 -2.3133465870901091 -1.546400650954638 0 0 0 0 3.9403911332382222 -3.9850210232530117 0 -3.9850210232530117 -1.3287922754852843 0 0 0 0 6.0040191991156853 -2.0765733569204752 0 -2.0765733569204752 -2.501034122338563 0 0 0 0 8.3543971790222713 -8.6804339364325642 0 -8.6804339364325642 -4.4614787902478383 0 0 0 0 20.280742002770467 2.6526629692118604 0 2.6526629692118604 -8.9823427999745036 0 0 0 0 6.7999086652766891 0.51430055739729141 0 0.51430055739729141 -8.6161001669638608 0 0 0 0 5.3607163139282399 -1.9649476523788394 0 -1.9649476523788394 -1.1002379585297604 0 0 0 0 6.1594194872863088 -0.8220936041187592 0 -0.8220936041187592 -1.32125623429779 0 0 0 0 1.7296669381074707 -0.86685054854979171 0 -0.86685054854979171 -1.1986759265046203 0 0 0 0 0.81910562231951189 -4.6482976427250833 0 -4.6482976427250833 -1.4485765372377273 0 0 0 0 5.3809580611320769 -1.815668151071975 0 -1.815668151071975 -1.6909359712281002 0 0 0 0 16.579321287111839 -16.597846374399751 0 -16.597846374399751 -3.2762026202331072 0 0 0 0 0.54582216985593535 -2.3084060490461886 0 -2.3084060490461886 -7.6974854701956765 0 0 0 0 -89.295824655131582 -36.478267286993287 0 -36.478267286993287 -15.520121949659369 0 0 0 0 -78.008744003971287 -25.144145013254047 0 -25.144145013254047 -17.585564778825301 0 0 0 0 4.5091497940569747 -2.1298460019973291 0 -2.1298460019973291 -3.0868025232492284 0 0 0 0 7.4632177326458304 -5.3286417040490051 0 -5.3286417040490051 -10.145157839328931 0 0 0 0 5.5969095899849393 1.3148588692786234 0 1.3148588692786234 -7.4894327032288857 0 0 0 0 -19.696552255152255 -3.8528469994944317 0 -3.8528469994944317 12.565077187485258 0 0 0 0 1.363334044270083 -0.31544972049173547 0 -0.31544972049173547 0.40470301802989539 0 0 0 0 0.51699636843568442 9.520336141788448 0 9.520336141788448 -2.8361376259508688 0 0 0 0 10.804128250171516 12.883659356314638 0 12.883659356314638 -3.827595672051757 0 0 0 0 -11.935249594435845 -17.503565076510313 0 -17.503565076510313 22.702180532064631 0 0 0 0 -91.464930856991259 -32.76732046318557 0 -32.76732046318557 -21.370817271101259 0 0 0 0 -167.54597507643439 -2.4188614558315749 0 -2.4188614558315749 -28.70408605884586 0 0 0 0 64.488353107637749 -58.364854809808548 0 -58.364854809808548 -91.450234243344312 0 0 0 0 -414.59977151985902 -135.67905718931434 0 -135.67905718931434 -3.4775901689899911 0 0 0 0 -260.07277770340784 -124.23315137171039 0 -124.23315137171039 -32.008003964800082 0 0 0 0 -339.63751274918104 -11.837793433130628 0 -11.837793433130628 2.9806402157760203 0 0 0 0 -0.29085290262441377 -1.5165852531777708 0 -1.5165852531777708 -2.6488800380493451 0 0 0 0 -12.911881245935319 1.7492551792231552 0 1.7492551792231552 21.728257063163255 0 0 0 0 6.5632537968310771 21.559965011907479 0 21.559965011907479 2.4936424971376709 0 0 0 0 -0.40020578517366623 -0.4229056455186937 0 -0.4229056455186937 0.47593970694866528 0 0 0 0 -11.794742536544163 3.168680955115633 0 3.168680955115633 -1.4543821160119705 0 0 0 0 -43.128846589939258 10.055456322708778 0 10.055456322708778 34.341358024968031 0 0 0 0 -115.59288407630129 -114.59376823560342 0 -114.59376823560342 -61.558766968525561 0 0 0 0 -1.5086456233841465 -1.2251760392575726 0 -1.2251760392575726 -1.3162082077126769 0 0 0 0 -17.434423673624678 14.868290939737562 0 14.868290939737562 -194.16855036214292 0 0 0 0 -126.99125583445493 -88.124838101659407 0 -88.124838101659407 -48.036481277189523 0 0 0 0 14.936196702344887 -135.44229187036444 0 -135.44229187036444 -189.92857169298077 0 0 0 0 -293.88859311665482 -177.65411551957936 0 -177.65411551957936 -96.505740495838836 0 0 0 0 -312.85176926360305 -249.4306942123867 0 -249.4306942123867 -171.29677126809111 0 0 0 0 -204.50529138192269 -239.70690542538341 0 -239.70690542538341 -212.78753906922748 0 0 0 0 -212.66113195045273 -50.374368334500105 0 -50.374368334500105 -238.98520677635679 0 0 0 0 -160.55900703031375 -188.16037617098846 0 -188.16037617098846 -342.08776654672693 0 0 0 0 -127.18539524732444 -85.768898154179624 0 -85.768898154179624 -196.70919185440107 0 0 0 0 -86.513097598411832 -124.84094912938781 0 -124.84094912938781 -203.27618449095098 0 0 0 0 -8.5609430567346863 -44.290334360047382 0 -44.290334360047382 -68.05975479060362 0 0 0 0 -45.779252533740419 -121.27035904261902 0 -121.27035904261902 -159.25633622572241 0 0 0 0 -4.7836699611446249 -51.279012230675335 0 -51.279012230675335 -75.291780292214753 0 0 0 0 -9.3639022809318249 -34.993391427859024 0 -34.993391427859024 -131.86349710965555 0 0 0 0 176.48445815818692 -45.607212762810832 0 -45.607212762810832 -115.36911151982531 0 0 0 0 67.283834977822835 -59.702949151997927 0 -59.702949151997927 -125.16488422997827 0 0 0 0 85.614718498589014 3.8257308683432711 0 3.8257308683432711 -57.851609498227845 0 0 0 0 4.4653599153973573 -46.774133495815022 0 -46.774133495815022 -30.139772157715015 0 0 0 0 49.483206632185983 -68.429000491266379 0 -68.429000491266379 -83.325352820083708 0 0 0 0 72.404484323681004 12.971921298043981 0 12.971921298043981 46.76894911092495 0 0 0 0 85.590782550989474 -7.4685432487829075 0 -7.4685432487829075 -21.865230586752659 0 0 0 0 57.81170299611756 -85.231903920868717 0 -85.231903920868717 -38.368639297605341 0 0 0 0 -0.2400270839679024 -103.34684874542882 0 -103.34684874542882 -62.233302426565615 0 0 0 0 -137.86275673855835 -108.6645340068626 0 -108.6645340068626 -35.306229246910334 0 0 0 0 -155.18947578497136 -59.522736040818472 0 -59.522736040818472 -54.520658364464907 0 0 0 0 -171.28514454958281 -111.76733331722744 0 -111.76733331722744 -77.618845828822487 0 0 0 0 -171.15925392762412 -119.56325748101196 0 -119.56325748101196 -67.440570442890021 0 0 0 0 -65.674970917242263 -75.520965321926269 0 -75.520965321926269 -70.479440990007788 0 0 0 0 -37.049720629906346 -111.15748858997904 0 -111.15748858997904 -87.721316706007201 0 0 0 0 3.4023961181357265 1.3975762592432659 0 1.3975762592432659 -31.354903888580338 0 0 0 0 -11.1673891448105 5.1438278979589995 0 5.1438278979589995 -18.684184298350658 0 0 0 0 -6.882529698370945 -17.081795462125456 0 -17.081795462125456 -14.7418864579667 0 0 0 0 81.906959021476609 -7.8365313007499253 0 -7.8365313007499253 -37.750005024726988 0 0 0 0 0.77959793508875919 -16.457839926383485 0 -16.457839926383485 14.872794480603716 0 0 0 0 111.40868338593316 -38.991514570064055 0 -38.991514570064055 -30.800059178350693 0 0 0 0 0.17177896086353953 1.1897021499445783 0 1.1897021499445783 -31.986572809526507 0 0 0 0 229.5925349443589 33.721114344784382 0 33.721114344784382 -101.05067511137986 0 0 0 0 54.712604390707156 -59.070879376354242 0 -59.070879376354242 8.6354707893683553 0 0 0 0 71.902362954316345 222.87669285966581 0 222.87669285966581 16.759811033341975 0 0 0 0 80.756943611637553 116.98322234727812 0 116.98322234727812 -218.19819260923578 0 0 0 0 35.315595336214756 -55.033202695946329 0 -55.033202695946329 -280.18700409349481 0 0 0 0 -28.084083930868019 10.653808306811698 0 10.653808306811698 3.6860022172240861 0 0 0 0 28.420962465764433 -67.683511372603107 0 -67.683511372603107 126.5103542793795 0 0 0 0 21.308264750120316 -8.6072350435357805 0 -8.6072350435357805 -27.937022368872022 0 0 0 0 -3.6259463952294482 28.099807639581741 0 28.099807639581741 -92.114629813817373 0 0 0 0 -19.042722017512006 -7.5993648165249397 0 -7.5993648165249397 -87.23351640855185 0 0 0 0 -7.0784597974002281 -0.4846607648967165 0 -0.4846607648967165 -73.562703878303182 0 0 0 0 -15.159888588525746 8.0388425884059416 0 8.0388425884059416 -27.953799182866078 0 0 0 0 -21.57164966782932 -19.882895023314632 0 -19.882895023314632 -50.095700860667421 0 0 0 0 -68.789378137138186 -66.554698157720338 0 -66.554698157720338 -95.038466498685011 0 0 0 0 -1.3438850314499859 5.2137655102649205 0 5.2137655102649205 -82.462712896166067 0 0 0 0 -0.14901460642682895 0.61373659720718532 0 0.61373659720718532 -1.2898805637822202 0 0 0 0 0.38535929191106227 0.62378806553505517 0 0.62378806553505517 -24.552201935250388 0 0 0 0 86.808982808157523 -47.136310213439174 0 -47.136310213439174 -49.873589467459169 0 0 0 0 -36.062456658297833 -124.97404899661933 0 -124.97404899661933 -188.47742946864992 0 0 0 0 203.22090950460787 94.232186086552346 0 94.232186086552346 38.619454637358558 0 0 0 0 205.20460711199064 52.708655673447879 0 52.708655673447879 -190.74288611164502 0 0 0 0 40.769777172338053 -12.926826376773079 0 -12.926826376773079 -26.193446706829491 0 0 0 0 -95.689360190285242 -47.848586236832602 0 -47.848586236832602 -15.905588090278798 0 0 0 0 -50.9307157083623 -22.969697225442587 0 -22.969697225442587 -11.867283926693744 0 0 0 0 -0.55116474273855265 1.8635137589188524 0 1.8635137589188524 -3.6171179778090119 0 0 0 0 -17.986124678497276 -29.184638446098006 0 -29.184638446098006 -48.879878908215687 0 0 0 0 80.986741810905883 61.926804221092617 0 61.926804221092617 22.585813648368685 0 0 0 0 74.786241070773372 17.994873900892685 0 17.994873900892685 17.779226294173611 0 0 0 0 -75.442804191090545 -84.224738459078708 0 -84.224738459078708 -15.709956208037852 0 0 0 0 -142.57717842970362 -92.852446153430037 0 -92.852446153430037 -26.580229942899678 0 0 0 0 -121.87719988165099 -73.404348353652495 0 -73.404348353652495 -17.810766960279125 0 0 0 0 -63.109802635775054 -101.7358238456336 0 -101.7358238456336 -50.864618930343568 0 0 0 0 -57.446134540478695 -81.880122646269911 0 -81.880122646269911 -18.376084837573217 0 0 0 0 15.394177147205056 -60.050145595176446 0 -60.050145595176446 -29.027551512748687 0 0 0 0 18.014724179877248 -82.346057578940417 0 -82.346057578940417 -47.378186405564065 0 0 0 0 -30.739195404872191 -63.53480563242897 0 -63.53480563242897 -13.787737373146228 0 0 0 0 -38.531116727525955 -94.60179179341867 0 -94.60179179341867 -35.654391293379831 0 0 0 0 -75.193141307907069 -60.58419605708832 0 -60.58419605708832 -26.300917784737749 0 0 0 0 -67.840869203744376 -88.526217763776458 0 -88.526217763776458 -13.077066021602377 0 0 0 0 -35.958532580904773 -73.524213926319817 0 -73.524213926319817 -25.177537756821039 0 0 0 0 -53.346067933152881 -83.667207834764667 0 -83.667207834764667 -19.426364603458794 0 0 0 0 -69.475272873831955 -79.782771632174445 0 -79.782771632174445 -19.603945125313658 0 0 0 0 -104.06718129336366 -57.179332411792529 0 -57.179332411792529 -16.015882766009781 0 0 0 0 -54.073050123468875 -64.994777610139408 0 -64.994777610139408 -14.873338964477739 0 0 0 0 -59.997593625950003 -71.423109840555753 0 -71.423109840555753 -20.449699600910208 0 0 0 0 -45.328075653053659 -73.809343648836659 0 -73.809343648836659 16.956783251318029 0 0 0 0 -13.597074751304262 -84.32847504069332 0 -84.32847504069332 -16.867310879977936 0 0 0 0 35.929474868980833 -33.209607055292508 0 -33.209607055292508 -26.214410825389564 0 0 0 0 -57.837505032491663 -60.223419461215144 0 -60.223419461215144 -12.014723251441978 0 0 0 0 -45.431982224977041 -81.149563109009861 0 -81.149563109009861 -27.238577085998713 0 0 0 0 -124.8965760942649 -32.593822116324645 0 -32.593822116324645 -40.218443133513119 0 0 0 0 -74.523260818043013 -60.392070096126474 0 -60.392070096126474 -26.935046959610872 0 0 0 0 -72.247124497590335 -86.663699077893 0 -86.663699077893 -60.223799407602655 0 0 0 0 -116.01741608855127 -52.022145189337785 0 -52.022145189337785 -56.962801634406063 0 0 0 0 -119.70674298270353 -70.387367089194342 0 -70.387367089194342 -133.61598103151545 0 0 0 0 -37.956820255143327 -92.183725115363615 0 -92.183725115363615 -117.04341790226272 0 0 0 0 18.217933709175895 -29.9687158000919 0 -29.9687158000919 -57.993868744383462 0 0 0 0 -14.423207230728167 -76.62460730163167 0 -76.62460730163167 -61.832068001078824 0 0 0 0 44.546821588862542 40.317991464468719 0 40.317991464468719 31.941732878703988 0 0 0 0 63.202815695774575 27.931225484637935 0 27.931225484637935 -20.297413830641517 0 0 0 0 47.65236147426026 32.427333175522904 0 32.427333175522904 17.19140507901534 0 0 0 0 0.0574050309918549 -0.00088565658045380857 0 -0.00088565658045380857 -14.454531257235475 0 0 0 0 -84.865156161737104 72.624131814320975 0 72.624131814320975 -38.533544111941126 0 0 0 0 -293.32822453383579 -138.3464340538402 0 -138.3464340538402 -17.165237965479037 0 0 0 0 -0.17862696258717936 -0.32382654882611517 0 -0.32382654882611517 -4.7715263823289877 0 0 0 0 -179.91901399733433 -41.829546633149505 0 -41.829546633149505 -39.270200912645876 0 0 0 0 40.630133310048336 10.365605243320374 0 10.365605243320374 -22.053961052781403 0 0 0 0 43.656951391224844 45.813251692982249 0 45.813251692982249 -36.672482825664019 0 0 0 0 164.92683376135307 -144.15590742155268 0 -144.15590742155268 29.844729338938805 0 0 0 0 119.60403327475365 -19.682621354858696 0 -19.682621354858696 -57.825347838574316 0 0 0 0 84.135483091120705 -41.517544446717579 0 -41.517544446717579 -70.705676966991405 0 0 0 0 103.95510999276729 116.3714361187089 0 116.3714361187089 -186.95644825224724 0 0 0 0 363.09859541162837 -27.124143070576906 0 -27.124143070576906 -236.95605141698368 0 0 0 0 -522.82360606902387 220.0806511470347 0 220.0806511470347 152.03945123585891 0 0 0 0 0.76412838124292271 -0.23366274720710756 0 -0.23366274720710756 0.20399114515277139 0 0 0 0 -131.67167432144447 -245.84977747501273 0 -245.84977747501273 33.834777895667912 0 0 0 0 -8.1651873182011059 -212.26476961765741 0 -212.26476961765741 -318.61379805855449 0 0 0 0 -109.56239141919079 -241.03234637320884 0 -241.03234637320884 -177.0627912763407 0 0 0 0 -113.92115092414593 -167.93392695260832 0 -167.93392695260832 -4.7179775794238594 0 0 0 0 -19.659200138800088 -86.8144743978105 0 -86.8144743978105 -254.27400741008023 0 0 0 0 -71.835765343914204 -62.50534479752514 0 -62.50534479752514 -55.136621114899071 0 0 0 0 -60.58728353491415 -66.411825849401112 0 -66.411825849401112 -85.727625590644266 0 0 0 0 46.613219081412808 39.592243124495681 0 39.592243124495681 -37.414444880644055 0 0 0 0 25.505170201138753 38.422744105516131 0 38.422744105516131 -46.445307913999045 0 0 0 0 37.206745480252721 22.541411946959329 0 22.541411946959329 -25.456370670035994 0 0 0 0 18.633117370461719 37.113475373844693 0 37.113475373844693 -140.29191143984366 0 0 0 0 15.253098323510585 11.220740992660211 0 11.220740992660211 -26.83777837427067 0 0 0 0 -185.29206665075404 2.8186690053466918 0 2.8186690053466918 -100.1000823980512 0 0 0 0 -16.699626233922984 34.146592692606703 0 34.146592692606703 -18.610204265794209 0 0 0 0 0.47797219591498596 -0.79452611397680861 0 -0.79452611397680861 -2.2559377907324922 0 0 0 0 -31.857809099162225 -141.20467215254462 0 -141.20467215254462 -173.03415288918379 0 0 0 0 -1.6278902325016134 15.082819564406464 0 15.082819564406464 4.5053960457307767 0 0 0 0 22.887181532618484 31.450579279308663 0 31.450579279308663 -4.5767282967540268 0 0 0 0 2.8834850433979682 27.651082936594662 0 27.651082936594662 2.0810789267732162 0 0 0 0 -15.632562876211637 40.952561938333588 0 40.952561938333588 -6.2103504313013218 0 0 0 0 15.352379049471438 44.407240257130297 0 44.407240257130297 -19.161933780636616 0 0 0 0 25.510797683800774 30.493396382570324 0 30.493396382570324 -4.2829634893428192 0 0 0 0 3.8870692120755477 2.5483286675425934 0 2.5483286675425934 -19.099798058221413 0 0 0 0 21.436071936334301 19.046756203434597 0 19.046756203434597 -13.709474054945531 0 0 0 0 27.334644513483738 -11.680209574815763 0 -11.680209574815763 -8.5503623061958933 0 0 0 0 75.128517193872526 -7.703402540967204 0 -7.703402540967204 -15.51160096420972 0 0 0 0 17.994474582506314 20.870549390025189 0 20.870549390025189 -14.028481894372817 0 0 0 0 0.88160539816079875 4.9069693576848188 0 4.9069693576848188 0.28651775560291171 0 0 0 0 39.478499492024469 10.090284978046114 0 10.090284978046114 -5.5878849738437566 0 0 0 0 1.2315228733975647 -3.7553609697378505 0 -3.7553609697378505 -18.91171141833015 0 0 0 0 94.099403942551589 18.612469653468665 0 18.612469653468665 -42.82575261005104 0 0 0 0 63.326641619454584 19.13301413432464 0 19.13301413432464 -40.229895418186516 0 0 0 0 18.572010151098112 22.285567253857153 0 22.285567253857153 -29.172505563525192 0 0 0 0 -1.3490548416766899 -15.629342845872202 0 -15.629342845872202 -33.045600603449657 0 0 0 0 26.560326707154559 -3.117258851521683 0 -3.117258851521683 -51.553384576636745 0 0 0 0 -45.188424977409454 -2.8928149004261741 0 -2.8928149004261741 -24.463314450688813 0 0 0 0 -31.304768997694907 -28.483580782074341 0 -28.483580782074341 -64.723006094907078 0 0 0 0 -1.8302191977344648 -3.9081238698162224 0 -3.9081238698162224 -44.408024151696281 0 0 0 0 2.5485257015319576 -17.396074663327909 0 -17.396074663327909 -42.32719921990514 0 0 0 0 -12.347600704165814 27.522823390352414 0 27.522823390352414 -29.193748830632956 0 0 0 0 -0.36869905848087436 -0.2971987322573888 0 -0.2971987322573888 -0.1485054232520433 0 0 0 0 -9.3217949673891667 -14.166331394611689 0 -14.166331394611689 -4.2217756085765359 0 0 0 0 -2.2109426466422519 -8.5815561493941459 0 -8.5815561493941459 -4.5224633759053177 0 0 0 0 -2.2584461194594496 0.97250151006937813 0 0.97250151006937813 -0.23502679389866898 0 0 0 0 8.6678771274500264 -3.1471230154768364 0 -3.1471230154768364 -2.5670193716648555 0 0 0 0 1.0101004312218806 -0.47546326638350744 0 -0.47546326638350744 -0.76875955679367891 0 0 0 0 7.1244980274150294 -0.81584185683004762 0 -0.81584185683004762 -2.7884218542094459 0 0 0 0 1.0842725692605768 8.2357853757932844 0 8.2357853757932844 -6.4706442565548059 0 0 0 0 9.0921695180173856 8.8758472660088046 0 8.8758472660088046 -11.139139147259812 0 0 0 0 16.599204419611453 -0.28438207823182893 0 -0.28438207823182893 -9.4765042810358864 0 0 0 0 35.440141528372806 -23.450136439753692 0 -23.450136439753692 23.730520199477041 0 0 0 0 -1.2625300667773445 -18.80761025902666 0 -18.80761025902666 -24.413462480853696 0 0 0 0 0.1614377570937009 -1.2776434655796316 0 -1.2776434655796316 -3.8243565816931842 0 0 0 0 24.452020863481245 3.1895299608874552 0 3.1895299608874552 -15.447372623593765 0 0 0 0 35.05819441991207 -50.252762087970609 0 -50.252762087970609 -33.705634999844229 0 0 0 0 0.77574222285468419 -4.5500381678256003 0 -4.5500381678256003 -14.612176386828807 0 0 0 0 65.155604973359701 -37.066215723105003 0 -37.066215723105003 -42.503434044820324 0 0 0 0 12.18314867294572 6.6570265267357627 0 6.6570265267357627 -3.8884000694552014 0 0 0 0 11.492141064803263 1.7271765821637928 0 1.7271765821637928 -12.166948601003241 0 0 0 0 0.5897102967416411 -0.64032228556619941 0 -0.64032228556619941 -1.1874800197792901 0 0 0 0 0.046346964841781357 -0.0768210641499536 0 -0.0768210641499536 0.77559388564895926 0 0 0 0 3.240899827966004 3.045405426495563 0 3.045405426495563 1.778005553881485 0 0 0 0 0.124934816283234 -1.903604874730263 0 -1.903604874730263 4.5159571742988192 0 0 0 0 0.15409969770825299 2.4506899757561769 0 2.4506899757561769 5.9396957210665278 0 0 0 0 0.14609574493929486 -0.10338382514877553 0 -0.10338382514877553 -1.6622124004675598 0 0 0 0 8.4325274722657007 12.714354305144298 0 12.714354305144298 18.036445770529099 0 0 0 0 3.0710319464233971 2.7997015241744521 0 2.7997015241744521 -3.9061264853880857 0 0 0 0 5.3082263916078105 -1.9929955784255071 0 -1.9929955784255071 -1.6507676745163735 0 0 0 0 0.03907686499264889 -0.014849626378682146 0 -0.014849626378682146 -1.3812836997586615 0 0 0 0 -7.4284804286753321 -1.1617763507074415 0 -1.1617763507074415 3.6706658386583513 0 0 0 0 -0.39034732842345932 -5.9065946405462455 0 -5.9065946405462455 -13.044055084552383 0 0 0 0 -3.69950355396562 2.560640634595984 0 2.560640634595984 4.8626264540562261 0 0 0 0 -2.9227120552540997 -2.6752499649491028 0 -2.6752499649491028 0.35154233446519356 0 0 0 0 -8.3450792095872934 -6.6390794824965269 0 -6.6390794824965269 -0.29524726353361075 0 0 0 0 4.4317528861733972 3.9624379350598247 0 3.9624379350598247 -0.43183176939783152 0 0 0 0 0.59377824878745855 -3.5692376729994066 0 -3.5692376729994066 -6.0434870139170016 0 0 0 0 -1.3667462297840025 -3.6224523211594715 0 -3.6224523211594715 -35.341867789558819 0 0 0 0 2.1307973334294807 -1.1802564781496585 0 -1.1802564781496585 -2.7564198007839877 0 0 0 0 0.15078577393293971 -0.13674283285521227 0 -0.13674283285521227 -0.993829547000324 0 0 0 0 0.1478773513607593 -0.82737046513842571 0 -0.82737046513842571 -0.95202071376837338 0 0 0 0 -11.155333331246268 -8.3996962005812748 0 -8.3996962005812748 14.123029739917911 0 0 0 0 -1.4755658704822381 -1.1488465320480827 0 -1.1488465320480827 1.9584356465366 0 0 0 0 -3.8630631037409913 36.361075685208561 0 36.361075685208561 -31.123484237261437 0 0 0 0 8.6572307798131476 -4.3516710822225377 0 -4.3516710822225377 -90.303918285278996 0 0 0 0 13.925564803292005 17.781966967100743 0 17.781966967100743 -100.13397836281365 0 0 0 0 29.98815938411542 28.974564331597321 0 28.974564331597321 -244.16617456529093 0 0 0 0 -39.759150627686296 64.742180747978637 0 64.742180747978637 -76.460095959262617 0 0 0 0 0.16686096940006484 0.12149212952806554 0 0.12149212952806554 -1.9025448734046648 0 0 0 0 -19.940277939809846 -20.83504081369756 0 -20.83504081369756 12.428678965594372 0 0 0 0 -60.86914985737414 -27.101407242485038 0 -27.101407242485038 -14.792307443032314 0 0 0 0 -0.49349172385078088 13.45310467084073 0 13.45310467084073 53.656456998144677 0 0 0 0 25.454647651753444 34.126552528239699 0 34.126552528239699 19.033528930284319 0 0 0 0 6.1946989825509595 -5.1052778289304115 0 -5.1052778289304115 -1.0525533760519465 0 0 0 0 0.39176662276237223 0.15218487366225375 0 0.15218487366225375 -0.84477776476801836 0 0 0 0 28.980648996580104 14.134447157506656 0 14.134447157506656 -17.882869062694226 0 0 0 0 39.8231101298108 -54.863333336886626 0 -54.863333336886626 -413.27038800156697 0 0 0 0 0.025206594677457689 0.11051076114169334 0 0.11051076114169334 -1.6591049590207447 0 0 0 0 -106.22907859047514 -140.66769727522478 0 -140.66769727522478 -327.8597038043099 0 0 0 0 0.0021880565774461411 0.80589939453347115 0 0.80589939453347115 -2.0253122837384581 0 0 0 0 -137.41789856069138 -126.64485709033966 0 -126.64485709033966 -53.782916314195973 0 0 0 0 -34.140635115829063 -30.825086151090545 0 -30.825086151090545 -52.46232476188743 0 0 0 0 0.91635697939684557 1.0309662677100278 0 1.0309662677100278 -1.9743498339375947 0 0 0 0 -0.00058652671709926384 1.5124010421686762 0 1.5124010421686762 -1.5780353009577084 0 0 0 0 0.45815926174598681 1.022025814351764 0 1.022025814351764 -3.2338708326551568 0 0 0 0 1.2890791937584822 2.458455705974643 0 2.458455705974643 -1.4092026261896535 0 0 0 0 0.039014916441746803 0.75654070137002094 0 0.75654070137002094 -3.2650777245111513 0 0 0 0 -0.16137894963618127 1.2840647776392871 0 1.2840647776392871 0.052073853936235537 0 0 0 0 1.6827158554936279 -1.5299820493673906 0 -1.5299820493673906 -3.4908706121223076 0 0 0 0 1.2012604224395829 1.8255061900408691 0 1.8255061900408691 -7.3688159121265926 0 0 0 0 0.57180589390952552 0.7636529971807704 0 0.7636529971807704 -3.1984094444833318 0 0 0 0 -28.854475844607698 -31.225709890330563 0 -31.225709890330563 -34.930090397730964 0 0 0 0 -0.051628568089352483 0.94931866377294583 0 0.94931866377294583 -3.783854535363318 0 0 0 0 -16.67986762522419 -9.9859849917934298 0 -9.9859849917934298 -22.752131682189429 0 0 0 0 1.7982976796945245 2.5160557676663302 0 2.5160557676663302 -10.817620752342918 0 0 0 0 -49.477137436859053 -48.270986941308365 0 -48.270986941308365 -39.487761912710994 0 0 0 0 -21.84268940799182 -25.735822024626032 0 -25.735822024626032 -60.812885817002552 0 0 0 0 -4.7312253937394857 -30.425975682508579 0 -30.425975682508579 -67.563658364657385 0 0 0 0 -13.267850865434802 -49.936266622507901 0 -49.936266622507901 -112.08040786929359 0 0 0 0 -6.5168302526020909 -102.69607138002448 0 -102.69607138002448 -251.88221499734937 0 0 0 0 13.865270471726689 -49.685043549981174 0 -49.685043549981174 -114.10050910288555 0 0 0 0 24.99473264767704 -17.287811000762304 0 -17.287811000762304 -158.44093038618576 0 0 0 0 11.659344821614212 -7.7506315964319583 0 -7.7506315964319583 -114.70287211343685 0 0 0 0 9.9094568634613438 0.021463394011334458 0 0.021463394011334458 -145.89032842995766 0 0 0 0 -11.846650815333199 -4.1308329051057626 0 -4.1308329051057626 -64.134818004966291 0 0 0 0 -5.3384623610305937 -18.678014001447082 0 -18.678014001447082 -115.2271541704784 0 0 0 0 -21.609404449302595 -24.84207853225962 0 -24.84207853225962 -57.516405512373467 0 0 0 0 -22.763393980637449 -19.243390806737921 0 -19.243390806737921 -46.513325124809853 0 0 0 0 -9.6094350331524012 -26.624950690099467 0 -26.624950690099467 -12.459408085487667 0 0 0 0 -20.901546961280495 -26.237336968078239 0 -26.237336968078239 -31.471380340090036 0 0 0 0 -12.74793966472923 -19.543922582333835 0 -19.543922582333835 -27.595267871992746 0 0 0 0 7.2863275841157318 9.4552288956087978 0 9.4552288956087978 -68.247308192371293 0 0 0 0 12.483502626766004 26.329006705903339 0 26.329006705903339 -15.958300797490665 0 0 0 0 -27.221748893146128 0.68063697910838528 0 0.68063697910838528 -97.29922306825506 0 0 0 0 0.025577038671413213 -0.03617379740010751 0 -0.03617379740010751 -0.44337954745676456 0 0 0 0 -3.7786483672723552 -15.203875812474735 0 -15.203875812474735 -93.806161296133723 0 0 0 0 -18.319507772202773 0.47208799115429656 0 0.47208799115429656 -106.61247549886502 0 0 0 0 -23.63140855750153 42.196312153816507 0 42.196312153816507 -48.643083754526742 0 0 0 0 5.8653624570409519 24.925716053622182 0 24.925716053622182 -57.803551872462776 0 0 0 0 17.013059231060538 -1.8753996474424639 0 -1.8753996474424639 -6.6801728208642999 0 0 0 0 20.074036462624452 59.680872232948104 0 59.680872232948104 -20.394173828750354 0 0 0 0 13.214943053150634 35.553079707980942 0 35.553079707980942 -94.561581941825352 0 0 0 0 -0.018622718636882474 0.25402624160621556 0 0.25402624160621556 -0.51833567212263887 0 0 0 0 2.6970660171518404 -43.523415122688675 0 -43.523415122688675 -143.28337161506863 0 0 0 0 4.1110218453925995 -35.067479071106391 0 -35.067479071106391 -97.492435208503593 0 0 0 0 22.598322949297625 -2.2897355900646517 0 -2.2897355900646517 -115.69980208969719 0 0 0 0 -0.15227774366382185 10.250909936678681 0 10.250909936678681 -29.938072363376705 0 0 0 0 24.034567906240767 -9.0566617462272347 0 -9.0566617462272347 -21.146036932343122 0 0 0 0 25.077025320937452 -1.8847933805272987 0 -1.8847933805272987 -3.5907278757385939 0 0 0 0 5.5287281846544261 6.727950274675095 0 6.727950274675095 -29.225984020194119 0 0 0 0 0.036066902360517294 0.33989484331199193 0 0.33989484331199193 -1.4556334186689028 0 0 0 0 -4.4040077465848313 -11.395686376783488 0 -11.395686376783488 -38.662768788173707 0 0 0 0 0.076587879971475509 -1.2598719357083255 0 -1.2598719357083255 -1.3036465032650533 0 0 0 0 -0.074937891015250946 -1.1397882728162507 0 -1.1397882728162507 -0.97819456744949207 0 0 0 0 36.926148413223011 -42.916050458295103 0 -42.916050458295103 22.116884983295677 0 0 0 0 45.922621038793672 -0.51686749188320391 0 -0.51686749188320391 -62.779408927443001 0 0 0 0 -16.5516827257362 9.5737951971686925 0 9.5737951971686925 -30.570174074801798 0 0 0 0 -58.307935254818489 -3.4834193278375096 0 -3.4834193278375096 -63.594672716452806 0 0 0 0 -155.303011881038 -5.6516111820765218 0 -5.6516111820765218 -58.328779123409277 0 0 0 0 -24.565214956117316 38.662627198718837 0 38.662627198718837 -91.841970272433173 0 0 0 0 -3.5056553069321978 -105.74145224506356 0 -105.74145224506356 -200.49234758871307 0 0 0 0 -98.632059153888235 69.321716396575539 0 69.321716396575539 -94.259820620771279 0 0 0 0 -56.036864314773148 -69.95797236236649 0 -69.95797236236649 -181.2293898458629 0 0 0 0 19.365398439067508 21.560407313122596 0 21.560407313122596 -72.234697864467307 0 0 0 0 5.5332507544096678 -0.79837491290481921 0 -0.79837491290481921 -103.98259773887185 0 0 0 0 7.055230111350177 -8.7932047468925703 0 -8.7932047468925703 -83.198789471101918 0 0 0 0 -25.69909318517621 -25.65570623865915 0 -25.65570623865915 -92.771006572751958 0 0 0 0 -10.030433089963523 4.0760579741172478 0 4.0760579741172478 -81.500437247319496 0 0 0 0 -10.894744663456095 -1.8591151762675509 0 -1.8591151762675509 -62.07981460177507 0 0 0 0 2.1966319126818128 -4.8640809447742868 0 -4.8640809447742868 -66.455105111905141 0 0 0 0 -20.492021188640294 -15.587883854826032 0 -15.587883854826032 -48.514006596875333 0 0 0 0 -26.626293169162878 -0.37653454329756642 0 -0.37653454329756642 -59.927539067488397 0 0 0 0 -47.236054563848413 0.73865067371116311 0 0.73865067371116311 -51.809728926518801 0 0 0 0 -58.425349575203342 -0.14168822037254358 0 -0.14168822037254358 -50.606065480349571 0 0 0 0 -77.033993024054382 16.216550773723611 0 16.216550773723611 -43.697360019457847 0 0 0 0 -37.629227234764471 20.657576945553046 0 20.657576945553046 -49.369346965610021 0 0 0 0 -34.167705256861808 24.350001169067582 0 24.350001169067582 -72.069259522422726 0 0 0 0 -20.102239749948531 11.622911465047537 0 11.622911465047537 -67.514847895903586 0 0 0 0 -25.941354902608492 3.0296385373353587 0 3.0296385373353587 -79.411072176651032 0 0 0 0 -18.664050476489798 -10.755651136249526 0 -10.755651136249526 -53.4976658461037 0 0 0 0 -40.550995847852263 -50.669503024001642 0 -50.669503024001642 -73.307145805209188 0 0 0 0 -27.763630969867414 -21.360841645785968 0 -21.360841645785968 -21.761555057706573 0 0 0 0 9.3496739655493002 -22.168160665261894 0 -22.168160665261894 -26.166589851854042 0 0 0 0 0.10229436737627047 -0.1051240332523049 0 -0.1051240332523049 -0.83577034205978862 0 0 0 0 -9.6285085746235097 -20.922833097636158 0 -20.922833097636158 -22.08401095291083 0 0 0 0 -12.313558704889605 -20.109729808365955 0 -20.109729808365955 -20.303109372759536 0 0 0 0 -19.385048353536618 -26.436473981608003 0 -26.436473981608003 -19.685332118671795 0 0 0 0 -19.255430475246502 -25.12570622862404 0 -25.12570622862404 -21.88773753861733 0 0 0 0 -21.705029509497876 -27.556776181964779 0 -27.556776181964779 -22.245756567039166 0 0 0 0 -22.347263368892712 -32.432342262724205 0 -32.432342262724205 -37.507499174975237 0 0 0 0 -9.3000636803693162 -24.472058778845962 0 -24.472058778845962 -37.122419840257862 0 0 0 0 -16.227360579844973 -18.464818229119373 0 -18.464818229119373 -34.216196046524146 0 0 0 0 -16.260633556599313 -14.62372615953791 0 -14.62372615953791 -60.941717187916765 0 0 0 0 -5.1171464840194867 -16.373038222175865 0 -16.373038222175865 -52.468550432082338 0 0 0 0 -4.5986965314342765 -12.754178520462574 0 -12.754178520462574 -29.584452548417175 0 0 0 0 8.8991818377932503 -12.80840820557205 0 -12.80840820557205 -50.136025543979486 0 0 0 0 11.232449111913596 -4.681237554409563 0 -4.681237554409563 -24.105997433930497 0 0 0 0 17.679418382683629 -10.158099183037848 0 -10.158099183037848 -32.036789432564547 0 0 0 0 3.0854619969176262 -14.884886736270346 0 -14.884886736270346 -12.834209505374019 0 0 0 0 2.9691370371237404 -18.138001001227167 0 -18.138001001227167 -37.100484771200172 0 0 0 0 -9.5909531049465286 -23.287384851417073 0 -23.287384851417073 -24.058100261341679 0 0 0 0 4.0124429645262687 -23.577544655078782 0 -23.577544655078782 -27.39983160578231 0 0 0 0 18.245160971625495 -28.650384067006598 0 -28.650384067006598 -27.936808488687348 0 0 0 0 18.615590949186924 -19.162346513938701 0 -19.162346513938701 -35.271694864139135 0 0 0 0 3.7404113320098427 -19.994453105370326 0 -19.994453105370326 -33.071973243037064 0 0 0 0 -12.431756969818979 -19.21810082540469 0 -19.21810082540469 -26.276376672782135 0 0 0 0 -2.4147999186619558 62.413826736247756 0 62.413826736247756 -68.374685488257455 0 0 0 0 57.818327391452087 32.026348219719466 0 32.026348219719466 -97.762496876663135 0 0 0 0 0.09242695525494761 -0.16111951360864474 0 -0.16111951360864474 -0.76764100980753369 0 0 0 0 62.036357566019035 -56.220136165541135 0 -56.220136165541135 -26.358240825329631 0 0 0 0 22.559987454655722 -6.106061274309468 0 -6.106061274309468 -76.208607635988301 0 0 0 0 18.261843167425173 -29.449307612249399 0 -29.449307612249399 9.6140762251088745 0 0 0 0 18.779644974587598 25.745917074110366 0 25.745917074110366 -43.690581905274485 0 0 0 0 0.1319378071340335 -0.49525659307208869 0 -0.49525659307208869 -1.7160575164629392 0 0 0 0 65.456673538033613 -30.654821149284544 0 -30.654821149284544 -4.4291634420587798 0 0 0 0 40.234055465434707 -3.937620438430713 0 -3.937620438430713 -5.5830796428722351 0 0 0 0 17.782747432594459 -12.311052383962277 0 -12.311052383962277 -5.8776627985917003 0 0 0 0 37.34208270394349 -0.88761829978557216 0 -0.88761829978557216 -29.279912892500761 0 0 0 0 30.735430968721744 -11.164898077786347 0 -11.164898077786347 0.44644616854861852 0 0 0 0 30.926836572394222 -4.4600679247359949 0 -4.4600679247359949 -24.661015416457758 0 0 0 0 30.3165351113865 5.4250459938220956 0 5.4250459938220956 -53.418321809711415 0 0 0 0 31.015034598977067 11.46059724711689 0 11.46059724711689 -47.464145798780009 0 0 0 0 22.772658396650556 1.0376189328344481 0 1.0376189328344481 -27.066780152648789 0 0 0 0 16.926732356153522 0.20705132067450904 0 0.20705132067450904 -46.851337237058033 0 0 0 0 23.706656218745788 2.0719265697591709 0 2.0719265697591709 -46.992589595531172 0 0 0 0 16.340966355231231 2.9190107708946016 0 2.9190107708946016 -49.596728128020573 0 0 0 0 3.7575390080892399 -9.6855214364566109 0 -9.6855214364566109 -61.284112844157789 0 0 0 0 30.144598586917446 4.2306405061458463 0 4.2306405061458463 -60.070976301802148 0 0 0 0 23.27688541736779 5.1130741287738601 0 5.1130741287738601 -61.551429694751278 0 0 0 0 26.772733112977377 10.219520701120928 0 10.219520701120928 -55.855268887896727 0 0 0 0 19.490052910423465 8.8225235028030511 0 8.8225235028030511 -61.466142869585823 0 0 0 0 18.390522570987617 15.783757978838821 0 15.783757978838821 -51.012106081800084 0 0 0 0 24.126805509960661 21.031914302997393 0 21.031914302997393 -56.009168980097456 0 0 0 0 23.390172208312123 13.64615795897862 0 13.64615795897862 -46.434272402776458 0 0 0 0 31.018751171755611 -4.0009468719445067 0 -4.0009468719445067 -65.987977903002957 0 0 0 0 28.11182513114511 6.7556551080986083 0 6.7556551080986083 -47.022658646284071 0 0 0 0 32.40944204506502 5.5570797872214825 0 5.5570797872214825 -54.39921126927311 0 0 0 0 19.595432962557595 28.919110299423664 0 28.919110299423664 -5.6307980344136013 0 0 0 0 12.882149399254487 19.645761711474279 0 19.645761711474279 -18.437922393546614 0 0 0 0 22.280794106620732 12.35381979205431 0 12.35381979205431 -5.1923840823710634 0 0 0 0 -2.6067647949984121 9.7197035990293443 0 9.7197035990293443 -4.0037049317761557 0 0 0 0 9.2484129180522245 16.864608349635091 0 16.864608349635091 -1.6256650928075942 0 0 0 0 13.729943607372917 10.722771225619908 0 10.722771225619908 -15.05205208516054 0 0 0 0 13.832895704140986 11.59148163460452 0 11.59148163460452 -21.516830553571708 0 0 0 0 13.900296199433768 29.124771437699565 0 29.124771437699565 -26.364736792772419 0 0 0 0 22.676433225350557 15.500545049200355 0 15.500545049200355 -33.161757252237294 0 0 0 0 10.679104670321488 43.775107913840657 0 43.775107913840657 -38.005722361018343 0 0 0 0 2.0478091485187804 23.96285351246479 0 23.96285351246479 3.8944365808943076 0 0 0 0 9.5572446145088179 27.101853866705824 0 27.101853866705824 3.3436712677175819 0 0 0 0 24.248709613343124 25.097842158727872 0 25.097842158727872 0.79695423061366455 0 0 0 0 2.9611020041373166 20.104287270335021 0 20.104287270335021 13.403799544104913 0 0 0 0 -5.7046320897549005 26.746703652949691 0 26.746703652949691 15.269045075863687 0 0 0 0 -0.16486198098079149 1.1323777771073473 0 1.1323777771073473 0.82229467095084097 0 0 0 0 -4.8051170977697506 14.886888874933447 0 14.886888874933447 21.957563956050762 0 0 0 0 5.4051757076423428 13.775146659518214 0 13.775146659518214 -2.9553944737344864 0 0 0 0 5.5238767797991954 10.10455700672901 0 10.10455700672901 -14.054410381718299 0 0 0 0 -1.7080442327624468 5.9604717650230441 0 5.9604717650230441 -11.527946555572271 0 0 0 0 -3.2109400753570867 4.6311018768110443 0 4.6311018768110443 -13.772823525811873 0 0 0 0 13.683473347689528 3.5215232712380384 0 3.5215232712380384 -14.136021514183994 0 0 0 0 19.905183722792692 0.48136297218445634 0 0.48136297218445634 -10.174391737491533 0 0 0 0 0.54445428316478228 0.40514818868268776 0 0.40514818868268776 -7.4446405392973247 0 0 0 0 -1.0514659223886724 19.659587750137689 0 19.659587750137689 12.584707964487279 0 0 0 0 -0.20287177275473878 0.29291827706641982 0 0.29291827706641982 0.27336900638766082 0 0 0 0 6.2911882920969333 8.8708329552709984 0 8.8708329552709984 -11.889156520857796 0 0 0 0 1.6124706575566479 0.85753504105327494 0 0.85753504105327494 -4.8589670613876841 0 0 0 0 -0.016462179718920167 1.8679276578479023 0 1.8679276578479023 -8.3438020886176467 0 0 0 0 -0.075633074163249603 2.7898184470311662 0 2.7898184470311662 -16.566960320469661 0 0 0 0 -2.3135724579117323 -2.3820295648411047 0 -2.3820295648411047 -13.692327170263525 0 0 0 0 -2.9104827918870626 -1.5664481397479904 0 -1.5664481397479904 -10.724518830667876 0 0 0 0 -25.396284270304648 38.597197963288636 0 38.597197963288636 -91.040180329198847 0 0 0 0 -3.4672501787670171 -1.9987135846170077 0 -1.9987135846170077 -10.414076508726794 0 0 0 0 -3.0589636207020732 -3.4230265037264331 0 -3.4230265037264331 -3.3903429558171432 0 0 0 0 -15.648721159851284 37.809118259782963 0 37.809118259782963 -105.33706850212184 0 0 0 0 -29.599826264747435 57.561795119348972 0 57.561795119348972 -121.67654055865569 0 0 0 0 -13.110715974382344 66.734748810664314 0 66.734748810664314 -165.49266319711023 0 0 0 0 -0.36817439379956618 -0.19190810716582618 0 -0.19190810716582618 -0.1185194421385134 0 0 0 0 -35.635441495660984 43.973040124723411 0 43.973040124723411 -100.96577652563428 0 0 0 0 -31.298209949925948 39.542256248191734 0 39.542256248191734 -105.98684170417619 0 0 0 0 -27.31644424979098 43.549166749718552 0 43.549166749718552 -105.80900618221131 0 0 0 0 -27.967952735832029 50.337073326466452 0 50.337073326466452 -98.72594543512605 0 0 0 0 -25.889993847182382 49.155595607360738 0 49.155595607360738 -101.16998863711854 0 0 0 0 -27.928096627223169 49.664337363225059 0 49.664337363225059 -98.764239369373627 0 0 0 0 -26.249075849593535 50.423517136844623 0 50.423517136844623 -99.008339628788235 0 0 0 0 -21.850827158864959 48.779235635986879 0 48.779235635986879 -101.01688617067884 0 0 0 0 -25.942970321613018 45.848270390750145 0 45.848270390750145 -94.78453579492998 0 0 0 0 -27.713655386298569 46.609062947283746 0 46.609062947283746 -93.22014990494381 0 0 0 0 -27.317783786888185 50.451140907391164 0 50.451140907391164 -100.61350427611615 0 0 0 0 -25.877314415356437 49.244791615943541 0 49.244791615943541 -99.778724543060889 0 0 0 0 -27.745407176423839 48.796851011100443 0 48.796851011100443 -99.47502473124041 0 0 0 0 -34.658285109958229 40.48849022014565 0 40.48849022014565 -101.5511494157704 0 0 0 0 -22.922948837445972 46.130716572109122 0 46.130716572109122 -121.54259492119672 0 0 0 0 -27.609991657855801 38.76571436519589 0 38.76571436519589 -115.5818447134734 0 0 0 0 -30.555042613299221 51.397170621085024 0 51.397170621085024 -107.84511181435664 0 0 0 0 -29.145257998885938 47.183897783512293 0 47.183897783512293 -98.824153202611342 0 0 0 0 -19.670004065954707 43.832023482026671 0 43.832023482026671 -93.605797693451677 0 0 0 0 -27.675013774803148 51.253496273788414 0 51.253496273788414 -103.13562923450809 0 0 0 0 -21.858500434506084 46.504091424558283 0 46.504091424558283 -99.3265502660837 0 0 0 0 -6.5525312788169217 26.84824418336575 0 26.84824418336575 -92.507870120371081 0 0 0 0 -21.093487888016398 42.058030280177263 0 42.058030280177263 -95.802880241726598 0 0 0 0 -17.676166548580341 37.177077306443607 0 37.177077306443607 -106.29127022863236 0 0 0 0 -4.7696785393971481 14.482752245628944 0 14.482752245628944 -98.54276841518822 0 0 0 0 -16.524880973546722 39.355834551767202 0 39.355834551767202 -105.27389302164011 0 0 0 0 3.8069711352771236 10.202168308246655 0 10.202168308246655 -121.34745368088988 0 0 0 0 -12.328316851042331 30.603675013857355 0 30.603675013857355 -132.20454946605605 0 0 0 0 -22.085999742382342 40.346270103578718 0 40.346270103578718 -147.52818929864134 0 0 0 0 -31.413586710113236 25.272336618701956 0 25.272336618701956 -137.20573198089551 0 0 0 0 -49.975203561156093 10.383601679956428 0 10.383601679956428 -179.07424432007974 0 0 0 0 -35.850387751575994 41.915599017370823 0 41.915599017370823 -115.51987950903276 0 0 0 0 -34.61616363942278 33.310939221018089 0 33.310939221018089 -133.16586041220307 0 0 0 0 -18.562556826098586 29.12718738370404 0 29.12718738370404 -111.8768692096055 0 0 0 0 20.408997787813647 15.353895565275707 0 15.353895565275707 -67.059324079656108 0 0 0 0 18.235035152439352 -19.92334099380696 0 -19.92334099380696 -56.409219304041017 0 0 0 0 6.7588323692932164 -4.1646233035226032 0 -4.1646233035226032 -79.985867856380992 0 0 0 0 -3.4556073011810895 30.117951552002523 0 30.117951552002523 -89.554653893451359 0 0 0 0 10.977291207900914 6.5873075758222512 0 6.5873075758222512 -75.186473899013436 0 0 0 0 -13.276541181693112 31.157842625174453 0 31.157842625174453 -71.403626928752828 0 0 0 0 7.9532969896239694 31.735596463891397 0 31.735596463891397 -94.09955636641007 0 0 0 0 -4.149086459247858 37.468401178515251 0 37.468401178515251 -97.948721082168049 0 0 0 0 -23.285569263218648 38.499102215762832 0 38.499102215762832 -92.147326466217237 0 0 0 0 -23.151942216571783 57.896043344866143 0 57.896043344866143 -107.34604419107018 0 0 0 0 -0.8262327802247571 1.3385327271899179 0 1.3385327271899179 -0.061972639176756772 0 0 0 0 -16.62479347624793 54.132519108088673 0 54.132519108088673 -127.95102754797335 0 0 0 0 -23.635316986648327 34.31277843771592 0 34.31277843771592 -87.119178968616325 0 0 0 0 -34.476402897880291 30.215780029202961 0 30.215780029202961 -63.235406432994637 0 0 0 0 32.146139674327749 -1.4424946528692999 0 -1.4424946528692999 -70.868830674497076 0 0 0 0 -6.4208502724876642 12.445923023590694 0 12.445923023590694 -47.320893147340939 0 0 0 0 40.978647297179563 -21.315571165078836 0 -21.315571165078836 -50.44770616568087 0 0 0 0 38.469393719522166 -15.07529172519844 0 -15.07529172519844 -19.855659366148757 0 0 0 0 15.230475581406012 -1.1620647362423142 0 -1.1620647362423142 -41.736591270861027 0 0 0 0 37.101769765735753 -25.745654082361852 0 -25.745654082361852 0.20524808643858705 0 0 0 0 50.859758586017279 -38.714370706062255 0 -38.714370706062255 -17.557427014863606 0 0 0 0 55.999350888510392 -22.275905230325407 0 -22.275905230325407 -39.33935324394588 0 0 0 0 57.036887390963074 -15.653690774084566 0 -15.653690774084566 -9.792021363389722 0 0 0 0 42.695785083566875 -18.125477641297493 0 -18.125477641297493 -8.2395571869178639 0 0 0 0 102.95991158463499 1.831615891288493 0 1.831615891288493 -26.827324555833002 0 0 0 0 27.320887626011086 -1.7410189678057577 0 -1.7410189678057577 -19.470135562600717 0 0 0 0 61.733348401596118 -20.789205000259699 0 -20.789205000259699 -24.097897168095187 0 0 0 0 45.817147248530716 42.090051189948099 0 42.090051189948099 -17.648758969732626 0 0 0 0 125.77317484960436 32.068633311682333 0 32.068633311682333 -43.717416344898083 0 0 0 0 6.5874013449986109 0.83925151320818259 0 0.83925151320818259 -5.3866985325294081 0 0 0 0 -0.084814694954843173 1.2432224692551608 0 1.2432224692551608 -3.6869768534236158 0 0 0 0 32.066507325296172 11.299321087181852 0 11.299321087181852 -43.478646570652927 0 0 0 0 87.420448021208813 58.177683506170069 0 58.177683506170069 23.017002123800012 0 0 0 0 0.013763053453224761 1.2010544700213495 0 1.2010544700213495 -5.870780363160975 0 0 0 0 32.257479798832094 -0.49870601849761442 0 -0.49870601849761442 -17.28278657978808 0 0 0 0 0.48146159698164093 -0.7015164874241524 0 -0.7015164874241524 -0.88388320077166327 0 0 0 0 26.651981763771403 89.499135020219001 0 89.499135020219001 67.698714888462746 0 0 0 0 43.547087352716801 29.987784871949771 0 29.987784871949771 7.7388491553047061 0 0 0 0 32.388509028916758 58.245623599907049 0 58.245623599907049 28.536770433489437 0 0 0 0 33.130032065219766 8.4723683036688726 0 8.4723683036688726 -101.7076903621064 0 0 0 0 25.769929704419376 110.75885061178957 0 110.75885061178957 -144.12099386472164 0 0 0 0 -14.322552736172092 64.886485107581848 0 64.886485107581848 -137.12268813411538 0 0 0 0 0.73989489102659434 12.451468319524338 0 12.451468319524338 46.973687447774864 0 0 0 0 0.1605482401055589 0.3761190798387517 0 0.3761190798387517 0.15288697703623022 0 0 0 0 -22.794540828844163 18.022106915199402 0 18.022106915199402 152.96210433695342 0 0 0 0 8.3396026966847572 31.880446275349414 0 31.880446275349414 26.931336552701396 0 0 0 0 -6.2685848391687955 79.290543243433603 0 79.290543243433603 -23.055304959309524 0 0 0 0 1.1516520253592404 70.820268427579322 0 70.820268427579322 12.677037449172985 0 0 0 0 6.7404352399307932 37.604547764533208 0 37.604547764533208 -19.510869009056478 0 0 0 0 17.476620433847771 61.020439780038942 0 61.020439780038942 -75.283281777738466 0 0 0 0 -2.0519139639054771 35.955870552819306 0 35.955870552819306 -48.403033886952471 0 0 0 0 11.933824248394046 67.145733514390486 0 67.145733514390486 -168.33059614406568 0 0 0 0 -45.096384755376533 62.384592698982487 0 62.384592698982487 -38.425417802123775 0 0 0 0 -0.12730660186470294 0.21926214805573041 0 0.21926214805573041 -2.341926969109295 0 0 0 0 -101.6504463598983 -117.70093809209993 0 -117.70093809209993 -96.857944008608683 0 0 0 0 -87.027777023904321 -68.069417225293364 0 -68.069417225293364 -13.652683866101142 0 0 0 0 -46.105262686269441 13.635711889213781 0 13.635711889213781 -6.033523806683661 0 0 0 0 40.004256379916129 21.40293930590542 0 21.40293930590542 16.872531235208953 0 0 0 0 0.93007046062842846 8.340872165125802 0 8.340872165125802 12.506676650287773 0 0 0 0 -8.3517306054974654 -36.225912322469412 0 -36.225912322469412 -66.992600099863921 0 0 0 0 -9.948129788161495 -52.770582858713169 0 -52.770582858713169 -133.19935437201985 0 0 0 0 -50.544415648054311 -35.744830058261869 0 -35.744830058261869 -47.617296786456791 0 0 0 0 -70.563059672714459 -124.7159687383139 0 -124.7159687383139 -124.53293324334663 0 0 0 0 -22.390649107106469 -38.784978238917574 0 -38.784978238917574 -104.47381731258065 0 0 0 0 -14.020545249980344 -105.50500100591694 0 -105.50500100591694 106.53316594022544 0 0 0 0 13.114854872008337 -9.2132426432926877 0 -9.2132426432926877 -322.29018827517757 0 0 0 0 -0.13972725175265133 -0.43151523801489589 0 -0.43151523801489589 -0.41847734828860439 0 0 0 0 -11.8949295715543 9.1602556830366666 0 9.1602556830366666 -136.59030049841442 0 0 0 0 -5.2990776252892182 -8.2141910475547775 0 -8.2141910475547775 -94.4744628718272 0 0 0 0 5.0089805563200613 1.7228609616040558 0 1.7228609616040558 -108.37255222182375 0 0 0 0 5.2941711507120619 5.2839356579826244 0 5.2839356579826244 -64.027493041836351 0 0 0 0 13.240487759376101 -18.195341970209483 0 -18.195341970209483 -87.470618032921266 0 0 0 0 8.7342974762874164 -21.875229073858463 0 -21.875229073858463 -81.432355403556357 0 0 0 0 9.2431740694640823 -23.342056215585217 0 -23.342056215585217 -113.44167292646125 0 0 0 0 -6.0063192208019345 -26.659507136635511 0 -26.659507136635511 -50.607847171429967 0 0 0 0 10.246936461113386 -20.649294967448441 0 -20.649294967448441 -80.812092863883663 0 0 0 0 8.7268248156197625 -17.990029152807438 0 -17.990029152807438 -66.767404900416295 0 0 0 0 9.1232528744232972 -8.6699902329164615 0 -8.6699902329164615 -63.475566122053351 0 0 0 0 -1.9447509484155248 -12.86915934943363 0 -12.86915934943363 -46.847056673657789 0 0 0 0 -0.30562399190352707 -5.6960648985223088 0 -5.6960648985223088 -31.588961449792805 0 0 0 0 -4.1058076842619187 -27.332059941713851 0 -27.332059941713851 -64.467433024585262 0 0 0 0 -21.833756828445587 -14.653006910918975 0 -14.653006910918975 -11.068190025831427 0 0 0 0 -19.012409721854937 -20.173535232358518 0 -20.173535232358518 -1.5415165881022403 0 0 0 0 -6.7387699931065299 -17.306937113684398 0 -17.306937113684398 -53.011558733941456 0 0 0 0 13.776587388700932 20.392824865148214 0 20.392824865148214 -0.51126005238592143 0 0 0 0 0.32190120073668882 0.50229582449834709 0 0.50229582449834709 -4.6540399866502753 0 0 0 0 1.5450253466805464 -9.5977304328416722 0 -9.5977304328416722 -19.950964133294292 0 0 0 0 -0.80452290196573983 1.9769783660367466 0 1.9769783660367466 -2.0036518013866953 0 0 0 0 11.314713536588911 13.059501301724595 0 13.059501301724595 -3.9266367187019569 0 0 0 0 -5.8616382031776908 2.5235874515210526 0 2.5235874515210526 2.6103025182437705 0 0 0 0 0.54809227581897701 1.8528823040633142 0 1.8528823040633142 -0.96131989577042987 0 0 0 0 0.00075514428522699406 0.70807398200691019 0 0.70807398200691019 -4.6089400029459924 0 0 0 0 -0.071466338837794685 1.2880675467704741 0 1.2880675467704741 -4.4073511080300847 0 0 0 0 3.8009917971528466 1.2710464547117226 0 1.2710464547117226 -5.756931063175216 0 0 0 0 -0.61803022285181441 2.3428786962431332 0 2.3428786962431332 -3.3115632374274355 0 0 0 0 -1.1575629756228523 0.46753041670854145 0 0.46753041670854145 -4.1859561941928405 0 0 0 0 -0.28473606887894315 1.4645628600423546 0 1.4645628600423546 -4.6535924465288687 0 0 0 0 0.59097566494898146 7.9061440748228051 0 7.9061440748228051 0.59965535039737006 0 0 0 0 0.79634242993486737 0.9331487139361343 0 0.9331487139361343 -4.6432871462138792 0 0 0 0 -8.0532019203577079 -12.963438767328626 0 -12.963438767328626 -20.815494614154886 0 0 0 0 -15.270842882073225 -10.406862996147538 0 -10.406862996147538 -7.5425002273004793 0 0 0 0 2.9239447745603968 7.87250199205846 0 7.87250199205846 -19.419303100792604 0 0 0 0 -0.30982630829200086 -0.18057587986178092 0 -0.18057587986178092 -2.1899705601146451 0 0 0 0 1.3560331212368339 1.8434821039872986 0 1.8434821039872986 -4.8670408733960357 0 0 0 0 0.01546814523893994 0.4433032523687106 0 0.4433032523687106 -4.8628728769069767 0 0 0 0 42.587198778119117 -16.329386542161956 0 -16.329386542161956 -0.33700674907595385 0 0 0 0 13.189334059739323 -4.0034894407217507 0 -4.0034894407217507 1.0638399060662778 0 0 0 0 -14.369186408547648 -18.661636875457589 0 -18.661636875457589 -6.4675421040174115 0 0 0 0 10.813529144735469 -21.736160169140021 0 -21.736160169140021 6.265859699349221 0 0 0 0 27.997938885242093 -0.4871406623715302 0 -0.4871406623715302 -7.7372987491498861 0 0 0 0 -0.27749602291743547 0.29677610883841332 0 0.29677610883841332 -0.59592033935621203 0 0 0 0 -1.2114975706380138 1.2689228705028306 0 1.2689228705028306 0.93516620510092707 0 0 0 0 -1.6827764810218611 4.0289917621093991 0 4.0289917621093991 -0.048815679965628078 0 0 0 0 -1.5599376310867132 1.0427329919492436 0 1.0427329919492436 1.7005935444355877 0 0 0 0 -17.389185828046493 -18.203650651400494 0 -18.203650651400494 36.943632666781923 0 0 0 0 -3.2421487185110802 5.6011075263281782 0 5.6011075263281782 -1.6337401918281103 0 0 0 0 -5.4573075467466019 -0.38801494006793291 0 -0.38801494006793291 3.1718819565176091 0 0 0 0 -6.6217808557530944 1.6514940473934985 0 1.6514940473934985 -3.6159628064642675 0 0 0 0 -2.5739467281578108 6.4550642779572627 0 6.4550642779572627 -7.679981778614092 0 0 0 0 -7.3934562784271742 -10.662884482918514 0 -10.662884482918514 -16.073104068293105 0 0 0 0 -1.4422151372644114 1.0506868905504234 0 1.0506868905504234 -21.587023929121642 0 0 0 0 -1.1559361917690825 3.0178799082536898 0 3.0178799082536898 -21.512750373834933 0 0 0 0 0.65278067338003076 2.5776078603630594 0 2.5776078603630594 -25.224384793765353 0 0 0 0 1.4784690803711182 10.296269632167423 0 10.296269632167423 -26.325844831517657 0 0 0 0 -1.6485796208515495 21.497785811786343 0 21.497785811786343 -30.274594161688583 0 0 0 0 -6.4809726157857313 9.2173357240499172 0 9.2173357240499172 13.230920945707112 0 0 0 0 -7.4190851392195931 1.28225377687113 0 1.28225377687113 9.22239504299705 0 0 0 0 -14.813356377702007 3.4768708564015469 0 3.4768708564015469 21.973753947697332 0 0 0 0 -1.5079932628616128 1.1302582596586426 0 1.1302582596586426 1.7493528588210303 0 0 0 0 -4.0097540347282763 7.8405765846528084 0 7.8405765846528084 -3.6042325782636908 0 0 0 0 4.4507889176976505 1.2161704617969917 0 1.2161704617969917 10.998979479942136 0 0 0 0 -29.656434190270943 -8.9462102882462204 0 -8.9462102882462204 10.560013684736987 0 0 0 0 -8.7185813542661208 12.265409226970405 0 12.265409226970405 9.2461950616016111 0 0 0 0 -15.992065967546694 11.925124766776207 0 11.925124766776207 15.798966268994263 0 0 0 0 -38.340737358745741 1.5474929942411109 0 1.5474929942411109 6.1126959146240551 0 0 0 0 -19.927922127709394 4.8728147554738825 0 4.8728147554738825 -12.435733106423868 0 0 0 0 -26.166999844264865 9.0415642366733664 0 9.0415642366733664 -16.725444355954096 0 0 0 0 -11.71643027478865 2.9086559073784883 0 2.9086559073784883 -34.08324999209799 0 0 0 0 -31.81883653162015 -1.1987529233401801 0 -1.1987529233401801 8.2124646622687578 0 0 0 0 0.00058268645679222493 0.63215729066905624 0 0.63215729066905624 -4.2990243010499398 0 0 0 0 20.916723839582005 28.055471604013292 0 28.055471604013292 20.237703345321279 0 0 0 0 10.513950547118725 17.290053850630102 0 17.290053850630102 12.626394129940309 0 0 0 0 92.423908328995822 6.171625917972051 0 6.171625917972051 -15.771404082541267 0 0 0 0 53.546374048116547 -1.0457000205078657 0 -1.0457000205078657 14.83663201654781 0 0 0 0 5.1296520350308015 32.720026855220567 0 32.720026855220567 12.02332650651806 0 0 0 0 -0.41004058566147705 9.08820174743596 0 9.08820174743596 -12.613607956083797 0 0 0 0 -23.655490399015235 24.441446173688632 0 24.441446173688632 13.773924690431159 0 0 0 0 11.439530874556397 21.538284296000711 0 21.538284296000711 7.3767660456451267 0 0 0 0 -5.437145072478188 24.199523792976834 0 24.199523792976834 12.359922406242731 0 0 0 0 16.938737785436388 16.941569280717886 0 16.941569280717886 4.6934407724038465 0 0 0 0 -0.042981683887123645 0.69146680673756111 0 0.69146680673756111 -4.4954487194576629 0 0 0 0 17.593290358666763 6.5645987969676867 0 6.5645987969676867 0.59403366594051477 0 0 0 0 0.078170737781320832 0.78599212327753776 0 0.78599212327753776 -4.4675607267417945 0 0 0 0 35.384021535701777 18.151193546448667 0 18.151193546448667 -0.32683086722863663 0 0 0 0 38.382292701190551 23.760907168504673 0 23.760907168504673 1.0550330449623289 0 0 0 0 0.068474658699758661 0.96234638444639131 0 0.96234638444639131 -4.4764412770057334 0 0 0 0 -0.13560116172306438 1.037688503960684 0 1.037688503960684 -4.6458281873918637 0 0 0 0 1.3983814992445787 6.1903080733700335 0 6.1903080733700335 -2.0240755349159372 0 0 0 0 8.5355714239625513 2.9641914860912948 0 2.9641914860912948 -0.65382879206936195 0 0 0 0 -2.5587425457971165 6.6777567763215302 0 6.6777567763215302 -0.6909548553157947 0 0 0 0 5.7527462866423775 13.687702213323064 0 13.687702213323064 4.1457572268100193 0 0 0 0 -15.506304464422591 -5.6035443792716251 0 -5.6035443792716251 4.5682480417171973 0 0 0 0 3.5805290777185519 8.3040067931169688 0 8.3040067931169688 -3.7967357256839023 0 0 0 0 -1.1574628934243982 1.4823394532346867 0 1.4823394532346867 1.1566866773711872 0 0 0 0 -0.00030232557730409525 0.88893155253936129 0 0.88893155253936129 -3.7261238111786952 0 0 0 0 -0.16813742240392276 0.57215460584435363 0 0.57215460584435363 -1.1476681726164237 0 0 0 0 -0.25311886307077464 0.35278652942592093 0 0.35278652942592093 -0.50412197701416517 0 0 0 0 -30.397484437954162 -20.327493356962805 0 -20.327493356962805 -17.30036134115835 0 0 0 0 -0.034396234546852061 9.7273124860803364 0 9.7273124860803364 -165.71911670315239 0 0 0 0 -64.089095090423896 -8.0083064220743836 0 -8.0083064220743836 -166.5870597746507 0 0 0 0 -19.317179648734843 -44.377075884440274 0 -44.377075884440274 -190.73057178659292 0 0 0 0 -40.017822457347535 3.813711181612689 0 3.813711181612689 -181.0525628510477 0 0 0 0 5.6601645497329356 -25.032593252963125 0 -25.032593252963125 -96.877332153222596 0 0 0 0 1.7335858378211704 -40.08335262368746 0 -40.08335262368746 -148.39167249937054 0 0 0 0 -27.874212241294039 -23.529154796269268 0 -23.529154796269268 -128.99419740366284 0 0 0 0 -26.558940374092696 43.425647355520141 0 43.425647355520141 -50.767606860787055 0 0 0 0 8.0854900453468908 5.150484736933322 0 5.150484736933322 -149.7006326551591 0 0 0 0 3.7932896711400836 2.6634251069563106 0 2.6634251069563106 -59.002564618512224 0 0 0 0 7.0134745859185115 16.56448547570443 0 16.56448547570443 -71.109673123542962 0 0 0 0 4.2948415963107447 -0.73800982437523999 0 -0.73800982437523999 -60.100983154114147 0 0 0 0 7.0479341618087643 -11.69202294643037 0 -11.69202294643037 -64.172428570244392 0 0 0 0 13.636446411454877 -8.6061730025594443 0 -8.6061730025594443 -73.97994659152755 0 0 0 0 11.361097402912861 -19.569197723172692 0 -19.569197723172692 -111.54657771919574 0 0 0 0 -2.9032373497218913 -29.496112482145691 0 -29.496112482145691 -65.747729136295675 0 0 0 0 0.53092303019002429 -24.49474299990743 0 -24.49474299990743 -86.607557334122248 0 0 0 0 2.0555633325995899 -25.875843456275106 0 -25.875843456275106 -85.871319279459385 0 0 0 0 13.729797157688845 -18.700542485782535 0 -18.700542485782535 -88.581738540191509 0 0 0 0 13.208598819735254 -17.914587936927376 0 -17.914587936927376 -80.418987174336507 0 0 0 0 -9.412110526858795 -32.060943988564759 0 -32.060943988564759 -55.21323621807187 0 0 0 0 -12.403579257283983 -45.229042022746171 0 -45.229042022746171 -89.01379614536927 0 0 0 0 2.8018638353109671 -2.3464883465276216 0 -2.3464883465276216 -22.155660333155538 0 0 0 0 -0.016595686295494239 0.045394390790924888 0 0.045394390790924888 -0.17087671377796454 0 0 0 0 -5.3691671388338573 -6.5367886526960319 0 -6.5367886526960319 -7.8736863663398253 0 0 0 0 -12.443253706733737 -33.626974620781766 0 -33.626974620781766 -61.521087186374643 0 0 0 0 -25.299884845562907 -40.661392505138792 0 -40.661392505138792 -54.797426128498046 0 0 0 0 12.493973122507029 14.809913774320194 0 14.809913774320194 -5.1423957895640342 0 0 0 0 -0.048241008037301331 -7.1912442404709509 0 -7.1912442404709509 4.7203641629603226 0 0 0 0 -31.70905207108342 -7.3285223415805376 0 -7.3285223415805376 24.433213011883709 0 0 0 0 -66.627657674453573 -70.177910796614469 0 -70.177910796614469 -86.565270535356831 0 0 0 0 0.05090455422232093 -34.895284008631279 0 -34.895284008631279 -168.67376332308777 0 0 0 0 0.0065470708114422791 -0.11310053432669731 0 -0.11310053432669731 -0.6511445776852085 0 0 0 0 -64.222038352395586 -58.102652520445645 0 -58.102652520445645 -28.442751998307358 0 0 0 0 12.116841293563665 9.1800771861367139 0 9.1800771861367139 -11.416101720184088 0 0 0 0 -36.778510037870198 -71.323192374251448 0 -71.323192374251448 -159.56417611236247 0 0 0 0 -4.2099483116305958 -48.823924810230892 0 -48.823924810230892 -96.720753386589422 0 0 0 0 -37.60701826423626 -65.315334398778759 0 -65.315334398778759 -105.59176864120673 0 0 0 0 -19.56529068029004 -33.868464558477172 0 -33.868464558477172 -130.19510085028742 0 0 0 0 -16.721935117322175 -43.064713469045273 0 -43.064713469045273 -54.152675497887685 0 0 0 0 -16.342833062633566 -52.704143525385007 0 -52.704143525385007 -99.442860432793168 0 0 0 0 20.183215007238775 11.402804298783394 0 11.402804298783394 -2.3093989248773141 0 0 0 0 0.10819994456863687 0.3235159683392288 0 0.3235159683392288 -2.3431822463465366 0 0 0 0 0.01207275322815364 17.324006193317473 0 17.324006193317473 5.3059453774494614 0 0 0 0 19.642009112189715 12.499880585775827 0 12.499880585775827 2.2626681470310359 0 0 0 0 3.5839623762902946 8.418703046238079 0 8.418703046238079 1.471331078728781 0 0 0 0 -14.195585674725635 -21.708494412732762 0 -21.708494412732762 16.021792274171958 0 0 0 0 -2.3140372021513258 20.104620367834286 0 20.104620367834286 10.561490702922356 0 0 0 0 31.809871335302546 -9.2835284291813878 0 -9.2835284291813878 -13.717176865592592 0 0 0 0 45.210991672984278 -10.874887606428274 0 -10.874887606428274 -14.598999639445537 0 0 0 0 0.92512933643990891 -0.34615178257354273 0 -0.34615178257354273 -9.8399521518249458 0 0 0 0 0.16705278069385546 0.18339979619264035 0 0.18339979619264035 -1.8584349067173846 0 0 0 0 -21.494065576139988 4.2612565150748196 0 4.2612565150748196 4.370820324151282 0 0 0 0 20.59501349877894 -82.290380676256063 0 -82.290380676256063 92.459391727199545 0 0 0 0 0.1113222085147112 0.36961802804703048 0 0.36961802804703048 -0.33574890001035129 0 0 0 0 3.8984504202641119 4.3066243133707758 0 4.3066243133707758 -8.8407135258312337 0 0 0 0 17.480315204253088 5.6416493824985992 0 5.6416493824985992 -9.5006084994893172 0 0 0 0 2.0963329571043801 1.4719302424073248 0 1.4719302424073248 -2.5989443910315231 0 0 0 0 3.5259838967909758 -2.1641488776276105 0 -2.1641488776276105 -3.878434145484789 0 0 0 0 0.13329919077303035 0.72144421580865981 0 0.72144421580865981 -2.8572007291187447 0 0 0 0 0.29910686903628347 0.43855487685538641 0 0.43855487685538641 -3.7918429257233441 0 0 0 0 2.607969111393345 4.0197150681551648 0 4.0197150681551648 -4.0496085639651938 0 0 0 0 -4.0479440063642187 1.1554973917245661 0 1.1554973917245661 0.42818873610303854 0 0 0 0 0.39956759826921096 0.46125731047819407 0 0.46125731047819407 -0.99262016823147547 0 0 0 0 0.14149509909057034 0.26202515828781392 0 0.26202515828781392 -1.9945148746935857 0 0 0 0 7.8481615994148797 10.158933265230644 0 10.158933265230644 8.8752493374013284 0 0 0 0 -5.0640557788171918 7.5677288596471044 0 7.5677288596471044 -4.2613006848878285 0 0 0 0 94.741378567902331 1.3424560520400064 0 1.3424560520400064 -54.922410890339961 0 0 0 0 19.996132829958015 72.274965598768176 0 72.274965598768176 -81.339949830116893 0 0 0 0 21.579836461588457 -24.096775887022886 0 -24.096775887022886 29.600580900819168 0 0 0 0 -0.062368561207709838 0.33188840385814355 0 0.33188840385814355 -0.95998823309562198 0 0 0 0 15.821891992282019 -3.4334046658859734 0 -3.4334046658859734 -89.998929372277416 0 0 0 0 -46.589334471330886 100.51072247940306 0 100.51072247940306 -77.043183511927054 0 0 0 0 -6.7796091092661754 -1.2226080507716688 0 -1.2226080507716688 30.462971506385657 0 0 0 0 -39.842242393924948 -10.978178762508833 0 -10.978178762508833 27.591571620199829 0 0 0 0 2.650636136445911 -33.091511403926916 0 -33.091511403926916 13.660024450808123 0 0 0 0 0.35389164750505642 0.44251714267007536 0 0.44251714267007536 -1.3911348109711028 0 0 0 0 5.9805588730567365 7.4877845178484677 0 7.4877845178484677 -15.40708374298265 0 0 0 0 -23.848996547567964 -42.517144677074612 0 -42.517144677074612 10.43577155384628 0 0 0 0 -13.438135061314142 -7.1827450645769204 0 -7.1827450645769204 6.3822466532647013 0 0 0 0 178.45834053410493 -4.4592199173757763 0 -4.4592199173757763 -41.442933290854853 0 0 0 0 109.38866960277181 9.6667274611136236 0 9.6667274611136236 -12.999172703998511 0 0 0 0 71.364797817160692 0.11916318891871924 0 0.11916318891871924 20.083910142298919 0 0 0 0 59.925693500054706 51.652748218154557 0 51.652748218154557 -16.403488706680946 0 0 0 0 61.571914724985419 16.733055716267245 0 16.733055716267245 -1.826310118798574 0 0 0 0 0.10057379194353885 0.83501220457806546 0 0.83501220457806546 -0.60760095456012664 0 0 0 0 32.107142526877922 5.8747750843022004 0 5.8747750843022004 -1.5941104715438996 0 0 0 0 29.114040741491472 31.640167893492105 0 31.640167893492105 5.3430910365623276 0 0 0 0 31.529263276983535 26.884626994326027 0 26.884626994326027 7.8397432051215219 0 0 0 0 0.064213588183837295 56.497372421298678 0 56.497372421298678 -6.5733815243202116 0 0 0 0 57.183263290728803 48.669446818916413 0 48.669446818916413 -19.833681972064369 0 0 0 0 54.823986450597332 28.266667911266268 0 28.266667911266268 -91.597782350763737 0 0 0 0 97.688302097373992 -5.9097450919434777 0 -5.9097450919434777 -82.524390871054493 0 0 0 0 43.746746862318503 41.699358020798172 0 41.699358020798172 -122.95411528143086 0 0 0 0 20.4094552515092 -9.0753421904191782 0 -9.0753421904191782 -84.776661923900519 0 0 0 0 0.26668291785225051 76.168346447539079 0 76.168346447539079 178.4694315266388 0 0 0 0 0.10752261004567509 0.0017013909542864525 0 0.0017013909542864525 -0.10723564494728066 0 0 0 0 0.18643556769608682 0.13383677673880179 0 0.13383677673880179 -2.4792618088488041 0 0 0 0 139.88337054061375 51.255553465272897 0 51.255553465272897 -39.605787888023769 0 0 0 0 103.17405839373956 18.931317997629776 0 18.931317997629776 29.367837392172078 0 0 0 0 237.402045685026 -174.32979557110411 0 -174.32979557110411 -117.15316447410169 0 0 0 0 215.45886896079935 -210.99143616662877 0 -210.99143616662877 -175.4373965810446 0 0 0 0 -14.982705416835586 111.6268695240642 0 111.6268695240642 -86.179342636569345 0 0 0 0 -29.170498813148299 184.14087183808533 0 184.14087183808533 -451.39319988108036 0 0 0 0 -0.0049387631606147009 -0.30538578376688896 0 -0.30538578376688896 -1.0432149234594306 0 0 0 0 31.518703252915884 -60.3736658139469 0 -60.3736658139469 -342.00458449349026 0 0 0 0 40.167919694396687 45.84337235676503 0 45.84337235676503 -548.8035715435899 0 0 0 0 20.652158077864016 30.610930265007937 0 30.610930265007937 -307.19180829405377 0 0 0 0 -0.47646944626642351 91.410159404273145 0 91.410159404273145 -284.33240624735481 0 0 0 0 150.73861617206194 3.5143383243375865 0 3.5143383243375865 -474.49100528145573 0 0 0 0 214.34940030004509 -94.162859509686314 0 -94.162859509686314 -380.91774831834482 0 0 0 0 37.270923426186357 -12.008326255505381 0 -12.008326255505381 -422.01975735606356 0 0 0 0 153.03692805701601 -61.994145583122673 0 -61.994145583122673 -567.38148999615441 0 0 0 0 0.0011101143624509208 0.11442535496826167 0 0.11442535496826167 -2.9284474220767152 0 0 0 0 -3.3724868049190917 -138.23795957352286 0 -138.23795957352286 -156.76495900141526 0 0 0 0 0.05594574501660754 -0.1444038558101326 0 -0.1444038558101326 -1.9036740697406387 0 0 0 0 4.9977181204100276 -166.52355566465758 0 -166.52355566465758 -364.81771268629473 0 0 0 0 -22.458386301816176 -7.1872871419873263 0 -7.1872871419873263 33.961598862279061 0 0 0 0 -1.6967057134933441 -33.655882785216363 0 -33.655882785216363 -301.91570460856747 0 0 0 0 -14.642401467892455 -16.235710064425803 0 -16.235710064425803 -230.04225550495175 0 0 0 0 -45.233279170818378 -15.977548540042335 0 -15.977548540042335 -72.176446280966047 0 0 0 0 -19.471461778096682 -65.689891646174146 0 -65.689891646174146 -208.1987469123269 0 0 0 0 -53.484389498166706 -72.5564474571338 0 -72.5564474571338 -63.353799211221485 0 0 0 0 -13.026321452223556 28.810980050121543 0 28.810980050121543 -14.275590946093871 0 0 0 0 -41.066790445509127 -29.08269747432314 0 -29.08269747432314 -57.448672549637195 0 0 0 0 -39.976340915645686 14.963495575549917 0 14.963495575549917 -7.1393108755619323 0 0 0 0 63.488630904965476 43.399825585638609 0 43.399825585638609 -14.965178472746629 0 0 0 0 0.00029918769184697453 0.11938315533552668 0 0.11938315533552668 -2.9545464895054465 0 0 0 0 0.06129787488840141 0.42478655192772008 0 0.42478655192772008 -4.0326596079390455 0 0 0 0 0.14310218471048033 0.46045411746945319 0 0.46045411746945319 -4.0940663521432725 0 0 0 0 125.46943002478531 53.745790356525504 0 53.745790356525504 -32.488285128238203 0 0 0 0 56.67420577788539 77.010360678517827 0 77.010360678517827 18.7368351984951 0 0 0 0 2.4264603337891231 15.158398637318896 0 15.158398637318896 -10.999331597847004 0 0 0 0 -2.7410202150223313 1.2142787156417398 0 1.2142787156417398 -97.815286106952044 0 0 0 0 -33.089093652580402 -12.711477670774002 0 -12.711477670774002 -37.34344907765626 0 0 0 0 -27.096597473063085 4.7059082542443775 0 4.7059082542443775 -60.968103299852373 0 0 0 0 -41.98925019166461 -14.213707030903606 0 -14.213707030903606 -32.14892429950487 0 0 0 0 -39.977705014171072 -19.795111056762153 0 -19.795111056762153 -50.667820212733204 0 0 0 0 -40.525030151134501 9.1152475523722387 0 9.1152475523722387 -12.905158709748321 0 0 0 0 -40.941250388122853 2.089521764568417 0 2.089521764568417 -71.501896315250633 0 0 0 0 -40.384999844886352 -28.545182263573224 0 -28.545182263573224 -85.787778444329888 0 0 0 0 -36.514199964652249 -46.067143443282703 0 -46.067143443282703 -134.86984308805768 0 0 0 0 -40.631401913422337 6.4356885447359673 0 6.4356885447359673 -176.24281027519646 0 0 0 0 -25.525328456387228 -31.184546581623181 0 -31.184546581623181 -180.01672637972661 0 0 0 0 -23.851448588289379 -18.246607119109576 0 -18.246607119109576 -100.35815467664361 0 0 0 0 -23.966958745799957 10.000102003803477 0 10.000102003803477 -134.38355427474926 0 0 0 0 -3.7986067387248568 45.743920768744829 0 45.743920768744829 -297.87557220465987 0 0 0 0 -8.0918549623959279 -17.499536399407702 0 -17.499536399407702 -190.7712732667278 0 0 0 0 -30.461087686656441 42.38443214799463 0 42.38443214799463 -220.28894796573877 0 0 0 0 -16.932306629601001 26.9123792956118 0 26.9123792956118 -239.7230406990675 0 0 0 0 -38.921078714211717 12.91921519270727 0 12.91921519270727 -247.12070534355917 0 0 0 0 19.485203294439543 91.957634332824455 0 91.957634332824455 -416.65206985348595 0 0 0 0 -30.157325395509588 104.10755020479701 0 104.10755020479701 -410.82299877279002 0 0 0 0 0.11916021290862566 -0.011719289294934043 0 -0.011719289294934043 -1.3825093666376134 0 0 0 0 -54.823146146101351 73.568040418006603 0 73.568040418006603 -71.211003541060563 0 0 0 0 -13.248503394000721 -24.421204464445054 0 -24.421204464445054 -80.884843890220509 0 0 0 0 -36.603611108464406 -77.354434410162867 0 -77.354434410162867 12.620818605457316 0 0 0 0 23.721410811951387 82.454554486645065 0 82.454554486645065 -276.90062421234506 0 0 0 0 23.940353503432675 75.451129283538648 0 75.451129283538648 -224.15430251548378 0 0 0 0 8.7368055116911023 53.363163912190885 0 53.363163912190885 -120.81961049543497 0 0 0 0 13.036303414989661 22.914247807187166 0 22.914247807187166 -153.24858735657472 0 0 0 0 18.257228781164144 23.10788672151466 0 23.10788672151466 -179.69673338319262 0 0 0 0 -1.5683106809279934 6.8006687080105621 0 6.8006687080105621 -192.76862615628352 0 0 0 0 7.6012051911479261 11.426445706866616 0 11.426445706866616 -165.9704639565216 0 0 0 0 7.3500391139816088 -17.106767101178775 0 -17.106767101178775 -157.2168596593965 0 0 0 0 -9.3111357238520895 -0.82226311333397462 0 -0.82226311333397462 -171.8516366632748 0 0 0 0 13.860531260937819 6.7785373141532546 0 6.7785373141532546 -178.92988914170564 0 0 0 0 36.90287574958279 58.597060293671802 0 58.597060293671802 -78.838288041026317 0 0 0 0 0.025216213905930762 0.066022256224277598 0 0.066022256224277598 -0.42282609814683525 0 0 0 0 -21.084649885669478 -63.972896031751588 0 -63.972896031751588 -140.50559611621793 0 0 0 0 -14.397597842979053 -33.910034600200561 0 -33.910034600200561 -35.930208241679793 0 0 0 0 -10.321131507704195 12.260316546794456 0 12.260316546794456 -36.645321848336607 0 0 0 0 4.1124202158401886 -11.665936770024928 0 -11.665936770024928 -11.615149576930889 0 0 0 0 4.1527223014856247 18.519268085139629 0 18.519268085139629 -82.601960557905841 0 0 0 0 18.829829343201595 -1.4995804077379944 0 -1.4995804077379944 -113.29477987923929 0 0 0 0 -1.7927523648737065 15.027832800123178 0 15.027832800123178 -20.122332713541255 0 0 0 0 -0.079919723478440119 9.6438473232010438 0 9.6438473232010438 -60.574792065497604 0 0 0 0 11.653229132080128 -12.349810251456802 0 -12.349810251456802 -127.88800919111054 0 0 0 0 8.6365274067861719 -7.4611812989478494 0 -7.4611812989478494 -74.694663788338403 0 0 0 0 20.265505166808595 21.696800246934799 0 21.696800246934799 -157.32907590300874 0 0 0 0 14.598193237972296 0.21604669116982222 0 0.21604669116982222 -120.60944353010564 0 0 0 0 17.703769968011443 14.442447961568178 0 14.442447961568178 -116.14953179923134 0 0 0 0 12.693098286598897 27.12540581337862 0 27.12540581337862 -142.41796500043893 0 0 0 0 18.386904548625296 39.864682903510584 0 39.864682903510584 -164.55509236126045 0 0 0 0 15.414665473180719 33.198596977079433 0 33.198596977079433 -130.08824900027503 0 0 0 0 11.911878483447001 25.334263398259054 0 25.334263398259054 -142.7733038580991 0 0 0 0 -21.446584834110027 13.181611619470914 0 13.181611619470914 -125.48977070049295 0 0 0 0 -5.475102664112832 35.631181613102854 0 35.631181613102854 -97.766626285419989 0 0 0 0 6.6954332298866177 -17.550247593284439 0 -17.550247593284439 -111.01975890081849 0 0 0 0 -0.70284093169419748 21.289907869011586 0 21.289907869011586 -85.83761413495904 0 0 0 0 6.955990219411774 45.495944203331419 0 45.495944203331419 -125.17062584315363 0 0 0 0 2.0904719696696361 19.093294164622421 0 19.093294164622421 -88.076916400106711 0 0 0 0 9.6565745308244004 36.957997481111306 0 36.957997481111306 -114.27985974676722 0 0 0 0 -20.766636547832547 63.679698084531765 0 63.679698084531765 -68.053909695650873 0 0 0 0 -36.895444873902989 37.433754514599059 0 37.433754514599059 17.638760079022177 0 0 0 0 -25.852272971864522 21.424715533363269 0 21.424715533363269 29.280905557166989 0 0 0 0 0.54007013469617959 13.849725033119284 0 13.849725033119284 -29.407415705813037 0 0 0 0 -0.8198758306975833 -4.8327631070114876 0 -4.8327631070114876 -15.891033880216128 0 0 0 0 4.2211944355409514 -1.5552435906556639 0 -1.5552435906556639 -31.695619844701014 0 0 0 0 -10.355971502498306 15.312344666714125 0 15.312344666714125 -34.462614257066889 0 0 0 0 48.286548149509287 -9.4144177172452146 0 -9.4144177172452146 -35.493013017392514 0 0 0 0 -0.7550533833253894 9.2610103930528567 0 9.2610103930528567 -53.031566776702221 0 0 0 0 -4.5992788048781108 6.6309319381889509 0 6.6309319381889509 -40.092456229884192 0 0 0 0 -4.7799244141235135 7.7712517183535965 0 7.7712517183535965 -38.258603682030298 0 0 0 0 5.8457245330757317 3.5112520879008571 0 3.5112520879008571 -37.323084653002297 0 0 0 0 11.578034260035793 2.8623919139336067 0 2.8623919139336067 -38.054210169066209 0 0 0 0 5.5962974936932142 2.5785765112123045 0 2.5785765112123045 -37.949963168523936 0 0 0 0 29.952135455282409 1.4804356964236831 0 1.4804356964236831 12.13434935730038 0 0 0 0 -0.42077000746460924 -0.42527960589848313 0 -0.42527960589848313 -0.47586429579840939 0 0 0 0 -1.0233834612112105 -5.007527520306212 0 -5.007527520306212 -1.9033933981372684 0 0 0 0 19.067453423601819 -17.567528102412325 0 -17.567528102412325 5.9101076417300646 0 0 0 0 -0.00036991592628510261 -11.432687171130965 0 -11.432687171130965 -4.1722534329758219 0 0 0 0 -7.7584272436111519 -1.0213381638695864 0 -1.0213381638695864 -1.9648676043202613 0 0 0 0 2.1026124788913307 0.37157837620543432 0 0.37157837620543432 -1.6326952934477958 0 0 0 0 -9.2314330946217638 -4.8922670194078819 0 -4.8922670194078819 -3.9457228736864636 0 0 0 0 -7.9746858946016346 -10.760324337130442 0 -10.760324337130442 -24.307303319475977 0 0 0 0 -3.2183656049756593 5.5987973751186928 0 5.5987973751186928 -8.0756678634534182 0 0 0 0 -2.4505762175402879 -0.36901801972999237 0 -0.36901801972999237 -4.448567776942582 0 0 0 0 -7.3579522472479653 0.9252730986017923 0 0.9252730986017923 2.1956224742571067 0 0 0 0 -3.549110012993367 5.1561005665098492 0 5.1561005665098492 -35.198614350760181 0 0 0 0 -2.2936044605245058 -3.9296998736708701 0 -3.9296998736708701 -44.704770627678045 0 0 0 0 -5.408685329125511 5.6702359923824588 0 5.6702359923824588 -25.775215342928277 0 0 0 0 -32.40380222725058 40.95888387168543 0 40.95888387168543 -55.284082922620883 0 0 0 0 2.5704383210248807 -21.317199700581114 0 -21.317199700581114 -7.8865836656841566 0 0 0 0 -2.8533558014448488 5.4061020452381854 0 5.4061020452381854 -2.984980489935424 0 0 0 0 0.017561427339674252 -0.19661015911332669 0 -0.19661015911332669 -0.52046682989696436 0 0 0 0 4.8909721497165606 4.1799743643796319 0 4.1799743643796319 -4.478144264085131 0 0 0 0 -2.652691067477349 5.7631501978885353 0 5.7631501978885353 -2.4734363191428201 0 0 0 0 -0.02582913918396712 -0.48950930561291628 0 -0.48950930561291628 -1.1856194004355451 0 0 0 0 6.9604367716454192 1.5018228314293083 0 1.5018228314293083 -3.8511564725977223 0 0 0 0 5.4871821283100815 -1.3170673873273699 0 -1.3170673873273699 -1.9260379581373854 0 0 0 0 -19.147091013493167 31.400005066840095 0 31.400005066840095 -55.198019332201511 0 0 0 0 -23.425424794735008 38.999470952494448 0 38.999470952494448 -54.77424749576312 0 0 0 0 -52.527103340256737 44.889109932526026 0 44.889109932526026 -27.96067192135888 0 0 0 0 -0.030726614511163017 -0.29894810482045009 0 -0.29894810482045009 -0.064981774370430401 0 0 0 0 -31.780810124116677 34.59781264879075 0 34.59781264879075 -48.971105499023906 0 0 0 0 -9.767820176285575 35.871465954625819 0 35.871465954625819 -45.316165267626275 0 0 0 0 -23.118794800616733 36.79337843898611 0 36.79337843898611 -40.853363146714855 0 0 0 0 -15.468138886631312 40.380350448981517 0 40.380350448981517 -47.922717339417432 0 0 0 0 -22.583118345894675 35.12226275032117 0 35.12226275032117 -48.819672549702091 0 0 0 0 -26.546744588132789 36.47917742032223 0 36.47917742032223 -48.652768571621891 0 0 0 0 -13.094735673055929 38.176917546978075 0 38.176917546978075 -52.989442995554782 0 0 0 0 -32.847744574063775 30.375129739077238 0 30.375129739077238 -51.517996268461502 0 0 0 0 -30.088969971842761 29.489583286975176 0 29.489583286975176 -54.364120143040054 0 0 0 0 -23.802163704800016 37.920592657701945 0 37.920592657701945 -51.834274540102342 0 0 0 0 -25.818472961169725 33.442465821417954 0 33.442465821417954 -84.524901729340854 0 0 0 0 -34.085425267016142 1.6305991489847145 0 1.6305991489847145 -92.583244442874275 0 0 0 0 -35.274411991103179 19.232709532670924 0 19.232709532670924 -63.013852828504696 0 0 0 0 -13.874896940130853 28.072033159239254 0 28.072033159239254 -68.518162964750445 0 0 0 0 -6.8826957789007324 17.6579121579598 0 17.6579121579598 -100.46483179467759 0 0 0 0 -23.714740998057209 7.0584574392332797 0 7.0584574392332797 -110.14142020058443 0 0 0 0 -23.663462269051173 4.1057453308549157 0 4.1057453308549157 -125.77916394452222 0 0 0 0 -18.238176482853191 8.6739180975027921 0 8.6739180975027921 -122.33601141383986 0 0 0 0 -32.264503744327527 48.310060855230859 0 48.310060855230859 -129.22113834540869 0 0 0 0 -6.0028261767978535 23.268581751653528 0 23.268581751653528 -121.87677713001676 0 0 0 0 -3.9060304599650664 10.267520904185403 0 10.267520904185403 -137.29797724425225 0 0 0 0 -5.2109151052804314 -2.7524475347722728 0 -2.7524475347722728 -169.85257721698508 0 0 0 0 -10.407035180458614 38.945283715712321 0 38.945283715712321 -153.02446911828338 0 0 0 0 -5.7506248171188687 25.881718203586388 0 25.881718203586388 -96.824222227773134 0 0 0 0 -7.5551337714727245 37.015660745632488 0 37.015660745632488 -151.78542869555622 0 0 0 0 -0.040681141216218117 -1.995248870453711 0 -1.995248870453711 -2.1730329610484134 0 0 0 0 39.542677741600436 -34.601329296462609 0 -34.601329296462609 10.48671565413315 0 0 0 0 49.962630073129077 -75.392049008199592 0 -75.392049008199592 61.12993173299401 0 0 0 0 36.879392392198618 -24.136976901643266 0 -24.136976901643266 7.3508618444197964 0 0 0 0 -0.11586829101588492 -2.5201727300459069 0 -2.5201727300459069 -2.8609756786461773 0 0 0 0 -1.8038778772321464 9.7995519877408697 0 9.7995519877408697 -89.422290188980696 0 0 0 0 43.534780302043991 -43.130836463081323 0 -43.130836463081323 -24.139248430729822 0 0 0 0 49.146328288826808 -28.707562560576434 0 -28.707562560576434 2.7118703059859399 0 0 0 0 71.334884887813018 -56.43909403585667 0 -56.43909403585667 -2.8724608743377757 0 0 0 0 38.51710057221306 -133.0020357946687 0 -133.0020357946687 124.36297552280803 0 0 0 0 -0.074069925590622254 -0.77368893946063366 0 -0.77368893946063366 -0.89312636904169551 0 0 0 0 -18.660036513361213 81.75678652148946 0 81.75678652148946 -287.51743808456467 0 0 0 0 -22.991590528583412 -16.390489596068619 0 -16.390489596068619 -123.56510746043614 0 0 0 0 -23.018339070223611 -54.697425794784976 0 -54.697425794784976 -109.76594872865098 0 0 0 0 -1.6680104031921985 -19.968157376439649 0 -19.968157376439649 -240.84996116288403 0 0 0 0 -18.503997229887034 -24.929911904802793 0 -24.929911904802793 -42.099213817344207 0 0 0 0 43.656760816016821 -36.666872784807538 0 -36.666872784807538 -63.092422991301646 0 0 0 0 44.737888224145962 -38.650627161553359 0 -38.650627161553359 -122.74899425521471 0 0 0 0 41.861366903568523 -78.972175214383242 0 -78.972175214383242 -117.23319004243911 0 0 0 0 41.338730452428408 -101.8497859473332 0 -101.8497859473332 -65.416040710408197 0 0 0 0 43.551628730075606 -71.009905275052461 0 -71.009905275052461 -88.762869525144197 0 0 0 0 15.619281826492312 -44.511004982945451 0 -44.511004982945451 -77.513972153199575 0 0 0 0 13.553877904722668 -37.498888376080686 0 -37.498888376080686 -95.321625035820034 0 0 0 0 13.624480930964385 0.72521257326388877 0 0.72521257326388877 -77.600371325072047 0 0 0 0 36.64649913000185 -11.457233882120818 0 -11.457233882120818 -55.866199530484664 0 0 0 0 12.646616886328097 -39.879044140971473 0 -39.879044140971473 -18.015842955152038 0 0 0 0 -2.1569219771896755 -27.900301984733233 0 -27.900301984733233 -165.0540141768397 0 0 0 0 8.5345602380276659 -18.469743212714093 0 -18.469743212714093 -156.73675330324113 0 0 0 0 -66.27379358914709 -30.687085384381135 0 -30.687085384381135 -174.81177718658364 0 0 0 0 -57.224708331212355 12.051738315145485 0 12.051738315145485 -186.04823723840309 0 0 0 0 -7.2716776207907969 -5.3071660264722595 0 -5.3071660264722595 -224.19161500611335 0 0 0 0 -35.082672622361031 35.230071057662826 0 35.230071057662826 -160.26666835202923 0 0 0 0 -18.239251083886643 8.8077045705049386 0 8.8077045705049386 -192.44238813192169 0 0 0 0 -1.7141090592524506 12.588567657145177 0 12.588567657145177 -159.43471618795775 0 0 0 0 -15.629171295357366 18.17993611618931 0 18.17993611618931 -160.14288186918566 0 0 0 0 2.4968080789567466 0.30808159699881799 0 0.30808159699881799 -129.7726753097993 0 0 0 0 -0.30738099339413338 4.8556809297115251 0 4.8556809297115251 -109.9956397921087 0 0 0 0 22.235609812463338 -34.017540969711263 0 -34.017540969711263 -121.89703940389336 0 0 0 0 8.552992514690068 -32.020453802062882 0 -32.020453802062882 -115.40074506972815 0 0 0 0 8.6709785950383775 -45.004959894235981 0 -45.004959894235981 -94.262998848131247 0 0 0 0 28.870414828815086 -53.218556910445841 0 -53.218556910445841 -118.3327848732481 0 0 0 0 20.660259854322618 -65.593221321856618 0 -65.593221321856618 -78.743132811364376 0 0 0 0 5.0945825398949864 -57.755995910776619 0 -57.755995910776619 -85.570304183995177 0 0 0 0 16.561216755528335 -36.905220288916098 0 -36.905220288916098 -90.128726102052951 0 0 0 0 5.2807764499885934 -63.26649775770602 0 -63.26649775770602 -145.54390639955955 0 0 0 0 -19.887385061399527 -53.779949699341159 0 -53.779949699341159 -92.16496885554443 0 0 0 0 -58.539228827334 -58.188963314603825 0 -58.188963314603825 -54.777131255261793 0 0 0 0 -10.99729058476214 -62.894555730806132 0 -62.894555730806132 -183.6140097075986 0 0 0 0 -11.321285694959016 -18.675906814343762 0 -18.675906814343762 -44.744793119731185 0 0 0 0 3.5195719266662877 4.618126048857448 0 4.618126048857448 -47.043317448202288 0 0 0 0 31.008371589177493 13.88991690220891 0 13.88991690220891 -7.3280630894405476 0 0 0 0 29.888257683702989 -19.94675439767434 0 -19.94675439767434 -61.661633245465055 0 0 0 0 13.906985281002108 -19.538300235312818 0 -19.538300235312818 -47.472893769118855 0 0 0 0 48.081325839035642 -26.002460947888721 0 -26.002460947888721 -63.914675781018559 0 0 0 0 44.917411049772369 -66.922986080271585 0 -66.922986080271585 -96.417425189230926 0 0 0 0 99.296522753981989 -62.301308208820956 0 -62.301308208820956 -53.923823831583832 0 0 0 0 109.56821997181376 31.919139779171019 0 31.919139779171019 -27.920904170494396 0 0 0 0 8.3481397140127456 18.051822139842898 0 18.051822139842898 0.47098725981322787 0 0 0 0 28.110652677373253 40.33998355127369 0 40.33998355127369 15.248000334442622 0 0 0 0 89.682554412601036 -42.153674761027332 0 -42.153674761027332 5.6714401084682322 0 0 0 0 0.55456457559465211 1.886262046237313 0 1.886262046237313 -3.8941932622716635 0 0 0 0 55.482191492002727 -16.064414997359563 0 -16.064414997359563 -13.131898945030116 0 0 0 0 -0.053840021089545997 4.8817147169135557 0 4.8817147169135557 -19.126010884479768 0 0 0 0 135.95459755624506 10.21171237112776 0 10.21171237112776 -42.316471702732088 0 0 0 0 63.334597254409687 23.540682685626962 0 23.540682685626962 -39.057051610032659 0 0 0 0 31.044621396146745 -5.9077448768284739 0 -5.9077448768284739 -77.003485008704956 0 0 0 0 32.31996019521678 8.7589752204512479 0 8.7589752204512479 39.977337188391175 0 0 0 0 -5.6866629579760541 5.2155604167944603 0 5.2155604167944603 -34.723111136194348 0 0 0 0 11.968651090882858 42.257486620668715 0 42.257486620668715 -39.482387419837778 0 0 0 0 -14.380749212108448 28.561366125061454 0 28.561366125061454 -39.816508677502497 0 0 0 0 42.161840011460896 14.46104488284346 0 14.46104488284346 -33.524151183411959 0 0 0 0 42.3391433634471 31.955376789301617 0 31.955376789301617 -51.968480899988208 0 0 0 0 6.7368887599895118 40.846623557750718 0 40.846623557750718 -48.975760310423539 0 0 0 0 8.513685172095677 28.453225416513305 0 28.453225416513305 -38.633016290972591 0 0 0 0 -13.002290584400519 36.850402295463255 0 36.850402295463255 -42.542935450097502 0 0 0 0 -2.4719416349297347 43.750515234637533 0 43.750515234637533 -50.373636405543948 0 0 0 0 -0.72394734501281022 26.724713988512633 0 26.724713988512633 -49.045784413374349 0 0 0 0 -9.0070459277586821 37.221487734806942 0 37.221487734806942 -56.51978015703753 0 0 0 0 33.635279488243825 16.275792151470114 0 16.275792151470114 -44.597585646970401 0 0 0 0 25.660860399864021 39.629447400902791 0 39.629447400902791 -48.003300438860606 0 0 0 0 -0.85452735462756135 4.6349931110999139 0 4.6349931110999139 -19.656471976904555 0 0 0 0 83.440944308982012 15.735585551202803 0 15.735585551202803 -37.748956238800019 0 0 0 0 89.615004349341973 0.38155431216637226 0 0.38155431216637226 -38.194627245260563 0 0 0 0 59.64698313304072 31.454886222245477 0 31.454886222245477 -50.313156183634419 0 0 0 0 60.540654983058062 19.790777255931971 0 19.790777255931971 -27.287458027202774 0 0 0 0 37.722896707530964 31.857127165255861 0 31.857127165255861 -9.5401675452212658 0 0 0 0 27.470527365242845 25.798949229822483 0 25.798949229822483 -4.0338308231785049 0 0 0 0 34.313086946812831 37.773277047376723 0 37.773277047376723 3.5425261172276805 0 0 0 0 74.946315119693168 33.69949979989758 0 33.69949979989758 -31.033105160987361 0 0 0 0 49.923425407042885 22.952427136826373 0 22.952427136826373 -15.482276082659155 0 0 0 0 -0.77703554407926756 4.7050542455968518 0 4.7050542455968518 -19.328000235146074 0 0 0 0 40.952031305146932 28.868103871690437 0 28.868103871690437 -12.198361237718927 0 0 0 0 35.463341567476334 36.453111560696925 0 36.453111560696925 -15.159443313628799 0 0 0 0 39.233743273840645 34.04030156735962 0 34.04030156735962 -26.679484302669152 0 0 0 0 17.376585609260331 54.143446871851665 0 54.143446871851665 -72.059012420430008 0 0 0 0 16.331510308119761 46.046975250530522 0 46.046975250530522 -30.36807188814555 0 0 0 0 28.138490617421837 52.246766737876897 0 52.246766737876897 -23.407734353573687 0 0 0 0 0.93449329557329364 34.157095050516546 0 34.157095050516546 -55.575570920420432 0 0 0 0 10.320782637683664 22.813526009057568 0 22.813526009057568 -127.44170877773104 0 0 0 0 -0.011396561073203082 0.051955197289501598 0 0.051955197289501598 -0.023121263586680596 0 0 0 0 -2.0476098903419881 39.002029844199569 0 39.002029844199569 100.08553437386357 0 0 0 0 13.607155758394143 23.904505788988899 0 23.904505788988899 58.55131827797095 0 0 0 0 -2.7779322885177606 28.109411839195673 0 28.109411839195673 57.606719687420991 0 0 0 0 16.412436469349203 24.001424639624474 0 24.001424639624474 24.352076331404533 0 0 0 0 24.292467402769933 21.097238521675536 0 21.097238521675536 18.299994376620816 0 0 0 0 24.393246699844525 30.571387047194548 0 30.571387047194548 12.715597477908887 0 0 0 0 17.000698749415392 55.622661531646372 0 55.622661531646372 66.790357311101616 0 0 0 0 24.258468532195096 55.24771965741138 0 55.24771965741138 10.887166741948022 0 0 0 0 16.118492529297157 29.330667164605075 0 29.330667164605075 27.832677297777082 0 0 0 0 16.322735830380054 29.518565411060081 0 29.518565411060081 3.0629480785139549 0 0 0 0 20.326342909978791 25.157898399404075 0 25.157898399404075 -11.956178008265852 0 0 0 0 22.496739876183355 21.370766630094522 0 21.370766630094522 -11.840798980809268 0 0 0 0 16.825156902574875 11.984012945000359 0 11.984012945000359 3.0392379688755682 0 0 0 0 14.190862377608337 30.298101926082609 0 30.298101926082609 14.455120822141907 0 0 0 0 19.870961388582469 6.9241933912426248 0 6.9241933912426248 -55.595787502894382 0 0 0 0 25.660891336215229 22.620400265843273 0 22.620400265843273 -14.49378998262182 0 0 0 0 19.958242616778335 29.140453688761227 0 29.140453688761227 -20.071149528966998 0 0 0 0 3.8621937238207806 20.642313588338766 0 20.642313588338766 -11.360314787363677 0 0 0 0 17.271838064203877 12.175681855970652 0 12.175681855970652 -13.846760466232809 0 0 0 0 12.603883826875062 14.218838617826805 0 14.218838617826805 -16.751061540624505 0 0 0 0 9.1737349629613618 9.2403300497117016 0 9.2403300497117016 -13.181534720406489 0 0 0 0 14.553453835849893 14.769790368215581 0 14.769790368215581 -5.9380561170364672 0 0 0 0 19.930759676670959 22.253166787457303 0 22.253166787457303 -1.1949379073266755 0 0 0 0 14.413791197425326 8.7369045292375631 0 8.7369045292375631 -12.35285973080363 0 0 0 0 28.368569498242096 14.55741058352578 0 14.55741058352578 -17.354967046165257 0 0 0 0 -34.567969555867421 30.244049424195964 0 30.244049424195964 24.956377386162785 0 0 0 0 55.851222793368379 -34.569811240146009 0 -34.569811240146009 -65.233975795176093 0 0 0 0 -0.53398276677970524 4.0474733247315813 0 4.0474733247315813 -17.963974791214845 0 0 0 0 3.7083526484338272 -3.4060843077924607 0 -3.4060843077924607 -1.3891245249900308 0 0 0 0 -0.51707415184205274 -5.6543637665149618 0 -5.6543637665149618 -0.54710030178375746 0 0 0 0 3.0394332367231982 6.0997722837319088 0 6.0997722837319088 -25.294947092132134 0 0 0 0 4.7697242432268467 7.9944854272152952 0 7.9944854272152952 -25.453476977396349 0 0 0 0 0.36055716597108978 2.1471757951203072 0 2.1471757951203072 -11.841013138233745 0 0 0 0 4.7975571947931712 17.307063256577749 0 17.307063256577749 -16.327556901997241 0 0 0 0 -10.329473820730755 7.3991944934759886 0 7.3991944934759886 -19.972760414835648 0 0 0 0 1.5153463437451915 -0.070172886216884223 0 -0.070172886216884223 -4.7354957850715031 0 0 0 0 4.778000885471215 11.647055057341277 0 11.647055057341277 -12.219472406922705 0 0 0 0 -42.497392936589677 -2.5487805119273617 0 -2.5487805119273617 -32.028153549675608 0 0 0 0 0.78965791525670181 1.7806494552473922 0 1.7806494552473922 -1.8943761064333771 0 0 0 0 -0.54809404902843539 -0.65392427888906468 0 -0.65392427888906468 -9.2624788584107591 0 0 0 0 -0.3525890420098845 9.4582156254797951 0 9.4582156254797951 -31.408491762637823 0 0 0 0 0.20498958519584676 5.3944405149054546 0 5.3944405149054546 -9.9126011701753214 0 0 0 0 -92.725959487229659 -78.17148418513807 0 -78.17148418513807 -33.524098322086502 0 0 0 0 0.41135236057954738 0.7334593310445694 0 0.7334593310445694 -2.642471682776705 0 0 0 0 -164.42005405315592 65.968462385625571 0 65.968462385625571 -41.602758959188577 0 0 0 0 -93.724745850693537 93.397672120994685 0 93.397672120994685 -65.734892106829648 0 0 0 0 -0.23686892592178266 2.0330460289403574 0 2.0330460289403574 -7.1339960274477683 0 0 0 0 -46.888136404395475 -158.97395855358445 0 -158.97395855358445 -288.61717284122642 0 0 0 0 -0.5499042198124714 1.0189702479701821 0 1.0189702479701821 -2.8337766490628518 0 0 0 0 -612.71612710653062 336.60315387265007 0 336.60315387265007 -142.00533555687616 0 0 0 0 -631.6375725011319 171.56994863155705 0 171.56994863155705 -500.61616482861064 0 0 0 0 56.632917986402347 -37.239292026360999 0 -37.239292026360999 -548.28446855435845 0 0 0 0 31.401914252247813 34.004621254777476 0 34.004621254777476 -210.38813167713852 0 0 0 0 -41.439016624671261 314.59196405897137 0 314.59196405897137 -499.84128918244096 0 0 0 0 -6.5455664930768167 231.68405997514446 0 231.68405997514446 -374.88560467661591 0 0 0 0 -186.56512228184295 308.57204142240607 0 308.57204142240607 -300.32106497401401 0 0 0 0 -191.75066187151432 377.38802446325917 0 377.38802446325917 -553.00331366105775 0 0 0 0 -193.85070765284698 221.11057109484955 0 221.11057109484955 -155.76755489268362 0 0 0 0 -95.081699927081445 235.38545327449174 0 235.38545327449174 -298.78066193218848 0 0 0 0 -102.58789861455472 243.04350671909401 0 243.04350671909401 -219.6289509221624 0 0 0 0 -47.918061874974399 183.0580869342466 0 183.0580869342466 -175.81025272612897 0 0 0 0 -26.77523441640335 172.93378330866744 0 172.93378330866744 -221.9298429630897 0 0 0 0 -47.274580819300525 106.74482396636449 0 106.74482396636449 -93.234079417232351 0 0 0 0 -97.230065618068465 119.14193721778474 0 119.14193721778474 -78.164677294240391 0 0 0 0 -71.488168197595201 119.06035145648821 0 119.06035145648821 -86.960729865279973 0 0 0 0 -80.304047011718239 99.699240329757231 0 99.699240329757231 -83.500091781050287 0 0 0 0 13.44640166903261 30.834680595884493 0 30.834680595884493 -60.10083310603477 0 0 0 0 0.3357632312080937 0.15480928330937616 0 0.15480928330937616 0.11822261786267418 0 0 0 0 -8.6502731065830289 35.224711485545413 0 35.224711485545413 -19.980586101718757 0 0 0 0 -24.096824339782962 106.54391336023355 0 106.54391336023355 -67.878317882172269 0 0 0 0 -20.26960149015655 169.56741584610063 0 169.56741584610063 -221.53266730355517 0 0 0 0 20.417773218026536 95.949783988563468 0 95.949783988563468 -163.4716153160407 0 0 0 0 -49.799954777590131 170.36377284403079 0 170.36377284403079 -208.65368521363689 0 0 0 0 -60.425011652456028 136.96898310145605 0 136.96898310145605 -308.39152590187223 0 0 0 0 -18.430736543851225 169.65845224557415 0 169.65845224557415 -304.54027952367869 0 0 0 0 -3.7805138547557684 217.9573327973535 0 217.9573327973535 -319.44244537088923 0 0 0 0 27.024600430434671 192.13824460594469 0 192.13824460594469 -499.90906430102496 0 0 0 0 54.458472688457412 100.84189218210213 0 100.84189218210213 -499.84534645000826 0 0 0 0 41.690960756136157 129.22487889255535 0 129.22487889255535 -310.08502675061573 0 0 0 0 75.854048673546529 32.293796028470751 0 32.293796028470751 -324.94513603440464 0 0 0 0 17.271147151485152 59.060489057388622 0 59.060489057388622 -335.94741380278265 0 0 0 0 -25.436440730573111 111.86952429812345 0 111.86952429812345 -233.51633750546898 0 0 0 0 -30.504268419891304 95.472970291102683 0 95.472970291102683 -251.24787996274608 0 0 0 0 -23.180441668152483 137.63369273896569 0 137.63369273896569 -265.0715725779005 0 0 0 0 -6.0960820440192975 106.66586772516075 0 106.66586772516075 -237.56366331969093 0 0 0 0 -24.021470445872694 131.98591974069427 0 131.98591974069427 -196.9030757400451 0 0 0 0 -18.43635142533698 111.08197759135555 0 111.08197759135555 -181.38892398266307 0 0 0 0 13.01541015009618 29.609131817948764 0 29.609131817948764 -138.1500083046285 0 0 0 0 -78.089526972436829 126.60179821087422 0 126.60179821087422 -120.61450559541481 0 0 0 0 7.4680733046936894 -11.236060321030891 0 -11.236060321030891 -24.807324494385853 0 0 0 0 -33.103901740372081 38.859780575585091 0 38.859780575585091 -19.535080111623756 0 0 0 0 -42.416432006038534 20.190877351335985 0 20.190877351335985 -26.86176769474514 0 0 0 0 -152.65264130407527 159.23137680382206 0 159.23137680382206 -121.58782716464793 0 0 0 0 73.485792885671088 -13.535973229174033 0 -13.535973229174033 -51.620196971944097 0 0 0 0 -0.1180090140912414 0.58365938693775998 0 0.58365938693775998 -1.4574298160840087 0 0 0 0 -5.2170833288356437 21.443134934920636 0 21.443134934920636 -9.6525377904126799 0 0 0 0 51.691401570348503 43.480740203252935 0 43.480740203252935 -171.26869247940567 0 0 0 0 14.62341364416514 21.228111167492898 0 21.228111167492898 -9.6633505627897875 0 0 0 0 -0.13681156477568379 25.453796364941354 0 25.453796364941354 21.478661399802149 0 0 0 0 5.0719570216456589 40.924552582685465 0 40.924552582685465 11.527651213084937 0 0 0 0 29.651348447968829 24.846192152738695 0 24.846192152738695 13.398915137593576 0 0 0 0 0.097382146421405927 1.0201629582510048 0 1.0201629582510048 -3.2396993304521189 0 0 0 0 17.723706044549488 -2.4499654391966033 0 -2.4499654391966033 5.0024600916894997 0 0 0 0 24.523361321181461 -0.54428862389761434 0 -0.54428862389761434 -28.389638618948084 0 0 0 0 10.111819292907878 36.350326710461104 0 36.350326710461104 31.254462732187676 0 0 0 0 9.9181841499686172 4.3131449594634432 0 4.3131449594634432 -1.3012610518453585 0 0 0 0 -3.9479778953367166 17.207533313940985 0 17.207533313940985 46.856403967401093 0 0 0 0 0.20583599409700321 0.25700139637249286 0 0.25700139637249286 -0.35388540474354357 0 0 0 0 -0.16663360870529687 0.30239413248656533 0 0.30239413248656533 -0.084575909695625839 0 0 0 0 25.597251331962923 14.63507152068496 0 14.63507152068496 6.239403302233768 0 0 0 0 -11.365061506101934 26.60912042241398 0 26.60912042241398 -40.348031269164608 0 0 0 0 -5.538986544325482 28.575677719640225 0 28.575677719640225 -58.833559848250673 0 0 0 0 -11.394796334118876 28.830109920853488 0 28.830109920853488 -52.279407000271021 0 0 0 0 -0.12553775093776423 0.77369745497205145 0 0.77369745497205145 -0.8742883073717711 0 0 0 0 0.22628378155520371 0.13320401143948013 0 0.13320401143948013 -1.5800719432673915 0 0 0 0 0.22419976209397419 0.3962324582371366 0 0.3962324582371366 -1.4333717043919023 0 0 0 0 -22.343491845970959 19.447979008586117 0 19.447979008586117 -22.427914444739372 0 0 0 0 0.15187469368386014 0.11883256238625783 0 0.11883256238625783 -0.82554232157344387 0 0 0 0 -0.91544844996378849 0.095985276335113667 0 0.095985276335113667 -2.1979732496001816 0 0 0 0 -2.3824161587180939 4.794338126825096 0 4.794338126825096 5.9915520237691453 0 0 0 0 0.95574927821996036 -0.18953411029020728 0 -0.18953411029020728 -0.5873896153211019 0 0 0 0 3.2588884921815122 -1.0596888317086268 0 -1.0596888317086268 2.7641733434411435 0 0 0 0 3.2658020948637159 1.235224861138704 0 1.235224861138704 -2.5040828011615304 0 0 0 0 0.15670710921072342 -0.14928827759998953 0 -0.14928827759998953 -0.015190484132920012 0 0 0 0 3.2430064879872589 1.7077291183395573 0 1.7077291183395573 -3.1485437546953108 0 0 0 0 -4.4910997814693019 2.166444297594353 0 2.166444297594353 6.8542183680438029 0 0 0 0 -1.7847600326626889 0.14285539331831387 0 0.14285539331831387 2.4850751249323366 0 0 0 0 3.2427756102519822 1.6821817256886789 0 1.6821817256886789 0.34576183934586879 0 0 0 0 0.10544357573840546 -0.22288574091084712 0 -0.22288574091084712 0.068439743185288004 0 0 0 0 -35.609938092876043 6.1280658087307529 0 6.1280658087307529 -2.166653588275949 0 0 0 0 -18.953602296514987 -16.85717114468207 0 -16.85717114468207 0.4958645677070308 0 0 0 0 14.562749667779102 -26.888274956199893 0 -26.888274956199893 -77.611964466523204 0 0 0 0 18.726854553153789 13.331931045906913 0 13.331931045906913 -7.535149116825778 0 0 0 0 12.109829255948142 -14.406910815872834 0 -14.406910815872834 -25.080506189253356 0 0 0 0 -12.533281381704079 14.785836059190842 0 14.785836059190842 -48.792307293286285 0 0 0 0 -13.463708156600148 -2.7895001043816592 0 -2.7895001043816592 -29.411328981076394 0 0 0 0 -27.409862001509111 -3.0107353000603325 0 -3.0107353000603325 15.119651847089699 0 0 0 0 8.1926849542273565 20.154703830805829 0 20.154703830805829 -6.691139086309704 0 0 0 0 -0.968737305390448 6.1386946099501074 0 6.1386946099501074 -130.92933705747839 0 0 0 0 3.8582630479834279 58.842849598281646 0 58.842849598281646 -135.16923463796263 0 0 0 0 0.24926398374728781 -0.78589136386701774 0 -0.78589136386701774 -1.5830781406505636 0 0 0 0 6.0619560865418123 -12.157806879167765 0 -12.157806879167765 2.912128528077119 0 0 0 0 7.081627234380818 0.57628018678587978 0 0.57628018678587978 -5.5269646760343676 0 0 0 0 2.4438683061118951 -24.291068400529184 0 -24.291068400529184 -35.966219843130602 0 0 0 0 0.061799628040052734 -0.19253126012981525 0 -0.19253126012981525 -0.76851204511633497 0 0 0 0 -3.9305051742060186 5.1329632278011559 0 5.1329632278011559 3.9467873035100638 0 0 0 0 6.5277042996441708 9.6995089186366386 0 9.6995089186366386 9.3219785244218656 0 0 0 0 0.48533568464136995 -0.057541748052191366 0 -0.057541748052191366 0.01097684938953325 0 0 0 0 1.3144082925758482 1.2825522337407165 0 1.2825522337407165 -3.4665109714769642 0 0 0 0 0.60502696877709639 3.7018846134483283 0 3.7018846134483283 -1.402044046913943 0 0 0 0 -1.0125795366719288 -3.7162617582886242 0 -3.7162617582886242 10.072968777398273 0 0 0 0 0.41119609615317909 -0.26574473188225767 0 -0.26574473188225767 -0.76938608902561967 0 0 0 0 -12.488471325838162 13.231792876089912 0 13.231792876089912 -26.48812670928055 0 0 0 0 -1.1827961465252201 -6.035050291880907 0 -6.035050291880907 -3.7353934107795794 0 0 0 0 1.5594877498576305 -0.065563901002128944 0 -0.065563901002128944 -0.72338127108581496 0 0 0 0 -0.96098715804403434 -1.3563041394261734 0 -1.3563041394261734 -1.3858062717583373 0 0 0 0 0.4253032147189888 0.13558291400634204 0 0.13558291400634204 0.011569798778026552 0 0 0 0 26.019941585036577 -1.3449446578761126 0 -1.3449446578761126 -23.049757447903175 0 0 0 0 -6.0978777076362576 -6.1395147790781266 0 -6.1395147790781266 11.254072773548614 0 0 0 0 44.73124079290443 -36.59473099043953 0 -36.59473099043953 -161.00734418160209 0 0 0 0 5.7683917061805232 25.044153707682199 0 25.044153707682199 -184.26900813825887 0 0 0 0 24.483398186649367 -20.218465898878094 0 -20.218465898878094 -153.2574534978794 0 0 0 0 11.693575526753079 25.910197090142901 0 25.910197090142901 -148.10798636831873 0 0 0 0 36.249039481997954 60.761634422766292 0 60.761634422766292 -259.30307151818852 0 0 0 0 18.646937361723758 100.16464609121249 0 100.16464609121249 -312.96254903096929 0 0 0 0 42.284798820714684 -22.261792976947618 0 -22.261792976947618 -299.75663527568577 0 0 0 0 95.981130648814258 90.370331930324937 0 90.370331930324937 -547.06882955001674 0 0 0 0 36.200240784143261 -76.0023259366817 0 -76.0023259366817 -381.28789163515921 0 0 0 0 -185.0546111700879 301.40716638526465 0 301.40716638526465 -374.24308849201407 0 0 0 0 0.53238273195731622 0.018371598454402616 0 0.018371598454402616 -2.2149076971299664 0 0 0 0 40.454930818773505 138.69926998772189 0 138.69926998772189 -238.09421104532066 0 0 0 0 31.81584416061775 112.81167529500533 0 112.81167529500533 -220.99510794632261 0 0 0 0 38.951662352347341 85.1070230364694 0 85.1070230364694 -283.71690118108199 0 0 0 0 32.660956540198526 53.654346658555824 0 53.654346658555824 -263.90300622255381 0 0 0 0 -9.8903276482232343 83.511650705054308 0 83.511650705054308 -234.46030772571044 0 0 0 0 -28.871696591131474 121.67939502113632 0 121.67939502113632 -250.42075648612263 0 0 0 0 -3.1417529137601576 119.87554019407889 0 119.87554019407889 -183.73501792340903 0 0 0 0 36.337400857960205 112.18826376275592 0 112.18826376275592 -221.01966572797974 0 0 0 0 24.261627824566318 98.762450964602067 0 98.762450964602067 -145.99175041735361 0 0 0 0 35.741297801399519 21.604952653389034 0 21.604952653389034 -5.3650168090116495 0 0 0 0 30.780847175348242 63.129532661847406 0 63.129532661847406 -218.98584470074002 0 0 0 0 20.456918520392371 34.288640677637886 0 34.288640677637886 -179.34777971125368 0 0 0 0 139.40272828853637 -95.03816519798238 0 -95.03816519798238 -354.55032857229253 0 0 0 0 165.41276453742771 -177.77651019477457 0 -177.77651019477457 -112.21445534040868 0 0 0 0 -19.673643519659073 26.915341975945921 0 26.915341975945921 -500.03931075505898 0 0 0 0 101.79915326779812 51.097782685268839 0 51.097782685268839 -501.15254118074336 0 0 0 0 95.391077807638126 26.412844485222649 0 26.412844485222649 -471.81835836941991 0 0 0 0 -10.827584169245391 19.005816952352916 0 19.005816952352916 -554.58914953364911 0 0 0 0 29.489811522915534 70.055907114694492 0 70.055907114694492 -500.0122014422077 0 0 0 0 0.45647211129021803 -0.22130724998124052 0 -0.22130724998124052 -2.3883412210013546 0 0 0 0 -78.75368426881225 242.19401094800287 0 242.19401094800287 -548.847192895749 0 0 0 0 -60.111138084196931 151.41230650272735 0 151.41230650272735 -203.36953041970082 0 0 0 0 50.148536030836169 24.110992600476038 0 24.110992600476038 -130.97086831573779 0 0 0 0 1.0269214086106688 -0.40020004680495269 0 -0.40020004680495269 -4.3764523223813541 0 0 0 0 67.272556924867445 117.17980748172431 0 117.17980748172431 -138.27189072442798 0 0 0 0 -12.18091615336229 88.76016738796352 0 88.76016738796352 -116.96033751154937 0 0 0 0 96.333301833801173 44.412812824042703 0 44.412812824042703 -147.29232580851385 0 0 0 0 2.1357770590336003 98.78694128889174 0 98.78694128889174 -108.33857799627435 0 0 0 0 0.0033674223247240065 0.40989418388875976 0 0.40989418388875976 -1.8346651427620628 0 0 0 0 20.869231271759219 140.12080832375614 0 140.12080832375614 -32.411720295317537 0 0 0 0 58.392419665795231 22.913563741583403 0 22.913563741583403 24.936129499086746 0 0 0 0 27.263717778451763 103.847943964362 0 103.847943964362 -184.39444391679353 0 0 0 0 94.879736698313522 -58.869551191865867 0 -58.869551191865867 -235.56644374279722 0 0 0 0 94.370868464313048 -31.021371561768611 0 -31.021371561768611 -132.14359250153575 0 0 0 0 107.2342715999973 48.207408598028564 0 48.207408598028564 -500.02115376811344 0 0 0 0 -0.2069615440754177 18.157172004229778 0 18.157172004229778 -25.782103016072142 0 0 0 0 0.074365664425554798 0.16655375748746692 0 0.16655375748746692 -1.9567033063112405 0 0 0 0 28.849920926218374 181.00982919043054 0 181.00982919043054 -494.60971687963314 0 0 0 0 34.965933965858476 -222.14641196031243 0 -222.14641196031243 -499.05628202773755 0 0 0 0 40.119928556425677 17.229981037155994 0 17.229981037155994 -81.590960433661166 0 0 0 0 141.90631142265471 22.46239976176912 0 22.46239976176912 -170.14239820493776 0 0 0 0 0.0724553263906898 0.77215382786587305 0 0.77215382786587305 -3.6346036473123107 0 0 0 0 -26.793775042582183 -51.616947569048534 0 -51.616947569048534 -68.393425409418569 0 0 0 0 10.078742776118801 15.46734063333497 0 15.46734063333497 -414.21478116981416 0 0 0 0 0.12620004402382889 23.313747596843996 0 23.313747596843996 -362.11508828895967 0 0 0 0 -13.227616808777213 83.239380425150557 0 83.239380425150557 -429.71458978482588 0 0 0 0 -3.7440776185688591 90.065612440223958 0 90.065612440223958 -448.22314525455295 0 0 0 0 -29.199043989830329 73.432045984254728 0 73.432045984254728 -402.68938240066018 0 0 0 0 12.24751208432356 -44.967944761483977 0 -44.967944761483977 -450.24305979468591 0 0 0 0 162.64469682562932 -75.439805453278495 0 -75.439805453278495 -32.899063520058689 0 0 0 0 113.06783233389631 73.479400063177309 0 73.479400063177309 -472.67213539385375 0 0 0 0 -11.289934369687671 27.568823754174446 0 27.568823754174446 -443.46464665868371 0 0 0 0 -94.808583069528481 15.662586569704217 0 15.662586569704217 -395.47579612226491 0 0 0 0 -64.19374684458819 42.453304805994776 0 42.453304805994776 -388.31284647751636 0 0 0 0 -60.528654272202544 41.545519599389081 0 41.545519599389081 -430.47989830806182 0 0 0 0 -29.30072612001598 -9.253322122109239 0 -9.253322122109239 -498.83368856253219 0 0 0 0 26.563799432559563 53.203543485211412 0 53.203543485211412 -438.2328791932996 0 0 0 0 -53.849525342815724 22.171811103916298 0 22.171811103916298 -186.05605328286038 0 0 0 0 -0.023187104957802851 0.18432658490711873 0 0.18432658490711873 -1.246602113005201 0 0 0 0 6.1453372050945063 185.29637367706891 0 185.29637367706891 -451.83185075843994 0 0 0 0 -0.0038886666513294199 -0.2089539539363594 0 -0.2089539539363594 -0.6485830592137134 0 0 0 0 -49.177095167052627 -124.79396942365383 0 -124.79396942365383 -316.12280923904655 0 0 0 0 0.29540715316849608 0.0084078921283179398 0 0.0084078921283179398 -0.82089347595003836 0 0 0 0 -32.397705025398295 12.97712653587223 0 12.97712653587223 57.660885857199219 0 0 0 0 -12.928199135383522 -26.979031304299497 0 -26.979031304299497 3.5030262305190263 0 0 0 0 -0.031524641458438973 0.013087480495193482 0 0.013087480495193482 -0.56354048015784741 0 0 0 0 26.082664519459385 12.935118369263591 0 12.935118369263591 -36.411552130262862 0 0 0 0 -26.983148361254479 -3.7681520252563132 0 -3.7681520252563132 -4.7745892726816237 0 0 0 0 0.26198982753104183 0.13725384806481777 0 0.13725384806481777 -2.8111663514093692 0 0 0 0 20.253834768870547 7.2562114501160977 0 7.2562114501160977 -72.273795325309038 0 0 0 0 25.503247613032897 -13.700983369275491 0 -13.700983369275491 -41.314529234892689 0 0 0 0 0.36088314424404899 0.48822810039632714 0 0.48822810039632714 -2.8107008404294902 0 0 0 0 6.6167548048850904 7.1879024109957754 0 7.1879024109957754 1.3137976703837921 0 0 0 0 1.3051020629703487 -0.40645569196658471 0 -0.40645569196658471 -3.0069956316051503 0 0 0 0 -0.073408730102594827 0.65022713641954955 0 0.65022713641954955 -2.7132585879385118 0 0 0 0 0.0084784773412099473 7.2153413276082574 0 7.2153413276082574 3.6513456094089634 0 0 0 0 -0.07823547312780918 0.48219762632953689 0 0.48219762632953689 -0.59694004060878481 0 0 0 0 -61.429830809150488 133.65679705406001 0 133.65679705406001 -289.90693392756839 0 0 0 0 3.4183013846303041 5.5044710040028804 0 5.5044710040028804 3.7360067363370035 0 0 0 0 -0.021998096300221863 0.22964341068330718 0 0.22964341068330718 -0.47544648622380947 0 0 0 0 70.316161885888789 -82.523427262247424 0 -82.523427262247424 -487.15860661958322 0 0 0 0 -51.966140940187415 2.4291722255925379 0 2.4291722255925379 4.958961737176196 0 0 0 0 -26.734623792187449 -0.51472210725614786 0 -0.51472210725614786 -2.9793598107280559 0 0 0 0 -13.36134414514936 13.025760243956938 0 13.025760243956938 -10.031028967213132 0 0 0 0 -19.177106068198782 20.561418021835834 0 20.561418021835834 -19.677156476693199 0 0 0 0 -12.355460210246974 28.008479985348458 0 28.008479985348458 -35.200977224732469 0 0 0 0 -28.622735550237394 14.13521060631092 0 14.13521060631092 -21.600028687598524 0 0 0 0 -26.831662417806456 14.459196868484923 0 14.459196868484923 -31.933110373995078 0 0 0 0 -56.253728585538511 18.023249292863966 0 18.023249292863966 -14.546771973817158 0 0 0 0 -55.406548970203808 6.123211582930395 0 6.123211582930395 3.9634709580132039 0 0 0 0 -60.957853490401703 15.286838980254288 0 15.286838980254288 -6.7764044471755369 0 0 0 0 -75.762982942849192 18.289977750142043 0 18.289977750142043 19.295565009807433 0 0 0 0 -60.893678842038256 16.686070572213282 0 16.686070572213282 17.401258238927767 0 0 0 0 -67.601191829533263 7.8866333230907912 0 7.8866333230907912 12.214593029078969 0 0 0 0 -63.267882540475739 6.2285587426845268 0 6.2285587426845268 10.609572375817152 0 0 0 0 -51.31717449722737 0.93799334504092258 0 0.93799334504092258 3.4697392036077872 0 0 0 0 -63.544208777757831 4.51120838633733 0 4.51120838633733 4.1148274456313629 0 0 0 0 -68.237807283141478 -7.9184548186240136 0 -7.9184548186240136 4.1859158457700687 0 0 0 0 -65.043833990852818 -3.6268672432993299 0 -3.6268672432993299 0.54654683891385503 0 0 0 0 -73.571382043117325 6.5504671637716001 0 6.5504671637716001 -0.40343005627255479 0 0 0 0 -79.189400237983591 5.8202763483095623 0 5.8202763483095623 10.659193928182816 0 0 0 0 -93.113685990258134 20.287767094096182 0 20.287767094096182 -8.9641203574019528 0 0 0 0 -112.98125943018414 21.060770373831929 0 21.060770373831929 -5.5672387504409926 0 0 0 0 -65.32412638895147 -2.1809365448051494 0 -2.1809365448051494 -6.9092085731190309 0 0 0 0 -91.347227626805079 -13.276314935018078 0 -13.276314935018078 -0.27825591049895593 0 0 0 0 -53.199129294450131 -19.032762671035925 0 -19.032762671035925 -5.0297206874356561 0 0 0 0 -53.317512703080183 -12.981566904594729 0 -12.981566904594729 -31.685880989123689 0 0 0 0 -0.43695766816553938 -0.28223709328805313 0 -0.28223709328805313 0.17992383078742868 0 0 0 0 5.7599495420090534 -50.056886234491685 0 -50.056886234491685 -18.645762528308296 0 0 0 0 -27.188233501039065 13.208579654810592 0 13.208579654810592 3.9491222559690868 0 0 0 0 5.8365151119119218 -0.10100284685904626 0 -0.10100284685904626 -10.32281459520982 0 0 0 0 -25.970121948042106 9.8105743692131 0 9.8105743692131 -12.850436884626106 0 0 0 0 0.1658000625679783 -0.38049066226912309 0 -0.38049066226912309 -0.19729478803363065 0 0 0 0 -9.6061545751690574 -16.129988410944406 0 -16.129988410944406 12.545906658163858 0 0 0 0 -33.566517049632694 14.385467068992057 0 14.385467068992057 -13.103127812581079 0 0 0 0 -10.847834766494543 4.598279232144705 0 4.598279232144705 15.833148006217471 0 0 0 0 -4.4387395207872942 12.782030043029408 0 12.782030043029408 -10.024500788522403 0 0 0 0 -12.34391381501689 16.83147184502559 0 16.83147184502559 4.3004551236681436 0 0 0 0 -2.8085150164897641 10.135604908389723 0 10.135604908389723 0.50886121419534902 0 0 0 0 5.4332707594290923 0.16783210738003618 0 0.16783210738003618 -5.9415414724526272 0 0 0 0 -0.87804220176336223 -0.23603708250911914 0 -0.23603708250911914 -1.0009491638980643 0 0 0 0 -6.6070659332322066 -5.0987131688443696 0 -5.0987131688443696 -7.3415673473792822 0 0 0 0 1.1192817795781593 -7.6495393097720807 0 -7.6495393097720807 -20.97621075981624 0 0 0 0 -4.5840961240763294 2.0561505576094232 0 2.0561505576094232 -2.3354359238544085 0 0 0 0 0.16808706868129786 -0.12020158888197052 0 -0.12020158888197052 -1.4202816828065217 0 0 0 0 18.311012890260059 26.476822192841041 0 26.476822192841041 -39.7315238956553 0 0 0 0 -4.8474981562804942 -5.5998989127303958 0 -5.5998989127303958 -10.74659479181264 0 0 0 0 -2.2393462043833097 -5.148385088960822 0 -5.148385088960822 -15.492496558035555 0 0 0 0 0.18693303774564018 0.66852768312076805 0 0.66852768312076805 -1.6919596376315638 0 0 0 0 -10.109101312475104 -1.0877193422456912 0 -1.0877193422456912 -17.578055017033876 0 0 0 0 1.9879155164817348 -2.1621550336130895 0 -2.1621550336130895 1.0779386198046268 0 0 0 0 0.16134552623259601 1.9167635747871508 0 1.9167635747871508 -4.7287775385899202 0 0 0 0 -1.6275653497759777 0.10310736220344552 0 0.10310736220344552 -14.391898464793485 0 0 0 0 -1.0191432694499891 -0.42728589054053678 0 -0.42728589054053678 -6.4661006043565674 0 0 0 0 0.2797140778264442 0.04923379365344438 0 0.04923379365344438 -1.2683382204263633 0 0 0 0 -1.4959324961307723 -0.91528683720373927 0 -0.91528683720373927 -6.7479623032386975 0 0 0 0 -1.1720932713237744 1.6729090639330479 0 1.6729090639330479 -13.139077642092388 0 0 0 0 -0.19391414372512372 1.7990268311405089 0 1.7990268311405089 -0.95758869558812876 0 0 0 0 -0.69053521378321037 0.60608820502126637 0 0.60608820502126637 -4.2780532297938345 0 0 0 0 -0.91433223292991839 1.4968790658732596 0 1.4968790658732596 -6.5605611732388693 0 0 0 0 -0.65535787136786894 -0.17050067212267095 0 -0.17050067212267095 -15.064550134719411 0 0 0 0 10.22626335542051 12.399821346297529 0 12.399821346297529 -3.0315943361697748 0 0 0 0 -4.9096039417426827 -2.4220578654316327 0 -2.4220578654316327 -14.888949095349972 0 0 0 0 -1.0831316045304868 2.3186653876446619 0 2.3186653876446619 -6.5025494327247344 0 0 0 0 -1.2240535090447793 1.8423254782692311 0 1.8423254782692311 -12.997548000416373 0 0 0 0 -12.217069348812402 2.0091808981114809 0 2.0091808981114809 3.9741561812586497 0 0 0 0 -2.2464051078854297 0.77285385003221552 0 0.77285385003221552 -9.6946863072720912 0 0 0 0 -5.4827774558663123 0.031988610301388221 0 0.031988610301388221 -18.312796905486636 0 0 0 0 7.7966896461429087 3.0445140561669 0 3.0445140561669 -30.77354400808504 0 0 0 0 25.617575151574556 4.4838572915896293 0 4.4838572915896293 -41.497377038970626 0 0 0 0 -4.466678265019274 3.2557619704601146 0 3.2557619704601146 -9.4366809448693694 0 0 0 0 -7.9371117628697903 3.8971778066152183 0 3.8971778066152183 -19.902571633822845 0 0 0 0 -0.48383368180566322 11.568596222601627 0 11.568596222601627 -12.762845935191763 0 0 0 0 -3.2523314554472895 4.4787938313303162 0 4.4787938313303162 -5.9613627462651513 0 0 0 0 1.2299260653699093 14.055737349134688 0 14.055737349134688 -11.31802379266901 0 0 0 0 -7.7373702868159171 17.913307840397238 0 17.913307840397238 -5.8143552793098934 0 0 0 0 0.63457864199403957 7.8924989051204193 0 7.8924989051204193 -3.9156788461459655 0 0 0 0 0.10477231919525604 -0.033420233000677535 0 -0.033420233000677535 -0.15891469083843662 0 0 0 0 12.808713367360255 -3.362816050905824 0 -3.362816050905824 -3.0538040341213559 0 0 0 0 9.4289312802961547 10.358690092324849 0 10.358690092324849 -9.7325742536988855 0 0 0 0 6.733087489654622 10.481316132954703 0 10.481316132954703 -9.0058390865543743 0 0 0 0 8.7526915136474663 9.1925199510910574 0 9.1925199510910574 -9.0566014177782108 0 0 0 0 1.2130131810554872 14.199147142081188 0 14.199147142081188 -11.061352035040727 0 0 0 0 8.5319758225287785 11.146340063318348 0 11.146340063318348 -10.241669863854895 0 0 0 0 1.5544683959463192 8.174625274482139 0 8.174625274482139 -20.88689559262798 0 0 0 0 -0.18320136310506474 0.79475052434743787 0 0.79475052434743787 -3.7251171199830591 0 0 0 0 -4.8165158691866381 5.8657770508373801 0 5.8657770508373801 -6.5893734425326169 0 0 0 0 -3.0174873705669278 1.0610852056204514 0 1.0610852056204514 -2.0364034779009832 0 0 0 0 -0.96587321751121635 7.8774022444264347 0 7.8774022444264347 -6.5566576728630643 0 0 0 0 7.5954790370326126 9.2489095504881931 0 9.2489095504881931 -8.8801771645781287 0 0 0 0 0.78707991371530284 8.4074091385959946 0 8.4074091385959946 -3.9930367894676237 0 0 0 0 0.60986981031300891 11.871337334439879 0 11.871337334439879 -13.538065156828338 0 0 0 0 4.9225917994947395 0.27215475630450214 0 0.27215475630450214 -24.502673949854795 0 0 0 0 0.49989841256030942 0.17966780293683904 0 0.17966780293683904 -4.7979922307538176 0 0 0 0 -7.1688352539609852 -3.6700472025645663 0 -3.6700472025645663 17.370584063674102 0 0 0 0 -0.17745155049782069 -0.095122034987879522 0 -0.095122034987879522 0.074877942017665511 0 0 0 0 -9.3094133091578897 6.2829577503577099 0 6.2829577503577099 -5.0156939813421673 0 0 0 0 0.1593724454456833 4.2976650818831263 0 4.2976650818831263 -59.742420790009739 0 0 0 0 -12.222450624956082 11.270666864429655 0 11.270666864429655 -24.63820147963019 0 0 0 0 0.11672369635235214 0.97358149503072866 0 0.97358149503072866 -22.78459865325371 0 0 0 0 3.0253980895939776 12.338281718108831 0 12.338281718108831 -25.747272417723444 0 0 0 0 -4.3832298854141527 9.3408708247426731 0 9.3408708247426731 -19.420436783051855 0 0 0 0 -4.5659620765168256 9.7929342579762775 0 9.7929342579762775 -14.323774146987247 0 0 0 0 -2.4222821606899743 7.5063082180145102 0 7.5063082180145102 -23.999073489090698 0 0 0 0 -9.4057632383676264 23.293801784215134 0 23.293801784215134 -16.541474366728835 0 0 0 0 0.60789445935461117 16.674788460197306 0 16.674788460197306 -12.900327500245112 0 0 0 0 2.9584233209511694 15.778617077362924 0 15.778617077362924 -16.316316874600943 0 0 0 0 -1.2150694134885933 4.7308979803732285 0 4.7308979803732285 -20.23717880059311 0 0 0 0 8.0967713419074698 17.060583446609598 0 17.060583446609598 -18.407387315060987 0 0 0 0 34.129413193730898 13.37857371848304 0 13.37857371848304 -34.638415423315109 0 0 0 0 -0.73404400144937343 4.7392847307911818 0 4.7392847307911818 -23.395828271155509 0 0 0 0 3.2321944459795304 16.427154132698888 0 16.427154132698888 -26.603485687423017 0 0 0 0 8.6024435475773089 18.73104809242966 0 18.73104809242966 -28.864507323440193 0 0 0 0 1.6727949197432963 4.1132549043708195 0 4.1132549043708195 -51.469271828137607 0 0 0 0 3.17353802196385 -9.3099088265466889 0 -9.3099088265466889 -33.695525414406575 0 0 0 0 7.9119403116918301 -0.56297734651957576 0 -0.56297734651957576 -8.4678965307997949 0 0 0 0 28.626840432278186 -4.0576705687863068 0 -4.0576705687863068 -47.953504163036087 0 0 0 0 0.92503086365589882 4.421601271638111 0 4.421601271638111 -26.286511354966624 0 0 0 0 6.8243371341141028 -9.7803964334325428 0 -9.7803964334325428 -76.463688122641543 0 0 0 0 0.1274284125291274 -0.12885517501775112 0 -0.12885517501775112 -11.393836198726433 0 0 0 0 -3.3155512195839947 4.9390866715121859 0 4.9390866715121859 -16.243053338393736 0 0 0 0 -2.6721369778335884 4.0126722601936251 0 4.0126722601936251 -22.191599100888382 0 0 0 0 0.48271090487935453 -0.59847015835022432 0 -0.59847015835022432 -27.668497848628363 0 0 0 0 -1.5231930729802343 1.7466517690388343 0 1.7466517690388343 -19.091184020643425 0 0 0 0 1.7519181830942898 -5.6306448825907029 0 -5.6306448825907029 -9.1846907847640296 0 0 0 0 1.8835603136880081 -4.744595468643098 0 -4.744595468643098 -18.538912506360589 0 0 0 0 5.2721056441610932 -4.6028376047120032 0 -4.6028376047120032 -4.3224333189505133 0 0 0 0 1.8303895827792216 1.7694850386076015 0 1.7694850386076015 -35.523832859583251 0 0 0 0 30.329775376432792 -14.173432262140864 0 -14.173432262140864 -54.703090651897355 0 0 0 0 -2.7052317952060321 -17.222733748961673 0 -17.222733748961673 -36.595996968539566 0 0 0 0 28.561689802638853 -0.29166336556340866 0 -0.29166336556340866 -31.06128582207657 0 0 0 0 10.135757754093106 37.407042051903318 0 37.407042051903318 84.821320515062325 0 0 0 0 80.695224208480511 98.290045990643421 0 98.290045990643421 -78.420505652377869 0 0 0 0 142.30433361636099 79.069948002410399 0 79.069948002410399 -66.616100390354404 0 0 0 0 75.62161447016797 84.836432153346323 0 84.836432153346323 55.399664383986192 0 0 0 0 83.502384660883706 26.521022178885232 0 26.521022178885232 15.625731452477339 0 0 0 0 8.6877915805220027 -3.1494826932907927 0 -3.1494826932907927 -68.359791653841967 0 0 0 0 84.089961345157576 36.243724483614187 0 36.243724483614187 -150.62157160190327 0 0 0 0 -11.320658398551814 46.118205280571601 0 46.118205280571601 -182.89734402322279 0 0 0 0 -62.236089849224072 -82.500092914742027 0 -82.500092914742027 -280.43614864903066 0 0 0 0 -53.28672853310718 -60.030827791846605 0 -60.030827791846605 -410.90881141806676 0 0 0 0 -106.31865634793348 -16.299622872503278 0 -16.299622872503278 -151.31110685944168 0 0 0 0 -32.742464288421161 -239.42835719670893 0 -239.42835719670893 -370.21470615456383 0 0 0 0 -261.80077970700722 -213.30443741115596 0 -213.30443741115596 -359.04408396141389 0 0 0 0 -137.12789140311406 -260.79673492358233 0 -260.79673492358233 -336.44603617944085 0 0 0 0 -191.78042653781313 -97.909525695692082 0 -97.909525695692082 -80.51320734203 0 0 0 0 -36.522301914860236 -45.798925732744465 0 -45.798925732744465 -273.54541788370761 0 0 0 0 32.311338145209902 54.902254080521743 0 54.902254080521743 -167.54168022169199 0 0 0 0 -129.57893981198617 -8.5401213623185868 0 -8.5401213623185868 -28.189052385712785 0 0 0 0 66.408956967566837 138.15840099256184 0 138.15840099256184 13.967217525312662 0 0 0 0 3.0984190328151042 0.3231317407016725 0 0.3231317407016725 0.38010230531925338 0 0 0 0 -41.316325947320365 189.67157077574711 0 189.67157077574711 270.60446730236617 0 0 0 0 -97.478287699125815 38.296627545599449 0 38.296627545599449 322.23435594038347 0 0 0 0 -35.807221623135092 97.00681150823857 0 97.00681150823857 -71.155835014908007 0 0 0 0 0.61675642712277323 0.16272932051263922 0 0.16272932051263922 -0.041622978988631765 0 0 0 0 -3.1437741216362252 4.66922670228454 0 4.66922670228454 -148.00488348966155 0 0 0 0 -56.025494779673409 62.018847141409424 0 62.018847141409424 -60.027013917811018 0 0 0 0 -3.1468202175863098 6.5487005478921674 0 6.5487005478921674 -52.693597360546846 0 0 0 0 -62.924662505640526 42.846903830008159 0 42.846903830008159 10.820820530888795 0 0 0 0 -73.248932534332653 33.692390216167041 0 33.692390216167041 47.22249596409074 0 0 0 0 -69.157960934553103 -40.579438579483849 0 -40.579438579483849 -142.31505807152098 0 0 0 0 -130.58693408774047 21.011921130881092 0 21.011921130881092 50.834191619066587 0 0 0 0 -110.93441248279194 -33.870464367512682 0 -33.870464367512682 32.203647892289155 0 0 0 0 -115.32439384887232 11.811403356872461 0 11.811403356872461 -332.87448519769896 0 0 0 0 -109.45942071049967 -162.2514826493707 0 -162.2514826493707 -411.16292394678749 0 0 0 0 -121.50689615731176 -21.034218760120893 0 -21.034218760120893 -147.95778895624426 0 0 0 0 -0.53274838615797737 -1.0594558055218659 0 -1.0594558055218659 -1.0201375326626625 0 0 0 0 -20.668861971935712 22.328085089005981 0 22.328085089005981 -557.15631970637924 0 0 0 0 -26.15072629835413 -114.94304963138666 0 -114.94304963138666 36.839298409269759 0 0 0 0 -12.133248633360154 73.756444816666772 0 73.756444816666772 -312.16373557993211 0 0 0 0 -40.980213537518352 37.128497466332192 0 37.128497466332192 -241.86662299850695 0 0 0 0 -18.074362411014704 34.069259322572179 0 34.069259322572179 -296.64855666680251 0 0 0 0 0.63394854924820265 81.466524695765202 0 81.466524695765202 -277.2356717455732 0 0 0 0 -16.046538031429236 68.290959435541026 0 68.290959435541026 -369.35549136154168 0 0 0 0 -0.81097652867792647 -0.006790210817284148 0 -0.006790210817284148 -0.2706786768070466 0 0 0 0 -9.6625311559116085 1.0452388646490363 0 1.0452388646490363 36.954068037142179 0 0 0 0 1.8686072601486501 45.111341171004597 0 45.111341171004597 -317.9306064295879 0 0 0 0 -2.375408423903032 0.8539609196798601 0 0.8539609196798601 -0.12264706321249674 0 0 0 0 -19.897292488876815 33.392899744138958 0 33.392899744138958 -258.72003367277466 0 0 0 0 -38.211386410297735 44.160371007076719 0 44.160371007076719 -260.63546069355561 0 0 0 0 -9.1859981032430653 8.8530678137822179 0 8.8530678137822179 -264.39228864439656 0 0 0 0 8.3936352510260477 45.790566656979081 0 45.790566656979081 -246.40290770417414 0 0 0 0 -6.1923308581542074 5.5526172429290455 0 5.5526172429290455 20.238460494168976 0 0 0 0 -4.3746459884639464 36.39483987595122 0 36.39483987595122 -305.35585176352197 0 0 0 0 -3.7717740997814979 1.6590179790826056 0 1.6590179790826056 0.056879776623987244 0 0 0 0 -0.040301544070700857 3.8540607217414617 0 3.8540607217414617 4.9210796805218706 0 0 0 0 -2.0075019382925348 12.728501682623119 0 12.728501682623119 -11.6762368761988 0 0 0 0 -5.0595974376950608 19.933749625620749 0 19.933749625620749 -12.22108830081288 0 0 0 0 -7.7515879847801443 14.563264006205372 0 14.563264006205372 1.8562228883006355 0 0 0 0 -2.7764145375854206 4.354372654435906 0 4.354372654435906 -2.1557080375459918 0 0 0 0 -31.147388204059553 12.619939095163772 0 12.619939095163772 -3.5111876882606339 0 0 0 0 -62.192862209518466 -1.9390689405586272 0 -1.9390689405586272 19.763409414196786 0 0 0 0 -55.486309494154852 -7.4103019219846828 0 -7.4103019219846828 19.889566082969026 0 0 0 0 -3.8310987880455727 -20.923416344733681 0 -20.923416344733681 -2.6157131126110471 0 0 0 0 -52.809400921853126 -43.752923116294369 0 -43.752923116294369 12.664600244416306 0 0 0 0 -6.9940573860419057 14.132982000120137 0 14.132982000120137 12.212224167816203 0 0 0 0 25.952890540545695 6.5837368360735127 0 6.5837368360735127 -49.597640533642334 0 0 0 0 13.979934166603471 -17.406493731301452 0 -17.406493731301452 -520.54716157607527 0 0 0 0 -31.52274774920113 7.3004788104135514 0 7.3004788104135514 81.314538428247033 0 0 0 0 -0.70649543027071771 2.0269006177709841 0 2.0269006177709841 -2.1713748776655244 0 0 0 0 -106.96298919196403 -126.74919615357248 0 -126.74919615357248 -370.2110478247705 0 0 0 0 -31.295461840573125 21.020326222087533 0 21.020326222087533 -369.93597596218751 0 0 0 0 -78.024281377363423 -46.625646275679173 0 -46.625646275679173 -326.38388674332236 0 0 0 0 -28.674196370020127 11.567267235266627 0 11.567267235266627 -436.0963328839498 0 0 0 0 -54.048009855776627 1.2611758407874731 0 1.2611758407874731 -246.17909639876962 0 0 0 0 -84.499507786451886 -38.650593338978069 0 -38.650593338978069 -280.88463436595339 0 0 0 0 -57.680252961317571 -16.281594762024753 0 -16.281594762024753 -250.51603623135452 0 0 0 0 -71.70298870250349 -2.4297024563093146 0 -2.4297024563093146 -258.83107586496772 0 0 0 0 -64.867370331931852 21.133244050970461 0 21.133244050970461 -186.73369821712367 0 0 0 0 -53.823961871322126 -8.0116516981893255 0 -8.0116516981893255 -237.4901414445776 0 0 0 0 -61.607497588034676 -3.9334706864246982 0 -3.9334706864246982 -205.14592902527329 0 0 0 0 -28.695553719203872 11.948037122832829 0 11.948037122832829 -250.74613390263039 0 0 0 0 -41.840773096508201 -17.733783036725072 0 -17.733783036725072 -289.63941632251226 0 0 0 0 -31.173364338928877 17.159701325512287 0 17.159701325512287 -294.91024480051783 0 0 0 0 -4.9130943942988665 38.409958119139446 0 38.409958119139446 -292.62859352667147 0 0 0 0 -28.434121314893591 1.3837614952430073 0 1.3837614952430073 -245.04831092515087 0 0 0 0 -17.019282592639115 29.729802063735406 0 29.729802063735406 -225.6155110382042 0 0 0 0 -19.839806545245576 10.384832080359274 0 10.384832080359274 -228.12427766410656 0 0 0 0 -7.1152462324223507 3.2153742630938087 0 3.2153742630938087 0.14013251618323963 0 0 0 0 -49.123712016750233 0.98425962480177986 0 0.98425962480177986 46.214437429932673 0 0 0 0 -4.331292387011672 16.691102251279517 0 16.691102251279517 -312.84351235094255 0 0 0 0 -5.3996397634097963 2.385998447516096 0 2.385998447516096 0.25526202830041367 0 0 0 0 -5.4458414848043049 -5.4480436795943206 0 -5.4480436795943206 21.0779573103149 0 0 0 0 -18.394668126726913 44.457212623077794 0 44.457212623077794 -238.54557177275819 0 0 0 0 1.3757278223867324 21.996747571354035 0 21.996747571354035 -292.57581340883007 0 0 0 0 9.1180266654278057 38.520719396539789 0 38.520719396539789 -239.81432755886999 0 0 0 0 -15.372855146220644 44.622353117707462 0 44.622353117707462 -238.84487206834626 0 0 0 0 3.4288610964073314 2.9469572438104024 0 2.9469572438104024 -11.0585725983874 0 0 0 0 -8.4437696119819066 17.842722380608848 0 17.842722380608848 -7.3825855363857045 0 0 0 0 -8.1943765124515267 16.145463824657782 0 16.145463824657782 -11.838589427449733 0 0 0 0 -8.1980652316335636 16.261481838877899 0 16.261481838877899 -14.833346110569437 0 0 0 0 11.698928125029397 -0.12645536654736134 0 -0.12645536654736134 -46.796729679939745 0 0 0 0 -47.704487668643424 40.340570506135009 0 40.340570506135009 -24.884958675037979 0 0 0 0 -0.067339266452828506 0.12887204405105646 0 0.12887204405105646 -0.87225518764028109 0 0 0 0 -7.7077572384547466 -8.3616562678324726 0 -8.3616562678324726 3.1153067546110833 0 0 0 0 21.528032170734377 -5.9227048129296236 0 -5.9227048129296236 -7.3449746329615664 0 0 0 0 -0.41273765757716463 5.0607816932998926 0 5.0607816932998926 -13.723858346202157 0 0 0 0 40.219596496702479 31.870323421409466 0 31.870323421409466 -64.568133983121697 0 0 0 0 -1.1534235943327835 4.4273000978633181 0 4.4273000978633181 -10.903806752934003 0 0 0 0 23.826206595054373 -10.251574111532136 0 -10.251574111532136 -55.119708252965211 0 0 0 0 2.6278968699609777 12.502295544265507 0 12.502295544265507 -12.976099903755539 0 0 0 0 3.9741192384465798 3.7879986662616201 0 3.7879986662616201 -2.3233615167670187 0 0 0 0 15.213062636395051 21.729775987574101 0 21.729775987574101 -15.579661096381642 0 0 0 0 -13.980778899323013 16.17604005310227 0 16.17604005310227 -12.479095173938731 0 0 0 0 8.2767631002443522 0.45555913640555445 0 0.45555913640555445 -9.9729255506913432 0 0 0 0 0.98006616428687288 0.65293625194179139 0 0.65293625194179139 -2.7229498681871718 0 0 0 0 1.2760336525302449 0.63035767002563903 0 0.63035767002563903 -0.93525058790967464 0 0 0 0 12.107745581084487 6.5696404648842872 0 6.5696404648842872 1.1539539497812257 0 0 0 0 3.3807325312594543 1.2030268689660009 0 1.2030268689660009 0.058001211131253783 0 0 0 0 -7.222606837442072 12.50151737754004 0 12.50151737754004 -11.06022130810743 0 0 0 0 -5.2450727100400627 14.705117557815129 0 14.705117557815129 -18.297811018216635 0 0 0 0 -5.0569450810240824 18.045522574072947 0 18.045522574072947 -17.611855846688741 0 0 0 0 -6.8354887971404423 21.842598497339623 0 21.842598497339623 -27.731777976525791 0 0 0 0 1.9787709005703329 0.69708204815698771 0 0.69708204815698771 0.25479954362037915 0 0 0 0 8.3354097479352731 28.605032227697393 0 28.605032227697393 4.7333660113158658 0 0 0 0 -0.11426095900434774 8.4827867102411858 0 8.4827867102411858 33.67124519752997 0 0 0 0 -3.8885644828679915 24.100029409339413 0 24.100029409339413 3.4492685383593198 0 0 0 0 33.811093261484302 -1.1408850955385788 0 -1.1408850955385788 -7.711348425684605 0 0 0 0 25.760717608889991 20.119294575595404 0 20.119294575595404 -48.823669976671226 0 0 0 0 0.54357696053376969 14.045660171263023 0 14.045660171263023 -2.8392586720447071 0 0 0 0 -18.249178954049142 19.321479340779945 0 19.321479340779945 -7.4922462893882766 0 0 0 0 -1.4097161340546336 16.669261255971378 0 16.669261255971378 -14.777128158671076 0 0 0 0 -58.690315894498895 41.170572524638828 0 41.170572524638828 -18.063024607803982 0 0 0 0 -0.059071314486512705 0.1304105930471926 0 0.1304105930471926 -0.28914134099624533 0 0 0 0 51.646353390666832 20.336688984860302 0 20.336688984860302 -36.62946468084283 0 0 0 0 -1.4085390183402069 16.57097229148485 0 16.57097229148485 -6.6532379076161305 0 0 0 0 3.1168731487734931 54.723107114628419 0 54.723107114628419 9.3954505679726026 0 0 0 0 -37.251558662076079 31.792180793608054 0 31.792180793608054 -3.579706309184985 0 0 0 0 -45.581440845928924 13.772384298512861 0 13.772384298512861 6.585707225312035 0 0 0 0 -60.36434440040631 20.7665380700073 0 20.7665380700073 12.252309029135859 0 0 0 0 -31.61671950578824 12.136066421340729 0 12.136066421340729 6.4289441242535759 0 0 0 0 -3.3076380084808079 20.250977038384917 0 20.250977038384917 -3.8766497956598869 0 0 0 0 -3.3151361595697608 19.908316844690034 0 19.908316844690034 -19.042731836349958 0 0 0 0 -5.7855820265884859 13.830243752216575 0 13.830243752216575 -23.733452834926766 0 0 0 0 10.635315422656646 30.7928167298125 0 30.7928167298125 -47.623533466096887 0 0 0 0 53.298458883364731 52.547493326988842 0 52.547493326988842 -13.367969830893344 0 0 0 0 -30.877788173050476 4.7329006601480614 0 4.7329006601480614 128.42873809236517 0 0 0 0 0.7473367981727157 0.06014700561546249 0 0.06014700561546249 -0.00071894114768600303 0 0 0 0 12.350153511764574 74.728495239614858 0 74.728495239614858 -65.595378473698929 0 0 0 0 -66.664996502219992 -1.9922510225910628 0 -1.9922510225910628 -25.400431465909037 0 0 0 0 -56.684313360882584 6.8409571912693536 0 6.8409571912693536 47.616758586547803 0 0 0 0 -49.903766609048404 23.258871694763229 0 23.258871694763229 -37.27457847231517 0 0 0 0 -81.16678574035015 14.814375036210095 0 14.814375036210095 12.105555493785815 0 0 0 0 -32.902273714515616 15.589472519268611 0 15.589472519268611 -37.762763594339518 0 0 0 0 -71.739160645668932 68.992667650065414 0 68.992667650065414 -109.86290386538531 0 0 0 0 -27.739891524534272 44.186077985417114 0 44.186077985417114 -102.79839217683639 0 0 0 0 -16.069229218845464 57.331343858513264 0 57.331343858513264 -88.466787656167071 0 0 0 0 -6.1796445919137 65.563427610868757 0 65.563427610868757 -137.90284892644678 0 0 0 0 -0.44495960969516091 8.2175071437350198 0 8.2175071437350198 -152.53316793843896 0 0 0 0 17.829889925391569 -34.033488979148615 0 -34.033488979148615 -106.71198612827266 0 0 0 0 34.95168402784293 22.788924873472752 0 22.788924873472752 -124.52771990451174 0 0 0 0 -0.031097309990264943 -0.37252297372475329 0 -0.37252297372475329 -1.4824488964287994 0 0 0 0 -9.7277405945464466 -33.934304395429081 0 -33.934304395429081 -21.292219788725106 0 0 0 0 3.7889868763476215 7.1448126825988538 0 7.1448126825988538 -7.9103629073733828 0 0 0 0 10.012917121192572 -11.714869102482339 0 -11.714869102482339 -49.831167289469704 0 0 0 0 -4.8968620541917858 -0.9756610705926505 0 -0.9756610705926505 -6.4005547138331167 0 0 0 0 3.3519447702400811 5.3364832119007133 0 5.3364832119007133 -2.9323085928726869 0 0 0 0 5.047501081295195 2.2274267422283174 0 2.2274267422283174 -0.46234457325635958 0 0 0 0 5.4910654435682318 3.3082534122816014 0 3.3082534122816014 -3.342004635019066 0 0 0 0 -1.6183038161004548 0.48320686724252493 0 0.48320686724252493 -1.2017499997753278 0 0 0 0 0.3602745712196338 9.5653700360564926 0 9.5653700360564926 2.244291274694433 0 0 0 0 -14.091063747802814 19.866331391767631 0 19.866331391767631 33.24524020404715 0 0 0 0 -61.654344745824332 -23.993864584386984 0 -23.993864584386984 6.0672390670119967 0 0 0 0 -8.640402879719943 -45.832447527839577 0 -45.832447527839577 -52.165664923705663 0 0 0 0 10.189409492934757 -17.449073993410877 0 -17.449073993410877 -29.332519782416966 0 0 0 0 -0.33218799502800855 -1.2111929963548889 0 -1.2111929963548889 -3.3520273840443853 0 0 0 0 12.202930314470791 0.84925048565855832 0 0.84925048565855832 -5.1631510132394851 0 0 0 0 35.888902118466376 -10.20636263996812 0 -10.20636263996812 -29.503132455926334 0 0 0 0 1.9647995780119345 -2.3862564320515958 0 -2.3862564320515958 -14.116434038099214 0 0 0 0 8.5803565262250459 14.881868917550946 0 14.881868917550946 -4.1773179812325907 0 0 0 0 8.4633716152862419 12.287822922945494 0 12.287822922945494 -53.267673528499472 0 0 0 0 -8.5024650392903141 7.0133329415516528 0 7.0133329415516528 -32.80839521801272 0 0 0 0 2.8731065963113451 -16.530995914900814 0 -16.530995914900814 -47.853543270054843 0 0 0 0 -11.711010044334984 -15.918939544207149 0 -15.918939544207149 -42.424630840966529 0 0 0 0 -6.9128594997000619 -28.338917917326398 0 -28.338917917326398 -79.029381508115648 0 0 0 0 12.671883512377462 2.0707739637728082 0 2.0707739637728082 -65.951645402885788 0 0 0 0 -8.2774799026537735 6.0127280924003514 0 6.0127280924003514 -65.361907104304919 0 0 0 0 22.435786554719016 27.004631177660031 0 27.004631177660031 -51.376920183934544 0 0 0 0 13.069905863627127 -3.0359181945796081 0 -3.0359181945796081 -48.236207206348809 0 0 0 0 19.164838442307882 6.8949600288456168 0 6.8949600288456168 -16.253900685411281 0 0 0 0 16.115543249090933 -2.2255672494598002 0 -2.2255672494598002 -6.8746332286009419 0 0 0 0 5.101163663859495 -7.2797468272098627 0 -7.2797468272098627 -8.760247156402329 0 0 0 0 15.86176551033509 -0.59321716541489877 0 -0.59321716541489877 -11.969346108738591 0 0 0 0 12.075469406618254 -5.8948760037992542 0 -5.8948760037992542 -2.4118059773395544 0 0 0 0 15.906880553805138 13.095778429212885 0 13.095778429212885 11.307391696912418 0 0 0 0 -0.041775009810739228 0.036612224717847752 0 0.036612224717847752 -0.023981803221442277 0 0 0 0 0.25071757150275564 0.12226660111346632 0 0.12226660111346632 -0.72287387973191919 0 0 0 0 11.375838511862753 11.710993106067917 0 11.710993106067917 -20.759568862490596 0 0 0 0 17.083389763200898 -0.22865860399861049 0 -0.22865860399861049 -15.55960008373404 0 0 0 0 -5.9642276858580772 8.6258127627561407 0 8.6258127627561407 -11.210949978573353 0 0 0 0 -1.7124066703836434 21.251354742781587 0 21.251354742781587 -20.17079797520995 0 0 0 0 -41.425384028649205 16.343825828097579 0 16.343825828097579 22.015714559094704 0 0 0 0 19.703222692252439 -47.033000405060193 0 -47.033000405060193 -5.6230851852330943 0 0 0 0 0.22538036609573808 -0.33577551582295584 0 -0.33577551582295584 -0.24746427391225367 0 0 0 0 2.419706629371376 -14.243598043867678 0 -14.243598043867678 -43.587433941039308 0 0 0 0 1.4519983985389899 -7.0877845730851732 0 -7.0877845730851732 -72.651244739659887 0 0 0 0 -8.9991559142966935 -32.053109198101652 0 -32.053109198101652 -40.912264766237058 0 0 0 0 7.3923484686661141 -1.184013828166826 0 -1.184013828166826 -7.7266411377872828 0 0 0 0 1.9927681261652999 -0.5943048792216965 0 -0.5943048792216965 -5.4392609008011625 0 0 0 0 -0.081770405523570844 0.97047905877298035 0 0.97047905877298035 -5.5587992071996268 0 0 0 0 5.8254127401388871 -3.6073785457838312 0 -3.6073785457838312 -9.289950333833076 0 0 0 0 -25.935219413251161 18.674821055841221 0 18.674821055841221 -7.5294837234523584 0 0 0 0 29.370297753690011 0.5542282603022386 0 0.5542282603022386 5.0855105241153069 0 0 0 0 -0.018680719746882124 -0.11619377071767012 0 -0.11619377071767012 -0.40168567584774451 0 0 0 0 0.0073884064127014426 7.8817955665326735 0 7.8817955665326735 -12.073590359495029 0 0 0 0 -11.19017329647977 1.0982972195865841 0 1.0982972195865841 -7.9531682869619544 0 0 0 0 -9.5232504442715253 10.285551910907998 0 10.285551910907998 -2.8774541760585635 0 0 0 0 19.858347516647882 -8.7363606264389091 0 -8.7363606264389091 1.3757806758876541 0 0 0 0 -0.16079365470873119 -0.38673835799916301 0 -0.38673835799916301 -1.345955803278688 0 0 0 0 17.14481097779651 -19.003454595800122 0 -19.003454595800122 5.3639623496340931 0 0 0 0 1.3021218375536407 0.22523368919873121 0 0.22523368919873121 -5.310931252225874 0 0 0 0 9.0269951013941636 -12.699148172495825 0 -12.699148172495825 -13.844598282843435 0 0 0 0 -10.178956787622155 5.4663552272008928 0 5.4663552272008928 1.2650634067235842 0 0 0 0 54.580824270532048 24.470644022420856 0 24.470644022420856 -21.220045707953432 0 0 0 0 13.883432772922333 11.90182430614459 0 11.90182430614459 0.8061720729992885 0 0 0 0 17.84243369969235 18.247511813807535 0 18.247511813807535 12.323982149684525 0 0 0 0 19.51998079042005 8.09749319285811 0 8.09749319285811 -8.5740247526437088 0 0 0 0 2.6298631603431204 1.8598576988797504 0 1.8598576988797504 -5.9458832891459679 0 0 0 0 6.4207653204109079 9.983651598714232 0 9.983651598714232 -0.35537087211378093 0 0 0 0 6.8911539843777518 3.5399236490466137 0 3.5399236490466137 -15.811337896827354 0 0 0 0 7.027173708678923 1.5304828810592142 0 1.5304828810592142 -7.8593837990374595 0 0 0 0 15.007166940488787 1.2108501457878447 0 1.2108501457878447 -10.873384905882631 0 0 0 0 15.426902585597873 -0.11081816038176839 0 -0.11081816038176839 -8.258946975240633 0 0 0 0 16.604047234267455 5.0803071349082529 0 5.0803071349082529 -2.4420270966838871 0 0 0 0 13.971832855437242 3.0034604563230687 0 3.0034604563230687 -0.70127775391392788 0 0 0 0 7.7799675138589919 15.517658041712821 0 15.517658041712821 27.378096160294717 0 0 0 0 0.21295886127616814 -0.12425163458702126 0 -0.12425163458702126 0.035483286906046629 0 0 0 0 9.7226279418841841 4.7840912476731319 0 4.7840912476731319 17.574852413845292 0 0 0 0 30.025488670720506 41.414142383290709 0 41.414142383290709 16.894632861048194 0 0 0 0 2.4344392903380925 -2.0500137108437118 0 -2.0500137108437118 0.3831251423230988 0 0 0 0 0.67423350241127167 -0.018906607708339074 0 -0.018906607708339074 -0.6698574198823799 0 0 0 0 -18.93293014847859 -36.797831977559781 0 -36.797831977559781 -16.614558552365452 0 0 0 0 -7.5005276165940131 -7.8386395446427741 0 -7.8386395446427741 -14.141589004261732 0 0 0 0 -4.0727061174243318 -37.954597388062894 0 -37.954597388062894 -44.410578981874096 0 0 0 0 92.375000566370545 -98.569303154516092 0 -98.569303154516092 -103.48902962332613 0 0 0 0 -146.44579973558012 -58.613844726797197 0 -58.613844726797197 -10.421269934885004 0 0 0 0 -80.276930916636033 -141.80503956372058 0 -141.80503956372058 -245.54176539794815 0 0 0 0 3.8360503127682399 -221.01572173098339 0 -221.01572173098339 -499.28483687955804 0 0 0 0 -228.54934913853779 -337.43379308461863 0 -337.43379308461863 -267.91983861273911 0 0 0 0 -37.549148589234541 59.38025251255749 0 59.38025251255749 -233.23814522124667 0 0 0 0 1.1235742403726154 -1.47739816156564 0 -1.47739816156564 -0.42331726339201836 0 0 0 0 -201.77077664125187 -163.56593428492772 0 -163.56593428492772 -68.964387833264482 0 0 0 0 -47.232409997131313 79.979198828536028 0 79.979198828536028 89.92050257055962 0 0 0 0 68.058467354327107 -73.059808441070345 0 -73.059808441070345 -497.09504244222444 0 0 0 0 -0.004387772638050319 32.475168741685366 0 32.475168741685366 -494.42248668151842 0 0 0 0 1.4114811050218481 -0.25304732469318392 0 -0.25304732469318392 -0.49574127969772519 0 0 0 0 49.464930824066954 -106.52244963244857 0 -106.52244963244857 -149.03941024960295 0 0 0 0 4.1527711389742663 -2.7455066154030483 0 -2.7455066154030483 -2.5810072620172573 0 0 0 0 0.61386527991325113 -1.4910750785832869 0 -1.4910750785832869 -2.1831622492826384 0 0 0 0 12.13110637418481 -5.8633441986705748 0 -5.8633441986705748 -0.4190853806553605 0 0 0 0 11.108555510362294 4.1074517215265587 0 4.1074517215265587 13.866045407085039 0 0 0 0 7.58713655114218 -9.4316410610445018 0 -9.4316410610445018 -38.172838520696132 0 0 0 0 51.89440736735196 0.66231424148099904 0 0.66231424148099904 -34.207179206744513 0 0 0 0 4.2358810430175708 -0.010526803056563949 0 -0.010526803056563949 -5.3996058014890878 0 0 0 0 12.074749680160721 -5.9821887703676566 0 -5.9821887703676566 0.47274461386587063 0 0 0 0 1.9941918364013658 0.26288686813093864 0 0.26288686813093864 -4.5274693421263841 0 0 0 0 3.8420820324877702 1.687280207525987 0 1.687280207525987 -6.378915282851267 0 0 0 0 1.945062887185145 0.69353873727231985 0 0.69353873727231985 -3.6319112975161261 0 0 0 0 2.0453134905635046 2.8554505754940323 0 2.8554505754940323 -5.8886894412162292 0 0 0 0 -162.91719620485139 166.43600023949784 0 166.43600023949784 -170.40633310042494 0 0 0 0 1.4937488437404174 0.70525806136166835 0 0.70525806136166835 -2.2300978259135285 0 0 0 0 -2.4039835976798285 9.0594578510740398 0 9.0594578510740398 -7.0129287592779903 0 0 0 0 43.422192322672707 98.93255948634669 0 98.93255948634669 -499.12640481296972 0 0 0 0 1.1314840472072567 -0.19289800154074044 0 -0.19289800154074044 -0.38395775842676549 0 0 0 0 -0.75514850010830514 1.198876693404145 0 1.198876693404145 -4.9831247547422208 0 0 0 0 2.1841968205136055 77.151097430377604 0 77.151097430377604 3.6618268593847461 0 0 0 0 0.34376962189010818 -0.12409630399049121 0 -0.12409630399049121 -0.05201548404560441 0 0 0 0 -36.596307137009603 -61.458647517320514 0 -61.458647517320514 -72.534862122566352 0 0 0 0 -9.2280955606591135 -30.540854459979982 0 -30.540854459979982 -14.105658192297938 0 0 0 0 -28.510657586346007 61.059395971151275 0 61.059395971151275 -100.30961132014863 0 0 0 0 6.3354509898119034 25.437507133061445 0 25.437507133061445 -68.87417241200319 0 0 0 0 17.799896818040637 -11.406670089369982 0 -11.406670089369982 4.7637393401164445 0 0 0 0 52.630508265916546 51.405398449714994 0 51.405398449714994 -78.075564864131934 0 0 0 0 0.95701253740529324 -0.27821727253315887 0 -0.27821727253315887 -4.7547975120881656 0 0 0 0 12.873618086705079 -13.645458917799715 0 -13.645458917799715 3.7912741411782918 0 0 0 0 28.875798162588126 -0.82592326967801455 0 -0.82592326967801455 -12.768581592958981 0 0 0 0 -26.217257741213928 10.975378464424466 0 10.975378464424466 -3.329376202156709 0 0 0 0 17.663494480405419 -11.406243847786982 0 -11.406243847786982 -71.894714406143976 0 0 0 0 0.95531773951409793 -0.4944158198719224 0 -0.4944158198719224 -0.88384671292692296 0 0 0 0 9.7282787465776437 -25.738020917188805 0 -25.738020917188805 -39.581321070462764 0 0 0 0 13.369522359748714 6.4250326856573565 0 6.4250326856573565 3.8781605149392817 0 0 0 0 6.6017063267962612 6.1524348397473432 0 6.1524348397473432 3.9299982625116172 0 0 0 0 -15.241396603340945 1.5974012100432446 0 1.5974012100432446 -14.085828011016361 0 0 0 0 68.955468072256508 -51.006703172033667 0 -51.006703172033667 -40.115165811937686 0 0 0 0 0.67394544582896732 -0.10140128887571453 0 -0.10140128887571453 -0.019500434512394804 0 0 0 0 10.033845594966806 -11.539502424753664 0 -11.539502424753664 -52.051361128696954 0 0 0 0 -119.01629338932537 3.7918813836336085 0 3.7918813836336085 -43.001242074519723 0 0 0 0 13.585899373942368 70.027207981158426 0 70.027207981158426 -123.76902979802981 0 0 0 0 48.466726340920559 -41.734193051721832 0 -41.734193051721832 -201.19680155002516 0 0 0 0 92.401234912327254 -113.17045572345296 0 -113.17045572345296 -90.243922163563411 0 0 0 0 13.565872592614831 -18.672052260578084 0 -18.672052260578084 -172.52860270559268 0 0 0 0 1.0393263006725524 -0.09580601095623642 0 -0.09580601095623642 -0.62225488511495186 0 0 0 0 41.152305258510708 -19.436224329645029 0 -19.436224329645029 -268.63372687693754 0 0 0 0 39.05746327770823 -17.204409108567688 0 -17.204409108567688 -204.3170512261986 0 0 0 0 -24.510125745345789 -52.223540125254203 0 -52.223540125254203 -165.45400969403181 0 0 0 0 -172.33389975019008 -1.7042821209124668 0 -1.7042821209124668 -92.529614019700603 0 0 0 0 0.67560730641303457 -0.48815954527924621 0 -0.48815954527924621 0.31609331448299827 0 0 0 0 -4.3058657808982161 -113.0360702067037 0 -113.0360702067037 -214.22601037310915 0 0 0 0 -30.992315293062006 -167.00765631096647 0 -167.00765631096647 -321.53606256497733 0 0 0 0 44.245176109943799 -106.5146825272754 0 -106.5146825272754 -349.56031241021537 0 0 0 0 46.926888881554987 -118.95275778097357 0 -118.95275778097357 -359.61095395721259 0 0 0 0 115.82849098519073 -51.674312385262056 0 -51.674312385262056 -499.90892902183077 0 0 0 0 46.864334588621958 -83.81504303092288 0 -83.81504303092288 -352.47676088668049 0 0 0 0 122.30047865882827 4.560682952813977 0 4.560682952813977 -353.40889329844322 0 0 0 0 131.40431893908422 74.345066506622743 0 74.345066506622743 -500.14006123023273 0 0 0 0 78.729773174358286 26.304643426629355 0 26.304643426629355 -349.12645552555978 0 0 0 0 5.1008426395986959 49.689903224220416 0 49.689903224220416 -169.79038720168228 0 0 0 0 33.50782392027341 13.518633005548963 0 13.518633005548963 -162.33738994510168 0 0 0 0 19.158025961784549 16.128534314836202 0 16.128534314836202 -169.01558844394594 0 0 0 0 19.624967442241854 39.138593071649325 0 39.138593071649325 -161.48689862262199 0 0 0 0 -24.694671339290878 138.58890478710305 0 138.58890478710305 -268.65033050235684 0 0 0 0 -98.677072809716492 269.21953285402083 0 269.21953285402083 -498.97557245346536 0 0 0 0 0.22073634374077203 -0.11845769311970944 0 -0.11845769311970944 -2.2976786178145581 0 0 0 0 59.629967229420828 -144.09724452388252 0 -144.09724452388252 -103.6676185072622 0 0 0 0 -59.384301163117875 95.992602729204464 0 95.992602729204464 -53.463202231881951 0 0 0 0 -97.607843052049887 184.20109892389283 0 184.20109892389283 -499.31726760899335 0 0 0 0 -36.327943373339856 45.541611299043211 0 45.541611299043211 -189.16518248955208 0 0 0 0 30.044749349350038 26.014052057541676 0 26.014052057541676 -498.95927501446835 0 0 0 0 -166.63513699268003 12.884496727460743 0 12.884496727460743 -14.035754654667471 0 0 0 0 -139.8830857563122 124.18330968478267 0 124.18330968478267 -174.37759229685557 0 0 0 0 -97.428215691212642 79.515625069212092 0 79.515625069212092 -27.19900467547177 0 0 0 0 -100.97144337400513 36.722030127910671 0 36.722030127910671 -26.733410280653061 0 0 0 0 -85.00278589789454 64.437802912146253 0 64.437802912146253 -9.3126040998299686 0 0 0 0 -122.33511348324839 70.571911260778165 0 70.571911260778165 -2.5506627061758991 0 0 0 0 78.995394839857738 -22.870452885627401 0 -22.870452885627401 -16.290838342864845 0 0 0 0 0.74947465439275107 -0.51062203425413921 0 -0.51062203425413921 -4.5402231163034354 0 0 0 0 44.411139282518079 46.856248807170232 0 46.856248807170232 -39.696502088756461 0 0 0 0 -18.534539482200231 41.589061876496999 0 41.589061876496999 -5.3565752938329751 0 0 0 0 -80.917213369104232 77.605614512612647 0 77.605614512612647 -9.8812896227949523 0 0 0 0 -1.8875089691337052 22.307922995114495 0 22.307922995114495 -7.8105259612664213 0 0 0 0 -20.636235702927809 14.511280428265991 0 14.511280428265991 -3.9520190525863654 0 0 0 0 19.790869353714868 20.463182817679353 0 20.463182817679353 -17.063549721626714 0 0 0 0 1.6006123391146616 8.306609004145912 0 8.306609004145912 -14.623292956955083 0 0 0 0 -2.7938308303777717 24.481879146753727 0 24.481879146753727 -12.83516160585026 0 0 0 0 -38.505397757741775 0.88137818960603909 0 0.88137818960603909 2.4963872785615422 0 0 0 0 -195.04282265270078 24.843707522706609 0 24.843707522706609 21.899652046648043 0 0 0 0 -0.98359183819822738 0.27803448708492429 0 0.27803448708492429 0.08670010574630993 0 0 0 0 -0.40618159945839949 72.339715739853091 0 72.339715739853091 -119.01019906884903 0 0 0 0 -137.95284437669397 146.7342003539253 0 146.7342003539253 -95.286984896333706 0 0 0 0 -84.280102366652045 65.168072802733604 0 65.168072802733604 -140.44719596525351 0 0 0 0 -116.87942124715038 58.091987166762692 0 58.091987166762692 4.2996329510762052 0 0 0 0 -100.70101960449253 87.595737787494897 0 87.595737787494897 -16.346873580472675 0 0 0 0 -95.995800213804557 79.983845614232678 0 79.983845614232678 -4.6822399916259769 0 0 0 0 -50.579928665059128 58.063694017056832 0 58.063694017056832 -29.442198520099737 0 0 0 0 -99.022322617736279 66.671399792623788 0 66.671399792623788 -3.6803292582389986 0 0 0 0 -55.116742193486857 61.875892621444564 0 61.875892621444564 -31.736360333020002 0 0 0 0 -24.921784096634724 39.103181482492801 0 39.103181482492801 -64.695262608554458 0 0 0 0 -32.213905019190662 21.311463951135579 0 21.311463951135579 -26.6434434550074 0 0 0 0 -103.72657542841608 94.627350758647481 0 94.627350758647481 -15.971367151733176 0 0 0 0 -71.650488449785996 96.64519066497644 0 96.64519066497644 -85.977274303871127 0 0 0 0 -24.981560226902843 49.231223006909659 0 49.231223006909659 -84.974273783441532 0 0 0 0 -63.315672184729522 92.658130684696971 0 92.658130684696971 -122.5544969534576 0 0 0 0 -18.67436368890219 -18.204967837960567 0 -18.204967837960567 -25.320583705840363 0 0 0 0 12.646728728464012 -5.7570041684541593 0 -5.7570041684541593 -130.57766693171106 0 0 0 0 -36.848023359492402 41.986976620419227 0 41.986976620419227 -60.92826718087872 0 0 0 0 -0.12927804869138981 0.32156759890813191 0 0.32156759890813191 -43.071041417450033 0 0 0 0 -2.6923847857398187 4.7976444163032284 0 4.7976444163032284 -79.381677894265977 0 0 0 0 -18.712157428056855 1.4180313476920219 0 1.4180313476920219 -28.272110954168966 0 0 0 0 -4.8626120270291722 -8.3188665943839624 0 -8.3188665943839624 -32.9269315965239 0 0 0 0 -17.025907178896205 -12.95965399787201 0 -12.95965399787201 -16.253601083413741 0 0 0 0 -3.6498818347216684 -9.7894087178001428 0 -9.7894087178001428 -10.840824996161246 0 0 0 0 -9.6041215099880901 -5.7848672725222059 0 -5.7848672725222059 -13.29935506294305 0 0 0 0 -7.1802136614656717 -11.836784476279036 0 -11.836784476279036 -15.064910638086076 0 0 0 0 -10.060085114711228 -8.3693216723695514 0 -8.3693216723695514 -6.6730977274667111 0 0 0 0 -20.22805174206372 2.8678418647152739 0 2.8678418647152739 -6.5121607465698617 0 0 0 0 -3.9174989451452378 1.8353125665813561 0 1.8353125665813561 -0.7414961684824819 0 0 0 0 -10.96548862422128 6.1906988006909387 0 6.1906988006909387 -7.2821385563629519 0 0 0 0 -20.273655608266608 49.399838456366069 0 49.399838456366069 2.6219845703487863 0 0 0 0 34.106961773319313 -13.305693501633641 0 -13.305693501633641 -37.906212125442835 0 0 0 0 -169.95567599538151 -37.898911348526781 0 -37.898911348526781 1.4529202274702584 0 0 0 0 -1.7937118376253698 0.62455008016137015 0 0.62455008016137015 -0.29035177116988198 0 0 0 0 -36.217451816081052 -59.919412943512725 0 -59.919412943512725 -12.451507859893354 0 0 0 0 -153.86505104934122 -27.076196644507945 0 -27.076196644507945 1.9942155352291593 0 0 0 0 -116.46501230226514 29.267174226260977 0 29.267174226260977 -18.396677073686078 0 0 0 0 -263.03437794434791 85.958151369887219 0 85.958151369887219 -23.435641865433752 0 0 0 0 -71.706086476805211 135.04074038059173 0 135.04074038059173 -230.02298619570593 0 0 0 0 -264.93948664263411 50.824189795245275 0 50.824189795245275 -104.56360326150002 0 0 0 0 -172.25577407326918 135.77470007850593 0 135.77470007850593 -137.8078545259159 0 0 0 0 -42.553825376551458 79.056698788445829 0 79.056698788445829 -200.45421465591426 0 0 0 0 -25.506788341027971 5.0590419873513213 0 5.0590419873513213 5.6363705719034698 0 0 0 0 -23.605730094179609 25.927385890480565 0 25.927385890480565 5.2945150966530576 0 0 0 0 -7.4088836259070661 -4.1840258965127646 0 -4.1840258965127646 -2.2924353589482962 0 0 0 0 -1.5708330150400087 1.8017965955567234 0 1.8017965955567234 -1.9150943146372583 0 0 0 0 1.457232480475156 10.486231438300962 0 10.486231438300962 -4.9535154866715061 0 0 0 0 -0.039633629083214217 0.73533290292721532 0 0.73533290292721532 -0.322974649117441 0 0 0 0 -10.335319336480302 16.902176609132113 0 16.902176609132113 5.6946904922814383 0 0 0 0 -7.4609219397536748 7.6397869231337694 0 7.6397869231337694 3.8875543689221104 0 0 0 0 -0.16974137462659514 2.1587253594293685 0 2.1587253594293685 -15.363901155147749 0 0 0 0 11.905575772603356 -2.6127588906524579 0 -2.6127588906524579 -18.011577154640236 0 0 0 0 22.30069144874151 22.969222646546442 0 22.969222646546442 -6.0251690183267215 0 0 0 0 5.9359388955090608 28.383233043206445 0 28.383233043206445 4.5592214016666048 0 0 0 0 6.2293351177363547 -8.90957669117347 0 -8.90957669117347 -17.09722251676294 0 0 0 0 -4.4579942196257889 -7.4724168808174909 0 -7.4724168808174909 -11.470578560369177 0 0 0 0 -4.2409010567535006 -6.8742169384963745 0 -6.8742169384963745 -11.642317798360182 0 0 0 0 -5.2986725453860117 -3.6769634104439319 0 -3.6769634104439319 -17.680786596297139 0 0 0 0 -1.7028255472249896 -10.527261330584167 0 -10.527261330584167 -15.055723601172758 0 0 0 0 2.2411491341767942 8.4704376073382264 0 8.4704376073382264 -15.727213176718905 0 0 0 0 -0.20740637177193622 2.2766851726334609 0 2.2766851726334609 -14.553563405582093 0 0 0 0 74.393720283748806 33.274711561767823 0 33.274711561767823 -48.857957507230481 0 0 0 0 -2.4091878947580199 2.020325269897512 0 2.020325269897512 -17.289362223185776 0 0 0 0 22.679149883493565 7.9050139111086253 0 7.9050139111086253 -33.003946662967792 0 0 0 0 -20.452942224002868 22.57008058645556 0 22.57008058645556 -20.416634308794755 0 0 0 0 -56.339990864484747 30.277866748800307 0 30.277866748800307 -12.740372355645832 0 0 0 0 83.218480225286925 3.7034623561872877 0 3.7034623561872877 -41.767778557081542 0 0 0 0 -0.15620892118545399 1.8051493600330411 0 1.8051493600330411 -12.787785476328136 0 0 0 0 -10.746554465287847 14.757894079547441 0 14.757894079547441 0.31108386225159279 0 0 0 0 -5.4844191719529682 38.704874562557912 0 38.704874562557912 -44.700419072734121 0 0 0 0 -0.52694816899919816 0.0036755305640704394 0 0.0036755305640704394 0.0079886274941035618 0 0 0 0 -15.017941522455203 78.131535623010564 0 78.131535623010564 -47.558612450386818 0 0 0 0 -29.958465904591066 60.79697758809067 0 60.79697758809067 14.402156587821356 0 0 0 0 9.341653456096509 54.83511023814475 0 54.83511023814475 -106.95200906692924 0 0 0 0 23.690444924411793 -52.076917699774299 0 -52.076917699774299 -91.4058537040587 0 0 0 0 7.2914822405558795 -33.914089322847644 0 -33.914089322847644 -53.131457835465937 0 0 0 0 -23.494260837954769 -98.026396410568438 0 -98.026396410568438 -137.61462111388445 0 0 0 0 -46.469051343171145 -57.683147998519594 0 -57.683147998519594 -53.112524001095238 0 0 0 0 -99.530540468148217 15.465831121173721 0 15.465831121173721 -3.3484464944745014 0 0 0 0 -25.864448750701371 3.9210463844968118 0 3.9210463844968118 -10.371215836996015 0 0 0 0 47.225820436277274 -53.994942128588704 0 -53.994942128588704 -50.212999437614123 0 0 0 0 -27.851162608375375 -14.531439065025481 0 -14.531439065025481 -53.049683699140672 0 0 0 0 -0.22816894097346921 1.1724896665489222 0 1.1724896665489222 -9.6833308071787219 0 0 0 0 -90.844765813301819 29.754991660988708 0 29.754991660988708 -21.61157946717185 0 0 0 0 -238.90655727316997 -269.8138083516306 0 -269.8138083516306 -183.84676589854899 0 0 0 0 22.670145137321601 -216.73187862394761 0 -216.73187862394761 -498.97221407627711 0 0 0 0 -0.59908852189384088 0.33606341524132993 0 0.33606341524132993 -3.9090468856025002 0 0 0 0 -365.12746051939047 204.63701711990836 0 204.63701711990836 -139.78031219667741 0 0 0 0 37.800015182734228 -80.878838195331838 0 -80.878838195331838 -270.51377486404738 0 0 0 0 44.621040294688143 -65.366173037969389 0 -65.366173037969389 -261.82093364124034 0 0 0 0 40.530749450456739 -158.46644600344905 0 -158.46644600344905 -311.54683405784687 0 0 0 0 103.20648169365464 -102.38862701295342 0 -102.38862701295342 -500.16940042538295 0 0 0 0 120.32580551395992 -6.744009053881868 0 -6.744009053881868 -310.20094414881987 0 0 0 0 73.920296018859801 47.025015881709351 0 47.025015881709351 -336.63671527625786 0 0 0 0 133.15272855513106 49.063485508727013 0 49.063485508727013 -499.69432639499553 0 0 0 0 -21.750555508987379 115.15269614936415 0 115.15269614936415 -500.2474481135884 0 0 0 0 63.298673250701029 89.049774049378954 0 89.049774049378954 -502.59672439767155 0 0 0 0 -204.33827678453861 -75.801287559359025 0 -75.801287559359025 -683.89103838127994 0 0 0 0 -63.027279030954695 212.72070948843049 0 212.72070948843049 -567.64861153321021 0 0 0 0 -290.28106264506192 -223.03254997175463 0 -223.03254997175463 -240.04335730446257 0 0 0 0 -333.84595247733233 238.36312643759322 0 238.36312643759322 109.69033390727236 0 0 0 0 -0.63637632071665096 -1.0616745044529843 0 -1.0616745044529843 -2.2982621803288579 0 0 0 0 -63.324215785974275 229.136070423354 0 229.136070423354 -363.94828043103752 0 0 0 0 -34.734327475748522 156.3937446789792 0 156.3937446789792 -216.92481304233993 0 0 0 0 -0.45135578144636818 -1.9158136456113493 0 -1.9158136456113493 -3.7136428803947328 0 0 0 0 10.521702974823322 85.620605910137044 0 85.620605910137044 -119.63309284587058 0 0 0 0 -0.20752637333816062 0.15226511600365034 0 0.15226511600365034 -2.3117032331758605 0 0 0 0 13.372324981544864 95.495802837837573 0 95.495802837837573 -91.403579591920789 0 0 0 0 -44.439368589134915 -124.52961228052241 0 -124.52961228052241 -141.22523019271421 0 0 0 0 -19.914231079246065 69.006943709584846 0 69.006943709584846 -74.959002481307039 0 0 0 0 0.020516596101401829 0.66975989747802744 0 0.66975989747802744 -6.545071989904562 0 0 0 0 53.048835612009441 8.0516279385717553 0 8.0516279385717553 -25.412261353346366 0 0 0 0 5.8908433039708612 57.468786622970327 0 57.468786622970327 -132.15072959165536 0 0 0 0 7.5786670305303119 67.225990208710641 0 67.225990208710641 -91.988272400567439 0 0 0 0 48.02620463174145 7.5090264313850241 0 7.5090264313850241 -203.09405431544982 0 0 0 0 -57.475303075606242 29.022725808670572 0 29.022725808670572 -86.944546194062895 0 0 0 0 -0.069279200911914474 -0.68271387674984196 0 -0.68271387674984196 -1.4966086514877195 0 0 0 0 17.337954267720335 -117.62235330456642 0 -117.62235330456642 -21.286534756557177 0 0 0 0 13.721312837928902 43.641033331190883 0 43.641033331190883 -19.175219894237813 0 0 0 0 35.142873281403297 -23.284053391373334 0 -23.284053391373334 -153.83804898215362 0 0 0 0 109.46687745487574 -17.901570633032208 0 -17.901570633032208 -411.51451522836169 0 0 0 0 106.91371489539269 -9.3880312215556216 0 -9.3880312215556216 -383.21812531523074 0 0 0 0 108.89664033970882 -56.613930397462923 0 -56.613930397462923 -499.93937845765117 0 0 0 0 58.934923665040742 -55.227626045186526 0 -55.227626045186526 -379.43612626483565 0 0 0 0 52.355118792306598 -56.787046430568353 0 -56.787046430568353 -277.76316800832274 0 0 0 0 11.246989466301486 -84.193945922420824 0 -84.193945922420824 -241.66275505072826 0 0 0 0 19.562397313815119 -83.043502251012114 0 -83.043502251012114 -344.85570802458 0 0 0 0 51.363532858970409 -60.402162888828329 0 -60.402162888828329 -510.05702262659815 0 0 0 0 50.463368462118041 -74.85016439537867 0 -74.85016439537867 -383.61379527218065 0 0 0 0 1.8821733027285603 -106.62885404595227 0 -106.62885404595227 -350.12921284161257 0 0 0 0 -515.74408003055237 3.1585701755766422 0 3.1585701755766422 -511.07908100951499 0 0 0 0 -140.82804969698631 -88.2158911777924 0 -88.2158911777924 -306.79511358868513 0 0 0 0 -12.868798958597026 -150.09207824200757 0 -150.09207824200757 -477.08153084678838 0 0 0 0 -76.6889823386757 -102.89306355327562 0 -102.89306355327562 -500.02369372598736 0 0 0 0 -12.080755911846694 -54.880731566553322 0 -54.880731566553322 -301.06315767347473 0 0 0 0 -32.614673748004684 -114.82448689238004 0 -114.82448689238004 -203.68952375678509 0 0 0 0 -53.123388870659767 -9.7656835963562116 0 -9.7656835963562116 3.475418324628663 0 0 0 0 -38.903029114462811 -67.833604767519148 0 -67.833604767519148 -123.17226619533358 0 0 0 0 18.945036496455387 33.645744435825463 0 33.645744435825463 -27.73187374499048 0 0 0 0 -6.2582589143866016 15.56939727190661 0 15.56939727190661 -0.21074838999640377 0 0 0 0 -30.126452282752126 9.1277435358797447 0 9.1277435358797447 -0.019662123048576063 0 0 0 0 -20.165284348192358 -4.614214024234343 0 -4.614214024234343 17.470447935061998 0 0 0 0 -16.179949728782521 2.380416250753342 0 2.380416250753342 -52.180426593999982 0 0 0 0 -27.289228304916463 29.197999804678602 0 29.197999804678602 10.233905873915319 0 0 0 0 14.940445099680673 24.917442702967719 0 24.917442702967719 -95.472538990977228 0 0 0 0 -8.7836315699836121 -23.050609954259926 0 -23.050609954259926 -108.2343953995935 0 0 0 0 -29.262859343280681 -17.42075607175093 0 -17.42075607175093 -44.297006005485173 0 0 0 0 0.34193777825549354 -36.60106073128054 0 -36.60106073128054 -148.1673537065526 0 0 0 0 -20.646906883074244 -60.57659561277751 0 -60.57659561277751 -143.96095375880191 0 0 0 0 -5.8987760002448297 -44.290413606146558 0 -44.290413606146558 -176.05076500572204 0 0 0 0 16.779070775842087 -51.501136941238428 0 -51.501136941238428 -242.18401836202565 0 0 0 0 66.331352501458383 -35.57189603406232 0 -35.57189603406232 -274.08094887934368 0 0 0 0 17.567475898699001 -23.756178123812106 0 -23.756178123812106 -169.06165782706285 0 0 0 0 -1.3792370760287653 -35.536699010392852 0 -35.536699010392852 -164.71504782810734 0 0 0 0 44.019967315392364 -163.34252688843321 0 -163.34252688843321 115.07880424633345 0 0 0 0 0.0713327150562999 -0.47702682034812405 0 -0.47702682034812405 -0.55316081954464114 0 0 0 0 98.796191613427027 -115.3161563919798 0 -115.3161563919798 127.18107289858744 0 0 0 0 2.8812311189308559 71.848260046578616 0 71.848260046578616 -168.28764132662855 0 0 0 0 0.019558055618080883 -0.28393432172738464 0 -0.28393432172738464 -0.33213832853052416 0 0 0 0 0.57942517293412266 -3.7308303418255946 0 -3.7308303418255946 -145.01350501622892 0 0 0 0 -45.881909717771237 47.016575917866248 0 47.016575917866248 -84.292198737427498 0 0 0 0 62.58687216958424 40.730677663664437 0 40.730677663664437 -107.32821220937376 0 0 0 0 -7.9252649702955864 -7.5930181188050483 0 -7.5930181188050483 -10.073342467551811 0 0 0 0 -13.831777659863207 9.7469628536730397 0 9.7469628536730397 -43.234032439250768 0 0 0 0 4.3940550352730838 6.1654449976331307 0 6.1654449976331307 -88.97286648745046 0 0 0 0 -14.930763433937472 26.547264202496763 0 26.547264202496763 -79.640432997210155 0 0 0 0 38.126848929879657 -0.70342168410115846 0 -0.70342168410115846 -162.89694694880154 0 0 0 0 2.9166443231416679 -10.235156808560987 0 -10.235156808560987 -51.684091986907788 0 0 0 0 15.125298041922349 -33.545643460003248 0 -33.545643460003248 -92.82355769672813 0 0 0 0 17.328645540824937 23.761718824656782 0 23.761718824656782 -69.67933226469313 0 0 0 0 42.051333540090468 30.958240025224313 0 30.958240025224313 -25.649145987218674 0 0 0 0 6.2794380866325952 12.548273581019203 0 12.548273581019203 -39.109330238781695 0 0 0 0 17.89728825155251 -9.8558226204527273 0 -9.8558226204527273 -2.9515390772689898 0 0 0 0 18.380696936136701 26.679649503152859 0 26.679649503152859 18.864799226662399 0 0 0 0 51.247612161181749 -44.432957747973433 0 -44.432957747973433 -13.637993861499126 0 0 0 0 36.617998147830122 5.6622234747160292 0 5.6622234747160292 -51.370637986849943 0 0 0 0 15.925594213206438 6.935168162371383 0 6.935168162371383 -29.59044170738116 0 0 0 0 0.20898652011502247 -0.40903945605552572 0 -0.40903945605552572 -0.45588474002137325 0 0 0 0 65.579619070437388 -14.076692245242612 0 -14.076692245242612 -55.186029432822579 0 0 0 0 15.959024556980491 -17.578752406502076 0 -17.578752406502076 -29.798224051181023 0 0 0 0 31.964772080739365 -2.1294167124580667 0 -2.1294167124580667 1.5634493005018157 0 0 0 0 0.78967578217307732 5.74976703073321 0 5.74976703073321 0.27830861329948675 0 0 0 0 2.4952738741144458 5.0254391827502332 0 5.0254391827502332 -9.9463929138000822 0 0 0 0 7.2865451657441804 4.6904612156699841 0 4.6904612156699841 -12.567948609035284 0 0 0 0 0.64870101736438224 0.80708117336603635 0 0.80708117336603635 -2.382632288523709 0 0 0 0 12.62538321058819 10.930391745708221 0 10.930391745708221 -7.1725742627140789 0 0 0 0 6.9778362388028325 2.1820118326302236 0 2.1820118326302236 -10.29272458023479 0 0 0 0 4.9739672334620764 3.8925159748282567 0 3.8925159748282567 -23.706663689909874 0 0 0 0 1.0325023381964193 0.50711360315011067 0 0.50711360315011067 -3.2392345947894556 0 0 0 0 0.79145034199859765 6.1964680122657683 0 6.1964680122657683 -14.045650217317416 0 0 0 0 2.4858333091906388 5.4679456888761706 0 5.4679456888761706 -21.335266983241127 0 0 0 0 1.7275703730736609 3.9266564768556691 0 3.9266564768556691 -11.810055299763917 0 0 0 0 1.2572070632197949 5.129444204015158 0 5.129444204015158 -11.211971410440128 0 0 0 0 1.6411298497828852 5.0207459881230534 0 5.0207459881230534 -9.0707661823926173 0 0 0 0 6.6791925084413606 3.1300073700872417 0 3.1300073700872417 -10.019038547222408 0 0 0 0 0.55168187635105426 3.2329713031940628 0 3.2329713031940628 -9.3038891333944775 0 0 0 0 6.5961868807313948 3.1776770199741691 0 3.1776770199741691 -6.6313935272482922 0 0 0 0 20.71820416544864 0.42475192566689657 0 0.42475192566689657 -13.16529108969371 0 0 0 0 26.891224078789321 -5.8449714120276894 0 -5.8449714120276894 -29.068205246232083 0 0 0 0 1.798294969937281 -1.8751180783428367 0 -1.8751180783428367 -13.051017546824369 0 0 0 0 0.37308935085833839 -0.040728296341487003 0 -0.040728296341487003 0.15840837765165106 0 0 0 0 13.932416031812238 20.589581980203548 0 20.589581980203548 15.112575291887651 0 0 0 0 40.781657308631395 16.439721144028681 0 16.439721144028681 -12.47692767382523 0 0 0 0 24.253097065665656 6.1660780549282208 0 6.1660780549282208 -15.621766784632655 0 0 0 0 21.84471199413408 4.9910323110428294 0 4.9910323110428294 -10.379447990252629 0 0 0 0 8.7643527952374143 4.1083588091191814 0 4.1083588091191814 -0.9751262343856979 0 0 0 0 23.772905958499532 3.5114217385043389 0 3.5114217385043389 -7.6844816641241778 0 0 0 0 6.275157550587636 4.4913135626500207 0 4.4913135626500207 -7.8815343414207746 0 0 0 0 4.7226797484701279 2.5735705164968294 0 2.5735705164968294 -1.5249807166810569 0 0 0 0 -20.878656716793813 -56.991967069472153 0 -56.991967069472153 -12.370311803092704 0 0 0 0 -30.647589283601103 27.975449290641393 0 27.975449290641393 38.963752200108438 0 0 0 0 -0.8983356781500631 -0.21327507982880634 0 -0.21327507982880634 0.14011966757746305 0 0 0 0 -45.110014666404453 144.8518179960825 0 144.8518179960825 -216.95743182059198 0 0 0 0 -40.892303048494348 -63.310055158337846 0 -63.310055158337846 -101.83700083435815 0 0 0 0 31.99748527319889 -12.989527763422586 0 -12.989527763422586 -46.686803800761481 0 0 0 0 11.34658036239307 -15.717796324746814 0 -15.717796324746814 -95.572414863821891 0 0 0 0 -15.456837340290591 11.108893295828537 0 11.108893295828537 -14.959737896194838 0 0 0 0 -10.081991192861722 51.81729743390423 0 51.81729743390423 -87.852829880245054 0 0 0 0 34.802508573259729 -3.3440309541688009 0 -3.3440309541688009 -23.76264297328521 0 0 0 0 8.6961139362407494 12.191909699918597 0 12.191909699918597 -7.6031766377966505 0 0 0 0 0.44205469405808218 0.070905835399947437 0 0.070905835399947437 -9.7929106663919274 0 0 0 0 1.2700267203767908 1.1357649535489145 0 1.1357649535489145 -6.6976677097695756 0 0 0 0 0.94405468683371718 -0.32430678231418941 0 -0.32430678231418941 -6.7747057237524064 0 0 0 0 21.163881031716755 -22.667633121767778 0 -22.667633121767778 4.1407613754458055 0 0 0 0 0.51385246938970397 2.4983150026305623 0 2.4983150026305623 -5.7021595700753096 0 0 0 0 -0.86681362907965864 1.896119140904549 0 1.896119140904549 -4.387160172871547 0 0 0 0 -5.4399244731709562 2.4740213842487719 0 2.4740213842487719 -10.231881882291418 0 0 0 0 -6.1496639676525042 2.5931197441805125 0 2.5931197441805125 -10.116508685252484 0 0 0 0 0.66462902445335925 0.76817740051484895 0 0.76817740051484895 -7.0784078371721497 0 0 0 0 0.058041341046730741 3.1204996430796221 0 3.1204996430796221 -7.0191737978825639 0 0 0 0 -0.143671810019393 -0.35175857290071688 0 -0.35175857290071688 -0.8478147576724101 0 0 0 0 -29.290816137368893 -19.560762958828803 0 -19.560762958828803 51.04724925309776 0 0 0 0 20.581686485502473 -8.2806134903966324 0 -8.2806134903966324 -5.484511517976614 0 0 0 0 -0.37808594271103857 -13.369542201809992 0 -13.369542201809992 -6.7153891310407516 0 0 0 0 -0.18669079643410025 -0.14496514558528806 0 -0.14496514558528806 -1.0637684758454975 0 0 0 0 -0.078244447354052227 0.069836602507677981 0 0.069836602507677981 -4.0540548213095491 0 0 0 0 -2.4567189098665168 10.647247806867139 0 10.647247806867139 -20.700307805946977 0 0 0 0 -3.6709133606064199 5.4252205695718487 0 5.4252205695718487 -18.957773499520044 0 0 0 0 2.7136807212134499 1.3856253048184044 0 1.3856253048184044 -19.557987130540823 0 0 0 0 -0.35548298171786574 2.7190858749278259 0 2.7190858749278259 -1.0380780479831462 0 0 0 0 -3.3460946855968814 -1.3667234557291295 0 -1.3667234557291295 -16.099383762503521 0 0 0 0 -7.2541571224865038 3.4006567675269253 0 3.4006567675269253 -4.4127740007853049 0 0 0 0 -15.787394846060238 15.462565745251709 0 15.462565745251709 1.8625714731149401 0 0 0 0 -1.9970985723264221 16.450697575965023 0 16.450697575965023 -25.2362625886974 0 0 0 0 0.28670262573484706 3.2947985559250128 0 3.2947985559250128 -30.657114675015237 0 0 0 0 12.403784495261675 13.063140233439356 0 13.063140233439356 -33.121098059501719 0 0 0 0 -0.31149828971831628 2.5260576652788984 0 2.5260576652788984 -11.268128839757182 0 0 0 0 -0.47591325378957838 3.1145742102677456 0 3.1145742102677456 -11.776796319991691 0 0 0 0 8.9775467814441754 -2.7238240183940547 0 -2.7238240183940547 -11.938032865399123 0 0 0 0 0.21687802591469563 4.150173059003464 0 4.150173059003464 -8.9709303758095302 0 0 0 0 0.85047315961287495 -3.6213257739668734 0 -3.6213257739668734 -0.33148314736354223 0 0 0 0 -1.8083128870005112 7.326877147905293 0 7.326877147905293 -14.115449799784074 0 0 0 0 -6.0648499841353214 4.9683183699703477 0 4.9683183699703477 -9.4294150031437312 0 0 0 0 1.8508143813342031 3.3646233431071551 0 3.3646233431071551 -13.636377443116999 0 0 0 0 4.0468661344514203 5.4954129238685141 0 5.4954129238685141 -12.14962962880918 0 0 0 0 4.1454523698794219 0.0024967003087112971 0 0.0024967003087112971 -10.062735154926358 0 0 0 0 9.8653711400880013 5.4786670451734452 0 5.4786670451734452 -15.872150495032656 0 0 0 0 4.6285313744569123 2.3607821109706606 0 2.3607821109706606 -16.871568897468023 0 0 0 0 3.5990652328323449 8.2885751589091115 0 8.2885751589091115 -21.392981350811056 0 0 0 0 -4.0291547601036655 4.1268495938904834 0 4.1268495938904834 -12.423525793445151 0 0 0 0 2.2748988280542752 0.027317985719271631 0 0.027317985719271631 -3.3723041690765516 0 0 0 0 0.81525336152290606 7.9526294503231725 0 7.9526294503231725 -21.565003071496562 0 0 0 0 -1.9722073584040345 4.1543763535228209 0 4.1543763535228209 -14.668968938825117 0 0 0 0 -2.2211427146081064 8.0419603294121202 0 8.0419603294121202 -13.017566403771184 0 0 0 0 -0.10222353345409374 5.4990175010151745 0 5.4990175010151745 -8.6734519993782442 0 0 0 0 0.51292293841800074 4.8282390822560615 0 4.8282390822560615 -13.480907434033043 0 0 0 0 -1.8160754610329377 7.2839184969042776 0 7.2839184969042776 -7.1633478445729679 0 0 0 0 0.074438435455541963 -0.17455267144698816 0 -0.17455267144698816 -0.29878205826211524 0 0 0 0 -9.775857230483723 21.251842620896156 0 21.251842620896156 -15.603563433899495 0 0 0 0 -0.67409126456123403 0.74287144867719235 0 0.74287144867719235 -1.7057826350339838 0 0 0 0 0.05434773733242082 0.86207072562905296 0 0.86207072562905296 -2.1845920681341511 0 0 0 0 0.90903057996698067 1.5881447178699375 0 1.5881447178699375 -2.1568443658228205 0 0 0 0 0.68718659690830464 -0.22468867924149549 0 -0.22468867924149549 -1.3727873028864579 0 0 0 0 -13.790978467452149 22.296376029768787 0 22.296376029768787 6.6528870528972561 0 0 0 0 -6.1966187140612305 0.10366132723885357 0 0.10366132723885357 22.211636296071958 0 0 0 0 9.562911381007126 0.22226028411793664 0 0.22226028411793664 -13.029003363622897 0 0 0 0 -10.365198771720657 -0.32712202286984038 0 -0.32712202286984038 -39.501704058911706 0 0 0 0 -1.9412660986237151 0.66264183831342471 0 0.66264183831342471 0.084032978969350622 0 0 0 0 -4.760577568813801 6.4378192065762168 0 6.4378192065762168 -47.65020407447328 0 0 0 0 -1.1729378882967012 10.205483334349154 0 10.205483334349154 -44.752098951237713 0 0 0 0 -4.5361766742802274 9.2257403871388277 0 9.2257403871388277 -22.256130620230941 0 0 0 0 -4.426828297490033 1.0465331002429918 0 1.0465331002429918 -39.898312232144328 0 0 0 0 5.3382182105891332 0.92332687067166441 0 0.92332687067166441 -39.487387418064316 0 0 0 0 -0.67922866382446045 9.0096251135005314 0 9.0096251135005314 -18.647129851064996 0 0 0 0 10.305913227061069 -10.107450201776004 0 -10.107450201776004 -12.517248530246242 0 0 0 0 3.8647347280746089 0.2337936119831312 0 0.2337936119831312 -21.507919113944251 0 0 0 0 0.16148328048171834 1.3124718232246053 0 1.3124718232246053 -7.6643084660151999 0 0 0 0 0.52115594499494611 1.2082244990894617 0 1.2082244990894617 -2.0808353804730912 0 0 0 0 22.193404207844196 31.436019342083455 0 31.436019342083455 -22.138723502640275 0 0 0 0 7.3812439873664175 16.110677210996073 0 16.110677210996073 -8.4743573147984534 0 0 0 0 20.604388224754643 -14.860749110419661 0 -14.860749110419661 -7.3183000579559803 0 0 0 0 8.1217145107963802 -5.3236373476247891 0 -5.3236373476247891 0.54989467401519221 0 0 0 0 1.4842971921289752 -0.74518223780374759 0 -0.74518223780374759 -11.184245500397243 0 0 0 0 1.1413420296618142 -8.1038398250228649 0 -8.1038398250228649 -1.6067316578727926 0 0 0 0 24.092906192060468 5.3488032534510914 0 5.3488032534510914 -32.186381228685079 0 0 0 0 -15.96435763574425 32.254757973597549 0 32.254757973597549 -30.064688875975492 0 0 0 0 30.71229888657183 -21.66364053219263 0 -21.66364053219263 -37.470173537149094 0 0 0 0 38.942762771439249 -31.537036094965611 0 -31.537036094965611 -22.362245953456053 0 0 0 0 1.3334024881872355 -0.60762300919203105 0 -0.60762300919203105 -10.650196444607785 0 0 0 0 10.637401480429162 -15.535062328886852 0 -15.535062328886852 -22.927967439256477 0 0 0 0 -1.2727905556934047 11.040450644794191 0 11.040450644794191 -0.78935680261383823 0 0 0 0 1.0796937303069463 0.7967703020075716 0 0.7967703020075716 -10.112789124666369 0 0 0 0 42.640853465334686 0.60325219603092606 0 0.60325219603092606 -27.74525140976715 0 0 0 0 4.6462813540196066 -15.451419566315735 0 -15.451419566315735 2.3703908821125879 0 0 0 0 -31.254455284288383 -24.02024054382381 0 -24.02024054382381 22.465850412060249 0 0 0 0 37.358372011551978 26.511318639999132 0 26.511318639999132 -63.782291781023162 0 0 0 0 -5.5727578214957703 31.152708091564534 0 31.152708091564534 -9.230662584407014 0 0 0 0 -0.67949813895853883 0.22772618291406002 0 0.22772618291406002 -0.12234285101422548 0 0 0 0 15.113396708108098 6.6663493328341819 0 6.6663493328341819 -93.990520533000222 0 0 0 0 -12.823117130093692 18.130530754599562 0 18.130530754599562 38.218464199726498 0 0 0 0 -5.5532616831474115 24.710022179732363 0 24.710022179732363 2.7270062093334673 0 0 0 0 -3.6435721873301645 13.815591855097978 0 13.815591855097978 11.366160405592666 0 0 0 0 -1.5972333249905546 4.3574329167012849 0 4.3574329167012849 3.995222791936385 0 0 0 0 1.262623538091475 7.8107054904496636 0 7.8107054904496636 -8.1682460281328986 0 0 0 0 -0.29611126401937327 5.0581982942993875 0 5.0581982942993875 -6.7557374391852818 0 0 0 0 6.5825074052695527 4.2343929414442414 0 4.2343929414442414 -2.6662541462804938 0 0 0 0 2.9503534145267167 5.1796808175280944 0 5.1796808175280944 -2.7329865375600093 0 0 0 0 10.673634622275301 10.937082920454458 0 10.937082920454458 -4.1973731351079095 0 0 0 0 -1.936858515609174 19.233667412451155 0 19.233667412451155 -4.9582574928178644 0 0 0 0 2.6398417533982865 10.733898787831777 0 10.733898787831777 -4.0111239523871802 0 0 0 0 1.2188947674490009 8.0142835815266267 0 8.0142835815266267 -6.5476743954337735 0 0 0 0 3.6029391594070148 9.2899466476459338 0 9.2899466476459338 -12.360308567580205 0 0 0 0 0.95229449576230196 1.6268574253912038 0 1.6268574253912038 -7.6683912173474216 0 0 0 0 3.577951000801022 6.9989979674626852 0 6.9989979674626852 -7.0811123991919658 0 0 0 0 3.9392514758023935 5.6931408860037891 0 5.6931408860037891 -12.135812760946976 0 0 0 0 1.185082111089514 7.8410743152369378 0 7.8410743152369378 -7.6497294375035381 0 0 0 0 5.8393864609270167 7.0808603993559132 0 7.0808603993559132 -7.6221931731274708 0 0 0 0 1.1135539958943355 -1.3192420502382447 0 -1.3192420502382447 -9.568925752080645 0 0 0 0 1.9076336833190721 1.3149054704057033 0 1.3149054704057033 -8.5119601004661334 0 0 0 0 0.99139428393694784 -0.31980270821120982 0 -0.31980270821120982 -1.6749738688917404 0 0 0 0 8.1556328741487505 3.9955641656060834 0 3.9955641656060834 -6.482460054316789 0 0 0 0 4.2748790439413824 -6.5995830452420705 0 -6.5995830452420705 -8.4320801468729769 0 0 0 0 4.7910499105998383 0.98117048569429244 0 0.98117048569429244 -3.5595283197362733 0 0 0 0 -0.03979893417076541 1.6859490698585506 0 1.6859490698585506 -4.9775574617254721 0 0 0 0 -0.6719421751205914 -0.81950490680992516 0 -0.81950490680992516 -1.9725691912744878 0 0 0 0 15.578890211845476 6.9086712719811203 0 6.9086712719811203 0.55696275920490734 0 0 0 0 11.170820717459208 0.0091746649331980734 0 0.0091746649331980734 -6.6122401327351135 0 0 0 0 -3.274817870265224 -13.287923136203517 0 -13.287923136203517 -35.471684950648523 0 0 0 0 0.7235946889341851 0.005114510982040521 0 0.005114510982040521 -0.4078790789184108 0 0 0 0 -8.5056749914988359 -5.4079298907151951 0 -5.4079298907151951 -8.5693948241823819 0 0 0 0 -4.4842032699807532 2.5328419838797345 0 2.5328419838797345 3.5778872339456029 0 0 0 0 0.70288276726464805 -0.94089311756150495 0 -0.94089311756150495 -2.1113956185892615 0 0 0 0 14.783542919695037 -4.1305183420372487 0 -4.1305183420372487 -10.968704146936943 0 0 0 0 8.707152886639733 -10.903931460572039 0 -10.903931460572039 -5.1448088067722892 0 0 0 0 -2.9708528517898003 -1.1718099292097577 0 -1.1718099292097577 -8.2610883551969891 0 0 0 0 28.276743575506998 1.1573789472652152 0 1.1573789472652152 -9.1344940797885101 0 0 0 0 23.037635748655902 -9.3858499490687564 0 -9.3858499490687564 -30.350328873588751 0 0 0 0 24.957103538357757 3.7918624871977045 0 3.7918624871977045 -6.0069397205397763 0 0 0 0 25.269115827067992 3.1852499824258302 0 3.1852499824258302 -10.516201466715273 0 0 0 0 27.559660978343686 18.630133787483373 0 18.630133787483373 5.8464901251243191 0 0 0 0 32.1317856073847 10.439727614620324 0 10.439727614620324 -8.128996036995602 0 0 0 0 26.928145945839077 8.2098348810286552 0 8.2098348810286552 6.426853859764833 0 0 0 0 30.373799549080701 19.053855666788422 0 19.053855666788422 -19.426480031393567 0 0 0 0 29.038739329127395 30.504639708251034 0 30.504639708251034 24.911438327258338 0 0 0 0 84.083382783732645 52.720059493877216 0 52.720059493877216 12.672693371644982 0 0 0 0 0.29560437632720959 -0.02758809145426433 0 -0.02758809145426433 -0.17948551817792513 0 0 0 0 10.550488966322376 -57.823279872632838 0 -57.823279872632838 -87.073100482619793 0 0 0 0 -3.6628281763025825 7.0356122393386613 0 7.0356122393386613 -24.099381670870571 0 0 0 0 -22.077563424906941 -16.305546573050719 0 -16.305546573050719 -26.040408603339529 0 0 0 0 0.71106128060813489 3.2525244332366583 0 3.2525244332366583 -0.90287074768912134 0 0 0 0 8.4111791116552013 6.7859174990780957 0 6.7859174990780957 -24.68063892212939 0 0 0 0 89.086751450834868 5.8565434002096026 0 5.8565434002096026 -84.835154130713818 0 0 0 0 5.1888490494100097 9.8941283612359712 0 9.8941283612359712 11.224994513710044 0 0 0 0 -0.089880636455654861 0.18280379414618508 0 0.18280379414618508 -0.5577348840363836 0 0 0 0 -45.075799381022932 -36.42111121712469 0 -36.42111121712469 -27.778101579779104 0 0 0 0 -5.166160607017332 22.734066616722885 0 22.734066616722885 -19.114439649741144 0 0 0 0 24.518008286368342 -32.690142828557327 0 -32.690142828557327 -95.878117753292827 0 0 0 0 2.990915071931795 8.5549522186506692 0 8.5549522186506692 -29.69487460122491 0 0 0 0 -5.5931062368986204 9.6304652261125625 0 9.6304652261125625 -26.708944203932333 0 0 0 0 3.988380545556879 22.377796683681709 0 22.377796683681709 -43.004567147598891 0 0 0 0 13.999163101167596 -3.2231144359084283 0 -3.2231144359084283 -39.241402140048422 0 0 0 0 7.1302260119664425 -10.533961427109261 0 -10.533961427109261 -4.0245029124680514 0 0 0 0 13.040258891973679 -8.2846981698544369 0 -8.2846981698544369 -19.313388553724053 0 0 0 0 3.0166363671633007 1.927013058641478 0 1.927013058641478 -13.428540423958793 0 0 0 0 5.3109997813457994 -1.5865783511685549 0 -1.5865783511685549 -6.0707277984334951 0 0 0 0 0.24654122652119881 -0.1081528617501899 0 -0.1081528617501899 0.2513494040775468 0 0 0 0 -42.936689311830378 -13.620843687863271 0 -13.620843687863271 -62.184745993756223 0 0 0 0 51.02143537391612 26.1729791085545 0 26.1729791085545 -119.46839897037239 0 0 0 0 14.882787032859802 4.9067789363409844 0 4.9067789363409844 -12.311640676558454 0 0 0 0 2.5853451950443969 2.3476688013504372 0 2.3476688013504372 -11.537450174205333 0 0 0 0 6.8729120543811177 -2.7116652097104179 0 -2.7116652097104179 -10.1337973093664 0 0 0 0 1.7313899922467044 -7.3559882338886382 0 -7.3559882338886382 -9.8982573721541485 0 0 0 0 15.450219866559337 -6.7267180391422698 0 -6.7267180391422698 -25.65842747957231 0 0 0 0 1.9978015921112728 -24.20470499773387 0 -24.20470499773387 -33.799266927627968 0 0 0 0 47.220816976027578 34.240781918915587 0 34.240781918915587 12.892320593891782 0 0 0 0 44.134834196557094 -14.640231223282271 0 -14.640231223282271 2.5891653389235216 0 0 0 0 6.0573539716331197 -6.5423391238375643 0 -6.5423391238375643 -5.3471210127054292 0 0 0 0 7.5575618190209752 4.7548467394631189 0 4.7548467394631189 -0.29892734263057719 0 0 0 0 1.214262032979093 2.3009081912609872 0 2.3009081912609872 -19.340964674027191 0 0 0 0 0.91571131488981905 -2.9665448645755532 0 -2.9665448645755532 -7.6421743337587031 0 0 0 0 -9.9095283141894015 -17.303940553010534 0 -17.303940553010534 -15.465284783233983 0 0 0 0 18.154158163363945 14.694388035736338 0 14.694388035736338 -5.4301577115411419 0 0 0 0 20.459926394245258 -10.210023679020878 0 -10.210023679020878 -11.532551137764585 0 0 0 0 0.47643275847719213 0.0063093555061533024 0 0.0063093555061533024 -0.14674739288838179 0 0 0 0 8.984616043228641 -13.223725357459898 0 -13.223725357459898 -33.996625298971594 0 0 0 0 24.857444302559088 17.914116208016367 0 17.914116208016367 -26.078245245441622 0 0 0 0 2.5019812728796751 7.3787040554782379 0 7.3787040554782379 -8.8292304511978728 0 0 0 0 5.9593676172151504 1.9465527118895807 0 1.9465527118895807 -7.2510843183194993 0 0 0 0 4.2022124875763893 -5.9222806315949583 0 -5.9222806315949583 -28.926197648732341 0 0 0 0 27.284324769668501 8.5236736765036767 0 8.5236736765036767 -6.8471977106091799 0 0 0 0 0.18930431783122703 -0.033228835744212759 0 -0.033228835744212759 -0.030760345865147087 0 0 0 0 15.289969834385943 16.149697206872816 0 16.149697206872816 12.744272344589035 0 0 0 0 18.327511063185966 16.303943951313158 0 16.303943951313158 6.6001842503094394 0 0 0 0 1.1413183879717508 4.6094582628672924 0 4.6094582628672924 -1.1690566508714255 0 0 0 0 0.12110515317765103 0.38761816065613974 0 0.38761816065613974 -0.31036566797938869 0 0 0 0 9.4451927281913299 -1.8088320260621913 0 -1.8088320260621913 -10.066089503196054 0 0 0 0 6.827258655804826 -3.2542618007835244 0 -3.2542618007835244 -2.8660668271609211 0 0 0 0 -3.3427548492663846 -1.6331967542923849 0 -1.6331967542923849 -4.4477870105451984 0 0 0 0 1.3796551211056567 2.2687009547826165 0 2.2687009547826165 -5.9348877708765713 0 0 0 0 -3.267162794435535 -1.3761458471769856 0 -1.3761458471769856 -7.9541894790149854 0 0 0 0 0.025099456566017864 0.8398162609735591 0 0.8398162609735591 -1.5990642589841033 0 0 0 0 1.2871752852827285 -23.08755266260232 0 -23.08755266260232 -91.028360763729779 0 0 0 0 -2.9238752206335334 -1.5012185726552048 0 -1.5012185726552048 -9.2797199850379002 0 0 0 0 -8.1071118839717826 -23.807088642983132 0 -23.807088642983132 -66.732333956602361 0 0 0 0 6.0259470015361458 -2.9195769470308099 0 -2.9195769470308099 -2.3124573010818441 0 0 0 0 -7.0143592174499645 -19.067265596711422 0 -19.067265596711422 -80.458900137565024 0 0 0 0 -2.0137784334929165 -8.25536539625773 0 -8.25536539625773 -58.337882963502125 0 0 0 0 -2.0427971207643623 -11.055887033590352 0 -11.055887033590352 -57.186451075753212 0 0 0 0 -7.1433233849451199 -14.092614993615399 0 -14.092614993615399 -45.950741463992927 0 0 0 0 -5.4475465016019768 -7.9087396290609036 0 -7.9087396290609036 -54.064148930125157 0 0 0 0 -4.3534114834646971 -11.20589868394336 0 -11.20589868394336 -49.230549525108927 0 0 0 0 8.4712763848270924 -7.7863074106845431 0 -7.7863074106845431 -17.53550800740382 0 0 0 0 4.7103526619502514 -4.5652312160822239 0 -4.5652312160822239 2.4977764180981836 0 0 0 0 6.7857752584613991 -4.7030161385557676 0 -4.7030161385557676 -15.358468653406533 0 0 0 0 10.697767446994561 -29.587746907339351 0 -29.587746907339351 -71.881345139306177 0 0 0 0 2.3837016703986396 -0.16646694361741687 0 -0.16646694361741687 -9.2504771166667723 0 0 0 0 6.0110099610129737 -1.5984540915068237 0 -1.5984540915068237 -8.0753449461415698 0 0 0 0 9.0433905255239893 -4.2242539927150631 0 -4.2242539927150631 -13.493279520851388 0 0 0 0 -5.4158235255044929 0.3455620330464626 0 0.3455620330464626 -6.9902955795944308 0 0 0 0 12.854904846934819 -1.5736376962084115 0 -1.5736376962084115 -11.976591415003327 0 0 0 0 12.398861332773606 -8.5030192439707708 0 -8.5030192439707708 -13.115842767343452 0 0 0 0 4.6048852729454666 -0.84795931751013143 0 -0.84795931751013143 1.0607906617081966 0 0 0 0 4.6945439878355728 -0.006191212485347819 0 -0.006191212485347819 -16.117022008965648 0 0 0 0 24.482144182619379 -6.3150740642124532 0 -6.3150740642124532 -13.43042070155478 0 0 0 0 11.25387720062912 -19.609539117068163 0 -19.609539117068163 6.7855454817867269 0 0 0 0 4.0218370531028711 7.9824802459332886 0 7.9824802459332886 -20.932941321525476 0 0 0 0 -0.29244769031109619 1.1234423393424184 0 1.1234423393424184 -2.4890830970995204 0 0 0 0 1.8614768841145501 0.13293392957687444 0 0.13293392957687444 -10.502993765181246 0 0 0 0 5.217496373754102 6.3441521221695893 0 6.3441521221695893 -15.971925134237154 0 0 0 0 0.39738965623644162 0.61597474282189069 0 0.61597474282189069 -10.84440239438436 0 0 0 0 4.6140467569780412 6.5484890514321705 0 6.5484890514321705 -2.8237966968245019 0 0 0 0 -4.3245660157932662 5.565214501458513 0 5.565214501458513 -8.8056917516969406 0 0 0 0 -0.27235834700701389 7.0929248054012533 0 7.0929248054012533 -14.963805816665854 0 0 0 0 13.027230680721516 -14.862403103253541 0 -14.862403103253541 -10.976623130562984 0 0 0 0 17.545968014741021 -3.6508324836502197 0 -3.6508324836502197 1.6434468696925251 0 0 0 0 19.281422856174572 -7.0485871960142958 0 -7.0485871960142958 -5.4908332497182641 0 0 0 0 14.925312332495366 -5.2013804705436542 0 -5.2013804705436542 -2.2669988523539359 0 0 0 0 9.2083095845150638 -11.548856141894248 0 -11.548856141894248 -4.7142738791345096 0 0 0 0 21.566679719719389 -31.745815544383049 0 -31.745815544383049 28.244431242286737 0 0 0 0 0.20832134454371953 -2.5291755656098758 0 -2.5291755656098758 -7.737727111786171 0 0 0 0 63.218770396628827 -5.3404855202556973 0 -5.3404855202556973 -25.777863710067322 0 0 0 0 -21.349611016862696 62.565808983697934 0 62.565808983697934 17.127406870260529 0 0 0 0 -67.582606371272192 -13.988440798951615 0 -13.988440798951615 2.5139588282931982 0 0 0 0 -35.834724979937988 -31.164046065369803 0 -31.164046065369803 -40.42380204728488 0 0 0 0 -4.5059992297232156 11.06858117714728 0 11.06858117714728 -12.777045897493508 0 0 0 0 0.93707780540359675 4.2726212382467068 0 4.2726212382467068 -11.247043944096127 0 0 0 0 0.41897183105743352 8.2669019206186931 0 8.2669019206186931 5.917417682699579 0 0 0 0 -2.2670193847830831 8.1669171502599056 0 8.1669171502599056 -25.147189396773683 0 0 0 0 -0.060728391852649111 9.7421090226034721 0 9.7421090226034721 -0.78236793793985271 0 0 0 0 3.9892597196153474 5.0011088535229646 0 5.0011088535229646 4.6952782585067325 0 0 0 0 9.7576909879771847 3.7097567757991783 0 3.7097567757991783 -1.7039311535554589 0 0 0 0 -17.915973181177719 -17.228365997159926 0 -17.228365997159926 -29.726457059905442 0 0 0 0 -1.4865408297148839 1.2360074183068921 0 1.2360074183068921 1.983446093487073 0 0 0 0 -23.888148359905848 -1.0407177756997044 0 -1.0407177756997044 -16.683167374468439 0 0 0 0 -22.953415940301479 2.1878750148759991 0 2.1878750148759991 -19.214298810835317 0 0 0 0 11.074536874210878 -13.398691150733157 0 -13.398691150733157 -17.824515918526231 0 0 0 0 2.475349294876978 -1.8502908803394504 0 -1.8502908803394504 -16.719601971802234 0 0 0 0 -26.07602134799485 2.6727613911407389 0 2.6727613911407389 -9.178527019691046 0 0 0 0 -5.4668586354550257 -0.20291562717011402 0 -0.20291562717011402 -19.96474590930211 0 0 0 0 -31.840150922914532 15.315555591686916 0 15.315555591686916 -11.655864264580487 0 0 0 0 2.0805867559982691 -1.7589463887202319 0 -1.7589463887202319 -16.267702520490342 0 0 0 0 16.115587664488601 -3.1172381423066327 0 -3.1172381423066327 -23.654511037259908 0 0 0 0 9.0103927288269006 2.7941739024799972 0 2.7941739024799972 -21.328721388469603 0 0 0 0 -2.1126383094074299 -4.3897249178888842 0 -4.3897249178888842 -25.550263584052573 0 0 0 0 9.8291226382430068 10.442586076136422 0 10.442586076136422 -14.152270542279496 0 0 0 0 41.254935631872115 -0.47553058979201523 0 -0.47553058979201523 -18.983760271277788 0 0 0 0 16.736352684056129 -8.9448256909884094 0 -8.9448256909884094 8.9877022000173383 0 0 0 0 27.869183444322914 4.3793860905782367 0 4.3793860905782367 -6.2911051447424597 0 0 0 0 22.201309946483889 19.115275518821136 0 19.115275518821136 6.641838859056179 0 0 0 0 14.797578718030195 10.001319983887242 0 10.001319983887242 -4.5065416784341323 0 0 0 0 -0.062862385676798888 0.26805584110675884 0 0.26805584110675884 -4.5830670045475532 0 0 0 0 15.728280628852872 4.0505567341645019 0 4.0505567341645019 -4.9676332612634724 0 0 0 0 15.376409180319172 4.3297637241107623 0 4.3297637241107623 -3.8053513552276854 0 0 0 0 9.5622078228100804 6.3408936290661586 0 6.3408936290661586 -10.706265465504202 0 0 0 0 10.016745295629903 9.8121806269181207 0 9.8121806269181207 -0.44954168414551532 0 0 0 0 3.2263330891404394 -1.6624807567980042 0 -1.6624807567980042 -39.694219193094114 0 0 0 0 10.579314278089214 6.6659329664848883 0 6.6659329664848883 -14.674336597861611 0 0 0 0 0.49524476940457784 0.035638311627399055 0 0.035638311627399055 -0.17960096126008729 0 0 0 0 -0.69144552021293748 2.7723630668550641 0 2.7723630668550641 -10.476342527736051 0 0 0 0 11.436223884204367 14.670678777358546 0 14.670678777358546 -2.2709185583466933 0 0 0 0 15.386157492173083 4.7193855533896567 0 4.7193855533896567 -16.205462556438761 0 0 0 0 11.101169856111937 14.369511411384792 0 14.369511411384792 -1.9895066449246315 0 0 0 0 9.1616425798764567 14.139685303152874 0 14.139685303152874 4.2610073087680576 0 0 0 0 4.7662306694961671 6.8394021055362373 0 6.8394021055362373 4.077712637583879 0 0 0 0 4.5266382695328957 7.2480451217335258 0 7.2480451217335258 3.5500090752029791 0 0 0 0 9.7368967782755362 26.520796905616407 0 26.520796905616407 51.069751279259435 0 0 0 0 17.86144353139855 23.789914078754919 0 23.789914078754919 8.5204541363018507 0 0 0 0 3.5898653375554659 9.3920936057461404 0 9.3920936057461404 22.831786092034008 0 0 0 0 22.53899629102375 10.401547522588316 0 10.401547522588316 -2.0208153403832512 0 0 0 0 8.100828553538804 3.0863715974605839 0 3.0863715974605839 -5.078811045714815 0 0 0 0 7.9331815431129371 10.909933018958327 0 10.909933018958327 -4.2278659577164035 0 0 0 0 10.242210604963759 8.0819370822842984 0 8.0819370822842984 -0.767099814032008 0 0 0 0 7.1928054437356082 1.6812676538083906 0 1.6812676538083906 -7.4706587449572908 0 0 0 0 2.4838378401663022 3.1772398501898351 0 3.1772398501898351 -1.2806603532421548 0 0 0 0 0.82975582209310683 0.36031721802314953 0 0.36031721802314953 -5.7934086537208955 0 0 0 0 6.8931880409525661 2.9932758841871419 0 2.9932758841871419 -3.940905417518934 0 0 0 0 17.666908407858784 -5.8141728739096834 0 -5.8141728739096834 -5.8025872428052025 0 0 0 0 3.5636513082742547 0.35386898755864049 0 0.35386898755864049 -1.4570101314129889 0 0 0 0 8.9746843925855462 0.60313215114936725 0 0.60313215114936725 -17.210104687947933 0 0 0 0 1.1991920618648617 0.46446711882673208 0 0.46446711882673208 -4.1951042349068395 0 0 0 0 0.66676021590444634 5.9301058327887404 0 5.9301058327887404 -13.390631439764547 0 0 0 0 -2.0626965080733903 14.795822683218148 0 14.795822683218148 -18.015109160250177 0 0 0 0 -6.814399989282947 11.689183068735019 0 11.689183068735019 -17.605204939906699 0 0 0 0 -11.477959888999841 23.944950385585798 0 23.944950385585798 -25.488697475650042 0 0 0 0 42.885950079513975 -33.345421689080013 0 -33.345421689080013 -47.248585422154065 0 0 0 0 -75.648587857112886 51.443379132801056 0 51.443379132801056 -28.159085488956407 0 0 0 0 -30.316373670331984 -50.492738095687969 0 -50.492738095687969 -59.252898067522437 0 0 0 0 -0.045374083616889424 0.09428299206549251 0 0.09428299206549251 -1.482794196374023 0 0 0 0 -15.714594347211204 12.703065644120215 0 12.703065644120215 -4.9381240957818591 0 0 0 0 0.63430609689201312 0.05159699533415818 0 0.05159699533415818 -0.03072471352119921 0 0 0 0 -33.988098242448359 11.390373996060589 0 11.390373996060589 -78.529235247590179 0 0 0 0 20.826421671530511 -41.114027847752823 0 -41.114027847752823 -29.935801333754171 0 0 0 0 60.108289802387617 -19.417871360165918 0 -19.417871360165918 -17.957363088142301 0 0 0 0 56.406206456589189 -20.321770571950992 0 -20.321770571950992 -95.112116661255641 0 0 0 0 10.217435603042603 -12.990829342608777 0 -12.990829342608777 -4.2379493846165133 0 0 0 0 -7.2833245416548849 28.64523712502546 0 28.64523712502546 -54.126482656756586 0 0 0 0 -0.030093180211704262 -0.36296490990643093 0 -0.36296490990643093 -0.70904624929723781 0 0 0 0 13.749881621914369 -6.7371580328263008 0 -6.7371580328263008 5.4976762718924874 0 0 0 0 24.682611146065295 35.295898477101673 0 35.295898477101673 -107.42794302594075 0 0 0 0 2.0274386625320902 0.20564129463928271 0 0.20564129463928271 0.05860201026387607 0 0 0 0 13.372212956519945 -6.8945140464397809 0 -6.8945140464397809 5.4373076474707887 0 0 0 0 12.977046621509544 1.4016854518913533 0 1.4016854518913533 9.7555746877221736 0 0 0 0 45.032261859615815 3.8080690316294294 0 3.8080690316294294 -6.9484274301676123 0 0 0 0 37.524613120330969 2.8108288710227498 0 2.8108288710227498 4.9002301207156052 0 0 0 0 2.1120348914731153 2.353689764118144 0 2.353689764118144 -2.2176191769146953 0 0 0 0 12.236615714357612 -13.674484079929016 0 -13.674484079929016 -26.404825480999534 0 0 0 0 4.7657266561323581 -4.8136534541230276 0 -4.8136534541230276 -15.475352998109884 0 0 0 0 1.131351571353008 -1.3873589157478818 0 -1.3873589157478818 3.191584085625891 0 0 0 0 1.1320479850385254 -2.4874956603980536 0 -2.4874956603980536 -14.467521563869013 0 0 0 0 0.091862332519701329 -0.11487056483382219 0 -0.11487056483382219 -0.41334797668397627 0 0 0 0 -12.377909656722153 25.000095915927432 0 25.000095915927432 -40.963924308072023 0 0 0 0 12.168171705081363 0.96639256461492096 0 0.96639256461492096 -46.932893880349638 0 0 0 0 77.252972470912908 37.77020737040516 0 37.77020737040516 -234.65912670107718 0 0 0 0 -178.1556541766968 83.301255900553997 0 83.301255900553997 88.297829800649197 0 0 0 0 -16.28146806962468 48.144716947537745 0 48.144716947537745 -111.89825985390598 0 0 0 0 -0.59110408875451237 -1.0277620782880943 0 -1.0277620782880943 -1.3412547867901825 0 0 0 0 0.59685298990876845 -8.1888892142342229 0 -8.1888892142342229 -7.5565843135063915 0 0 0 0 -1.7479297129811471 2.6721183950362501 0 2.6721183950362501 -9.9218484515866976 0 0 0 0 2.5858082311241333 0.76872031144785069 0 0.76872031144785069 -27.1956647858633 0 0 0 0 3.073530082213054 4.1258176822034329 0 4.1258176822034329 -27.071168162872468 0 0 0 0 3.1680736671115923 3.0929480652278016 0 3.0929480652278016 -22.406641300254705 0 0 0 0 16.505225541007874 8.5665811953135744 0 8.5665811953135744 -45.565499298608529 0 0 0 0 -0.63640019698074879 -0.62965772720137725 0 -0.62965772720137725 -0.61712153288315363 0 0 0 0 -5.8016165857285422 10.613863117175924 0 10.613863117175924 -25.387690964358626 0 0 0 0 2.604670775742818 20.766448695580038 0 20.766448695580038 -40.357083118956325 0 0 0 0 7.0120975780651786 3.1450071762174048 0 3.1450071762174048 -31.586627959602993 0 0 0 0 -27.576307943077978 -0.18539486535155447 0 -0.18539486535155447 21.346758443396538 0 0 0 0 -51.726963405773063 -24.742313848782942 0 -24.742313848782942 61.668072338670754 0 0 0 0 17.8857060451964 -95.92783719710269 0 -95.92783719710269 46.166151803945695 0 0 0 0 9.3130643559994724 6.2978923863702221 0 6.2978923863702221 -17.685979816235431 0 0 0 0 77.68420874188655 18.03799389711412 0 18.03799389711412 -20.494952859405203 0 0 0 0 1.9698690943484467 2.1910943430894387 0 2.1910943430894387 -12.678787820040078 0 0 0 0 1.227871113063884 -1.6177386012477655 0 -1.6177386012477655 -12.336158841112592 0 0 0 0 27.678037997176659 28.390941124795972 0 28.390941124795972 -13.193243659448854 0 0 0 0 10.101835818616266 -7.3764736719158464 0 -7.3764736719158464 -11.538657763614964 0 0 0 0 -15.977935128781155 33.885744917689408 0 33.885744917689408 -26.859400021663532 0 0 0 0 16.807750656083613 -3.8249834640100744 0 -3.8249834640100744 4.9542245563898177 0 0 0 0 8.7649071480176985 -3.2832666014519418 0 -3.2832666014519418 -124.1691070516913 0 0 0 0 14.689007861156426 -20.63289095795335 0 -20.63289095795335 -73.632258526297846 0 0 0 0 -8.6473577333687217 -13.717579575663876 0 -13.717579575663876 -9.6397817605829914 0 0 0 0 0.95527240161825944 -29.577270409353787 0 -29.577270409353787 -38.424053022482212 0 0 0 0 23.867350617720923 -4.6620812722173923 0 -4.6620812722173923 -46.428784397980053 0 0 0 0 25.511742104411866 0.87284431141756613 0 0.87284431141756613 -26.125798219210992 0 0 0 0 0.51425508569789713 -7.4567000542787696 0 -7.4567000542787696 -14.635385764881903 0 0 0 0 9.787830787897839 -26.330881828768497 0 -26.330881828768497 -40.434051608063783 0 0 0 0 0.92131784158071051 0.021370438232240829 0 0.021370438232240829 0.006890382431376546 0 0 0 0 -38.496047113281918 -1.7677562774510989 0 -1.7677562774510989 9.4193720414832569 0 0 0 0 -0.27183415966949498 0.16715496971957222 0 0.16715496971957222 -0.21602235041806672 0 0 0 0 111.73711377001536 -98.130733125539791 0 -98.130733125539791 -104.18253433186328 0 0 0 0 4.8197125909583178 5.5893596426144541 0 5.5893596426144541 -2.3519348697500106 0 0 0 0 2.8401666989840542 0.11037677436943483 0 0.11037677436943483 -1.7615018742393262 0 0 0 0 11.330102879780526 1.1634859753403362 0 1.1634859753403362 -47.111719484425521 0 0 0 0 14.411993124697119 18.086156674133463 0 18.086156674133463 -14.032250901380394 0 0 0 0 2.3470457752244616 2.0043880621615529 0 2.0043880621615529 -10.812267885642449 0 0 0 0 3.3920390442326607 12.363406660423607 0 12.363406660423607 -1.0302356467163918 0 0 0 0 -5.2893838931704806 -6.9255026405539866 0 -6.9255026405539866 -37.625371933427232 0 0 0 0 3.172232327441634 4.5437280803562317 0 4.5437280803562317 -21.655755613853671 0 0 0 0 8.0632944563060391 16.555458192997321 0 16.555458192997321 -18.476466109056673 0 0 0 0 2.2250497510980267 6.6501957840682735 0 6.6501957840682735 -13.774710388708627 0 0 0 0 0.98173376988137306 8.7553419547175508 0 8.7553419547175508 -9.4450098427769262 0 0 0 0 7.624987574616398 8.0534391211185721 0 8.0534391211185721 -9.4063248173442844 0 0 0 0 16.016851887407569 8.777910875253383 0 8.777910875253383 -12.473804381203081 0 0 0 0 -1.7103666238041457 0.0032562750682618713 0 0.0032562750682618713 -2.4119284934064176 0 0 0 0 -3.1449827927278875 -12.060753915286114 0 -12.060753915286114 -16.626528411151867 0 0 0 0 0.28921701269371169 -3.0981446067326033 0 -3.0981446067326033 -15.267783722311378 0 0 0 0 2.2586802005761992 1.7738632705844557 0 1.7738632705844557 -12.454279537299547 0 0 0 0 6.8116564021645729 -5.7727736908632323 0 -5.7727736908632323 -9.0922320696645329 0 0 0 0 17.3842173767178 9.4479950440877474 0 9.4479950440877474 -15.102907373664493 0 0 0 0 -0.62467453425824715 1.722791716330903 0 1.722791716330903 -14.905505198152241 0 0 0 0 -1.2363220071449064 5.4199877683849991 0 5.4199877683849991 -15.417367781086796 0 0 0 0 -12.129151745864192 -9.0826396475176807 0 -9.0826396475176807 -15.788376086843044 0 0 0 0 -3.4659250798346193 -8.205892411970126 0 -8.205892411970126 -15.669069664963843 0 0 0 0 -17.772170938087299 -0.13617907543084584 0 -0.13617907543084584 -14.496324156831179 0 0 0 0 -2.2126442516847646 7.1710132964544755 0 7.1710132964544755 -8.8157548323624724 0 0 0 0 9.1163553552780172 -3.006625826723095 0 -3.006625826723095 -20.330407949479195 0 0 0 0 -1.9180697910460367 -1.012806347633159 0 -1.012806347633159 -19.245129640899904 0 0 0 0 4.4148023924069548 -6.3549404666773626 0 -6.3549404666773626 -24.863060028241307 0 0 0 0 -5.0006232127185797 6.120200535709273 0 6.120200535709273 -35.625170204208189 0 0 0 0 -36.96137558489491 1.2682581115923313 0 1.2682581115923313 -14.589960630515634 0 0 0 0 0.66238278415585228 -9.6082974980727158 0 -9.6082974980727158 -37.962813000002939 0 0 0 0 -4.0882111707815625 -19.616334498490687 0 -19.616334498490687 -25.012644195961911 0 0 0 0 -11.338209883933601 -17.761934044384816 0 -17.761934044384816 -5.2686156959480286 0 0 0 0 -1.3268156582105632 -0.031816599782359845 0 -0.031816599782359845 1.40574073173957 0 0 0 0 -5.6711876625969637 -9.62158524835354 0 -9.62158524835354 -6.5371621468057128 0 0 0 0 -6.0219631164293332 -9.33830462502101 0 -9.33830462502101 -10.874662301032913 0 0 0 0 -5.0348266265393704 -9.1982213420769767 0 -9.1982213420769767 -9.1163255542592196 0 0 0 0 -5.9623321103919125 -10.109232434826026 0 -10.109232434826026 -8.9093639052807703 0 0 0 0 -5.9905057610569656 -12.218028519730979 0 -12.218028519730979 -7.8754867571019531 0 0 0 0 -5.7213759194341094 -12.828929121002716 0 -12.828929121002716 -13.049241036518652 0 0 0 0 -1.8048042719863133 -10.281563667420414 0 -10.281563667420414 -18.206946445260201 0 0 0 0 0.37239802097829511 -10.093969638302838 0 -10.093969638302838 -18.412511840626394 0 0 0 0 3.979967456377949 -2.1724551999174082 0 -2.1724551999174082 -15.310027185121726 0 0 0 0 2.2773014231413526 -4.0804365029225664 0 -4.0804365029225664 -17.399798792912406 0 0 0 0 -0.70872130938528244 -3.4482721186013805 0 -3.4482721186013805 -13.807417440306381 0 0 0 0 -1.8014094968666541 -6.1365663307624345 0 -6.1365663307624345 -16.867697422493848 0 0 0 0 -1.4614894952722608 -7.3599031704476943 0 -7.3599031704476943 -14.711923348902928 0 0 0 0 1.8721706510497111 2.1228649277451543 0 2.1228649277451543 -11.806101670514545 0 0 0 0 22.97908367927505 -4.3106042150395751 0 -4.3106042150395751 -32.655525252869666 0 0 0 0 -1.0264833707822163 -3.696212065524378 0 -3.696212065524378 -13.876466988100219 0 0 0 0 -0.60752761769549579 -3.2680637573552076 0 -3.2680637573552076 -14.755290567120028 0 0 0 0 -47.661186951739836 97.166050791071712 0 97.166050791071712 -14.468363473021668 0 0 0 0 -4.3050005703864827 -3.7413302004324578 0 -3.7413302004324578 -13.741236386655601 0 0 0 0 -4.6861007082406445 -1.7720783089009728 0 -1.7720783089009728 -12.877624168734656 0 0 0 0 -6.0471959691396933 -3.355642027758222 0 -3.355642027758222 -12.888551067719163 0 0 0 0 -3.4205385498930809 -6.9123732669013407 0 -6.9123732669013407 -13.715813513862486 0 0 0 0 -6.4929546222404042 -7.2496795367342202 0 -7.2496795367342202 -12.665448435682265 0 0 0 0 -5.5617257629336905 -8.8579152634365528 0 -8.8579152634365528 -10.924697980546625 0 0 0 0 -7.5472345767890374 -6.9158152429495203 0 -6.9158152429495203 -11.422768654290849 0 0 0 0 -7.8735986216565834 -6.9827614782238925 0 -6.9827614782238925 -10.338445576175218 0 0 0 0 -8.3454029402682863 -6.4926000081704842 0 -6.4926000081704842 -11.03839496231285 0 0 0 0 -11.772871370882513 -8.0107671963633038 0 -8.0107671963633038 -13.894852773702951 0 0 0 0 -12.560447709599885 -2.8429708046651285 0 -2.8429708046651285 -11.829104611668299 0 0 0 0 -9.312601311552271 -5.4942466452303051 0 -5.4942466452303051 -11.372757206370068 0 0 0 0 -8.0443604756211471 -7.6687472424412135 0 -7.6687472424412135 -10.550960197595487 0 0 0 0 -5.4390380198859702 -2.1165701003615141 0 -2.1165701003615141 -12.583659754618566 0 0 0 0 -7.206506500657099 -3.4427999944975909 0 -3.4427999944975909 -11.642102743246141 0 0 0 0 -10.463461506971726 -3.9163628282476566 0 -3.9163628282476566 -11.444249436454811 0 0 0 0 -7.0646554984371051 0.002053062782579218 0 0.002053062782579218 -12.089798696513753 0 0 0 0 -13.776487742202335 -1.3107657121545344 0 -1.3107657121545344 -11.909848336053415 0 0 0 0 12.555342384644746 5.5559454440435729 0 5.5559454440435729 -37.427751150131371 0 0 0 0 7.6876744572338396 -10.732747540422451 0 -10.732747540422451 -17.530634019258287 0 0 0 0 -12.207021164709431 -4.1196156323921969 0 -4.1196156323921969 -15.265487801847485 0 0 0 0 -22.822547132297132 -3.292877579384367 0 -3.292877579384367 -15.192334531109736 0 0 0 0 -15.281428590410087 52.904207591210252 0 52.904207591210252 -66.091283757305064 0 0 0 0 -20.860859401894459 -12.259504409237707 0 -12.259504409237707 -29.245747354423656 0 0 0 0 -29.681712847179824 -8.5991792375825753 0 -8.5991792375825753 -19.264659216378277 0 0 0 0 -13.212484535003853 -10.462795429634753 0 -10.462795429634753 12.692340512699047 0 0 0 0 -7.169582467982309 -4.4902595605508395 0 -4.4902595605508395 -18.074629720030316 0 0 0 0 -6.9993312356935746 -3.4177257653707329 0 -3.4177257653707329 -12.195309421722413 0 0 0 0 -11.721200169443108 -7.4905762374322649 0 -7.4905762374322649 -19.931999900236406 0 0 0 0 -11.349500521350365 -5.7958130655515561 0 -5.7958130655515561 -25.036301018073573 0 0 0 0 -9.4882018080029411 -4.1011379147985281 0 -4.1011379147985281 -36.199998519790825 0 0 0 0 -6.6675264005046984 2.2327982363112824 0 2.2327982363112824 -23.439136484279516 0 0 0 0 -5.0306542343100773 0.13057584974785641 0 0.13057584974785641 -20.798563333593847 0 0 0 0 -3.8600515188393274 3.135875734246838 0 3.135875734246838 -13.202931197982707 0 0 0 0 -3.4572119000469002 -3.7712962735458859 0 -3.7712962735458859 -15.041220421780736 0 0 0 0 -3.0891159792295184 -1.8426784815410429 0 -1.8426784815410429 -6.5305765086222891 0 0 0 0 2.5201120409323838 -4.0693070557727111 0 -4.0693070557727111 -0.91815588790177571 0 0 0 0 2.2528226379063057 0.30650468745761827 0 0.30650468745761827 -5.9997539883861464 0 0 0 0 0.54878849100430216 3.1134350975471534 0 3.1134350975471534 -9.7782087311666146 0 0 0 0 2.3945266225406954 -1.9820420302498292 0 -1.9820420302498292 -8.1929023166067054 0 0 0 0 -6.30013813071821 -6.2299887741291968 0 -6.2299887741291968 -3.4248541816114084 0 0 0 0 -5.9442401570569245 -7.8009994142648793 0 -7.8009994142648793 -11.247633040307846 0 0 0 0 -5.2164312830589097 -6.3930625965731451 0 -6.3930625965731451 -8.6197189863851804 0 0 0 0 -2.1490999788873637 -1.7986392691350375 0 -1.7986392691350375 1.1061772424481546 0 0 0 0 12.838754783449673 -7.5323399761782639 0 -7.5323399761782639 -11.47951060352716 0 0 0 0 12.211663906968269 -6.8104904298342603 0 -6.8104904298342603 1.9501295653826674 0 0 0 0 8.1285791842768731 -5.9866265233067679 0 -5.9866265233067679 8.0084208051475798 0 0 0 0 26.274746272639959 -23.410949029961102 0 -23.410949029961102 7.7357520759082945 0 0 0 0 0.57745503670671638 5.9230327685488646 0 5.9230327685488646 -16.21587765091499 0 0 0 0 -0.15047682600663459 -0.42792130068129985 0 -0.42792130068129985 -0.63192657462830937 0 0 0 0 26.801256974428654 -17.372459649744314 0 -17.372459649744314 3.1405039055371162 0 0 0 0 6.4405648288246766 -10.309786276033719 0 -10.309786276033719 4.833013463886914 0 0 0 0 1.6815752340673971 3.1517192321384755 0 3.1517192321384755 -6.2047637704599765 0 0 0 0 -3.9292992592157674 5.7412782921728649 0 5.7412782921728649 -16.169887986859067 0 0 0 0 -3.3511962661735324 2.2192498099031468 0 2.2192498099031468 -3.15032298521146 0 0 0 0 4.9116845251617249 -0.58724633365659429 0 -0.58724633365659429 -22.189225981224808 0 0 0 0 5.0626030463131215 -1.9341186472597656 0 -1.9341186472597656 -19.65766870492098 0 0 0 0 8.6133539726211268 -0.99750926857359445 0 -0.99750926857359445 -23.683382923379213 0 0 0 0 9.8435212039429274 -12.251922487269894 0 -12.251922487269894 -2.9780740893070288 0 0 0 0 2.2620888766412151 7.1712245590815655 0 7.1712245590815655 6.4341161180647077 0 0 0 0 1.7216676307656833 0.54300332510566296 0 0.54300332510566296 -10.988388762098655 0 0 0 0 -2.0871773349420142 -5.1904565299589667 0 -5.1904565299589667 -9.4207523754956437 0 0 0 0 -2.4475025589031105 -18.714322533131963 0 -18.714322533131963 3.4728843833308929 0 0 0 0 -9.4254742774447777 -15.79207830915982 0 -15.79207830915982 -7.1503994967824838 0 0 0 0 -13.697651036443602 -3.4383744947422201 0 -3.4383744947422201 -1.0490974383362754 0 0 0 0 5.1647083377267116 -5.5846601713024029 0 -5.5846601713024029 -1.6214166088493585 0 0 0 0 -0.39339151855653298 -1.4602509375942065 0 -1.4602509375942065 -1.3893003018722467 0 0 0 0 19.013405247932951 -7.3218357169889714 0 -7.3218357169889714 -14.522061780040985 0 0 0 0 26.148572639094226 28.745135180117813 0 28.745135180117813 -15.996768647346073 0 0 0 0 -0.25300673488896702 0.11480324095977101 0 0.11480324095977101 0.23739335517062266 0 0 0 0 23.106453079920172 -1.6471401016710843 0 -1.6471401016710843 -7.0798565848563157 0 0 0 0 0.46876494106881744 -0.050256501837602663 0 -0.050256501837602663 -2.3783578962076835 0 0 0 0 20.297519050619858 -5.7471880043109707 0 -5.7471880043109707 -10.758851428978232 0 0 0 0 21.161983418677863 -10.218593523705522 0 -10.218593523705522 -6.6399303580328706 0 0 0 0 9.4257797884799857 -3.2000025840607123 0 -3.2000025840607123 -8.6436429216253146 0 0 0 0 12.141511904507965 -1.5752652563752463 0 -1.5752652563752463 -34.25550305327215 0 0 0 0 -0.87168985763219098 3.0907871315712327 0 3.0907871315712327 -29.302949196533518 0 0 0 0 4.4811628717722272 4.1318377839140794 0 4.1318377839140794 -67.659293120157599 0 0 0 0 5.152639258878537 -1.5318299978885079 0 -1.5318299978885079 -42.648961457577968 0 0 0 0 -4.2182106016757075 -6.0321308867219159 0 -6.0321308867219159 -11.102955453252434 0 0 0 0 0.40664680548848819 -0.91454370985618283 0 -0.91454370985618283 -1.4783078584400862 0 0 0 0 1.5441353659900585 34.670323608994295 0 34.670323608994295 -88.217555425754995 0 0 0 0 46.906595229058901 -31.022262018134313 0 -31.022262018134313 -187.46911767826941 0 0 0 0 -14.569284421733954 13.923946457288139 0 13.923946457288139 -79.662921282027128 0 0 0 0 -2.2161590356540728 35.230681759683193 0 35.230681759683193 -67.310066964041937 0 0 0 0 -2.5133600324857071 26.794357025626141 0 26.794357025626141 -65.949035130257073 0 0 0 0 7.3794109448943033 15.172974971286749 0 15.172974971286749 -68.952076606914488 0 0 0 0 15.060791020808033 9.0162333115140427 0 9.0162333115140427 -48.964328659589228 0 0 0 0 10.229334312635814 23.057582678213294 0 23.057582678213294 -55.282803569371936 0 0 0 0 7.4753856222578925 23.124186431539442 0 23.124186431539442 -70.11571347600011 0 0 0 0 30.98866129187882 7.2486457837535454 0 7.2486457837535454 -198.87872231746087 0 0 0 0 29.837998457032327 -14.33068588474066 0 -14.33068588474066 -51.606841903391114 0 0 0 0 12.00364323563366 31.483642889106704 0 31.483642889106704 -61.795066218304783 0 0 0 0 -0.89401639905780428 21.932433044415802 0 21.932433044415802 -58.309415866782729 0 0 0 0 -4.114131299913435 -0.33283827265836408 0 -0.33283827265836408 -52.399422450342172 0 0 0 0 3.4485929473842667 15.302878189522858 0 15.302878189522858 -48.345938032655795 0 0 0 0 -21.653376102818129 22.929621875305656 0 22.929621875305656 -41.231231971326451 0 0 0 0 -6.5563144298648108 -6.4738120589196342 0 -6.4738120589196342 -13.559080039141918 0 0 0 0 -1.746050040643695 8.3816378559358782 0 8.3816378559358782 -10.192414637744832 0 0 0 0 -5.5486443543553037 3.6138313362866938 0 3.6138313362866938 -37.965526755443989 0 0 0 0 -24.287939661627178 -5.8991801676488933 0 -5.8991801676488933 -18.833561575801468 0 0 0 0 -50.411242531303536 70.724817393519061 0 70.724817393519061 -79.95795431853162 0 0 0 0 -65.223334710862247 11.805369448298109 0 11.805369448298109 -21.800009290909657 0 0 0 0 12.470484672079065 143.69026975449958 0 143.69026975449958 -307.21924535889138 0 0 0 0 19.452143910053803 148.01966868350769 0 148.01966868350769 -389.34492537329061 0 0 0 0 26.546794154932652 87.461723964021644 0 87.461723964021644 -392.30230432597909 0 0 0 0 40.329600939679516 94.270884410417295 0 94.270884410417295 -499.89239089966941 0 0 0 0 19.628553907810758 92.130355227002383 0 92.130355227002383 -348.7736265856347 0 0 0 0 4.0013777419908365 120.41634295823451 0 120.41634295823451 -449.20808048519348 0 0 0 0 0.29622213635753181 -0.38192797013206548 0 -0.38192797013206548 -1.0006887196413876 0 0 0 0 68.567214367150001 44.574702309334725 0 44.574702309334725 -422.35574881538287 0 0 0 0 83.974286058858667 42.870162133590156 0 42.870162133590156 -499.93874484671073 0 0 0 0 21.33685258834349 60.428729349402829 0 60.428729349402829 -245.47990552369401 0 0 0 0 2.2908428652605153 0.88029080035130391 0 0.88029080035130391 2.109110407213393 0 0 0 0 0.2869887056549274 -1.4000399499737348 0 -1.4000399499737348 -5.0324153147921464 0 0 0 0 -5.8619141836037443 4.3980417817592752 0 4.3980417817592752 -5.7321044580075977 0 0 0 0 -5.761076391181895 5.3498193506324014 0 5.3498193506324014 -5.568387338786124 0 0 0 0 -0.94533044260236743 -0.68673457055186127 0 -0.68673457055186127 -0.37155114747899987 0 0 0 0 -1.3228221001015754 2.1680057396497432 0 2.1680057396497432 -5.7744369471836308 0 0 0 0 1.7936985914373338 4.08428502084098 0 4.08428502084098 -7.2091555582919682 0 0 0 0 -0.47556598529183702 3.022924366647203 0 3.022924366647203 -6.4344561468901702 0 0 0 0 5.1582317127845272 4.141194443900531 0 4.141194443900531 -7.4847950824741929 0 0 0 0 -3.7748594819797745 6.5740403188110577 0 6.5740403188110577 -9.6442692657728912 0 0 0 0 -2.2339301215264413 1.0652587558224695 0 1.0652587558224695 -10.646848554846656 0 0 0 0 -0.29183072004649091 3.7424694336012863 0 3.7424694336012863 -7.3941198145785165 0 0 0 0 -6.655228348066089 6.1930934581505426 0 6.1930934581505426 -5.4672119869846938 0 0 0 0 3.1273507686852327 -18.319534092104277 0 -18.319534092104277 -12.346059960686034 0 0 0 0 -8.2878727795261966 10.836332772944843 0 10.836332772944843 -15.222693410845295 0 0 0 0 5.7439713001472228 -12.404993591975654 0 -12.404993591975654 14.405787692494414 0 0 0 0 -1.3094180045287531 -3.7722208665029271 0 -3.7722208665029271 -6.7883701781599832 0 0 0 0 -8.5031445076838281 8.6165820000442181 0 8.6165820000442181 -28.185163525725784 0 0 0 0 -0.49197821374902251 -0.23561408801201722 0 -0.23561408801201722 0.017024079529200264 0 0 0 0 -36.166353905517212 -13.402031652861751 0 -13.402031652861751 30.986671333313552 0 0 0 0 12.692181343521554 -19.609819104389885 0 -19.609819104389885 -18.566802007537262 0 0 0 0 -7.587854748574614 -13.975488383219272 0 -13.975488383219272 -21.707290584439761 0 0 0 0 21.636318359919642 6.8038443563114015 0 6.8038443563114015 -7.3960645754737016 0 0 0 0 -13.131330446958941 -9.8103773157899923 0 -9.8103773157899923 -20.613947935126816 0 0 0 0 13.727249956384213 -4.5246007263453976 0 -4.5246007263453976 -23.285995768350404 0 0 0 0 -22.18865023327885 -10.679522885064216 0 -10.679522885064216 -32.513511744400603 0 0 0 0 5.7151915762357817 11.175960965775175 0 11.175960965775175 -20.66349744479794 0 0 0 0 6.0244693562423208 -12.504785435454323 0 -12.504785435454323 -25.166984685030911 0 0 0 0 1.5810851850367271 10.982851083695778 0 10.982851083695778 -14.512458242090815 0 0 0 0 -1.204352197662331 8.516165283043847 0 8.516165283043847 -4.7877259705493316 0 0 0 0 5.8282419887402739 -13.076547759078494 0 -13.076547759078494 -8.9817267481012095 0 0 0 0 2.6588728929834815 -4.2275705368083436 0 -4.2275705368083436 -2.366257172546284 0 0 0 0 0.16677580998049879 0.98208417661019265 0 0.98208417661019265 -0.87410335956369956 0 0 0 0 -1.0551955488552376 0.33843874144131902 0 0.33843874144131902 -0.76541862329311261 0 0 0 0 -26.689998267742034 -5.2959430598805284 0 -5.2959430598805284 -5.0448407086323641 0 0 0 0 -131.04929924536748 160.63451227544329 0 160.63451227544329 -107.37946654153029 0 0 0 0 -79.17309227295182 189.28448587259527 0 189.28448587259527 -442.1720852577057 0 0 0 0 -66.4469168561359 189.89323439253258 0 189.89323439253258 -500.03050387491339 0 0 0 0 -95.614904098673762 220.15999237651317 0 220.15999237651317 -499.5267502162983 0 0 0 0 -0.099099481790956345 0.15057116760924849 0 0.15057116760924849 -2.1667760053974874 0 0 0 0 27.271584458467 -15.194877386576991 0 -15.194877386576991 -24.775326130848043 0 0 0 0 27.267461393413029 -13.317915926148871 0 -13.317915926148871 -494.33484982330992 0 0 0 0 -30.438988854195419 59.581608762314772 0 59.581608762314772 -64.584554205297536 0 0 0 0 6.2510921712059329 -32.407219821933722 0 -32.407219821933722 20.507726796593488 0 0 0 0 -0.39318900216289876 2.4322839151271296 0 2.4322839151271296 -9.132291041202734 0 0 0 0 -2.3174581811446333 2.9774338903181707 0 2.9774338903181707 -1.0795839292380152 0 0 0 0 -21.052514818120994 15.921438543306067 0 15.921438543306067 16.641043747728872 0 0 0 0 0.59333745337035637 -3.6498509701148123 0 -3.6498509701148123 -3.8850926046761742 0 0 0 0 -0.052946715969975987 0.76065676031637608 0 0.76065676031637608 -1.0651851379084931 0 0 0 0 -1.2958178061244325 3.2683443846644877 0 3.2683443846644877 -5.5637593322218208 0 0 0 0 0.043511661629310083 -0.38835573139544977 0 -0.38835573139544977 -4.3998931511523551 0 0 0 0 -1.161118158962378 -0.87011726171886927 0 -0.87011726171886927 -1.3590561322073249 0 0 0 0 -4.0611762836724949 0.66367730034835404 0 0.66367730034835404 -4.4658247970808134 0 0 0 0 -0.13540279118231524 -1.1168568277371378 0 -1.1168568277371378 -5.5547424316337128 0 0 0 0 -0.036975750200135826 0.57378170532648021 0 0.57378170532648021 -3.0786886924995178 0 0 0 0 -0.053130941279162958 -0.80733658129259034 0 -0.80733658129259034 -4.0169253378676117 0 0 0 0 0.31973623766684556 -0.80900336516253191 0 -0.80900336516253191 -4.5361986531081904 0 0 0 0 -2.6997588248216964 -1.0393858005565093 0 -1.0393858005565093 -3.109619698890981 0 0 0 0 -0.26306339665461564 -1.6123141081970971 0 -1.6123141081970971 -3.7201348113485437 0 0 0 0 -122.66615094707242 -261.81204160804509 0 -261.81204160804509 -567.76481695119401 0 0 0 0 -0.50451215581648523 -0.042859917379933776 0 -0.042859917379933776 -2.0518691859048417 0 0 0 0 -19.010654088538558 -1.7345092727186966 0 -1.7345092727186966 -3.9912515847577197 0 0 0 0 -207.20313562527326 -336.53103123072924 0 -336.53103123072924 -493.01293598757002 0 0 0 0 -239.93056443509568 -307.87060727222888 0 -307.87060727222888 -499.6529253826086 0 0 0 0 -276.61495062309496 -322.84926276761689 0 -322.84926276761689 -494.36806632677781 0 0 0 0 -0.43900266616400258 0.15828277147519287 0 0.15828277147519287 -0.91582286824397841 0 0 0 0 -329.54048135288696 -296.56017435603417 0 -296.56017435603417 -478.94412542243344 0 0 0 0 -287.22641158009378 -304.20632409178791 0 -304.20632409178791 -499.93320253987804 0 0 0 0 -3.4313715914535741 -0.33782225667039611 0 -0.33782225667039611 -1.2716416918447933 0 0 0 0 -15.144452862241906 4.3788993549633233 0 4.3788993549633233 -17.117885836093592 0 0 0 0 -275.34192730189881 -332.58058595398597 0 -332.58058595398597 -473.99579097711103 0 0 0 0 -17.689340708374857 7.0053886370101281 0 7.0053886370101281 -5.7356863541790517 0 0 0 0 3.1361873291361411 -0.9930838279109846 0 -0.9930838279109846 -6.7975991045996338 0 0 0 0 2.3322635601615787 2.2481735998912882 0 2.2481735998912882 -6.5291219798527891 0 0 0 0 4.8812483529394228 1.7401318182955947 0 1.7401318182955947 -6.8331257308454951 0 0 0 0 3.8360036014158538 1.0085484348048794 0 1.0085484348048794 -6.3968640993407462 0 0 0 0 3.5034022849280051 0.63008399278541738 0 0.63008399278541738 -8.3944276819319086 0 0 0 0 -1.4246964384456078 -4.7894557657346013 0 -4.7894557657346013 -18.545727056494798 0 0 0 0 -355.59682221508717 -77.466246181491442 0 -77.466246181491442 3.7486967507957161 0 0 0 0 -6.0874721887157648 -0.58760687657377275 0 -0.58760687657377275 -21.948101604837575 0 0 0 0 -292.17972837010575 -80.963853020612078 0 -80.963853020612078 15.047443673149246 0 0 0 0 -78.021054921082396 -5.4252406446148598 0 -5.4252406446148598 -41.513342392748655 0 0 0 0 2.0071322868265842 0.48155618633234454 0 0.48155618633234454 -8.5711953771514011 0 0 0 0 1.408359703745891 2.2590281856660308 0 2.2590281856660308 -1.037196342310537 0 0 0 0 -22.295703836170958 -49.693090102724 0 -49.693090102724 -29.853530579832295 0 0 0 0 0.525537073932549 0.23861908626075756 0 0.23861908626075756 -2.31877808003415 0 0 0 0 6.5461743827358987 -0.16592035381654568 0 -0.16592035381654568 -6.9443125897620916 0 0 0 0 11.843999630596628 1.6825097851792634 0 1.6825097851792634 -7.5838151292200564 0 0 0 0 -87.318642925960333 -205.19841445449083 0 -205.19841445449083 -200.3781467041581 0 0 0 0 -145.16950884848984 -155.00681095637174 0 -155.00681095637174 -100.13437718869591 0 0 0 0 -81.78045419568673 -153.07370788374919 0 -153.07370788374919 -114.79183415135913 0 0 0 0 -189.53720758367393 -235.21384115905607 0 -235.21384115905607 -149.93178413706119 0 0 0 0 -153.64865053825332 -204.77298124867957 0 -204.77298124867957 -177.69908820160845 0 0 0 0 -132.41135481427176 -272.49608455112946 0 -272.49608455112946 -287.09067079996021 0 0 0 0 -61.122608553031959 -167.01020586595587 0 -167.01020586595587 -341.25549737361052 0 0 0 0 -156.09895290974811 -149.27598691400181 0 -149.27598691400181 -436.35954237026874 0 0 0 0 -261.88302113387959 -403.46992269129396 0 -403.46992269129396 -417.00469531907584 0 0 0 0 -22.409976893523272 -202.0976783264141 0 -202.0976783264141 -499.91403477606036 0 0 0 0 -140.59851615925038 -226.49615852901945 0 -226.49615852901945 -384.9770283859616 0 0 0 0 52.163704694566604 -107.75058058874765 0 -107.75058058874765 -382.53493368226464 0 0 0 0 104.00875354069298 -111.65772392412146 0 -111.65772392412146 -500.11453743639777 0 0 0 0 66.59094468784474 -161.95428363401788 0 -161.95428363401788 -271.5208689548349 0 0 0 0 21.099684548216331 -115.6572966387821 0 -115.6572966387821 -251.1610831700973 0 0 0 0 -33.559272436891675 -198.00008810200052 0 -198.00008810200052 -349.87980067891658 0 0 0 0 110.35409301811063 93.489319385226281 0 93.489319385226281 -498.88869097551196 0 0 0 0 127.40342157761543 -39.045420453196044 0 -39.045420453196044 -196.95681305962535 0 0 0 0 129.40828370254948 -19.105836400587577 0 -19.105836400587577 -345.8009646726041 0 0 0 0 20.405487886030699 2.6256332534767353 0 2.6256332534767353 -189.21221421638984 0 0 0 0 1.4767470434538619 -2.3875060554792853 0 -2.3875060554792853 1.0208423406719422 0 0 0 0 -20.129238837553039 -40.72269604736357 0 -40.72269604736357 18.808830212507019 0 0 0 0 -8.5807669544008114 -23.037285284351128 0 -23.037285284351128 36.462482705320326 0 0 0 0 -5.7552749373556935 -209.96352880910945 0 -209.96352880910945 -467.10811536525944 0 0 0 0 0.59508510790547509 -0.77109982447650793 0 -0.77109982447650793 0.076054803896816736 0 0 0 0 23.182106878480297 -82.853490275366312 0 -82.853490275366312 140.88223434265637 0 0 0 0 -69.226849613917352 -132.01848632897804 0 -132.01848632897804 -327.26042306056479 0 0 0 0 -51.963911780207354 -137.42966405932384 0 -137.42966405932384 -333.30026774726684 0 0 0 0 -66.368774071033414 -183.04802618744574 0 -183.04802618744574 -384.89406785434039 0 0 0 0 -86.296868562152653 -201.52593668399095 0 -201.52593668399095 -201.55504104131251 0 0 0 0 -69.057595387979546 -230.06789643689171 0 -230.06789643689171 -189.73104991550917 0 0 0 0 -0.27923610963278866 -246.01031171220336 0 -246.01031171220336 -246.78429923093063 0 0 0 0 -50.657694702135785 -169.36852695833932 0 -169.36852695833932 -283.47574886799748 0 0 0 0 -53.629259600083522 -174.80210958284351 0 -174.80210958284351 -175.1530626008589 0 0 0 0 -49.454204522965838 -113.62665881809153 0 -113.62665881809153 -213.02236280695797 0 0 0 0 -72.14281924520651 -120.58777510274376 0 -120.58777510274376 -201.20079981011668 0 0 0 0 -43.414082656070946 -140.94626455368962 0 -140.94626455368962 -246.63844187933137 0 0 0 0 -39.608549172113712 -127.69735481699058 0 -127.69735481699058 -253.63785375436964 0 0 0 0 -31.15195575660799 -124.76830452250215 0 -124.76830452250215 -218.83910358127559 0 0 0 0 -63.529557557515396 -113.9936853111808 0 -113.9936853111808 -120.80424415886228 0 0 0 0 -46.36474492323444 -109.92411716824427 0 -109.92411716824427 -225.79795653618203 0 0 0 0 -70.298234990180404 -139.31442045159201 0 -139.31442045159201 -211.80817293683563 0 0 0 0 0.23128750335148995 -0.072284963133206759 0 -0.072284963133206759 -1.1442555682144402 0 0 0 0 -60.039303196113792 -152.21924797702468 0 -152.21924797702468 -312.87279980479798 0 0 0 0 -56.361626886253703 -118.61328744282582 0 -118.61328744282582 -262.40659049160604 0 0 0 0 -58.748706548265574 -118.5330258838793 0 -118.5330258838793 -266.80506858923764 0 0 0 0 -39.865663102482387 -150.17803788704714 0 -150.17803788704714 -317.96573870233897 0 0 0 0 -51.896268960270049 -96.205549905053886 0 -96.205549905053886 -213.23039408928526 0 0 0 0 -41.465152336457663 -128.56576400400718 0 -128.56576400400718 -261.57979061970127 0 0 0 0 -48.18894463319981 -120.66274752264053 0 -120.66274752264053 -261.93182033785615 0 0 0 0 -55.3343292729528 -104.48168643516124 0 -104.48168643516124 -225.11703424820371 0 0 0 0 -41.915013422420657 -102.13718279581553 0 -102.13718279581553 -190.0453375676243 0 0 0 0 -34.181332929828656 -90.920137274119725 0 -90.920137274119725 -208.53819046943681 0 0 0 0 -31.095790134309766 -95.991029695058387 0 -95.991029695058387 -227.48626551058987 0 0 0 0 -56.910228666217733 -97.156291299750592 0 -97.156291299750592 -210.97889051450784 0 0 0 0 -22.818593519934439 -66.929376839460019 0 -66.929376839460019 -187.23443811242032 0 0 0 0 -56.663914507016628 -85.987611008459837 0 -85.987611008459837 -140.90120118391496 0 0 0 0 -18.524993008918216 -90.270979831874683 0 -90.270979831874683 -153.99110590859709 0 0 0 0 -34.408475667883323 7.0800375147209706 0 7.0800375147209706 19.474612985781278 0 0 0 0 -0.21275009467896322 0.62609191991470681 0 0.62609191991470681 -1.4568291459681095 0 0 0 0 -48.075860744614701 -45.386283110717841 0 -45.386283110717841 -29.179595077854174 0 0 0 0 -0.28057919031520673 -0.47152907432209634 0 -0.47152907432209634 -0.22933303691916507 0 0 0 0 51.524442653314566 6.3604421299405658 0 6.3604421299405658 -62.4249729828407 0 0 0 0 -55.040807162059508 -65.215478089980934 0 -65.215478089980934 -102.10149640023155 0 0 0 0 -27.404777056724228 -74.465792444232193 0 -74.465792444232193 -146.22800471207302 0 0 0 0 -41.145176745797016 -68.052926399665012 0 -68.052926399665012 -148.89766381278969 0 0 0 0 -35.171250417504879 -77.726357512043251 0 -77.726357512043251 -164.15637035618784 0 0 0 0 -36.853705389748711 -19.788948659749622 0 -19.788948659749622 -30.728681989886354 0 0 0 0 11.19780522309005 15.564822214372725 0 15.564822214372725 -91.38840123594855 0 0 0 0 7.3530934899508331 -14.716246770542057 0 -14.716246770542057 -98.780007529327122 0 0 0 0 0.17569575350777808 0.50085899652527388 0 0.50085899652527388 -1.741754276617371 0 0 0 0 -0.20348699125261566 0.20583956293432593 0 0.20583956293432593 -0.76436835911966483 0 0 0 0 1.1915332109164594 1.2189001128724968 0 1.2189001128724968 -2.8617427593826505 0 0 0 0 -1.8095276983755753 2.978219366799749 0 2.978219366799749 -1.3407750373917224 0 0 0 0 32.047454076073564 24.068795181676251 0 24.068795181676251 0.66835041290687514 0 0 0 0 0.048250421917069519 0.66621769214418691 0 0.66621769214418691 -1.6093145307254133 0 0 0 0 -17.307645180783982 -16.137982178809807 0 -16.137982178809807 -5.0706186801435251 0 0 0 0 -4.5787287311692353 -2.439303303930501 0 -2.439303303930501 -11.760802902647697 0 0 0 0 -14.372897444808132 -2.5509846600143646 0 -2.5509846600143646 3.2379161539865891 0 0 0 0 -0.088281752919671774 -0.50327979363967046 0 -0.50327979363967046 -1.4054515263433704 0 0 0 0 19.397492860508805 19.101920274984877 0 19.101920274984877 8.9126090207263076 0 0 0 0 7.2512687484021683 9.070178225899781 0 9.070178225899781 -3.178441431256033 0 0 0 0 2.1801846332182446 1.5588805934060765 0 1.5588805934060765 -9.2505977714860705 0 0 0 0 7.2997580365893384 -5.0541387408347873 0 -5.0541387408347873 -45.758530400493328 0 0 0 0 0.13606330818304038 0.16437274436031402 0 0.16437274436031402 -0.66730810526981799 0 0 0 0 -39.293213673969568 -40.760861042573424 0 -40.760861042573424 16.850609193163109 0 0 0 0 15.044815437227687 38.060243413127864 0 38.060243413127864 8.9491089549492244 0 0 0 0 9.3422514504630456 10.367896466465027 0 10.367896466465027 23.844217153277896 0 0 0 0 36.859680739110757 7.6005991743904815 0 7.6005991743904815 -2.8564336684212321 0 0 0 0 29.501764956949842 14.890962282943292 0 14.890962282943292 -6.6840268353917054 0 0 0 0 16.370312394244081 9.9025559151759808 0 9.9025559151759808 -1.6214614088003145 0 0 0 0 15.635512212581348 13.724659242194321 0 13.724659242194321 -11.403655135840381 0 0 0 0 -1.7712709358638179 5.1098105919845693 0 5.1098105919845693 0.96560442592272011 0 0 0 0 -0.093364541514577126 -0.19342202994197244 0 -0.19342202994197244 -0.44305122922259343 0 0 0 0 -37.668728655645282 22.113538311941511 0 22.113538311941511 -4.8166705841213115 0 0 0 0 -6.7808896750704051 18.23128961627117 0 18.23128961627117 -33.224411742122157 0 0 0 0 -8.1324591968640689 13.203396874255304 0 13.203396874255304 -5.8285458332456983 0 0 0 0 7.0812732422515623 19.914011794227008 0 19.914011794227008 -8.261433344744546 0 0 0 0 -8.8847079296712437 21.407352463406824 0 21.407352463406824 6.0644575522846935 0 0 0 0 15.834039787585185 26.445996247813525 0 26.445996247813525 -12.496264721930856 0 0 0 0 7.0388557217398642 7.2326689114561304 0 7.2326689114561304 -40.343331629142995 0 0 0 0 -0.2024734579689067 -0.52741835902910283 0 -0.52741835902910283 -1.2259934327131781 0 0 0 0 2.1326246730822049 8.3693523807555721 0 8.3693523807555721 -12.544385083404904 0 0 0 0 15.596789622358607 -3.6062779261083051 0 -3.6062779261083051 -6.6066641500883634 0 0 0 0 5.63027982815737 3.8780124509617053 0 3.8780124509617053 -2.234594259601181 0 0 0 0 2.406894200509905 8.1110681902408714 0 8.1110681902408714 12.945029846362559 0 0 0 0 -15.401967015957197 -24.397600255109865 0 -24.397600255109865 7.2504467991466299 0 0 0 0 -103.90206686773681 -110.57498965856416 0 -110.57498965856416 -68.60416889622411 0 0 0 0 19.026045089437105 -31.116559403443716 0 -31.116559403443716 -127.21298774314437 0 0 0 0 -25.602182951210835 18.92427532371903 0 18.92427532371903 -5.9305477578836872 0 0 0 0 1.8972208848547736 1.6339970686856038 0 1.6339970686856038 -9.4024441559372818 0 0 0 0 25.07298287437132 23.416586361306145 0 23.416586361306145 -78.146775661237371 0 0 0 0 0.047547800411011545 -40.947413568378806 0 -40.947413568378806 -299.04876296280054 0 0 0 0 -24.695442592825131 -49.226359706315606 0 -49.226359706315606 -178.33206963702833 0 0 0 0 0.058805598036247964 -0.060088916692155436 0 -0.060088916692155436 -0.374618407823327 0 0 0 0 -24.585071413871582 -50.541443269232019 0 -50.541443269232019 -267.87548480259466 0 0 0 0 54.227317984573567 -66.601539057130367 0 -66.601539057130367 -499.45463304751775 0 0 0 0 38.143407977938232 -141.34541976165747 0 -141.34541976165747 -310.01751548808591 0 0 0 0 147.67471956785133 -30.791870368626405 0 -30.791870368626405 -274.10727085939106 0 0 0 0 36.836832483841626 -106.47674465562638 0 -106.47674465562638 -213.74364590531877 0 0 0 0 63.038566361818809 -92.762171701843272 0 -92.762171701843272 -292.52018366941775 0 0 0 0 35.158814572273243 -49.995782005286856 0 -49.995782005286856 -322.67105762493577 0 0 0 0 0.0075646688812014418 -58.818014555827176 0 -58.818014555827176 -180.99335973113739 0 0 0 0 2.0900273570985917 -61.395194999191517 0 -61.395194999191517 -195.91705387779984 0 0 0 0 -14.505107289232967 -118.22982558353397 0 -118.22982558353397 -267.11723186923791 0 0 0 0 -51.814780775913235 -87.926016894085478 0 -87.926016894085478 -153.536229476058 0 0 0 0 -2.0313943731931623 -105.65685035863316 0 -105.65685035863316 -270.53112891983415 0 0 0 0 -61.695041855973244 -50.396274991628161 0 -50.396274991628161 -63.643432040633343 0 0 0 0 2.4699500804609658 0.44034851471254299 0 0.44034851471254299 -2.5530822706347109 0 0 0 0 -144.87600688642289 -240.16075847097909 0 -240.16075847097909 -225.16744322601267 0 0 0 0 0.33130478837901695 -0.26990843729345571 0 -0.26990843729345571 -1.2851279313146335 0 0 0 0 -55.266195068710914 -299.2437797896805 0 -299.2437797896805 -499.63327077233498 0 0 0 0 0.35173954316717193 -0.42477405558261694 0 -0.42477405558261694 -1.4658367602274751 0 0 0 0 -46.162813952186482 -224.35833337848453 0 -224.35833337848453 -499.4140997394079 0 0 0 0 62.132023485690524 -36.626014046042656 0 -36.626014046042656 -179.69458700863106 0 0 0 0 -82.036721441374226 -170.57387584220487 0 -170.57387584220487 -148.43651883102575 0 0 0 0 -117.13909620019754 -123.72918345912535 0 -123.72918345912535 -132.73750038271646 0 0 0 0 -194.64815609309409 -166.18056603749392 0 -166.18056603749392 -155.48604471098224 0 0 0 0 -0.20894377295011266 0.042315323912132108 0 0.042315323912132108 -3.6031787249977469 0 0 0 0 -294.63577148613064 -370.5453012753037 0 -370.5453012753037 -498.69394502609379 0 0 0 0 -3.2359488024945193 -51.127619539994157 0 -51.127619539994157 -6.9145095244639379 0 0 0 0 -18.497991343077508 111.95167423449629 0 111.95167423449629 -119.87776740584377 0 0 0 0 5.4596078330094002 -35.673105637050867 0 -35.673105637050867 4.6325222000541544 0 0 0 0 33.821853230436645 -8.5070560346912316 0 -8.5070560346912316 -16.427961067458455 0 0 0 0 -65.882947885904883 -98.874965098459143 0 -98.874965098459143 -161.14252898536461 0 0 0 0 0.99027134638393233 0.79076311961699819 0 0.79076311961699819 -8.9501501452333869 0 0 0 0 1.0972149819484938 -0.72334044964837574 0 -0.72334044964837574 -1.2472486291708975 0 0 0 0 2.3828154661040721 -3.6983187400573598 0 -3.6983187400573598 0.23674568498970494 0 0 0 0 -66.49473576097364 -148.60371756498989 0 -148.60371756498989 -309.80311590634665 0 0 0 0 -63.260642781969636 -151.1877786195937 0 -151.1877786195937 -327.34617791150959 0 0 0 0 -65.283518894319513 -128.56852196947921 0 -128.56852196947921 -282.51637323307659 0 0 0 0 -51.60390505676628 -132.64246641886029 0 -132.64246641886029 -323.06734372437495 0 0 0 0 -90.840752910044216 -169.74796382422755 0 -169.74796382422755 -327.91860578668457 0 0 0 0 63.247286077504214 -6.5939893219606347 0 -6.5939893219606347 -441.10928923370011 0 0 0 0 -103.13423073923161 -218.39288145360206 0 -218.39288145360206 -517.24494808293821 0 0 0 0 -114.56802738287297 -81.348818862212283 0 -81.348818862212283 -342.75524982852039 0 0 0 0 -79.220340803383351 -130.01772204320241 0 -130.01772204320241 -295.66910256810843 0 0 0 0 -66.949825877996204 -104.66415480272553 0 -104.66415480272553 -368.56742137765377 0 0 0 0 -71.763929139084723 -126.36569587764507 0 -126.36569587764507 -263.67604408931584 0 0 0 0 -99.796693704323161 -118.8429018215038 0 -118.8429018215038 -265.09783549637905 0 0 0 0 -87.572883938003827 -111.50253926748064 0 -111.50253926748064 -235.61557427982189 0 0 0 0 -52.758727860384283 -110.93929464825669 0 -110.93929464825669 -281.81344008493437 0 0 0 0 -56.371375294605429 -126.04625624555314 0 -126.04625624555314 -247.08423851336192 0 0 0 0 -51.779123778510325 -97.755301692766807 0 -97.755301692766807 -227.29956744064475 0 0 0 0 -61.229687111717112 -125.56313759340173 0 -125.56313759340173 -228.96907502389513 0 0 0 0 -54.410147723877003 -104.81569721904361 0 -104.81569721904361 -202.74397695419611 0 0 0 0 -31.65578327736705 -49.186790007077434 0 -49.186790007077434 -147.99917767233092 0 0 0 0 -17.344048969545838 -91.953559789424617 0 -91.953559789424617 -240.41724440570124 0 0 0 0 -52.54442213064064 -133.38476963301218 0 -133.38476963301218 -288.1154205881885 0 0 0 0 -79.735634972194362 -113.74800345638397 0 -113.74800345638397 -213.90522630654959 0 0 0 0 -79.006958372644874 -107.96623921228183 0 -107.96623921228183 -206.17976524757887 0 0 0 0 -68.190122029403142 -110.0753691837615 0 -110.0753691837615 -230.39314199971341 0 0 0 0 -67.650034352290277 -108.82510027029548 0 -108.82510027029548 -235.25771262231569 0 0 0 0 -90.015591499131205 -117.50025686097706 0 -117.50025686097706 -173.65240721616192 0 0 0 0 -93.972924735820129 -132.17393351837381 0 -132.17393351837381 -220.33130275773829 0 0 0 0 -48.716926639228575 -91.627510143112886 0 -91.627510143112886 -217.87940106325459 0 0 0 0 -53.704454433182264 -101.07257442114474 0 -101.07257442114474 -195.98345054056699 0 0 0 0 -36.607474942118387 -107.10190151835445 0 -107.10190151835445 -261.16957017076311 0 0 0 0 -40.395302655506157 -98.352312783176785 0 -98.352312783176785 -249.46847981282917 0 0 0 0 -72.60283765121676 -116.49836104049245 0 -116.49836104049245 -236.35977029940955 0 0 0 0 -54.353207954722734 -120.17461202521463 0 -120.17461202521463 -280.48396789205981 0 0 0 0 -42.412578088304144 -119.85915211063821 0 -119.85915211063821 -280.47809094591537 0 0 0 0 -33.914076708240145 -56.350286365330248 0 -56.350286365330248 -256.90235213234155 0 0 0 0 -51.99853857644041 -138.68672812585919 0 -138.68672812585919 -303.51376103631628 0 0 0 0 -114.60198658957789 -146.65011361764576 0 -146.65011361764576 -299.81743652802106 0 0 0 0 -20.391845529357724 -103.67316754329977 0 -103.67316754329977 -300.75455577476532 0 0 0 0 1.2906938089639559 0.61593550154343291 0 0.61593550154343291 -0.89598128256134046 0 0 0 0 -16.679092679011319 -114.14642237057978 0 -114.14642237057978 -317.3453575087533 0 0 0 0 -30.81664495031383 -40.076612557727458 0 -40.076612557727458 -127.8921885063537 0 0 0 0 0.73765149560867604 0.22747821546828817 0 0.22747821546828817 -0.82040000592304629 0 0 0 0 -20.768556705294799 -80.571528733369973 0 -80.571528733369973 -174.40599231580018 0 0 0 0 -13.73671969461617 -56.494933799913269 0 -56.494933799913269 -151.60025991993734 0 0 0 0 -27.93074536973117 -108.39246271638746 0 -108.39246271638746 -296.56202456738174 0 0 0 0 -31.11080133309224 -85.935194803611012 0 -85.935194803611012 -281.50510572823168 0 0 0 0 -31.951283118642834 -81.904432761046337 0 -81.904432761046337 -238.37901955129018 0 0 0 0 -44.087495500416651 -93.276461154371646 0 -93.276461154371646 -194.4054926257586 0 0 0 0 -21.878583946275754 -71.354525716560602 0 -71.354525716560602 -205.76371896255432 0 0 0 0 -25.145330280522217 -76.635555503682554 0 -76.635555503682554 -263.14441485633415 0 0 0 0 -35.307156990492793 -103.54014903954192 0 -103.54014903954192 -231.82625059511884 0 0 0 0 -24.623564531978516 -100.11282806486679 0 -100.11282806486679 -213.22391736993404 0 0 0 0 -0.0902661802988457 -76.331486615889844 0 -76.331486615889844 -242.47748593020606 0 0 0 0 -0.29149444631071442 -32.951278128247395 0 -32.951278128247395 -169.18603449410148 0 0 0 0 0.20337252848254747 -0.062642844773481698 0 -0.062642844773481698 -0.53155720345822743 0 0 0 0 -27.283432899312203 -114.4341143472484 0 -114.4341143472484 -279.94036852277532 0 0 0 0 -8.4555510774899005 -53.361149518722414 0 -53.361149518722414 -175.17059049078216 0 0 0 0 -24.206054130170763 -90.888402651114802 0 -90.888402651114802 -220.67252919994644 0 0 0 0 0.018935982461901868 -0.11891659150185063 0 -0.11891659150185063 -0.45133983234962116 0 0 0 0 -10.615459645958637 -39.306061319028231 0 -39.306061319028231 -98.359739835320852 0 0 0 0 -26.324120415018854 -56.257416295008625 0 -56.257416295008625 -103.21834071060312 0 0 0 0 -0.022970443920537147 -52.175930277667248 0 -52.175930277667248 -131.47679497250465 0 0 0 0 -0.0036714873868481266 -62.962083685592951 0 -62.962083685592951 -177.70687543147869 0 0 0 0 -21.980641201266792 -81.312973710748338 0 -81.312973710748338 -155.38699507057572 0 0 0 0 -35.512072190949574 -62.069900650516729 0 -62.069900650516729 -115.96055901212458 0 0 0 0 -33.589812173322201 -80.231024493572477 0 -80.231024493572477 -157.24530434440703 0 0 0 0 -45.538331742861772 -92.500738183820431 0 -92.500738183820431 -159.57449995188654 0 0 0 0 -50.355600898808525 -79.151687457064099 0 -79.151687457064099 -145.27983581187436 0 0 0 0 -32.160798031362731 -66.56839159876381 0 -66.56839159876381 -146.87310924188932 0 0 0 0 -20.670633862588623 -51.721494032815372 0 -51.721494032815372 -116.48658503694969 0 0 0 0 -39.452733274646022 -53.023380808655475 0 -53.023380808655475 -81.607149288089204 0 0 0 0 -23.976935164618169 -21.330543975235742 0 -21.330543975235742 -70.761272159916189 0 0 0 0 -35.38407344902096 -32.661137952174158 0 -32.661137952174158 -81.782287696610183 0 0 0 0 -56.984628920674851 -13.592950178327555 0 -13.592950178327555 -62.308557574943279 0 0 0 0 -55.586139772943469 -6.9171874373507762 0 -6.9171874373507762 -31.052412339353396 0 0 0 0 -68.544851605559572 -68.738204793743989 0 -68.738204793743989 -75.208368760041594 0 0 0 0 -70.082875126381978 -77.6834335028243 0 -77.6834335028243 -134.39190735608099 0 0 0 0 -55.75221015948668 -85.020457935375816 0 -85.020457935375816 -131.67274543135909 0 0 0 0 -85.613282527946353 -69.551394429534867 0 -69.551394429534867 3.6364710311809176 0 0 0 0 -19.138900087605208 -35.742311258651171 0 -35.742311258651171 -51.183953410602044 0 0 0 0 -19.673848259065693 -30.158182862651302 0 -30.158182862651302 -3.6580187776717139 0 0 0 0 -44.587249822217338 -17.303655411136788 0 -17.303655411136788 69.747532565823349 0 0 0 0 -0.53290112365642006 -0.36505440437442971 0 -0.36505440437442971 -0.046838164015817085 0 0 0 0 13.471456206006081 -16.314974638541116 0 -16.314974638541116 -0.8704736922900338 0 0 0 0 12.117937677778968 -22.368845204036916 0 -22.368845204036916 -1.8666219919487048 0 0 0 0 25.075540354618187 -8.1424465564484763 0 -8.1424465564484763 3.5242510648604366 0 0 0 0 27.556498130341971 -17.117991816247923 0 -17.117991816247923 -39.14760082300927 0 0 0 0 -27.12330812941952 -34.504041217237045 0 -34.504041217237045 -28.082966159521675 0 0 0 0 32.572193673323255 3.7955792953453056 0 3.7955792953453056 -65.02033076443513 0 0 0 0 76.503771183115958 10.292706309919595 0 10.292706309919595 -30.780126066342746 0 0 0 0 30.011501610886974 -0.69212520850214787 0 -0.69212520850214787 8.4042758242612763 0 0 0 0 76.695224264914401 52.143608335505633 0 52.143608335505633 -13.508584533581597 0 0 0 0 -9.563346283825922 -16.083259880369951 0 -16.083259880369951 0.92365021798104863 0 0 0 0 0.12863656177640409 -0.8687928708138184 0 -0.8687928708138184 -0.90050088640980874 0 0 0 0 -20.567004608895431 45.166835557734885 0 45.166835557734885 -25.049658383814858 0 0 0 0 43.035839962264617 3.9639616915801525 0 3.9639616915801525 -15.395309501222073 0 0 0 0 -8.4684015512019197 8.0626670302890489 0 8.0626670302890489 3.5844722900856141 0 0 0 0 14.110798138140382 29.294004130568283 0 29.294004130568283 4.5121958159043061 0 0 0 0 44.778072985321757 13.614768261337304 0 13.614768261337304 -0.32658003907272359 0 0 0 0 6.6304373564162233 -27.776812111856998 0 -27.776812111856998 9.0526624652266037 0 0 0 0 48.928467434690845 -0.75502208538728155 0 -0.75502208538728155 -50.140351756224845 0 0 0 0 0.31735077499524272 0.87032146520997866 0 0.87032146520997866 -5.5617833053595049 0 0 0 0 0.63606291449589314 0.21313970343677724 0 0.21313970343677724 -11.434108967681006 0 0 0 0 28.414057323313187 0.26613165305116127 0 0.26613165305116127 -18.638130425311829 0 0 0 0 0.34372439949226896 -1.7250935416152693 0 -1.7250935416152693 -2.3607880959704346 0 0 0 0 52.43762711522777 29.242781042071329 0 29.242781042071329 -2.7542895855003735 0 0 0 0 20.045917735260048 10.44674749697333 0 10.44674749697333 -7.799418076632719 0 0 0 0 29.546780763357503 10.694662748534711 0 10.694662748534711 -10.940294178442855 0 0 0 0 3.149812477414101 9.6278734717329826 0 9.6278734717329826 -3.6025290821635281 0 0 0 0 4.2561222455474734 13.567544787831139 0 13.567544787831139 -2.8620870990816911 0 0 0 0 17.336201477939426 4.4562288899232954 0 4.4562288899232954 -8.8840427852610446 0 0 0 0 0.23371554892576896 18.432865211190801 0 18.432865211190801 3.0543127700020705 0 0 0 0 18.643031856254936 15.926304601211996 0 15.926304601211996 -5.4345821440329019 0 0 0 0 -37.114246074696752 2.3446577356307898 0 2.3446577356307898 7.0544958725731703 0 0 0 0 -14.604581574223815 2.5155532640483216 0 2.5155532640483216 -0.56137471465990529 0 0 0 0 -17.510882552181943 6.9322254298140251 0 6.9322254298140251 2.7959194267132261 0 0 0 0 -7.6529545805189088 2.313139246351966 0 2.313139246351966 -7.8630792226576887 0 0 0 0 -1.05407353671783 11.777093163831523 0 11.777093163831523 -6.622480328540405 0 0 0 0 -12.634514431175305 5.0876192778650875 0 5.0876192778650875 0.65276407239070977 0 0 0 0 5.8688782545425511 8.2185036866121663 0 8.2185036866121663 -0.89786074278345041 0 0 0 0 -0.47813184396713665 1.1036123000388587 0 1.1036123000388587 -2.2046334309209854 0 0 0 0 -7.7914110247322412 7.1280973089219515 0 7.1280973089219515 -8.5344480514577299 0 0 0 0 0.090964360877976214 -0.027944554966751411 0 -0.027944554966751411 -0.5060515096280902 0 0 0 0 -6.6284195053969199 9.3481011452950042 0 9.3481011452950042 2.0828284007566253 0 0 0 0 13.68179698285828 1.1094810303429767 0 1.1094810303429767 -8.9663211622955714 0 0 0 0 -0.5843381061506534 11.250793211839664 0 11.250793211839664 -15.928183675325272 0 0 0 0 -0.3058242465225639 0.70976488878712818 0 0.70976488878712818 -1.4829868149983767 0 0 0 0 -14.591832505889919 15.038820811538244 0 15.038820811538244 -1.1822429321455274 0 0 0 0 4.5611401424298208 -3.9239207821610762 0 -3.9239207821610762 -64.670089852899309 0 0 0 0 -0.15796072793720767 0.25530353015756457 0 0.25530353015756457 -0.53674931346053256 0 0 0 0 -81.03576382945262 -0.076172703978954814 0 -0.076172703978954814 3.2278515567049908 0 0 0 0 -17.096366025317735 -7.323406840435382 0 -7.323406840435382 -12.473901004443178 0 0 0 0 -18.843320528349516 -35.048256107083034 0 -35.048256107083034 -52.971343525963675 0 0 0 0 -19.307848357032952 -31.904717456648541 0 -31.904717456648541 -59.785120343667586 0 0 0 0 -34.92844652234119 -41.87262580560855 0 -41.87262580560855 -68.771335783028917 0 0 0 0 -13.773884936552122 -28.181230407513794 0 -28.181230407513794 -71.407647948421982 0 0 0 0 -10.003910758579487 1.3284116236145564 0 1.3284116236145564 -21.124136618849661 0 0 0 0 -1.6355734029225388 -15.912904350967892 0 -15.912904350967892 -76.288555316739803 0 0 0 0 -11.198241662767799 -7.6953242038571261 0 -7.6953242038571261 -12.102959804960847 0 0 0 0 -7.3364183929712112 4.2983811092981341 0 4.2983811092981341 -5.1762203237967697 0 0 0 0 -5.8358420541779665 0.42867474901413516 0 0.42867474901413516 -0.43971477544255322 0 0 0 0 -1.0881928410617547 2.3129631650672309 0 2.3129631650672309 0.93646208153404586 0 0 0 0 -3.6193355721994891 3.6101630900566306 0 3.6101630900566306 1.1953459636661137 0 0 0 0 -1.6420304355672783 -3.2870614531593674 0 -3.2870614531593674 1.5211736994756393 0 0 0 0 -6.3036589471929076 -0.47165868570073144 0 -0.47165868570073144 1.5420384082754026 0 0 0 0 -12.541055995724705 -1.0670066798716107 0 -1.0670066798716107 1.1788128304051497 0 0 0 0 -1.9163895019259911 -8.9027461643181596 0 -8.9027461643181596 -1.8819757427027071 0 0 0 0 0.029460242836194403 0.076380423293679556 0 0.076380423293679556 -0.76815571093216306 0 0 0 0 -0.39138476857716853 -1.4811300864621444 0 -1.4811300864621444 -0.28713446264191589 0 0 0 0 8.8091596594662605 -1.3607990626542232 0 -1.3607990626542232 -2.8980271868003911 0 0 0 0 -12.960302877984084 -15.636234182717999 0 -15.636234182717999 -17.738379958387668 0 0 0 0 -0.00037573141093589775 -1.9660641259688418 0 -1.9660641259688418 -4.3446091153546149 0 0 0 0 -0.039667635187860276 -10.973859227985486 0 -10.973859227985486 -28.282579191108198 0 0 0 0 -30.356717012726453 -53.160208575822253 0 -53.160208575822253 -78.160645685386044 0 0 0 0 8.2276432796546999 13.647905353961505 0 13.647905353961505 -16.495760701156996 0 0 0 0 -0.010078573588219134 0.018734861079524379 0 0.018734861079524379 -0.33386811362800017 0 0 0 0 -35.065334629789376 -40.181937186778214 0 -40.181937186778214 -88.964217261225713 0 0 0 0 -14.485976277376778 -30.700661570748707 0 -30.700661570748707 -85.556752840854642 0 0 0 0 -0.0037976807097403927 -33.232294027515088 0 -33.232294027515088 -98.150414357492991 0 0 0 0 14.37376412220506 -1.6189362540490038 0 -1.6189362540490038 -16.134432721000849 0 0 0 0 -1.6726378168593357 -12.562081849432616 0 -12.562081849432616 -6.8663982458583632 0 0 0 0 -6.736482874726903 -1.3595831159764202 0 -1.3595831159764202 -2.5989186774377231 0 0 0 0 30.52644889538692 12.130225170342783 0 12.130225170342783 -2.7197700174515376 0 0 0 0 19.065760517998598 -12.451485274143579 0 -12.451485274143579 6.1899994230734592 0 0 0 0 46.769197843470522 2.5996988975157365 0 2.5996988975157365 -2.7839957804480946 0 0 0 0 0.29506637591236751 -0.063879176973035356 0 -0.063879176973035356 -1.1256828489634216 0 0 0 0 9.7266497234220424 -17.374017302095126 0 -17.374017302095126 4.7396284262686095 0 0 0 0 -0.40919653991674798 -0.51722434137051376 0 -0.51722434137051376 -1.2295092102705105 0 0 0 0 -0.99168305785295274 -0.91752261126475787 0 -0.91752261126475787 -4.302042429742869 0 0 0 0 33.57804506169515 -10.461412763135741 0 -10.461412763135741 -9.0548872434828809 0 0 0 0 28.893690480698595 -4.4724456264693799 0 -4.4724456264693799 -12.673614875524436 0 0 0 0 -10.942149431834537 -27.82041860510617 0 -27.82041860510617 12.052858145269965 0 0 0 0 0.014992972949045225 -32.201770377666435 0 -32.201770377666435 -35.300261820169453 0 0 0 0 -29.55455928259417 -26.631559555444255 0 -26.631559555444255 -41.137539832716357 0 0 0 0 -18.854610442706402 -11.826243037094173 0 -11.826243037094173 -25.199455899849454 0 0 0 0 -1.0292135834367997 -11.947254111070833 0 -11.947254111070833 -31.935596215163969 0 0 0 0 -1.5941347283155665 4.0707918606876774 0 4.0707918606876774 -0.74564824061599211 0 0 0 0 -10.559887708396559 10.6415931932479 0 10.6415931932479 -8.3357468731192057 0 0 0 0 -14.120355478277247 8.4077263189010409 0 8.4077263189010409 -1.5844868130952818 0 0 0 0 0.22011409896381784 -0.0018477360074768967 0 -0.0018477360074768967 -0.23480644678309304 0 0 0 0 -38.501541182173185 -29.150903095236572 0 -29.150903095236572 -17.363003928929174 0 0 0 0 -0.047251927212172862 -0.22512031919996822 0 -0.22512031919996822 -0.12406244960511614 0 0 0 0 -11.132132524597523 14.624550205096057 0 14.624550205096057 -34.103344102306437 0 0 0 0 -7.3240664246152392 16.58404153639276 0 16.58404153639276 -23.998922455331922 0 0 0 0 -33.184620130137887 -15.27645286862662 0 -15.27645286862662 -10.588089443538593 0 0 0 0 -15.002257257049763 -5.8810610641812673 0 -5.8810610641812673 -18.731341609964147 0 0 0 0 -25.618991558532912 -28.391701112090232 0 -28.391701112090232 -58.334413552236583 0 0 0 0 -53.432118292519334 -8.4881221501709661 0 -8.4881221501709661 -12.630626160675092 0 0 0 0 -26.389763779368621 -8.1592242483848167 0 -8.1592242483848167 -12.629754724507677 0 0 0 0 -11.337450951139814 -10.009511390034959 0 -10.009511390034959 -23.851072791514525 0 0 0 0 -22.40701642871872 -7.158498211452752 0 -7.158498211452752 -12.75364017335778 0 0 0 0 -24.407751492475995 0.26330566049455228 0 0.26330566049455228 -38.563416346997656 0 0 0 0 -6.1158818182295889 -0.97336470479513082 0 -0.97336470479513082 -18.665669095678822 0 0 0 0 -5.7704973254861223 -3.6545350059293469 0 -3.6545350059293469 -11.418098068423205 0 0 0 0 -22.644644774974495 -9.4418171745792279 0 -9.4418171745792279 -12.545685907994994 0 0 0 0 -27.713587759894722 -8.0401999226724001 0 -8.0401999226724001 -8.4955031574281747 0 0 0 0 -25.450330819513852 -12.749063493562062 0 -12.749063493562062 -9.7631624462082982 0 0 0 0 -22.65880808929731 -10.707769776500754 0 -10.707769776500754 -13.730725534025623 0 0 0 0 -35.829426718447671 -16.122530220919515 0 -16.122530220919515 -15.956799273208162 0 0 0 0 -15.27005570864074 -14.533630311952038 0 -14.533630311952038 -33.586769904056894 0 0 0 0 2.0403026601925802 1.3150640140129326 0 1.3150640140129326 -10.096773498891707 0 0 0 0 2.9009556301225174 0.63223704256029123 0 0.63223704256029123 -21.233183935033594 0 0 0 0 14.845201368864821 1.3741352355427807 0 1.3741352355427807 -15.15484543679031 0 0 0 0 19.290661531586835 9.8525176411940265 0 9.8525176411940265 -10.523474157040255 0 0 0 0 19.587310042806621 6.7958448422559741 0 6.7958448422559741 -3.589444005965106 0 0 0 0 19.167040633927513 2.1384297362455982 0 2.1384297362455982 -12.320771749606138 0 0 0 0 13.916617271936161 6.2363890630176684 0 6.2363890630176684 -14.702907864981171 0 0 0 0 -4.3665013075404424 3.727890696843815 0 3.727890696843815 -9.5435840775171528 0 0 0 0 11.853723795406211 -0.3322771369421389 0 -0.3322771369421389 -15.266596530443508 0 0 0 0 21.203989401625449 6.912389115123915 0 6.912389115123915 -12.669811045447204 0 0 0 0 12.993412784316732 -0.29267347739164506 0 -0.29267347739164506 -10.1380555987962 0 0 0 0 12.00214172700521 3.6379255718029526 0 3.6379255718029526 -12.534659335192373 0 0 0 0 37.900844486608321 -7.5395157780667432 0 -7.5395157780667432 -12.121725997147223 0 0 0 0 26.087159863692534 -0.21954528776768711 0 -0.21954528776768711 -13.280909169621737 0 0 0 0 20.062945340709575 -3.7387285760069062 0 -3.7387285760069062 -12.103007652311959 0 0 0 0 16.369526483160996 -1.1426082970065181 0 -1.1426082970065181 -8.3444142523876508 0 0 0 0 19.318197439078631 3.055766620281247 0 3.055766620281247 -8.9975196295199567 0 0 0 0 17.172933974893112 0.44712133882330818 0 0.44712133882330818 -8.313690834293908 0 0 0 0 19.846009071668391 5.6307989962569991 0 5.6307989962569991 -7.0284145250607253 0 0 0 0 20.371679645439258 4.9008360303032532 0 4.9008360303032532 -10.527651567726934 0 0 0 0 20.677433073916063 2.2425882747011201 0 2.2425882747011201 -14.07525845724831 0 0 0 0 15.145835755074472 9.3259538477468595 0 9.3259538477468595 8.7525597948146014 0 0 0 0 19.382414665762894 4.1156679774176155 0 4.1156679774176155 -7.736501066981873 0 0 0 0 21.355344123081579 9.9608855866490558 0 9.9608855866490558 -5.6484924415090063 0 0 0 0 13.65922679276316 4.0294932734952909 0 4.0294932734952909 -1.1323960216614068 0 0 0 0 -2.7965056812285525 -2.7143495459281439 0 -2.7143495459281439 -14.392599205870283 0 0 0 0 -6.1234413033830606 -4.9490844244992331 0 -4.9490844244992331 -7.4496415350440657 0 0 0 0 1.2667592582800953 0.66120120662292159 0 0.66120120662292159 -4.7092300958160749 0 0 0 0 -0.46573763418317227 0.8838117987650147 0 0.8838117987650147 -2.8957414793017975 0 0 0 0 1.2652818425507633 0.94963754921718646 0 0.94963754921718646 -5.6688129467011095 0 0 0 0 13.478613515867572 0.28019340390473246 0 0.28019340390473246 -5.2411616878744098 0 0 0 0 16.895500625291618 0.6192515236411964 0 0.6192515236411964 -7.0176283270830027 0 0 0 0 0.52865182527909149 0.59823643275914939 0 0.59823643275914939 -3.4181371377809242 0 0 0 0 1.8860028089987679 3.4435585340465877 0 3.4435585340465877 -5.2598570666114028 0 0 0 0 0.61077830016603518 0.5956646475301639 0 0.5956646475301639 -3.0751483051546344 0 0 0 0 1.0712786903517326 -0.57767600357874471 0 -0.57767600357874471 -5.3497126189067785 0 0 0 0 0.88495848220030593 0.44903492042156401 0 0.44903492042156401 -4.8234431840448337 0 0 0 0 -2.6926634258758781 -2.5072820806553864 0 -2.5072820806553864 -2.2853749980117755 0 0 0 0 -0.37087249367954533 -1.1165513258983593 0 -1.1165513258983593 -3.8186029671906212 0 0 0 0 -0.91613724600017576 -0.9733118760468642 0 -0.9733118760468642 -4.8411358301018481 0 0 0 0 4.9235341587141477 0.92122956919479293 0 0.92122956919479293 -2.3094712421279837 0 0 0 0 16.612201475261173 -0.51759031964684254 0 -0.51759031964684254 -6.8905187481213943 0 0 0 0 0.30321324488056689 0.91343295758542808 0 0.91343295758542808 -2.9279477716590918 0 0 0 0 0.96619650443515137 1.4837412757377173 0 1.4837412757377173 -4.6973318499660763 0 0 0 0 0.21210962553683421 -0.49775690323486899 0 -0.49775690323486899 -0.90658279681071718 0 0 0 0 -1.0929306701172472 -0.91063820323777733 0 -0.91063820323777733 -0.29046351578103558 0 0 0 0 4.2089642747136224 -9.8420083094761139 0 -9.8420083094761139 9.5077006519927636 0 0 0 0 0.014641699712275552 -0.14112573342197621 0 -0.14112573342197621 -3.7946748885281707 0 0 0 0 0.25547708407246006 0.27507300574598048 0 0.27507300574598048 -3.7898942242427438 0 0 0 0 0.25827642565300835 0.188208376829607 0 0.188208376829607 -3.673215312863249 0 0 0 0 0.26902034935376662 0.26863568453700282 0 0.26863568453700282 -3.7871775238991177 0 0 0 0 0.10793519681724284 0.29469558999858236 0 0.29469558999858236 -3.7486403617622273 0 0 0 0 0.43215831276491673 0.55310432055281922 0 0.55310432055281922 -3.3848959639469314 0 0 0 0 1.1041480636372967 0.5468978072713071 0 0.5468978072713071 -3.4682928058828111 0 0 0 0 1.1288177087282349 0.57132761329739878 0 0.57132761329739878 -3.5153918930636792 0 0 0 0 40.419079513310486 -9.8341012927476186 0 -9.8341012927476186 -14.712349878308487 0 0 0 0 1.1255358565027365 0.57107096101617572 0 0.57107096101617572 -3.4687647187965922 0 0 0 0 0.18382063360311646 -0.14836824715770458 0 -0.14836824715770458 -3.8200306377270152 0 0 0 0 1.1041421149207906 0.54561492203174566 0 0.54561492203174566 -3.3533240829165152 0 0 0 0 -2.0024661977464149 -3.5758589400159053 0 -3.5758589400159053 -3.1660108886244416 0 0 0 0 3.3836863665633814 2.873803560100896 0 2.873803560100896 -7.1055445248566684 0 0 0 0 0.94861638167441986 0.85624429128588453 0 0.85624429128588453 -4.1739835740913236 0 0 0 0 1.3350262605440548 0.083072777198822223 0 0.083072777198822223 -9.2088437361308024 0 0 0 0 0.48122753767326243 0.089676406183553325 0 0.089676406183553325 -3.7412910386013607 0 0 0 0 0.33899425718104781 0.4971127219301934 0 0.4971127219301934 -3.4277258075964028 0 0 0 0 -0.073265818526933035 -0.36389670292706811 0 -0.36389670292706811 -3.9200210539861438 0 0 0 0 2.9982236925554275 1.2021759179287983 0 1.2021759179287983 -3.129367350524717 0 0 0 0 -0.45269258172731952 -1.323324304930793 0 -1.323324304930793 -5.8034122452904739 0 0 0 0 0.001202468042168503 1.1071107635724147 0 1.1071107635724147 -1.4841835518399691 0 0 0 0 -0.090415557656115197 -0.9423544710234637 0 -0.9423544710234637 -5.6568647016938485 0 0 0 0 -0.0056929634136011487 -0.14424932196658347 0 -0.14424932196658347 -5.0496906026328361 0 0 0 0 -1.1638842334579067 -0.69812469557928125 0 -0.69812469557928125 -5.1200923855423071 0 0 0 0 -1.1404963838197091 -0.9975500701434612 0 -0.9975500701434612 -6.2317664036963833 0 0 0 0 -0.10266656990240808 0.82536490146235764 0 0.82536490146235764 -2.231414359372625 0 0 0 0 0.34469435760956912 1.5938865126959172 0 1.5938865126959172 -6.6314670275683056 0 0 0 0 -2.3831559683067098 2.3035707948947675 0 2.3035707948947675 -2.6976511962793666 0 0 0 0 0.42474556527241702 -1.0140158016210989 0 -1.0140158016210989 -9.6914445305556001 0 0 0 0 1.7296553144951758 2.1587469816531666 0 2.1587469816531666 -13.31152619929253 0 0 0 0 1.813313450824694 -2.9482504626730588 0 -2.9482504626730588 -12.797872403156362 0 0 0 0 -1.1152920534611894 -3.0867006064956399 0 -3.0867006064956399 -10.765312321304009 0 0 0 0 0.0045965280979771705 -1.0994222541321506 0 -1.0994222541321506 -10.222551863435001 0 0 0 0 -0.92174213125360893 -6.9130027836818044 0 -6.9130027836818044 -12.851613979071772 0 0 0 0 -1.3426771576262979 -5.8713150298768824 0 -5.8713150298768824 -14.200506656190555 0 0 0 0 -0.97347324602355911 -7.7981744124972465 0 -7.7981744124972465 -13.437669255639776 0 0 0 0 1.5683555007700534 -4.577318680731878 0 -4.577318680731878 -18.845147357208589 0 0 0 0 2.1303752606033157 -7.6770770480834472 0 -7.6770770480834472 -25.609182953110576 0 0 0 0 2.1584945510107829 -8.2113646497317632 0 -8.2113646497317632 -15.459597403385487 0 0 0 0 0.04837687988936068 0.045228565918478125 0 0.045228565918478125 -7.9927843008263153 0 0 0 0 1.0202314556321099 1.3433469509736149 0 1.3433469509736149 -5.5007366989663389 0 0 0 0 0.21601340637005251 0.67929932349079536 0 0.67929932349079536 -6.1898961049810168 0 0 0 0 1.9392823279849836 2.4396158771123737 0 2.4396158771123737 -6.8292269001794921 0 0 0 0 0.54507034340376881 0.2735248135301811 0 0.2735248135301811 -7.0973727319338735 0 0 0 0 -0.43202345820839128 -1.2075264335189786 0 -1.2075264335189786 -9.9360426018592989 0 0 0 0 0.69095493617203374 1.2720203800085983 0 1.2720203800085983 -7.5827759155836247 0 0 0 0 -1.8688407560283622 -2.4168410705515271 0 -2.4168410705515271 -9.4415179528978115 0 0 0 0 -2.8760637934785791 -4.6145977504256734 0 -4.6145977504256734 -12.039812041064579 0 0 0 0 -2.1698759991780321 -1.432512835343914 0 -1.432512835343914 -11.652059999110861 0 0 0 0 0.59189039500987928 0.34212243008233401 0 0.34212243008233401 -7.4381296654745483 0 0 0 0 0.70866238776557111 0.52662934563522867 0 0.52662934563522867 -11.678291927228202 0 0 0 0 1.553253880952866 0.90651958883063344 0 0.90651958883063344 -5.7285724567373109 0 0 0 0 0.58842058619203697 -0.60944023341647924 0 -0.60944023341647924 -6.844899189050544 0 0 0 0 -3.7737836955517423 -0.037805296901751717 0 -0.037805296901751717 -11.74050617674277 0 0 0 0 -3.6636106513085451 -3.336284185785189 0 -3.336284185785189 -13.068627902527624 0 0 0 0 -5.6889445207141307 -1.4249187603782048 0 -1.4249187603782048 -14.870531996811224 0 0 0 0 -9.7732385933106798 -9.2689196568180705 0 -9.2689196568180705 -19.430148848883164 0 0 0 0 1.1401497681758173 1.345903747016564 0 1.345903747016564 -13.841047948183586 0 0 0 0 -7.2854524566383816 -1.4138895171518016 0 -1.4138895171518016 -10.530300041142709 0 0 0 0 -1.8611739545513615 -8.5609015233130776 0 -8.5609015233130776 -11.614353103859685 0 0 0 0 1.0046230795940119 -1.8887354060698271 0 -1.8887354060698271 -7.8514250598564104 0 0 0 0 1.4466362321263659 -2.9980532576955738 0 -2.9980532576955738 -9.8605867262394895 0 0 0 0 -1.8005774254464768 -9.7361132357864335 0 -9.7361132357864335 -4.7810829976187961 0 0 0 0 -1.4683705935951252 -9.1855227759315312 0 -9.1855227759315312 -6.4990233718490344 0 0 0 0 -0.83244928603653534 -7.9791461212344075 0 -7.9791461212344075 -13.364697208893631 0 0 0 0 -7.6292700900925183 -5.5837015658789824 0 -5.5837015658789824 -12.840113093421678 0 0 0 0 -4.1967883332769134 -6.76579332980873 0 -6.76579332980873 -12.491016234197559 0 0 0 0 -2.8200766495721155 -4.3616858794548534 0 -4.3616858794548534 -12.529599239260278 0 0 0 0 -4.7382514380594785 -5.400855081701593 0 -5.400855081701593 -11.343218710714723 0 0 0 0 -4.2095644659571576 -6.2219783492955685 0 -6.2219783492955685 -18.9434796603 0 0 0 0 -5.5199867532368216 -2.7497973884655948 0 -2.7497973884655948 -20.424607942655712 0 0 0 0 -0.67890142932606068 -13.414516946407275 0 -13.414516946407275 -37.830267085289961 0 0 0 0 0.18688961005478633 -0.051362335994205921 0 -0.051362335994205921 -0.26699492532537406 0 0 0 0 9.81108487235133 -0.74345111002912745 0 -0.74345111002912745 -22.544505238201964 0 0 0 0 6.4390930809366864 6.2501387903780596 0 6.2501387903780596 -6.6665390446905803 0 0 0 0 -15.556596386601427 -29.896520769923882 0 -29.896520769923882 -35.822710434689725 0 0 0 0 1.3135444806534906 -7.1975346470262593 0 -7.1975346470262593 -18.479314298769168 0 0 0 0 10.240985903638489 2.5914300032673054 0 2.5914300032673054 -19.306745127520117 0 0 0 0 -6.0776838473510679 -15.471202931807056 0 -15.471202931807056 -60.25729561566186 0 0 0 0 -5.331468311746562 -50.161550492603965 0 -50.161550492603965 -73.47457389075953 0 0 0 0 -18.37737756446154 -5.3121330959074839 0 -5.3121330959074839 -41.167792454165465 0 0 0 0 29.549264763102428 -32.900970012778998 0 -32.900970012778998 -76.584332575152985 0 0 0 0 -40.809185019510096 -49.381903479581069 0 -49.381903479581069 -61.340029772978596 0 0 0 0 15.654779756123958 11.734423563362725 0 11.734423563362725 -54.55726683809462 0 0 0 0 0.14967269536413808 -0.10224700705043333 0 -0.10224700705043333 0.020715181884632727 0 0 0 0 10.91108333552819 -68.41866503850315 0 -68.41866503850315 -167.30033268193802 0 0 0 0 -7.577114663489624 14.094350398874667 0 14.094350398874667 -109.20154972579712 0 0 0 0 -56.563649280636582 -7.3283007300883583 0 -7.3283007300883583 -21.649054583407633 0 0 0 0 -7.6066070833800445 -27.218713839754884 0 -27.218713839754884 -14.09309042719542 0 0 0 0 -26.072275804210904 -27.383881611324796 0 -27.383881611324796 3.3325297683131794 0 0 0 0 -6.4159929174054469 35.557116142569612 0 35.557116142569612 3.6880987777554495 0 0 0 0 0.29756736010464846 -0.72108569626078278 0 -0.72108569626078278 0.42000158097375007 0 0 0 0 -39.933233718522615 -18.987380205784575 0 -18.987380205784575 4.5776296252734028 0 0 0 0 -3.1847239807700589 -1.564709747131019 0 -1.564709747131019 5.9941419421957107 0 0 0 0 6.1011498843606944 3.2430780257045626 0 3.2430780257045626 -23.79249896530655 0 0 0 0 -0.51901735782610103 -14.637907604706925 0 -14.637907604706925 -15.428803970804438 0 0 0 0 -7.5083729594400666 -10.510708057339798 0 -10.510708057339798 6.4391376316639253 0 0 0 0 -5.8431546890838035 -15.346595611146768 0 -15.346595611146768 -1.1232631490711356 0 0 0 0 1.0629684420377998 -12.13284413094334 0 -12.13284413094334 -15.594820979000019 0 0 0 0 -6.7476295815988578 -19.115776881039892 0 -19.115776881039892 -15.188912635692759 0 0 0 0 1.6425095754326549 -6.1440209732654694 0 -6.1440209732654694 -22.252658028388396 0 0 0 0 1.7526873100194962 -6.5644299411596876 0 -6.5644299411596876 -48.462731555340724 0 0 0 0 1.6108074286433975 -3.8175523779682408 0 -3.8175523779682408 -31.637220738683773 0 0 0 0 0.92069173521831971 -13.643742646735177 0 -13.643742646735177 -31.627689867600566 0 0 0 0 -11.580529591622266 -9.1565623901224171 0 -9.1565623901224171 -29.58735484751378 0 0 0 0 -9.5122528947693041 3.2362498387230971 0 3.2362498387230971 -6.6706688060476154 0 0 0 0 0.24358246661102434 0.0082420646148033683 0 0.0082420646148033683 -0.54792152667418392 0 0 0 0 -4.2612276279920138 -13.890162050523031 0 -13.890162050523031 -3.2893473844578693 0 0 0 0 -128.27652539214068 15.721921963180648 0 15.721921963180648 -23.290898211867898 0 0 0 0 -0.31745027391040348 -0.36564018435783119 0 -0.36564018435783119 -0.24693291159961461 0 0 0 0 -21.408581960146449 -40.589321822875718 0 -40.589321822875718 1.3085787919917493 0 0 0 0 -9.0947700746668261 -49.570796808939122 0 -49.570796808939122 -16.414463383547627 0 0 0 0 -18.969235348533203 -79.374482191089555 0 -79.374482191089555 -11.315138030751086 0 0 0 0 -5.629919244058442 8.0626549722464915 0 8.0626549722464915 -7.3470668999293594 0 0 0 0 -6.5495291243220208 13.282842190048541 0 13.282842190048541 -36.94082641076966 0 0 0 0 1.7085964396646141 1.5148289264404298 0 1.5148289264404298 -27.247969955580629 0 0 0 0 2.0004612926663867 -1.3837675533613947 0 -1.3837675533613947 -5.8986935929915489 0 0 0 0 1.3439094928479727 -0.040209290651242569 0 -0.040209290651242569 -0.95323049520681025 0 0 0 0 1.347354043273441 -1.3146103266874434 0 -1.3146103266874434 -5.8938939049876353 0 0 0 0 2.9912543818755242 -2.7457338733959826 0 -2.7457338733959826 -0.83166825094168573 0 0 0 0 2.1551089053638179 6.9664441363420337 0 6.9664441363420337 1.3344462874993042 0 0 0 0 1.2570210229525467 1.4327260427980164 0 1.4327260427980164 -0.89215844974359371 0 0 0 0 -0.81056557835485421 -8.4033259455027292 0 -8.4033259455027292 -3.9035214036193793 0 0 0 0 0.23867966614353583 -0.010745103538964074 0 -0.010745103538964074 -0.50332975186972462 0 0 0 0 -3.1773098493689957 -1.313291237073372 0 -1.313291237073372 -2.718894452862969 0 0 0 0 -0.0063420546476993245 -1.1164642161838021 0 -1.1164642161838021 1.4630579413261735 0 0 0 0 -11.977016555839441 -6.6561544892983875 0 -6.6561544892983875 5.7739566492427912 0 0 0 0 -3.5862479945441237 -6.5184184096178797 0 -6.5184184096178797 -3.2996484457835322 0 0 0 0 1.7006949236941966 -0.60847824262452299 0 -0.60847824262452299 -0.7682639275323595 0 0 0 0 -7.1643640025415607 -20.135849960281121 0 -20.135849960281121 -15.400666007648397 0 0 0 0 8.5954229617466353 -10.79426236427571 0 -10.79426236427571 -9.9758014256130991 0 0 0 0 15.446259950781723 -15.32377174929934 0 -15.32377174929934 -29.478375971452806 0 0 0 0 14.932201849284979 -6.8179641358033223 0 -6.8179641358033223 -15.198472833411643 0 0 0 0 -5.8830753244317862 -36.959907167999518 0 -36.959907167999518 -50.49743770564055 0 0 0 0 59.93938741998943 18.509012828119012 0 18.509012828119012 -67.300049040988142 0 0 0 0 13.454395530081278 16.677036324326792 0 16.677036324326792 6.0238113093482752 0 0 0 0 12.83456301667735 10.770152095709136 0 10.770152095709136 -8.4485005318565527 0 0 0 0 30.340407350561009 23.600633623483191 0 23.600633623483191 12.112419492837944 0 0 0 0 4.8371573843701299 5.0193878188638337 0 5.0193878188638337 3.9049244267415588 0 0 0 0 5.3223080572061292 3.6801282370431636 0 3.6801282370431636 6.1505400555661254 0 0 0 0 -10.28167201073245 -0.52270709450158392 0 -0.52270709450158392 16.048985743409673 0 0 0 0 17.089700881853361 31.108801515867071 0 31.108801515867071 22.182400367245464 0 0 0 0 -29.759551073310149 -2.7326643330361549 0 -2.7326643330361549 -8.1268095115337928 0 0 0 0 -5.4197852619660694 -5.2508431222872787 0 -5.2508431222872787 -9.0378061144965613 0 0 0 0 67.751308065949985 65.262401986586156 0 65.262401986586156 45.886076812057581 0 0 0 0 55.444646872620268 18.140761493235459 0 18.140761493235459 8.5603805194650704 0 0 0 0 54.271113033936331 20.737122244362126 0 20.737122244362126 13.458562071517918 0 0 0 0 -2.7958471231751219 -9.2791166271454131 0 -9.2791166271454131 -7.2968655769091129 0 0 0 0 27.235133967485268 38.951793061393573 0 38.951793061393573 13.804676155257766 0 0 0 0 0.22520168578204225 0.96347953917027951 0 0.96347953917027951 -3.8008031582246034 0 0 0 0 -52.140271671134855 -51.961068782310122 0 -51.961068782310122 -50.796509227998285 0 0 0 0 30.24622158765402 22.870764085155031 0 22.870764085155031 38.928068032839292 0 0 0 0 -0.013959854641680702 0.30626973975956062 0 0.30626973975956062 -1.2717905713855231 0 0 0 0 -110.66006271294441 -141.81776985320539 0 -141.81776985320539 -104.59855358374352 0 0 0 0 82.595605345986073 69.195711117765541 0 69.195711117765541 17.447450259169273 0 0 0 0 -29.375417907450071 -32.168464980163662 0 -32.168464980163662 -58.811777969121977 0 0 0 0 -80.276614821662008 -42.605987072759262 0 -42.605987072759262 -52.292087891994015 0 0 0 0 -7.8781443032642073 -16.342730084247705 0 -16.342730084247705 -60.420788708004693 0 0 0 0 -22.961381845845608 -37.929589930599832 0 -37.929589930599832 -57.01120776923733 0 0 0 0 -13.406241528426108 -15.402241790957305 0 -15.402241790957305 -37.085258892908314 0 0 0 0 -9.0735892303631545 -13.264632954178524 0 -13.264632954178524 -32.730601302357172 0 0 0 0 -2.8019221477013616 -13.18304664268544 0 -13.18304664268544 -45.420126699884349 0 0 0 0 -17.516338573087864 -23.501193354171846 0 -23.501193354171846 -41.498344610796721 0 0 0 0 -9.6385102519120665 -23.457932447083749 0 -23.457932447083749 -45.954846540002109 0 0 0 0 -22.586705998127172 -35.605550708298324 0 -35.605550708298324 -38.936732134654903 0 0 0 0 -13.392571680112269 -12.968154656376555 0 -12.968154656376555 -18.060212095564111 0 0 0 0 -5.9125172432799502 -7.2224890749064343 0 -7.2224890749064343 -28.044076794461944 0 0 0 0 -13.985773430034783 -21.550992912805668 0 -21.550992912805668 -31.688599514383668 0 0 0 0 -8.6811554724416169 -14.453514531266137 0 -14.453514531266137 -23.930832986146925 0 0 0 0 -21.004981725770051 -25.493057709463073 0 -25.493057709463073 -18.158864996561533 0 0 0 0 -13.400017187359538 -34.400270183569774 0 -34.400270183569774 -40.418508459208169 0 0 0 0 -24.376533864132625 -32.4609917690359 0 -32.4609917690359 -26.386580670071908 0 0 0 0 -8.0332511939463984 -30.063516854743284 0 -30.063516854743284 -40.26238819781716 0 0 0 0 -19.030362250648011 -39.12865571333441 0 -39.12865571333441 -43.678335237822466 0 0 0 0 -56.099918698664737 -52.563402708982721 0 -52.563402708982721 -33.11666053504814 0 0 0 0 -20.660815433015358 -32.461775934347088 0 -32.461775934347088 -70.435433905657192 0 0 0 0 -31.627891440881058 -28.184146365720608 0 -28.184146365720608 -33.129958555558915 0 0 0 0 -19.180065056346791 -26.363520046808389 0 -26.363520046808389 -33.1538633641253 0 0 0 0 -12.811282428184541 -32.174015759298527 0 -32.174015759298527 -38.116384159657173 0 0 0 0 -14.202128079788508 -23.674988922754892 0 -23.674988922754892 -25.326719233027688 0 0 0 0 -20.155603310643613 -30.639740388652626 0 -30.639740388652626 -33.394092473276942 0 0 0 0 96.74744719689437 93.825780529643453 0 93.825780529643453 45.07371248785239 0 0 0 0 0.34852765202099845 1.6096379296774508 0 1.6096379296774508 -5.8944177033237466 0 0 0 0 93.497187233973804 10.121242660153825 0 10.121242660153825 -25.096969777197955 0 0 0 0 23.194752973947971 17.978937651853812 0 17.978937651853812 53.364306701201485 0 0 0 0 0.80704530587519185 1.6969440229988138 0 1.6969440229988138 -7.2191031338918812 0 0 0 0 13.419815229386245 -1.679053337791629 0 -1.679053337791629 -28.074919847424098 0 0 0 0 97.177888596118009 -28.689732920297502 0 -28.689732920297502 19.153396895658375 0 0 0 0 115.95390076228625 143.59563199112972 0 143.59563199112972 8.7552762607137993 0 0 0 0 -37.189813700028154 -82.858009878690268 0 -82.858009878690268 -64.903172643163998 0 0 0 0 31.694306581476553 41.995485423777609 0 41.995485423777609 -35.247609298385214 0 0 0 0 -16.021051665042989 -27.11715769155785 0 -27.11715769155785 -66.238195771173196 0 0 0 0 0.44482497992862591 -11.8804275845132 0 -11.8804275845132 -53.293735747524806 0 0 0 0 -5.5115547041045829 7.017616725363041 0 7.017616725363041 0.33488703598595748 0 0 0 0 1.3032126979950931 -19.878604406145314 0 -19.878604406145314 -26.791362414973264 0 0 0 0 -22.207772276435094 -20.582911839570443 0 -20.582911839570443 -34.207604897450437 0 0 0 0 2.3453767383819013 -4.7131117482713307 0 -4.7131117482713307 -46.881026680966897 0 0 0 0 -14.227729212379359 8.5552657448488389 0 8.5552657448488389 -13.433039002046826 0 0 0 0 6.087969163346969 -1.5719390069523342 0 -1.5719390069523342 -8.5935282364953309 0 0 0 0 134.42397397342711 52.234513731974857 0 52.234513731974857 -68.639531043359966 0 0 0 0 18.831728802761404 24.389388165855962 0 24.389388165855962 -12.432132417282901 0 0 0 0 1.594885208843166 0.96172176047880775 0 0.96172176047880775 -6.719680729918835 0 0 0 0 30.317193557757264 -31.720784206213466 0 -31.720784206213466 -16.169642029425177 0 0 0 0 3.4922691734188902 5.0707779635567931 0 5.0707779635567931 9.866775586679978 0 0 0 0 -7.2860293130123637 11.63191212475158 0 11.63191212475158 5.943503038104609 0 0 0 0 7.7223754506961484 -127.97812572144267 0 -127.97812572144267 -284.44211657616688 0 0 0 0 0.068299965629137205 80.76357846938788 0 80.76357846938788 -104.20776601845137 0 0 0 0 54.368379735159124 -58.422206845255459 0 -58.422206845255459 -69.722713793384855 0 0 0 0 79.933814526951551 3.1376004510748317 0 3.1376004510748317 0.41572575070404127 0 0 0 0 -25.957865609840383 -89.049701296421517 0 -89.049701296421517 -25.058849745822044 0 0 0 0 32.736467582173645 -41.141200779683004 0 -41.141200779683004 -69.324005469874464 0 0 0 0 -24.162791485278035 -26.141820058778649 0 -26.141820058778649 7.5616282490868798 0 0 0 0 -10.428443961723687 -33.681665605542094 0 -33.681665605542094 11.284483408609958 0 0 0 0 -0.73397898511771587 -9.015766365854688 0 -9.015766365854688 11.315152815283 0 0 0 0 -90.919071846138195 -115.34225571120533 0 -115.34225571120533 -35.483476367675394 0 0 0 0 276.63896247855968 163.41690097407718 0 163.41690097407718 -422.24282220409259 0 0 0 0 -260.88006858650698 -185.61249336723631 0 -185.61249336723631 -282.7363076405951 0 0 0 0 46.366702461050068 -44.34064090969423 0 -44.34064090969423 -209.9523933154187 0 0 0 0 -1.1379059882193348 -0.52211538383635947 0 -0.52211538383635947 -0.48883783874259912 0 0 0 0 -44.708310402965225 -39.826982591982414 0 -39.826982591982414 73.039289323218327 0 0 0 0 -0.98126338163708637 0.42289136713904618 0 0.42289136713904618 -0.48212511733354857 0 0 0 0 -1.9300344244514811 0.21861422149953036 0 0.21861422149953036 -0.34284582724780854 0 0 0 0 -165.57188854366359 11.902956530663005 0 11.902956530663005 -123.05520768402675 0 0 0 0 25.431070302734497 -22.345593436704348 0 -22.345593436704348 9.440789389427664 0 0 0 0 17.463894341164064 -5.8471426300820895 0 -5.8471426300820895 10.814729075927971 0 0 0 0 -0.06605998017607817 -12.479712522092086 0 -12.479712522092086 15.60707433344578 0 0 0 0 7.3479946000550171 -29.821942341628528 0 -29.821942341628528 32.57614021210702 0 0 0 0 -3.9738583959807574 -2.2704350071285901 0 -2.2704350071285901 -1.1709673884246925 0 0 0 0 -7.2988042438242315 -4.9174721493054072 0 -4.9174721493054072 -3.1467927342019939 0 0 0 0 -11.623377002742927 -30.963181862714919 0 -30.963181862714919 -145.69803716999741 0 0 0 0 -4.0653904346133913 -18.472794476816944 0 -18.472794476816944 2.4835973845820263 0 0 0 0 -32.733449777613714 13.480054331146675 0 13.480054331146675 -160.7506666215977 0 0 0 0 24.323547974002565 -36.432858938400841 0 -36.432858938400841 -117.42863674980254 0 0 0 0 -0.94198605715398553 -0.18223231424258302 0 -0.18223231424258302 -0.12616119319391306 0 0 0 0 -63.583938391588163 -9.2312215234178439 0 -9.2312215234178439 -68.700538710029832 0 0 0 0 32.442103550094373 54.188425806642954 0 54.188425806642954 -232.45127193936696 0 0 0 0 -13.328719390834635 3.3200553962104777 0 3.3200553962104777 -94.731503392795275 0 0 0 0 -12.840757608934439 4.8401288164870948 0 4.8401288164870948 -137.26209844126151 0 0 0 0 -19.628760283544324 -13.91372764690766 0 -13.91372764690766 -62.804147422059032 0 0 0 0 -7.2443140382461024 -12.120089246839257 0 -12.120089246839257 -63.967074880874861 0 0 0 0 -12.978374908075835 5.3115688135152368 0 5.3115688135152368 -22.138835619371093 0 0 0 0 -12.035284291439893 -29.149863503807865 0 -29.149863503807865 -60.850447176097987 0 0 0 0 -4.7552613457854704 -17.128373758553607 0 -17.128373758553607 -19.562868500463992 0 0 0 0 31.510458755835714 30.206003720476929 0 30.206003720476929 -27.502192418316554 0 0 0 0 -19.174159965074878 19.197586150761595 0 19.197586150761595 -111.61658946449461 0 0 0 0 11.181058698579022 -31.107182648207527 0 -31.107182648207527 -66.426904546919104 0 0 0 0 -34.641930158724506 -36.822841956291427 0 -36.822841956291427 -78.793076789444967 0 0 0 0 5.5336907670981645 -27.619464341321873 0 -27.619464341321873 -154.76267531824146 0 0 0 0 0.46396323113629023 2.6753599313524319 0 2.6753599313524319 -71.451493366559589 0 0 0 0 0.041279091651055533 1.9762663050369156 0 1.9762663050369156 -5.7446512313799758 0 0 0 0 0.0012960695927850671 0.18977680680200137 0 0.18977680680200137 -8.6315820981071738 0 0 0 0 -0.21024234799586061 2.3299264882170974 0 2.3299264882170974 -6.4617789696130785 0 0 0 0 -1.5618247044107199 0.0849850340255216 0 0.0849850340255216 -1.8314184008559096 0 0 0 0 -0.11420678729335437 -0.41641387162496812 0 -0.41641387162496812 -2.3477873530282523 0 0 0 0 -0.16280225636432988 -0.43512266019024537 0 -0.43512266019024537 -1.8516225135736022 0 0 0 0 0.14473627072941803 0.30742301855384824 0 0.30742301855384824 -0.84167957906750956 0 0 0 0 -0.19127941792557213 -0.49423616666370762 0 -0.49423616666370762 -0.22043304330929114 0 0 0 0 -0.0015284031811585964 -0.42889003655471936 0 -0.42889003655471936 -2.1686959113685589 0 0 0 0 0.014216004806966826 -0.035211479178251182 0 -0.035211479178251182 -0.32085047818282764 0 0 0 0 -0.052952685710636452 -0.11308538629550924 0 -0.11308538629550924 -0.22421199910101564 0 0 0 0 -0.00059269582692722739 -0.24098561849314137 0 -0.24098561849314137 -0.71521300850508851 0 0 0 0 -0.15026770420779578 -0.30789476270001614 0 -0.30789476270001614 -2.2484405550599149 0 0 0 0 -0.21499591275439756 -0.4981644779081762 0 -0.4981644779081762 -1.740980705977563 0 0 0 0 -0.19848630270496284 -0.53024149659155739 0 -0.53024149659155739 -0.51374820947341249 0 0 0 0 0.00011073837413464854 -0.21926484083633113 0 -0.21926484083633113 -0.67015815954073332 0 0 0 0 -0.26290368349772908 -0.71721607827021217 0 -0.71721607827021217 -2.398687044144026 0 0 0 0 -0.0036773101762640216 -0.14797372387894114 0 -0.14797372387894114 -0.14222790845678901 0 0 0 0 0.071627163738937474 0.057570285548941058 0 0.057570285548941058 -0.99154044163039146 0 0 0 0 1.0117469124286842 -0.61444444331573322 0 -0.61444444331573322 -1.250508984834596 0 0 0 0 -1.8788170585285426 -1.2064318911125156 0 -1.2064318911125156 -1.5426615901160403 0 0 0 0 0.099240295176785703 0.0030188649234226261 0 0.0030188649234226261 -0.79910308692304 0 0 0 0 -0.052661588971474771 -0.060358899092534557 0 -0.060358899092534557 -1.5373691883851279 0 0 0 0 0.13433652442960664 -1.4486698464529582 0 -1.4486698464529582 -0.31035571653410443 0 0 0 0 -0.13630087630338039 -0.93978260515723377 0 -0.93978260515723377 -0.62694348480181361 0 0 0 0 -0.769000124725153 -0.97963669616365223 0 -0.97963669616365223 -0.55131157687173982 0 0 0 0 -0.52355088492566892 -0.35001076127628039 0 -0.35001076127628039 -1.167126802391067 0 0 0 0 -0.21536435155968969 -0.18678799477947905 0 -0.18678799477947905 -2.4060996404023172 0 0 0 0 -0.26861104578895195 -0.54935242105694471 0 -0.54935242105694471 -0.70481303322285527 0 0 0 0 -0.10343435041552296 -0.27769301898642595 0 -0.27769301898642595 -0.831292424438697 0 0 0 0 -0.46639781949534864 -0.088356593232219893 0 -0.088356593232219893 0.030474590341327712 0 0 0 0 -0.51937771883429207 0.027051389866755926 0 0.027051389866755926 -2.3180837655381765 0 0 0 0 -0.30435108233770858 0.5024228814364804 0 0.5024228814364804 -0.93574467901297709 0 0 0 0 -1.4668518961823906 -0.010452748925672495 0 -0.010452748925672495 1.379398225435807 0 0 0 0 -0.88643767668271067 -0.65406807426131763 0 -0.65406807426131763 0.020810913310924661 0 0 0 0 -0.23527675820304239 0.6822669097527978 0 0.6822669097527978 -1.6478094703215902 0 0 0 0 -0.52367165985459863 0.86047496858139993 0 0.86047496858139993 -1.2571666183635806 0 0 0 0 -1.5794879405976325 2.9262979985642801 0 2.9262979985642801 1.256948352958716 0 0 0 0 -0.29190137218833456 0.27930963129074371 0 0.27930963129074371 -2.3914213065536387 0 0 0 0 -0.47135434032916024 0.29763843265243395 0 0.29763843265243395 -1.8917726714134915 0 0 0 0 -0.061640953096741669 0.5380648128584653 0 0.5380648128584653 -2.151253420910507 0 0 0 0 -0.018699079879936131 0.51995564638039493 0 0.51995564638039493 -2.8528733993989306 0 0 0 0 0.23308517431076889 -0.53549079586458337 0 -0.53549079586458337 -0.76880685077091471 0 0 0 0 -0.17131471809969945 -0.67697865320951678 0 -0.67697865320951678 -0.31485051994241076 0 0 0 0 0.22454010665597224 -0.50870715230303176 0 -0.50870715230303176 -1.9706036589041105 0 0 0 0 0.096158361373191781 -0.14763871238210413 0 -0.14763871238210413 -2.1528777180283214 0 0 0 0 -0.13116287358484868 -0.41451007695468434 0 -0.41451007695468434 -1.4690200685126911 0 0 0 0 -0.2037108076523283 -0.13259209719649334 0 -0.13259209719649334 -1.7468238877554541 0 0 0 0 -1.5950575731120455 -2.60527974732031 0 -2.60527974732031 -1.9078553154995461 0 0 0 0 -0.78441175025288956 -1.1017770557509721 0 -1.1017770557509721 0.12702554140560096 0 0 0 0 1.6425908505240123 -1.2084034687986787 0 -1.2084034687986787 -5.9365761635344825 0 0 0 0 0.067406474515880471 -0.42242440382907276 0 -0.42242440382907276 -0.21876949365101783 0 0 0 0 2.643074930635553 0.63182019358646357 0 0.63182019358646357 -2.8444895487518806 0 0 0 0 -9.7175365981394375 -7.0528637747529501 0 -7.0528637747529501 -6.3548321508671961 0 0 0 0 0.040097985853055511 0.11228291353789288 0 0.11228291353789288 -0.94438207901868765 0 0 0 0 -3.5005797414082602 -11.540820203873409 0 -11.540820203873409 -5.7138889021862269 0 0 0 0 -0.028925368054102785 0.066818638216599169 0 0.066818638216599169 -0.25314863194842196 0 0 0 0 7.3373466962330269 -1.201088698343483 0 -1.201088698343483 -8.2631897833189214 0 0 0 0 1.2629928865510491 0.51758280972129356 0 0.51758280972129356 -7.3553553052943101 0 0 0 0 19.092266334860994 25.162499987613501 0 25.162499987613501 24.312743844649958 0 0 0 0 -5.5611293083693454 -1.6955795525623216 0 -1.6955795525623216 5.2047881221351417 0 0 0 0 -0.30259840609079447 1.739884460452231 0 1.739884460452231 -4.2688497170311166 0 0 0 0 2.6199694373112123 1.3582603519471377 0 1.3582603519471377 -8.1373721760955959 0 0 0 0 -0.51156255259243721 2.8647665576390864 0 2.8647665576390864 -5.1007883728307206 0 0 0 0 0.33907275551825933 2.9005070662169601 0 2.9005070662169601 -7.0197121685396269 0 0 0 0 0.39256776290722362 -1.7089966686431062 0 -1.7089966686431062 -2.1916313449693554 0 0 0 0 0.34728561285999149 1.7728897702309041 0 1.7728897702309041 -7.1188267368563629 0 0 0 0 -1.5538415357113493 -4.4641170631975911 0 -4.4641170631975911 -4.7966931128466967 0 0 0 0 -0.63634134993554881 0.23247889869526261 0 0.23247889869526261 -5.0920806455687853 0 0 0 0 -1.0623182369141659 1.552776288838686 0 1.552776288838686 -1.9414505135609943 0 0 0 0 -0.49567965699449468 0.80568562449646741 0 0.80568562449646741 -1.431245393350089 0 0 0 0 -2.850426980432907 1.6432017662086764 0 1.6432017662086764 -1.945051209140729 0 0 0 0 -13.373929204679831 2.8188739125916982 0 2.8188739125916982 -0.61279907709649706 0 0 0 0 -1.4781339119701613 3.0051054621053481 0 3.0051054621053481 -0.90011146727874802 0 0 0 0 0.68747119932120881 3.0198837764938844 0 3.0198837764938844 -3.5358863417059183 0 0 0 0 -0.1420951420433596 1.5740746675601258 0 1.5740746675601258 -4.3560137256972666 0 0 0 0 0.69803748043248248 2.3990915932884036 0 2.3990915932884036 -3.7504273751364963 0 0 0 0 0.73743018432866592 2.3882352345010531 0 2.3882352345010531 -4.5098109040118288 0 0 0 0 0.67053862434341127 2.8890974506705334 0 2.8890974506705334 -4.2873882640869851 0 0 0 0 10.609789099159897 5.192934877618427 0 5.192934877618427 -7.2530177063699739 0 0 0 0 14.196368347249802 9.5679142932485775 0 9.5679142932485775 -7.4670860934575103 0 0 0 0 0.45274719483692283 -0.50096689947949358 0 -0.50096689947949358 -9.366729975977826 0 0 0 0 -2.8774364053246018 -1.1363575018867778 0 -1.1363575018867778 -10.298937503219349 0 0 0 0 -30.449686541247615 -19.83968447063944 0 -19.83968447063944 -10.436429004739068 0 0 0 0 -5.8273639257238301 -1.9314119516984647 0 -1.9314119516984647 -17.215248251250159 0 0 0 0 0.6716801952038427 -0.65035616114900385 0 -0.65035616114900385 -6.8312092061496017 0 0 0 0 6.3991596196668752 4.3382316262404856 0 4.3382316262404856 -6.2072617487333446 0 0 0 0 2.3765742721576468 1.5118063987996777 0 1.5118063987996777 -0.81342998733732053 0 0 0 0 18.817060067315083 -13.561740123725031 0 -13.561740123725031 10.976932980745914 0 0 0 0 0.20738178636073307 0.14220424578963353 0 0.14220424578963353 -2.023895005745274 0 0 0 0 -22.52089278277208 -39.563563545312718 0 -39.563563545312718 -72.389028738547495 0 0 0 0 -0.14853237962294186 -0.22646452914705861 0 -0.22646452914705861 -1.1710492413266422 0 0 0 0 -60.495557479494209 0.51206582289978542 0 0.51206582289978542 7.480068751177896 0 0 0 0 -72.0096725711619 -41.632822828829376 0 -41.632822828829376 -48.51955945489135 0 0 0 0 -66.426212530534997 -58.344751548213935 0 -58.344751548213935 -34.963712160877549 0 0 0 0 -0.0015123577048125614 -0.058716659547681793 0 -0.058716659547681793 -0.8250883971225349 0 0 0 0 -135.44357274690367 -111.93245311351166 0 -111.93245311351166 -67.140928410578454 0 0 0 0 62.66847130366429 11.79275763239616 0 11.79275763239616 -50.351059757525945 0 0 0 0 -26.026156764019902 -38.775584532287212 0 -38.775584532287212 -3.086028378971605 0 0 0 0 -9.6899858923347892 16.880748122976001 0 16.880748122976001 -103.69838404545499 0 0 0 0 -7.7550367226699564 3.8571360097676006 0 3.8571360097676006 -65.484556083619736 0 0 0 0 -19.081045328784626 -60.279994913540577 0 -60.279994913540577 -159.31812664503468 0 0 0 0 -31.171847433261291 -24.55993811631015 0 -24.55993811631015 -44.752585098714917 0 0 0 0 -1.9254838825434035 -0.23994709609632991 0 -0.23994709609632991 -1.5163390905454435 0 0 0 0 -31.150368189216465 2.0412799943055688 0 2.0412799943055688 1.3430544102375279 0 0 0 0 -11.373581844243603 -1.2498914745256116 0 -1.2498914745256116 17.098660061828923 0 0 0 0 -2.5517534969059392 -2.3957166361603157 0 -2.3957166361603157 -2.1776516095111162 0 0 0 0 24.829036367045582 -33.352543936279289 0 -33.352543936279289 -4.2085845551064267 0 0 0 0 -10.337699399748402 -43.698705681770321 0 -43.698705681770321 30.630619787365504 0 0 0 0 -33.032377025857556 24.006718204244862 0 24.006718204244862 -0.9662253523383697 0 0 0 0 -125.43258346086782 -30.858877656039112 0 -30.858877656039112 21.85844219461319 0 0 0 0 -1.0420454690427561 -0.98849269059273759 0 -0.98849269059273759 -0.92417334838032872 0 0 0 0 -62.813201701410549 -52.520853139286373 0 -52.520853139286373 -39.586493872524443 0 0 0 0 2.6926504236153121 8.0980617945879203 0 8.0980617945879203 7.0084909216448068 0 0 0 0 -4.6488551029581231 -0.8553568947909298 0 -0.8553568947909298 -31.452842551140066 0 0 0 0 -78.06434501666044 -81.438918549871232 0 -81.438918549871232 -43.298540770185355 0 0 0 0 -93.61455653391954 -70.588166047946288 0 -70.588166047946288 -46.855672072815651 0 0 0 0 -65.669050730838762 -112.61015241972564 0 -112.61015241972564 -25.42965345049015 0 0 0 0 -132.34440744596537 -86.858499170586583 0 -86.858499170586583 5.1375404056207117 0 0 0 0 -75.081519739434611 -68.013600114551991 0 -68.013600114551991 11.324158300956697 0 0 0 0 1.0946463740277972 0.48775655787590999 0 0.48775655787590999 -8.3160681920615218 0 0 0 0 66.849272164458625 79.497582273951139 0 79.497582273951139 -132.12105500817233 0 0 0 0 22.809546005004734 -66.547578531130057 0 -66.547578531130057 -172.4052360438418 0 0 0 0 8.4948472150716725 -80.185508439388286 0 -80.185508439388286 -168.00626365793278 0 0 0 0 -40.274963933228683 10.119714390469767 0 10.119714390469767 44.306485010358301 0 0 0 0 -95.778940966934755 -54.225716342985834 0 -54.225716342985834 7.9405449856967607 0 0 0 0 -19.98585218245735 -12.845658259491756 0 -12.845658259491756 -5.8134033737680966 0 0 0 0 -0.006348646756376336 0.026437417302593857 0 0.026437417302593857 -0.32901089605496026 0 0 0 0 -7.2992749302789957 7.0571062035578507 0 7.0571062035578507 -2.494132668297425 0 0 0 0 -0.25319088771642395 6.3128939382859244 0 6.3128939382859244 -24.912823772907359 0 0 0 0 -19.255508350036379 -12.395003411506138 0 -12.395003411506138 -7.2211528734878812 0 0 0 0 -1.2852931672212744 -9.6494472456297444 0 -9.6494472456297444 -32.980033624868156 0 0 0 0 28.448142039849593 -0.77485462555523554 0 -0.77485462555523554 -37.038412011824221 0 0 0 0 -21.440146357591146 16.609571575884729 0 16.609571575884729 6.7714781610629871 0 0 0 0 1.3920153395439792 -0.10669146502584681 0 -0.10669146502584681 -7.4068083279741614 0 0 0 0 49.106450389340978 -35.010461916722761 0 -35.010461916722761 -13.550227203144459 0 0 0 0 15.711921320565409 19.178684061754211 0 19.178684061754211 -4.571259854681557 0 0 0 0 0.1848533921165938 -0.043262392106038661 0 -0.043262392106038661 -0.29662994319920699 0 0 0 0 -24.129863748883963 -13.930979039238082 0 -13.930979039238082 5.2071420901156671 0 0 0 0 2.8082170146093648 2.7971182672708892 0 2.7971182672708892 0.033274853557372808 0 0 0 0 2.0826160621232779 -1.5673690943531255 0 -1.5673690943531255 -0.48969224379527532 0 0 0 0 -2.4081519806004161 1.9367122347257464 0 1.9367122347257464 -1.8132553601863037 0 0 0 0 0.029708236923199127 -2.7014294362315923 0 -2.7014294362315923 -12.026213498623292 0 0 0 0 -2.4003135600112371 -4.6147453124685853 0 -4.6147453124685853 -10.445305806388205 0 0 0 0 0.0038043373762050321 -0.0065043364954195937 0 -0.0065043364954195937 -0.020571167019127756 0 0 0 0 -0.88138062454124899 0.070338627504497708 0 0.070338627504497708 -1.6341735962851089 0 0 0 0 -3.0010451815444386 -2.5895653689800611 0 -2.5895653689800611 -0.21548359367261583 0 0 0 0 -2.1306210062238349 -2.9994014514095397 0 -2.9994014514095397 -1.6407769074932048 0 0 0 0 -0.0010657799863354031 -1.2382944998621388 0 -1.2382944998621388 -9.4699902357569954 0 0 0 0 0.063254690537533742 -3.0510114649905518 0 -3.0510114649905518 -11.803043640344185 0 0 0 0 0.0033508193433222813 -1.1888073243544568 0 -1.1888073243544568 -14.360705867472461 0 0 0 0 0.36028976492456621 -3.7918535608259845 0 -3.7918535608259845 -13.278645783298998 0 0 0 0 1.5201818753988432 0.56483540035168289 0 0.56483540035168289 -18.843415363080567 0 0 0 0 -1.3496641867023049 3.8122698475144716 0 3.8122698475144716 -6.1561214255102641 0 0 0 0 1.4544174646160291 1.1057718204264688 0 1.1057718204264688 -11.091662870614527 0 0 0 0 0.063840834994829621 -30.212220672702642 0 -30.212220672702642 -212.18002773521221 0 0 0 0 -0.20641414337273595 0.23934712656145329 0 0.23934712656145329 -0.70092159582786451 0 0 0 0 -36.324946763095284 -19.03196291079621 0 -19.03196291079621 -226.5430552822445 0 0 0 0 -38.003160806050438 -81.216540955711025 0 -81.216540955711025 -162.20951232700827 0 0 0 0 -15.863888899645886 -55.870021945713233 0 -55.870021945713233 -172.86297096932685 0 0 0 0 -16.580221840533525 -0.65367356666638443 0 -0.65367356666638443 0.36911876100930385 0 0 0 0 -0.89266740900647912 -0.33018464711526008 0 -0.33018464711526008 0.049178486640968799 0 0 0 0 -1.9248102261177671 -0.82509773854346591 0 -0.82509773854346591 -1.3163336002955148 0 0 0 0 -0.0087579820458704386 -0.82611149551121343 0 -0.82611149551121343 -2.9528418958780094 0 0 0 0 -34.802970742141852 32.687082762262435 0 32.687082762262435 -32.62461776679811 0 0 0 0 0.21309880786562002 -0.16097652160705422 0 -0.16097652160705422 -0.2753062606692378 0 0 0 0 0.12463076920146854 -1.3519189234302758 0 -1.3519189234302758 -3.932705860812348 0 0 0 0 -2.4085449100538634 -2.7232593828102836 0 -2.7232593828102836 -3.2304751644824137 0 0 0 0 -0.0023237582688807696 0.14405238395738706 0 0.14405238395738706 -1.4387199017295416 0 0 0 0 0.0020750133751849449 -0.0031656204473780036 0 -0.0031656204473780036 -0.015006110358982028 0 0 0 0 0.41765771354439818 -0.14268255626905102 0 -0.14268255626905102 -2.9097551317663601 0 0 0 0 0.86914735984987601 -2.3966391618841953 0 -2.3966391618841953 -8.3135006802790485 0 0 0 0 -3.6955956847459674 -2.8077217944301083 0 -2.8077217944301083 -2.0626667484539212 0 0 0 0 0.32439252852738343 -0.65213776956525749 0 -0.65213776956525749 -1.7887003734222731 0 0 0 0 0.67983278851892204 -1.1853887296121055 0 -1.1853887296121055 -1.2171532196816486 0 0 0 0 0.86558474796878437 -1.1515568023505693 0 -1.1515568023505693 -3.2374115843140316 0 0 0 0 1.80068925611454 -0.87887564323237299 0 -0.87887564323237299 -5.1855057262790112 0 0 0 0 -80.503127316487507 -11.082048283489712 0 -11.082048283489712 7.8612643384221883 0 0 0 0 -0.55744073945041994 -0.50685985682960677 0 -0.50685985682960677 -0.7908628504237285 0 0 0 0 -68.125425498487431 -62.921445711462411 0 -62.921445711462411 39.277549396703762 0 0 0 0 -3.7782962651382377 -9.9677030615926014 0 -9.9677030615926014 -17.58403869608992 0 0 0 0 -109.16312992012354 -110.7869769945064 0 -110.7869769945064 -72.566200959790876 0 0 0 0 -88.971218661729949 -1.1005565242739976 0 -1.1005565242739976 -2.1220369894635951 0 0 0 0 -61.267887516513326 25.347714235676904 0 25.347714235676904 -11.140770439077642 0 0 0 0 -189.19702363734129 -56.563817206384556 0 -56.563817206384556 40.319282078466131 0 0 0 0 -117.46923548118949 -116.01669916882747 0 -116.01669916882747 -134.7310111610077 0 0 0 0 -142.18781761424978 -103.90780869035279 0 -103.90780869035279 -82.14977640736106 0 0 0 0 -2.0684011334805734 0.1759440254922815 0 0.1759440254922815 -0.20925457641716072 0 0 0 0 -81.002246841796449 -109.02834527217419 0 -109.02834527217419 -168.80530090848606 0 0 0 0 -32.248353040455385 -70.915958198181215 0 -70.915958198181215 -139.40852362631267 0 0 0 0 -84.956876800512461 -77.820446863345296 0 -77.820446863345296 -104.17125630207738 0 0 0 0 -87.967988094028698 -67.586669103286113 0 -67.586669103286113 -136.79767734686175 0 0 0 0 -108.74890921263327 -61.35031321572751 0 -61.35031321572751 -115.39604782299466 0 0 0 0 -108.79040411636254 -63.43833597426601 0 -63.43833597426601 -73.436607619863935 0 0 0 0 -98.280477486663273 -56.781579331949615 0 -56.781579331949615 -90.653299052559305 0 0 0 0 -96.151164949286965 -74.382413363675369 0 -74.382413363675369 -97.167619903595551 0 0 0 0 -44.167055798118781 -65.315488655509398 0 -65.315488655509398 -5.7982454361517739 0 0 0 0 -43.299981167646649 -73.3020405961488 0 -73.3020405961488 -86.388865796991013 0 0 0 0 -100.37608031933109 -81.674608245363743 0 -81.674608245363743 -45.034651689016755 0 0 0 0 -90.380858694017434 -35.778493809259089 0 -35.778493809259089 -40.397680626253759 0 0 0 0 29.654793927095056 -0.63393288685801963 0 -0.63393288685801963 -14.496560648612103 0 0 0 0 96.843410589296923 -0.75051853173681593 0 -0.75051853173681593 48.41160372300692 0 0 0 0 52.88804355297966 -86.971628035824779 0 -86.971628035824779 97.287756601705041 0 0 0 0 119.24174805978146 -77.878660129703349 0 -77.878660129703349 73.412556662257657 0 0 0 0 53.748847211033535 -83.44527473418384 0 -83.44527473418384 -29.284508815141407 0 0 0 0 82.908273454309438 -0.058736633847729536 0 -0.058736633847729536 -427.85089260027053 0 0 0 0 -0.056289852595360124 -0.82278756025199584 0 -0.82278756025199584 -1.382295457736884 0 0 0 0 85.904915044320447 -198.13469961088367 0 -198.13469961088367 77.275113983476331 0 0 0 0 -30.617415665271892 218.34191721301249 0 218.34191721301249 -358.57725281997182 0 0 0 0 106.54267978062853 -179.41717037803937 0 -179.41717037803937 -92.175633889797609 0 0 0 0 -130.08095151879292 -56.625876707217003 0 -56.625876707217003 -84.381231055755052 0 0 0 0 -4.9521339799081261 -55.638291619576194 0 -55.638291619576194 -226.60575285706 0 0 0 0 33.34541891181857 -44.503815157055215 0 -44.503815157055215 -223.84356479029157 0 0 0 0 -0.21660974936767996 -0.20622637717812609 0 -0.20622637717812609 0.036167891924081097 0 0 0 0 -45.676923469748147 -84.612192169275659 0 -84.612192169275659 -145.37104125872247 0 0 0 0 -37.365652947228369 -53.598267600968029 0 -53.598267600968029 -116.46768996603168 0 0 0 0 -130.13345463157236 8.3480338376421059 0 8.3480338376421059 246.08960482912516 0 0 0 0 -70.156939204916881 -60.047522652487714 0 -60.047522652487714 149.2241973362452 0 0 0 0 0.87225909037362603 -0.86398900755860808 0 -0.86398900755860808 0.10645499335516106 0 0 0 0 -1.0443330829843092 -4.5974017848402582 0 -4.5974017848402582 -27.568369385715414 0 0 0 0 -102.06374572863015 -77.238960964713442 0 -77.238960964713442 -96.802315667559014 0 0 0 0 88.160670278395457 -21.692990085240581 0 -21.692990085240581 -81.338122374070736 0 0 0 0 -9.6416831237835368 5.9003060130908125 0 5.9003060130908125 -124.96729013907679 0 0 0 0 7.2421499964123086 19.782766116577477 0 19.782766116577477 -114.38381441336423 0 0 0 0 28.215178193698193 -23.553584223376674 0 -23.553584223376674 -55.625257800838881 0 0 0 0 40.109973887840738 -23.045374705949143 0 -23.045374705949143 -121.94112863525515 0 0 0 0 40.135879304156617 -82.718773508813911 0 -82.718773508813911 5.7803153774948441 0 0 0 0 52.122931423244495 -35.738431781757754 0 -35.738431781757754 -97.543821621272855 0 0 0 0 -2.8155664806042466 4.436704276018645 0 4.436704276018645 -1.610284282317366 0 0 0 0 4.0513898471716319 -1.4074468971704448 0 -1.4074468971704448 -1.8885832011739279 0 0 0 0 5.3183943700075815 -51.649303551430421 0 -51.649303551430421 54.786364470413901 0 0 0 0 -2.3979678794963077 -3.3810203619841843 0 -3.3810203619841843 -3.0308646846679572 0 0 0 0 18.365298979456696 -9.968348371963657 0 -9.968348371963657 -15.766567144233704 0 0 0 0 0.44015421877259087 -6.0391541123244679 0 -6.0391541123244679 15.78433221450382 0 0 0 0 19.016840918750404 -10.716284924474166 0 -10.716284924474166 30.214412756487945 0 0 0 0 31.67517581795255 1.423920606423053 0 1.423920606423053 4.1452954502456123 0 0 0 0 42.365145341682137 -29.17771562764392 0 -29.17771562764392 -39.15539421936046 0 0 0 0 32.219952468648444 -5.8760738557357399 0 -5.8760738557357399 9.2635899263223109 0 0 0 0 36.999284020882214 -26.622729305396206 0 -26.622729305396206 -5.7531889592282823 0 0 0 0 39.273115480916886 -41.590492749235636 0 -41.590492749235636 4.7693722704716492 0 0 0 0 40.049833682139251 -34.588463522999518 0 -34.588463522999518 -64.848611335304668 0 0 0 0 44.844363662083879 7.9632078831346007 0 7.9632078831346007 -106.04343222417447 0 0 0 0 47.538455388315469 -4.7987876065399178 0 -4.7987876065399178 -45.968478492090071 0 0 0 0 51.099784618862941 -3.1970862654725352 0 -3.1970862654725352 -47.044764778787794 0 0 0 0 41.258379638518932 4.8386801118895164 0 4.8386801118895164 -15.910688100419065 0 0 0 0 -0.12928454070818463 0.079902761493453767 0 0.079902761493453767 -0.26699125257443335 0 0 0 0 40.415233592146706 -74.494850209126525 0 -74.494850209126525 -411.50347589986995 0 0 0 0 27.125663472463884 57.086078518299473 0 57.086078518299473 40.936921018583234 0 0 0 0 45.320500847637163 68.540562442912233 0 68.540562442912233 -300.43016732071555 0 0 0 0 -21.769090830051937 18.023431692912709 0 18.023431692912709 -207.32731958694058 0 0 0 0 -14.223708704142837 21.098244270848227 0 21.098244270848227 -218.59445134601083 0 0 0 0 68.256161238584411 65.54929411816903 0 65.54929411816903 -185.38890254555008 0 0 0 0 68.493684645236726 77.402970714501862 0 77.402970714501862 -76.466683293067035 0 0 0 0 29.009801785767877 8.3434672621460777 0 8.3434672621460777 -95.136552638887224 0 0 0 0 19.09524461517276 40.074740002579347 0 40.074740002579347 -139.24452187576117 0 0 0 0 30.28253523517958 11.013664678903297 0 11.013664678903297 -233.38564358591611 0 0 0 0 -40.195096981841289 95.859984956585322 0 95.859984956585322 -178.15753296321782 0 0 0 0 13.082862131503362 96.130796275632747 0 96.130796275632747 -215.5577936031973 0 0 0 0 -0.46877904933099868 -2.2901879057694536 0 -2.2901879057694536 -3.5390311001999528 0 0 0 0 83.15682324662373 -7.1069035317768794 0 -7.1069035317768794 -20.688155345473206 0 0 0 0 1.4624918199264427 0.16494314278215327 0 0.16494314278215327 -0.40865802610902335 0 0 0 0 -7.5126643347851996 -31.774180206776691 0 -31.774180206776691 -140.4184131073871 0 0 0 0 168.03028272264754 -41.965612681872017 0 -41.965612681872017 -16.790697786556848 0 0 0 0 4.4962630320545713 5.7066802487715904 0 5.7066802487715904 -10.525328135367999 0 0 0 0 -0.079298360792193989 94.485674463483747 0 94.485674463483747 -47.14025194840724 0 0 0 0 -52.509562492464738 -54.286114770302447 0 -54.286114770302447 -201.94754145987463 0 0 0 0 -0.15670726433588 -0.55777176281839402 0 -0.55777176281839402 0.12250537500914049 0 0 0 0 24.56392355777848 21.338172856070742 0 21.338172856070742 -232.94393074878462 0 0 0 0 0.37760418458137135 -1.4639319281856729 0 -1.4639319281856729 -2.8214558346793837 0 0 0 0 1.954801209946595 -3.179834893539919 0 -3.179834893539919 -0.95146176938578719 0 0 0 0 56.816151453570683 -61.318326805194374 0 -61.318326805194374 83.21537997369478 0 0 0 0 63.357620419374598 -19.84483974603063 0 -19.84483974603063 29.082991965744441 0 0 0 0 -0.3656764354748725 -2.8434254890197721 0 -2.8434254890197721 -1.7692834778745095 0 0 0 0 97.007559668855265 -120.51803606483918 0 -120.51803606483918 79.059093667241541 0 0 0 0 159.9222770969302 -96.444835029076785 0 -96.444835029076785 3.9429382392481784 0 0 0 0 83.976130044929505 -56.267223769129487 0 -56.267223769129487 20.866949012752229 0 0 0 0 112.40851370348901 -39.185489948643408 0 -39.185489948643408 -36.800758017205226 0 0 0 0 62.603288783157552 -7.1430664202689513 0 -7.1430664202689513 -24.701647855537885 0 0 0 0 96.470853270184307 -58.040192742018917 0 -58.040192742018917 -8.4258784329722403 0 0 0 0 80.204691714636738 -24.602739113398457 0 -24.602739113398457 -44.915690760772122 0 0 0 0 49.428956077573048 5.9771004676767916 0 5.9771004676767916 -33.807542305394236 0 0 0 0 71.293331551628057 -23.001990927365114 0 -23.001990927365114 -2.1330122708970976 0 0 0 0 84.892070451306608 -8.6405835074428978 0 -8.6405835074428978 -60.693685818194353 0 0 0 0 74.839667242914629 -10.039966784117496 0 -10.039966784117496 -57.820147241356608 0 0 0 0 47.251682991772213 23.51870944636903 0 23.51870944636903 -64.047787355408218 0 0 0 0 64.980192130026737 -30.185327491919452 0 -30.185327491919452 0.10258718210388906 0 0 0 0 68.321322275441617 -36.621855829897413 0 -36.621855829897413 -15.382779527033563 0 0 0 0 58.927947072402503 -35.619541100486458 0 -35.619541100486458 10.772443531815952 0 0 0 0 35.038347549832679 -13.542181505397821 0 -13.542181505397821 3.0564218723720842 0 0 0 0 23.790316592140698 19.632184897562638 0 19.632184897562638 -28.178498247456446 0 0 0 0 57.125123173973634 1.3369589723397439 0 1.3369589723397439 -50.912726483667939 0 0 0 0 37.476443180664944 39.904759992855361 0 39.904759992855361 -66.289822627175454 0 0 0 0 37.689997800764445 33.132255134788466 0 33.132255134788466 -77.954550754559932 0 0 0 0 32.228146657841307 58.21422667249135 0 58.21422667249135 -97.069758422971063 0 0 0 0 18.472803696536516 58.303282695718735 0 58.303282695718735 -85.539977336533411 0 0 0 0 63.43571414636375 23.106261922318481 0 23.106261922318481 -85.512757455278916 0 0 0 0 51.626490003371032 22.877923777115939 0 22.877923777115939 -79.742023434651855 0 0 0 0 24.341299041775301 56.263162404758077 0 56.263162404758077 -85.624987452898495 0 0 0 0 27.497630253388081 45.46745714849385 0 45.46745714849385 -110.23986436392443 0 0 0 0 28.112575872347406 49.597334180361941 0 49.597334180361941 -100.12453973813763 0 0 0 0 13.808769591797216 65.895962442552445 0 65.895962442552445 -126.46254067771952 0 0 0 0 8.8075082182497226 77.256045930373148 0 77.256045930373148 -115.52513133442449 0 0 0 0 28.925400509123222 57.173284620310369 0 57.173284620310369 -101.26211792254253 0 0 0 0 5.3754568063198604 71.817775043160509 0 71.817775043160509 -119.97397565807478 0 0 0 0 -3.1885980704810208 74.801466690787493 0 74.801466690787493 -85.294497975709987 0 0 0 0 -20.679326427652725 98.444419791824657 0 98.444419791824657 -112.05892621146995 0 0 0 0 6.7975530840261342 77.709589655339187 0 77.709589655339187 -104.83982717042818 0 0 0 0 -38.057229063180841 88.355311782028366 0 88.355311782028366 -82.168113016521147 0 0 0 0 -56.621911113046778 97.182268282605946 0 97.182268282605946 -123.68078941987551 0 0 0 0 -62.469250443112941 121.32731103174774 0 121.32731103174774 -126.51718746215192 0 0 0 0 -15.532688847948691 90.642471236762503 0 90.642471236762503 -173.15613833609314 0 0 0 0 -15.463804187229641 84.607888400216325 0 84.607888400216325 -125.91852057844153 0 0 0 0 -19.483098211752406 64.570564148854828 0 64.570564148854828 -134.29489945805835 0 0 0 0 4.096837681838565 52.290129808625352 0 52.290129808625352 -143.55274100871793 0 0 0 0 -27.272583003290407 50.084747515982599 0 50.084747515982599 -154.03052065052361 0 0 0 0 -43.44267848844305 75.625165330650816 0 75.625165330650816 -190.79574255995612 0 0 0 0 -57.387528941672912 3.9207411014394893 0 3.9207411014394893 -163.93603476601493 0 0 0 0 -25.910998209518198 30.252718796116824 0 30.252718796116824 -145.95417280709444 0 0 0 0 -65.740452586366501 -11.138870697031962 0 -11.138870697031962 -100.8822856376064 0 0 0 0 -3.9153566155688964 33.393503965221498 0 33.393503965221498 -95.50097883775743 0 0 0 0 18.156143318851832 -4.8657848486145667 0 -4.8657848486145667 -100.18804442604096 0 0 0 0 4.6992064147145811 44.394394029477553 0 44.394394029477553 -156.98014082557165 0 0 0 0 -19.865992977652752 13.278728509897064 0 13.278728509897064 -120.85808324641039 0 0 0 0 32.745813468586846 30.592355234721254 0 30.592355234721254 -124.57117787511015 0 0 0 0 6.4462826748050475 31.302721257468875 0 31.302721257468875 -110.26761456014447 0 0 0 0 57.906249517625156 17.243398279752 0 17.243398279752 -99.211036826603504 0 0 0 0 30.300637036336298 18.778871589678602 0 18.778871589678602 -76.662414746813738 0 0 0 0 48.647559570683597 22.868502176055699 0 22.868502176055699 -79.471173927173368 0 0 0 0 73.175263833512417 -14.624249261814839 0 -14.624249261814839 -70.588270410858058 0 0 0 0 53.376430805785958 -16.33744002419553 0 -16.33744002419553 -50.39404082659712 0 0 0 0 29.79850442345446 17.638045520920059 0 17.638045520920059 -64.02364815072724 0 0 0 0 80.191478233682673 -10.782478839385931 0 -10.782478839385931 -56.184909999734373 0 0 0 0 82.381293038376725 -42.571069230098146 0 -42.571069230098146 -3.2963636848326132 0 0 0 0 44.428942137219792 -49.710008930815093 0 -49.710008930815093 11.155241169970395 0 0 0 0 -37.995262247552944 -44.329556087539459 0 -44.329556087539459 -36.123579287963366 0 0 0 0 -38.12812993378698 -35.62108738704984 0 -35.62108738704984 -75.247620757822006 0 0 0 0 -79.864340696523044 -21.911928948842615 0 -21.911928948842615 -58.913506919550855 0 0 0 0 -36.708482184998523 -6.3825675804450555 0 -6.3825675804450555 -110.49652379354666 0 0 0 0 -36.730360521194541 -5.984716108552675 0 -5.984716108552675 -54.205134085412283 0 0 0 0 -5.9977988968087459 15.373301163963333 0 15.373301163963333 -41.662866447877605 0 0 0 0 -103.48445838642891 -21.836488944436496 0 -21.836488944436496 -141.46717101423201 0 0 0 0 -139.56864649646025 -13.220626654740045 0 -13.220626654740045 -111.20690636944983 0 0 0 0 -104.99473422129577 -17.240606088704226 0 -17.240606088704226 -98.224766818109856 0 0 0 0 -80.973953789007453 -30.045446945241565 0 -30.045446945241565 -110.35346310961722 0 0 0 0 -113.12674693622752 -31.973036038524697 0 -31.973036038524697 -75.51844408758916 0 0 0 0 -109.21778799265722 -33.1473674874278 0 -33.1473674874278 -117.56002300845648 0 0 0 0 -112.78709987105579 -35.566952043138372 0 -35.566952043138372 -105.34539918044629 0 0 0 0 -87.942047451071517 -25.017311239570063 0 -25.017311239570063 -147.78942183158142 0 0 0 0 -92.79503023711122 -9.270033823934682 0 -9.270033823934682 -162.87057602112327 0 0 0 0 -115.39608153493805 11.017648333646775 0 11.017648333646775 -155.68521028720352 0 0 0 0 -111.43793148605376 -5.6233796425922264 0 -5.6233796425922264 -137.17870183388368 0 0 0 0 -114.95079938359295 3.1016525965842447 0 3.1016525965842447 -148.64480770803857 0 0 0 0 -177.61585829150459 18.025705524475597 0 18.025705524475597 -144.03318290556854 0 0 0 0 -113.37657070247153 41.716822641408271 0 41.716822641408271 -188.24990254139993 0 0 0 0 -268.42964093190085 60.827551112482979 0 60.827551112482979 -190.01317834863221 0 0 0 0 -109.46852807764672 -16.206820806314681 0 -16.206820806314681 -224.00926888453978 0 0 0 0 -150.06426709930878 27.85289527443274 0 27.85289527443274 -187.22253823672258 0 0 0 0 -123.81851476067409 -15.084057287618634 0 -15.084057287618634 -185.7041175619762 0 0 0 0 -122.34988278394501 1.442306086741155 0 1.442306086741155 -134.74170526264425 0 0 0 0 -95.537361312753063 -21.257959580085299 0 -21.257959580085299 -151.50481711512293 0 0 0 0 -67.006409614083978 -1.7095788764820554 0 -1.7095788764820554 -139.0863310764762 0 0 0 0 -75.010677215715276 26.625285495994831 0 26.625285495994831 -171.23088398734581 0 0 0 0 -75.099235807657266 85.567658608822967 0 85.567658608822967 -266.23116387121718 0 0 0 0 -180.44036703227266 175.52870238496325 0 175.52870238496325 -209.47369029665424 0 0 0 0 -99.797747108511487 62.256022328225299 0 62.256022328225299 -268.32437296162243 0 0 0 0 -64.440371974686897 124.62645358682676 0 124.62645358682676 -208.23433182380722 0 0 0 0 -61.91056179691806 55.226327801979096 0 55.226327801979096 -196.52202478314939 0 0 0 0 -123.10073657712405 128.86563697758356 0 128.86563697758356 -125.75748800184738 0 0 0 0 -122.75425015310232 113.51645785547768 0 113.51645785547768 -142.8471184239279 0 0 0 0 -118.27157859739351 83.899536195380506 0 83.899536195380506 -34.95265777878376 0 0 0 0 -182.69424648393101 147.13482909845879 0 147.13482909845879 -96.971783786171727 0 0 0 0 -73.652882944020689 97.93361357825188 0 97.93361357825188 -107.98127114120143 0 0 0 0 -122.92715664487088 117.05309393090829 0 117.05309393090829 -57.687847368187249 0 0 0 0 -0.24782806205478294 0.61336822842533079 0 0.61336822842533079 -3.3114439771424244 0 0 0 0 -45.775000463880787 -17.587546428761016 0 -17.587546428761016 93.442791634257446 0 0 0 0 -271.9678964478062 136.46094150477165 0 136.46094150477165 -90.32793115829918 0 0 0 0 -0.03275234645624224 -0.28628441503077084 0 -0.28628441503077084 0.48353987748008365 0 0 0 0 -9.644531496899333 -26.033463477054283 0 -26.033463477054283 -176.92925449962058 0 0 0 0 46.093808337690007 -41.403785972729111 0 -41.403785972729111 -54.307027049741009 0 0 0 0 -219.26079109148748 56.959822725690174 0 56.959822725690174 10.753378943350981 0 0 0 0 -183.34594664308889 192.70279696676289 0 192.70279696676289 -295.12982719222055 0 0 0 0 -112.29810701185249 105.94765792989074 0 105.94765792989074 -420.56688555062283 0 0 0 0 -204.3907200745233 -55.556891413991252 0 -55.556891413991252 -315.20035390315388 0 0 0 0 66.103486279149422 35.685090725594819 0 35.685090725594819 -362.45745280266965 0 0 0 0 -142.68755912368567 140.27235797628146 0 140.27235797628146 -289.19459063035538 0 0 0 0 -17.351716355183346 -10.932182695552456 0 -10.932182695552456 -181.63463682601468 0 0 0 0 16.49029180551269 7.8359655946660496 0 7.8359655946660496 -245.88418653043482 0 0 0 0 41.696363144489808 -22.585438859163332 0 -22.585438859163332 -133.3863511215859 0 0 0 0 -5.1135270829080852 4.5373028457324835 0 4.5373028457324835 -118.68584992217802 0 0 0 0 40.601261453779586 2.723975185677773 0 2.723975185677773 -179.36952053593268 0 0 0 0 13.490911612717269 -40.064447312441189 0 -40.064447312441189 -39.041433729169512 0 0 0 0 -12.685296990999035 -16.560862056707265 0 -16.560862056707265 -47.727554340555798 0 0 0 0 0.029956841169462858 8.6950256084537614 0 8.6950256084537614 -146.1248030522147 0 0 0 0 10.606646664679872 -29.675519958171208 0 -29.675519958171208 -171.52149784574613 0 0 0 0 -8.8665731205960618 10.568191020853192 0 10.568191020853192 -205.92142118731863 0 0 0 0 -0.03123629386813824 8.1855742062716672 0 8.1855742062716672 -220.27218940448256 0 0 0 0 -0.3348772097226238 15.771721335666371 0 15.771721335666371 -221.403607586828 0 0 0 0 -29.548575745625357 39.726882885324812 0 39.726882885324812 -228.97709472681981 0 0 0 0 -20.571672053930271 52.516019545691961 0 52.516019545691961 -242.78639556113558 0 0 0 0 -120.06816128749126 63.447195620077764 0 63.447195620077764 -203.85503175556732 0 0 0 0 -36.570505126744003 30.730330146479901 0 30.730330146479901 -224.45946588346942 0 0 0 0 -56.010217303648034 20.989356893888726 0 20.989356893888726 -201.2671482181504 0 0 0 0 -67.952687320387042 33.368289130365156 0 33.368289130365156 -188.75771318219631 0 0 0 0 -73.47781467301553 -12.182305020263811 0 -12.182305020263811 -171.01429398958453 0 0 0 0 -43.928863050168218 11.819783468199603 0 11.819783468199603 -212.8755582130334 0 0 0 0 -40.253136564241366 2.9653759148559402 0 2.9653759148559402 -194.50149632850298 0 0 0 0 -49.301764395741614 2.1882429219986079 0 2.1882429219986079 -214.01505836832075 0 0 0 0 -16.864952215757576 1.9233506798072995 0 1.9233506798072995 -214.50123209253252 0 0 0 0 29.593181837300563 -45.20004924742716 0 -45.20004924742716 -100.76523138620678 0 0 0 0 10.364671118229211 3.157557008521632 0 3.157557008521632 -3.5751959084333471 0 0 0 0 18.565200560600033 6.3118667505841586 0 6.3118667505841586 -75.249062932460674 0 0 0 0 11.396616656551487 1.7845607266949628 0 1.7845607266949628 -17.789522115119325 0 0 0 0 10.245309491813714 1.7761478542820441 0 1.7761478542820441 -10.939243787445776 0 0 0 0 11.42571262247111 1.3589097667827446 0 1.3589097667827446 -11.70927895926161 0 0 0 0 8.6418115095480061 -0.36622841314147081 0 -0.36622841314147081 -9.9484980012084634 0 0 0 0 12.007150097006502 -2.6233546031977539 0 -2.6233546031977539 -8.5582081054417358 0 0 0 0 10.145395485084464 -31.263723616000789 0 -31.263723616000789 -69.175860377954905 0 0 0 0 13.030489497696031 2.2071783749788239 0 2.2071783749788239 -2.8453983909934148 0 0 0 0 -2.6274701730533252 -16.966668659078096 0 -16.966668659078096 -24.629084868095561 0 0 0 0 4.5133957311472841 -23.793659391361871 0 -23.793659391361871 -21.737015219407567 0 0 0 0 4.843365611989384 -25.891107620411731 0 -25.891107620411731 -36.394459223374724 0 0 0 0 -0.4541090117161275 -18.547277224723985 0 -18.547277224723985 -3.8809573139624263 0 0 0 0 -2.376331987606326 -21.178082586496625 0 -21.178082586496625 -12.663093509634564 0 0 0 0 -2.3537820179208691 -18.275509792016596 0 -18.275509792016596 -3.887864110778537 0 0 0 0 -3.3192470230319486 -19.95518218862253 0 -19.95518218862253 -4.8979384006670443 0 0 0 0 13.500581745356271 -18.858444670830977 0 -18.858444670830977 -4.9497836305345118 0 0 0 0 6.0092537200700917 -16.29438138788646 0 -16.29438138788646 9.6400430203301255 0 0 0 0 10.524744437908254 -12.383481144873258 0 -12.383481144873258 0.80775620256645198 0 0 0 0 10.046886016955355 -19.160053219429983 0 -19.160053219429983 -0.49520832150483329 0 0 0 0 5.2683700914294711 -20.383150501853606 0 -20.383150501853606 -20.212543369834748 0 0 0 0 11.62758728506526 -18.448525085169422 0 -18.448525085169422 -24.67567287555903 0 0 0 0 0.70448697002419181 -32.878376938600013 0 -32.878376938600013 -27.89862912103672 0 0 0 0 19.014613460917673 -18.207417090174204 0 -18.207417090174204 -21.197136025603641 0 0 0 0 31.819033246617636 -39.253960986362017 0 -39.253960986362017 1.3420817527603504 0 0 0 0 -3.0910250987328141 -71.25189179786139 0 -71.25189179786139 52.917075618953277 0 0 0 0 24.99617301832285 -55.224604446530293 0 -55.224604446530293 -7.706861226419278 0 0 0 0 20.658081609387182 -34.264218424230876 0 -34.264218424230876 -9.4758136245382047 0 0 0 0 27.693208820406483 -47.442222172864376 0 -47.442222172864376 14.716295424217606 0 0 0 0 2.3361633082008666 -11.096667328860349 0 -11.096667328860349 16.540543779233303 0 0 0 0 -2.2533269546632937 -25.900158006948914 0 -25.900158006948914 10.593378351867614 0 0 0 0 9.0961255331419579 -19.362301069408204 0 -19.362301069408204 11.900203875955413 0 0 0 0 -3.7528584659281705 -21.440471506352878 0 -21.440471506352878 107.4390889969518 0 0 0 0 0.48794921670201141 0.0063560588408115848 0 0.0063560588408115848 -0.080667075996768034 0 0 0 0 42.648745447207261 -32.617435905289767 0 -32.617435905289767 -244.06069163580651 0 0 0 0 17.542379549704492 2.8556800856440532 0 2.8556800856440532 -6.7117386391873879 0 0 0 0 2.1075127594791443 -0.99044808102374837 0 -0.99044808102374837 -5.3486327948736516 0 0 0 0 25.075060387491249 12.610120041237678 0 12.610120041237678 -14.445673888039892 0 0 0 0 5.5839764579017368 -4.044127706938859 0 -4.044127706938859 -6.6452856712748414 0 0 0 0 5.8214582623877504 3.011789401898568 0 3.011789401898568 -5.0231630967318779 0 0 0 0 2.3676327579677996 -3.6111509215321433 0 -3.6111509215321433 -7.8288408362902864 0 0 0 0 3.4310342908429448 -3.0073783846455626 0 -3.0073783846455626 -4.7618744114734 0 0 0 0 1.9509779547039123 -3.2163686738191597 0 -3.2163686738191597 -7.754550972503985 0 0 0 0 0.60137490275494088 -3.3867750570896078 0 -3.3867750570896078 -2.1533007464604452 0 0 0 0 -5.5636520168227435 -3.0155560502498702 0 -3.0155560502498702 -11.581528191256439 0 0 0 0 0.3341799232209679 -1.7890659472239658 0 -1.7890659472239658 -2.0701101819373293 0 0 0 0 -6.6666495979970932 -12.250173840875505 0 -12.250173840875505 -22.104322987805062 0 0 0 0 -14.777977858184386 -13.448709967229661 0 -13.448709967229661 -12.612573337180947 0 0 0 0 36.359444642526569 -20.74702970593944 0 -20.74702970593944 -14.175433511416486 0 0 0 0 13.46431407791124 -13.665643892096341 0 -13.665643892096341 -14.720791705394731 0 0 0 0 26.198422766842668 -28.050474562092859 0 -28.050474562092859 -2.632402048397239 0 0 0 0 7.8956985332065415 -15.202301599072598 0 -15.202301599072598 0.19164094298503187 0 0 0 0 6.7388282449437611 -13.224285392170714 0 -13.224285392170714 -1.9814555918804899 0 0 0 0 -1.4256207596231434 -5.1233476633969985 0 -5.1233476633969985 7.1176359209567863 0 0 0 0 5.4017095895796956 -12.049355772625859 0 -12.049355772625859 6.5890389123269415 0 0 0 0 -0.55318255598876931 -1.7071026113007974 0 -1.7071026113007974 0.41180252498452319 0 0 0 0 3.3381252204302427 -6.03013119514344 0 -6.03013119514344 -5.3323416676685156 0 0 0 0 11.879129782594646 -11.080596428362696 0 -11.080596428362696 -5.747828478251904 0 0 0 0 -0.77734114271877042 -3.8016538870267187 0 -3.8016538870267187 -6.2334055536065804 0 0 0 0 -1.8063943606621251 -4.6693253840476245 0 -4.6693253840476245 -5.3660089665427222 0 0 0 0 3.8671892316128833 -0.80459425873868895 0 -0.80459425873868895 -8.2594774946519465 0 0 0 0 -8.574082032786464 -12.092303574852849 0 -12.092303574852849 -12.247032792280152 0 0 0 0 0.4504832013781197 -2.0653179988912598 0 -2.0653179988912598 -12.550406390248099 0 0 0 0 -4.8893981005312526 -9.835813698842685 0 -9.835813698842685 -11.356812242529486 0 0 0 0 7.6868732614577766 0.24127450219720004 0 0.24127450219720004 -8.6862953384697903 0 0 0 0 7.3293241729954275 -3.122023140755573 0 -3.122023140755573 -8.1394459989242023 0 0 0 0 7.3087802836616902 -3.0625229413089983 0 -3.0625229413089983 -8.1498492144255579 0 0 0 0 18.511017560049368 -6.009735701536556 0 -6.009735701536556 -10.882515330966271 0 0 0 0 9.4716785402929418 -1.6497325561413163 0 -1.6497325561413163 -8.0669490986838355 0 0 0 0 18.401930256932246 -7.143666501295229 0 -7.143666501295229 -21.11764407245937 0 0 0 0 15.918382560638747 -18.503160265723636 0 -18.503160265723636 -8.7475170272155083 0 0 0 0 -2.9786222664761226 -6.8608365354084526 0 -6.8608365354084526 -7.3662104838440428 0 0 0 0 26.529390527573014 -13.41551115956463 0 -13.41551115956463 -19.35408005890713 0 0 0 0 3.1178115397478905 -9.7781546424885164 0 -9.7781546424885164 -11.800421174488292 0 0 0 0 0.98919878150820018 -1.9078278558554018 0 -1.9078278558554018 -2.6341313507676603 0 0 0 0 -7.1122699627385373 -17.999085711760927 0 -17.999085711760927 -7.9855244680729811 0 0 0 0 32.229285248792621 -1.4945016611090978 0 -1.4945016611090978 -0.44875362601305824 0 0 0 0 9.5254149720642545 -0.81244702609637898 0 -0.81244702609637898 -9.6336462115086761 0 0 0 0 -0.58812203313794065 0.75378591155567776 0 0.75378591155567776 -1.6201060848094819 0 0 0 0 16.792374682005629 -81.823638748695885 0 -81.823638748695885 -321.9348120232944 0 0 0 0 15.292055952224473 4.3466075392843777 0 4.3466075392843777 -10.954329682952448 0 0 0 0 11.942319193720778 -3.2891070481782663 0 -3.2891070481782663 -8.4100364103414904 0 0 0 0 -66.252391980539187 -5.8390723060620076 0 -5.8390723060620076 -237.06272939066548 0 0 0 0 -56.044175653469665 -130.36733391445341 0 -130.36733391445341 -260.80411708321844 0 0 0 0 1.09181660347258 -29.469064889945003 0 -29.469064889945003 -430.3313769690576 0 0 0 0 -0.32340413080679387 -0.027912054298269595 0 -0.027912054298269595 -0.088787872911670007 0 0 0 0 -88.453253968538945 -32.78261556882785 0 -32.78261556882785 -58.715797601533268 0 0 0 0 34.768398466002282 63.025687790079701 0 63.025687790079701 -74.85423555305897 0 0 0 0 -8.1564117422985873 31.020175294543151 0 31.020175294543151 -34.157651861401973 0 0 0 0 -37.968888201216146 -29.090446153115408 0 -29.090446153115408 -45.965587159982533 0 0 0 0 -33.389348568767218 -2.4851616037676649 0 -2.4851616037676649 -98.419506871339763 0 0 0 0 4.6104912588032221 -0.83826287387364573 0 -0.83826287387364573 -74.901699748687406 0 0 0 0 -20.402605549000555 -59.251090594200377 0 -59.251090594200377 -211.31015249153825 0 0 0 0 -22.362536094676443 41.949822788934398 0 41.949822788934398 -81.535126493780126 0 0 0 0 -14.857024683604891 31.512080877365406 0 31.512080877365406 -139.17066377520132 0 0 0 0 -35.126449656670957 -97.828861987476557 0 -97.828861987476557 -275.33268213127303 0 0 0 0 -32.667314820584636 -12.786325184846874 0 -12.786325184846874 -85.343023800938681 0 0 0 0 0.36139784813840059 -0.784306793622779 0 -0.784306793622779 -0.86074934921433766 0 0 0 0 101.68950185541075 -49.032997153283759 0 -49.032997153283759 -327.79303633930522 0 0 0 0 20.756566437282117 0.29091539957335044 0 0.29091539957335044 -86.262602237438784 0 0 0 0 126.26857266380279 -43.851432380768188 0 -43.851432380768188 -29.2646406537242 0 0 0 0 0.99957814809450318 1.4077945833673349 0 1.4077945833673349 0.12708101530111549 0 0 0 0 123.4908686663855 -1.3406188622484478 0 -1.3406188622484478 -60.009151116886642 0 0 0 0 21.257537041503838 34.564003368051999 0 34.564003368051999 -14.203092776959238 0 0 0 0 7.4837492034042858 3.6072218762769275 0 3.6072218762769275 -4.2565181903754361 0 0 0 0 -19.085027266328211 18.821117970792329 0 18.821117970792329 -16.198678736947841 0 0 0 0 7.4201502302109361 -32.879463532362706 0 -32.879463532362706 -78.491374838426054 0 0 0 0 9.0676817425951413 -4.1006298088968833 0 -4.1006298088968833 -10.976975034991483 0 0 0 0 9.3081558600556491 -2.4696243017451707 0 -2.4696243017451707 -15.339671561903288 0 0 0 0 10.213438760844383 -5.3325665089873837 0 -5.3325665089873837 -17.502116887443663 0 0 0 0 55.639218415883192 1.5474846689357946 0 1.5474846689357946 -10.260026497022409 0 0 0 0 -0.39793033895786234 -3.5056484289459466 0 -3.5056484289459466 -8.9415438076385918 0 0 0 0 57.841917274212392 -0.40338983064430067 0 -0.40338983064430067 9.0863319448835682 0 0 0 0 54.62181157683608 -15.099155974126916 0 -15.099155974126916 31.595858443753968 0 0 0 0 39.973939708955186 9.7433015853639517 0 9.7433015853639517 25.229022210580297 0 0 0 0 39.973939708952457 9.7433015853603138 0 9.7433015853603138 25.229022210594849 0 0 0 0 39.973939708953367 9.7433015853530378 0 9.7433015853530378 25.229022210580297 0 0 0 0 51.109893005893809 20.617038031652555 0 20.617038031652555 -3.987058618791707 0 0 0 0 43.859432755039165 -7.9179957190367531 0 -7.9179957190367531 -13.417494025832639 0 0 0 0 14.20379100922537 13.74856879147228 0 13.74856879147228 6.3999732420616056 0 0 0 0 12.737603190841355 16.900615327351716 0 16.900615327351716 -27.278289926885918 0 0 0 0 18.718682648995127 -2.7084834570955536 0 -2.7084834570955536 -21.031817363473237 0 0 0 0 1.1197182453395271 1.1200993976244717 0 1.1200993976244717 -0.45239513061551406 0 0 0 0 2.0039059722384991 7.9932447199753369 0 7.9932447199753369 -7.3176532481666072 0 0 0 0 1.8610345409845639 -1.4154733615567814 0 -1.4154733615567814 -2.2857038017565365 0 0 0 0 -1.0061238465355404 -3.6031633563107723 0 -3.6031633563107723 -7.4952051543799314 0 0 0 0 10.382049231790916 -6.0025830361746557 0 -6.0025830361746557 -5.8672772191684999 0 0 0 0 16.883487342627177 -7.5720890776083252 0 -7.5720890776083252 -9.8999033913041785 0 0 0 0 -29.933363212023096 -54.402409091742811 0 -54.402409091742811 20.624907591700321 0 0 0 0 -38.93737348516936 21.697218047507704 0 21.697218047507704 11.476177892700434 0 0 0 0 0.27708508919567976 -2.9725294065283379 0 -2.9725294065283379 -0.66645368852186948 0 0 0 0 1.495641898729752 -1.1800761339663239 0 -1.1800761339663239 -2.3353225205535999 0 0 0 0 -14.540676541134189 11.110067592565429 0 11.110067592565429 1.6097271729850036 0 0 0 0 -14.522714327881658 11.743260141793144 0 11.743260141793144 14.746234950920552 0 0 0 0 -1.8732967444823316 14.472515162836316 0 14.472515162836316 9.2014860958006466 0 0 0 0 17.308823734288524 23.394574033208983 0 23.394574033208983 -1.9956969924096484 0 0 0 0 0.90756963803073631 1.3067195341036495 0 1.3067195341036495 0.69520057838326466 0 0 0 0 0.43580640085252575 -0.32193797395663282 0 -0.32193797395663282 -1.8849806802718163 0 0 0 0 0.90639415184484307 -0.76606250460114111 0 -0.76606250460114111 -2.463849658581605 0 0 0 0 2.0406129663278989 -1.0743132319148572 0 -1.0743132319148572 -0.57811206460246467 0 0 0 0 2.701450753771951 -2.2483499500194739 0 -2.2483499500194739 0.043000928006222239 0 0 0 0 2.2927564868493846 -1.2046301744294396 0 -1.2046301744294396 2.8646059249631435 0 0 0 0 0.61518620362378718 -1.2522820586768937 0 -1.2522820586768937 -1.4491659249912807 0 0 0 0 0.48104834047393474 -0.31745292797043767 0 -0.31745292797043767 -0.85627020311986968 0 0 0 0 0.2249438758516451 0.16197421942137957 0 0.16197421942137957 -0.68147303234055556 0 0 0 0 -7.5414223704376582 -6.7200887076514846 0 -6.7200887076514846 -4.1968007194354868 0 0 0 0 -2.0478643075178979 -12.017457057276488 0 -12.017457057276488 7.514314963882498 0 0 0 0 1.8788747960655883 -12.913458062728751 0 -12.913458062728751 -32.362800482927923 0 0 0 0 23.555579746280387 27.049034891164638 0 27.049034891164638 -67.450383885083284 0 0 0 0 2.9803987891457382 17.367869553233504 0 17.367869553233504 -70.485167799763076 0 0 0 0 0.63309499023023719 0.04752493184227724 0 0.04752493184227724 -1.5865169406468738 0 0 0 0 11.245567473702067 11.217321690085555 0 11.217321690085555 -26.861472966316796 0 0 0 0 0.89009421259106603 0.70395424716025445 0 0.70395424716025445 -6.7106500532390783 0 0 0 0 0.17921909793916146 -2.6674055786516422 0 -2.6674055786516422 -5.1753824178056433 0 0 0 0 -8.1810434807839556 2.2674933973348743 0 2.2674933973348743 -11.648818834524718 0 0 0 0 11.789726463125362 -8.6756454609067077 0 -8.6756454609067077 -0.80031702543419669 0 0 0 0 3.3883687859129905 0.21409929855814447 0 0.21409929855814447 -2.8286925842933215 0 0 0 0 -4.9108582223143458 -3.6156940275686793 0 -3.6156940275686793 -8.9740862739636214 0 0 0 0 7.4023809591390091 -16.874667236303139 0 -16.874667236303139 -8.915552065385782 0 0 0 0 0.27432398166820349 4.1314273458538082 0 4.1314273458538082 -3.4246673019933951 0 0 0 0 0.87569654032053457 -1.773759783429675 0 -1.773759783429675 -5.46189247332034 0 0 0 0 -3.2755293516624988 0.14156672758508648 0 0.14156672758508648 -12.682476968964693 0 0 0 0 5.0311034125497827 16.011713730701558 0 16.011713730701558 -61.284095029775926 0 0 0 0 -0.15075536348608454 -2.2005118031297841 0 -2.2005118031297841 -9.327025613753122 0 0 0 0 7.4026942822974888 2.4208828272539904 0 2.4208828272539904 -32.137509983541349 0 0 0 0 27.650707143303862 -6.5477546732245173 0 -6.5477546732245173 -13.090047166508157 0 0 0 0 1.6586050692407621 0.16937624177612598 0 0.16937624177612598 -3.2899479766007182 0 0 0 0 28.578935601064018 0.95756788613914523 0 0.95756788613914523 -17.557529759491445 0 0 0 0 30.481916395895496 -3.6320667335075996 0 -3.6320667335075996 -16.610042495070957 0 0 0 0 31.302577435970306 -1.8509285114751037 0 -1.8509285114751037 -26.283664031558146 0 0 0 0 15.082825187283561 -11.81452542309944 0 -11.81452542309944 -15.768574712475072 0 0 0 0 19.963236751802697 -16.180987183670823 0 -16.180987183670823 -12.570274745819916 0 0 0 0 20.591935886749525 -0.13270974932856916 0 -0.13270974932856916 -6.042286740392683 0 0 0 0 13.422571495547345 2.4982326671224655 0 2.4982326671224655 -12.36905847821572 0 0 0 0 16.185406215109651 -8.4962627383465588 0 -8.4962627383465588 -18.794415493353881 0 0 0 0 26.659115045234103 -22.348279580567578 0 -22.348279580567578 4.9654144959658879 0 0 0 0 17.510659972752364 -1.244711703797293 0 -1.244711703797293 -10.11489979831731 0 0 0 0 36.956870464707208 -8.604493030316462 0 -8.604493030316462 -14.097646337351762 0 0 0 0 12.01474522049466 -2.3065318345561536 0 -2.3065318345561536 -12.73360208073791 0 0 0 0 24.783036882801298 -8.071486893497422 0 -8.071486893497422 -10.447859248341047 0 0 0 0 12.885552856517279 -2.1433828025919865 0 -2.1433828025919865 -12.816003464456116 0 0 0 0 12.363449045865764 4.0429708878405108 0 4.0429708878405108 -15.033477496800742 0 0 0 0 20.057492758678563 0.48156495861803705 0 0.48156495861803705 -16.800256135482414 0 0 0 0 6.9747746703319535 -3.208141847310344 0 -3.208141847310344 -14.84059483767669 0 0 0 0 16.079316304413169 2.1210113418883338 0 2.1210113418883338 -16.023676461385548 0 0 0 0 10.515442852793967 3.0376188111131341 0 3.0376188111131341 -16.166629212468251 0 0 0 0 13.811587381829668 -2.0890930616278638 0 -2.0890930616278638 -14.666042716840821 0 0 0 0 8.1055569585527891 0.29032511328587418 0 0.29032511328587418 -9.1961466135517185 0 0 0 0 2.3796730269027648 5.5446841214888991 0 5.5446841214888991 -12.823144043795764 0 0 0 0 7.9188346359724164 4.9407793559930724 0 4.9407793559930724 -14.288290252972274 0 0 0 0 12.372136338379562 4.0156646872120518 0 4.0156646872120518 -15.778118672978053 0 0 0 0 7.0306950612193759 6.6429956832644166 0 6.6429956832644166 -16.950418247361085 0 0 0 0 3.8875744251190554 6.2269755545567023 0 6.2269755545567023 -21.057096325360362 0 0 0 0 8.4185939181292042 3.2824290814446613 0 3.2824290814446613 -19.67286847170908 0 0 0 0 4.1455271665331566 11.506319618972157 0 11.506319618972157 -36.373567277443726 0 0 0 0 9.8875099778319111 -1.9936254090281977 0 -1.9936254090281977 -30.744676542091838 0 0 0 0 10.060340501149369 -3.4053495685207622 0 -3.4053495685207622 -45.092289590871587 0 0 0 0 15.354620408526898 -2.8359106594571131 0 -2.8359106594571131 -47.293492465970303 0 0 0 0 12.776812018485487 -0.31788979741304502 0 -0.31788979741304502 -21.170895896746515 0 0 0 0 9.780368993787306 2.2880344731092919 0 2.2880344731092919 -23.434721873491071 0 0 0 0 10.420648903766505 0.050971808382200834 0 0.050971808382200834 -32.824277971498304 0 0 0 0 10.077077175353224 -9.8471040771300977 0 -9.8471040771300977 -38.488405167575365 0 0 0 0 8.8141942284164543 -9.1480305913883058 0 -9.1480305913883058 -22.491330393766248 0 0 0 0 4.1932518240296304 -20.774974051596018 0 -20.774974051596018 -20.587044448815504 0 0 0 0 13.825968160288539 -5.777507586131378 0 -5.777507586131378 -21.584347215297385 0 0 0 0 7.13283579993481 -25.177422560395826 0 -25.177422560395826 -40.542361210569652 0 0 0 0 8.635508808119539 -20.531229884970344 0 -20.531229884970344 -31.502940463244158 0 0 0 0 14.477643721180357 -12.480656548864317 0 -12.480656548864317 -60.873977654453483 0 0 0 0 12.335671085803369 -14.173166734331971 0 -14.173166734331971 -34.64598586919783 0 0 0 0 12.060734510908333 -28.62075570608431 0 -28.62075570608431 -38.381160603038552 0 0 0 0 18.426872214517971 -34.025166706776872 0 -34.025166706776872 -60.690409735300364 0 0 0 0 12.159030825689797 -32.272737172003872 0 -32.272737172003872 -57.4083183789553 0 0 0 0 19.58458059400391 -39.400432544207888 0 -39.400432544207888 -102.25125073042545 0 0 0 0 13.323920391575029 -4.3497065140836639 0 -4.3497065140836639 -83.820085169327285 0 0 0 0 9.2043171016794076 -29.117137560560877 0 -29.117137560560877 -117.47140255308659 0 0 0 0 7.6893381637823666 -50.797698163437929 0 -50.797698163437929 -226.88786893868019 0 0 0 0 4.8574776167758955 17.763326342067558 0 17.763326342067558 -159.97798280329152 0 0 0 0 -5.7421320394487338 14.277466032484881 0 14.277466032484881 -88.054906697714614 0 0 0 0 12.122985798856917 -12.752728602828029 0 -12.752728602828029 -141.85775994937467 0 0 0 0 1.9161744063862898 22.053151652063207 0 22.053151652063207 -89.678760785296049 0 0 0 0 -32.438756266772884 36.786707521883045 0 36.786707521883045 14.051232284562502 0 0 0 0 0.81565320156687449 26.643138584177905 0 26.643138584177905 -46.414649068157814 0 0 0 0 0.6588524159787994 5.3746444324906406 0 5.3746444324906406 -20.065035441444707 0 0 0 0 15.90237911042135 -4.6079457301922844 0 -4.6079457301922844 -84.25446529562214 0 0 0 0 12.79993633961351 31.976005465635353 0 31.976005465635353 -80.92200147708536 0 0 0 0 -12.544185880198256 86.754963029376086 0 86.754963029376086 -194.87348665656009 0 0 0 0 -15.36584961146491 7.9312979536971397 0 7.9312979536971397 60.608389762048319 0 0 0 0 -0.052542442286963364 -0.080943941578744294 0 -0.080943941578744294 0.079894311632159543 0 0 0 0 156.22231381766869 -242.46135058902837 0 -242.46135058902837 -272.11867093797264 0 0 0 0 -42.832033244036097 -130.54068179974684 0 -130.54068179974684 -204.78083965439146 0 0 0 0 -10.569731357453747 -26.354944852513654 0 -26.354944852513654 -285.17437919773874 0 0 0 0 41.226738277028858 -12.365917194309532 0 -12.365917194309532 -92.39300230851768 0 0 0 0 -22.665172580861963 46.303868333608989 0 46.303868333608989 -129.07482695101862 0 0 0 0 -0.27217539045265315 -0.76980967197039618 0 -0.76980967197039618 -1.9612475915160239 0 0 0 0 -34.915485327064971 -61.83722625049586 0 -61.83722625049586 7.5566475382329372 0 0 0 0 16.085278278251963 -76.24844617396343 0 -76.24844617396343 -161.21351114704521 0 0 0 0 6.5221691739009202 -14.325344510396917 0 -14.325344510396917 -29.474544684670036 0 0 0 0 -9.4482634048831642 -53.723561212068034 0 -53.723561212068034 29.154368077854087 0 0 0 0 16.009861098925739 0.31697218341560074 0 0.31697218341560074 16.410589655776107 0 0 0 0 52.508318690914393 -29.887575925675492 0 -29.887575925675492 24.164425760947779 0 0 0 0 21.038687213857486 -42.870133981079789 0 -42.870133981079789 56.896585681234683 0 0 0 0 31.726923150275979 -31.319989670251289 0 -31.319989670251289 26.295354655381288 0 0 0 0 20.237211986652483 -36.058524375023808 0 -36.058524375023808 39.519645438150292 0 0 0 0 3.6087520487467373 7.3167733720119941 0 7.3167733720119941 -19.096183295740957 0 0 0 0 17.722656702611403 -16.492516980360051 0 -16.492516980360051 -5.8383699890530352 0 0 0 0 -0.85922267318983359 4.0431805096995959 0 4.0431805096995959 -6.7359429084845033 0 0 0 0 -0.35969739423810454 -1.6110457479348366 0 -1.6110457479348366 -5.5093457802283652 0 0 0 0 14.247640550793221 -8.0411546719137732 0 -8.0411546719137732 -5.7473857840336677 0 0 0 0 5.5827806463603338 0.21331656619804562 0 0.21331656619804562 -11.857352788337266 0 0 0 0 0.32143339042977459 -2.5309177278277275 0 -2.5309177278277275 -0.75122296615154482 0 0 0 0 7.987951740489649 -4.0500215461059383 0 -4.0500215461059383 -7.0783598803955101 0 0 0 0 13.02870535537204 -5.4894089546946816 0 -5.4894089546946816 -7.7824387723157997 0 0 0 0 14.626084154066275 -0.44438177102154519 0 -0.44438177102154519 -5.4663839073180522 0 0 0 0 10.822948980455521 -3.14775916774488 0 -3.14775916774488 -8.6927894321825079 0 0 0 0 248.17072909295575 -23.587944147466715 0 -23.587944147466715 -238.21746138502658 0 0 0 0 272.75026770659952 -88.747996605313347 0 -88.747996605313347 -80.117605374404775 0 0 0 0 1.9099114685172087 -1.7169073752489314 0 -1.7169073752489314 -10.431580284935066 0 0 0 0 141.62480481851571 -100.24157403987738 0 -100.24157403987738 30.77139198954319 0 0 0 0 -0.55260680798859996 -2.2570709157118545 0 -2.2570709157118545 -8.2183558344134475 0 0 0 0 -27.332719190064836 -122.72158608604514 0 -122.72158608604514 64.593160834089758 0 0 0 0 -24.041043394759527 -20.315512086205672 0 -20.315512086205672 54.569851345068145 0 0 0 0 -1.5555079953226514 -1.4198467976553846 0 -1.4198467976553846 -1.2189022623974246 0 0 0 0 15.244103846584494 -65.989856883464427 0 -65.989856883464427 -153.84654087065792 0 0 0 0 26.091921385435057 -12.185370994897141 0 -12.185370994897141 -131.7872368406297 0 0 0 0 -30.149166707459244 -73.685182088275781 0 -73.685182088275781 -136.11466193386059 0 0 0 0 -64.749662255342173 32.723558310121916 0 32.723558310121916 -12.237907424067544 0 0 0 0 -5.6730718086719207 24.476086708086314 0 24.476086708086314 -86.988306585066312 0 0 0 0 -19.222561291817328 8.3887296531684115 0 8.3887296531684115 -66.791890269325449 0 0 0 0 88.905282864535366 78.824161709443615 0 78.824161709443615 -42.188713170276969 0 0 0 0 -12.21117150084865 10.235765337157886 0 10.235765337157886 -273.75414317729064 0 0 0 0 -18.084926035830904 4.4114083325816864 0 4.4114083325816864 -86.498217690728779 0 0 0 0 -33.624995606617176 82.428279638265849 0 82.428279638265849 -65.007284588131142 0 0 0 0 -54.440928329370763 30.241867746337448 0 30.241867746337448 -28.068459835501926 0 0 0 0 -4.8936322185759309 19.018045303365852 0 19.018045303365852 -108.48468972772298 0 0 0 0 -4.5078320657262339 15.951273193060842 0 15.951273193060842 -32.494505689764992 0 0 0 0 128.35122427180613 29.307888304855624 0 29.307888304855624 -73.34441947547657 0 0 0 0 13.081105809204473 200.06785232726452 0 200.06785232726452 98.773326679448473 0 0 0 0 121.20961727569465 85.407260591586237 0 85.407260591586237 -4.0978459981033666 0 0 0 0 45.938135699191207 36.244668999680925 0 36.244668999680925 29.98734511092789 0 0 0 0 132.90934751519785 89.591343535211763 0 89.591343535211763 -31.891701626824215 0 0 0 0 139.25430068118931 72.938139062491246 0 72.938139062491246 -61.622836904634823 0 0 0 0 163.58924740699331 22.054536063060368 0 22.054536063060368 -45.312555309754543 0 0 0 0 87.545187985347411 19.083215937524528 0 19.083215937524528 -45.185837744624223 0 0 0 0 130.30320358428298 64.900672781854155 0 64.900672781854155 -20.519832775931718 0 0 0 0 -0.43505440057333544 5.8329723531019226 0 5.8329723531019226 11.211375654353105 0 0 0 0 -3.127454268756992 -14.84084564519253 0 -14.84084564519253 -5.6767818220560002 0 0 0 0 -4.7820393389374454 -9.4281776769577164 0 -9.4281776769577164 -12.638716624174506 0 0 0 0 80.759174433648241 -2.4942537289634856 0 -2.4942537289634856 -12.252635701928739 0 0 0 0 -1.4249829659532161 -9.9206784936339272 0 -9.9206784936339272 -15.906683330196813 0 0 0 0 8.5378337925908454 -13.015520321089753 0 -13.015520321089753 -23.810563019997062 0 0 0 0 378.6129698325949 90.546651477303385 0 90.546651477303385 11.786876502857922 0 0 0 0 -0.51477128786245174 -1.763459268321478 0 -1.763459268321478 -2.6236932619270394 0 0 0 0 224.90302044387045 -139.2661817796079 0 -139.2661817796079 -21.125563883389987 0 0 0 0 88.502540126563872 39.836537416794272 0 39.836537416794272 80.80341713848884 0 0 0 0 252.00136998112976 88.271649558120771 0 88.271649558120771 -38.023650107246795 0 0 0 0 96.024034547996052 15.062937961834905 0 15.062937961834905 -58.400098804971094 0 0 0 0 117.86302650087418 47.799298474190437 0 47.799298474190437 -59.301912157741754 0 0 0 0 124.58305897553146 58.146879387588342 0 58.146879387588342 -44.759122909483267 0 0 0 0 9.0655674584222652 7.9821609982370774 0 7.9821609982370774 -87.534802279992618 0 0 0 0 9.2126224737526172 5.8897668534827972 0 5.8897668534827972 -171.33766657947126 0 0 0 0 15.952939500069647 2.309242549462823 0 2.309242549462823 -96.71284563898007 0 0 0 0 -14.710791697126979 -37.498406683776466 0 -37.498406683776466 -57.059100926562905 0 0 0 0 -15.034326318379044 -32.042965613751221 0 -32.042965613751221 -64.621051865814024 0 0 0 0 -37.086523934889556 -75.928305014843318 0 -75.928305014843318 -122.07116745273561 0 0 0 0 3.0681712350033195 -8.5028604535009435 0 -8.5028604535009435 -39.35461631694443 0 0 0 0 -62.226203039833081 -40.423700954319884 0 -40.423700954319884 -21.79092034052519 0 0 0 0 -131.07108274078837 128.45484352558242 0 128.45484352558242 -94.943618772602349 0 0 0 0 -0.10963272823772519 0.1445696130073113 0 0.1445696130073113 -1.7309608885002845 0 0 0 0 -105.21297212907348 -135.33945496437946 0 -135.33945496437946 -152.55931713349673 0 0 0 0 -166.41522259394151 86.667917040999782 0 86.667917040999782 -164.20322173680097 0 0 0 0 -100.1710508317633 -80.101857912347441 0 -80.101857912347441 -168.10807117182367 0 0 0 0 -4.7194331521686763 -7.7058076634652934 0 -7.7058076634652934 -129.41309746584699 0 0 0 0 -3.9920808860683792 -15.89660084289244 0 -15.89660084289244 -315.59127444644537 0 0 0 0 -50.311190053516043 57.061114798854874 0 57.061114798854874 -94.249103615168679 0 0 0 0 -29.18022871764606 6.7753696370018588 0 6.7753696370018588 -117.91222795018757 0 0 0 0 -70.09065253264157 44.601321356542485 0 44.601321356542485 -39.392797397657887 0 0 0 0 -6.8858973667427108 20.42507527930934 0 20.42507527930934 -65.457382395367404 0 0 0 0 -9.139300287258294 40.142468439241071 0 40.142468439241071 -83.845365228939954 0 0 0 0 2.3151799063093677 20.608165965728858 0 20.608165965728858 -56.68987916891092 0 0 0 0 25.66655477782956 18.219991231659719 0 18.219991231659719 -97.478737635100515 0 0 0 0 23.416723399422153 24.782804475566081 0 24.782804475566081 -114.17747374894225 0 0 0 0 22.436240121156516 16.895518364894997 0 16.895518364894997 -96.018360816562563 0 0 0 0 2.2967667393302413 22.376531138070742 0 22.376531138070742 -66.328007738900851 0 0 0 0 -0.29694632571636248 5.923555711503468 0 5.923555711503468 -60.233812011240843 0 0 0 0 -5.0435730300578143 12.599188120816507 0 12.599188120816507 -30.067794369286275 0 0 0 0 -6.3517947081400052 21.351109465768332 0 21.351109465768332 -56.479071503599812 0 0 0 0 -21.314961696625915 20.690224069376654 0 20.690224069376654 -24.442497348440156 0 0 0 0 1.2070960211131023 -6.076714776384506 0 -6.076714776384506 -4.2084294284272801 0 0 0 0 -15.919385691062416 0.43670405625880448 0 0.43670405625880448 4.3888772246682493 0 0 0 0 -12.375079857868968 0.60728587129074185 0 0.60728587129074185 -8.0179629358758575 0 0 0 0 -9.3278397933504493 7.7712948502999097 0 7.7712948502999097 -30.827285707204737 0 0 0 0 -29.380801441570611 33.668035767681886 0 33.668035767681886 -34.527974663276382 0 0 0 0 -12.202042195708145 -29.262111424152863 0 -29.262111424152863 15.721864985310503 0 0 0 0 15.486878586241929 -71.673183805303978 0 -71.673183805303978 70.878321160505038 0 0 0 0 -3.8055037741594955 -3.7803873076002521 0 -3.7803873076002521 -3.4717313383253838 0 0 0 0 -17.761225375972629 2.9299625819731432 0 2.9299625819731432 13.502206937414485 0 0 0 0 -2.6896212203323557 -21.781147549062553 0 -21.781147549062553 9.8193876089113132 0 0 0 0 -4.9711012417080065 -5.1567368840485344 0 -5.1567368840485344 -5.1191117902240464 0 0 0 0 29.987898082837773 -15.193373955136394 0 -15.193373955136394 19.811224817184666 0 0 0 0 5.6783931043939901 16.440538910131181 0 16.440538910131181 -81.532197366157561 0 0 0 0 7.6367626288383263 -50.250691313855015 0 -50.250691313855015 -22.662420447819386 0 0 0 0 2.5189834815109862 -51.938773707582186 0 -51.938773707582186 18.303097635807717 0 0 0 0 2.7289528036361617 -53.196811459037235 0 -53.196811459037235 15.890826558299523 0 0 0 0 53.937662522856968 -94.005588885664736 0 -94.005588885664736 18.311705845875622 0 0 0 0 130.89076627766576 -83.330771529782851 0 -83.330771529782851 -8.3613013318745288 0 0 0 0 -142.18071177025809 -128.08261665349437 0 -128.08261665349437 123.44339696273346 0 0 0 0 219.35033469014184 83.635328131680978 0 83.635328131680978 -253.24199999361372 0 0 0 0 -147.89855653870436 60.834322989780858 0 60.834322989780858 -33.369949556252323 0 0 0 0 4.262300570392199 23.716055788090671 0 23.716055788090671 -77.011674535012389 0 0 0 0 -5.9395393879672156 39.316574795494489 0 39.316574795494489 -145.19175028737664 0 0 0 0 -5.4317604422619752 30.089951298232791 0 30.089951298232791 -80.870985651799856 0 0 0 0 -4.9418781910744656 -10.945199572538968 0 -10.945199572538968 1.771253383920282 0 0 0 0 -6.8563117949520347 -1.89655578758925 0 -1.89655578758925 -9.0120303593157587 0 0 0 0 -11.560682637750915 -3.3017545262389376 0 -3.3017545262389376 2.919836809739536 0 0 0 0 59.67082182090553 -76.90466332782853 0 -76.90466332782853 54.568165382191182 0 0 0 0 3.1856032200132249 -0.11274006004252968 0 -0.11274006004252968 -2.0810983246639951 0 0 0 0 -5.3929335285612172 -6.1161386244835718 0 -6.1161386244835718 -6.2201103025208404 0 0 0 0 64.290450988295817 -1.0777008240222585 0 -1.0777008240222585 -21.686288316137507 0 0 0 0 211.99761941351881 -83.4724203439946 0 -83.4724203439946 -94.147098987094068 0 0 0 0 -4.3427416163716686 -3.5279068263211286 0 -3.5279068263211286 -3.2526485429098102 0 0 0 0 -1.9467625166002058 -1.040268268564823 0 -1.040268268564823 -1.76014976505805 0 0 0 0 -6.3444612268999663 -3.3263123405349688 0 -3.3263123405349688 -2.0412191011439518 0 0 0 0 -10.622335936834133 2.6229461513912611 0 2.6229461513912611 -5.9427409827994779 0 0 0 0 -11.482592248729816 -4.3417077375415829 0 -4.3417077375415829 -2.6792319966998548 0 0 0 0 -3.7341678915306602 2.7590110240803369 0 2.7590110240803369 -7.0780320998223942 0 0 0 0 -4.6910661635890847 3.8790867748834899 0 3.8790867748834899 -8.2155228816950512 0 0 0 0 -1.3468111311156008 -1.1009681388736681 0 -1.1009681388736681 -4.5074078832494706 0 0 0 0 -1.4316577367754633 3.1362724201811645 0 3.1362724201811645 -7.9597566335814918 0 0 0 0 -3.8931385545711237 2.018825639681836 0 2.018825639681836 -1.949460021522782 0 0 0 0 2.6071442894708525 0.78772002442792655 0 0.78772002442792655 -11.199060350594209 0 0 0 0 0.12521720440037687 0.69814966592273509 0 0.69814966592273509 -6.3218250983286435 0 0 0 0 0.24293554797350225 0.17200528206103627 0 0.17200528206103627 -6.5794409202941324 0 0 0 0 1.7554005356773423 0.8901232425842629 0 0.8901232425842629 -10.449713278861964 0 0 0 0 0.4985314543577033 3.475127527419545 0 3.475127527419545 -5.8186969214589226 0 0 0 0 -0.26363250152933837 1.847886591892717 0 1.847886591892717 -3.6379669217761768 0 0 0 0 0.59452357004859557 -0.083666402455735422 0 -0.083666402455735422 -1.5336899126231103 0 0 0 0 -3.0955058089271006 6.2406545981577892 0 6.2406545981577892 -1.1249493521186196 0 0 0 0 6.9201404552988812 4.1343529391481226 0 4.1343529391481226 -6.7151112055225894 0 0 0 0 -4.8483804339825838 0.7359739489356798 0 0.7359739489356798 -0.49700177886052188 0 0 0 0 -0.10382494533632397 0.95274734330962252 0 0.95274734330962252 -2.7494904065813337 0 0 0 0 0.24008772445314008 1.382454201867283 0 1.382454201867283 -2.1153825674664404 0 0 0 0 -1.7901625429331034 1.3000505710510879 0 1.3000505710510879 -1.4227454808825541 0 0 0 0 -1.6037701906210184 0.21165730374895197 0 0.21165730374895197 -0.12075468134784328 0 0 0 0 -4.3419016298112183 0.094804225523148489 0 0.094804225523148489 0.71998670775906248 0 0 0 0 -0.20851435256802889 0.47574889476312254 0 0.47574889476312254 -2.0759810066975177 0 0 0 0 0.34898189888190245 -0.15816733699352881 0 -0.15816733699352881 -4.0773407030337694 0 0 0 0 -3.4679907488448407 2.3135067206867461 0 2.3135067206867461 -1.5698037539447114 0 0 0 0 12.197390536003468 -1.270642121074161 0 -1.270642121074161 -10.796775689289461 0 0 0 0 -8.989524362489874 -5.679261555267658 0 -5.679261555267658 7.6534115998019843 0 0 0 0 -4.4793226102119661 2.0378075686626289 0 2.0378075686626289 -17.865019992222358 0 0 0 0 -24.252176997284096 -28.27427441600139 0 -28.27427441600139 -22.029147037130087 0 0 0 0 -1.3627093591317134 3.4047266637344364 0 3.4047266637344364 -38.120767438070743 0 0 0 0 -7.8616341528613702 -3.8511385507576961 0 -3.8511385507576961 -35.589727472666027 0 0 0 0 -14.88556995732813 -1.5005805296866583 0 -1.5005805296866583 -7.7856770048711041 0 0 0 0 -4.9534809142970744 -6.7902512161718676 0 -6.7902512161718676 -36.20909655981518 0 0 0 0 1.7583363284126574 3.020170806658959 0 3.020170806658959 -14.186303796144745 0 0 0 0 -35.684030715723516 -34.600138803436991 0 -34.600138803436991 -34.294434879406708 0 0 0 0 -2.2715738301021702 2.4493587838601343 0 2.4493587838601343 -14.361342471527223 0 0 0 0 -12.948065048060471 -0.065476968695293181 0 -0.065476968695293181 -12.67303062438441 0 0 0 0 -2.4374928989241176 2.2145594565374562 0 2.2145594565374562 -1.7234632928365059 0 0 0 0 -2.9386779165807866 1.9982154856904799 0 1.9982154856904799 -14.872688815153197 0 0 0 0 -4.9433753785232284 5.380863501383601 0 5.380863501383601 -7.1917192090477329 0 0 0 0 -2.0368080985241477 1.5116462937144206 0 1.5116462937144206 -12.838864655630005 0 0 0 0 1.375782239875889 -0.61700012164692453 0 -0.61700012164692453 -15.474516656356172 0 0 0 0 -1.5245078206330049 3.942866457098404 0 3.942866457098404 -10.941700956203931 0 0 0 0 0.4432861975922151 1.474381686419747 0 1.474381686419747 -8.4298087648637647 0 0 0 0 -2.686131751647963 5.7589617671442284 0 5.7589617671442284 -2.195280642069747 0 0 0 0 -1.2077278826768634 2.6820627884059149 0 2.6820627884059149 -3.0817548085551607 0 0 0 0 -1.5824993499742011 2.6078218608044903 0 2.6078218608044903 -1.9062865690875199 0 0 0 0 -2.0125652661707818 3.414022854513405 0 3.414022854513405 -3.0798897472550379 0 0 0 0 -0.6272562380738691 0.51300512854277258 0 0.51300512854277258 0.44981365167450349 0 0 0 0 -0.22435132477675879 0.26196617682785561 0 0.26196617682785561 -0.31704349662352005 0 0 0 0 -1.1730733314565907 0.27180789660025351 0 0.27180789660025351 0.27948508695194318 0 0 0 0 -9.6091416674307766 -10.868835547317303 0 -10.868835547317303 -11.040129831060767 0 0 0 0 -1.7144474722415453 -0.05559557258084169 0 -0.05559557258084169 4.2735203726369946 0 0 0 0 -1.2693192259175703 0.22049229420463234 0 0.22049229420463234 1.2031615179578239 0 0 0 0 -1.1020071879082862 -0.16624944327680247 0 -0.16624944327680247 1.2679654180077229 0 0 0 0 -0.71022928165575649 2.7226178332875861 0 2.7226178332875861 4.3999811282978953 0 0 0 0 -1.9946299136113339 0.51024630224765133 0 0.51024630224765133 4.2643275825830642 0 0 0 0 -3.1011911493343405 3.5375884346527755 0 3.5375884346527755 -5.7737471774103142 0 0 0 0 -2.2260052869253677 2.4923223255399201 0 2.4923223255399201 2.6735806634001165 0 0 0 0 -2.1783483806767947 0.052814340773750246 0 0.052814340773750246 6.5147769663672079 0 0 0 0 -0.70187124673702783 -1.0299158994803292 0 -1.0299158994803292 5.0903823069261307 0 0 0 0 -1.5023278075058224 -0.065145475187117441 0 -0.065145475187117441 0.23848907498498884 0 0 0 0 -1.6899086208179597 -0.033866009519442741 0 -0.033866009519442741 4.2860302484359636 0 0 0 0 3.0931253638825638 -7.7943954498846324 0 -7.7943954498846324 11.544421605561183 0 0 0 0 -0.24204193684418485 -0.18602405675526512 0 -0.18602405675526512 0.17146710440746205 0 0 0 0 6.2569261176577129 12.50730226705582 0 12.50730226705582 -12.256584210254005 0 0 0 0 -12.03765903710655 11.901473450690901 0 11.901473450690901 11.63409189678714 0 0 0 0 -10.509768021819127 -10.133723805750378 0 -10.133723805750378 15.474181692375055 0 0 0 0 -27.387047372311827 16.054862638657141 0 16.054862638657141 0.35073356243265152 0 0 0 0 -25.544191663312631 -3.1986824719751894 0 -3.1986824719751894 -3.5557230547055951 0 0 0 0 -4.1412804437013619 13.148212080941221 0 13.148212080941221 -6.9524981315407786 0 0 0 0 -0.55622467806170306 0.041772298215612125 0 0.041772298215612125 0.040381539307785985 0 0 0 0 -35.559472221167653 34.764040751225366 0 34.764040751225366 -21.359192972295205 0 0 0 0 -41.273421581865932 15.531801948398424 0 15.531801948398424 2.2718797345396524 0 0 0 0 -33.300840678588429 15.45344986719283 0 15.45344986719283 5.8314818903940591 0 0 0 0 -41.736678627790411 16.090042715600589 0 16.090042715600589 14.318629793408036 0 0 0 0 -66.02908445773619 5.2549774490098571 0 5.2549774490098571 25.323732460100473 0 0 0 0 -63.086932405725292 35.85033631432816 0 35.85033631432816 8.2909189356016668 0 0 0 0 0.93735101058837245 1.6311941979461153 0 1.6311941979461153 8.5981004287277756 0 0 0 0 2.4133716020473912 0.53015536045859335 0 0.53015536045859335 5.9722797297108627 0 0 0 0 3.9998671976796345 1.9601036481434448 0 1.9601036481434448 5.6588051509916113 0 0 0 0 -84.299592989304301 -17.068243158998484 0 -17.068243158998484 -86.130668680429153 0 0 0 0 -170.08303070143984 7.1790744639383774 0 7.1790744639383774 -41.953728518662039 0 0 0 0 -140.96127186206377 -76.592171206354578 0 -76.592171206354578 -91.599028896372147 0 0 0 0 -49.468822549913966 -33.409088515524218 0 -33.409088515524218 -77.396264991121825 0 0 0 0 -81.487674746982464 -37.711321988430996 0 -37.711321988430996 -54.853178460030904 0 0 0 0 -93.826644667801474 16.904736355833393 0 16.904736355833393 -17.201685182071742 0 0 0 0 -55.27817115247808 32.9592239260719 0 32.9592239260719 -42.056671647423769 0 0 0 0 -41.956912707216617 5.3677600363122622 0 5.3677600363122622 -24.327663447751547 0 0 0 0 -36.56139269129153 11.706581515055404 0 11.706581515055404 6.0442694974757387 0 0 0 0 -36.520190760863443 16.127907537449573 0 16.127907537449573 -2.4666227125562727 0 0 0 0 -47.119010892050028 3.5193502767533573 0 3.5193502767533573 -6.4943250635515142 0 0 0 0 -56.83330631853687 9.1986526124856027 0 9.1986526124856027 -2.4504882401955435 0 0 0 0 -40.500290191211207 -6.221803170023577 0 -6.221803170023577 -29.530668207342387 0 0 0 0 -55.645289320169013 -11.29797435115961 0 -11.29797435115961 -27.905620917587385 0 0 0 0 -31.456562863766578 -13.685428344683089 0 -13.685428344683089 -28.242300768419227 0 0 0 0 -27.121448962370778 9.0171836579620503 0 9.0171836579620503 -14.249361341908298 0 0 0 0 0.5841990338958567 4.303288305109163 0 4.303288305109163 -23.690728850817322 0 0 0 0 -34.965996892266958 -30.042811656432605 0 -30.042811656432605 -56.035033881075378 0 0 0 0 -9.6453892484732933 -11.293653164112584 0 -11.293653164112584 -46.440900232337299 0 0 0 0 -9.7388156972298425 -28.410468032858994 0 -28.410468032858994 -53.402552716028367 0 0 0 0 -2.9281741866515176 -32.410490543715355 0 -32.410490543715355 -88.003443567953582 0 0 0 0 -31.329547666029157 -58.417670951602304 0 -58.417670951602304 -110.14704753620936 0 0 0 0 -53.123516374545943 -35.703010316121436 0 -35.703010316121436 -70.831094356730802 0 0 0 0 -32.045966940377866 -29.94460190799191 0 -29.94460190799191 -70.604251090651815 0 0 0 0 7.6129877983921688 -37.581130525488788 0 -37.581130525488788 -135.67678006286769 0 0 0 0 7.3295128850186302 -33.451017369246074 0 -33.451017369246074 -115.95142876452337 0 0 0 0 23.822172279765709 -23.542076201018062 0 -23.542076201018062 -120.11034847813789 0 0 0 0 23.484138354472179 -22.208559034450445 0 -22.208559034450445 -120.52770764186062 0 0 0 0 14.417018127398023 -29.822555040858788 0 -29.822555040858788 -108.89738426807389 0 0 0 0 14.251792262572053 -22.019775041255798 0 -22.019775041255798 -91.041908865064215 0 0 0 0 14.34448890503154 -28.51518440375321 0 -28.51518440375321 -112.47863749398766 0 0 0 0 -3.9663769435516087 -36.222815626841793 0 -36.222815626841793 -88.309591185037789 0 0 0 0 6.6524625125812236 -18.811903430140774 0 -18.811903430140774 -77.811800441735613 0 0 0 0 7.3791459745639258 -12.579708438588568 0 -12.579708438588568 -58.386528568607901 0 0 0 0 6.8284234577293752 -17.843786674356942 0 -17.843786674356942 -35.519527929197466 0 0 0 0 -8.0581188663290959 -19.35641402207284 0 -19.35641402207284 -35.593899361036165 0 0 0 0 11.327652704759657 -20.852702036885262 0 -20.852702036885262 -90.967050160704275 0 0 0 0 8.3895613613285605 -9.6871596511732605 0 -9.6871596511732605 -56.819679523536706 0 0 0 0 11.790499676818399 14.688198157154602 0 14.688198157154602 -47.34534757752408 0 0 0 0 16.351489726316629 -3.3267116447236731 0 -3.3267116447236731 -67.998140378932476 0 0 0 0 3.7714032282351582 6.4916182873403159 0 6.4916182873403159 -69.952775795695743 0 0 0 0 18.183941314983485 -11.273092473126553 0 -11.273092473126553 -109.74874875346632 0 0 0 0 5.4879028984501019 -18.00067720202378 0 -18.00067720202378 -107.33415309246629 0 0 0 0 20.720501571857199 -22.19665481069643 0 -22.19665481069643 -124.41083372708181 0 0 0 0 21.210073258731427 -19.359482047243091 0 -19.359482047243091 -111.85217084604301 0 0 0 0 8.8932471542439089 -29.678576925450216 0 -29.678576925450216 -116.69606201603165 0 0 0 0 17.509971361966677 -25.740928723003435 0 -25.740928723003435 -116.48823408558746 0 0 0 0 16.984300657837593 -24.597049108652755 0 -24.597049108652755 -114.18467302495901 0 0 0 0 4.6402910933293242 -31.415396762681667 0 -31.415396762681667 -109.55087344078629 0 0 0 0 10.105999946231123 -18.230676562067174 0 -18.230676562067174 -80.084074821247668 0 0 0 0 -12.388170157639252 -31.732651473322676 0 -31.732651473322676 -69.102409699368764 0 0 0 0 2.6885522591192874 -0.2481694584305707 0 -0.2481694584305707 -0.32341683770528817 0 0 0 0 0.12093186592441008 1.1848177186710549 0 1.1848177186710549 -1.1172996055079185 0 0 0 0 -1.2136391363808343 -12.835495035344593 0 -12.835495035344593 -68.91314402613898 0 0 0 0 6.4296671845095261 12.334881231971849 0 12.334881231971849 -5.1785971183453512 0 0 0 0 5.7889322540668218 -18.057412120284425 0 -18.057412120284425 -79.960198848498749 0 0 0 0 -3.0844971522669766 12.651284527763437 0 12.651284527763437 -11.550262934629245 0 0 0 0 3.0491812375114478 -18.664020271294362 0 -18.664020271294362 -46.539412970679223 0 0 0 0 19.280191871538022 7.1067241572216062 0 7.1067241572216062 -110.21583678132265 0 0 0 0 16.141295382910357 10.517495822151432 0 10.517495822151432 -83.721895292698719 0 0 0 0 17.375461915784854 -12.10617024748808 0 -12.10617024748808 -94.278439761588743 0 0 0 0 17.193788860394307 -15.108945237449916 0 -15.108945237449916 -118.62890650643612 0 0 0 0 21.86756869080159 -13.726104014149541 0 -13.726104014149541 -121.30023574333609 0 0 0 0 18.9938759566312 -15.12687346127359 0 -15.12687346127359 -110.07903248402545 0 0 0 0 22.454589817999477 -20.811529203537702 0 -20.811529203537702 -117.37193877504797 0 0 0 0 19.461794955244841 -21.968015657816068 0 -21.968015657816068 -110.45916370074377 0 0 0 0 22.143537134818843 -24.305747980988912 0 -24.305747980988912 -134.47725690920561 0 0 0 0 -4.0880179849710885 -57.312022366199017 0 -57.312022366199017 -205.1432200379877 0 0 0 0 -2.2374184546142715 -38.041310890334898 0 -38.041310890334898 -130.98370716409681 0 0 0 0 -3.7323038290105615 -21.515948775346487 0 -21.515948775346487 -131.53068692295892 0 0 0 0 -5.6057073938518442 -13.113166021214965 0 -13.113166021214965 -154.52285683326772 0 0 0 0 19.682086050801445 -18.889492964452529 0 -18.889492964452529 -156.92925271888771 0 0 0 0 -0.29588830639772823 11.324744369463133 0 11.324744369463133 -52.161533789811074 0 0 0 0 15.288223437642046 -5.2550479805568102 0 -5.2550479805568102 -47.711727242451161 0 0 0 0 4.9130585783818788 31.502294029761742 0 31.502294029761742 -142.00974600350173 0 0 0 0 -10.757305930261509 66.883966954247626 0 66.883966954247626 -154.66062987625082 0 0 0 0 -35.979364143933026 26.203610730939999 0 26.203610730939999 -2.4548682239992559 0 0 0 0 16.231359331716931 -17.808501307179995 0 -17.808501307179995 -9.9846291588370377 0 0 0 0 -153.21223702640964 -55.563059756040786 0 -55.563059756040786 3.0944669979371611 0 0 0 0 -0.32342996775333144 -0.86588242343564703 0 -0.86588242343564703 -1.7824729940189208 0 0 0 0 -296.48755085862194 -132.73007402959138 0 -132.73007402959138 -38.463324472034401 0 0 0 0 -41.429263984687168 -107.43186516343894 0 -107.43186516343894 -352.39454764672837 0 0 0 0 -322.92557141053362 -53.141559939812396 0 -53.141559939812396 -91.441406121281034 0 0 0 0 26.433535443977007 -4.1848796673182278 0 -4.1848796673182278 -119.61751743367677 0 0 0 0 18.800635098997191 -1.5104300185280408 0 -1.5104300185280408 -104.44820799201034 0 0 0 0 26.388378485314206 6.4284933328926854 0 6.4284933328926854 -98.695255435824038 0 0 0 0 7.598426039866979 -9.2042575368114399 0 -9.2042575368114399 -67.4512330786647 0 0 0 0 -16.661358884646688 -29.092654478042732 0 -29.092654478042732 -99.170085824456237 0 0 0 0 5.836022048566349 -18.216152592803326 0 -18.216152592803326 -93.915924165677097 0 0 0 0 -0.30814809571100277 0.1522649259438742 0 0.1522649259438742 -0.39612288570742482 0 0 0 0 -10.228096322337933 -22.627134319180186 0 -22.627134319180186 -141.00695317165764 0 0 0 0 -14.120769147334158 -40.835520557654945 0 -40.835520557654945 -128.87973607858066 0 0 0 0 -21.175820528701934 0.022006241982580832 0 0.022006241982580832 -18.398185473673948 0 0 0 0 -12.867616292770435 53.024660013017183 0 53.024660013017183 -71.477043329665776 0 0 0 0 -0.38094119880540389 -0.032967227375626962 0 -0.032967227375626962 -0.28721333374980773 0 0 0 0 9.2965886127067279 -4.8188483316025668 0 -4.8188483316025668 -137.76708499170036 0 0 0 0 -16.578356303125474 -20.751376209750561 0 -20.751376209750561 -173.14147743878948 0 0 0 0 7.6958857469376198 -19.212062254622197 0 -19.212062254622197 -134.38516926192187 0 0 0 0 -33.46164112010274 -26.701410541403675 0 -26.701410541403675 -124.94904365440379 0 0 0 0 -16.788557956677323 -31.740410357350811 0 -31.740410357350811 -127.35483589231558 0 0 0 0 -37.659996951209621 -13.80702088007672 0 -13.80702088007672 -127.39021682832572 0 0 0 0 -30.538821385675419 -1.4064966119844939 0 -1.4064966119844939 -135.78816554308855 0 0 0 0 -26.022298719251467 -18.177333176771299 0 -18.177333176771299 -109.02990921874471 0 0 0 0 -0.22806851922405258 19.906638851050502 0 19.906638851050502 1.5248779341691261 0 0 0 0 0.97920498300831582 13.347060137087624 0 13.347060137087624 -55.706516247658328 0 0 0 0 -0.1126634218333793 0.28263268114522155 0 0.28263268114522155 -0.60112246998207475 0 0 0 0 -22.327615586696993 -70.395007116130728 0 -70.395007116130728 -170.75048097140424 0 0 0 0 8.8720755049271247 -28.509875081270025 0 -28.509875081270025 -138.92983134650603 0 0 0 0 -28.526329939984862 -57.325128115667212 0 -57.325128115667212 -108.30265366902495 0 0 0 0 3.9229210404096193 6.1734195229969373 0 6.1734195229969373 6.6600907868210015 0 0 0 0 10.226496425068405 -14.316602714575936 0 -14.316602714575936 -14.097862593453101 0 0 0 0 1.7091903930406538 -0.072601251593916061 0 -0.072601251593916061 -0.068314262806124404 0 0 0 0 25.778041460553595 26.595607681585307 0 26.595607681585307 21.407561814606993 0 0 0 0 0.63389428796431169 0.073044373011789787 0 0.073044373011789787 -0.088259347134698629 0 0 0 0 54.172409269248419 2.4557800443468523 0 2.4557800443468523 -45.332817186485045 0 0 0 0 62.868579653603774 21.286660411451976 0 21.286660411451976 -117.36192052019817 0 0 0 0 45.789565372460402 -15.357267937184815 0 -15.357267937184815 -121.57721537401039 0 0 0 0 35.159674878954092 35.621895216139592 0 35.621895216139592 -71.131817013161253 0 0 0 0 16.451733352023808 -3.1295997361936827 0 -3.1295997361936827 -38.626203762925343 0 0 0 0 39.780325453520163 -15.978682846292486 0 -15.978682846292486 -55.099361779601622 0 0 0 0 15.3193422484851 -30.150864916329738 0 -30.150864916329738 -43.97349566676121 0 0 0 0 13.980216028159703 -21.261259733859561 0 -21.261259733859561 -39.690539199675641 0 0 0 0 16.077605521382338 -1.2259433807789719 0 -1.2259433807789719 -33.600953996857697 0 0 0 0 9.9698541031207242 -20.160942485237456 0 -20.160942485237456 -35.766893585636126 0 0 0 0 22.482912446198554 -8.9000060170290567 0 -8.9000060170290567 -28.059886114564506 0 0 0 0 5.7959250733260888 -3.8067627043860739 0 -3.8067627043860739 -17.977949539421701 0 0 0 0 14.023383096508041 4.44754220873142 0 4.44754220873142 -18.347261990489642 0 0 0 0 10.692666252908793 -1.2120995309171576 0 -1.2120995309171576 -25.739071100540059 0 0 0 0 6.4667280469398065 0.026834551354113501 0 0.026834551354113501 -12.280387459919439 0 0 0 0 2.4214987060224757 -0.48487248240144254 0 -0.48487248240144254 -12.298161078895646 0 0 0 0 -1.3618020838669054 -6.8815289796468733 0 -6.8815289796468733 -27.11209339460072 0 0 0 0 4.4185695990955196 2.4135028075216951 0 2.4135028075216951 -33.70267988782507 0 0 0 0 12.111187265822764 -11.275945420315566 0 -11.275945420315566 -44.790844525211014 0 0 0 0 -3.8086623605281602 -7.9378288432967565 0 -7.9378288432967565 -45.432154315047683 0 0 0 0 -7.5508928038450449 -14.622225023339752 0 -14.622225023339752 10.285201388357677 0 0 0 0 8.5137110071308371 -14.666868267538348 0 -14.666868267538348 -67.477429593676788 0 0 0 0 2.530315336071844 -0.67247592961705038 0 -0.67247592961705038 0.085286782349755841 0 0 0 0 4.310456630704266 -12.465114028168955 0 -12.465114028168955 -15.681515762802178 0 0 0 0 4.246265305894215 -1.1452324371623988 0 -1.1452324371623988 0.14308621585957138 0 0 0 0 7.5454629472060901 -5.2697625059057032 0 -5.2697625059057032 -26.611812689807266 0 0 0 0 4.4895748484653097 -11.401716511259906 0 -11.401716511259906 -20.749371317637724 0 0 0 0 0.46372430759947747 -15.68510098032516 0 -15.68510098032516 -41.267412021070413 0 0 0 0 12.236272255674066 -17.749252749370498 0 -17.749252749370498 -59.082477451005843 0 0 0 0 11.538777491308338 1.4931406565519865 0 1.4931406565519865 -15.83348677979302 0 0 0 0 -5.2082973995297834 -1.0678374356641029 0 -1.0678374356641029 24.842211767187791 0 0 0 0 1.9238363976060098 -1.2326677132635111 0 -1.2326677132635111 -11.881357748851533 0 0 0 0 76.433596145940555 -53.004659499891602 0 -53.004659499891602 -8.1027896201660496 0 0 0 0 54.664801305971423 -25.76022876391221 0 -25.76022876391221 -35.176066326709588 0 0 0 0 52.752970580072315 -20.209660350397144 0 -20.209660350397144 -39.084095821171786 0 0 0 0 50.702965149781789 -23.776158664097011 0 -23.776158664097011 -31.251494571378771 0 0 0 0 51.901369669834594 -28.794560611785982 0 -28.794560611785982 -26.304903985612782 0 0 0 0 16.216791638883933 -2.4732551241349938 0 -2.4732551241349938 -8.5852395916989508 0 0 0 0 27.056841761762598 -33.926856521197806 0 -33.926856521197806 38.643263697137627 0 0 0 0 31.601290475524138 -60.163767951579757 0 -60.163767951579757 96.751976957289145 0 0 0 0 3.9242469625322896 -2.7047192523540282 0 -2.7047192523540282 -1.3842631514742529 0 0 0 0 2.1132487478047324 -14.402193524000495 0 -14.402193524000495 33.272343017457416 0 0 0 0 -34.679517841081179 -38.802531237098265 0 -38.802531237098265 -40.511510704403463 0 0 0 0 0.98049661888284945 -2.2213898218226991 0 -2.2213898218226991 -4.8770775910556274 0 0 0 0 17.60805294692932 11.34108036010366 0 11.34108036010366 -6.1635444187927533 0 0 0 0 12.775437565246648 -4.0800779010405677 0 -4.0800779010405677 -11.766902300591255 0 0 0 0 -15.216325483903802 0.56499054418736705 0 0.56499054418736705 7.6525010821042088 0 0 0 0 8.6742711905958458 14.550885752789327 0 14.550885752789327 9.5694630058478651 0 0 0 0 3.475771935076982 -0.079815951412773423 0 -0.079815951412773423 -3.0381649966414286 0 0 0 0 14.029093007345182 3.3859133985315566 0 3.3859133985315566 -11.516464020608964 0 0 0 0 -6.8457028232337507 -8.7007404889664031 0 -8.7007404889664031 8.7407053806045951 0 0 0 0 3.2244328425126696 4.7400366318793203 0 4.7400366318793203 13.383016515786949 0 0 0 0 0.23422950539821219 0.10638612533241876 0 0.10638612533241876 -0.28492645315126808 0 0 0 0 1.3263306946432749 -10.366891149571074 0 -10.366891149571074 -30.003873611435665 0 0 0 0 8.1786745264735146 -1.3036209572655935 0 -1.3036209572655935 -28.90526437760127 0 0 0 0 3.0983170432309635 -8.6897529381067216 0 -8.6897529381067216 -11.890925938889268 0 0 0 0 4.8674277191943247 9.3793528530852655 0 9.3793528530852655 -10.128269290822573 0 0 0 0 4.7097351787069783 -7.6789011301739265 0 -7.6789011301739265 -19.999072798590532 0 0 0 0 2.0267829920677514 -3.025624127026731 0 -3.025624127026731 -22.796273120924525 0 0 0 0 5.5877372015777382 -4.5609391264524675 0 -4.5609391264524675 -30.994158775527467 0 0 0 0 0.36576238940119765 -5.517581868085017 0 -5.517581868085017 -21.142317060788628 0 0 0 0 3.5298208648314358 -2.0702835480387876 0 -2.0702835480387876 -20.058856408444626 0 0 0 0 -1.7091883833252268 -6.8966649122789931 0 -6.8966649122789931 -18.463359108071472 0 0 0 0 0.53419804181794461 -3.3779484054348359 0 -3.3779484054348359 -21.907266746956338 0 0 0 0 7.3417724680011816 7.6386048253625631 0 7.6386048253625631 -3.9600456955281516 0 0 0 0 2.7572801676540655 0.62293754329669682 0 0.62293754329669682 -0.80461708181249803 0 0 0 0 -1.764639164161963 -4.7670455152519935 0 -4.7670455152519935 -11.256433985216063 0 0 0 0 0.90367823560669525 0.53750165951147721 0 0.53750165951147721 -0.34256131559197378 0 0 0 0 2.2110587632334955 1.9843161945009342 0 1.9843161945009342 -8.9693717765912879 0 0 0 0 1.4083670727824256 -3.9871273333646968 0 -3.9871273333646968 -15.406223168987708 0 0 0 0 2.3866555174358837 4.0798756032891106 0 4.0798756032891106 -1.2117537661586084 0 0 0 0 1.9857046538390932 -3.3236726856762289 0 -3.3236726856762289 -7.6412075105472468 0 0 0 0 5.3061193735819643 -2.3506888444154583 0 -2.3506888444154583 -15.062086600122711 0 0 0 0 6.3431766660701214 1.8206079692454296 0 1.8206079692454296 -19.511600487966916 0 0 0 0 4.4250728434826669 -4.3763621602060994 0 -4.3763621602060994 -23.615081298196856 0 0 0 0 4.5985498788509176 -0.50580214156161674 0 -0.50580214156161674 -21.797791748393138 0 0 0 0 -7.5176670987810894 -2.7369386799882705 0 -2.7369386799882705 -44.858100249521158 0 0 0 0 8.3547571652002262 -7.7035762403365879 0 -7.7035762403365879 -43.308374377630116 0 0 0 0 21.666106116635092 -4.9579912858603166 0 -4.9579912858603166 -67.09853663956028 0 0 0 0 -20.291426180239114 -5.0643513599629841 0 -5.0643513599629841 53.942464879049567 0 0 0 0 0.85731527260543761 -0.10582733463555982 0 -0.10582733463555982 -0.0062687812327641979 0 0 0 0 39.437169747432904 -23.57101842998577 0 -23.57101842998577 -49.071451438177064 0 0 0 0 6.1536332645878247 -6.2540719383055148 0 -6.2540719383055148 -30.67666141709384 0 0 0 0 5.1920947239317456 -15.11905137862118 0 -15.11905137862118 -49.521401780906672 0 0 0 0 0.15866294927269242 0.32358257155262959 0 0.32358257155262959 -10.120609886020047 0 0 0 0 8.6351868919975914 -6.529668665668396 0 -6.529668665668396 -12.044156487449982 0 0 0 0 0.25289554685241455 -13.915574118208951 0 -13.915574118208951 -18.560854384594109 0 0 0 0 1.0895623707801636 -0.87005627998428459 0 -0.87005627998428459 -2.0026334071448542 0 0 0 0 -1.1389436177958032 -13.01459296694361 0 -13.01459296694361 -10.162060425133859 0 0 0 0 -0.43919792011442194 0.65580386969582805 0 0.65580386969582805 -0.77069688679920922 0 0 0 0 2.6059266807650374 -65.773107009450996 0 -65.773107009450996 -35.704027069461063 0 0 0 0 -60.410277834865951 -31.763564386571034 0 -31.763564386571034 -16.092329941652224 0 0 0 0 57.988335477204942 36.904763617290655 0 36.904763617290655 -11.73907350030845 0 0 0 0 58.522982090667028 23.579283996928098 0 23.579283996928098 -11.385090790696722 0 0 0 0 -2.1129947633763209 5.8693260575216186 0 5.8693260575216186 -35.20202537123032 0 0 0 0 -32.681064558341404 -34.97516022948048 0 -34.97516022948048 -29.916874494286276 0 0 0 0 -0.95311294842441474 2.56163717933374 0 2.56163717933374 -6.0993604229483998 0 0 0 0 33.500133289292506 -9.9433114447039657 0 -9.9433114447039657 -14.558399012817517 0 0 0 0 49.159849743613563 1.0925378149531753 0 1.0925378149531753 -8.7694454290490569 0 0 0 0 74.369945091490592 -5.9079170644518015 0 -5.9079170644518015 -29.802948040357478 0 0 0 0 74.010466062281125 8.8508161336717421 0 8.8508161336717421 -75.675013296866041 0 0 0 0 2.0040062375459229 -5.2263509495144262 0 -5.2263509495144262 -65.500176803660679 0 0 0 0 -19.57971735524842 -24.362389824192064 0 -24.362389824192064 -45.448765174620348 0 0 0 0 -19.075400956862609 -24.531387171894039 0 -24.531387171894039 -46.052759161924769 0 0 0 0 -18.659531823055644 -32.28997265378726 0 -32.28997265378726 -35.785829888177432 0 0 0 0 -54.043240831230605 -14.341249210767046 0 -14.341249210767046 -26.380417707607194 0 0 0 0 -13.419653757071046 28.939207653845187 0 28.939207653845187 -8.6217096246517713 0 0 0 0 -17.957147221022865 -3.2233910684228704 0 -3.2233910684228704 -22.957345840732842 0 0 0 0 17.168167303738414 -3.3951578083795084 0 -3.3951578083795084 -46.675331488767597 0 0 0 0 4.2424602295069462 -22.253288377878334 0 -22.253288377878334 -24.465329511448999 0 0 0 0 16.078531339604297 -7.3691190272061249 0 -7.3691190272061249 -51.959890263282887 0 0 0 0 65.383781032510683 -39.643415514620415 0 -39.643415514620415 -8.1973575377683119 0 0 0 0 -11.165483806571956 6.4980868969632866 0 6.4980868969632866 -26.365077864393356 0 0 0 0 16.988173456363768 -42.341783476702744 0 -42.341783476702744 -34.509293207231167 0 0 0 0 14.463275093193715 9.7249251499818001 0 9.7249251499818001 -12.177994431039679 0 0 0 0 -5.3204049507552327 -16.498103870247633 0 -16.498103870247633 25.979012513824273 0 0 0 0 -0.23553613932017514 -0.11620298563294806 0 -0.11620298563294806 -0.078839282929655141 0 0 0 0 5.7854296932825946 10.175075088926178 0 10.175075088926178 -89.096527400882223 0 0 0 0 0.76073795324317217 0.11646465999552902 0 0.11646465999552902 -0.18113817284362721 0 0 0 0 8.9407161307998422 -4.6552142020082101 0 -4.6552142020082101 -22.90042966601095 0 0 0 0 -11.611331212978712 -14.094467877419675 0 -14.094467877419675 -71.294124861280579 0 0 0 0 -0.58845691729607097 -21.722433336237373 0 -21.722433336237373 -102.12613184706947 0 0 0 0 -5.6172117606071197 -26.343557565509627 0 -26.343557565509627 -84.490733002628531 0 0 0 0 -7.0418260909534993 -12.716145216520431 0 -12.716145216520431 -74.697024145286377 0 0 0 0 -3.4263926584333149 -14.758097492536535 0 -14.758097492536535 -74.329171043868882 0 0 0 0 0.26523899101161597 0.099081245811581731 0 0.099081245811581731 -0.11898242128813585 0 0 0 0 1.3915447926779052 0.47636557856503714 0 0.47636557856503714 -22.141857427705418 0 0 0 0 4.1002040536906748 6.3041831821582264 0 6.3041831821582264 -11.799634614298157 0 0 0 0 14.3706541194789 5.2519857650191852 0 5.2519857650191852 -43.629776228193805 0 0 0 0 -0.1760585540506554 -1.531375978913502 0 -1.531375978913502 -38.376806232919307 0 0 0 0 15.244651488261979 -2.1004126329480641 0 -2.1004126329480641 -70.869393704560082 0 0 0 0 -2.743823797389382 6.9910733995128567 0 6.9910733995128567 -30.280683269526889 0 0 0 0 -4.2211369587837453 -3.2190419963815202 0 -3.2190419963815202 -29.39949517819673 0 0 0 0 -7.017405799750577 -2.6759413998202035 0 -2.6759413998202035 -48.655515561293413 0 0 0 0 -8.9828247896364246 -1.6371514692223172 0 -1.6371514692223172 -23.780558407116132 0 0 0 0 -10.956563092359033 6.0728955096793982 0 6.0728955096793982 -29.195605829821943 0 0 0 0 -6.0413220851133929 1.4724475332816382 0 1.4724475332816382 -39.172554959584431 0 0 0 0 -10.748242613801153 4.659351287281595 0 4.659351287281595 -40.867354413042449 0 0 0 0 1.7963794322422473 -3.2711596125172946 0 -3.2711596125172946 -22.74601027300605 0 0 0 0 5.5221736694911669 -14.135083314353324 0 -14.135083314353324 -18.736813652236037 0 0 0 0 3.7980215544030216 -10.721995746177072 0 -10.721995746177072 -24.239795118589427 0 0 0 0 -3.649635828223154 -7.5766848154294166 0 -7.5766848154294166 -20.265281877655752 0 0 0 0 0.37243812346150662 -8.2175074920003226 0 -8.2175074920003226 -21.32944822139234 0 0 0 0 0.69789033689789903 -6.2352127822919101 0 -6.2352127822919101 -16.603112328745738 0 0 0 0 -1.9375134969836836 -0.15999204857325822 0 -0.15999204857325822 -12.289899142247123 0 0 0 0 11.644856420554788 -10.241750465910627 0 -10.241750465910627 -10.380282307884954 0 0 0 0 5.7490031295023982 -8.1459548627590266 0 -8.1459548627590266 -10.453971382334203 0 0 0 0 5.5287995971830242 -9.155576484773519 0 -9.155576484773519 -14.902304910375506 0 0 0 0 10.63152347139777 -7.1095102542103064 0 -7.1095102542103064 -6.7655523097082551 0 0 0 0 9.8625012624461306 -14.824794244545387 0 -14.824794244545387 -5.6608483421505298 0 0 0 0 6.2934920823129232 -12.458162811557486 0 -12.458162811557486 -15.392210269444604 0 0 0 0 10.150893692627278 -14.61886042670676 0 -14.61886042670676 -14.807489116667512 0 0 0 0 11.72870623566638 -14.51746381677475 0 -14.51746381677475 -19.469477406883016 0 0 0 0 9.8019495639805996 -9.2316750693271388 0 -9.2316750693271388 -20.716335647573032 0 0 0 0 -0.9981658571969092 -12.557058395083914 0 -12.557058395083914 -18.959092675049277 0 0 0 0 4.4339452941979971 -13.666164768535737 0 -13.666164768535737 -18.885660558185009 0 0 0 0 2.009598389995773 -6.1843906602946959 0 -6.1843906602946959 -14.943902290626284 0 0 0 0 -3.891291066425083 -13.282368741489336 0 -13.282368741489336 -14.884622143658436 0 0 0 0 10.377666496390219 -22.082396530797951 0 -22.082396530797951 -40.895530113328277 0 0 0 0 -0.67814399674717141 -0.42178672523449112 0 -0.42178672523449112 -0.18204842298756718 0 0 0 0 10.778272569219553 -1.9200381975829259 0 -1.9200381975829259 -63.273133452225238 0 0 0 0 -3.0339312190440069 -10.401721135892785 0 -10.401721135892785 12.290101770338651 0 0 0 0 -6.3873947735391994 0.2152961750225586 0 0.2152961750225586 -32.075582513741011 0 0 0 0 2.2110824044181072 -12.683087484849921 0 -12.683087484849921 -30.959568033342293 0 0 0 0 -9.5538022824769087 -19.051839359382939 0 -19.051839359382939 -77.723233250356088 0 0 0 0 -3.1291430929124999 11.866632978603917 0 11.866632978603917 -6.3314480931630897 0 0 0 0 0.8436851739273834 -19.604107451047071 0 -19.604107451047071 -92.368487034705595 0 0 0 0 -1.7399177744944154 6.9860102266354716 0 6.9860102266354716 0.17129466798724025 0 0 0 0 3.4606624086881084 -14.82609718549196 0 -14.82609718549196 -7.3214879174929592 0 0 0 0 9.5627260358019157 -9.9407021713368522 0 -9.9407021713368522 -17.899692780947817 0 0 0 0 1.2674395024593381 0.10507462290455205 0 0.10507462290455205 -0.18165131886617925 0 0 0 0 -9.6936956933236189 -34.610751608818617 0 -34.610751608818617 -94.594468625048648 0 0 0 0 -5.5493865881034026 -11.875543951580767 0 -11.875543951580767 -83.943159732033109 0 0 0 0 7.2184110290793342 -30.875591126523204 0 -30.875591126523204 -123.09736996974243 0 0 0 0 0.12356266727854504 0.12804237944665164 0 0.12804237944665164 -0.19461644164047343 0 0 0 0 13.693165091683795 -0.74554400432134571 0 -0.74554400432134571 -103.79065474104664 0 0 0 0 7.5680484387028173 0.078468053770848201 0 0.078468053770848201 -41.41893513174 0 0 0 0 11.335795162716465 3.461672390507033 0 3.461672390507033 -57.232757878651682 0 0 0 0 16.133079545879184 9.0369778330168629 0 9.0369778330168629 -74.572336248439569 0 0 0 0 1.6240413631010249 0.061661632666531574 0 0.061661632666531574 -0.35685430881621816 0 0 0 0 5.7614737041261606 -9.7184111628687333 0 -9.7184111628687333 -73.077202272985232 0 0 0 0 -1.049816789445881 -0.79813160775064507 0 -0.79813160775064507 -0.30115258271524681 0 0 0 0 1.8026530506941185 -9.3412751226982209 0 -9.3412751226982209 -4.4844965596007569 0 0 0 0 8.5117277562148956 -8.7913794916767074 0 -8.7913794916767074 -71.726998000839785 0 0 0 0 12.24370973358964 -5.8946415393793359 0 -5.8946415393793359 -70.838967849382243 0 0 0 0 1.2618112578834371 -1.3656143811276706 0 -1.3656143811276706 -56.90023662533531 0 0 0 0 0.28302477672778892 -0.2194895729286932 0 -0.2194895729286932 -0.22120197500229644 0 0 0 0 5.3979407676232256 9.728649886736207 0 9.728649886736207 -68.61676988060708 0 0 0 0 2.092146274919287 -8.7631135981273474 0 -8.7631135981273474 29.045752146445921 0 0 0 0 -0.039474244541009007 -0.13370237861254797 0 -0.13370237861254797 -0.17220598224078643 0 0 0 0 0.53145707340127046 -9.056542057286606 0 -9.056542057286606 6.8340342484243592 0 0 0 0 -6.7591574175512505 -7.1022802255213264 0 -7.1022802255213264 -60.281374644911921 0 0 0 0 0.16079299298331762 8.0375238178223753 0 8.0375238178223753 -37.015756092918764 0 0 0 0 13.316646988162347 -7.492783516084728 0 -7.492783516084728 -44.34742500301877 0 0 0 0 11.778673282140517 0.046636063331334299 0 0.046636063331334299 -63.415500622136733 0 0 0 0 -1.8590823343802185 -19.604433256320817 0 -19.604433256320817 -26.235258278338279 0 0 0 0 17.771527587901971 -9.2660501036531286 0 -9.2660501036531286 -27.281045589042151 0 0 0 0 9.4882285494650205 -23.721737803453834 0 -23.721737803453834 20.18643040812708 0 0 0 0 14.022752499546186 -6.3474683425447438 0 -6.3474683425447438 -18.289887184198221 0 0 0 0 28.571366340559962 -24.077337732345995 0 -24.077337732345995 -14.792162728185758 0 0 0 0 20.015704496782519 -14.620174064970115 0 -14.620174064970115 -17.988009667452388 0 0 0 0 9.10183053458411 -12.141491412528012 0 -12.141491412528012 -22.897265919917345 0 0 0 0 14.968329368986588 -8.299628490755822 0 -8.299628490755822 -22.754199860908102 0 0 0 0 11.914522166919852 -1.8520322674008867 0 -1.8520322674008867 -29.244556353391545 0 0 0 0 12.159829427163231 -3.6231566206697607 0 -3.6231566206697607 -26.600338364731215 0 0 0 0 13.033745903344197 -9.801451123098559 0 -9.801451123098559 -23.088249659982466 0 0 0 0 -2.2018899676270394 42.996130953980128 0 42.996130953980128 -32.860907717018108 0 0 0 0 -3.5649976062481983 10.841078405414009 0 10.841078405414009 13.873610369666949 0 0 0 0 -1.8265261050014487 18.423362354429173 0 18.423362354429173 -26.874427092439419 0 0 0 0 7.4533553172326492 5.8081825519602717 0 5.8081825519602717 -46.376383510995311 0 0 0 0 10.627017367335725 -2.0166695575690028 0 -2.0166695575690028 -27.205207401781081 0 0 0 0 9.9901192916422588 -13.066566368166832 0 -13.066566368166832 -40.065000463466731 0 0 0 0 18.19893409703964 -11.292737422174213 0 -11.292737422174213 -91.058469232722928 0 0 0 0 17.398435420258807 -7.6575128105866952 0 -7.6575128105866952 -36.210696296720016 0 0 0 0 -10.79304955621285 -28.175927457386479 0 -28.175927457386479 -37.784461558968815 0 0 0 0 8.309200318593895 -0.46221926661374368 0 -0.46221926661374368 0.60931062388681312 0 0 0 0 13.283876552011407 -20.659919741028716 0 -20.659919741028716 -33.851273585384888 0 0 0 0 6.8780201689379226 -27.986052540523701 0 -27.986052540523701 -41.809647472512097 0 0 0 0 0.21995656709494593 0.0054116499947518548 0 0.0054116499947518548 -0.080651280965824412 0 0 0 0 19.719623587229307 -0.38817174489554418 0 -0.38817174489554418 -2.4440833132662192 0 0 0 0 48.864159902516008 10.128577100437042 0 10.128577100437042 -27.693457585971373 0 0 0 0 11.921237854331437 5.6335926313824842 0 5.6335926313824842 8.419170822149681 0 0 0 0 0.04731529447161012 0.2948841123457524 0 0.2948841123457524 -3.107269651294402 0 0 0 0 -34.134086614242534 20.662515464728131 0 20.662515464728131 -6.0452670637071151 0 0 0 0 12.096448529631289 7.6932675950361045 0 7.6932675950361045 -41.693203951550458 0 0 0 0 10.719192300514692 31.110419648755396 0 31.110419648755396 -14.394014865107238 0 0 0 0 2.3872665667985613 -1.6581434454967132 0 -1.6581434454967132 -16.684792578871811 0 0 0 0 10.273180261614243 -18.129738463978811 0 -18.129738463978811 -4.762300494225201 0 0 0 0 -4.8699974700983262 31.406576003352257 0 31.406576003352257 -11.788004977787296 0 0 0 0 2.3233661319961056 -1.558446381016533 0 -1.558446381016533 -16.360595490028885 0 0 0 0 4.426620697531007 0.1600016232246162 0 0.1600016232246162 -6.5802818110933003 0 0 0 0 5.8641816990507323 -11.074757629539818 0 -11.074757629539818 -2.0259842551104157 0 0 0 0 0.37082057932957468 -3.5810331844986649 0 -3.5810331844986649 -8.8161391053545231 0 0 0 0 0.59422857795129858 -1.4182200859090699 0 -1.4182200859090699 0.9213037815725329 0 0 0 0 -15.485121727256569 -7.5936449332830307 0 -7.5936449332830307 9.3507572427646437 0 0 0 0 -5.9674236389711837 -15.469563466265754 0 -15.469563466265754 -5.0485583770077938 0 0 0 0 -2.9285684917874732 -11.658037756694284 0 -11.658037756694284 -1.5666650542088973 0 0 0 0 2.6516094424871426 -16.020352442175863 0 -16.020352442175863 -13.039264760439892 0 0 0 0 -22.118973901873005 -13.419895174558405 0 -13.419895174558405 -5.2569020525420456 0 0 0 0 -0.029752653165387499 0.21969605693474747 0 0.21969605693474747 -1.128612470444283 0 0 0 0 7.3516170439391431 42.431808885637565 0 42.431808885637565 -9.2184517553941987 0 0 0 0 2.0130920782712565 -18.870057801999565 0 -18.870057801999565 -4.1933531738777674 0 0 0 0 22.977843014031805 -13.014250252722377 0 -13.014250252722377 -14.254562160635032 0 0 0 0 32.118758360845391 -26.560328279184205 0 -26.560328279184205 -17.334503739562024 0 0 0 0 39.651798480033563 -69.29571601962607 0 -69.29571601962607 -93.320894593659659 0 0 0 0 2.3869476325056187 -1.5588953987809351 0 -1.5588953987809351 -16.89051207822957 0 0 0 0 3.2970593883512285 -2.3896391777960746 0 -2.3896391777960746 -14.943350933147851 0 0 0 0 31.968045829368521 -1.8855528343879087 0 -1.8855528343879087 -32.921706257890037 0 0 0 0 23.270043160608566 -13.509931832186339 0 -13.509931832186339 -6.6669392929879905 0 0 0 0 21.374707007610482 -21.705241766206655 0 -21.705241766206655 -41.046649623822304 0 0 0 0 31.188271835152477 -1.8279455298288667 0 -1.8279455298288667 -38.973178199790709 0 0 0 0 31.797938928098233 -3.1182695495615462 0 -3.1182695495615462 -36.278049068871042 0 0 0 0 32.638520962818347 19.039699603137706 0 19.039699603137706 -30.128004516431247 0 0 0 0 30.966968558445615 2.2045665953846765 0 2.2045665953846765 -12.136232342649237 0 0 0 0 -3.9512161636266683 7.7480949469609186 0 7.7480949469609186 -32.162525825239754 0 0 0 0 0.10034566338887707 -0.080993769471643162 0 -0.080993769471643162 -2.5066009437521766 0 0 0 0 -20.331753244179708 -4.1240599477905562 0 -4.1240599477905562 -49.686583274323311 0 0 0 0 -19.415716750809281 -20.239160266090494 0 -20.239160266090494 -31.25983730056214 0 0 0 0 -22.293030150896129 -27.743443951506379 0 -27.743443951506379 -34.016818913186398 0 0 0 0 1.5256999721328839 -20.682994656017399 0 -20.682994656017399 -32.242209896721761 0 0 0 0 39.843885675529236 18.814572052461699 0 18.814572052461699 -65.060061255497885 0 0 0 0 17.493661300957001 -22.134799137781101 0 -22.134799137781101 -69.062503161632776 0 0 0 0 3.5386770225815098 -16.149270255378269 0 -16.149270255378269 -46.03724066000359 0 0 0 0 -63.911776078103458 3.8569711525115054 0 3.8569711525115054 -42.997459801305467 0 0 0 0 -50.074532401337592 -37.707084398895859 0 -37.707084398895859 -49.82408982672132 0 0 0 0 -105.60066016876453 -8.8319205651059747 0 -8.8319205651059747 -78.21763869388451 0 0 0 0 -45.725326006712294 -38.467288180544983 0 -38.467288180544983 -164.72624402520523 0 0 0 0 -41.750029950457701 -10.647632209700532 0 -10.647632209700532 -78.166724214769488 0 0 0 0 -42.452806201477188 -16.022789917078399 0 -16.022789917078399 -47.744734687206801 0 0 0 0 -3.291501255176172 48.377983428203152 0 48.377983428203152 -11.720419686537753 0 0 0 0 32.065739868835635 7.6115540715723 0 7.6115540715723 -152.7459797805268 0 0 0 0 23.649136381112726 26.681793651686121 0 26.681793651686121 -35.619185124707656 0 0 0 0 31.364325917248152 13.467350617496777 0 13.467350617496777 -18.78426552215069 0 0 0 0 3.1707191321708015 -0.15886802097188912 0 -0.15886802097188912 -2.0674222693502351 0 0 0 0 -27.105644133282908 96.181441320440172 0 96.181441320440172 188.13340165319642 0 0 0 0 62.565363652034222 -121.48366618443717 0 -121.48366618443717 -524.48248027118461 0 0 0 0 1.2777591051951873 0.088609808882344154 0 0.088609808882344154 -0.26068760545347547 0 0 0 0 42.646212690786342 12.768289554067451 0 12.768289554067451 -18.769576206702141 0 0 0 0 -23.290752667742709 141.00910591163847 0 141.00910591163847 -282.29572047921829 0 0 0 0 75.426857985858078 167.80917920007869 0 167.80917920007869 -78.767148199697658 0 0 0 0 85.193417468778421 111.87433227808083 0 111.87433227808083 -225.91470608589225 0 0 0 0 -159.83643164517184 10.121418690983774 0 10.121418690983774 -78.746858602044995 0 0 0 0 -1.1032914867326742 -0.50451561742334561 0 -0.50451561742334561 -0.25687663405212646 0 0 0 0 8.2153503030053798 4.5338695922041552 0 4.5338695922041552 -8.9239720846617274 0 0 0 0 10.348977545881553 4.5262340275230599 0 4.5262340275230599 -21.833039791975352 0 0 0 0 33.599956536688296 16.614023638415347 0 16.614023638415347 -25.612093725742852 0 0 0 0 19.195116675289228 -0.72787134449299629 0 -0.72787134449299629 -44.18224661261047 0 0 0 0 41.857824772796405 26.688120146675203 0 26.688120146675203 -19.284425445328452 0 0 0 0 31.315479409546583 15.875915375768727 0 15.875915375768727 -36.547513510518911 0 0 0 0 26.294315240029846 29.476331121986732 0 29.476331121986732 -19.355819790366695 0 0 0 0 19.618599395701722 25.562036935983087 0 25.562036935983087 20.578397305581348 0 0 0 0 2.6371458215737125 1.4562081876021367 0 1.4562081876021367 -0.15910514578613244 0 0 0 0 29.749849570801643 99.419309110897757 0 99.419309110897757 -226.86244148776495 0 0 0 0 -17.614225840355175 29.326995630547572 0 29.326995630547572 -47.510831265403795 0 0 0 0 -1.6253311701575512 2.7645095450643566 0 2.7645095450643566 -1.8491083685324838 0 0 0 0 2.62571001881199 1.6118923965520224 0 1.6118923965520224 -2.246760938581716 0 0 0 0 0.15584873046989545 0.82211308385996595 0 0.82211308385996595 -4.4314699070390731 0 0 0 0 55.674402774311602 -35.964704949374209 0 -35.964704949374209 -76.708884029962064 0 0 0 0 27.541705745661147 20.354000472410462 0 20.354000472410462 -6.311489791412896 0 0 0 0 0.77072381914959065 0.3046043489430037 0 0.3046043489430037 -11.011691941123349 0 0 0 0 -61.026435383699209 18.449166353271721 0 18.449166353271721 34.48992758645727 0 0 0 0 0.90168961960807792 13.348340099380948 0 13.348340099380948 -54.377159332264455 0 0 0 0 -6.6779048497269287 -21.661820089147113 0 -21.661820089147113 -43.101225536427592 0 0 0 0 8.4076561982913063 -4.7541668044117387 0 -4.7541668044117387 -12.334137326492964 0 0 0 0 3.8501967378006157 -7.5910629774143672 0 -7.5910629774143672 -16.681320220150155 0 0 0 0 2.1637273197329705 -3.4453392115565293 0 -3.4453392115565293 -10.410502837090462 0 0 0 0 -36.605307876399365 -32.21839129983141 0 -32.21839129983141 -43.940165255844931 0 0 0 0 -2.5381533572017361 -3.4994921601630722 0 -3.4994921601630722 -5.2622001044064746 0 0 0 0 -0.12066747858845694 0.092365523380529169 0 0.092365523380529169 -1.8184908043555716 0 0 0 0 2.137448184615323 -22.624691992834187 0 -22.624691992834187 -35.782747900472259 0 0 0 0 1.036977346810545 -27.792738786185055 0 -27.792738786185055 -51.583744096192277 0 0 0 0 -16.242699008659656 -10.559741679124272 0 -10.559741679124272 -7.6798024024938059 0 0 0 0 -19.871196097781649 -29.80981425025675 0 -29.80981425025675 -22.684408625815195 0 0 0 0 -4.8436577623763242 -4.4447465349426238 0 -4.4447465349426238 -11.439560745100607 0 0 0 0 3.3196916204751687 -13.337746209565466 0 -13.337746209565466 -22.788247227562266 0 0 0 0 5.8763278327072452 -1.377055911464578 0 -1.377055911464578 0.41508084569411041 0 0 0 0 0.85904899863203354 -18.706853570828571 0 -18.706853570828571 -33.881492100628293 0 0 0 0 10.391601952151177 -5.7117229229806981 0 -5.7117229229806981 -28.613264988667197 0 0 0 0 7.4546708141419344 -2.3820653937916632 0 -2.3820653937916632 -23.948184775686514 0 0 0 0 6.617187957404326 -4.0654749953389455 0 -4.0654749953389455 -26.357499650955106 0 0 0 0 -2.0603273537565201 2.0520682782384938 0 2.0520682782384938 -25.916849875971593 0 0 0 0 1.8609915919554245 -2.1000212403279273 0 -2.1000212403279273 -0.60918705346671942 0 0 0 0 -2.7465897293035368 3.2365873076251432 0 3.2365873076251432 -8.6011848448970341 0 0 0 0 24.539821480482829 -25.735737646715961 0 -25.735737646715961 -8.1763270059432216 0 0 0 0 2.5468895308904393 -1.6078520050018597 0 -1.6078520050018597 -22.053986664960576 0 0 0 0 8.4250975863601525 -17.739085346494903 0 -17.739085346494903 11.880030993223158 0 0 0 0 -4.468696761450019 -21.070101782069742 0 -21.070101782069742 -9.4817015284831996 0 0 0 0 13.910865932715637 -7.593268064484846 0 -7.593268064484846 -4.4770710631237307 0 0 0 0 6.2911615103919996 -7.8315662129403876 0 -7.8315662129403876 -3.816321656340957 0 0 0 0 0.12116781348757488 -1.5494290558109518 0 -1.5494290558109518 0.95085627585270771 0 0 0 0 -8.9595133527627695 20.640684038602558 0 20.640684038602558 -45.065139864826051 0 0 0 0 -0.30193756849917008 -6.1544067142349377 0 -6.1544067142349377 5.3260325477858714 0 0 0 0 7.3384939195522101 -2.0835372939744854 0 -2.0835372939744854 -1.2071945843365968 0 0 0 0 15.990067332378203 -2.4624794487126564 0 -2.4624794487126564 -15.364138564426867 0 0 0 0 1.8949023733998729 -6.615302734645411 0 -6.615302734645411 -12.377112654164648 0 0 0 0 3.1412870877561483 -1.8807275065189613 0 -1.8807275065189613 -13.133333134009327 0 0 0 0 6.8221236774495537 0.53164695188343103 0 0.53164695188343103 -21.586870101639988 0 0 0 0 
</DataArray>
<DataArray type="Float64" Name="cross_section_updated" format="ascii">
1 1 1 1 1 1 1 1 0.0098151804896868637 1 1 1 1 0.0096475428809488541 0.01002237894518934 0.0096967528660547586 1 1 1 1 1 0.0098498574255789853 1 0.0098638479004616794 1 1 1 1 1 1 1 1 0.0096517784359730473 1 1 1 1 0.0092126850384784357 1 1 1 1 1 1 1 1 1 1 1 0.0090928445656887659 1 1 1 0.0099852517198065031 1 1 0.009750621217110414 1 0.0099464721663583867 1 1 0.009067303660311124 1 1 1 0.0093641935690953419 0.0099913199863284671 1 0.010098416169078889 0.0094231293765222116 1 0.010066698672139482 1 1 1 1 1 1 1 1 0.0095481078547423326 1 1 0.0098451413348902093 1 0.010002897745790012 1 1 1 1 1 0.0099067080198339784 1 1 0.010005388686362599 1 1 0.0099604817601927926 1 1 1 1 1 1 1 1 1 1 0.0098457917567136514 1 1 1 1 0.0099868121038192512 1 1 1 1 1 0.0098231589171012719 1 0.0096463976318836523 1 1 1 0.0096049803816218582 0.0098215252981438961 0.010002421543852162 1 1 1 1 0.0094365253235012027 1 1 1 1 0.0097329670823228052 1 1 1 1 1 1 1 0.0097667596615702464 1 1 1 1 1 0.0095286131808193682 1 1 1 1 1 1 1 1 1 1 1 1 1 1 1 1 1 1 1 0.010036329821766492 0.010036440458174162 1 1 1 1 1 1 1 1 1 1 1 1 1 1 0.0097676647878836512 1 1 1 1 1 0.010076411329079042 1 1 1 1 1 1 0.010032400468753234 1 1 1 1 1 1 1 1 0.0097618535192491238 1 1 1 1 0.0098952612041988304 1 1 1 1 1 0.0097876880044160258 1 1 1 0.010055909052184684 1 1 1 1 1 1 1 0.0094181293635283974 1 1 1 0.0097291267368929766 0.0091545043069364545 1 1 1 1 1 1 1 0.0094863271244145196 1 1 0.0098135625296917866 1 1 1 1 1 1 1 1 1 1 0.0099266632585311362 1 1 1 1 1 0.0095809373451187785 1 0.0095814061994090542 1 1 0.0097062961870981856 1 1 1 1 1 1 1 1 0.0099934499960098733 1 1 0.0090032024577530421 1 1 1 0.0091915920078049426 1 0.010167352768326114 1 1 1 1 1 0.0095223775852810895 1 0.0089846682091156826 0.009760703152419203 1 1 1 1 1 1 0.010186067142088917 1 1 1 1 1 1 1 1 1 1 1 1 1 1 1 1 1 1 1 1 1 1 1 1 1 1 0.0091358412583049404 1 1 0.0099284120385316945 1 1 1 1 1 1 1 1 1 1 1 1 1 1 1 1 0.0099958287761864727 1 1 1 1 1 1 1 0.0099760120193841655 1 1 1 1 1 1 1 1 1 1 1 1 1 1 1 1 1 1 1 0.0094643126314405621 1 1 1 1 1 1 0.0098301746130922719 1 1 1 1 1 1 1 1 1 1 1 1 1 1 1 1 1 0.0097387849860671657 0.0099239922294698645 1 1 1 1 1 1 1 1 0.010043796444921801 1 1 0.010113141916312584 1 1 0.0098646944594186856 1 1 1 1 1 0.0098495064096870109 1 1 1 1 0.0099255141802171449 1 1 1 1 1 1 0.010007535287451103 1 1 1 1 1 1 1 1 1 1 0.0099741993561539115 1 1 1 0.010163949615262098 1 1 1 1 1 0.01019782655640305 1 1 1 1 0.0096228385502700325 1 1 1 1 1 1 1 0.0098350307262319893 1 1 1 1 1 1 0.0099614618273869381 1 1 0.010002008922713468 1 1 1 1 1 1 1 1 1 1 1 1 1 0.0099526752175922526 1 1 1 1 0.0099714154227309587 1 1 1 1 0.0099082928908430321 1 1 0.01000239272620479 1 0.0099287793160477301 1 1 1 0.0098948489293350511 1 1 1 1 1 0.0094786983640167601 1 1 1 1 1 1 0.0099816894029925284 1 1 1 1 1 1 1 1 0.009688814764006435 1 1 0.0087031096205274945 1 1 0.0099997951228668891 1 1 0.0085020129748283393 1 1 0.0099356939153050425 1 1 1 1 0.0080797937940842481 1 1 1 1 1 1 1 0.010074659403487323 1 1 0.0099274914417389216 1 1 1 1 0.010247259750328981 1 1 1 1 1 1 0.0079966520288327191 0.0090174324147246077 0.0089998280823733092 1 1 1 1 1 1 0.0099245999638945138 1 1 1 1 1 1 1 1 1 1 1 1 1 1 1 1 1 1 1 1 1 1 1 1 1 1 1 1 1 1 1 1 1 1 0.010046040129667137 1 1 1 1 1 1 1 0.0087139812591781884 1 1 1 1 0.0092787106952076457 1 1 1 1 1 1 1 1 1 1 1 1 1 1 1 1 1 1 1 1 1 1 0.010005480155688799 1 1 0.0099882999014787519 1 1 1 1 1 0.0095852330036306464 1 1 0.009875910588477671 1 1 0.010079191412409354 1 0.01002582966064864 1 1 1 1 1 0.010006896369304331 1 1 1 1 0.0098443743798880996 1 1 1 1 1 1 1 1 0.0099904601671750026 1 1 1 0.0099580631485543993 0.0099747547335291217 0.010055783829707 0.0090907219814865617 1 1 1 1 1 1 1 1 1 1 0.009198279204406478 1 0.0093922184836928262 1 1 0.010010128427520299 1 1 1 1 1 1 1 1 1 1 1 1 1 1 0.0096685316627394338 0.009683790858637558 0.010058719524839898 1 1 0.0098281657505328388 1 1 0.010000032174852843 0.0097478749432263877 1 1 1 1 0.010030447348735155 1 1 0.0099654398681126126 1 1 0.0099524489423359081 1 1 1 1 1 1 1 1 1 1 1 1 0.0099660473546700854 1 1 1 1 1 0.010007479747584338 1 0.0098987948264066677 1 1 0.0093300638324705747 0.010065791035487427 1 1 1 1 1 0.0094518678099737366 1 1 0.0099964944482147152 1 1 0.010146926122945238 1 1 0.0094468671933119284 1 1 0.0095928765524049258 0.0098302687852921729 1 1 0.0098804485283422068 1 1 0.009837662354748939 1 0.0098755549294730106 0.0099765379236298711 1 1 1 1 0.0097080418695955923 1 1 1 0.0099983602744770049 1 0.0088368370550761036 1 1 1 0.0087682478388699109 1 1 1 0.01040533932164359 1 1 1 0.0084264520171671992 1 1 0.0099996944005461344 0.0095079544979412844 1 1 1 0.0096987321567936716 1 1 1 1 0.0099933451220040898 1 0.010003047487303147 1 1 1 0.0089288573869130208 1 0.0098526266500423947 1 1 1 1 1 1 1 1 1 1 1 1 1 1 1 1 1 0.0099724012158094386 1 1 1 1 1 1 1 0.0097021151939878873 1 1 1 1 1 1 1 1 1 1 1 1 1 1 1 1 1 1 1 1 1 1 1 1 1 1 1 1 1 1 1 1 1 1 1 1 1 1 0.0099998157839162188 1 1 1 1 1 1 1 1 1 1 1 1 1 1 1 1 1 1 1 1 1 1 1 1 1 1 1 1 1 1 1 1 1 1 1 1 1 1 1 1 1 0.0096281370618808027 1 1 0.0097384376398196373 1 0.0095785545395336551 1 1 1 1 1 0.010021521319621718 0.010000146863146552 0.0099350413700973767 1 1 1 1 1 1 1 1 0.010011616528953604 1 1 1 1 1 1 1 1 1 1 0.0099890345413790171 1 1 1 1 1 0.0099674877053336029 1 1 1 1 1 1 0.0099455883165751203 1 1 1 1 1 0.0098820707390422351 0.0098187189808993068 1 1 1 1 1 1 1 1 1 1 1 1 0.010001735811628183 0.009763789938050358 1 1 1 1 1 1 1 1 0.0098567466876870423 1 1 1 1 1 1 0.0099921327445968017 1 1 1 1 1 1 1 1 1 1 1 1 1 1 1 1 1 1 1 1 1 1 1 1 1 1 1 1 1 1 1 0.0099471569156696412 1 1 1 1 1 1 0.0098415484055021964 1 1 1 1 1 0.0096589523305580828 1 1 1 1 0.0099234199156801612 1 0.010004072155974958 1 1 1 1 0.0099938296344585162 1 1 1 1 1 0.010019796837836523 1 1 1 1 1 0.00951896359063149 1 1 1 0.0096646049794494471 1 1 1 0.010004723875582142 1 1 1 1 1 1 1 1 1 1 1 1 1 1 1 1 0.0096131269691603679 1 0.01001800709538838 1 1 1 1 0.010002309601218857 1 1 1 0.0098719493664161176 1 1 0.0098448746737559191 1 1 1 0.0099989921700168738 0.009864051954634228 1 1 1 1 1 1 1 1 1 1 1 1 1 1 1 1 1 1 1 1 0.0099753805815088227 1 1 0.0095373648849727474 1 1 1 1 0.0095270531515982693 1 1 1 0.0097991463053884072 1 1 1 1 0.0099013053019971955 1 1 1 1 1 1 1 1 1 1 1 1 1 1 1 1 1 1 1 1 1 1 1 0.0097954323893945199 1 1 1 1 1 1 1 1 1 1 1 1 1 1 1 1 1 1 1 1 1 1 1 1 1 0.0097594802168966439 0.0093440106823692564 1 1 1 1 1 1 1 1 1 1 1 1 1 1 1 1 1 1 1 1 1 1 1 1 1 1 0.0096324738259897253 1 1 1 1 1 1 1 1 1 1 1 1 1 1 1 1 1 1 1 1 1 1 1 1 1 1 1 0.0097698767443403986 1 1 1 1 1 1 1 0.0099225235743707133 1 1 1 1 1 1 1 1 1 1 1 1 1 1 1 1 1 1 1 1 0.010111479444465346 0.0091414490961291422 1 1 1 1 1 1 1 1 1 1 1 1 1 1 1 1 1 1 0.0097274610314666034 0.0093084829836677339 1 1 0.009846105506687566 1 1 1 1 1 1 1 1 1 0.0090459894458468013 0.0099970892841819529 0.0099859626520278511 1 1 1 1 0.0088975155411073759 1 1 0.0099649357406987969 1 1 1 1 0.0099899459458069849 1 1 1 1 1 1 1 0.010014406127502304 1 1 1 1 1 1 0.010042122173992672 0.0088313442552928004 0.0098968174351738488 1 1 1 1 1 1 1 1 1 1 1 1 1 1 1 0.010009800562575888 1 1 1 1 1 1 0.0097791394188569344 1 1 1 1 1 1 1 1 1 1 1 0.010000572951484283 0.0096623550930169284 1 1 1 1 0.0099218209209230718 1 1 1 0.0099653087861501927 1 1 1 1 1 1 1 1 1 1 1 1 1 1 1 1 0.010018430284502625 0.010150110316966283 1 0.0091702664465093536 0.0093918205473157435 1 1 1 0.0090788609607826854 1 0.0099995277016227142 1 1 1 1 1 0.01000047552573298 1 1 1 1 1 1 1 1 1 0.010054803976716153 1 1 1 1 1 0.0079455855621722096 1 1 1 0.0080998437070094725 1 0.010282706409671178 1 1 1 1 0.0099258623799095645 1 0.0099702214024462773 1 1 1 1 1 0.0096924462638481243 1 1 1 1 1 1 1 1 1 1 1 1 1 1 1 0.0096799668325544368 1 1 1 1 0.0099937451645229856 1 1 1 1 1 1 1 1 1 1 1 1 1 1 1 1 1 1 1 1 1 1 1 1 1 1 1 1 1 1 1 1 1 1 1 1 1 1 1 1 1 1 1 0.0098072512356064279 1 0.0096697913161151328 1 0.0098405249106496544 1 1 1 1 1 1 1 0.0088663237866488005 1 1 1 0.0084370923147488504 1 1 1 1 1 1 1 1 0.0086896197887194326 1 1 1 1 1 1 1 1 0.0096201441238453478 1 1 1 1 1 1 1 1 1 1 1 1 1 1 1 1 1 1 1 1 1 1 1 1 1 1 1 1 1 1 1 1 1 1 1 1 1 1 1 1 1 1 1 1 1 1 1 1 1 1 1 1 1 1 1 1 1 0.0086989913517552947 1 1 1 1 1 1 1 1 1 0.0085927681448030868 1 1 0.0099982433497219098 1 1 0.01000612410113689 1 1 1 0.010001954310386333 0.010053038888630694 1 0.0095929880711988266 0.009841275400843473 1 1 1 0.0099353295318969932 1 1 0.0096164675570757953 1 1 1 1 1 1 0.0097240609760599148 1 1 1 1 1 1 1 1 1 1 1 1 1 0.0098479343701707855 0.0095639385691442431 1 1 1 0.0098031901503483343 1 1 1 1 1 0.0092988207294551137 1 1 1 1 0.009958466464558606 1 1 0.0097718991117827121 1 0.0099972662645342429 1 0.009816369286169916 1 0.0094171121346711736 1 0.01000044123501535 1 0.010069205806260339 1 1 1 1 1 1 1 1 0.0097482108962146062 0.0095864800222435764 1 1 1 1 1 1 1 1 1 1 1 1 1 1 1 1 1 1 1 1 1 1 1 1 1 1 1 1 1 1 1 0.0096489206587262802 1 1 1 1 1 1 0.010199869001803322 1 1 1 1 1 1 0.0099362087192737276 1 1 1 1 0.0099918215409627031 1 0.010018716404612084 1 1 1 1 1 1 1 1 1 1 0.010095392743163905 1 1 1 0.010305612937379619 1 1 1 1 1 1 1 1 1 1 1 0.0099602238480714506 1 1 1 1 1 1 1 1 1 1 1 1 1 1 0.010072055878287366 1 1 1 0.009704194391850338 0.0099854785569788995 1 0.0095764782349631802 1 1 0.0099929772129091366 1 1 1 0.0095634941037154066 0.010013653852736089 1 1 1 1 1 0.010021482808887389 1 1 0.01005127189296948 1 1 0.0099067180941553711 1 1 1 1 0.0098822407522582752 1 1 1 1 1 1 1 1 1 1 1 1 1 1 1 0.0099357465061743547 1 1 1 1 1 1 1 0.009197804447935512 1 1 1 1 1 1 1 0.0091504890541839051 1 1 1 1 1 1 1 1 1 1 1 1 1 1 1 1 1 1 1 1 1 0.009360220922513476 1 1 1 1 1 0.0099181497940510083 1 1 0.0097572146045623379 1 1 0.010010595113625304 1 1 1 1 1 1 1 1 1 1 1 1 1 1 1 1 1 1 1 1 1 1 1 1 1 1 1 1 1 1 1 1 1 1 1 1 1 1 1 1 1 1 1 1 1 1 1 1 1 1 0.0083557598823376412 1 1 0.0081018672631063375 1 1 1 0.0097472353340597347 1 1 1 1 1 1 1 1 1 1 1 1 1 0.0099037200402045146 1 1 1 1 1 1 0.0097748104439895553 1 1 1 0.0099307433337884644 1 1 1 0.0099750164719566194 1 1 0.0099345245665448684 1 1 1 1 0.010014029791491082 1 1 1 1 1 1 1 1 0.0099331246993272469 1 1 1 1 1 1 1 1 1 1 1 0.010016325287731762 1 1 1 1 1 1 1 1 1 1 0.010034782482445102 1 1 1 0.010030073723666943 1 1 1 1 1 1 1 1 1 1 1 0.010066304557261074 1 0.0086582430021614528 1 1 1 0.0096123960474270142 1 1 1 1 1 1 1 1 0.0098664738178733183 1 1 1 1 1 1 1 0.0093276543035654275 1 1 1 1 0.0095716540689876218 1 0.010001959236327112 1 1 1 1 0.0092654279435650088 1 1 1 1 1 1 0.0095327729801481277 1 1 1 1 1 1 1 1 1 1 1 1 1 0.009838944490706986 1 1 1 1 0.0097088499685372056 1 1 1 1 1 0.0098741479148470208 1 1 1 1 1 1 1 1 1 1 1 1 1 0.007935109754154044 1 1 0.0099566948132205763 1 1 1 1 1 1 1 1 1 1 1 1 1 1 0.0098976763991883987 0.010034249259660346 1 1 1 1 1 1 1 1 1 1 1 1 1 1 1 1 1 1 1 1 1 1 1 1 0.0098347020536901832 1 1 1 1 1 0.0098199321116442546 1 1 1 1 1 1 1 1 0.0096172445467753651 1 1 1 1 0.0096336591974472835 1 1 1 1 1 1 1 1 1 1 1 1 1 1 1 1 1 1 1 1 0.0099941849563606345 1 1 0.0097232655232488939 1 0.0099898722063671321 1 1 1 1 1 1 1 1 1 1 1 1 1 1 1 1 1 1 1 1 1 1 1 1 0.0099110211625291125 1 1 1 1 1 1 1 1 1 1 1 0.0099366772835674348 1 1 1 1 1 0.0098476984460965471 1 1 1 1 1 1 1 1 1 1 1 1 1 1 1 1 1 1 1 1 1 1 1 1 1 1 1 1 1 1 1 1 1 1 1 1 1 1 1 1 0.0099456575261050052 1 1 1 1 1 1 1 1 1 1 1 0.0098612200217239165 1 1 0.0099982985195959662 1 1 1 0.0092654102358355282 1 1 1 1 1 1 1 1 1 1 1 1 1 1 1 1 1 1 1 1 1 1 1 1 1 1 1 1 1 1 1 1 1 0.0097125902558238206 1 1 1 0.0098455305421394079 1 0.0099896935496663394 1 1 1 0.0099069787952066422 1 1 1 1 0.009955879381992043 1 1 1 1 1 1 1 1 1 1 0.0097736381330167897 1 1 1 1 1 1 0.010220526663707642 0.0096454172937101776 1 1 1 1 0.010088113104965303 1 1 1 1 0.01002651829675019 1 1 1 1 1 1 1 1 1 0.0090986845219122106 1 1 1 1 1 1 1 0.0099735178801547367 1 1 0.0086087271003200024 0.010388626362900142 1 1 1 1 1 1 1 1 1 1 1 0.0099196669902392072 1 0.0097856757128740209 1 0.0084903999923506331 1 1 1 1 0.0083833513809465354 1 1 1 1 1 0.0099871972289117227 1 0.0099751348286572783 1 0.010028842192024144 1 1 1 1 1 1 1 1 1 1 0.010131425603730239 1 0.0097100799800963911 1 1 0.010155302699206404 1 0.0093999153855153523 1 1 1 1 0.010044015087670315 1 1 1 1 1 1 1 1 1 1 1 1 1 0.0097830664617966617 1 1 1 1 1 1 0.0096875173925967742 1 1 0.009490054660802414 1 1 1 1 1 1 1 1 1 0.009716416527785628 1 1 1 1 1 1 1 0.0092939254227267613 1 1 1 1 1 0.0094253895404199824 1 1 1 1 1 1 1 1 1 1 1 1 0.0098516572043076279 1 1 0.0097832786347035149 1 1 1 1 0.0096906940637564044 1 1 1 1 1 1 1 1 1 1 1 1 1 1 1 1 1 1 1 1 1 1 1 1 1 1 1 1 1 1 1 1 1 1 1 1 1 1 0.0094387330778295791 0.0098181458936353674 1 1 1 1 1 1 1 1 1 1 1 1 1 0.010095408486933383 1 1 1 1 1 1 1 1 1 1 1 1 1 0.010015617073710473 1 1 1 1 1 1 1 1 1 1 1 1 1 1 1 0.0099729226499764585 1 1 1 1 1 1 1 1 1 0.0093429371934446292 1 0.01011255928259676 1 1 1 0.009817337801321973 1 1 0.0097874068324447575 1 1 1 1 1 1 1 1 1 1 1 1 1 1 1 1 1 1 1 1 0.0099477690753396256 1 0.0098866840622519481 1 1 0.008862969335205086 1 1 1 1 1 1 1 1 1 1 0.0086992241796629306 0.0087570229530645749 1 1 0.0098680588948857114 1 1 1 1 1 1 1 1 0.0098055838754635832 1 1 1 0.0098987836802994379 1 1 1 0.010282208793505514 1 0.010013099895845444 1 0.010054052937112389 1 0.0089905718774845843 1 1 1 1 1 1 1 1 1 1 1 1 1 1 1 0.0095970616303701767 1 1 1 1 1 1 1 1 1 1 1 1 1 1 1 1 1 1 1 0.0099518000359852393 1 1 1 1 1 1 1 1 1 0.0093750106154015245 1 1 1 1 1 0.0097139309042899163 1 1 1 1 1 1 1 1 1 1 0.01001825944822894 1 0.0099257056414497214 1 1 1 1 0.0098207984305171206 0.0099960119608463582 1 1 1 1 1 1 1 1 1 1 1 1 1 1 1 0.0097985418263640232 1 1 1 1 1 0.009888700280861815 1 1 1 1 1 1 1 1 1 1 1 1 0.010045347717044338 1 1 1 1 0.0098758342108957783 1 1 1 1 1 1 1 0.010128351552152845 0.009713083149757799 1 1 1 0.0098375606544396123 1 1 1 1 1 1 1 1 1 1 1 0.010002344789440213 1 0.0095490080992791243 1 1 1 1 0.0096010286668255767 1 1 1 1 1 1 0.0099105711006067607 1 1 1 1 1 1 0.0099443134601099742 1 1 1 1 1 1 0.0099597039353617189 1 1 0.010034636118551245 1 1 1 1 1 1 1 1 1 1 1 1 1 1 1 1 0.0099959574321452985 1 1 1 1 1 1 1 1 1 0.0099990644564627758 1 1 1 1 1 1 1 1 1 1 1 1 1 1 1 1 1 1 1 1 1 0.0099996406354827851 1 1 0.0095422241626649008 1 1 1 0.010044722868997808 1 1 0.0098358967825575329 1 0.0099115510088230111 1 1 1 1 1 1 1 0.0094097884967369941 1 1 1 1 1 1 1 1 1 1 1 1 0.010011153120160243 0.010002615022348154 1 1 1 1 1 0.01003472693145457 1 1 0.0095393533147388049 1 1 0.0097609319711804386 1 1 1 1 1 0.0099193013318143869 1 0.0094268939386784583 1 1 1 1 0.0099450129538133716 1 1 1 1 1 1 1 1 0.0099324513030140966 1 0.0099532431033048114 0.0098376220625428085 1 1 1 1 0.01001033313172453 1 0.0097710956704557261 1 1 0.0097500183994770097 1 1 1 0.0097955187063152212 1 1 0.0097782116092662835 1 0.010015463264720409 1 1 0.0098556506041604167 1 0.0097857796467026772 0.0099225056292624216 1 0.0097683698079472168 1 1 1 0.0099151287741229728 1 0.0097678792106318732 1 1 1 0.010043646878615829 0.0088116572721224865 1 1 1 1 1 0.0089875885783813995 1 1 0.0095440101377803153 1 0.010000812272494299 1 1 1 1 0.0093385694832958596 1 0.009826971677367586 1 1 0.009992342603620967 1 0.0099186995988506145 1 1 1 0.0099871887559370501 1 1 0.0097726108296401007 0.0094973264282964751 1 0.0098624512157029168 0.009747888711373439 1 1 1 0.0096286778284328713 1 0.0095831954840595486 1 1 0.0097911851678576245 1 1 1 0.00980251256292064 0.01002510508157777 0.009999023462521555 1 0.0093247017959672655 1 1 0.0096685368162339365 0.0095148792109781069 1 1 0.010064515553491136 1 1 1 1 0.010204069895765179 1 0.0094105884041628986 1 1 1 1 0.010075723938547316 1 1 1 1 1 1 1 1 0.010000262628795565 1 0.0098707795719690967 1 0.0093702441503440391 1 1 1 1 1 0.0095576157527930937 0.0091956398353474252 1 0.0099997993620115581 1 1 1 1 1 1 1 1 1 1 0.0095069635273683749 0.0095982172908273562 0.0096112018114553038 1 1 1 1 1 1 1 1 1 1 0.0095209705586747854 1 0.010000300255718688 1 1 0.010056954463844112 0.0094451293496248135 1 1 1 1 0.0099976199695644453 1 1 1 1 1 1 1 1 1 1 1 0.0098995893983073978 1 1 1 1 1 0.010361633166898669 1 1 1 1 1 0.01000374638033001 1 1 1 1 0.010002681817947841 1 0.010046715496431009 1 0.0094421716948565205 1 1 0.0099568036595811867 1 1 0.0095943921717615236 1 1 1 1 1 1 1 0.010489989729860203 1 1 1 1 1 1 1 1 1 1 1 1 1 1 1 1 1 1 1 1 1 0.010215711976261711 1 1 1 1 1 0.0095403950549011948 1 1 1 0.0093429937341005277 0.0094768195756129714 1 1 1 1 1 1 1 1 1 1 1 1 0.0095835578932033268 1 1 1 1 1 1 1 0.0095980970097972722 1 1 1 1 1 1 1 1 1 0.0099109425228468395 1 0.010340231486909227 1 1 0.0096880238684104864 0.0095709441406780886 0.0099995798364221084 1 1 0.0096442246594069143 1 1 1 1 1 1 1 1 0.0099655963298881812 1 1 1 1 1 1 1 0.0099347406142412196 1 0.010058725251204673 1 0.0098211577479937091 1 1 1 1 1 1 0.010191651654922885 0.0085119004009896835 1 1 0.0099984610036942031 1 1 1 1 1 1 1 1 1 1 1 1 1 0.010213206481981455 1 1 1 0.0086261867435327936 1 1 1 1 1 1 1 1 1 1 1 1 1 1 1 1 1 1 1 1 1 1 1 1 1 1 1 1 1 1 1 1 1 0.0099586367038708452 1 1 0.0098971383764845169 1 1 1 1 1 1 1 1 1 1 0.0099318106078930199 1 1 1 1 1 1 1 1 1 1 1 1 1 0.009921138760438989 1 0.0099437501291838506 1 1 1 0.0098728101327183841 1 1 1 1 0.0098336470010453817 1 1 1 1 1 1 1 1 1 1 1 0.0099516713722793953 1 1 1 1 1 1 1 1 1 1 1 1 1 1 0.0099755295988868606 0.0099236277583343892 1 1 1 1 0.0099050044817540449 1 1 1 1 1 1 1 0.010015594196438094 1 1 1 0.0098407079470203204 1 1 1 1 1 1 1 1 1 1 1 1 1 1 1 1 0.0097363507119858448 1 1 1 1 0.0097868644189069431 1 0.0099735979145975633 1 1 1 1 1 1 1 0.0099311338462339492 1 1 1 1 1 1 1 1 1 1 1 1 1 1 1 1 1 1 1 1 1 1 1 1 0.010008396931625746 1 0.010038063419413453 0.010069554941202458 1 1 1 1 1 1 1 1 1 1 1 1 1 0.0098367879735148777 1 1 1 1 1 1 0.010062456200349982 1 1 1 0.0099970159587153204 1 1 1 1 1 1 1 1 0.010009317466197969 1 1 1 1 0.010005426137478981 0.010001884427289155 0.0094564613282810683 1 0.009951758639115519 1 1 1 1 1 0.0099770666495283145 1 1 1 1 1 1 1 0.0098685477990653418 1 1 1 1 1 1 1 1 1 0.0097670183841907891 0.0098982286957025462 1 1 1 1 1 1 1 1 1 1 1 1 1 1 1 1 1 1 1 1 1 1 1 0.0099969352728630778 1 1 1 1 1 1 0.0098312674270125099 0.0095474986846052906 1 1 1 1 0.0099994957043227466 1 0.010039264799816344 1 1 0.0097812298193757068 1 1 1 1 0.0099484508426650586 1 1 1 0.0099853453751385483 1 1 1 1 1 1 1 1 0.0099328818687220797 1 0.0097367485581159249 0.0099352776260800586 1 1 1 1 1 1 1 0.0099726549253398404 1 1 1 1 0.0099319839851888421 1 1 1 1 1 1 1 1 1 1 1 1 1 1 1 1 0.010082531227560452 0.009817509911762598 1 0.0098984379070021188 1 0.010007859100548794 1 0.010027718313876314 1 1 1 1 1 1 1 0.0098827003331309771 1 1 1 1 1 1 1 1 1 1 1 1 1 1 1 1 1 1 1 1 1 1 1 1 1 1 0.0097300299023077019 1 0.010145253123833861 1 1 1 0.010463112901928362 1 0.0092715635648602385 1 1 1 1 1 1 1 1 1 1 1 1 1 1 1 1 1 1 1 1 1 1 1 1 1 0.0099594208483203307 0.0097588128338358705 1 1 0.0090214101307673107 1 0.0098355347185645689 1 1 1 1 1 1 1 1 0.0098852904295244244 1 1 1 1 0.0095102458921899717 1 0.009982366994357365 1 1 1 1 1 1 1 0.0087915297594801725 1 1 0.0099987147018350923 1 1 1 1 1 1 1 1 1 1 1 1 1 1 1 1 1 1 1 1 1 1 1 1 1 1 1 1 1 1 0.0094173371347162239 1 0.0094494932118028164 1 1 1 1 1 1 0.0098212952411116539 0.0092121280405626765 1 1 1 1 0.0093288386548206776 1 1 1 1 0.010016756823634568 0.0088969987825337563 1 0.009995230517805799 1 1 1 1 0.0099814997320468134 1 1 1 1 1 0.010000014950785525 0.010338185581429866 1 1 0.010458300099635272 1 1 1 0.0089678358747774592 1 1 0.0099803841353467062 1 1 1 1 1 1 1 1 1 1 0.010282383077914951 1 1 1 0.01000159443324981 1 0.0094914799343230397 1 1 0.0094931187876378456 1 1 1 1 1 0.0096157527041284552 1 0.0097454480037822127 1 1 0.01013263341953493 0.010254970279402188 1 1 1 0.010254808380633511 0.0099929992860162374 1 1 0.0092508060247145397 0.0096118248154812118 1 0.010096465758504113 1 1 1 0.0095997318342861144 0.0094295291965220077 0.0097931165985892365 1 0.010091324784011039 1 1 0.0096301890602254782 1 1 1 1 1 1 1 1 1 0.0097691203245040912 0.0095052557907777547 1 1 1 0.0088466823114226496 1 1 0.01011786949819525 0.009619844601707412 0.009999454831991831 0.0098416231789105121 1 1 1 0.0099597211204100356 0.0086540565571285432 1 1 1 1 1 0.0086158197477444933 1 1 1 1 1 1 1 1 1 1 1 1 1 0.0086917805402692942 1 1 1 0.0099573780693899185 1 1 1 0.0098758809613852198 1 1 1 1 1 1 0.0085331352206747604 1 1 1 1 1 1 1 1 1 1 1 1 1 0.0090080647343031561 1 0.0098990525216160457 1 1 1 1 1 0.009403260441875564 1 1 1 1 1 1 0.0098888434206747932 1 0.0096495814047029525 1 1 1 1 1 1 1 1 1 1 1 1 1 0.0098826210917563381 1 1 1 1 1 1 1 1 1 1 1 1 1 1 1 1 1 0.0099045145932587335 1 1 1 0.0097418438597737661 1 1 1 1 1 1 1 1 1 1 1 1 1 0.010246707222626607 1 1 0.0099664685269145528 0.0098290005440448934 1 0.010289402573775686 1 1 0.010094238953408056 1 1 1 1 1 1 1 1 1 1 1 1 1 1 1 1 1 1 1 1 0.010177992512810961 1 1 1 1 1 1 1 1 1 1 1 1 1 1 1 0.0097212506021526028 1 0.01017334889439688 1 1 1 1 0.0097280919950340529 1 1 0.0093278344726687064 1 0.0099942720470116223 1 1 1 1 1 1 1 0.0098983989508438838 1 1 1 1 1 0.0092013033667073772 1 1 1 1 1 1 1 1 1 1 1 1 1 1 1 1 1 1 1 1 1 1 1 1 0.010056958731141968 1 1 1 1 1 0.0099493822927348395 1 1 1 1 1 1 1 1 1 1 1 1 1 1 1 1 1 1 1 1 1 1 1 1 1 1 1 1 1 1 1 1 1 1 1 1 1 1 1 1 1 1 1 1 1 1 0.0092417065607828374 1 1 1 1 0.0098944593264526023 1 0.0092981990867648714 1 1 1 0.0090587932403224034 1 1 1 1 1 1 0.009989683913725067 1 1 0.0090525876398317492 1 1 1 1 1 1 1 0.0099829379013769461 1 1 1 1 1 1 1 1 1 1 1 1 1 1 1 1 1 1 1 1 1 1 1 1 1 1 1 1 1 1 1 1 1 1 1 1 1 1 1 1 1 1 0.0094946609097864131 1 1 0.010001290749685688 1 1 1 1 1 1 0.0098496676154911124 1 1 1 1 0.009992951326143959 1 0.0096713256585462537 1 1 0.0098829548871154135 1 1 0.0098750118685069395 1 1 1 1 1 1 1 0.0099966966045244333 1 1 1 1 1 1 1 1 1 1 1 0.009696617121009065 1 1 1 1 0.0098138286844684647 1 1 1 0.0097216981609642844 0.014875524176480406 1 1 0.0096900775324224933 1 1 1 0.0097103748901068501 1 1 0.0099684351476031687 1 1 1 1 1 1 1 1 0.0094180582598616044 1 1 0.010000182203324501 1 1 0.010000443834008992 1 1 1 0.0099978993242802079 1 1 1 0.0099532513152510837 1 1 1 1 1 0.0099625856614047586 1 1 1 1 1 0.0099764228583490901 1 1 1 1 1 1 1 1 1 0.010020480837101076 1 1 1 1 0.0099345976564817438 1 1 1 1 1 1 1 1 0.0091893212321164375 1 0.010063936770915861 1 1 1 1 1 1 1 1 1 1 0.010240136731917525 1 1 1 1 1 1 0.0099982079696496421 1 1 0.0091672232270125532 1 1 0.0099988294323334875 1 1 1 1 1 1 1 1 1 0.009409791205016187 1 1 1 1 1 1 0.0098071068834839834 1 1 0.010073377973086382 1 1 1 1 1 1 1 1 1 1 0.0099915250311697137 0.0099498408627436991 1 1 1 0.0095044909071718853 0.0099009199206911546 1 1 1 1 0.0098002417775063782 1 1 0.0091573506931705399 0.009858307699620204 1 1 0.0097393585380912626 1 1 1 0.010009827503647184 1 1 0.0087309243064569546 0.0091714654919513305 1 1 1 1 1 1 1 0.0098598375458117983 1 1 1 1 1 1 1 1 1 1 1 1 1 1 1 0.009895857139416887 1 1 1 1 1 1 1 0.0090662647053070169 1 1 0.0094147413437527874 0.0091690689545666573 1 0.0094914945855066272 1 0.0096956178319485206 1 1 0.0094315118043050462 1 1 1 0.009268158282538741 0.0095205463656456851 1 1 1 1 0.010299531175183585 1 1 0.0091362863545730137 1 1 0.010478525680101171 1 1 0.0099595913936760937 1 1 1 1 0.010045231712730288 0.0093769575975386696 1 1 1 0.010016495608191537 1 1 1 1 1 1 1 1 1 1 1 1 1 1 1 1 1 1 1 1 1 1 1 1 1 1 1 1 1 1 1 1 1 1 1 1 1 1 1 1 1 1 1 1 1 1 1 1 0.0099503200551032712 1 1 1 1 0.009950856617879221 1 1 1 1 1 1 0.0098689706295495092 1 1 1 1 0.0096833853018279924 0.0098532686154052095 1 1 1 1 1 1 1 1 1 1 1 1 1 1 1 1 1 1 1 1 1 1 0.010111342327366768 1 1 1 1 1 1 1 1 1 1 1 1 1 1 1 1 0.0094431482920816542 1 1 1 1 0.0098027557582123313 1 1 1 1 1 1 1 1 0.010196625174670359 1 1 1 1 1 1 1 1 0.0098334261360310364 1 1 1 1 0.010087649218772077 1 0.0094880548752046892 1 1 1 1 1 1 1 1 1 1 1 1 1 1 1 1 1 1 1 1 1 1 1 1 1 1 1 0.010010816200773166 1 1 1 1 1 1 1 0.0099047599900187917 1 1 1 1 1 1 1 1 1 1 1 0.0099687074269368126 1 1 1 1 1 1 1 1 0.0097551075707518545 1 1 1 1 1 1 1 1 1 1 0.0091389710434993353 1 0.010025794466199481 1 1 1 1 0.01042085224795334 1 1 1 1 0.0095577731017211943 1 1 0.0092951035948164364 1 1 1 1 1 1 0.010052915426992097 1 1 1 1 1 1 1 1 1 0.0098239343703391459 1 1 1 0.0095504447250079269 1 0.0098965992003935514 1 1 0.0094933767275920157 1 0.0097735268994245342 1 1 0.0099734759086603352 1 1 1 1 1 1 1 0.0099004953314872132 1 1 1 1 1 0.0099812603242548752 1 1 1 1 1 1 1 1 1 1 1 1 0.0099879623042664571 1 1 1 0.0099692226285213337 1 1 1 1 0.0099705510818843754 1 1 1 1 1 0.0095841428020012574 1 1 0.0099885489936163644 1 1 1 0.0096250524160149432 1 1 1 1 0.0099020746442119601 1 1 0.0096909432856646521 0.0099973529868787811 1 1 1 1 1 1 1 1 1 1 1 0.0099971947425527355 1 1 1 1 1 1 1 1 1 1 1 1 1 1 0.0094976494778183356 1 0.0099991785555062045 1 1 1 1 1 1 1 1 1 1 1 1 1 1 1 1 1 1 1 1 1 1 1 0.0099469452558867567 1 1 1 1 1 1 1 1 1 1 1 1 1 1 0.0098524696008245871 1 1 1 1 1 1 1 1 1 1 1 1 1 1 1 1 1 1 1 1 1 1 1 1 1 1 1 1 1 1 1 1 1 1 1 1 1 1 1 1 0.0099739397336756387 1 1 1 1 1 1 1 1 1 1 0.0099759010049088395 1 0.0099325764375464837 1 1 1 1 1 0.0097365232984038246 1 1 1 1 1 1 1 1 1 1 0.0099425085655794557 1 1 0.0097026925451265122 1 1 0.0098752265889156636 1 1 1 1 1 0.009987015476592271 1 1 1 0.0099327180233362081 0.0099046123331223996 1 1 0.0095356895564278985 1 1 1 1 1 1 1 0.0099264356308563246 0.0096404965863482774 1 0.0099949475647066136 1 1 1 1 1 0.0099747965546959673 1 1 1 1 1 1 1 1 1 1 1 1 1 1 0.0088025921453621404 1 1 1 0.0089520410190757297 1 0.0095042907840853386 1 1 1 1 1 0.0087019694802412707 1 1 1 1 1 1 1 1 1 1 1 1 1 1 0.0086385578887448414 1 1 1 0.010075429508214368 1 1 1 1 1 0.0099663575329004793 1 1 1 0.0098907496115651274 0.010006100723661296 1 1 1 1 1 1 1 1 1 1 1 1 1 1 1 1 0.010008934291615144 0.010000920087334877 1 1 1 0.0097699854732380981 1 1 0.0097605965993434567 1 0.0095241710697390909 1 0.010136564010375116 1 1 1 0.010007497769913335 1 0.0098848109809903991 1 1 1 1 1 1 0.0078676839916338812 1 1 1 1 1 1 1 1 0.0096570252041773587 1 1 1 1 1 0.009641914787208614 1 0.010007184309851222 1 1 1 1 1 1 1 1 1 0.0098108779534065126 1 0.010030138019495221 1 1 1 1 1 1 1 1 1 1 1 1 1 1 1 1 0.010006673182251964 1 1 1 1 1 1 1 1 1 0.0095013597105739409 1 1 1 1 1 1 1 1 1 1 1 0.0095909459141894672 1 1 1 1 1 1 1 1 0.0097842510142717928 1 1 1 1 1 1 0.0098941001693407995 1 1 1 1 1 1 1 1 1 1 1 1 1 0.0098241640956144554 1 1 1 1 1 1 1 1 1 1 1 1 1 1 1 1 1 0.0098926891084689054 1 1 1 1 1 1 1 1 1 1 1 1 1 1 1 1 1 1 1 1 1 1 1 1 1 1 1 1 1 1 0.007502138038530874 1 1 1 1 1 1 1 1 1 1 1 1 0.0096286256167578618 1 0.0098689390624092706 1 1 1 1 1 1 1 1 1 1 0.010288602922163659 1 1 1 1 1 1 1 1 1 1 1 0.010366070537675857 1 0.010105443622164371 0.0075050061768465164 1 1 0.0097687551306474447 1 1 0.01071558854591218 0.0072253351592896919 1 1 0.0092467331711548334 1 1 0.0099172468424908976 1 1 1 1 1 1 1 1 0.0098274168084125334 1 1 1 1 1 1 1 1 1 0.0088250463805726546 1 1 1 1 1 1 1 0.0099507195833882702 0.009919692939530312 1 0.0099132886323868748 1 1 1 0.010115072673110884 1 1 1 1 1 0.0098568040262388985 1 1 1 1 1 1 0.0090816845553450577 1 1 1 1 1 1 0.010739780274495224 1 1 0.009269797112209939 1 1 1 1 1 0.0097971104152486908 1 0.0094830961846446658 1 0.0096160208610590273 1 1 1 1 1 1 1 1 1 1 0.0092390505706324878 1 0.010176230683231348 1 1 0.010413815190846817 1 1 1 0.010002272539002047 0.010002162663446531 1 1 1 1 0.010020037033713158 1 0.0090401101071759735 1 1 0.0099532206034302958 1 1 1 1 1 1 1 1 1 1 1 1 1 1 1 1 1 1 1 1 1 1 1 1 0.0099656220928183645 1 1 1 1 1 1 1 0.0089381686425259489 1 1 1 1 0.0089967491564183332 1 1 1 0.0093569019054402097 1 1 0.0088022722879437399 1 0.0085874009729188759 1 1 1 1 1 1 1 1 0.0091240149266313079 1 1 1 0.0099421836065484021 1 1 1 1 0.0099996058201278042 1 0.0098808366501812097 1 1 1 1 1 1 0.009507022366010429 1 1 1 0.009754925084200004 1 1 0.0091291994444669313 1 1 1 1 1 0.0094860291687479722 1 1 1 1 1 0.010042721347191417 0.010000227026624869 1 1 1 1 1 1 1 1 1 1 1 1 1 1 1 1 1 1 1 1 1 1 1 1 1 1 1 1 1 1 1 1 1 1 1 1 1 1 1 1 1 1 1 1 1 1 1 0.0098825830972072929 1 1 1 1 1 1 1 1 1 1 1 1 1 1 1 1 1 1 0.0099062280586811758 1 1 1 1 1 1 1 0.0099356378413205364 1 1 1 1 0.0099286806156143031 1 1 1 1 1 1 1 1 1 1 1 0.0097754994867727905 1 1 1 1 1 1 0.010007304905977144 1 1 0.0098188837906275257 1 0.010007707063747567 0.0097334742420151828 0.009988830063927057 1 1 1 1 1 1 1 1 1 1 1 1 1 1 1 1 1 1 1 1 1 1 1 1 1 1 1 1 1 1 1 1 1 1 1 1 1 1 1 1 1 1 1 1 1 1 1 1 1 1 1 1 1 1 1 1 0.0098645946124216472 1 1 1 0.0098630085008849858 1 0.0099706420099778502 1 1 1 1 1 1 1 1 1 1 1 0.0099848482107776412 1 1 1 0.0098474592041188063 1 0.010000226620363576 1 0.0099974017934013112 1 1 1 1 1 1 1 1 1 1 1 1 1 1 1 1 1 1 1 1 1 1 0.010081165090987635 1 1 1 1 1 1 1 1 1 1 1 1 1 1 1 0.0098825330544913496 1 1 1 1 0.010229382784985135 0.010036130681658156 1 1 0.010011933662147053 1 1 1 1 0.010047099969730324 1 0.0094278838555573296 1 0.0096465406869321712 1 1 1 0.010003392018166291 1 0.0098581514159499489 1 1 1 1 1 1 1 1 0.0081011266603788976 1 1 1 0.007899489153240442 1 1 1 0.0099420322179567637 1 1 1 1 1 1 1 1 1 1 1 1 1 1 1 1 1 1 1 0.0098393094124299262 1 1 1 1 1 1 1 1 1 1 1 1 1 1 1 1 0.0079917314807236867 1 1 1 0.0082800875523902674 1 1 1 1 1 1 0.0096731369577503466 1 1 1 1 1 1 1 1 1 1 0.0099343850206437753 1 1 1 1 1 1 1 1 1 1 1 1 1 1 1 1 1 1 1 1 1 1 1 1 1 1 1 1 1 0.010571857233985002 1 1 1 1 0.0099783485182455226 0.010256686376770994 1 1 1 0.0099376570241844348 1 1 1 1 1 1 1 0.0099546190881567975 1 1 1 0.011076920619628967 1 1 1 1 0.01017047151372804 1 0.010109647441357434 0.0094164374883647962 1 1 0.0092161502947839223 1 1 1 1 1 0.010386382290250394 1 0.010385781461046491 1 1 0.010106198006161575 1 0.0099998136713153919 0.0099985007238636951 1 1 0.0096095155534904973 0.009814618746640023 1 1 1 1 0.0095903410416920565 1 0.0094219557193564694 1 1 1 0.010009996372657808 0.0094374710405607104 1 1 1 1 1 0.0098985799978275717 1 1 1 0.0099685292401847855 1 1 1 1 1 0.010006131045243186 1 1 1 1 1 1 0.0097520508507917287 1 1 1 1 1 1 1 1 0.0091237013405266378 0.0090667084903348089 0.0091503662341707679 1 0.009249927623643411 1 1 0.010404768069325407 1 1 1 1 1 1 1 1 1 1 1 0.010035840635693414 1 1 1 1 1 1 1 1 1 0.010387161597786279 1 1 1 1 1 1 1 1 0.0088540931730360563 1 1 1 1 1 0.009277151577347053 1 1 1 1 1 1 1 0.010470206033217151 1 1 1 0.0099980369335668905 1 1 0.0099670162871277508 1 1 1 1 1 1 1 1 1 1 1 1 1 1 1 1 1 1 1 1 1 1 1 0.0098177280123775603 1 1 1 1 1 0.0099178715879415357 1 1 1 1 1 1 1 1 1 1 1 1 1 1 0.008720952645599446 1 1 1 1 1 1 1 1 1 0.009768380101530855 1 0.0098326666584249624 1 1 1 1 1 0.0091003203879033538 1 0.010708637212390532 0.010045926178847694 1 1 1 1 1 1 1 0.009124947140449086 1 1 1 1 1 1 0.0093668650453618239 1 0.0088738131278544956 1 0.0096265677242593425 1 1 1 1 1 1 1 1 1 1 1 1 1 1 1 1 1 1 1 1 1 1 1 1 1 1 1 1 1 1 1 1 1 1 1 1 1 1 1 1 1 1 0.010151739393073686 1 1 1 1 1 1 1 1 1 0.010005613208340267 1 1 1 1 1 1 0.0086791619210180426 1 1 0.0098795458042603181 1 1 1 1 1 1 1 1 1 1 1 1 0.008988265659798933 1 1 0.0087559647385794595 1 1 1 1 0.0091176137419267545 1 0.0093621679726133191 1 1 1 1 0.0093010574869066276 1 0.0092615467070634745 1 1 1 1 0.009980955114966425 0.0097875317336961094 1 0.0092917460434018256 1 1 1 1 1 1 1 1 1 1 1 1 1 1 0.0091970040797365957 1 1 1 1 1 1 1 1 1 1 1 1 1 1 1 1 1 1 1 0.0095799221055463818 1 1 0.00950275672295375 1 1 1 0.010138844323441403 1 1 1 1 1 0.0095021888844907219 1 1 1 1 1 1 1 1 1 1 1 1 0.0099580160214784615 1 0.009578460636187348 1 1 1 0.010154996185821549 1 1 1 0.010289714870762041 1 0.0096802069426994361 1 1 1 1 1 0.009293480471371943 1 1 1 0.0105447369935432 1 1 1 1 0.010476194595206037 1 1 1 1 0.0092409501506457801 1 1 0.010426079197583291 1 1 1 0.010031056444611648 1 1 1 1 1 1 1 1 1 0.0097419889246969094 1 1 0.01001919940068648 1 1 1 0.0097371103941547577 1 1 1 1 1 1 1 1 1 1 1 1 1 1 1 1 1 1 1 1 1 1 1 1 1 1 1 1 1 1 1 1 1 1 1 0.0068065349300518042 1 1 1 1 1 1 1 1 1 1 1 1 1 1 1 0.0098546035028716384 0.0075542423239377673 1 1 1 1 1 1 1 0.0095734251504362624 1 1 1 1 1 1 1 1 1 1 1 1 1 1 1 1 1 1 1 1 1 1 1 1 1 1 1 1 1 1 1 1 1 1 1 1 0.0085666741557417041 1 1 0.0095325723059672546 1 1 1 1 1 1 1 1 1 0.010084187582248915 1 1 1 1 1 1 1 1 1 1 1 1 1 1 0.0098338275453204206 1 1 1 1 1 1 1 0.0085798438356823169 1 1 1 1 0.010006809904651106 1 0.0081265682799998261 1 1 1 1 1 1 1 1 1 1 0.0099680816724461458 1 1 1 1 0.0099113722738142021 1 1 1 1 1 1 0.010017579708728333 1 1 0.0085598275344275516 1 1 1 0.0099868793964302174 1 1 1 1 0.0098413084024074338 1 1 1 0.0098657505595551431 1 1 1 1 1 1 1 1 1 0.0099648790259579192 0.0099394675524542148 1 1 1 1 1 1 1 0.0098110067245090332 1 1 1 1 1 0.010031587565537077 1 1 0.0098624179267106545 1 1 1 1 1 1 1 1 0.0096841431249449252 1 1 1 1 1 0.0096257602151850735 1 1 1 1 1 1 1 1 1 1 1 1 1 1 1 1 1 1 1 1 1 0.0099617627725079472 1 1 1 1 1 1 1 0.0099450555862810736 1 1 1 1 1 1 1 0.0098867154892456101 1 0.0098973563997269386 0.0098978650371873613 1 1 1 1 1 1 1 1 1 1 1 1 1 1 1 1 1 1 1 1 1 1 1 1 1 1 1 1 1 0.0099304701994447579 1 1 1 1 1 1 1 1 1 1 1 1 1 1 1 1 1 1 1 1 1 1 1 1 0.0099295719046879078 1 1 1 1 0.0098294283291239324 1 1 1 1 1 1 1 1 1 1 1 1 1 1 1 1 1 1 1 1 1 1 1 1 1 1 1 1 1 1 1 1 1 1 1 1 1 1 0.010068627464428607 1 1 1 1 1 1 1 1 1 0.010020009757342409 1 0.010052134926145546 0.0093237618348102867 1 1 1 1 1 0.0094684094994513749 1 1 1 0.0099967786851179342 1 1 1 1 1 1 1 1 1 1 1 1 1 1 1 1 1 1 1 1 1 1 1 1 1 1 1 1 1 1 1 1 1 1 1 1 1 1 1 1 1 1 1 1 0.01001319064390265 1 1 1 1 1 1 1 1 1 1 1 1 1 1 1 1 1 1 1 0.0095964092651769847 1 1 0.0093894839029655189 1 0.0099979964607288616 1 1 1 1 1 1 1 0.01004032898718972 1 1 1 1 1 1 1 1 1 0.0097663996878590339 1 1 1 1 1 1 1 1 1 1 1 1 0.0099511389518564582 1 1 1 1 1 1 1 1 1 1 1 1 1 1 1 1 1 1 0.0095991963865761643 1 1 1 1 1 0.0095301600751266924 0.0095459934094057845 1 1 1 0.0095076320580225922 1 1 1 1 1 0.009911486570504089 1 0.0095166226098424931 1 1 1 1 1 0.0099228946364153629 0.010033390052362021 1 0.010004773968836759 1 1 1 1 1 1 1 1 1 1 1 1 1 1 0.010017214283382904 1 1 1 1 1 1 1 1 1 1 1 1 1 1 1 1 1 1 1 1 1 0.0095412510209468664 1 1 1 1 1 0.009519525185100134 1 1 1 1 1 1 0.010060416747025539 1 0.010008915421462122 0.0099429570844908714 1 1 1 1 1 1 1 1 1 1 1 1 1 1 1 1 1 1 1 1 1 1 1 1 0.0099852335106811185 1 1 1 1 1 1 1 1 0.0099399399453309802 1 1 1 1 1 1 1 1 1 0.0097615123101478588 1 1 1 1 1 1 1 1 0.0098125490819266064 1 1 0.010010748390085141 1 1 1 1 0.0097518623958966592 0.0096166498554588874 1 1 0.0099780110203934215 0.009797443389584019 1 1 1 1 1 0.0098981391582848473 1 1 1 1 1 0.0099457967842286974 1 1 1 1 1 1 1 1 0.0099728537123553208 1 1 1 1 1 1 1 1 1 1 0.0099901108234910097 0.0098340312590487321 1 1 1 1 1 1 0.0098961115963172482 1 1 1 1 1 1 1 1 1 1 0.0098161582192173545 1 1 1 1 1 1 1 1 1 1 1 1 0.0095923806611389623 1 1 1 1 1 1 1 1 1 1 1 1 1 1 1 1 1 1 1 1 1 1 1 1 0.0098649784498021295 1 1 1 1 1 1 1 1 1 1 1 1 1 1 0.0099618330901376315 1 1 1 1 1 1 1 1 1 1 1 1 1 1 1 1 1 1 1 1 1 1 1 1 1 1 1 1 1 1 1 1 1 1 1 1 1 1 1 0.0099125585241199229 1 1 1 1 1 1 1 1 1 1 1 1 1 1 1 1 0.0099571380567710002 1 1 0.0098946842543466626 1 1 1 1 1 0.0099964824786717178 1 1 1 1 1 1 1 1 1 1 1 1 1 1 1 1 1 1 1 1 1 1 1 1 1 0.0097809888429582735 1 1 1 0.009715753207493778 1 1 1 1 1 0.0099094214388164206 1 1 1 1 1 1 1 1 1 1 1 1 1 1 1 1 1 1 1 1 1 1 1 1 1 1 1 1 1 1 1 1 1 1 1 1 1 1 1 1 1 1 1 1 1 1 1 1 1 0.010122535196766425 1 0.0079934452280353389 1 1 1 1 1 1 1 1 1 1 1 1 1 1 1 1 1 0.0079463333254249403 1 1 1 1 1 1 1 1 1 0.0079769351682052458 1 1 1 1 1 1 1 1 0.0099988417195763964 1 1 1 1 1 1 1 1 1 1 1 1 1 1 1 1 1 1 1 1 1 1 1 1 1 1 1 0.0081284689619142841 0.010538355367548756 1 1 1 0.0087810918345216111 1 1 0.010001242735511203 1 1 0.010142010388529268 1 1 1 1 0.0099852797731134601 1 1 0.0092456847716858651 1 0.0096941101302265437 1 1 1 1 1 1 1 1 1 1 1 1 1 1 1 1 1 1 0.010039721350453629 1 1 1 1 1 1 1 1 1 1 1 1 1 1 1 1 1 1 1 1 1 1 1 1 1 1 0.0098487860322386822 1 1 1 1 1 1 0.0096667141952546491 1 1 1 1 1 0.010020205696200567 0.0099832282885372482 1 1 1 1 0.0099871686941503009 0.0098411159615322159 1 1 0.0099816137870001251 1 1 0.010095642360614587 1 1 0.010012714030323696 1 1 1 1 0.010011441039472142 1 1 1 1 1 1 1 1 1 1 1 0.0098505776871311325 1 1 1 0.0099435167119227962 1 1 0.010047030853129947 1 1 1 0.01003507836032351 1 1 0.010152686357136103 0.0097461944835875811 0.010044708566504877 1 1 1 1 1 1 1 1 1 1 1 1 0.0098548003221783954 1 1 1 1 1 1 1 1 1 1 1 1 1 1 1 1 1 1 1 0.0098187824248720107 1 1 1 0.0096735827470504042 1 1 1 1 0.0098126816919244988 1 1 1 1 1 1 1 0.0098192159404764893 1 1 1 1 0.0096324170455253117 1 1 1 1 1 1 1 1 1 1 1 1 1 1 1 1 0.010000236518117007 1 0.0099296811750275611 1 0.010028361409742365 1 1 0.0099439446701460113 1 1 0.0097350246463750803 1 1 1 1 1 0.0097158673092773255 1 0.01000213784631822 1 1 0.009947005442547634 1 1 1 1 1 1 1 1 1 1 1 1 1 1 1 1 1 1 1 1 1 1 1 1 1 1 1 0.009981401564974764 1 1 1 1 0.0099933804655975723 1 1 1 1 1 1 1 0.0099258409093204488 1 1 0.0094208281298380128 0.0099980228230301931 1 1 1 0.010000201748592234 1 1 0.010080766510582114 1 0.0098328560044502605 0.0099901832482817768 0.0097605582645963768 1 1 0.0099115054946633373 0.0096619894495024294 1 1 1 0.0098291108949805864 1 1 0.0090226857501575827 1 1 1 0.0090012426913642189 1 1 0.0093578959783824564 1 1 1 0.0099966766563162664 1 1 1 1 1 1 1 0.0099967053774417374 1 0.0096745316049068417 1 1 1 1 1 0.0099776215673346227 1 0.0099912240663141937 1 1 1 1 1 1 1 1 1 1 1 0.0079060809312781859 1 1 0.0075931009399637026 1 1 1 1 0.010685873700389972 1 0.007313609800846492 1 1 1 1 1 1 1 1 0.010701670399452677 0.0064465963533218628 1 1 1 1 1 1 1 1 1 1 1 1 1 1 1 1 1 1 1 1 1 1 0.010269342214933764 1 1 1 0.010047198529701738 1 1 1 1 1 1 1 1 1 1 1 0.0098722876685398784 1 1 1 1 1 1 1 0.0099192577993692313 1 1 0.0097805555291545863 1 1 1 1 1 1 0.0096574889214594544 1 1 1 1 1 1 1 1 1 1 1 1 1 1 0.0099662091865306592 1 1 1 1 1 1 1 1 1 1 1 1 1 1 1 1 1 1 0.0093555152452113721 1 1 0.0095100259870712339 1 1 1 1 1 1 1 1 1 1 1 0.0099177372607216728 1 1 0.0085191701912949239 1 0.0088115112486901511 1 1 0.010553849290251049 1 1 1 0.0097521550579610806 0.0099275562445841035 1 0.010376854540613609 1 1 1 1 0.010222008017687727 1 1 1 1 1 1 1 1 1 0.009975026459833532 1 1 1 1 1 1 1 1 1 1 1 1 1 0.010071876484379679 1 1 1 1 1 1 1 1 1 1 1 1 1 0.0098534667052327645 1 1 1 1 1 1 1 0.0098064867072755156 1 1 1 1 1 0.0096318388742141527 1 1 1 1 1 1 1 1 1 1 1 1 1 1 1 1 1 1 1 0.0099930962289352023 0.0099901256675938941 1 1 1 1 1 1 0.0099579125873280102 1 1 1 1 0.009548574318769782 1 1 1 1 0.0099579762081306103 1 1 1 1 0.009857533656410785 1 0.0096099917049280725 1 1 1 1 1 1 1 1 1 1 1 1 1 1 1 0.010027520960512805 1 1 0.010369535257188069 0.010035587963167515 1 1 1 1 1 1 1 1 1 0.0098712049771485684 1 1 1 1 0.0099663268397125367 1 0.01048635413321743 0.0097178028333917803 1 1 1 1 1 1 0.0096895657848135135 1 1 1 1 0.0099973361716848199 0.0088669400795131706 1 0.010030460872310033 1 1 0.010035254087553243 1 1 1 1 1 1 0.009630733063542311 1 1 1 1 0.010089357170933285 1 1 1 1 1 0.010057490413653843 1 1 1 1 1 1 0.010070842050720756 1 1 1 1 0.010100749591859503 1 1 1 1 1 1 1 1 1 1 1 1 1 1 1 0.009817415559938333 1 1 1 1 1 1 1 1 1 1 1 1 0.0096231565548087067 1 1 1 1 1 1 1 1 1 1 0.0099060974429910405 1 1 1 1 1 1 1 1 1 1 1 1 1 1 1 1 1 1 1 1 1 1 1 1 1 1 1 1 0.0095259211504226445 1 1 1 1 0.0098018182433657688 1 1 1 1 1 1 1 1 1 1 1 1 1 1 1 1 0.0084370134520810221 1 1 1 1 1 1 1 1 1 0.0085151932912967045 1 1 1 1 1 1 0.0086989195190638989 1 1 0.0099473665521499898 1 1 1 1 1 1 1 1 1 1 1 0.0090182249946333306 1 1 1 0.0096057431791238893 1 1 1 1 1 1 1 1 1 1 1 1 1 1 0.0097505680698061949 1 1 0.0096069613859761822 1 0.0097707695111723288 1 1 1 0.0093534082467497809 1 1 1 1 1 0.009856393316169991 1 1 1 1 1 1 1 1 1 1 1 1 1 1 1 1 1 1 1 1 1 1 1 1 1 1 1 1 1 1 1 1 1 1 1 1 1 1 0.0099499393348151163 1 1 0.0099601043028757601 1 1 1 1 1 1 1 1 1 1 1 1 1 1 1 1 1 1 0.0099542905290455098 1 1 1 1 1 1 0.010022902647550864 1 1 1 0.010098319438865216 1 1 1 1 1 1 1 1 1 1 1 0.010037609235838484 1 1 1 1 1 1 1 1 1 1 0.0099121100723933691 1 1 1 1 1 1 1 1 0.0090237358069281022 1 0.0097544855123231095 1 1 0.0098970189049576579 1 1 0.0092849151465293576 0.0092351317805527879 0.0099884237673607407 1 1 1 0.0099321164560742265 1 1 1 1 0.0099903340987403284 1 1 1 1 1 1 0.0088216810596197601 0.0087532827287978357 1 1 1 1 1 1 1 1 1 1 1 1 0.0099987782126623095 1 1 1 1 1 1 0.0099754467468654764 1 1 1 1 1 1 1 1 1 0.0097930673175368847 1 1 1 1 1 1 1 1 1 0.010096773137132186 1 1 1 1 0.0090031986264042848 1 1 1 1 1 0.0090567041874737367 1 1 0.0091960504221421657 1 1 1 1 1 0.0099274519286026187 1 1 1 1 1 1 1 1 1 1 1 1 1 1 0.0092039077701558201 1 1 1 1 1 0.0096448612032148679 0.010023752981708626 1 1 1 0.0096965601362177176 1 1 1 1 0.010026569962341957 1 1 0.0098253171821833518 1 1 1 1 1 1 1 1 1 1 1 1 1 0.010013247865902426 1 1 1 1 1 1 1 0.0099396849574561255 1 1 1 1 1 1 1 1 1 1 1 0.010016105947857021 1 1 1 1 1 1 1 1 1 1 1 1 1 1 1 1 1 0.010036665367623076 1 1 1 1 1 1 0.010017708648561593 1 1 1 0.0099870949088623987 1 1 1 1 1 0.0099425692382698362 1 1 1 0.010694491827468167 1 1 1 1 1 1 1 0.010704903692184388 1 1 0.0092211704975038219 1 1 1 1 1 1 1 1 1 1 0.010016723402565486 0.0091274489598363161 1 1 1 1 1 1 1 1 1 1 1 1 1 1 1 1 1 0.0094347992117232212 1 1 1 1 1 1 0.0099988467530130361 1 1 1 0.008550923410356133 1 1 1 0.0085870489062523335 1 1 1 1 1 1 1 1 1 0.0095401537629802441 1 1 1 1 1 1 0.010035479565846415 1 1 1 1 1 1 1 1 1 1 1 1 1 1 1 1 0.0094188491749266062 1 1 0.010357099759389605 1 0.0095766658914454364 1 1 1 1 1 1 1 0.0098511067809922415 1 0.010063538577927002 1 1 1 1 1 1 0.0099305456838213405 1 1 0.010203182856136412 1 1 1 1 1 1 1 1 1 0.0099685114619683518 1 1 1 1 1 0.0098051558121728024 1 1 1 1 1 1 0.0098746101283514621 1 1 1 1 1 1 1 1 0.0089229254458724344 1 1 1 1 1 1 1 1 1 1 1 1 1 0.010092168366435209 1 0.0099598652308358921 1 1 0.010284207158988617 1 1 0.009087007460135986 1 1 1 1 1 1 1 1 0.0098117853093248331 1 1 0.0089837417565173019 1 1 1 1 1 1 1 1 1 1 1 1 1 1 1 1 1 1 1 1 1 1 1 1 1 1 1 1 1 1 0.0089907919927644259 1 1 1 1 1 1 1 1 1 1 1 1 1 1 1 1 1 1 1 1 1 1 1 1 1 1 1 1 1 1 1 1 1 1 1 1 1 1 1 1 1 1 1 1 1 1 1 1 1 1 1 1 1 0.0099147628913949532 1 1 1 1 1 1 1 1 1 1 0.0091861183008208093 0.0088531719447875225 1 1 1 1 0.010015521739245336 1 1 0.010000809351550751 1 0.0098765797226576819 1 1 1 1 1 1 1 1 0.0099136632744376025 1 1 1 1 1 1 1 1 1 1 1 1 1 1 1 1 1 1 1 1 1 1 1 1 1 1 1 1 0.0099637239396224864 1 1 1 1 0.0095816247851976018 1 1 0.0098665161799778214 1 1 1 1 1 1 1 1 1 1 1 0.0091786122100103069 1 0.0099535855318153947 1 1 1 1 1 1 1 1 1 1 1 1 1 0.01005508483700167 0.0098888498720378221 1 1 1 1 1 0.0098879395441519007 1 1 1 1 1 0.0097177323698448836 1 1 0.010010990983240348 1 1 0.0097866892346300215 1 1 0.009984098814584513 0.0097089547584328743 0.010042301171504731 0.0097963583225387681 1 1 0.0098448780366753568 1 1 1 1 0.0099472526559540274 1 1 0.0096643253768659808 1 1 1 0.0097073356609287294 1 1 1 0.0094577116462049408 1 1 1 1 1 0.0094142756333725937 0.010004875270596254 1 0.0097920651712960979 1 1 1 1 1 1 1 1 1 1 1 1 1 1 1 1 1 1 1 1 1 1 0.010287493203018463 1 1 1 0.01010087683869614 1 1 1 1 1 1 1 1 1 1 1 1 1 1 1 1 1 0.0099233655670580758 1 1 1 1 1 1 1 1 1 1 1 1 1 1 1 1 0.0099631375500781535 1 0.0099936716130479414 1 1 1 1 1 1 1 1 0.0098326587378158511 0.0099553031245955634 0.01008673881318382 1 1 0.0098373437068115313 1 1 1 0.010000763681395292 1 1 0.0092731872714100997 1 0.0099478199418347908 1 1 1 1 1 1 1 1 0.0099490932178408348 1 1 1 1 1 1 1 0.0098597370406881615 1 1 1 1 1 1 1 1 0.0092472198702394023 1 1 1 0.010001691116561684 1 1 1 1 1 1 1 1 1 1 1 1 1 0.010169154965807722 1 0.009932577969484482 1 0.0099324102116386606 1 1 1 1 1 0.009673467188502826 1 1 1 1 1 1 0.0091626602153358407 0.0099451850702710239 0.010440189462305559 1 1 1 1 1 1 1 1 1 1 1 1 1 1 1 1 1 1 1 1 1 1 1 1 1 1 1 1 1 1 1 1 1 1 1 1 1 1 0.010069513126762908 1 1 0.010044120951113426 1 1 1 1 1 1 1 1 1 1 1 1 0.010016637242317349 1 1 1 0.010001720097170302 1 1 1 1 1 1 1 1 1 1 1 1 1 1 1 1 1 1 1 1 1 1 1 0.0099554949965788512 1 1 1 1 1 1 1 1 1 1 0.010006844987460396 1 1 1 1 1 1 1 0.00943212305332722 0.008888760177697054 1 0.010002408324563122 1 1 1 1 1 1 1 1 1 1 1 1 1 1 1 0.0097347071639476458 1 0.0099927937814660549 1 1 1 0.0098233583444834946 1 1 0.0099358038421556369 1 1 1 1 1 1 1 1 1 1 1 1 1 1 1 1 1 0.0099281373093021638 1 1 1 1 1 1 1 0.0099694370248946014 1 1 1 1 1 1 1 1 1 0.01001422612353114 1 0.0098527340255928388 1 1 1 1 1 1 1 1 1 1 1 0.0099995360050823996 1 0.0099713331214627797 1 1 1 1 1 1 1 1 1 1 1 1 1 1 1 1 1 1 1 1 1 1 1 1 1 1 1 1 1 1 1 1 1 1 1 1 1 1 1 1 1 1 1 1 1 0.0096467899797859861 0.0097169113694506662 1 1 1 0.0096889894538352301 1 0.0098356265327102163 1 0.0096468009845351779 1 0.0096073449983673891 1 1 1 1 0.0097993505684583655 0.010000134160626856 0.0099121017492129378 1 0.0096388943500045152 1 1 1 1 0.0097028972711921749 1 1 1 1 0.009636490552844601 1 1 1 0.0096570204937320037 1 0.0097156359666823976 0.0096518922452611643 0.0099743463673628904 1 1 0.0099030152178593966 1 1 1 1 0.0099031814322716235 1 1 1 1 1 1 1 1 1 1 1 1 1 1 0.0095214786000492706 1 1 0.0093056846377043458 1 1 1 1 1 0.0094643468771270049 1 1 0.00936176949605513 1 1 1 1 1 1 1 1 1 1 1 1 1 1 1 1 1 1 1 0.0099955824317425959 1 1 1 1 1 1 1 1 1 1 1 0.010018768357917169 1 1 1 1 1 1 0.010108026242408466 1 1 1 1 1 1 1 1 1 1 1 1 1 1 0.0099745640846784344 1 1 0.0099419453649468199 1 1 1 1 1 1 1 0.010023988354362766 1 0.010441863489312314 1 0.010064936826986212 1 0.0099789816529358387 1 0.010130245926598634 1 1 0.010108898192573858 1 1 1 1 1 1 1 1 1 1 1 1 1 1 1 1 1 1 1 1 0.0096409780397002549 1 1 0.0098789375557302161 1 1 1 1 1 1 1 1 1 1 1 1 1 1 1 1 1 1 1 1 1 1 1 1 1 1 1 1 1 0.0094330319675577298 1 1 0.0093397804745164389 1 1 1 1 1 1 1 1 1 1 1 1 1 1 1 0.0094620502868894753 1 1 1 1 1 1 1 1 1 1 1 1 1 1 1 1 0.0098630061667138499 1 0.0098942031214028208 0.0098042730592258834 1 1 1 1 1 0.0095015560025320366 0.0090357584721758206 1 1 1 1 0.0099100699378230628 1 1 1 1 1 1 1 1 1 1 1 1 1 1 1 1 1 1 1 1 1 0.0099546424044785059 0.0099682040394732455 1 0.0099999671804504552 0.0099998028768909959 1 1 1 0.0099430944841102462 1 1 0.0099999273967802445 0.0099103795567295847 1 1 0.010000007905450865 1 1 1 1 1 1 0.0099335135955469604 0.0099639181829032121 1 1 0.0099028331247081117 1 1 1 0.0098443584145369804 1 1 1 1 0.0097083591612004937 0.0099583150840927403 1 1 1 1 1 1 1 1 0.0099954802630489135 1 1 0.0099069115902193621 1 0.0099984419655524751 1 0.0093539403722531812 1 1 1 1 1 1 0.0099021784533456086 1 1 1 1 0.0098217739335953839 1 1 1 1 1 1 1 1 1 1 0.0091135777091214433 1 1 1 0.0093648287097784777 1 0.010297310497698577 1 0.0097998869493612709 1 0.0099593308078422364 1 1 1 0.0099223020440645324 1 1 1 1 1 1 1 1 1 1 0.0095252318756701652 1 1 1 1 0.009803271855192329 1 1 1 1 1 1 1 1 0.0092715665197125353 1 1 1 1 1 1 0.0099680807425782322 1 1 1 1 1 1 0.0093955548625818189 1 1 0.0099900880039907724 1 1 1 1 1 1 0.0099993679882368122 1 1 1 1 1 1 1 1 1 1 1 0.0099235893907607571 1 1 1 1 0.010014477541059434 0.009846413965966111 1 1 0.010025879692247634 1 1 1 0.009999366786192402 1 1 1 0.0099511483630500171 0.0099898072002638609 1 0.0096457463337275267 1 0.0099760397046000163 1 1 1 1 1 1 1 1 0.0097947547251531417 1 1 1 1 1 1 1 1 1 1 1 1 1 1 1 1 1 1 0.0098661363340925116 1 1 1 1 1 1 0.0099745896561047771 1 1 1 1 0.01006979565469414 1 1 1 1 1 1 1 1 1 1 0.010372316318122412 1 0.0093892787019294564 1 1 1 1 1 1 1 1 1 1 1 1 1 0.0099831441646635877 1 1 1 1 1 1 1 1 1 1 1 1 0.0096190532819793069 1 0.010114771129889798 1 1 1 1 1 0.0099642806974532608 1 0.0097786599011357809 1 1 1 0.0096296173408951594 1 1 1 1 1 1 1 1 1 1 1 1 1 1 1 1 1 1 1 1 1 1 1 1 1 1 1 1 1 1 1 1 1 1 1 1 1 1 1 1 1 1 1 1 1 1 1 1 1 1 1 1 1 1 1 1 1 1 1 1 1 1 1 1 1 1 1 1 1 1 1 1 1 1 1 1 1 1 1 1 1 1 1 1 1 1 1 1 1 1 1 1 1 1 1 1 1 1 1 1 0.0096670692546227191 1 1 0.010038326018011245 1 1 1 1 1 1 1 1 1 1 1 1 1 1 1 1 1 1 1 1 1 1 1 1 1 1 1 1 1 1 1 1 0.010682983667164797 1 1 1 1 1 1 1 0.01098779170564357 1 1 1 1 1 1 1 1 1 1 1 1 1 1 1 1 1 1 1 1 1 1 1 1 0.010045978887090341 1 1 0.0097484766851058616 1 0.0095117095165563742 1 0.010157309012869016 1 0.0097630588893930937 1 1 0.0099965525773892967 1 1 1 1 1 1 1 1 1 1 1 1 0.00925581303461823 1 1 1 1 1 1 1 1 1 1 1 1 1 1 1 0.0099998906947540989 1 1 1 0.0099053369038069519 1 1 1 1 1 1 0.0099772041917202056 1 1 1 1 1 1 1 1 1 1 1 0.010063134777755618 1 1 1 0.010098553952467539 1 1 0.010391074817914153 1 1 1 1 1 1 0.0089829685568828081 1 1 1 1 1 1 1 1 1 1 1 1 0.0098967618731585667 0.0091047424655416355 1 1 1 1 1 0.0099547519532185557 1 1 1 1 1 0.0099593149832462435 0.009942626442275504 1 1 1 0.0098646443533842477 0.0099141102759681288 0.0099606979159232306 1 1 1 1 1 0.010013245727195249 1 1 0.0093792447898485426 1 1 0.010205565679232517 1 1 1 0.0096829424588765773 1 1 0.0090225116088097149 1 1 0.0099998773025624897 1 1 1 1 1 1 1 1 1 1 1 1 1 1 1 1 1 1 1 1 1 1 1 1 1 1 1 1 1 1 1 1 1 1 1 1 1 1 1 1 1 1 1 1 1 1 1 1 1 1 1 1 1 1 1 1 1 1 1 1 0.0099947395544927979 1 1 1 1 1 0.0097766186490306894 1 1 1 1 1 1 1 1 1 1 1 1 0.0094029750340654684 1 1 1 1 1 0.011267175406763186 1 1 1 0.0089542045089300252 1 0.0091166513854780383 1 1 0.0097189443544036073 1 1 1 1 1 1 1 1 1 1 1 1 1 1 1 1 1 1 1 1 1 1 1 1 0.0083152893852999309 1 0.0080086580299300984 1 1 0.010035944353615739 1 1 1 1 1 1 1 1 1 1 1 1 1 1 1 0.0098257806534561877 1 1 1 1 1 1 1 1 1 1 1 1 1 1 1 1 1 1 1 1 1 1 1 1 1 1 0.0092578151406172635 1 1 0.0089801235888455934 1 1 1 1 1 1 1 1 1 1 1 1 1 1 1 1 1 0.010302644696677908 0.0088088507396945556 1 1 1 0.0097741144717148794 1 1 1 1 1 1 1 1 1 0.00936974937640115 1 1 1 0.0096878151463669002 0.0099967867801562423 1 1 1 0.0097275825704516462 1 1 0.0098559230544668971 1 0.0097936753502384059 1 1 1 1 1 1 1 1 1 1 0.0087933253517377095 1 1 1 0.0099508384469984452 1 1 1 1 1 1 1 1 0.0095854967907865688 1 1 0.0099968997563817576 0.0099014306292197693 1 1 1 0.0099840073467368923 1 1 1 0.0100815569613348 1 1 0.0098554197963904733 1 1 0.010007015908101711 1 1 1 1 1 1 0.0099490702685687965 1 1 1 1 1 1 1 1 1 1 1 1 1 1 1 1 1 1 1 1 1 1 1 1 1 1 1 1 1 1 1 1 1 1 1 1 1 1 1 1 1 1 1 1 1 1 1 1 1 1 1 1 1 1 1 1 1 1 1 1 0.010262310929763579 0.0098598914156720723 1 1 1 1 1 1 1 1 1 1 1 1 1 1 1 1 1 1 1 1 1 1 1 1 1 1 0.009794919676799246 1 1 1 1 1 1 1 1 1 0.0099753036395645138 1 1 1 1 0.0099711910299567878 1 1 1 1 1 1 1 1 1 1 0.0099460625041356398 1 1 1 1 1 0.010163515325164931 1 0.01005546432308441 1 1 1 1 1 1 1 1 1 1 1 1 1 1 1 1 1 1 1 1 1 1 0.010267445795563207 1 0.010449309803057005 1 1 1 1 1 1 0.0088151701071187364 1 1 1 1 1 1 1 1 0.010489616879647298 1 1 0.0094509360589424499 1 1 1 1 0.01031151417638289 1 1 1 0.0099963096293012553 1 1 1 1 1 1 1 1 1 1 1 1 0.01022404339558429 1 0.0099987587625577946 1 1 1 1 1 1 1 1 1 1 1 1 0.010086930270378375 1 1 1 0.0090362741345139455 1 1 0.010000935940850726 1 0.0099483370646693062 1 1 1 1 1 1 0.0093361035732798126 1 1 1 1 1 1 1 1 1 1 1 1 1 1 1 1 1 1 1 0.009972705488734683 1 0.010067973374426931 1 1 1 1 1 1 0.010021236217917888 1 1 1 1 1 1 1 1 1 1 1 1 1 1 1 1 1 1 1 1 1 1 1 1 1 1 1 1 1 1 1 1 1 0.0099183496775433946 1 1 1 1 1 1 1 1 1 1 0.010117131261209887 1 1 1 0.010002629774726006 1 1 1 1 0.010152416116901188 1 0.0098681637818938961 1 1 1 1 0.010018401896193397 1 1 0.010000683928886466 1 1 1 1 1 1 1 1 1 1 1 1 1 1 1 1 1 1 1 1 1 1 1 1 1 1 1 1 0.010016522846784934 1 1 1 0.009686717305849489 1 1 1 0.0085671822122777783 1 1 0.0086000026721226187 1 1 1 1 1 1 1 1 1 0.0098846412624962465 1 1 1 1 1 0.0085583743143814797 0.0086677237308908483 1 1 1 1 1 1 1 1 0.010006604774362639 1 1 1 1 1 1 1 1 1 1 1 1 1 1 1 1 1 0.010266151192434625 1 1 0.010126806659241051 1 1 1 1 1 0.0099432006877062697 1 1 1 1 1 1 1 1 0.010251472843569942 1 1 1 0.010248729089894376 0.009543936602084177 1 1 0.0089082551262132173 1 1 1 1 1 1 1 1 0.009986907479235637 1 1 1 1 1 1 0.010616134208608907 1 1 1 1 1 0.0099920710923448834 1 1 1 1 1 1 0.010838013163476989 0.0099570806784070078 1 1 0.010776341775116048 1 1 0.0087539417446476434 1 
</DataArray>
</CellData>
</Piece>
</UnstructuredGrid>
</VTKFile>
